# vtk DataFile Version 3.0
vtk output
ASCII
DATASET UNSTRUCTURED_GRID
POINTS      5151 double 
  0.00000000E+00  0.00000000E+00  0.00000000E+00
  1.00000000E+01  0.00000000E+00  0.00000000E+00
  2.00000000E+01  0.00000000E+00  0.00000000E+00
  3.00000000E+01  0.00000000E+00  0.00000000E+00
  4.00000000E+01  0.00000000E+00  0.00000000E+00
  5.00000000E+01  0.00000000E+00  0.00000000E+00
  6.00000000E+01  0.00000000E+00  0.00000000E+00
  7.00000000E+01  0.00000000E+00  0.00000000E+00
  8.00000000E+01  0.00000000E+00  0.00000000E+00
  9.00000000E+01  0.00000000E+00  0.00000000E+00
  1.00000000E+02  0.00000000E+00  0.00000000E+00
  1.10000000E+02  0.00000000E+00  0.00000000E+00
  1.20000000E+02  0.00000000E+00  0.00000000E+00
  1.30000000E+02  0.00000000E+00  0.00000000E+00
  1.40000000E+02  0.00000000E+00  0.00000000E+00
  1.50000000E+02  0.00000000E+00  0.00000000E+00
  1.60000000E+02  0.00000000E+00  0.00000000E+00
  1.70000000E+02  0.00000000E+00  0.00000000E+00
  1.80000000E+02  0.00000000E+00  0.00000000E+00
  1.90000000E+02  0.00000000E+00  0.00000000E+00
  2.00000000E+02  0.00000000E+00  0.00000000E+00
  2.10000000E+02  0.00000000E+00  0.00000000E+00
  2.20000000E+02  0.00000000E+00  0.00000000E+00
  2.30000000E+02  0.00000000E+00  0.00000000E+00
  2.40000000E+02  0.00000000E+00  0.00000000E+00
  2.50000000E+02  0.00000000E+00  0.00000000E+00
  2.60000000E+02  0.00000000E+00  0.00000000E+00
  2.70000000E+02  0.00000000E+00  0.00000000E+00
  2.80000000E+02  0.00000000E+00  0.00000000E+00
  2.90000000E+02  0.00000000E+00  0.00000000E+00
  3.00000000E+02  0.00000000E+00  0.00000000E+00
  3.10000000E+02  0.00000000E+00  0.00000000E+00
  3.20000000E+02  0.00000000E+00  0.00000000E+00
  3.30000000E+02  0.00000000E+00  0.00000000E+00
  3.40000000E+02  0.00000000E+00  0.00000000E+00
  3.50000000E+02  0.00000000E+00  0.00000000E+00
  3.60000000E+02  0.00000000E+00  0.00000000E+00
  3.70000000E+02  0.00000000E+00  0.00000000E+00
  3.80000000E+02  0.00000000E+00  0.00000000E+00
  3.90000000E+02  0.00000000E+00  0.00000000E+00
  4.00000000E+02  0.00000000E+00  0.00000000E+00
  4.10000000E+02  0.00000000E+00  0.00000000E+00
  4.20000000E+02  0.00000000E+00  0.00000000E+00
  4.30000000E+02  0.00000000E+00  0.00000000E+00
  4.40000000E+02  0.00000000E+00  0.00000000E+00
  4.50000000E+02  0.00000000E+00  0.00000000E+00
  4.60000000E+02  0.00000000E+00  0.00000000E+00
  4.70000000E+02  0.00000000E+00  0.00000000E+00
  4.80000000E+02  0.00000000E+00  0.00000000E+00
  4.90000000E+02  0.00000000E+00  0.00000000E+00
  5.00000000E+02  0.00000000E+00  0.00000000E+00
  5.10000000E+02  0.00000000E+00  0.00000000E+00
  5.20000000E+02  0.00000000E+00  0.00000000E+00
  5.30000000E+02  0.00000000E+00  0.00000000E+00
  5.40000000E+02  0.00000000E+00  0.00000000E+00
  5.50000000E+02  0.00000000E+00  0.00000000E+00
  5.60000000E+02  0.00000000E+00  0.00000000E+00
  5.70000000E+02  0.00000000E+00  0.00000000E+00
  5.80000000E+02  0.00000000E+00  0.00000000E+00
  5.90000000E+02  0.00000000E+00  0.00000000E+00
  6.00000000E+02  0.00000000E+00  0.00000000E+00
  6.10000000E+02  0.00000000E+00  0.00000000E+00
  6.20000000E+02  0.00000000E+00  0.00000000E+00
  6.30000000E+02  0.00000000E+00  0.00000000E+00
  6.40000000E+02  0.00000000E+00  0.00000000E+00
  6.50000000E+02  0.00000000E+00  0.00000000E+00
  6.60000000E+02  0.00000000E+00  0.00000000E+00
  6.70000000E+02  0.00000000E+00  0.00000000E+00
  6.80000000E+02  0.00000000E+00  0.00000000E+00
  6.90000000E+02  0.00000000E+00  0.00000000E+00
  7.00000000E+02  0.00000000E+00  0.00000000E+00
  7.10000000E+02  0.00000000E+00  0.00000000E+00
  7.20000000E+02  0.00000000E+00  0.00000000E+00
  7.30000000E+02  0.00000000E+00  0.00000000E+00
  7.40000000E+02  0.00000000E+00  0.00000000E+00
  7.50000000E+02  0.00000000E+00  0.00000000E+00
  7.60000000E+02  0.00000000E+00  0.00000000E+00
  7.70000000E+02  0.00000000E+00  0.00000000E+00
  7.80000000E+02  0.00000000E+00  0.00000000E+00
  7.90000000E+02  0.00000000E+00  0.00000000E+00
  8.00000000E+02  0.00000000E+00  0.00000000E+00
  8.10000000E+02  0.00000000E+00  0.00000000E+00
  8.20000000E+02  0.00000000E+00  0.00000000E+00
  8.30000000E+02  0.00000000E+00  0.00000000E+00
  8.40000000E+02  0.00000000E+00  0.00000000E+00
  8.50000000E+02  0.00000000E+00  0.00000000E+00
  8.60000000E+02  0.00000000E+00  0.00000000E+00
  8.70000000E+02  0.00000000E+00  0.00000000E+00
  8.80000000E+02  0.00000000E+00  0.00000000E+00
  8.90000000E+02  0.00000000E+00  0.00000000E+00
  9.00000000E+02  0.00000000E+00  0.00000000E+00
  9.10000000E+02  0.00000000E+00  0.00000000E+00
  9.20000000E+02  0.00000000E+00  0.00000000E+00
  9.30000000E+02  0.00000000E+00  0.00000000E+00
  9.40000000E+02  0.00000000E+00  0.00000000E+00
  9.50000000E+02  0.00000000E+00  0.00000000E+00
  9.60000000E+02  0.00000000E+00  0.00000000E+00
  9.70000000E+02  0.00000000E+00  0.00000000E+00
  9.80000000E+02  0.00000000E+00  0.00000000E+00
  9.90000000E+02  0.00000000E+00  0.00000000E+00
  1.00000000E+03  0.00000000E+00  0.00000000E+00
  0.00000000E+00  2.00000000E+00  0.00000000E+00
  1.00000000E+01  2.00000000E+00  0.00000000E+00
  2.00000000E+01  2.00000000E+00  0.00000000E+00
  3.00000000E+01  2.00000000E+00  0.00000000E+00
  4.00000000E+01  2.00000000E+00  0.00000000E+00
  5.00000000E+01  2.00000000E+00  0.00000000E+00
  6.00000000E+01  2.00000000E+00  0.00000000E+00
  7.00000000E+01  2.00000000E+00  0.00000000E+00
  8.00000000E+01  2.00000000E+00  0.00000000E+00
  9.00000000E+01  2.00000000E+00  0.00000000E+00
  1.00000000E+02  2.00000000E+00  0.00000000E+00
  1.10000000E+02  2.00000000E+00  0.00000000E+00
  1.20000000E+02  2.00000000E+00  0.00000000E+00
  1.30000000E+02  2.00000000E+00  0.00000000E+00
  1.40000000E+02  2.00000000E+00  0.00000000E+00
  1.50000000E+02  2.00000000E+00  0.00000000E+00
  1.60000000E+02  2.00000000E+00  0.00000000E+00
  1.70000000E+02  2.00000000E+00  0.00000000E+00
  1.80000000E+02  2.00000000E+00  0.00000000E+00
  1.90000000E+02  2.00000000E+00  0.00000000E+00
  2.00000000E+02  2.00000000E+00  0.00000000E+00
  2.10000000E+02  2.00000000E+00  0.00000000E+00
  2.20000000E+02  2.00000000E+00  0.00000000E+00
  2.30000000E+02  2.00000000E+00  0.00000000E+00
  2.40000000E+02  2.00000000E+00  0.00000000E+00
  2.50000000E+02  2.00000000E+00  0.00000000E+00
  2.60000000E+02  2.00000000E+00  0.00000000E+00
  2.70000000E+02  2.00000000E+00  0.00000000E+00
  2.80000000E+02  2.00000000E+00  0.00000000E+00
  2.90000000E+02  2.00000000E+00  0.00000000E+00
  3.00000000E+02  2.00000000E+00  0.00000000E+00
  3.10000000E+02  2.00000000E+00  0.00000000E+00
  3.20000000E+02  2.00000000E+00  0.00000000E+00
  3.30000000E+02  2.00000000E+00  0.00000000E+00
  3.40000000E+02  2.00000000E+00  0.00000000E+00
  3.50000000E+02  2.00000000E+00  0.00000000E+00
  3.60000000E+02  2.00000000E+00  0.00000000E+00
  3.70000000E+02  2.00000000E+00  0.00000000E+00
  3.80000000E+02  2.00000000E+00  0.00000000E+00
  3.90000000E+02  2.00000000E+00  0.00000000E+00
  4.00000000E+02  2.00000000E+00  0.00000000E+00
  4.10000000E+02  2.00000000E+00  0.00000000E+00
  4.20000000E+02  2.00000000E+00  0.00000000E+00
  4.30000000E+02  2.00000000E+00  0.00000000E+00
  4.40000000E+02  2.00000000E+00  0.00000000E+00
  4.50000000E+02  2.00000000E+00  0.00000000E+00
  4.60000000E+02  2.00000000E+00  0.00000000E+00
  4.70000000E+02  2.00000000E+00  0.00000000E+00
  4.80000000E+02  2.00000000E+00  0.00000000E+00
  4.90000000E+02  2.00000000E+00  0.00000000E+00
  5.00000000E+02  2.00000000E+00  0.00000000E+00
  5.10000000E+02  2.00000000E+00  0.00000000E+00
  5.20000000E+02  2.00000000E+00  0.00000000E+00
  5.30000000E+02  2.00000000E+00  0.00000000E+00
  5.40000000E+02  2.00000000E+00  0.00000000E+00
  5.50000000E+02  2.00000000E+00  0.00000000E+00
  5.60000000E+02  2.00000000E+00  0.00000000E+00
  5.70000000E+02  2.00000000E+00  0.00000000E+00
  5.80000000E+02  2.00000000E+00  0.00000000E+00
  5.90000000E+02  2.00000000E+00  0.00000000E+00
  6.00000000E+02  2.00000000E+00  0.00000000E+00
  6.10000000E+02  2.00000000E+00  0.00000000E+00
  6.20000000E+02  2.00000000E+00  0.00000000E+00
  6.30000000E+02  2.00000000E+00  0.00000000E+00
  6.40000000E+02  2.00000000E+00  0.00000000E+00
  6.50000000E+02  2.00000000E+00  0.00000000E+00
  6.60000000E+02  2.00000000E+00  0.00000000E+00
  6.70000000E+02  2.00000000E+00  0.00000000E+00
  6.80000000E+02  2.00000000E+00  0.00000000E+00
  6.90000000E+02  2.00000000E+00  0.00000000E+00
  7.00000000E+02  2.00000000E+00  0.00000000E+00
  7.10000000E+02  2.00000000E+00  0.00000000E+00
  7.20000000E+02  2.00000000E+00  0.00000000E+00
  7.30000000E+02  2.00000000E+00  0.00000000E+00
  7.40000000E+02  2.00000000E+00  0.00000000E+00
  7.50000000E+02  2.00000000E+00  0.00000000E+00
  7.60000000E+02  2.00000000E+00  0.00000000E+00
  7.70000000E+02  2.00000000E+00  0.00000000E+00
  7.80000000E+02  2.00000000E+00  0.00000000E+00
  7.90000000E+02  2.00000000E+00  0.00000000E+00
  8.00000000E+02  2.00000000E+00  0.00000000E+00
  8.10000000E+02  2.00000000E+00  0.00000000E+00
  8.20000000E+02  2.00000000E+00  0.00000000E+00
  8.30000000E+02  2.00000000E+00  0.00000000E+00
  8.40000000E+02  2.00000000E+00  0.00000000E+00
  8.50000000E+02  2.00000000E+00  0.00000000E+00
  8.60000000E+02  2.00000000E+00  0.00000000E+00
  8.70000000E+02  2.00000000E+00  0.00000000E+00
  8.80000000E+02  2.00000000E+00  0.00000000E+00
  8.90000000E+02  2.00000000E+00  0.00000000E+00
  9.00000000E+02  2.00000000E+00  0.00000000E+00
  9.10000000E+02  2.00000000E+00  0.00000000E+00
  9.20000000E+02  2.00000000E+00  0.00000000E+00
  9.30000000E+02  2.00000000E+00  0.00000000E+00
  9.40000000E+02  2.00000000E+00  0.00000000E+00
  9.50000000E+02  2.00000000E+00  0.00000000E+00
  9.60000000E+02  2.00000000E+00  0.00000000E+00
  9.70000000E+02  2.00000000E+00  0.00000000E+00
  9.80000000E+02  2.00000000E+00  0.00000000E+00
  9.90000000E+02  2.00000000E+00  0.00000000E+00
  1.00000000E+03  2.00000000E+00  0.00000000E+00
  0.00000000E+00  4.00000000E+00  0.00000000E+00
  1.00000000E+01  4.00000000E+00  0.00000000E+00
  2.00000000E+01  4.00000000E+00  0.00000000E+00
  3.00000000E+01  4.00000000E+00  0.00000000E+00
  4.00000000E+01  4.00000000E+00  0.00000000E+00
  5.00000000E+01  4.00000000E+00  0.00000000E+00
  6.00000000E+01  4.00000000E+00  0.00000000E+00
  7.00000000E+01  4.00000000E+00  0.00000000E+00
  8.00000000E+01  4.00000000E+00  0.00000000E+00
  9.00000000E+01  4.00000000E+00  0.00000000E+00
  1.00000000E+02  4.00000000E+00  0.00000000E+00
  1.10000000E+02  4.00000000E+00  0.00000000E+00
  1.20000000E+02  4.00000000E+00  0.00000000E+00
  1.30000000E+02  4.00000000E+00  0.00000000E+00
  1.40000000E+02  4.00000000E+00  0.00000000E+00
  1.50000000E+02  4.00000000E+00  0.00000000E+00
  1.60000000E+02  4.00000000E+00  0.00000000E+00
  1.70000000E+02  4.00000000E+00  0.00000000E+00
  1.80000000E+02  4.00000000E+00  0.00000000E+00
  1.90000000E+02  4.00000000E+00  0.00000000E+00
  2.00000000E+02  4.00000000E+00  0.00000000E+00
  2.10000000E+02  4.00000000E+00  0.00000000E+00
  2.20000000E+02  4.00000000E+00  0.00000000E+00
  2.30000000E+02  4.00000000E+00  0.00000000E+00
  2.40000000E+02  4.00000000E+00  0.00000000E+00
  2.50000000E+02  4.00000000E+00  0.00000000E+00
  2.60000000E+02  4.00000000E+00  0.00000000E+00
  2.70000000E+02  4.00000000E+00  0.00000000E+00
  2.80000000E+02  4.00000000E+00  0.00000000E+00
  2.90000000E+02  4.00000000E+00  0.00000000E+00
  3.00000000E+02  4.00000000E+00  0.00000000E+00
  3.10000000E+02  4.00000000E+00  0.00000000E+00
  3.20000000E+02  4.00000000E+00  0.00000000E+00
  3.30000000E+02  4.00000000E+00  0.00000000E+00
  3.40000000E+02  4.00000000E+00  0.00000000E+00
  3.50000000E+02  4.00000000E+00  0.00000000E+00
  3.60000000E+02  4.00000000E+00  0.00000000E+00
  3.70000000E+02  4.00000000E+00  0.00000000E+00
  3.80000000E+02  4.00000000E+00  0.00000000E+00
  3.90000000E+02  4.00000000E+00  0.00000000E+00
  4.00000000E+02  4.00000000E+00  0.00000000E+00
  4.10000000E+02  4.00000000E+00  0.00000000E+00
  4.20000000E+02  4.00000000E+00  0.00000000E+00
  4.30000000E+02  4.00000000E+00  0.00000000E+00
  4.40000000E+02  4.00000000E+00  0.00000000E+00
  4.50000000E+02  4.00000000E+00  0.00000000E+00
  4.60000000E+02  4.00000000E+00  0.00000000E+00
  4.70000000E+02  4.00000000E+00  0.00000000E+00
  4.80000000E+02  4.00000000E+00  0.00000000E+00
  4.90000000E+02  4.00000000E+00  0.00000000E+00
  5.00000000E+02  4.00000000E+00  0.00000000E+00
  5.10000000E+02  4.00000000E+00  0.00000000E+00
  5.20000000E+02  4.00000000E+00  0.00000000E+00
  5.30000000E+02  4.00000000E+00  0.00000000E+00
  5.40000000E+02  4.00000000E+00  0.00000000E+00
  5.50000000E+02  4.00000000E+00  0.00000000E+00
  5.60000000E+02  4.00000000E+00  0.00000000E+00
  5.70000000E+02  4.00000000E+00  0.00000000E+00
  5.80000000E+02  4.00000000E+00  0.00000000E+00
  5.90000000E+02  4.00000000E+00  0.00000000E+00
  6.00000000E+02  4.00000000E+00  0.00000000E+00
  6.10000000E+02  4.00000000E+00  0.00000000E+00
  6.20000000E+02  4.00000000E+00  0.00000000E+00
  6.30000000E+02  4.00000000E+00  0.00000000E+00
  6.40000000E+02  4.00000000E+00  0.00000000E+00
  6.50000000E+02  4.00000000E+00  0.00000000E+00
  6.60000000E+02  4.00000000E+00  0.00000000E+00
  6.70000000E+02  4.00000000E+00  0.00000000E+00
  6.80000000E+02  4.00000000E+00  0.00000000E+00
  6.90000000E+02  4.00000000E+00  0.00000000E+00
  7.00000000E+02  4.00000000E+00  0.00000000E+00
  7.10000000E+02  4.00000000E+00  0.00000000E+00
  7.20000000E+02  4.00000000E+00  0.00000000E+00
  7.30000000E+02  4.00000000E+00  0.00000000E+00
  7.40000000E+02  4.00000000E+00  0.00000000E+00
  7.50000000E+02  4.00000000E+00  0.00000000E+00
  7.60000000E+02  4.00000000E+00  0.00000000E+00
  7.70000000E+02  4.00000000E+00  0.00000000E+00
  7.80000000E+02  4.00000000E+00  0.00000000E+00
  7.90000000E+02  4.00000000E+00  0.00000000E+00
  8.00000000E+02  4.00000000E+00  0.00000000E+00
  8.10000000E+02  4.00000000E+00  0.00000000E+00
  8.20000000E+02  4.00000000E+00  0.00000000E+00
  8.30000000E+02  4.00000000E+00  0.00000000E+00
  8.40000000E+02  4.00000000E+00  0.00000000E+00
  8.50000000E+02  4.00000000E+00  0.00000000E+00
  8.60000000E+02  4.00000000E+00  0.00000000E+00
  8.70000000E+02  4.00000000E+00  0.00000000E+00
  8.80000000E+02  4.00000000E+00  0.00000000E+00
  8.90000000E+02  4.00000000E+00  0.00000000E+00
  9.00000000E+02  4.00000000E+00  0.00000000E+00
  9.10000000E+02  4.00000000E+00  0.00000000E+00
  9.20000000E+02  4.00000000E+00  0.00000000E+00
  9.30000000E+02  4.00000000E+00  0.00000000E+00
  9.40000000E+02  4.00000000E+00  0.00000000E+00
  9.50000000E+02  4.00000000E+00  0.00000000E+00
  9.60000000E+02  4.00000000E+00  0.00000000E+00
  9.70000000E+02  4.00000000E+00  0.00000000E+00
  9.80000000E+02  4.00000000E+00  0.00000000E+00
  9.90000000E+02  4.00000000E+00  0.00000000E+00
  1.00000000E+03  4.00000000E+00  0.00000000E+00
  0.00000000E+00  6.00000000E+00  0.00000000E+00
  1.00000000E+01  6.00000000E+00  0.00000000E+00
  2.00000000E+01  6.00000000E+00  0.00000000E+00
  3.00000000E+01  6.00000000E+00  0.00000000E+00
  4.00000000E+01  6.00000000E+00  0.00000000E+00
  5.00000000E+01  6.00000000E+00  0.00000000E+00
  6.00000000E+01  6.00000000E+00  0.00000000E+00
  7.00000000E+01  6.00000000E+00  0.00000000E+00
  8.00000000E+01  6.00000000E+00  0.00000000E+00
  9.00000000E+01  6.00000000E+00  0.00000000E+00
  1.00000000E+02  6.00000000E+00  0.00000000E+00
  1.10000000E+02  6.00000000E+00  0.00000000E+00
  1.20000000E+02  6.00000000E+00  0.00000000E+00
  1.30000000E+02  6.00000000E+00  0.00000000E+00
  1.40000000E+02  6.00000000E+00  0.00000000E+00
  1.50000000E+02  6.00000000E+00  0.00000000E+00
  1.60000000E+02  6.00000000E+00  0.00000000E+00
  1.70000000E+02  6.00000000E+00  0.00000000E+00
  1.80000000E+02  6.00000000E+00  0.00000000E+00
  1.90000000E+02  6.00000000E+00  0.00000000E+00
  2.00000000E+02  6.00000000E+00  0.00000000E+00
  2.10000000E+02  6.00000000E+00  0.00000000E+00
  2.20000000E+02  6.00000000E+00  0.00000000E+00
  2.30000000E+02  6.00000000E+00  0.00000000E+00
  2.40000000E+02  6.00000000E+00  0.00000000E+00
  2.50000000E+02  6.00000000E+00  0.00000000E+00
  2.60000000E+02  6.00000000E+00  0.00000000E+00
  2.70000000E+02  6.00000000E+00  0.00000000E+00
  2.80000000E+02  6.00000000E+00  0.00000000E+00
  2.90000000E+02  6.00000000E+00  0.00000000E+00
  3.00000000E+02  6.00000000E+00  0.00000000E+00
  3.10000000E+02  6.00000000E+00  0.00000000E+00
  3.20000000E+02  6.00000000E+00  0.00000000E+00
  3.30000000E+02  6.00000000E+00  0.00000000E+00
  3.40000000E+02  6.00000000E+00  0.00000000E+00
  3.50000000E+02  6.00000000E+00  0.00000000E+00
  3.60000000E+02  6.00000000E+00  0.00000000E+00
  3.70000000E+02  6.00000000E+00  0.00000000E+00
  3.80000000E+02  6.00000000E+00  0.00000000E+00
  3.90000000E+02  6.00000000E+00  0.00000000E+00
  4.00000000E+02  6.00000000E+00  0.00000000E+00
  4.10000000E+02  6.00000000E+00  0.00000000E+00
  4.20000000E+02  6.00000000E+00  0.00000000E+00
  4.30000000E+02  6.00000000E+00  0.00000000E+00
  4.40000000E+02  6.00000000E+00  0.00000000E+00
  4.50000000E+02  6.00000000E+00  0.00000000E+00
  4.60000000E+02  6.00000000E+00  0.00000000E+00
  4.70000000E+02  6.00000000E+00  0.00000000E+00
  4.80000000E+02  6.00000000E+00  0.00000000E+00
  4.90000000E+02  6.00000000E+00  0.00000000E+00
  5.00000000E+02  6.00000000E+00  0.00000000E+00
  5.10000000E+02  6.00000000E+00  0.00000000E+00
  5.20000000E+02  6.00000000E+00  0.00000000E+00
  5.30000000E+02  6.00000000E+00  0.00000000E+00
  5.40000000E+02  6.00000000E+00  0.00000000E+00
  5.50000000E+02  6.00000000E+00  0.00000000E+00
  5.60000000E+02  6.00000000E+00  0.00000000E+00
  5.70000000E+02  6.00000000E+00  0.00000000E+00
  5.80000000E+02  6.00000000E+00  0.00000000E+00
  5.90000000E+02  6.00000000E+00  0.00000000E+00
  6.00000000E+02  6.00000000E+00  0.00000000E+00
  6.10000000E+02  6.00000000E+00  0.00000000E+00
  6.20000000E+02  6.00000000E+00  0.00000000E+00
  6.30000000E+02  6.00000000E+00  0.00000000E+00
  6.40000000E+02  6.00000000E+00  0.00000000E+00
  6.50000000E+02  6.00000000E+00  0.00000000E+00
  6.60000000E+02  6.00000000E+00  0.00000000E+00
  6.70000000E+02  6.00000000E+00  0.00000000E+00
  6.80000000E+02  6.00000000E+00  0.00000000E+00
  6.90000000E+02  6.00000000E+00  0.00000000E+00
  7.00000000E+02  6.00000000E+00  0.00000000E+00
  7.10000000E+02  6.00000000E+00  0.00000000E+00
  7.20000000E+02  6.00000000E+00  0.00000000E+00
  7.30000000E+02  6.00000000E+00  0.00000000E+00
  7.40000000E+02  6.00000000E+00  0.00000000E+00
  7.50000000E+02  6.00000000E+00  0.00000000E+00
  7.60000000E+02  6.00000000E+00  0.00000000E+00
  7.70000000E+02  6.00000000E+00  0.00000000E+00
  7.80000000E+02  6.00000000E+00  0.00000000E+00
  7.90000000E+02  6.00000000E+00  0.00000000E+00
  8.00000000E+02  6.00000000E+00  0.00000000E+00
  8.10000000E+02  6.00000000E+00  0.00000000E+00
  8.20000000E+02  6.00000000E+00  0.00000000E+00
  8.30000000E+02  6.00000000E+00  0.00000000E+00
  8.40000000E+02  6.00000000E+00  0.00000000E+00
  8.50000000E+02  6.00000000E+00  0.00000000E+00
  8.60000000E+02  6.00000000E+00  0.00000000E+00
  8.70000000E+02  6.00000000E+00  0.00000000E+00
  8.80000000E+02  6.00000000E+00  0.00000000E+00
  8.90000000E+02  6.00000000E+00  0.00000000E+00
  9.00000000E+02  6.00000000E+00  0.00000000E+00
  9.10000000E+02  6.00000000E+00  0.00000000E+00
  9.20000000E+02  6.00000000E+00  0.00000000E+00
  9.30000000E+02  6.00000000E+00  0.00000000E+00
  9.40000000E+02  6.00000000E+00  0.00000000E+00
  9.50000000E+02  6.00000000E+00  0.00000000E+00
  9.60000000E+02  6.00000000E+00  0.00000000E+00
  9.70000000E+02  6.00000000E+00  0.00000000E+00
  9.80000000E+02  6.00000000E+00  0.00000000E+00
  9.90000000E+02  6.00000000E+00  0.00000000E+00
  1.00000000E+03  6.00000000E+00  0.00000000E+00
  0.00000000E+00  8.00000000E+00  0.00000000E+00
  1.00000000E+01  8.00000000E+00  0.00000000E+00
  2.00000000E+01  8.00000000E+00  0.00000000E+00
  3.00000000E+01  8.00000000E+00  0.00000000E+00
  4.00000000E+01  8.00000000E+00  0.00000000E+00
  5.00000000E+01  8.00000000E+00  0.00000000E+00
  6.00000000E+01  8.00000000E+00  0.00000000E+00
  7.00000000E+01  8.00000000E+00  0.00000000E+00
  8.00000000E+01  8.00000000E+00  0.00000000E+00
  9.00000000E+01  8.00000000E+00  0.00000000E+00
  1.00000000E+02  8.00000000E+00  0.00000000E+00
  1.10000000E+02  8.00000000E+00  0.00000000E+00
  1.20000000E+02  8.00000000E+00  0.00000000E+00
  1.30000000E+02  8.00000000E+00  0.00000000E+00
  1.40000000E+02  8.00000000E+00  0.00000000E+00
  1.50000000E+02  8.00000000E+00  0.00000000E+00
  1.60000000E+02  8.00000000E+00  0.00000000E+00
  1.70000000E+02  8.00000000E+00  0.00000000E+00
  1.80000000E+02  8.00000000E+00  0.00000000E+00
  1.90000000E+02  8.00000000E+00  0.00000000E+00
  2.00000000E+02  8.00000000E+00  0.00000000E+00
  2.10000000E+02  8.00000000E+00  0.00000000E+00
  2.20000000E+02  8.00000000E+00  0.00000000E+00
  2.30000000E+02  8.00000000E+00  0.00000000E+00
  2.40000000E+02  8.00000000E+00  0.00000000E+00
  2.50000000E+02  8.00000000E+00  0.00000000E+00
  2.60000000E+02  8.00000000E+00  0.00000000E+00
  2.70000000E+02  8.00000000E+00  0.00000000E+00
  2.80000000E+02  8.00000000E+00  0.00000000E+00
  2.90000000E+02  8.00000000E+00  0.00000000E+00
  3.00000000E+02  8.00000000E+00  0.00000000E+00
  3.10000000E+02  8.00000000E+00  0.00000000E+00
  3.20000000E+02  8.00000000E+00  0.00000000E+00
  3.30000000E+02  8.00000000E+00  0.00000000E+00
  3.40000000E+02  8.00000000E+00  0.00000000E+00
  3.50000000E+02  8.00000000E+00  0.00000000E+00
  3.60000000E+02  8.00000000E+00  0.00000000E+00
  3.70000000E+02  8.00000000E+00  0.00000000E+00
  3.80000000E+02  8.00000000E+00  0.00000000E+00
  3.90000000E+02  8.00000000E+00  0.00000000E+00
  4.00000000E+02  8.00000000E+00  0.00000000E+00
  4.10000000E+02  8.00000000E+00  0.00000000E+00
  4.20000000E+02  8.00000000E+00  0.00000000E+00
  4.30000000E+02  8.00000000E+00  0.00000000E+00
  4.40000000E+02  8.00000000E+00  0.00000000E+00
  4.50000000E+02  8.00000000E+00  0.00000000E+00
  4.60000000E+02  8.00000000E+00  0.00000000E+00
  4.70000000E+02  8.00000000E+00  0.00000000E+00
  4.80000000E+02  8.00000000E+00  0.00000000E+00
  4.90000000E+02  8.00000000E+00  0.00000000E+00
  5.00000000E+02  8.00000000E+00  0.00000000E+00
  5.10000000E+02  8.00000000E+00  0.00000000E+00
  5.20000000E+02  8.00000000E+00  0.00000000E+00
  5.30000000E+02  8.00000000E+00  0.00000000E+00
  5.40000000E+02  8.00000000E+00  0.00000000E+00
  5.50000000E+02  8.00000000E+00  0.00000000E+00
  5.60000000E+02  8.00000000E+00  0.00000000E+00
  5.70000000E+02  8.00000000E+00  0.00000000E+00
  5.80000000E+02  8.00000000E+00  0.00000000E+00
  5.90000000E+02  8.00000000E+00  0.00000000E+00
  6.00000000E+02  8.00000000E+00  0.00000000E+00
  6.10000000E+02  8.00000000E+00  0.00000000E+00
  6.20000000E+02  8.00000000E+00  0.00000000E+00
  6.30000000E+02  8.00000000E+00  0.00000000E+00
  6.40000000E+02  8.00000000E+00  0.00000000E+00
  6.50000000E+02  8.00000000E+00  0.00000000E+00
  6.60000000E+02  8.00000000E+00  0.00000000E+00
  6.70000000E+02  8.00000000E+00  0.00000000E+00
  6.80000000E+02  8.00000000E+00  0.00000000E+00
  6.90000000E+02  8.00000000E+00  0.00000000E+00
  7.00000000E+02  8.00000000E+00  0.00000000E+00
  7.10000000E+02  8.00000000E+00  0.00000000E+00
  7.20000000E+02  8.00000000E+00  0.00000000E+00
  7.30000000E+02  8.00000000E+00  0.00000000E+00
  7.40000000E+02  8.00000000E+00  0.00000000E+00
  7.50000000E+02  8.00000000E+00  0.00000000E+00
  7.60000000E+02  8.00000000E+00  0.00000000E+00
  7.70000000E+02  8.00000000E+00  0.00000000E+00
  7.80000000E+02  8.00000000E+00  0.00000000E+00
  7.90000000E+02  8.00000000E+00  0.00000000E+00
  8.00000000E+02  8.00000000E+00  0.00000000E+00
  8.10000000E+02  8.00000000E+00  0.00000000E+00
  8.20000000E+02  8.00000000E+00  0.00000000E+00
  8.30000000E+02  8.00000000E+00  0.00000000E+00
  8.40000000E+02  8.00000000E+00  0.00000000E+00
  8.50000000E+02  8.00000000E+00  0.00000000E+00
  8.60000000E+02  8.00000000E+00  0.00000000E+00
  8.70000000E+02  8.00000000E+00  0.00000000E+00
  8.80000000E+02  8.00000000E+00  0.00000000E+00
  8.90000000E+02  8.00000000E+00  0.00000000E+00
  9.00000000E+02  8.00000000E+00  0.00000000E+00
  9.10000000E+02  8.00000000E+00  0.00000000E+00
  9.20000000E+02  8.00000000E+00  0.00000000E+00
  9.30000000E+02  8.00000000E+00  0.00000000E+00
  9.40000000E+02  8.00000000E+00  0.00000000E+00
  9.50000000E+02  8.00000000E+00  0.00000000E+00
  9.60000000E+02  8.00000000E+00  0.00000000E+00
  9.70000000E+02  8.00000000E+00  0.00000000E+00
  9.80000000E+02  8.00000000E+00  0.00000000E+00
  9.90000000E+02  8.00000000E+00  0.00000000E+00
  1.00000000E+03  8.00000000E+00  0.00000000E+00
  0.00000000E+00  1.00000000E+01  0.00000000E+00
  1.00000000E+01  1.00000000E+01  0.00000000E+00
  2.00000000E+01  1.00000000E+01  0.00000000E+00
  3.00000000E+01  1.00000000E+01  0.00000000E+00
  4.00000000E+01  1.00000000E+01  0.00000000E+00
  5.00000000E+01  1.00000000E+01  0.00000000E+00
  6.00000000E+01  1.00000000E+01  0.00000000E+00
  7.00000000E+01  1.00000000E+01  0.00000000E+00
  8.00000000E+01  1.00000000E+01  0.00000000E+00
  9.00000000E+01  1.00000000E+01  0.00000000E+00
  1.00000000E+02  1.00000000E+01  0.00000000E+00
  1.10000000E+02  1.00000000E+01  0.00000000E+00
  1.20000000E+02  1.00000000E+01  0.00000000E+00
  1.30000000E+02  1.00000000E+01  0.00000000E+00
  1.40000000E+02  1.00000000E+01  0.00000000E+00
  1.50000000E+02  1.00000000E+01  0.00000000E+00
  1.60000000E+02  1.00000000E+01  0.00000000E+00
  1.70000000E+02  1.00000000E+01  0.00000000E+00
  1.80000000E+02  1.00000000E+01  0.00000000E+00
  1.90000000E+02  1.00000000E+01  0.00000000E+00
  2.00000000E+02  1.00000000E+01  0.00000000E+00
  2.10000000E+02  1.00000000E+01  0.00000000E+00
  2.20000000E+02  1.00000000E+01  0.00000000E+00
  2.30000000E+02  1.00000000E+01  0.00000000E+00
  2.40000000E+02  1.00000000E+01  0.00000000E+00
  2.50000000E+02  1.00000000E+01  0.00000000E+00
  2.60000000E+02  1.00000000E+01  0.00000000E+00
  2.70000000E+02  1.00000000E+01  0.00000000E+00
  2.80000000E+02  1.00000000E+01  0.00000000E+00
  2.90000000E+02  1.00000000E+01  0.00000000E+00
  3.00000000E+02  1.00000000E+01  0.00000000E+00
  3.10000000E+02  1.00000000E+01  0.00000000E+00
  3.20000000E+02  1.00000000E+01  0.00000000E+00
  3.30000000E+02  1.00000000E+01  0.00000000E+00
  3.40000000E+02  1.00000000E+01  0.00000000E+00
  3.50000000E+02  1.00000000E+01  0.00000000E+00
  3.60000000E+02  1.00000000E+01  0.00000000E+00
  3.70000000E+02  1.00000000E+01  0.00000000E+00
  3.80000000E+02  1.00000000E+01  0.00000000E+00
  3.90000000E+02  1.00000000E+01  0.00000000E+00
  4.00000000E+02  1.00000000E+01  0.00000000E+00
  4.10000000E+02  1.00000000E+01  0.00000000E+00
  4.20000000E+02  1.00000000E+01  0.00000000E+00
  4.30000000E+02  1.00000000E+01  0.00000000E+00
  4.40000000E+02  1.00000000E+01  0.00000000E+00
  4.50000000E+02  1.00000000E+01  0.00000000E+00
  4.60000000E+02  1.00000000E+01  0.00000000E+00
  4.70000000E+02  1.00000000E+01  0.00000000E+00
  4.80000000E+02  1.00000000E+01  0.00000000E+00
  4.90000000E+02  1.00000000E+01  0.00000000E+00
  5.00000000E+02  1.00000000E+01  0.00000000E+00
  5.10000000E+02  1.00000000E+01  0.00000000E+00
  5.20000000E+02  1.00000000E+01  0.00000000E+00
  5.30000000E+02  1.00000000E+01  0.00000000E+00
  5.40000000E+02  1.00000000E+01  0.00000000E+00
  5.50000000E+02  1.00000000E+01  0.00000000E+00
  5.60000000E+02  1.00000000E+01  0.00000000E+00
  5.70000000E+02  1.00000000E+01  0.00000000E+00
  5.80000000E+02  1.00000000E+01  0.00000000E+00
  5.90000000E+02  1.00000000E+01  0.00000000E+00
  6.00000000E+02  1.00000000E+01  0.00000000E+00
  6.10000000E+02  1.00000000E+01  0.00000000E+00
  6.20000000E+02  1.00000000E+01  0.00000000E+00
  6.30000000E+02  1.00000000E+01  0.00000000E+00
  6.40000000E+02  1.00000000E+01  0.00000000E+00
  6.50000000E+02  1.00000000E+01  0.00000000E+00
  6.60000000E+02  1.00000000E+01  0.00000000E+00
  6.70000000E+02  1.00000000E+01  0.00000000E+00
  6.80000000E+02  1.00000000E+01  0.00000000E+00
  6.90000000E+02  1.00000000E+01  0.00000000E+00
  7.00000000E+02  1.00000000E+01  0.00000000E+00
  7.10000000E+02  1.00000000E+01  0.00000000E+00
  7.20000000E+02  1.00000000E+01  0.00000000E+00
  7.30000000E+02  1.00000000E+01  0.00000000E+00
  7.40000000E+02  1.00000000E+01  0.00000000E+00
  7.50000000E+02  1.00000000E+01  0.00000000E+00
  7.60000000E+02  1.00000000E+01  0.00000000E+00
  7.70000000E+02  1.00000000E+01  0.00000000E+00
  7.80000000E+02  1.00000000E+01  0.00000000E+00
  7.90000000E+02  1.00000000E+01  0.00000000E+00
  8.00000000E+02  1.00000000E+01  0.00000000E+00
  8.10000000E+02  1.00000000E+01  0.00000000E+00
  8.20000000E+02  1.00000000E+01  0.00000000E+00
  8.30000000E+02  1.00000000E+01  0.00000000E+00
  8.40000000E+02  1.00000000E+01  0.00000000E+00
  8.50000000E+02  1.00000000E+01  0.00000000E+00
  8.60000000E+02  1.00000000E+01  0.00000000E+00
  8.70000000E+02  1.00000000E+01  0.00000000E+00
  8.80000000E+02  1.00000000E+01  0.00000000E+00
  8.90000000E+02  1.00000000E+01  0.00000000E+00
  9.00000000E+02  1.00000000E+01  0.00000000E+00
  9.10000000E+02  1.00000000E+01  0.00000000E+00
  9.20000000E+02  1.00000000E+01  0.00000000E+00
  9.30000000E+02  1.00000000E+01  0.00000000E+00
  9.40000000E+02  1.00000000E+01  0.00000000E+00
  9.50000000E+02  1.00000000E+01  0.00000000E+00
  9.60000000E+02  1.00000000E+01  0.00000000E+00
  9.70000000E+02  1.00000000E+01  0.00000000E+00
  9.80000000E+02  1.00000000E+01  0.00000000E+00
  9.90000000E+02  1.00000000E+01  0.00000000E+00
  1.00000000E+03  1.00000000E+01  0.00000000E+00
  0.00000000E+00  1.20000000E+01  0.00000000E+00
  1.00000000E+01  1.20000000E+01  0.00000000E+00
  2.00000000E+01  1.20000000E+01  0.00000000E+00
  3.00000000E+01  1.20000000E+01  0.00000000E+00
  4.00000000E+01  1.20000000E+01  0.00000000E+00
  5.00000000E+01  1.20000000E+01  0.00000000E+00
  6.00000000E+01  1.20000000E+01  0.00000000E+00
  7.00000000E+01  1.20000000E+01  0.00000000E+00
  8.00000000E+01  1.20000000E+01  0.00000000E+00
  9.00000000E+01  1.20000000E+01  0.00000000E+00
  1.00000000E+02  1.20000000E+01  0.00000000E+00
  1.10000000E+02  1.20000000E+01  0.00000000E+00
  1.20000000E+02  1.20000000E+01  0.00000000E+00
  1.30000000E+02  1.20000000E+01  0.00000000E+00
  1.40000000E+02  1.20000000E+01  0.00000000E+00
  1.50000000E+02  1.20000000E+01  0.00000000E+00
  1.60000000E+02  1.20000000E+01  0.00000000E+00
  1.70000000E+02  1.20000000E+01  0.00000000E+00
  1.80000000E+02  1.20000000E+01  0.00000000E+00
  1.90000000E+02  1.20000000E+01  0.00000000E+00
  2.00000000E+02  1.20000000E+01  0.00000000E+00
  2.10000000E+02  1.20000000E+01  0.00000000E+00
  2.20000000E+02  1.20000000E+01  0.00000000E+00
  2.30000000E+02  1.20000000E+01  0.00000000E+00
  2.40000000E+02  1.20000000E+01  0.00000000E+00
  2.50000000E+02  1.20000000E+01  0.00000000E+00
  2.60000000E+02  1.20000000E+01  0.00000000E+00
  2.70000000E+02  1.20000000E+01  0.00000000E+00
  2.80000000E+02  1.20000000E+01  0.00000000E+00
  2.90000000E+02  1.20000000E+01  0.00000000E+00
  3.00000000E+02  1.20000000E+01  0.00000000E+00
  3.10000000E+02  1.20000000E+01  0.00000000E+00
  3.20000000E+02  1.20000000E+01  0.00000000E+00
  3.30000000E+02  1.20000000E+01  0.00000000E+00
  3.40000000E+02  1.20000000E+01  0.00000000E+00
  3.50000000E+02  1.20000000E+01  0.00000000E+00
  3.60000000E+02  1.20000000E+01  0.00000000E+00
  3.70000000E+02  1.20000000E+01  0.00000000E+00
  3.80000000E+02  1.20000000E+01  0.00000000E+00
  3.90000000E+02  1.20000000E+01  0.00000000E+00
  4.00000000E+02  1.20000000E+01  0.00000000E+00
  4.10000000E+02  1.20000000E+01  0.00000000E+00
  4.20000000E+02  1.20000000E+01  0.00000000E+00
  4.30000000E+02  1.20000000E+01  0.00000000E+00
  4.40000000E+02  1.20000000E+01  0.00000000E+00
  4.50000000E+02  1.20000000E+01  0.00000000E+00
  4.60000000E+02  1.20000000E+01  0.00000000E+00
  4.70000000E+02  1.20000000E+01  0.00000000E+00
  4.80000000E+02  1.20000000E+01  0.00000000E+00
  4.90000000E+02  1.20000000E+01  0.00000000E+00
  5.00000000E+02  1.20000000E+01  0.00000000E+00
  5.10000000E+02  1.20000000E+01  0.00000000E+00
  5.20000000E+02  1.20000000E+01  0.00000000E+00
  5.30000000E+02  1.20000000E+01  0.00000000E+00
  5.40000000E+02  1.20000000E+01  0.00000000E+00
  5.50000000E+02  1.20000000E+01  0.00000000E+00
  5.60000000E+02  1.20000000E+01  0.00000000E+00
  5.70000000E+02  1.20000000E+01  0.00000000E+00
  5.80000000E+02  1.20000000E+01  0.00000000E+00
  5.90000000E+02  1.20000000E+01  0.00000000E+00
  6.00000000E+02  1.20000000E+01  0.00000000E+00
  6.10000000E+02  1.20000000E+01  0.00000000E+00
  6.20000000E+02  1.20000000E+01  0.00000000E+00
  6.30000000E+02  1.20000000E+01  0.00000000E+00
  6.40000000E+02  1.20000000E+01  0.00000000E+00
  6.50000000E+02  1.20000000E+01  0.00000000E+00
  6.60000000E+02  1.20000000E+01  0.00000000E+00
  6.70000000E+02  1.20000000E+01  0.00000000E+00
  6.80000000E+02  1.20000000E+01  0.00000000E+00
  6.90000000E+02  1.20000000E+01  0.00000000E+00
  7.00000000E+02  1.20000000E+01  0.00000000E+00
  7.10000000E+02  1.20000000E+01  0.00000000E+00
  7.20000000E+02  1.20000000E+01  0.00000000E+00
  7.30000000E+02  1.20000000E+01  0.00000000E+00
  7.40000000E+02  1.20000000E+01  0.00000000E+00
  7.50000000E+02  1.20000000E+01  0.00000000E+00
  7.60000000E+02  1.20000000E+01  0.00000000E+00
  7.70000000E+02  1.20000000E+01  0.00000000E+00
  7.80000000E+02  1.20000000E+01  0.00000000E+00
  7.90000000E+02  1.20000000E+01  0.00000000E+00
  8.00000000E+02  1.20000000E+01  0.00000000E+00
  8.10000000E+02  1.20000000E+01  0.00000000E+00
  8.20000000E+02  1.20000000E+01  0.00000000E+00
  8.30000000E+02  1.20000000E+01  0.00000000E+00
  8.40000000E+02  1.20000000E+01  0.00000000E+00
  8.50000000E+02  1.20000000E+01  0.00000000E+00
  8.60000000E+02  1.20000000E+01  0.00000000E+00
  8.70000000E+02  1.20000000E+01  0.00000000E+00
  8.80000000E+02  1.20000000E+01  0.00000000E+00
  8.90000000E+02  1.20000000E+01  0.00000000E+00
  9.00000000E+02  1.20000000E+01  0.00000000E+00
  9.10000000E+02  1.20000000E+01  0.00000000E+00
  9.20000000E+02  1.20000000E+01  0.00000000E+00
  9.30000000E+02  1.20000000E+01  0.00000000E+00
  9.40000000E+02  1.20000000E+01  0.00000000E+00
  9.50000000E+02  1.20000000E+01  0.00000000E+00
  9.60000000E+02  1.20000000E+01  0.00000000E+00
  9.70000000E+02  1.20000000E+01  0.00000000E+00
  9.80000000E+02  1.20000000E+01  0.00000000E+00
  9.90000000E+02  1.20000000E+01  0.00000000E+00
  1.00000000E+03  1.20000000E+01  0.00000000E+00
  0.00000000E+00  1.40000000E+01  0.00000000E+00
  1.00000000E+01  1.40000000E+01  0.00000000E+00
  2.00000000E+01  1.40000000E+01  0.00000000E+00
  3.00000000E+01  1.40000000E+01  0.00000000E+00
  4.00000000E+01  1.40000000E+01  0.00000000E+00
  5.00000000E+01  1.40000000E+01  0.00000000E+00
  6.00000000E+01  1.40000000E+01  0.00000000E+00
  7.00000000E+01  1.40000000E+01  0.00000000E+00
  8.00000000E+01  1.40000000E+01  0.00000000E+00
  9.00000000E+01  1.40000000E+01  0.00000000E+00
  1.00000000E+02  1.40000000E+01  0.00000000E+00
  1.10000000E+02  1.40000000E+01  0.00000000E+00
  1.20000000E+02  1.40000000E+01  0.00000000E+00
  1.30000000E+02  1.40000000E+01  0.00000000E+00
  1.40000000E+02  1.40000000E+01  0.00000000E+00
  1.50000000E+02  1.40000000E+01  0.00000000E+00
  1.60000000E+02  1.40000000E+01  0.00000000E+00
  1.70000000E+02  1.40000000E+01  0.00000000E+00
  1.80000000E+02  1.40000000E+01  0.00000000E+00
  1.90000000E+02  1.40000000E+01  0.00000000E+00
  2.00000000E+02  1.40000000E+01  0.00000000E+00
  2.10000000E+02  1.40000000E+01  0.00000000E+00
  2.20000000E+02  1.40000000E+01  0.00000000E+00
  2.30000000E+02  1.40000000E+01  0.00000000E+00
  2.40000000E+02  1.40000000E+01  0.00000000E+00
  2.50000000E+02  1.40000000E+01  0.00000000E+00
  2.60000000E+02  1.40000000E+01  0.00000000E+00
  2.70000000E+02  1.40000000E+01  0.00000000E+00
  2.80000000E+02  1.40000000E+01  0.00000000E+00
  2.90000000E+02  1.40000000E+01  0.00000000E+00
  3.00000000E+02  1.40000000E+01  0.00000000E+00
  3.10000000E+02  1.40000000E+01  0.00000000E+00
  3.20000000E+02  1.40000000E+01  0.00000000E+00
  3.30000000E+02  1.40000000E+01  0.00000000E+00
  3.40000000E+02  1.40000000E+01  0.00000000E+00
  3.50000000E+02  1.40000000E+01  0.00000000E+00
  3.60000000E+02  1.40000000E+01  0.00000000E+00
  3.70000000E+02  1.40000000E+01  0.00000000E+00
  3.80000000E+02  1.40000000E+01  0.00000000E+00
  3.90000000E+02  1.40000000E+01  0.00000000E+00
  4.00000000E+02  1.40000000E+01  0.00000000E+00
  4.10000000E+02  1.40000000E+01  0.00000000E+00
  4.20000000E+02  1.40000000E+01  0.00000000E+00
  4.30000000E+02  1.40000000E+01  0.00000000E+00
  4.40000000E+02  1.40000000E+01  0.00000000E+00
  4.50000000E+02  1.40000000E+01  0.00000000E+00
  4.60000000E+02  1.40000000E+01  0.00000000E+00
  4.70000000E+02  1.40000000E+01  0.00000000E+00
  4.80000000E+02  1.40000000E+01  0.00000000E+00
  4.90000000E+02  1.40000000E+01  0.00000000E+00
  5.00000000E+02  1.40000000E+01  0.00000000E+00
  5.10000000E+02  1.40000000E+01  0.00000000E+00
  5.20000000E+02  1.40000000E+01  0.00000000E+00
  5.30000000E+02  1.40000000E+01  0.00000000E+00
  5.40000000E+02  1.40000000E+01  0.00000000E+00
  5.50000000E+02  1.40000000E+01  0.00000000E+00
  5.60000000E+02  1.40000000E+01  0.00000000E+00
  5.70000000E+02  1.40000000E+01  0.00000000E+00
  5.80000000E+02  1.40000000E+01  0.00000000E+00
  5.90000000E+02  1.40000000E+01  0.00000000E+00
  6.00000000E+02  1.40000000E+01  0.00000000E+00
  6.10000000E+02  1.40000000E+01  0.00000000E+00
  6.20000000E+02  1.40000000E+01  0.00000000E+00
  6.30000000E+02  1.40000000E+01  0.00000000E+00
  6.40000000E+02  1.40000000E+01  0.00000000E+00
  6.50000000E+02  1.40000000E+01  0.00000000E+00
  6.60000000E+02  1.40000000E+01  0.00000000E+00
  6.70000000E+02  1.40000000E+01  0.00000000E+00
  6.80000000E+02  1.40000000E+01  0.00000000E+00
  6.90000000E+02  1.40000000E+01  0.00000000E+00
  7.00000000E+02  1.40000000E+01  0.00000000E+00
  7.10000000E+02  1.40000000E+01  0.00000000E+00
  7.20000000E+02  1.40000000E+01  0.00000000E+00
  7.30000000E+02  1.40000000E+01  0.00000000E+00
  7.40000000E+02  1.40000000E+01  0.00000000E+00
  7.50000000E+02  1.40000000E+01  0.00000000E+00
  7.60000000E+02  1.40000000E+01  0.00000000E+00
  7.70000000E+02  1.40000000E+01  0.00000000E+00
  7.80000000E+02  1.40000000E+01  0.00000000E+00
  7.90000000E+02  1.40000000E+01  0.00000000E+00
  8.00000000E+02  1.40000000E+01  0.00000000E+00
  8.10000000E+02  1.40000000E+01  0.00000000E+00
  8.20000000E+02  1.40000000E+01  0.00000000E+00
  8.30000000E+02  1.40000000E+01  0.00000000E+00
  8.40000000E+02  1.40000000E+01  0.00000000E+00
  8.50000000E+02  1.40000000E+01  0.00000000E+00
  8.60000000E+02  1.40000000E+01  0.00000000E+00
  8.70000000E+02  1.40000000E+01  0.00000000E+00
  8.80000000E+02  1.40000000E+01  0.00000000E+00
  8.90000000E+02  1.40000000E+01  0.00000000E+00
  9.00000000E+02  1.40000000E+01  0.00000000E+00
  9.10000000E+02  1.40000000E+01  0.00000000E+00
  9.20000000E+02  1.40000000E+01  0.00000000E+00
  9.30000000E+02  1.40000000E+01  0.00000000E+00
  9.40000000E+02  1.40000000E+01  0.00000000E+00
  9.50000000E+02  1.40000000E+01  0.00000000E+00
  9.60000000E+02  1.40000000E+01  0.00000000E+00
  9.70000000E+02  1.40000000E+01  0.00000000E+00
  9.80000000E+02  1.40000000E+01  0.00000000E+00
  9.90000000E+02  1.40000000E+01  0.00000000E+00
  1.00000000E+03  1.40000000E+01  0.00000000E+00
  0.00000000E+00  1.60000000E+01  0.00000000E+00
  1.00000000E+01  1.60000000E+01  0.00000000E+00
  2.00000000E+01  1.60000000E+01  0.00000000E+00
  3.00000000E+01  1.60000000E+01  0.00000000E+00
  4.00000000E+01  1.60000000E+01  0.00000000E+00
  5.00000000E+01  1.60000000E+01  0.00000000E+00
  6.00000000E+01  1.60000000E+01  0.00000000E+00
  7.00000000E+01  1.60000000E+01  0.00000000E+00
  8.00000000E+01  1.60000000E+01  0.00000000E+00
  9.00000000E+01  1.60000000E+01  0.00000000E+00
  1.00000000E+02  1.60000000E+01  0.00000000E+00
  1.10000000E+02  1.60000000E+01  0.00000000E+00
  1.20000000E+02  1.60000000E+01  0.00000000E+00
  1.30000000E+02  1.60000000E+01  0.00000000E+00
  1.40000000E+02  1.60000000E+01  0.00000000E+00
  1.50000000E+02  1.60000000E+01  0.00000000E+00
  1.60000000E+02  1.60000000E+01  0.00000000E+00
  1.70000000E+02  1.60000000E+01  0.00000000E+00
  1.80000000E+02  1.60000000E+01  0.00000000E+00
  1.90000000E+02  1.60000000E+01  0.00000000E+00
  2.00000000E+02  1.60000000E+01  0.00000000E+00
  2.10000000E+02  1.60000000E+01  0.00000000E+00
  2.20000000E+02  1.60000000E+01  0.00000000E+00
  2.30000000E+02  1.60000000E+01  0.00000000E+00
  2.40000000E+02  1.60000000E+01  0.00000000E+00
  2.50000000E+02  1.60000000E+01  0.00000000E+00
  2.60000000E+02  1.60000000E+01  0.00000000E+00
  2.70000000E+02  1.60000000E+01  0.00000000E+00
  2.80000000E+02  1.60000000E+01  0.00000000E+00
  2.90000000E+02  1.60000000E+01  0.00000000E+00
  3.00000000E+02  1.60000000E+01  0.00000000E+00
  3.10000000E+02  1.60000000E+01  0.00000000E+00
  3.20000000E+02  1.60000000E+01  0.00000000E+00
  3.30000000E+02  1.60000000E+01  0.00000000E+00
  3.40000000E+02  1.60000000E+01  0.00000000E+00
  3.50000000E+02  1.60000000E+01  0.00000000E+00
  3.60000000E+02  1.60000000E+01  0.00000000E+00
  3.70000000E+02  1.60000000E+01  0.00000000E+00
  3.80000000E+02  1.60000000E+01  0.00000000E+00
  3.90000000E+02  1.60000000E+01  0.00000000E+00
  4.00000000E+02  1.60000000E+01  0.00000000E+00
  4.10000000E+02  1.60000000E+01  0.00000000E+00
  4.20000000E+02  1.60000000E+01  0.00000000E+00
  4.30000000E+02  1.60000000E+01  0.00000000E+00
  4.40000000E+02  1.60000000E+01  0.00000000E+00
  4.50000000E+02  1.60000000E+01  0.00000000E+00
  4.60000000E+02  1.60000000E+01  0.00000000E+00
  4.70000000E+02  1.60000000E+01  0.00000000E+00
  4.80000000E+02  1.60000000E+01  0.00000000E+00
  4.90000000E+02  1.60000000E+01  0.00000000E+00
  5.00000000E+02  1.60000000E+01  0.00000000E+00
  5.10000000E+02  1.60000000E+01  0.00000000E+00
  5.20000000E+02  1.60000000E+01  0.00000000E+00
  5.30000000E+02  1.60000000E+01  0.00000000E+00
  5.40000000E+02  1.60000000E+01  0.00000000E+00
  5.50000000E+02  1.60000000E+01  0.00000000E+00
  5.60000000E+02  1.60000000E+01  0.00000000E+00
  5.70000000E+02  1.60000000E+01  0.00000000E+00
  5.80000000E+02  1.60000000E+01  0.00000000E+00
  5.90000000E+02  1.60000000E+01  0.00000000E+00
  6.00000000E+02  1.60000000E+01  0.00000000E+00
  6.10000000E+02  1.60000000E+01  0.00000000E+00
  6.20000000E+02  1.60000000E+01  0.00000000E+00
  6.30000000E+02  1.60000000E+01  0.00000000E+00
  6.40000000E+02  1.60000000E+01  0.00000000E+00
  6.50000000E+02  1.60000000E+01  0.00000000E+00
  6.60000000E+02  1.60000000E+01  0.00000000E+00
  6.70000000E+02  1.60000000E+01  0.00000000E+00
  6.80000000E+02  1.60000000E+01  0.00000000E+00
  6.90000000E+02  1.60000000E+01  0.00000000E+00
  7.00000000E+02  1.60000000E+01  0.00000000E+00
  7.10000000E+02  1.60000000E+01  0.00000000E+00
  7.20000000E+02  1.60000000E+01  0.00000000E+00
  7.30000000E+02  1.60000000E+01  0.00000000E+00
  7.40000000E+02  1.60000000E+01  0.00000000E+00
  7.50000000E+02  1.60000000E+01  0.00000000E+00
  7.60000000E+02  1.60000000E+01  0.00000000E+00
  7.70000000E+02  1.60000000E+01  0.00000000E+00
  7.80000000E+02  1.60000000E+01  0.00000000E+00
  7.90000000E+02  1.60000000E+01  0.00000000E+00
  8.00000000E+02  1.60000000E+01  0.00000000E+00
  8.10000000E+02  1.60000000E+01  0.00000000E+00
  8.20000000E+02  1.60000000E+01  0.00000000E+00
  8.30000000E+02  1.60000000E+01  0.00000000E+00
  8.40000000E+02  1.60000000E+01  0.00000000E+00
  8.50000000E+02  1.60000000E+01  0.00000000E+00
  8.60000000E+02  1.60000000E+01  0.00000000E+00
  8.70000000E+02  1.60000000E+01  0.00000000E+00
  8.80000000E+02  1.60000000E+01  0.00000000E+00
  8.90000000E+02  1.60000000E+01  0.00000000E+00
  9.00000000E+02  1.60000000E+01  0.00000000E+00
  9.10000000E+02  1.60000000E+01  0.00000000E+00
  9.20000000E+02  1.60000000E+01  0.00000000E+00
  9.30000000E+02  1.60000000E+01  0.00000000E+00
  9.40000000E+02  1.60000000E+01  0.00000000E+00
  9.50000000E+02  1.60000000E+01  0.00000000E+00
  9.60000000E+02  1.60000000E+01  0.00000000E+00
  9.70000000E+02  1.60000000E+01  0.00000000E+00
  9.80000000E+02  1.60000000E+01  0.00000000E+00
  9.90000000E+02  1.60000000E+01  0.00000000E+00
  1.00000000E+03  1.60000000E+01  0.00000000E+00
  0.00000000E+00  1.80000000E+01  0.00000000E+00
  1.00000000E+01  1.80000000E+01  0.00000000E+00
  2.00000000E+01  1.80000000E+01  0.00000000E+00
  3.00000000E+01  1.80000000E+01  0.00000000E+00
  4.00000000E+01  1.80000000E+01  0.00000000E+00
  5.00000000E+01  1.80000000E+01  0.00000000E+00
  6.00000000E+01  1.80000000E+01  0.00000000E+00
  7.00000000E+01  1.80000000E+01  0.00000000E+00
  8.00000000E+01  1.80000000E+01  0.00000000E+00
  9.00000000E+01  1.80000000E+01  0.00000000E+00
  1.00000000E+02  1.80000000E+01  0.00000000E+00
  1.10000000E+02  1.80000000E+01  0.00000000E+00
  1.20000000E+02  1.80000000E+01  0.00000000E+00
  1.30000000E+02  1.80000000E+01  0.00000000E+00
  1.40000000E+02  1.80000000E+01  0.00000000E+00
  1.50000000E+02  1.80000000E+01  0.00000000E+00
  1.60000000E+02  1.80000000E+01  0.00000000E+00
  1.70000000E+02  1.80000000E+01  0.00000000E+00
  1.80000000E+02  1.80000000E+01  0.00000000E+00
  1.90000000E+02  1.80000000E+01  0.00000000E+00
  2.00000000E+02  1.80000000E+01  0.00000000E+00
  2.10000000E+02  1.80000000E+01  0.00000000E+00
  2.20000000E+02  1.80000000E+01  0.00000000E+00
  2.30000000E+02  1.80000000E+01  0.00000000E+00
  2.40000000E+02  1.80000000E+01  0.00000000E+00
  2.50000000E+02  1.80000000E+01  0.00000000E+00
  2.60000000E+02  1.80000000E+01  0.00000000E+00
  2.70000000E+02  1.80000000E+01  0.00000000E+00
  2.80000000E+02  1.80000000E+01  0.00000000E+00
  2.90000000E+02  1.80000000E+01  0.00000000E+00
  3.00000000E+02  1.80000000E+01  0.00000000E+00
  3.10000000E+02  1.80000000E+01  0.00000000E+00
  3.20000000E+02  1.80000000E+01  0.00000000E+00
  3.30000000E+02  1.80000000E+01  0.00000000E+00
  3.40000000E+02  1.80000000E+01  0.00000000E+00
  3.50000000E+02  1.80000000E+01  0.00000000E+00
  3.60000000E+02  1.80000000E+01  0.00000000E+00
  3.70000000E+02  1.80000000E+01  0.00000000E+00
  3.80000000E+02  1.80000000E+01  0.00000000E+00
  3.90000000E+02  1.80000000E+01  0.00000000E+00
  4.00000000E+02  1.80000000E+01  0.00000000E+00
  4.10000000E+02  1.80000000E+01  0.00000000E+00
  4.20000000E+02  1.80000000E+01  0.00000000E+00
  4.30000000E+02  1.80000000E+01  0.00000000E+00
  4.40000000E+02  1.80000000E+01  0.00000000E+00
  4.50000000E+02  1.80000000E+01  0.00000000E+00
  4.60000000E+02  1.80000000E+01  0.00000000E+00
  4.70000000E+02  1.80000000E+01  0.00000000E+00
  4.80000000E+02  1.80000000E+01  0.00000000E+00
  4.90000000E+02  1.80000000E+01  0.00000000E+00
  5.00000000E+02  1.80000000E+01  0.00000000E+00
  5.10000000E+02  1.80000000E+01  0.00000000E+00
  5.20000000E+02  1.80000000E+01  0.00000000E+00
  5.30000000E+02  1.80000000E+01  0.00000000E+00
  5.40000000E+02  1.80000000E+01  0.00000000E+00
  5.50000000E+02  1.80000000E+01  0.00000000E+00
  5.60000000E+02  1.80000000E+01  0.00000000E+00
  5.70000000E+02  1.80000000E+01  0.00000000E+00
  5.80000000E+02  1.80000000E+01  0.00000000E+00
  5.90000000E+02  1.80000000E+01  0.00000000E+00
  6.00000000E+02  1.80000000E+01  0.00000000E+00
  6.10000000E+02  1.80000000E+01  0.00000000E+00
  6.20000000E+02  1.80000000E+01  0.00000000E+00
  6.30000000E+02  1.80000000E+01  0.00000000E+00
  6.40000000E+02  1.80000000E+01  0.00000000E+00
  6.50000000E+02  1.80000000E+01  0.00000000E+00
  6.60000000E+02  1.80000000E+01  0.00000000E+00
  6.70000000E+02  1.80000000E+01  0.00000000E+00
  6.80000000E+02  1.80000000E+01  0.00000000E+00
  6.90000000E+02  1.80000000E+01  0.00000000E+00
  7.00000000E+02  1.80000000E+01  0.00000000E+00
  7.10000000E+02  1.80000000E+01  0.00000000E+00
  7.20000000E+02  1.80000000E+01  0.00000000E+00
  7.30000000E+02  1.80000000E+01  0.00000000E+00
  7.40000000E+02  1.80000000E+01  0.00000000E+00
  7.50000000E+02  1.80000000E+01  0.00000000E+00
  7.60000000E+02  1.80000000E+01  0.00000000E+00
  7.70000000E+02  1.80000000E+01  0.00000000E+00
  7.80000000E+02  1.80000000E+01  0.00000000E+00
  7.90000000E+02  1.80000000E+01  0.00000000E+00
  8.00000000E+02  1.80000000E+01  0.00000000E+00
  8.10000000E+02  1.80000000E+01  0.00000000E+00
  8.20000000E+02  1.80000000E+01  0.00000000E+00
  8.30000000E+02  1.80000000E+01  0.00000000E+00
  8.40000000E+02  1.80000000E+01  0.00000000E+00
  8.50000000E+02  1.80000000E+01  0.00000000E+00
  8.60000000E+02  1.80000000E+01  0.00000000E+00
  8.70000000E+02  1.80000000E+01  0.00000000E+00
  8.80000000E+02  1.80000000E+01  0.00000000E+00
  8.90000000E+02  1.80000000E+01  0.00000000E+00
  9.00000000E+02  1.80000000E+01  0.00000000E+00
  9.10000000E+02  1.80000000E+01  0.00000000E+00
  9.20000000E+02  1.80000000E+01  0.00000000E+00
  9.30000000E+02  1.80000000E+01  0.00000000E+00
  9.40000000E+02  1.80000000E+01  0.00000000E+00
  9.50000000E+02  1.80000000E+01  0.00000000E+00
  9.60000000E+02  1.80000000E+01  0.00000000E+00
  9.70000000E+02  1.80000000E+01  0.00000000E+00
  9.80000000E+02  1.80000000E+01  0.00000000E+00
  9.90000000E+02  1.80000000E+01  0.00000000E+00
  1.00000000E+03  1.80000000E+01  0.00000000E+00
  0.00000000E+00  2.00000000E+01  0.00000000E+00
  1.00000000E+01  2.00000000E+01  0.00000000E+00
  2.00000000E+01  2.00000000E+01  0.00000000E+00
  3.00000000E+01  2.00000000E+01  0.00000000E+00
  4.00000000E+01  2.00000000E+01  0.00000000E+00
  5.00000000E+01  2.00000000E+01  0.00000000E+00
  6.00000000E+01  2.00000000E+01  0.00000000E+00
  7.00000000E+01  2.00000000E+01  0.00000000E+00
  8.00000000E+01  2.00000000E+01  0.00000000E+00
  9.00000000E+01  2.00000000E+01  0.00000000E+00
  1.00000000E+02  2.00000000E+01  0.00000000E+00
  1.10000000E+02  2.00000000E+01  0.00000000E+00
  1.20000000E+02  2.00000000E+01  0.00000000E+00
  1.30000000E+02  2.00000000E+01  0.00000000E+00
  1.40000000E+02  2.00000000E+01  0.00000000E+00
  1.50000000E+02  2.00000000E+01  0.00000000E+00
  1.60000000E+02  2.00000000E+01  0.00000000E+00
  1.70000000E+02  2.00000000E+01  0.00000000E+00
  1.80000000E+02  2.00000000E+01  0.00000000E+00
  1.90000000E+02  2.00000000E+01  0.00000000E+00
  2.00000000E+02  2.00000000E+01  0.00000000E+00
  2.10000000E+02  2.00000000E+01  0.00000000E+00
  2.20000000E+02  2.00000000E+01  0.00000000E+00
  2.30000000E+02  2.00000000E+01  0.00000000E+00
  2.40000000E+02  2.00000000E+01  0.00000000E+00
  2.50000000E+02  2.00000000E+01  0.00000000E+00
  2.60000000E+02  2.00000000E+01  0.00000000E+00
  2.70000000E+02  2.00000000E+01  0.00000000E+00
  2.80000000E+02  2.00000000E+01  0.00000000E+00
  2.90000000E+02  2.00000000E+01  0.00000000E+00
  3.00000000E+02  2.00000000E+01  0.00000000E+00
  3.10000000E+02  2.00000000E+01  0.00000000E+00
  3.20000000E+02  2.00000000E+01  0.00000000E+00
  3.30000000E+02  2.00000000E+01  0.00000000E+00
  3.40000000E+02  2.00000000E+01  0.00000000E+00
  3.50000000E+02  2.00000000E+01  0.00000000E+00
  3.60000000E+02  2.00000000E+01  0.00000000E+00
  3.70000000E+02  2.00000000E+01  0.00000000E+00
  3.80000000E+02  2.00000000E+01  0.00000000E+00
  3.90000000E+02  2.00000000E+01  0.00000000E+00
  4.00000000E+02  2.00000000E+01  0.00000000E+00
  4.10000000E+02  2.00000000E+01  0.00000000E+00
  4.20000000E+02  2.00000000E+01  0.00000000E+00
  4.30000000E+02  2.00000000E+01  0.00000000E+00
  4.40000000E+02  2.00000000E+01  0.00000000E+00
  4.50000000E+02  2.00000000E+01  0.00000000E+00
  4.60000000E+02  2.00000000E+01  0.00000000E+00
  4.70000000E+02  2.00000000E+01  0.00000000E+00
  4.80000000E+02  2.00000000E+01  0.00000000E+00
  4.90000000E+02  2.00000000E+01  0.00000000E+00
  5.00000000E+02  2.00000000E+01  0.00000000E+00
  5.10000000E+02  2.00000000E+01  0.00000000E+00
  5.20000000E+02  2.00000000E+01  0.00000000E+00
  5.30000000E+02  2.00000000E+01  0.00000000E+00
  5.40000000E+02  2.00000000E+01  0.00000000E+00
  5.50000000E+02  2.00000000E+01  0.00000000E+00
  5.60000000E+02  2.00000000E+01  0.00000000E+00
  5.70000000E+02  2.00000000E+01  0.00000000E+00
  5.80000000E+02  2.00000000E+01  0.00000000E+00
  5.90000000E+02  2.00000000E+01  0.00000000E+00
  6.00000000E+02  2.00000000E+01  0.00000000E+00
  6.10000000E+02  2.00000000E+01  0.00000000E+00
  6.20000000E+02  2.00000000E+01  0.00000000E+00
  6.30000000E+02  2.00000000E+01  0.00000000E+00
  6.40000000E+02  2.00000000E+01  0.00000000E+00
  6.50000000E+02  2.00000000E+01  0.00000000E+00
  6.60000000E+02  2.00000000E+01  0.00000000E+00
  6.70000000E+02  2.00000000E+01  0.00000000E+00
  6.80000000E+02  2.00000000E+01  0.00000000E+00
  6.90000000E+02  2.00000000E+01  0.00000000E+00
  7.00000000E+02  2.00000000E+01  0.00000000E+00
  7.10000000E+02  2.00000000E+01  0.00000000E+00
  7.20000000E+02  2.00000000E+01  0.00000000E+00
  7.30000000E+02  2.00000000E+01  0.00000000E+00
  7.40000000E+02  2.00000000E+01  0.00000000E+00
  7.50000000E+02  2.00000000E+01  0.00000000E+00
  7.60000000E+02  2.00000000E+01  0.00000000E+00
  7.70000000E+02  2.00000000E+01  0.00000000E+00
  7.80000000E+02  2.00000000E+01  0.00000000E+00
  7.90000000E+02  2.00000000E+01  0.00000000E+00
  8.00000000E+02  2.00000000E+01  0.00000000E+00
  8.10000000E+02  2.00000000E+01  0.00000000E+00
  8.20000000E+02  2.00000000E+01  0.00000000E+00
  8.30000000E+02  2.00000000E+01  0.00000000E+00
  8.40000000E+02  2.00000000E+01  0.00000000E+00
  8.50000000E+02  2.00000000E+01  0.00000000E+00
  8.60000000E+02  2.00000000E+01  0.00000000E+00
  8.70000000E+02  2.00000000E+01  0.00000000E+00
  8.80000000E+02  2.00000000E+01  0.00000000E+00
  8.90000000E+02  2.00000000E+01  0.00000000E+00
  9.00000000E+02  2.00000000E+01  0.00000000E+00
  9.10000000E+02  2.00000000E+01  0.00000000E+00
  9.20000000E+02  2.00000000E+01  0.00000000E+00
  9.30000000E+02  2.00000000E+01  0.00000000E+00
  9.40000000E+02  2.00000000E+01  0.00000000E+00
  9.50000000E+02  2.00000000E+01  0.00000000E+00
  9.60000000E+02  2.00000000E+01  0.00000000E+00
  9.70000000E+02  2.00000000E+01  0.00000000E+00
  9.80000000E+02  2.00000000E+01  0.00000000E+00
  9.90000000E+02  2.00000000E+01  0.00000000E+00
  1.00000000E+03  2.00000000E+01  0.00000000E+00
  0.00000000E+00  2.20000000E+01  0.00000000E+00
  1.00000000E+01  2.20000000E+01  0.00000000E+00
  2.00000000E+01  2.20000000E+01  0.00000000E+00
  3.00000000E+01  2.20000000E+01  0.00000000E+00
  4.00000000E+01  2.20000000E+01  0.00000000E+00
  5.00000000E+01  2.20000000E+01  0.00000000E+00
  6.00000000E+01  2.20000000E+01  0.00000000E+00
  7.00000000E+01  2.20000000E+01  0.00000000E+00
  8.00000000E+01  2.20000000E+01  0.00000000E+00
  9.00000000E+01  2.20000000E+01  0.00000000E+00
  1.00000000E+02  2.20000000E+01  0.00000000E+00
  1.10000000E+02  2.20000000E+01  0.00000000E+00
  1.20000000E+02  2.20000000E+01  0.00000000E+00
  1.30000000E+02  2.20000000E+01  0.00000000E+00
  1.40000000E+02  2.20000000E+01  0.00000000E+00
  1.50000000E+02  2.20000000E+01  0.00000000E+00
  1.60000000E+02  2.20000000E+01  0.00000000E+00
  1.70000000E+02  2.20000000E+01  0.00000000E+00
  1.80000000E+02  2.20000000E+01  0.00000000E+00
  1.90000000E+02  2.20000000E+01  0.00000000E+00
  2.00000000E+02  2.20000000E+01  0.00000000E+00
  2.10000000E+02  2.20000000E+01  0.00000000E+00
  2.20000000E+02  2.20000000E+01  0.00000000E+00
  2.30000000E+02  2.20000000E+01  0.00000000E+00
  2.40000000E+02  2.20000000E+01  0.00000000E+00
  2.50000000E+02  2.20000000E+01  0.00000000E+00
  2.60000000E+02  2.20000000E+01  0.00000000E+00
  2.70000000E+02  2.20000000E+01  0.00000000E+00
  2.80000000E+02  2.20000000E+01  0.00000000E+00
  2.90000000E+02  2.20000000E+01  0.00000000E+00
  3.00000000E+02  2.20000000E+01  0.00000000E+00
  3.10000000E+02  2.20000000E+01  0.00000000E+00
  3.20000000E+02  2.20000000E+01  0.00000000E+00
  3.30000000E+02  2.20000000E+01  0.00000000E+00
  3.40000000E+02  2.20000000E+01  0.00000000E+00
  3.50000000E+02  2.20000000E+01  0.00000000E+00
  3.60000000E+02  2.20000000E+01  0.00000000E+00
  3.70000000E+02  2.20000000E+01  0.00000000E+00
  3.80000000E+02  2.20000000E+01  0.00000000E+00
  3.90000000E+02  2.20000000E+01  0.00000000E+00
  4.00000000E+02  2.20000000E+01  0.00000000E+00
  4.10000000E+02  2.20000000E+01  0.00000000E+00
  4.20000000E+02  2.20000000E+01  0.00000000E+00
  4.30000000E+02  2.20000000E+01  0.00000000E+00
  4.40000000E+02  2.20000000E+01  0.00000000E+00
  4.50000000E+02  2.20000000E+01  0.00000000E+00
  4.60000000E+02  2.20000000E+01  0.00000000E+00
  4.70000000E+02  2.20000000E+01  0.00000000E+00
  4.80000000E+02  2.20000000E+01  0.00000000E+00
  4.90000000E+02  2.20000000E+01  0.00000000E+00
  5.00000000E+02  2.20000000E+01  0.00000000E+00
  5.10000000E+02  2.20000000E+01  0.00000000E+00
  5.20000000E+02  2.20000000E+01  0.00000000E+00
  5.30000000E+02  2.20000000E+01  0.00000000E+00
  5.40000000E+02  2.20000000E+01  0.00000000E+00
  5.50000000E+02  2.20000000E+01  0.00000000E+00
  5.60000000E+02  2.20000000E+01  0.00000000E+00
  5.70000000E+02  2.20000000E+01  0.00000000E+00
  5.80000000E+02  2.20000000E+01  0.00000000E+00
  5.90000000E+02  2.20000000E+01  0.00000000E+00
  6.00000000E+02  2.20000000E+01  0.00000000E+00
  6.10000000E+02  2.20000000E+01  0.00000000E+00
  6.20000000E+02  2.20000000E+01  0.00000000E+00
  6.30000000E+02  2.20000000E+01  0.00000000E+00
  6.40000000E+02  2.20000000E+01  0.00000000E+00
  6.50000000E+02  2.20000000E+01  0.00000000E+00
  6.60000000E+02  2.20000000E+01  0.00000000E+00
  6.70000000E+02  2.20000000E+01  0.00000000E+00
  6.80000000E+02  2.20000000E+01  0.00000000E+00
  6.90000000E+02  2.20000000E+01  0.00000000E+00
  7.00000000E+02  2.20000000E+01  0.00000000E+00
  7.10000000E+02  2.20000000E+01  0.00000000E+00
  7.20000000E+02  2.20000000E+01  0.00000000E+00
  7.30000000E+02  2.20000000E+01  0.00000000E+00
  7.40000000E+02  2.20000000E+01  0.00000000E+00
  7.50000000E+02  2.20000000E+01  0.00000000E+00
  7.60000000E+02  2.20000000E+01  0.00000000E+00
  7.70000000E+02  2.20000000E+01  0.00000000E+00
  7.80000000E+02  2.20000000E+01  0.00000000E+00
  7.90000000E+02  2.20000000E+01  0.00000000E+00
  8.00000000E+02  2.20000000E+01  0.00000000E+00
  8.10000000E+02  2.20000000E+01  0.00000000E+00
  8.20000000E+02  2.20000000E+01  0.00000000E+00
  8.30000000E+02  2.20000000E+01  0.00000000E+00
  8.40000000E+02  2.20000000E+01  0.00000000E+00
  8.50000000E+02  2.20000000E+01  0.00000000E+00
  8.60000000E+02  2.20000000E+01  0.00000000E+00
  8.70000000E+02  2.20000000E+01  0.00000000E+00
  8.80000000E+02  2.20000000E+01  0.00000000E+00
  8.90000000E+02  2.20000000E+01  0.00000000E+00
  9.00000000E+02  2.20000000E+01  0.00000000E+00
  9.10000000E+02  2.20000000E+01  0.00000000E+00
  9.20000000E+02  2.20000000E+01  0.00000000E+00
  9.30000000E+02  2.20000000E+01  0.00000000E+00
  9.40000000E+02  2.20000000E+01  0.00000000E+00
  9.50000000E+02  2.20000000E+01  0.00000000E+00
  9.60000000E+02  2.20000000E+01  0.00000000E+00
  9.70000000E+02  2.20000000E+01  0.00000000E+00
  9.80000000E+02  2.20000000E+01  0.00000000E+00
  9.90000000E+02  2.20000000E+01  0.00000000E+00
  1.00000000E+03  2.20000000E+01  0.00000000E+00
  0.00000000E+00  2.40000000E+01  0.00000000E+00
  1.00000000E+01  2.40000000E+01  0.00000000E+00
  2.00000000E+01  2.40000000E+01  0.00000000E+00
  3.00000000E+01  2.40000000E+01  0.00000000E+00
  4.00000000E+01  2.40000000E+01  0.00000000E+00
  5.00000000E+01  2.40000000E+01  0.00000000E+00
  6.00000000E+01  2.40000000E+01  0.00000000E+00
  7.00000000E+01  2.40000000E+01  0.00000000E+00
  8.00000000E+01  2.40000000E+01  0.00000000E+00
  9.00000000E+01  2.40000000E+01  0.00000000E+00
  1.00000000E+02  2.40000000E+01  0.00000000E+00
  1.10000000E+02  2.40000000E+01  0.00000000E+00
  1.20000000E+02  2.40000000E+01  0.00000000E+00
  1.30000000E+02  2.40000000E+01  0.00000000E+00
  1.40000000E+02  2.40000000E+01  0.00000000E+00
  1.50000000E+02  2.40000000E+01  0.00000000E+00
  1.60000000E+02  2.40000000E+01  0.00000000E+00
  1.70000000E+02  2.40000000E+01  0.00000000E+00
  1.80000000E+02  2.40000000E+01  0.00000000E+00
  1.90000000E+02  2.40000000E+01  0.00000000E+00
  2.00000000E+02  2.40000000E+01  0.00000000E+00
  2.10000000E+02  2.40000000E+01  0.00000000E+00
  2.20000000E+02  2.40000000E+01  0.00000000E+00
  2.30000000E+02  2.40000000E+01  0.00000000E+00
  2.40000000E+02  2.40000000E+01  0.00000000E+00
  2.50000000E+02  2.40000000E+01  0.00000000E+00
  2.60000000E+02  2.40000000E+01  0.00000000E+00
  2.70000000E+02  2.40000000E+01  0.00000000E+00
  2.80000000E+02  2.40000000E+01  0.00000000E+00
  2.90000000E+02  2.40000000E+01  0.00000000E+00
  3.00000000E+02  2.40000000E+01  0.00000000E+00
  3.10000000E+02  2.40000000E+01  0.00000000E+00
  3.20000000E+02  2.40000000E+01  0.00000000E+00
  3.30000000E+02  2.40000000E+01  0.00000000E+00
  3.40000000E+02  2.40000000E+01  0.00000000E+00
  3.50000000E+02  2.40000000E+01  0.00000000E+00
  3.60000000E+02  2.40000000E+01  0.00000000E+00
  3.70000000E+02  2.40000000E+01  0.00000000E+00
  3.80000000E+02  2.40000000E+01  0.00000000E+00
  3.90000000E+02  2.40000000E+01  0.00000000E+00
  4.00000000E+02  2.40000000E+01  0.00000000E+00
  4.10000000E+02  2.40000000E+01  0.00000000E+00
  4.20000000E+02  2.40000000E+01  0.00000000E+00
  4.30000000E+02  2.40000000E+01  0.00000000E+00
  4.40000000E+02  2.40000000E+01  0.00000000E+00
  4.50000000E+02  2.40000000E+01  0.00000000E+00
  4.60000000E+02  2.40000000E+01  0.00000000E+00
  4.70000000E+02  2.40000000E+01  0.00000000E+00
  4.80000000E+02  2.40000000E+01  0.00000000E+00
  4.90000000E+02  2.40000000E+01  0.00000000E+00
  5.00000000E+02  2.40000000E+01  0.00000000E+00
  5.10000000E+02  2.40000000E+01  0.00000000E+00
  5.20000000E+02  2.40000000E+01  0.00000000E+00
  5.30000000E+02  2.40000000E+01  0.00000000E+00
  5.40000000E+02  2.40000000E+01  0.00000000E+00
  5.50000000E+02  2.40000000E+01  0.00000000E+00
  5.60000000E+02  2.40000000E+01  0.00000000E+00
  5.70000000E+02  2.40000000E+01  0.00000000E+00
  5.80000000E+02  2.40000000E+01  0.00000000E+00
  5.90000000E+02  2.40000000E+01  0.00000000E+00
  6.00000000E+02  2.40000000E+01  0.00000000E+00
  6.10000000E+02  2.40000000E+01  0.00000000E+00
  6.20000000E+02  2.40000000E+01  0.00000000E+00
  6.30000000E+02  2.40000000E+01  0.00000000E+00
  6.40000000E+02  2.40000000E+01  0.00000000E+00
  6.50000000E+02  2.40000000E+01  0.00000000E+00
  6.60000000E+02  2.40000000E+01  0.00000000E+00
  6.70000000E+02  2.40000000E+01  0.00000000E+00
  6.80000000E+02  2.40000000E+01  0.00000000E+00
  6.90000000E+02  2.40000000E+01  0.00000000E+00
  7.00000000E+02  2.40000000E+01  0.00000000E+00
  7.10000000E+02  2.40000000E+01  0.00000000E+00
  7.20000000E+02  2.40000000E+01  0.00000000E+00
  7.30000000E+02  2.40000000E+01  0.00000000E+00
  7.40000000E+02  2.40000000E+01  0.00000000E+00
  7.50000000E+02  2.40000000E+01  0.00000000E+00
  7.60000000E+02  2.40000000E+01  0.00000000E+00
  7.70000000E+02  2.40000000E+01  0.00000000E+00
  7.80000000E+02  2.40000000E+01  0.00000000E+00
  7.90000000E+02  2.40000000E+01  0.00000000E+00
  8.00000000E+02  2.40000000E+01  0.00000000E+00
  8.10000000E+02  2.40000000E+01  0.00000000E+00
  8.20000000E+02  2.40000000E+01  0.00000000E+00
  8.30000000E+02  2.40000000E+01  0.00000000E+00
  8.40000000E+02  2.40000000E+01  0.00000000E+00
  8.50000000E+02  2.40000000E+01  0.00000000E+00
  8.60000000E+02  2.40000000E+01  0.00000000E+00
  8.70000000E+02  2.40000000E+01  0.00000000E+00
  8.80000000E+02  2.40000000E+01  0.00000000E+00
  8.90000000E+02  2.40000000E+01  0.00000000E+00
  9.00000000E+02  2.40000000E+01  0.00000000E+00
  9.10000000E+02  2.40000000E+01  0.00000000E+00
  9.20000000E+02  2.40000000E+01  0.00000000E+00
  9.30000000E+02  2.40000000E+01  0.00000000E+00
  9.40000000E+02  2.40000000E+01  0.00000000E+00
  9.50000000E+02  2.40000000E+01  0.00000000E+00
  9.60000000E+02  2.40000000E+01  0.00000000E+00
  9.70000000E+02  2.40000000E+01  0.00000000E+00
  9.80000000E+02  2.40000000E+01  0.00000000E+00
  9.90000000E+02  2.40000000E+01  0.00000000E+00
  1.00000000E+03  2.40000000E+01  0.00000000E+00
  0.00000000E+00  2.60000000E+01  0.00000000E+00
  1.00000000E+01  2.60000000E+01  0.00000000E+00
  2.00000000E+01  2.60000000E+01  0.00000000E+00
  3.00000000E+01  2.60000000E+01  0.00000000E+00
  4.00000000E+01  2.60000000E+01  0.00000000E+00
  5.00000000E+01  2.60000000E+01  0.00000000E+00
  6.00000000E+01  2.60000000E+01  0.00000000E+00
  7.00000000E+01  2.60000000E+01  0.00000000E+00
  8.00000000E+01  2.60000000E+01  0.00000000E+00
  9.00000000E+01  2.60000000E+01  0.00000000E+00
  1.00000000E+02  2.60000000E+01  0.00000000E+00
  1.10000000E+02  2.60000000E+01  0.00000000E+00
  1.20000000E+02  2.60000000E+01  0.00000000E+00
  1.30000000E+02  2.60000000E+01  0.00000000E+00
  1.40000000E+02  2.60000000E+01  0.00000000E+00
  1.50000000E+02  2.60000000E+01  0.00000000E+00
  1.60000000E+02  2.60000000E+01  0.00000000E+00
  1.70000000E+02  2.60000000E+01  0.00000000E+00
  1.80000000E+02  2.60000000E+01  0.00000000E+00
  1.90000000E+02  2.60000000E+01  0.00000000E+00
  2.00000000E+02  2.60000000E+01  0.00000000E+00
  2.10000000E+02  2.60000000E+01  0.00000000E+00
  2.20000000E+02  2.60000000E+01  0.00000000E+00
  2.30000000E+02  2.60000000E+01  0.00000000E+00
  2.40000000E+02  2.60000000E+01  0.00000000E+00
  2.50000000E+02  2.60000000E+01  0.00000000E+00
  2.60000000E+02  2.60000000E+01  0.00000000E+00
  2.70000000E+02  2.60000000E+01  0.00000000E+00
  2.80000000E+02  2.60000000E+01  0.00000000E+00
  2.90000000E+02  2.60000000E+01  0.00000000E+00
  3.00000000E+02  2.60000000E+01  0.00000000E+00
  3.10000000E+02  2.60000000E+01  0.00000000E+00
  3.20000000E+02  2.60000000E+01  0.00000000E+00
  3.30000000E+02  2.60000000E+01  0.00000000E+00
  3.40000000E+02  2.60000000E+01  0.00000000E+00
  3.50000000E+02  2.60000000E+01  0.00000000E+00
  3.60000000E+02  2.60000000E+01  0.00000000E+00
  3.70000000E+02  2.60000000E+01  0.00000000E+00
  3.80000000E+02  2.60000000E+01  0.00000000E+00
  3.90000000E+02  2.60000000E+01  0.00000000E+00
  4.00000000E+02  2.60000000E+01  0.00000000E+00
  4.10000000E+02  2.60000000E+01  0.00000000E+00
  4.20000000E+02  2.60000000E+01  0.00000000E+00
  4.30000000E+02  2.60000000E+01  0.00000000E+00
  4.40000000E+02  2.60000000E+01  0.00000000E+00
  4.50000000E+02  2.60000000E+01  0.00000000E+00
  4.60000000E+02  2.60000000E+01  0.00000000E+00
  4.70000000E+02  2.60000000E+01  0.00000000E+00
  4.80000000E+02  2.60000000E+01  0.00000000E+00
  4.90000000E+02  2.60000000E+01  0.00000000E+00
  5.00000000E+02  2.60000000E+01  0.00000000E+00
  5.10000000E+02  2.60000000E+01  0.00000000E+00
  5.20000000E+02  2.60000000E+01  0.00000000E+00
  5.30000000E+02  2.60000000E+01  0.00000000E+00
  5.40000000E+02  2.60000000E+01  0.00000000E+00
  5.50000000E+02  2.60000000E+01  0.00000000E+00
  5.60000000E+02  2.60000000E+01  0.00000000E+00
  5.70000000E+02  2.60000000E+01  0.00000000E+00
  5.80000000E+02  2.60000000E+01  0.00000000E+00
  5.90000000E+02  2.60000000E+01  0.00000000E+00
  6.00000000E+02  2.60000000E+01  0.00000000E+00
  6.10000000E+02  2.60000000E+01  0.00000000E+00
  6.20000000E+02  2.60000000E+01  0.00000000E+00
  6.30000000E+02  2.60000000E+01  0.00000000E+00
  6.40000000E+02  2.60000000E+01  0.00000000E+00
  6.50000000E+02  2.60000000E+01  0.00000000E+00
  6.60000000E+02  2.60000000E+01  0.00000000E+00
  6.70000000E+02  2.60000000E+01  0.00000000E+00
  6.80000000E+02  2.60000000E+01  0.00000000E+00
  6.90000000E+02  2.60000000E+01  0.00000000E+00
  7.00000000E+02  2.60000000E+01  0.00000000E+00
  7.10000000E+02  2.60000000E+01  0.00000000E+00
  7.20000000E+02  2.60000000E+01  0.00000000E+00
  7.30000000E+02  2.60000000E+01  0.00000000E+00
  7.40000000E+02  2.60000000E+01  0.00000000E+00
  7.50000000E+02  2.60000000E+01  0.00000000E+00
  7.60000000E+02  2.60000000E+01  0.00000000E+00
  7.70000000E+02  2.60000000E+01  0.00000000E+00
  7.80000000E+02  2.60000000E+01  0.00000000E+00
  7.90000000E+02  2.60000000E+01  0.00000000E+00
  8.00000000E+02  2.60000000E+01  0.00000000E+00
  8.10000000E+02  2.60000000E+01  0.00000000E+00
  8.20000000E+02  2.60000000E+01  0.00000000E+00
  8.30000000E+02  2.60000000E+01  0.00000000E+00
  8.40000000E+02  2.60000000E+01  0.00000000E+00
  8.50000000E+02  2.60000000E+01  0.00000000E+00
  8.60000000E+02  2.60000000E+01  0.00000000E+00
  8.70000000E+02  2.60000000E+01  0.00000000E+00
  8.80000000E+02  2.60000000E+01  0.00000000E+00
  8.90000000E+02  2.60000000E+01  0.00000000E+00
  9.00000000E+02  2.60000000E+01  0.00000000E+00
  9.10000000E+02  2.60000000E+01  0.00000000E+00
  9.20000000E+02  2.60000000E+01  0.00000000E+00
  9.30000000E+02  2.60000000E+01  0.00000000E+00
  9.40000000E+02  2.60000000E+01  0.00000000E+00
  9.50000000E+02  2.60000000E+01  0.00000000E+00
  9.60000000E+02  2.60000000E+01  0.00000000E+00
  9.70000000E+02  2.60000000E+01  0.00000000E+00
  9.80000000E+02  2.60000000E+01  0.00000000E+00
  9.90000000E+02  2.60000000E+01  0.00000000E+00
  1.00000000E+03  2.60000000E+01  0.00000000E+00
  0.00000000E+00  2.80000000E+01  0.00000000E+00
  1.00000000E+01  2.80000000E+01  0.00000000E+00
  2.00000000E+01  2.80000000E+01  0.00000000E+00
  3.00000000E+01  2.80000000E+01  0.00000000E+00
  4.00000000E+01  2.80000000E+01  0.00000000E+00
  5.00000000E+01  2.80000000E+01  0.00000000E+00
  6.00000000E+01  2.80000000E+01  0.00000000E+00
  7.00000000E+01  2.80000000E+01  0.00000000E+00
  8.00000000E+01  2.80000000E+01  0.00000000E+00
  9.00000000E+01  2.80000000E+01  0.00000000E+00
  1.00000000E+02  2.80000000E+01  0.00000000E+00
  1.10000000E+02  2.80000000E+01  0.00000000E+00
  1.20000000E+02  2.80000000E+01  0.00000000E+00
  1.30000000E+02  2.80000000E+01  0.00000000E+00
  1.40000000E+02  2.80000000E+01  0.00000000E+00
  1.50000000E+02  2.80000000E+01  0.00000000E+00
  1.60000000E+02  2.80000000E+01  0.00000000E+00
  1.70000000E+02  2.80000000E+01  0.00000000E+00
  1.80000000E+02  2.80000000E+01  0.00000000E+00
  1.90000000E+02  2.80000000E+01  0.00000000E+00
  2.00000000E+02  2.80000000E+01  0.00000000E+00
  2.10000000E+02  2.80000000E+01  0.00000000E+00
  2.20000000E+02  2.80000000E+01  0.00000000E+00
  2.30000000E+02  2.80000000E+01  0.00000000E+00
  2.40000000E+02  2.80000000E+01  0.00000000E+00
  2.50000000E+02  2.80000000E+01  0.00000000E+00
  2.60000000E+02  2.80000000E+01  0.00000000E+00
  2.70000000E+02  2.80000000E+01  0.00000000E+00
  2.80000000E+02  2.80000000E+01  0.00000000E+00
  2.90000000E+02  2.80000000E+01  0.00000000E+00
  3.00000000E+02  2.80000000E+01  0.00000000E+00
  3.10000000E+02  2.80000000E+01  0.00000000E+00
  3.20000000E+02  2.80000000E+01  0.00000000E+00
  3.30000000E+02  2.80000000E+01  0.00000000E+00
  3.40000000E+02  2.80000000E+01  0.00000000E+00
  3.50000000E+02  2.80000000E+01  0.00000000E+00
  3.60000000E+02  2.80000000E+01  0.00000000E+00
  3.70000000E+02  2.80000000E+01  0.00000000E+00
  3.80000000E+02  2.80000000E+01  0.00000000E+00
  3.90000000E+02  2.80000000E+01  0.00000000E+00
  4.00000000E+02  2.80000000E+01  0.00000000E+00
  4.10000000E+02  2.80000000E+01  0.00000000E+00
  4.20000000E+02  2.80000000E+01  0.00000000E+00
  4.30000000E+02  2.80000000E+01  0.00000000E+00
  4.40000000E+02  2.80000000E+01  0.00000000E+00
  4.50000000E+02  2.80000000E+01  0.00000000E+00
  4.60000000E+02  2.80000000E+01  0.00000000E+00
  4.70000000E+02  2.80000000E+01  0.00000000E+00
  4.80000000E+02  2.80000000E+01  0.00000000E+00
  4.90000000E+02  2.80000000E+01  0.00000000E+00
  5.00000000E+02  2.80000000E+01  0.00000000E+00
  5.10000000E+02  2.80000000E+01  0.00000000E+00
  5.20000000E+02  2.80000000E+01  0.00000000E+00
  5.30000000E+02  2.80000000E+01  0.00000000E+00
  5.40000000E+02  2.80000000E+01  0.00000000E+00
  5.50000000E+02  2.80000000E+01  0.00000000E+00
  5.60000000E+02  2.80000000E+01  0.00000000E+00
  5.70000000E+02  2.80000000E+01  0.00000000E+00
  5.80000000E+02  2.80000000E+01  0.00000000E+00
  5.90000000E+02  2.80000000E+01  0.00000000E+00
  6.00000000E+02  2.80000000E+01  0.00000000E+00
  6.10000000E+02  2.80000000E+01  0.00000000E+00
  6.20000000E+02  2.80000000E+01  0.00000000E+00
  6.30000000E+02  2.80000000E+01  0.00000000E+00
  6.40000000E+02  2.80000000E+01  0.00000000E+00
  6.50000000E+02  2.80000000E+01  0.00000000E+00
  6.60000000E+02  2.80000000E+01  0.00000000E+00
  6.70000000E+02  2.80000000E+01  0.00000000E+00
  6.80000000E+02  2.80000000E+01  0.00000000E+00
  6.90000000E+02  2.80000000E+01  0.00000000E+00
  7.00000000E+02  2.80000000E+01  0.00000000E+00
  7.10000000E+02  2.80000000E+01  0.00000000E+00
  7.20000000E+02  2.80000000E+01  0.00000000E+00
  7.30000000E+02  2.80000000E+01  0.00000000E+00
  7.40000000E+02  2.80000000E+01  0.00000000E+00
  7.50000000E+02  2.80000000E+01  0.00000000E+00
  7.60000000E+02  2.80000000E+01  0.00000000E+00
  7.70000000E+02  2.80000000E+01  0.00000000E+00
  7.80000000E+02  2.80000000E+01  0.00000000E+00
  7.90000000E+02  2.80000000E+01  0.00000000E+00
  8.00000000E+02  2.80000000E+01  0.00000000E+00
  8.10000000E+02  2.80000000E+01  0.00000000E+00
  8.20000000E+02  2.80000000E+01  0.00000000E+00
  8.30000000E+02  2.80000000E+01  0.00000000E+00
  8.40000000E+02  2.80000000E+01  0.00000000E+00
  8.50000000E+02  2.80000000E+01  0.00000000E+00
  8.60000000E+02  2.80000000E+01  0.00000000E+00
  8.70000000E+02  2.80000000E+01  0.00000000E+00
  8.80000000E+02  2.80000000E+01  0.00000000E+00
  8.90000000E+02  2.80000000E+01  0.00000000E+00
  9.00000000E+02  2.80000000E+01  0.00000000E+00
  9.10000000E+02  2.80000000E+01  0.00000000E+00
  9.20000000E+02  2.80000000E+01  0.00000000E+00
  9.30000000E+02  2.80000000E+01  0.00000000E+00
  9.40000000E+02  2.80000000E+01  0.00000000E+00
  9.50000000E+02  2.80000000E+01  0.00000000E+00
  9.60000000E+02  2.80000000E+01  0.00000000E+00
  9.70000000E+02  2.80000000E+01  0.00000000E+00
  9.80000000E+02  2.80000000E+01  0.00000000E+00
  9.90000000E+02  2.80000000E+01  0.00000000E+00
  1.00000000E+03  2.80000000E+01  0.00000000E+00
  0.00000000E+00  3.00000000E+01  0.00000000E+00
  1.00000000E+01  3.00000000E+01  0.00000000E+00
  2.00000000E+01  3.00000000E+01  0.00000000E+00
  3.00000000E+01  3.00000000E+01  0.00000000E+00
  4.00000000E+01  3.00000000E+01  0.00000000E+00
  5.00000000E+01  3.00000000E+01  0.00000000E+00
  6.00000000E+01  3.00000000E+01  0.00000000E+00
  7.00000000E+01  3.00000000E+01  0.00000000E+00
  8.00000000E+01  3.00000000E+01  0.00000000E+00
  9.00000000E+01  3.00000000E+01  0.00000000E+00
  1.00000000E+02  3.00000000E+01  0.00000000E+00
  1.10000000E+02  3.00000000E+01  0.00000000E+00
  1.20000000E+02  3.00000000E+01  0.00000000E+00
  1.30000000E+02  3.00000000E+01  0.00000000E+00
  1.40000000E+02  3.00000000E+01  0.00000000E+00
  1.50000000E+02  3.00000000E+01  0.00000000E+00
  1.60000000E+02  3.00000000E+01  0.00000000E+00
  1.70000000E+02  3.00000000E+01  0.00000000E+00
  1.80000000E+02  3.00000000E+01  0.00000000E+00
  1.90000000E+02  3.00000000E+01  0.00000000E+00
  2.00000000E+02  3.00000000E+01  0.00000000E+00
  2.10000000E+02  3.00000000E+01  0.00000000E+00
  2.20000000E+02  3.00000000E+01  0.00000000E+00
  2.30000000E+02  3.00000000E+01  0.00000000E+00
  2.40000000E+02  3.00000000E+01  0.00000000E+00
  2.50000000E+02  3.00000000E+01  0.00000000E+00
  2.60000000E+02  3.00000000E+01  0.00000000E+00
  2.70000000E+02  3.00000000E+01  0.00000000E+00
  2.80000000E+02  3.00000000E+01  0.00000000E+00
  2.90000000E+02  3.00000000E+01  0.00000000E+00
  3.00000000E+02  3.00000000E+01  0.00000000E+00
  3.10000000E+02  3.00000000E+01  0.00000000E+00
  3.20000000E+02  3.00000000E+01  0.00000000E+00
  3.30000000E+02  3.00000000E+01  0.00000000E+00
  3.40000000E+02  3.00000000E+01  0.00000000E+00
  3.50000000E+02  3.00000000E+01  0.00000000E+00
  3.60000000E+02  3.00000000E+01  0.00000000E+00
  3.70000000E+02  3.00000000E+01  0.00000000E+00
  3.80000000E+02  3.00000000E+01  0.00000000E+00
  3.90000000E+02  3.00000000E+01  0.00000000E+00
  4.00000000E+02  3.00000000E+01  0.00000000E+00
  4.10000000E+02  3.00000000E+01  0.00000000E+00
  4.20000000E+02  3.00000000E+01  0.00000000E+00
  4.30000000E+02  3.00000000E+01  0.00000000E+00
  4.40000000E+02  3.00000000E+01  0.00000000E+00
  4.50000000E+02  3.00000000E+01  0.00000000E+00
  4.60000000E+02  3.00000000E+01  0.00000000E+00
  4.70000000E+02  3.00000000E+01  0.00000000E+00
  4.80000000E+02  3.00000000E+01  0.00000000E+00
  4.90000000E+02  3.00000000E+01  0.00000000E+00
  5.00000000E+02  3.00000000E+01  0.00000000E+00
  5.10000000E+02  3.00000000E+01  0.00000000E+00
  5.20000000E+02  3.00000000E+01  0.00000000E+00
  5.30000000E+02  3.00000000E+01  0.00000000E+00
  5.40000000E+02  3.00000000E+01  0.00000000E+00
  5.50000000E+02  3.00000000E+01  0.00000000E+00
  5.60000000E+02  3.00000000E+01  0.00000000E+00
  5.70000000E+02  3.00000000E+01  0.00000000E+00
  5.80000000E+02  3.00000000E+01  0.00000000E+00
  5.90000000E+02  3.00000000E+01  0.00000000E+00
  6.00000000E+02  3.00000000E+01  0.00000000E+00
  6.10000000E+02  3.00000000E+01  0.00000000E+00
  6.20000000E+02  3.00000000E+01  0.00000000E+00
  6.30000000E+02  3.00000000E+01  0.00000000E+00
  6.40000000E+02  3.00000000E+01  0.00000000E+00
  6.50000000E+02  3.00000000E+01  0.00000000E+00
  6.60000000E+02  3.00000000E+01  0.00000000E+00
  6.70000000E+02  3.00000000E+01  0.00000000E+00
  6.80000000E+02  3.00000000E+01  0.00000000E+00
  6.90000000E+02  3.00000000E+01  0.00000000E+00
  7.00000000E+02  3.00000000E+01  0.00000000E+00
  7.10000000E+02  3.00000000E+01  0.00000000E+00
  7.20000000E+02  3.00000000E+01  0.00000000E+00
  7.30000000E+02  3.00000000E+01  0.00000000E+00
  7.40000000E+02  3.00000000E+01  0.00000000E+00
  7.50000000E+02  3.00000000E+01  0.00000000E+00
  7.60000000E+02  3.00000000E+01  0.00000000E+00
  7.70000000E+02  3.00000000E+01  0.00000000E+00
  7.80000000E+02  3.00000000E+01  0.00000000E+00
  7.90000000E+02  3.00000000E+01  0.00000000E+00
  8.00000000E+02  3.00000000E+01  0.00000000E+00
  8.10000000E+02  3.00000000E+01  0.00000000E+00
  8.20000000E+02  3.00000000E+01  0.00000000E+00
  8.30000000E+02  3.00000000E+01  0.00000000E+00
  8.40000000E+02  3.00000000E+01  0.00000000E+00
  8.50000000E+02  3.00000000E+01  0.00000000E+00
  8.60000000E+02  3.00000000E+01  0.00000000E+00
  8.70000000E+02  3.00000000E+01  0.00000000E+00
  8.80000000E+02  3.00000000E+01  0.00000000E+00
  8.90000000E+02  3.00000000E+01  0.00000000E+00
  9.00000000E+02  3.00000000E+01  0.00000000E+00
  9.10000000E+02  3.00000000E+01  0.00000000E+00
  9.20000000E+02  3.00000000E+01  0.00000000E+00
  9.30000000E+02  3.00000000E+01  0.00000000E+00
  9.40000000E+02  3.00000000E+01  0.00000000E+00
  9.50000000E+02  3.00000000E+01  0.00000000E+00
  9.60000000E+02  3.00000000E+01  0.00000000E+00
  9.70000000E+02  3.00000000E+01  0.00000000E+00
  9.80000000E+02  3.00000000E+01  0.00000000E+00
  9.90000000E+02  3.00000000E+01  0.00000000E+00
  1.00000000E+03  3.00000000E+01  0.00000000E+00
  0.00000000E+00  3.20000000E+01  0.00000000E+00
  1.00000000E+01  3.20000000E+01  0.00000000E+00
  2.00000000E+01  3.20000000E+01  0.00000000E+00
  3.00000000E+01  3.20000000E+01  0.00000000E+00
  4.00000000E+01  3.20000000E+01  0.00000000E+00
  5.00000000E+01  3.20000000E+01  0.00000000E+00
  6.00000000E+01  3.20000000E+01  0.00000000E+00
  7.00000000E+01  3.20000000E+01  0.00000000E+00
  8.00000000E+01  3.20000000E+01  0.00000000E+00
  9.00000000E+01  3.20000000E+01  0.00000000E+00
  1.00000000E+02  3.20000000E+01  0.00000000E+00
  1.10000000E+02  3.20000000E+01  0.00000000E+00
  1.20000000E+02  3.20000000E+01  0.00000000E+00
  1.30000000E+02  3.20000000E+01  0.00000000E+00
  1.40000000E+02  3.20000000E+01  0.00000000E+00
  1.50000000E+02  3.20000000E+01  0.00000000E+00
  1.60000000E+02  3.20000000E+01  0.00000000E+00
  1.70000000E+02  3.20000000E+01  0.00000000E+00
  1.80000000E+02  3.20000000E+01  0.00000000E+00
  1.90000000E+02  3.20000000E+01  0.00000000E+00
  2.00000000E+02  3.20000000E+01  0.00000000E+00
  2.10000000E+02  3.20000000E+01  0.00000000E+00
  2.20000000E+02  3.20000000E+01  0.00000000E+00
  2.30000000E+02  3.20000000E+01  0.00000000E+00
  2.40000000E+02  3.20000000E+01  0.00000000E+00
  2.50000000E+02  3.20000000E+01  0.00000000E+00
  2.60000000E+02  3.20000000E+01  0.00000000E+00
  2.70000000E+02  3.20000000E+01  0.00000000E+00
  2.80000000E+02  3.20000000E+01  0.00000000E+00
  2.90000000E+02  3.20000000E+01  0.00000000E+00
  3.00000000E+02  3.20000000E+01  0.00000000E+00
  3.10000000E+02  3.20000000E+01  0.00000000E+00
  3.20000000E+02  3.20000000E+01  0.00000000E+00
  3.30000000E+02  3.20000000E+01  0.00000000E+00
  3.40000000E+02  3.20000000E+01  0.00000000E+00
  3.50000000E+02  3.20000000E+01  0.00000000E+00
  3.60000000E+02  3.20000000E+01  0.00000000E+00
  3.70000000E+02  3.20000000E+01  0.00000000E+00
  3.80000000E+02  3.20000000E+01  0.00000000E+00
  3.90000000E+02  3.20000000E+01  0.00000000E+00
  4.00000000E+02  3.20000000E+01  0.00000000E+00
  4.10000000E+02  3.20000000E+01  0.00000000E+00
  4.20000000E+02  3.20000000E+01  0.00000000E+00
  4.30000000E+02  3.20000000E+01  0.00000000E+00
  4.40000000E+02  3.20000000E+01  0.00000000E+00
  4.50000000E+02  3.20000000E+01  0.00000000E+00
  4.60000000E+02  3.20000000E+01  0.00000000E+00
  4.70000000E+02  3.20000000E+01  0.00000000E+00
  4.80000000E+02  3.20000000E+01  0.00000000E+00
  4.90000000E+02  3.20000000E+01  0.00000000E+00
  5.00000000E+02  3.20000000E+01  0.00000000E+00
  5.10000000E+02  3.20000000E+01  0.00000000E+00
  5.20000000E+02  3.20000000E+01  0.00000000E+00
  5.30000000E+02  3.20000000E+01  0.00000000E+00
  5.40000000E+02  3.20000000E+01  0.00000000E+00
  5.50000000E+02  3.20000000E+01  0.00000000E+00
  5.60000000E+02  3.20000000E+01  0.00000000E+00
  5.70000000E+02  3.20000000E+01  0.00000000E+00
  5.80000000E+02  3.20000000E+01  0.00000000E+00
  5.90000000E+02  3.20000000E+01  0.00000000E+00
  6.00000000E+02  3.20000000E+01  0.00000000E+00
  6.10000000E+02  3.20000000E+01  0.00000000E+00
  6.20000000E+02  3.20000000E+01  0.00000000E+00
  6.30000000E+02  3.20000000E+01  0.00000000E+00
  6.40000000E+02  3.20000000E+01  0.00000000E+00
  6.50000000E+02  3.20000000E+01  0.00000000E+00
  6.60000000E+02  3.20000000E+01  0.00000000E+00
  6.70000000E+02  3.20000000E+01  0.00000000E+00
  6.80000000E+02  3.20000000E+01  0.00000000E+00
  6.90000000E+02  3.20000000E+01  0.00000000E+00
  7.00000000E+02  3.20000000E+01  0.00000000E+00
  7.10000000E+02  3.20000000E+01  0.00000000E+00
  7.20000000E+02  3.20000000E+01  0.00000000E+00
  7.30000000E+02  3.20000000E+01  0.00000000E+00
  7.40000000E+02  3.20000000E+01  0.00000000E+00
  7.50000000E+02  3.20000000E+01  0.00000000E+00
  7.60000000E+02  3.20000000E+01  0.00000000E+00
  7.70000000E+02  3.20000000E+01  0.00000000E+00
  7.80000000E+02  3.20000000E+01  0.00000000E+00
  7.90000000E+02  3.20000000E+01  0.00000000E+00
  8.00000000E+02  3.20000000E+01  0.00000000E+00
  8.10000000E+02  3.20000000E+01  0.00000000E+00
  8.20000000E+02  3.20000000E+01  0.00000000E+00
  8.30000000E+02  3.20000000E+01  0.00000000E+00
  8.40000000E+02  3.20000000E+01  0.00000000E+00
  8.50000000E+02  3.20000000E+01  0.00000000E+00
  8.60000000E+02  3.20000000E+01  0.00000000E+00
  8.70000000E+02  3.20000000E+01  0.00000000E+00
  8.80000000E+02  3.20000000E+01  0.00000000E+00
  8.90000000E+02  3.20000000E+01  0.00000000E+00
  9.00000000E+02  3.20000000E+01  0.00000000E+00
  9.10000000E+02  3.20000000E+01  0.00000000E+00
  9.20000000E+02  3.20000000E+01  0.00000000E+00
  9.30000000E+02  3.20000000E+01  0.00000000E+00
  9.40000000E+02  3.20000000E+01  0.00000000E+00
  9.50000000E+02  3.20000000E+01  0.00000000E+00
  9.60000000E+02  3.20000000E+01  0.00000000E+00
  9.70000000E+02  3.20000000E+01  0.00000000E+00
  9.80000000E+02  3.20000000E+01  0.00000000E+00
  9.90000000E+02  3.20000000E+01  0.00000000E+00
  1.00000000E+03  3.20000000E+01  0.00000000E+00
  0.00000000E+00  3.40000000E+01  0.00000000E+00
  1.00000000E+01  3.40000000E+01  0.00000000E+00
  2.00000000E+01  3.40000000E+01  0.00000000E+00
  3.00000000E+01  3.40000000E+01  0.00000000E+00
  4.00000000E+01  3.40000000E+01  0.00000000E+00
  5.00000000E+01  3.40000000E+01  0.00000000E+00
  6.00000000E+01  3.40000000E+01  0.00000000E+00
  7.00000000E+01  3.40000000E+01  0.00000000E+00
  8.00000000E+01  3.40000000E+01  0.00000000E+00
  9.00000000E+01  3.40000000E+01  0.00000000E+00
  1.00000000E+02  3.40000000E+01  0.00000000E+00
  1.10000000E+02  3.40000000E+01  0.00000000E+00
  1.20000000E+02  3.40000000E+01  0.00000000E+00
  1.30000000E+02  3.40000000E+01  0.00000000E+00
  1.40000000E+02  3.40000000E+01  0.00000000E+00
  1.50000000E+02  3.40000000E+01  0.00000000E+00
  1.60000000E+02  3.40000000E+01  0.00000000E+00
  1.70000000E+02  3.40000000E+01  0.00000000E+00
  1.80000000E+02  3.40000000E+01  0.00000000E+00
  1.90000000E+02  3.40000000E+01  0.00000000E+00
  2.00000000E+02  3.40000000E+01  0.00000000E+00
  2.10000000E+02  3.40000000E+01  0.00000000E+00
  2.20000000E+02  3.40000000E+01  0.00000000E+00
  2.30000000E+02  3.40000000E+01  0.00000000E+00
  2.40000000E+02  3.40000000E+01  0.00000000E+00
  2.50000000E+02  3.40000000E+01  0.00000000E+00
  2.60000000E+02  3.40000000E+01  0.00000000E+00
  2.70000000E+02  3.40000000E+01  0.00000000E+00
  2.80000000E+02  3.40000000E+01  0.00000000E+00
  2.90000000E+02  3.40000000E+01  0.00000000E+00
  3.00000000E+02  3.40000000E+01  0.00000000E+00
  3.10000000E+02  3.40000000E+01  0.00000000E+00
  3.20000000E+02  3.40000000E+01  0.00000000E+00
  3.30000000E+02  3.40000000E+01  0.00000000E+00
  3.40000000E+02  3.40000000E+01  0.00000000E+00
  3.50000000E+02  3.40000000E+01  0.00000000E+00
  3.60000000E+02  3.40000000E+01  0.00000000E+00
  3.70000000E+02  3.40000000E+01  0.00000000E+00
  3.80000000E+02  3.40000000E+01  0.00000000E+00
  3.90000000E+02  3.40000000E+01  0.00000000E+00
  4.00000000E+02  3.40000000E+01  0.00000000E+00
  4.10000000E+02  3.40000000E+01  0.00000000E+00
  4.20000000E+02  3.40000000E+01  0.00000000E+00
  4.30000000E+02  3.40000000E+01  0.00000000E+00
  4.40000000E+02  3.40000000E+01  0.00000000E+00
  4.50000000E+02  3.40000000E+01  0.00000000E+00
  4.60000000E+02  3.40000000E+01  0.00000000E+00
  4.70000000E+02  3.40000000E+01  0.00000000E+00
  4.80000000E+02  3.40000000E+01  0.00000000E+00
  4.90000000E+02  3.40000000E+01  0.00000000E+00
  5.00000000E+02  3.40000000E+01  0.00000000E+00
  5.10000000E+02  3.40000000E+01  0.00000000E+00
  5.20000000E+02  3.40000000E+01  0.00000000E+00
  5.30000000E+02  3.40000000E+01  0.00000000E+00
  5.40000000E+02  3.40000000E+01  0.00000000E+00
  5.50000000E+02  3.40000000E+01  0.00000000E+00
  5.60000000E+02  3.40000000E+01  0.00000000E+00
  5.70000000E+02  3.40000000E+01  0.00000000E+00
  5.80000000E+02  3.40000000E+01  0.00000000E+00
  5.90000000E+02  3.40000000E+01  0.00000000E+00
  6.00000000E+02  3.40000000E+01  0.00000000E+00
  6.10000000E+02  3.40000000E+01  0.00000000E+00
  6.20000000E+02  3.40000000E+01  0.00000000E+00
  6.30000000E+02  3.40000000E+01  0.00000000E+00
  6.40000000E+02  3.40000000E+01  0.00000000E+00
  6.50000000E+02  3.40000000E+01  0.00000000E+00
  6.60000000E+02  3.40000000E+01  0.00000000E+00
  6.70000000E+02  3.40000000E+01  0.00000000E+00
  6.80000000E+02  3.40000000E+01  0.00000000E+00
  6.90000000E+02  3.40000000E+01  0.00000000E+00
  7.00000000E+02  3.40000000E+01  0.00000000E+00
  7.10000000E+02  3.40000000E+01  0.00000000E+00
  7.20000000E+02  3.40000000E+01  0.00000000E+00
  7.30000000E+02  3.40000000E+01  0.00000000E+00
  7.40000000E+02  3.40000000E+01  0.00000000E+00
  7.50000000E+02  3.40000000E+01  0.00000000E+00
  7.60000000E+02  3.40000000E+01  0.00000000E+00
  7.70000000E+02  3.40000000E+01  0.00000000E+00
  7.80000000E+02  3.40000000E+01  0.00000000E+00
  7.90000000E+02  3.40000000E+01  0.00000000E+00
  8.00000000E+02  3.40000000E+01  0.00000000E+00
  8.10000000E+02  3.40000000E+01  0.00000000E+00
  8.20000000E+02  3.40000000E+01  0.00000000E+00
  8.30000000E+02  3.40000000E+01  0.00000000E+00
  8.40000000E+02  3.40000000E+01  0.00000000E+00
  8.50000000E+02  3.40000000E+01  0.00000000E+00
  8.60000000E+02  3.40000000E+01  0.00000000E+00
  8.70000000E+02  3.40000000E+01  0.00000000E+00
  8.80000000E+02  3.40000000E+01  0.00000000E+00
  8.90000000E+02  3.40000000E+01  0.00000000E+00
  9.00000000E+02  3.40000000E+01  0.00000000E+00
  9.10000000E+02  3.40000000E+01  0.00000000E+00
  9.20000000E+02  3.40000000E+01  0.00000000E+00
  9.30000000E+02  3.40000000E+01  0.00000000E+00
  9.40000000E+02  3.40000000E+01  0.00000000E+00
  9.50000000E+02  3.40000000E+01  0.00000000E+00
  9.60000000E+02  3.40000000E+01  0.00000000E+00
  9.70000000E+02  3.40000000E+01  0.00000000E+00
  9.80000000E+02  3.40000000E+01  0.00000000E+00
  9.90000000E+02  3.40000000E+01  0.00000000E+00
  1.00000000E+03  3.40000000E+01  0.00000000E+00
  0.00000000E+00  3.60000000E+01  0.00000000E+00
  1.00000000E+01  3.60000000E+01  0.00000000E+00
  2.00000000E+01  3.60000000E+01  0.00000000E+00
  3.00000000E+01  3.60000000E+01  0.00000000E+00
  4.00000000E+01  3.60000000E+01  0.00000000E+00
  5.00000000E+01  3.60000000E+01  0.00000000E+00
  6.00000000E+01  3.60000000E+01  0.00000000E+00
  7.00000000E+01  3.60000000E+01  0.00000000E+00
  8.00000000E+01  3.60000000E+01  0.00000000E+00
  9.00000000E+01  3.60000000E+01  0.00000000E+00
  1.00000000E+02  3.60000000E+01  0.00000000E+00
  1.10000000E+02  3.60000000E+01  0.00000000E+00
  1.20000000E+02  3.60000000E+01  0.00000000E+00
  1.30000000E+02  3.60000000E+01  0.00000000E+00
  1.40000000E+02  3.60000000E+01  0.00000000E+00
  1.50000000E+02  3.60000000E+01  0.00000000E+00
  1.60000000E+02  3.60000000E+01  0.00000000E+00
  1.70000000E+02  3.60000000E+01  0.00000000E+00
  1.80000000E+02  3.60000000E+01  0.00000000E+00
  1.90000000E+02  3.60000000E+01  0.00000000E+00
  2.00000000E+02  3.60000000E+01  0.00000000E+00
  2.10000000E+02  3.60000000E+01  0.00000000E+00
  2.20000000E+02  3.60000000E+01  0.00000000E+00
  2.30000000E+02  3.60000000E+01  0.00000000E+00
  2.40000000E+02  3.60000000E+01  0.00000000E+00
  2.50000000E+02  3.60000000E+01  0.00000000E+00
  2.60000000E+02  3.60000000E+01  0.00000000E+00
  2.70000000E+02  3.60000000E+01  0.00000000E+00
  2.80000000E+02  3.60000000E+01  0.00000000E+00
  2.90000000E+02  3.60000000E+01  0.00000000E+00
  3.00000000E+02  3.60000000E+01  0.00000000E+00
  3.10000000E+02  3.60000000E+01  0.00000000E+00
  3.20000000E+02  3.60000000E+01  0.00000000E+00
  3.30000000E+02  3.60000000E+01  0.00000000E+00
  3.40000000E+02  3.60000000E+01  0.00000000E+00
  3.50000000E+02  3.60000000E+01  0.00000000E+00
  3.60000000E+02  3.60000000E+01  0.00000000E+00
  3.70000000E+02  3.60000000E+01  0.00000000E+00
  3.80000000E+02  3.60000000E+01  0.00000000E+00
  3.90000000E+02  3.60000000E+01  0.00000000E+00
  4.00000000E+02  3.60000000E+01  0.00000000E+00
  4.10000000E+02  3.60000000E+01  0.00000000E+00
  4.20000000E+02  3.60000000E+01  0.00000000E+00
  4.30000000E+02  3.60000000E+01  0.00000000E+00
  4.40000000E+02  3.60000000E+01  0.00000000E+00
  4.50000000E+02  3.60000000E+01  0.00000000E+00
  4.60000000E+02  3.60000000E+01  0.00000000E+00
  4.70000000E+02  3.60000000E+01  0.00000000E+00
  4.80000000E+02  3.60000000E+01  0.00000000E+00
  4.90000000E+02  3.60000000E+01  0.00000000E+00
  5.00000000E+02  3.60000000E+01  0.00000000E+00
  5.10000000E+02  3.60000000E+01  0.00000000E+00
  5.20000000E+02  3.60000000E+01  0.00000000E+00
  5.30000000E+02  3.60000000E+01  0.00000000E+00
  5.40000000E+02  3.60000000E+01  0.00000000E+00
  5.50000000E+02  3.60000000E+01  0.00000000E+00
  5.60000000E+02  3.60000000E+01  0.00000000E+00
  5.70000000E+02  3.60000000E+01  0.00000000E+00
  5.80000000E+02  3.60000000E+01  0.00000000E+00
  5.90000000E+02  3.60000000E+01  0.00000000E+00
  6.00000000E+02  3.60000000E+01  0.00000000E+00
  6.10000000E+02  3.60000000E+01  0.00000000E+00
  6.20000000E+02  3.60000000E+01  0.00000000E+00
  6.30000000E+02  3.60000000E+01  0.00000000E+00
  6.40000000E+02  3.60000000E+01  0.00000000E+00
  6.50000000E+02  3.60000000E+01  0.00000000E+00
  6.60000000E+02  3.60000000E+01  0.00000000E+00
  6.70000000E+02  3.60000000E+01  0.00000000E+00
  6.80000000E+02  3.60000000E+01  0.00000000E+00
  6.90000000E+02  3.60000000E+01  0.00000000E+00
  7.00000000E+02  3.60000000E+01  0.00000000E+00
  7.10000000E+02  3.60000000E+01  0.00000000E+00
  7.20000000E+02  3.60000000E+01  0.00000000E+00
  7.30000000E+02  3.60000000E+01  0.00000000E+00
  7.40000000E+02  3.60000000E+01  0.00000000E+00
  7.50000000E+02  3.60000000E+01  0.00000000E+00
  7.60000000E+02  3.60000000E+01  0.00000000E+00
  7.70000000E+02  3.60000000E+01  0.00000000E+00
  7.80000000E+02  3.60000000E+01  0.00000000E+00
  7.90000000E+02  3.60000000E+01  0.00000000E+00
  8.00000000E+02  3.60000000E+01  0.00000000E+00
  8.10000000E+02  3.60000000E+01  0.00000000E+00
  8.20000000E+02  3.60000000E+01  0.00000000E+00
  8.30000000E+02  3.60000000E+01  0.00000000E+00
  8.40000000E+02  3.60000000E+01  0.00000000E+00
  8.50000000E+02  3.60000000E+01  0.00000000E+00
  8.60000000E+02  3.60000000E+01  0.00000000E+00
  8.70000000E+02  3.60000000E+01  0.00000000E+00
  8.80000000E+02  3.60000000E+01  0.00000000E+00
  8.90000000E+02  3.60000000E+01  0.00000000E+00
  9.00000000E+02  3.60000000E+01  0.00000000E+00
  9.10000000E+02  3.60000000E+01  0.00000000E+00
  9.20000000E+02  3.60000000E+01  0.00000000E+00
  9.30000000E+02  3.60000000E+01  0.00000000E+00
  9.40000000E+02  3.60000000E+01  0.00000000E+00
  9.50000000E+02  3.60000000E+01  0.00000000E+00
  9.60000000E+02  3.60000000E+01  0.00000000E+00
  9.70000000E+02  3.60000000E+01  0.00000000E+00
  9.80000000E+02  3.60000000E+01  0.00000000E+00
  9.90000000E+02  3.60000000E+01  0.00000000E+00
  1.00000000E+03  3.60000000E+01  0.00000000E+00
  0.00000000E+00  3.80000000E+01  0.00000000E+00
  1.00000000E+01  3.80000000E+01  0.00000000E+00
  2.00000000E+01  3.80000000E+01  0.00000000E+00
  3.00000000E+01  3.80000000E+01  0.00000000E+00
  4.00000000E+01  3.80000000E+01  0.00000000E+00
  5.00000000E+01  3.80000000E+01  0.00000000E+00
  6.00000000E+01  3.80000000E+01  0.00000000E+00
  7.00000000E+01  3.80000000E+01  0.00000000E+00
  8.00000000E+01  3.80000000E+01  0.00000000E+00
  9.00000000E+01  3.80000000E+01  0.00000000E+00
  1.00000000E+02  3.80000000E+01  0.00000000E+00
  1.10000000E+02  3.80000000E+01  0.00000000E+00
  1.20000000E+02  3.80000000E+01  0.00000000E+00
  1.30000000E+02  3.80000000E+01  0.00000000E+00
  1.40000000E+02  3.80000000E+01  0.00000000E+00
  1.50000000E+02  3.80000000E+01  0.00000000E+00
  1.60000000E+02  3.80000000E+01  0.00000000E+00
  1.70000000E+02  3.80000000E+01  0.00000000E+00
  1.80000000E+02  3.80000000E+01  0.00000000E+00
  1.90000000E+02  3.80000000E+01  0.00000000E+00
  2.00000000E+02  3.80000000E+01  0.00000000E+00
  2.10000000E+02  3.80000000E+01  0.00000000E+00
  2.20000000E+02  3.80000000E+01  0.00000000E+00
  2.30000000E+02  3.80000000E+01  0.00000000E+00
  2.40000000E+02  3.80000000E+01  0.00000000E+00
  2.50000000E+02  3.80000000E+01  0.00000000E+00
  2.60000000E+02  3.80000000E+01  0.00000000E+00
  2.70000000E+02  3.80000000E+01  0.00000000E+00
  2.80000000E+02  3.80000000E+01  0.00000000E+00
  2.90000000E+02  3.80000000E+01  0.00000000E+00
  3.00000000E+02  3.80000000E+01  0.00000000E+00
  3.10000000E+02  3.80000000E+01  0.00000000E+00
  3.20000000E+02  3.80000000E+01  0.00000000E+00
  3.30000000E+02  3.80000000E+01  0.00000000E+00
  3.40000000E+02  3.80000000E+01  0.00000000E+00
  3.50000000E+02  3.80000000E+01  0.00000000E+00
  3.60000000E+02  3.80000000E+01  0.00000000E+00
  3.70000000E+02  3.80000000E+01  0.00000000E+00
  3.80000000E+02  3.80000000E+01  0.00000000E+00
  3.90000000E+02  3.80000000E+01  0.00000000E+00
  4.00000000E+02  3.80000000E+01  0.00000000E+00
  4.10000000E+02  3.80000000E+01  0.00000000E+00
  4.20000000E+02  3.80000000E+01  0.00000000E+00
  4.30000000E+02  3.80000000E+01  0.00000000E+00
  4.40000000E+02  3.80000000E+01  0.00000000E+00
  4.50000000E+02  3.80000000E+01  0.00000000E+00
  4.60000000E+02  3.80000000E+01  0.00000000E+00
  4.70000000E+02  3.80000000E+01  0.00000000E+00
  4.80000000E+02  3.80000000E+01  0.00000000E+00
  4.90000000E+02  3.80000000E+01  0.00000000E+00
  5.00000000E+02  3.80000000E+01  0.00000000E+00
  5.10000000E+02  3.80000000E+01  0.00000000E+00
  5.20000000E+02  3.80000000E+01  0.00000000E+00
  5.30000000E+02  3.80000000E+01  0.00000000E+00
  5.40000000E+02  3.80000000E+01  0.00000000E+00
  5.50000000E+02  3.80000000E+01  0.00000000E+00
  5.60000000E+02  3.80000000E+01  0.00000000E+00
  5.70000000E+02  3.80000000E+01  0.00000000E+00
  5.80000000E+02  3.80000000E+01  0.00000000E+00
  5.90000000E+02  3.80000000E+01  0.00000000E+00
  6.00000000E+02  3.80000000E+01  0.00000000E+00
  6.10000000E+02  3.80000000E+01  0.00000000E+00
  6.20000000E+02  3.80000000E+01  0.00000000E+00
  6.30000000E+02  3.80000000E+01  0.00000000E+00
  6.40000000E+02  3.80000000E+01  0.00000000E+00
  6.50000000E+02  3.80000000E+01  0.00000000E+00
  6.60000000E+02  3.80000000E+01  0.00000000E+00
  6.70000000E+02  3.80000000E+01  0.00000000E+00
  6.80000000E+02  3.80000000E+01  0.00000000E+00
  6.90000000E+02  3.80000000E+01  0.00000000E+00
  7.00000000E+02  3.80000000E+01  0.00000000E+00
  7.10000000E+02  3.80000000E+01  0.00000000E+00
  7.20000000E+02  3.80000000E+01  0.00000000E+00
  7.30000000E+02  3.80000000E+01  0.00000000E+00
  7.40000000E+02  3.80000000E+01  0.00000000E+00
  7.50000000E+02  3.80000000E+01  0.00000000E+00
  7.60000000E+02  3.80000000E+01  0.00000000E+00
  7.70000000E+02  3.80000000E+01  0.00000000E+00
  7.80000000E+02  3.80000000E+01  0.00000000E+00
  7.90000000E+02  3.80000000E+01  0.00000000E+00
  8.00000000E+02  3.80000000E+01  0.00000000E+00
  8.10000000E+02  3.80000000E+01  0.00000000E+00
  8.20000000E+02  3.80000000E+01  0.00000000E+00
  8.30000000E+02  3.80000000E+01  0.00000000E+00
  8.40000000E+02  3.80000000E+01  0.00000000E+00
  8.50000000E+02  3.80000000E+01  0.00000000E+00
  8.60000000E+02  3.80000000E+01  0.00000000E+00
  8.70000000E+02  3.80000000E+01  0.00000000E+00
  8.80000000E+02  3.80000000E+01  0.00000000E+00
  8.90000000E+02  3.80000000E+01  0.00000000E+00
  9.00000000E+02  3.80000000E+01  0.00000000E+00
  9.10000000E+02  3.80000000E+01  0.00000000E+00
  9.20000000E+02  3.80000000E+01  0.00000000E+00
  9.30000000E+02  3.80000000E+01  0.00000000E+00
  9.40000000E+02  3.80000000E+01  0.00000000E+00
  9.50000000E+02  3.80000000E+01  0.00000000E+00
  9.60000000E+02  3.80000000E+01  0.00000000E+00
  9.70000000E+02  3.80000000E+01  0.00000000E+00
  9.80000000E+02  3.80000000E+01  0.00000000E+00
  9.90000000E+02  3.80000000E+01  0.00000000E+00
  1.00000000E+03  3.80000000E+01  0.00000000E+00
  0.00000000E+00  4.00000000E+01  0.00000000E+00
  1.00000000E+01  4.00000000E+01  0.00000000E+00
  2.00000000E+01  4.00000000E+01  0.00000000E+00
  3.00000000E+01  4.00000000E+01  0.00000000E+00
  4.00000000E+01  4.00000000E+01  0.00000000E+00
  5.00000000E+01  4.00000000E+01  0.00000000E+00
  6.00000000E+01  4.00000000E+01  0.00000000E+00
  7.00000000E+01  4.00000000E+01  0.00000000E+00
  8.00000000E+01  4.00000000E+01  0.00000000E+00
  9.00000000E+01  4.00000000E+01  0.00000000E+00
  1.00000000E+02  4.00000000E+01  0.00000000E+00
  1.10000000E+02  4.00000000E+01  0.00000000E+00
  1.20000000E+02  4.00000000E+01  0.00000000E+00
  1.30000000E+02  4.00000000E+01  0.00000000E+00
  1.40000000E+02  4.00000000E+01  0.00000000E+00
  1.50000000E+02  4.00000000E+01  0.00000000E+00
  1.60000000E+02  4.00000000E+01  0.00000000E+00
  1.70000000E+02  4.00000000E+01  0.00000000E+00
  1.80000000E+02  4.00000000E+01  0.00000000E+00
  1.90000000E+02  4.00000000E+01  0.00000000E+00
  2.00000000E+02  4.00000000E+01  0.00000000E+00
  2.10000000E+02  4.00000000E+01  0.00000000E+00
  2.20000000E+02  4.00000000E+01  0.00000000E+00
  2.30000000E+02  4.00000000E+01  0.00000000E+00
  2.40000000E+02  4.00000000E+01  0.00000000E+00
  2.50000000E+02  4.00000000E+01  0.00000000E+00
  2.60000000E+02  4.00000000E+01  0.00000000E+00
  2.70000000E+02  4.00000000E+01  0.00000000E+00
  2.80000000E+02  4.00000000E+01  0.00000000E+00
  2.90000000E+02  4.00000000E+01  0.00000000E+00
  3.00000000E+02  4.00000000E+01  0.00000000E+00
  3.10000000E+02  4.00000000E+01  0.00000000E+00
  3.20000000E+02  4.00000000E+01  0.00000000E+00
  3.30000000E+02  4.00000000E+01  0.00000000E+00
  3.40000000E+02  4.00000000E+01  0.00000000E+00
  3.50000000E+02  4.00000000E+01  0.00000000E+00
  3.60000000E+02  4.00000000E+01  0.00000000E+00
  3.70000000E+02  4.00000000E+01  0.00000000E+00
  3.80000000E+02  4.00000000E+01  0.00000000E+00
  3.90000000E+02  4.00000000E+01  0.00000000E+00
  4.00000000E+02  4.00000000E+01  0.00000000E+00
  4.10000000E+02  4.00000000E+01  0.00000000E+00
  4.20000000E+02  4.00000000E+01  0.00000000E+00
  4.30000000E+02  4.00000000E+01  0.00000000E+00
  4.40000000E+02  4.00000000E+01  0.00000000E+00
  4.50000000E+02  4.00000000E+01  0.00000000E+00
  4.60000000E+02  4.00000000E+01  0.00000000E+00
  4.70000000E+02  4.00000000E+01  0.00000000E+00
  4.80000000E+02  4.00000000E+01  0.00000000E+00
  4.90000000E+02  4.00000000E+01  0.00000000E+00
  5.00000000E+02  4.00000000E+01  0.00000000E+00
  5.10000000E+02  4.00000000E+01  0.00000000E+00
  5.20000000E+02  4.00000000E+01  0.00000000E+00
  5.30000000E+02  4.00000000E+01  0.00000000E+00
  5.40000000E+02  4.00000000E+01  0.00000000E+00
  5.50000000E+02  4.00000000E+01  0.00000000E+00
  5.60000000E+02  4.00000000E+01  0.00000000E+00
  5.70000000E+02  4.00000000E+01  0.00000000E+00
  5.80000000E+02  4.00000000E+01  0.00000000E+00
  5.90000000E+02  4.00000000E+01  0.00000000E+00
  6.00000000E+02  4.00000000E+01  0.00000000E+00
  6.10000000E+02  4.00000000E+01  0.00000000E+00
  6.20000000E+02  4.00000000E+01  0.00000000E+00
  6.30000000E+02  4.00000000E+01  0.00000000E+00
  6.40000000E+02  4.00000000E+01  0.00000000E+00
  6.50000000E+02  4.00000000E+01  0.00000000E+00
  6.60000000E+02  4.00000000E+01  0.00000000E+00
  6.70000000E+02  4.00000000E+01  0.00000000E+00
  6.80000000E+02  4.00000000E+01  0.00000000E+00
  6.90000000E+02  4.00000000E+01  0.00000000E+00
  7.00000000E+02  4.00000000E+01  0.00000000E+00
  7.10000000E+02  4.00000000E+01  0.00000000E+00
  7.20000000E+02  4.00000000E+01  0.00000000E+00
  7.30000000E+02  4.00000000E+01  0.00000000E+00
  7.40000000E+02  4.00000000E+01  0.00000000E+00
  7.50000000E+02  4.00000000E+01  0.00000000E+00
  7.60000000E+02  4.00000000E+01  0.00000000E+00
  7.70000000E+02  4.00000000E+01  0.00000000E+00
  7.80000000E+02  4.00000000E+01  0.00000000E+00
  7.90000000E+02  4.00000000E+01  0.00000000E+00
  8.00000000E+02  4.00000000E+01  0.00000000E+00
  8.10000000E+02  4.00000000E+01  0.00000000E+00
  8.20000000E+02  4.00000000E+01  0.00000000E+00
  8.30000000E+02  4.00000000E+01  0.00000000E+00
  8.40000000E+02  4.00000000E+01  0.00000000E+00
  8.50000000E+02  4.00000000E+01  0.00000000E+00
  8.60000000E+02  4.00000000E+01  0.00000000E+00
  8.70000000E+02  4.00000000E+01  0.00000000E+00
  8.80000000E+02  4.00000000E+01  0.00000000E+00
  8.90000000E+02  4.00000000E+01  0.00000000E+00
  9.00000000E+02  4.00000000E+01  0.00000000E+00
  9.10000000E+02  4.00000000E+01  0.00000000E+00
  9.20000000E+02  4.00000000E+01  0.00000000E+00
  9.30000000E+02  4.00000000E+01  0.00000000E+00
  9.40000000E+02  4.00000000E+01  0.00000000E+00
  9.50000000E+02  4.00000000E+01  0.00000000E+00
  9.60000000E+02  4.00000000E+01  0.00000000E+00
  9.70000000E+02  4.00000000E+01  0.00000000E+00
  9.80000000E+02  4.00000000E+01  0.00000000E+00
  9.90000000E+02  4.00000000E+01  0.00000000E+00
  1.00000000E+03  4.00000000E+01  0.00000000E+00
  0.00000000E+00  4.20000000E+01  0.00000000E+00
  1.00000000E+01  4.20000000E+01  0.00000000E+00
  2.00000000E+01  4.20000000E+01  0.00000000E+00
  3.00000000E+01  4.20000000E+01  0.00000000E+00
  4.00000000E+01  4.20000000E+01  0.00000000E+00
  5.00000000E+01  4.20000000E+01  0.00000000E+00
  6.00000000E+01  4.20000000E+01  0.00000000E+00
  7.00000000E+01  4.20000000E+01  0.00000000E+00
  8.00000000E+01  4.20000000E+01  0.00000000E+00
  9.00000000E+01  4.20000000E+01  0.00000000E+00
  1.00000000E+02  4.20000000E+01  0.00000000E+00
  1.10000000E+02  4.20000000E+01  0.00000000E+00
  1.20000000E+02  4.20000000E+01  0.00000000E+00
  1.30000000E+02  4.20000000E+01  0.00000000E+00
  1.40000000E+02  4.20000000E+01  0.00000000E+00
  1.50000000E+02  4.20000000E+01  0.00000000E+00
  1.60000000E+02  4.20000000E+01  0.00000000E+00
  1.70000000E+02  4.20000000E+01  0.00000000E+00
  1.80000000E+02  4.20000000E+01  0.00000000E+00
  1.90000000E+02  4.20000000E+01  0.00000000E+00
  2.00000000E+02  4.20000000E+01  0.00000000E+00
  2.10000000E+02  4.20000000E+01  0.00000000E+00
  2.20000000E+02  4.20000000E+01  0.00000000E+00
  2.30000000E+02  4.20000000E+01  0.00000000E+00
  2.40000000E+02  4.20000000E+01  0.00000000E+00
  2.50000000E+02  4.20000000E+01  0.00000000E+00
  2.60000000E+02  4.20000000E+01  0.00000000E+00
  2.70000000E+02  4.20000000E+01  0.00000000E+00
  2.80000000E+02  4.20000000E+01  0.00000000E+00
  2.90000000E+02  4.20000000E+01  0.00000000E+00
  3.00000000E+02  4.20000000E+01  0.00000000E+00
  3.10000000E+02  4.20000000E+01  0.00000000E+00
  3.20000000E+02  4.20000000E+01  0.00000000E+00
  3.30000000E+02  4.20000000E+01  0.00000000E+00
  3.40000000E+02  4.20000000E+01  0.00000000E+00
  3.50000000E+02  4.20000000E+01  0.00000000E+00
  3.60000000E+02  4.20000000E+01  0.00000000E+00
  3.70000000E+02  4.20000000E+01  0.00000000E+00
  3.80000000E+02  4.20000000E+01  0.00000000E+00
  3.90000000E+02  4.20000000E+01  0.00000000E+00
  4.00000000E+02  4.20000000E+01  0.00000000E+00
  4.10000000E+02  4.20000000E+01  0.00000000E+00
  4.20000000E+02  4.20000000E+01  0.00000000E+00
  4.30000000E+02  4.20000000E+01  0.00000000E+00
  4.40000000E+02  4.20000000E+01  0.00000000E+00
  4.50000000E+02  4.20000000E+01  0.00000000E+00
  4.60000000E+02  4.20000000E+01  0.00000000E+00
  4.70000000E+02  4.20000000E+01  0.00000000E+00
  4.80000000E+02  4.20000000E+01  0.00000000E+00
  4.90000000E+02  4.20000000E+01  0.00000000E+00
  5.00000000E+02  4.20000000E+01  0.00000000E+00
  5.10000000E+02  4.20000000E+01  0.00000000E+00
  5.20000000E+02  4.20000000E+01  0.00000000E+00
  5.30000000E+02  4.20000000E+01  0.00000000E+00
  5.40000000E+02  4.20000000E+01  0.00000000E+00
  5.50000000E+02  4.20000000E+01  0.00000000E+00
  5.60000000E+02  4.20000000E+01  0.00000000E+00
  5.70000000E+02  4.20000000E+01  0.00000000E+00
  5.80000000E+02  4.20000000E+01  0.00000000E+00
  5.90000000E+02  4.20000000E+01  0.00000000E+00
  6.00000000E+02  4.20000000E+01  0.00000000E+00
  6.10000000E+02  4.20000000E+01  0.00000000E+00
  6.20000000E+02  4.20000000E+01  0.00000000E+00
  6.30000000E+02  4.20000000E+01  0.00000000E+00
  6.40000000E+02  4.20000000E+01  0.00000000E+00
  6.50000000E+02  4.20000000E+01  0.00000000E+00
  6.60000000E+02  4.20000000E+01  0.00000000E+00
  6.70000000E+02  4.20000000E+01  0.00000000E+00
  6.80000000E+02  4.20000000E+01  0.00000000E+00
  6.90000000E+02  4.20000000E+01  0.00000000E+00
  7.00000000E+02  4.20000000E+01  0.00000000E+00
  7.10000000E+02  4.20000000E+01  0.00000000E+00
  7.20000000E+02  4.20000000E+01  0.00000000E+00
  7.30000000E+02  4.20000000E+01  0.00000000E+00
  7.40000000E+02  4.20000000E+01  0.00000000E+00
  7.50000000E+02  4.20000000E+01  0.00000000E+00
  7.60000000E+02  4.20000000E+01  0.00000000E+00
  7.70000000E+02  4.20000000E+01  0.00000000E+00
  7.80000000E+02  4.20000000E+01  0.00000000E+00
  7.90000000E+02  4.20000000E+01  0.00000000E+00
  8.00000000E+02  4.20000000E+01  0.00000000E+00
  8.10000000E+02  4.20000000E+01  0.00000000E+00
  8.20000000E+02  4.20000000E+01  0.00000000E+00
  8.30000000E+02  4.20000000E+01  0.00000000E+00
  8.40000000E+02  4.20000000E+01  0.00000000E+00
  8.50000000E+02  4.20000000E+01  0.00000000E+00
  8.60000000E+02  4.20000000E+01  0.00000000E+00
  8.70000000E+02  4.20000000E+01  0.00000000E+00
  8.80000000E+02  4.20000000E+01  0.00000000E+00
  8.90000000E+02  4.20000000E+01  0.00000000E+00
  9.00000000E+02  4.20000000E+01  0.00000000E+00
  9.10000000E+02  4.20000000E+01  0.00000000E+00
  9.20000000E+02  4.20000000E+01  0.00000000E+00
  9.30000000E+02  4.20000000E+01  0.00000000E+00
  9.40000000E+02  4.20000000E+01  0.00000000E+00
  9.50000000E+02  4.20000000E+01  0.00000000E+00
  9.60000000E+02  4.20000000E+01  0.00000000E+00
  9.70000000E+02  4.20000000E+01  0.00000000E+00
  9.80000000E+02  4.20000000E+01  0.00000000E+00
  9.90000000E+02  4.20000000E+01  0.00000000E+00
  1.00000000E+03  4.20000000E+01  0.00000000E+00
  0.00000000E+00  4.40000000E+01  0.00000000E+00
  1.00000000E+01  4.40000000E+01  0.00000000E+00
  2.00000000E+01  4.40000000E+01  0.00000000E+00
  3.00000000E+01  4.40000000E+01  0.00000000E+00
  4.00000000E+01  4.40000000E+01  0.00000000E+00
  5.00000000E+01  4.40000000E+01  0.00000000E+00
  6.00000000E+01  4.40000000E+01  0.00000000E+00
  7.00000000E+01  4.40000000E+01  0.00000000E+00
  8.00000000E+01  4.40000000E+01  0.00000000E+00
  9.00000000E+01  4.40000000E+01  0.00000000E+00
  1.00000000E+02  4.40000000E+01  0.00000000E+00
  1.10000000E+02  4.40000000E+01  0.00000000E+00
  1.20000000E+02  4.40000000E+01  0.00000000E+00
  1.30000000E+02  4.40000000E+01  0.00000000E+00
  1.40000000E+02  4.40000000E+01  0.00000000E+00
  1.50000000E+02  4.40000000E+01  0.00000000E+00
  1.60000000E+02  4.40000000E+01  0.00000000E+00
  1.70000000E+02  4.40000000E+01  0.00000000E+00
  1.80000000E+02  4.40000000E+01  0.00000000E+00
  1.90000000E+02  4.40000000E+01  0.00000000E+00
  2.00000000E+02  4.40000000E+01  0.00000000E+00
  2.10000000E+02  4.40000000E+01  0.00000000E+00
  2.20000000E+02  4.40000000E+01  0.00000000E+00
  2.30000000E+02  4.40000000E+01  0.00000000E+00
  2.40000000E+02  4.40000000E+01  0.00000000E+00
  2.50000000E+02  4.40000000E+01  0.00000000E+00
  2.60000000E+02  4.40000000E+01  0.00000000E+00
  2.70000000E+02  4.40000000E+01  0.00000000E+00
  2.80000000E+02  4.40000000E+01  0.00000000E+00
  2.90000000E+02  4.40000000E+01  0.00000000E+00
  3.00000000E+02  4.40000000E+01  0.00000000E+00
  3.10000000E+02  4.40000000E+01  0.00000000E+00
  3.20000000E+02  4.40000000E+01  0.00000000E+00
  3.30000000E+02  4.40000000E+01  0.00000000E+00
  3.40000000E+02  4.40000000E+01  0.00000000E+00
  3.50000000E+02  4.40000000E+01  0.00000000E+00
  3.60000000E+02  4.40000000E+01  0.00000000E+00
  3.70000000E+02  4.40000000E+01  0.00000000E+00
  3.80000000E+02  4.40000000E+01  0.00000000E+00
  3.90000000E+02  4.40000000E+01  0.00000000E+00
  4.00000000E+02  4.40000000E+01  0.00000000E+00
  4.10000000E+02  4.40000000E+01  0.00000000E+00
  4.20000000E+02  4.40000000E+01  0.00000000E+00
  4.30000000E+02  4.40000000E+01  0.00000000E+00
  4.40000000E+02  4.40000000E+01  0.00000000E+00
  4.50000000E+02  4.40000000E+01  0.00000000E+00
  4.60000000E+02  4.40000000E+01  0.00000000E+00
  4.70000000E+02  4.40000000E+01  0.00000000E+00
  4.80000000E+02  4.40000000E+01  0.00000000E+00
  4.90000000E+02  4.40000000E+01  0.00000000E+00
  5.00000000E+02  4.40000000E+01  0.00000000E+00
  5.10000000E+02  4.40000000E+01  0.00000000E+00
  5.20000000E+02  4.40000000E+01  0.00000000E+00
  5.30000000E+02  4.40000000E+01  0.00000000E+00
  5.40000000E+02  4.40000000E+01  0.00000000E+00
  5.50000000E+02  4.40000000E+01  0.00000000E+00
  5.60000000E+02  4.40000000E+01  0.00000000E+00
  5.70000000E+02  4.40000000E+01  0.00000000E+00
  5.80000000E+02  4.40000000E+01  0.00000000E+00
  5.90000000E+02  4.40000000E+01  0.00000000E+00
  6.00000000E+02  4.40000000E+01  0.00000000E+00
  6.10000000E+02  4.40000000E+01  0.00000000E+00
  6.20000000E+02  4.40000000E+01  0.00000000E+00
  6.30000000E+02  4.40000000E+01  0.00000000E+00
  6.40000000E+02  4.40000000E+01  0.00000000E+00
  6.50000000E+02  4.40000000E+01  0.00000000E+00
  6.60000000E+02  4.40000000E+01  0.00000000E+00
  6.70000000E+02  4.40000000E+01  0.00000000E+00
  6.80000000E+02  4.40000000E+01  0.00000000E+00
  6.90000000E+02  4.40000000E+01  0.00000000E+00
  7.00000000E+02  4.40000000E+01  0.00000000E+00
  7.10000000E+02  4.40000000E+01  0.00000000E+00
  7.20000000E+02  4.40000000E+01  0.00000000E+00
  7.30000000E+02  4.40000000E+01  0.00000000E+00
  7.40000000E+02  4.40000000E+01  0.00000000E+00
  7.50000000E+02  4.40000000E+01  0.00000000E+00
  7.60000000E+02  4.40000000E+01  0.00000000E+00
  7.70000000E+02  4.40000000E+01  0.00000000E+00
  7.80000000E+02  4.40000000E+01  0.00000000E+00
  7.90000000E+02  4.40000000E+01  0.00000000E+00
  8.00000000E+02  4.40000000E+01  0.00000000E+00
  8.10000000E+02  4.40000000E+01  0.00000000E+00
  8.20000000E+02  4.40000000E+01  0.00000000E+00
  8.30000000E+02  4.40000000E+01  0.00000000E+00
  8.40000000E+02  4.40000000E+01  0.00000000E+00
  8.50000000E+02  4.40000000E+01  0.00000000E+00
  8.60000000E+02  4.40000000E+01  0.00000000E+00
  8.70000000E+02  4.40000000E+01  0.00000000E+00
  8.80000000E+02  4.40000000E+01  0.00000000E+00
  8.90000000E+02  4.40000000E+01  0.00000000E+00
  9.00000000E+02  4.40000000E+01  0.00000000E+00
  9.10000000E+02  4.40000000E+01  0.00000000E+00
  9.20000000E+02  4.40000000E+01  0.00000000E+00
  9.30000000E+02  4.40000000E+01  0.00000000E+00
  9.40000000E+02  4.40000000E+01  0.00000000E+00
  9.50000000E+02  4.40000000E+01  0.00000000E+00
  9.60000000E+02  4.40000000E+01  0.00000000E+00
  9.70000000E+02  4.40000000E+01  0.00000000E+00
  9.80000000E+02  4.40000000E+01  0.00000000E+00
  9.90000000E+02  4.40000000E+01  0.00000000E+00
  1.00000000E+03  4.40000000E+01  0.00000000E+00
  0.00000000E+00  4.60000000E+01  0.00000000E+00
  1.00000000E+01  4.60000000E+01  0.00000000E+00
  2.00000000E+01  4.60000000E+01  0.00000000E+00
  3.00000000E+01  4.60000000E+01  0.00000000E+00
  4.00000000E+01  4.60000000E+01  0.00000000E+00
  5.00000000E+01  4.60000000E+01  0.00000000E+00
  6.00000000E+01  4.60000000E+01  0.00000000E+00
  7.00000000E+01  4.60000000E+01  0.00000000E+00
  8.00000000E+01  4.60000000E+01  0.00000000E+00
  9.00000000E+01  4.60000000E+01  0.00000000E+00
  1.00000000E+02  4.60000000E+01  0.00000000E+00
  1.10000000E+02  4.60000000E+01  0.00000000E+00
  1.20000000E+02  4.60000000E+01  0.00000000E+00
  1.30000000E+02  4.60000000E+01  0.00000000E+00
  1.40000000E+02  4.60000000E+01  0.00000000E+00
  1.50000000E+02  4.60000000E+01  0.00000000E+00
  1.60000000E+02  4.60000000E+01  0.00000000E+00
  1.70000000E+02  4.60000000E+01  0.00000000E+00
  1.80000000E+02  4.60000000E+01  0.00000000E+00
  1.90000000E+02  4.60000000E+01  0.00000000E+00
  2.00000000E+02  4.60000000E+01  0.00000000E+00
  2.10000000E+02  4.60000000E+01  0.00000000E+00
  2.20000000E+02  4.60000000E+01  0.00000000E+00
  2.30000000E+02  4.60000000E+01  0.00000000E+00
  2.40000000E+02  4.60000000E+01  0.00000000E+00
  2.50000000E+02  4.60000000E+01  0.00000000E+00
  2.60000000E+02  4.60000000E+01  0.00000000E+00
  2.70000000E+02  4.60000000E+01  0.00000000E+00
  2.80000000E+02  4.60000000E+01  0.00000000E+00
  2.90000000E+02  4.60000000E+01  0.00000000E+00
  3.00000000E+02  4.60000000E+01  0.00000000E+00
  3.10000000E+02  4.60000000E+01  0.00000000E+00
  3.20000000E+02  4.60000000E+01  0.00000000E+00
  3.30000000E+02  4.60000000E+01  0.00000000E+00
  3.40000000E+02  4.60000000E+01  0.00000000E+00
  3.50000000E+02  4.60000000E+01  0.00000000E+00
  3.60000000E+02  4.60000000E+01  0.00000000E+00
  3.70000000E+02  4.60000000E+01  0.00000000E+00
  3.80000000E+02  4.60000000E+01  0.00000000E+00
  3.90000000E+02  4.60000000E+01  0.00000000E+00
  4.00000000E+02  4.60000000E+01  0.00000000E+00
  4.10000000E+02  4.60000000E+01  0.00000000E+00
  4.20000000E+02  4.60000000E+01  0.00000000E+00
  4.30000000E+02  4.60000000E+01  0.00000000E+00
  4.40000000E+02  4.60000000E+01  0.00000000E+00
  4.50000000E+02  4.60000000E+01  0.00000000E+00
  4.60000000E+02  4.60000000E+01  0.00000000E+00
  4.70000000E+02  4.60000000E+01  0.00000000E+00
  4.80000000E+02  4.60000000E+01  0.00000000E+00
  4.90000000E+02  4.60000000E+01  0.00000000E+00
  5.00000000E+02  4.60000000E+01  0.00000000E+00
  5.10000000E+02  4.60000000E+01  0.00000000E+00
  5.20000000E+02  4.60000000E+01  0.00000000E+00
  5.30000000E+02  4.60000000E+01  0.00000000E+00
  5.40000000E+02  4.60000000E+01  0.00000000E+00
  5.50000000E+02  4.60000000E+01  0.00000000E+00
  5.60000000E+02  4.60000000E+01  0.00000000E+00
  5.70000000E+02  4.60000000E+01  0.00000000E+00
  5.80000000E+02  4.60000000E+01  0.00000000E+00
  5.90000000E+02  4.60000000E+01  0.00000000E+00
  6.00000000E+02  4.60000000E+01  0.00000000E+00
  6.10000000E+02  4.60000000E+01  0.00000000E+00
  6.20000000E+02  4.60000000E+01  0.00000000E+00
  6.30000000E+02  4.60000000E+01  0.00000000E+00
  6.40000000E+02  4.60000000E+01  0.00000000E+00
  6.50000000E+02  4.60000000E+01  0.00000000E+00
  6.60000000E+02  4.60000000E+01  0.00000000E+00
  6.70000000E+02  4.60000000E+01  0.00000000E+00
  6.80000000E+02  4.60000000E+01  0.00000000E+00
  6.90000000E+02  4.60000000E+01  0.00000000E+00
  7.00000000E+02  4.60000000E+01  0.00000000E+00
  7.10000000E+02  4.60000000E+01  0.00000000E+00
  7.20000000E+02  4.60000000E+01  0.00000000E+00
  7.30000000E+02  4.60000000E+01  0.00000000E+00
  7.40000000E+02  4.60000000E+01  0.00000000E+00
  7.50000000E+02  4.60000000E+01  0.00000000E+00
  7.60000000E+02  4.60000000E+01  0.00000000E+00
  7.70000000E+02  4.60000000E+01  0.00000000E+00
  7.80000000E+02  4.60000000E+01  0.00000000E+00
  7.90000000E+02  4.60000000E+01  0.00000000E+00
  8.00000000E+02  4.60000000E+01  0.00000000E+00
  8.10000000E+02  4.60000000E+01  0.00000000E+00
  8.20000000E+02  4.60000000E+01  0.00000000E+00
  8.30000000E+02  4.60000000E+01  0.00000000E+00
  8.40000000E+02  4.60000000E+01  0.00000000E+00
  8.50000000E+02  4.60000000E+01  0.00000000E+00
  8.60000000E+02  4.60000000E+01  0.00000000E+00
  8.70000000E+02  4.60000000E+01  0.00000000E+00
  8.80000000E+02  4.60000000E+01  0.00000000E+00
  8.90000000E+02  4.60000000E+01  0.00000000E+00
  9.00000000E+02  4.60000000E+01  0.00000000E+00
  9.10000000E+02  4.60000000E+01  0.00000000E+00
  9.20000000E+02  4.60000000E+01  0.00000000E+00
  9.30000000E+02  4.60000000E+01  0.00000000E+00
  9.40000000E+02  4.60000000E+01  0.00000000E+00
  9.50000000E+02  4.60000000E+01  0.00000000E+00
  9.60000000E+02  4.60000000E+01  0.00000000E+00
  9.70000000E+02  4.60000000E+01  0.00000000E+00
  9.80000000E+02  4.60000000E+01  0.00000000E+00
  9.90000000E+02  4.60000000E+01  0.00000000E+00
  1.00000000E+03  4.60000000E+01  0.00000000E+00
  0.00000000E+00  4.80000000E+01  0.00000000E+00
  1.00000000E+01  4.80000000E+01  0.00000000E+00
  2.00000000E+01  4.80000000E+01  0.00000000E+00
  3.00000000E+01  4.80000000E+01  0.00000000E+00
  4.00000000E+01  4.80000000E+01  0.00000000E+00
  5.00000000E+01  4.80000000E+01  0.00000000E+00
  6.00000000E+01  4.80000000E+01  0.00000000E+00
  7.00000000E+01  4.80000000E+01  0.00000000E+00
  8.00000000E+01  4.80000000E+01  0.00000000E+00
  9.00000000E+01  4.80000000E+01  0.00000000E+00
  1.00000000E+02  4.80000000E+01  0.00000000E+00
  1.10000000E+02  4.80000000E+01  0.00000000E+00
  1.20000000E+02  4.80000000E+01  0.00000000E+00
  1.30000000E+02  4.80000000E+01  0.00000000E+00
  1.40000000E+02  4.80000000E+01  0.00000000E+00
  1.50000000E+02  4.80000000E+01  0.00000000E+00
  1.60000000E+02  4.80000000E+01  0.00000000E+00
  1.70000000E+02  4.80000000E+01  0.00000000E+00
  1.80000000E+02  4.80000000E+01  0.00000000E+00
  1.90000000E+02  4.80000000E+01  0.00000000E+00
  2.00000000E+02  4.80000000E+01  0.00000000E+00
  2.10000000E+02  4.80000000E+01  0.00000000E+00
  2.20000000E+02  4.80000000E+01  0.00000000E+00
  2.30000000E+02  4.80000000E+01  0.00000000E+00
  2.40000000E+02  4.80000000E+01  0.00000000E+00
  2.50000000E+02  4.80000000E+01  0.00000000E+00
  2.60000000E+02  4.80000000E+01  0.00000000E+00
  2.70000000E+02  4.80000000E+01  0.00000000E+00
  2.80000000E+02  4.80000000E+01  0.00000000E+00
  2.90000000E+02  4.80000000E+01  0.00000000E+00
  3.00000000E+02  4.80000000E+01  0.00000000E+00
  3.10000000E+02  4.80000000E+01  0.00000000E+00
  3.20000000E+02  4.80000000E+01  0.00000000E+00
  3.30000000E+02  4.80000000E+01  0.00000000E+00
  3.40000000E+02  4.80000000E+01  0.00000000E+00
  3.50000000E+02  4.80000000E+01  0.00000000E+00
  3.60000000E+02  4.80000000E+01  0.00000000E+00
  3.70000000E+02  4.80000000E+01  0.00000000E+00
  3.80000000E+02  4.80000000E+01  0.00000000E+00
  3.90000000E+02  4.80000000E+01  0.00000000E+00
  4.00000000E+02  4.80000000E+01  0.00000000E+00
  4.10000000E+02  4.80000000E+01  0.00000000E+00
  4.20000000E+02  4.80000000E+01  0.00000000E+00
  4.30000000E+02  4.80000000E+01  0.00000000E+00
  4.40000000E+02  4.80000000E+01  0.00000000E+00
  4.50000000E+02  4.80000000E+01  0.00000000E+00
  4.60000000E+02  4.80000000E+01  0.00000000E+00
  4.70000000E+02  4.80000000E+01  0.00000000E+00
  4.80000000E+02  4.80000000E+01  0.00000000E+00
  4.90000000E+02  4.80000000E+01  0.00000000E+00
  5.00000000E+02  4.80000000E+01  0.00000000E+00
  5.10000000E+02  4.80000000E+01  0.00000000E+00
  5.20000000E+02  4.80000000E+01  0.00000000E+00
  5.30000000E+02  4.80000000E+01  0.00000000E+00
  5.40000000E+02  4.80000000E+01  0.00000000E+00
  5.50000000E+02  4.80000000E+01  0.00000000E+00
  5.60000000E+02  4.80000000E+01  0.00000000E+00
  5.70000000E+02  4.80000000E+01  0.00000000E+00
  5.80000000E+02  4.80000000E+01  0.00000000E+00
  5.90000000E+02  4.80000000E+01  0.00000000E+00
  6.00000000E+02  4.80000000E+01  0.00000000E+00
  6.10000000E+02  4.80000000E+01  0.00000000E+00
  6.20000000E+02  4.80000000E+01  0.00000000E+00
  6.30000000E+02  4.80000000E+01  0.00000000E+00
  6.40000000E+02  4.80000000E+01  0.00000000E+00
  6.50000000E+02  4.80000000E+01  0.00000000E+00
  6.60000000E+02  4.80000000E+01  0.00000000E+00
  6.70000000E+02  4.80000000E+01  0.00000000E+00
  6.80000000E+02  4.80000000E+01  0.00000000E+00
  6.90000000E+02  4.80000000E+01  0.00000000E+00
  7.00000000E+02  4.80000000E+01  0.00000000E+00
  7.10000000E+02  4.80000000E+01  0.00000000E+00
  7.20000000E+02  4.80000000E+01  0.00000000E+00
  7.30000000E+02  4.80000000E+01  0.00000000E+00
  7.40000000E+02  4.80000000E+01  0.00000000E+00
  7.50000000E+02  4.80000000E+01  0.00000000E+00
  7.60000000E+02  4.80000000E+01  0.00000000E+00
  7.70000000E+02  4.80000000E+01  0.00000000E+00
  7.80000000E+02  4.80000000E+01  0.00000000E+00
  7.90000000E+02  4.80000000E+01  0.00000000E+00
  8.00000000E+02  4.80000000E+01  0.00000000E+00
  8.10000000E+02  4.80000000E+01  0.00000000E+00
  8.20000000E+02  4.80000000E+01  0.00000000E+00
  8.30000000E+02  4.80000000E+01  0.00000000E+00
  8.40000000E+02  4.80000000E+01  0.00000000E+00
  8.50000000E+02  4.80000000E+01  0.00000000E+00
  8.60000000E+02  4.80000000E+01  0.00000000E+00
  8.70000000E+02  4.80000000E+01  0.00000000E+00
  8.80000000E+02  4.80000000E+01  0.00000000E+00
  8.90000000E+02  4.80000000E+01  0.00000000E+00
  9.00000000E+02  4.80000000E+01  0.00000000E+00
  9.10000000E+02  4.80000000E+01  0.00000000E+00
  9.20000000E+02  4.80000000E+01  0.00000000E+00
  9.30000000E+02  4.80000000E+01  0.00000000E+00
  9.40000000E+02  4.80000000E+01  0.00000000E+00
  9.50000000E+02  4.80000000E+01  0.00000000E+00
  9.60000000E+02  4.80000000E+01  0.00000000E+00
  9.70000000E+02  4.80000000E+01  0.00000000E+00
  9.80000000E+02  4.80000000E+01  0.00000000E+00
  9.90000000E+02  4.80000000E+01  0.00000000E+00
  1.00000000E+03  4.80000000E+01  0.00000000E+00
  0.00000000E+00  5.00000000E+01  0.00000000E+00
  1.00000000E+01  5.00000000E+01  0.00000000E+00
  2.00000000E+01  5.00000000E+01  0.00000000E+00
  3.00000000E+01  5.00000000E+01  0.00000000E+00
  4.00000000E+01  5.00000000E+01  0.00000000E+00
  5.00000000E+01  5.00000000E+01  0.00000000E+00
  6.00000000E+01  5.00000000E+01  0.00000000E+00
  7.00000000E+01  5.00000000E+01  0.00000000E+00
  8.00000000E+01  5.00000000E+01  0.00000000E+00
  9.00000000E+01  5.00000000E+01  0.00000000E+00
  1.00000000E+02  5.00000000E+01  0.00000000E+00
  1.10000000E+02  5.00000000E+01  0.00000000E+00
  1.20000000E+02  5.00000000E+01  0.00000000E+00
  1.30000000E+02  5.00000000E+01  0.00000000E+00
  1.40000000E+02  5.00000000E+01  0.00000000E+00
  1.50000000E+02  5.00000000E+01  0.00000000E+00
  1.60000000E+02  5.00000000E+01  0.00000000E+00
  1.70000000E+02  5.00000000E+01  0.00000000E+00
  1.80000000E+02  5.00000000E+01  0.00000000E+00
  1.90000000E+02  5.00000000E+01  0.00000000E+00
  2.00000000E+02  5.00000000E+01  0.00000000E+00
  2.10000000E+02  5.00000000E+01  0.00000000E+00
  2.20000000E+02  5.00000000E+01  0.00000000E+00
  2.30000000E+02  5.00000000E+01  0.00000000E+00
  2.40000000E+02  5.00000000E+01  0.00000000E+00
  2.50000000E+02  5.00000000E+01  0.00000000E+00
  2.60000000E+02  5.00000000E+01  0.00000000E+00
  2.70000000E+02  5.00000000E+01  0.00000000E+00
  2.80000000E+02  5.00000000E+01  0.00000000E+00
  2.90000000E+02  5.00000000E+01  0.00000000E+00
  3.00000000E+02  5.00000000E+01  0.00000000E+00
  3.10000000E+02  5.00000000E+01  0.00000000E+00
  3.20000000E+02  5.00000000E+01  0.00000000E+00
  3.30000000E+02  5.00000000E+01  0.00000000E+00
  3.40000000E+02  5.00000000E+01  0.00000000E+00
  3.50000000E+02  5.00000000E+01  0.00000000E+00
  3.60000000E+02  5.00000000E+01  0.00000000E+00
  3.70000000E+02  5.00000000E+01  0.00000000E+00
  3.80000000E+02  5.00000000E+01  0.00000000E+00
  3.90000000E+02  5.00000000E+01  0.00000000E+00
  4.00000000E+02  5.00000000E+01  0.00000000E+00
  4.10000000E+02  5.00000000E+01  0.00000000E+00
  4.20000000E+02  5.00000000E+01  0.00000000E+00
  4.30000000E+02  5.00000000E+01  0.00000000E+00
  4.40000000E+02  5.00000000E+01  0.00000000E+00
  4.50000000E+02  5.00000000E+01  0.00000000E+00
  4.60000000E+02  5.00000000E+01  0.00000000E+00
  4.70000000E+02  5.00000000E+01  0.00000000E+00
  4.80000000E+02  5.00000000E+01  0.00000000E+00
  4.90000000E+02  5.00000000E+01  0.00000000E+00
  5.00000000E+02  5.00000000E+01  0.00000000E+00
  5.10000000E+02  5.00000000E+01  0.00000000E+00
  5.20000000E+02  5.00000000E+01  0.00000000E+00
  5.30000000E+02  5.00000000E+01  0.00000000E+00
  5.40000000E+02  5.00000000E+01  0.00000000E+00
  5.50000000E+02  5.00000000E+01  0.00000000E+00
  5.60000000E+02  5.00000000E+01  0.00000000E+00
  5.70000000E+02  5.00000000E+01  0.00000000E+00
  5.80000000E+02  5.00000000E+01  0.00000000E+00
  5.90000000E+02  5.00000000E+01  0.00000000E+00
  6.00000000E+02  5.00000000E+01  0.00000000E+00
  6.10000000E+02  5.00000000E+01  0.00000000E+00
  6.20000000E+02  5.00000000E+01  0.00000000E+00
  6.30000000E+02  5.00000000E+01  0.00000000E+00
  6.40000000E+02  5.00000000E+01  0.00000000E+00
  6.50000000E+02  5.00000000E+01  0.00000000E+00
  6.60000000E+02  5.00000000E+01  0.00000000E+00
  6.70000000E+02  5.00000000E+01  0.00000000E+00
  6.80000000E+02  5.00000000E+01  0.00000000E+00
  6.90000000E+02  5.00000000E+01  0.00000000E+00
  7.00000000E+02  5.00000000E+01  0.00000000E+00
  7.10000000E+02  5.00000000E+01  0.00000000E+00
  7.20000000E+02  5.00000000E+01  0.00000000E+00
  7.30000000E+02  5.00000000E+01  0.00000000E+00
  7.40000000E+02  5.00000000E+01  0.00000000E+00
  7.50000000E+02  5.00000000E+01  0.00000000E+00
  7.60000000E+02  5.00000000E+01  0.00000000E+00
  7.70000000E+02  5.00000000E+01  0.00000000E+00
  7.80000000E+02  5.00000000E+01  0.00000000E+00
  7.90000000E+02  5.00000000E+01  0.00000000E+00
  8.00000000E+02  5.00000000E+01  0.00000000E+00
  8.10000000E+02  5.00000000E+01  0.00000000E+00
  8.20000000E+02  5.00000000E+01  0.00000000E+00
  8.30000000E+02  5.00000000E+01  0.00000000E+00
  8.40000000E+02  5.00000000E+01  0.00000000E+00
  8.50000000E+02  5.00000000E+01  0.00000000E+00
  8.60000000E+02  5.00000000E+01  0.00000000E+00
  8.70000000E+02  5.00000000E+01  0.00000000E+00
  8.80000000E+02  5.00000000E+01  0.00000000E+00
  8.90000000E+02  5.00000000E+01  0.00000000E+00
  9.00000000E+02  5.00000000E+01  0.00000000E+00
  9.10000000E+02  5.00000000E+01  0.00000000E+00
  9.20000000E+02  5.00000000E+01  0.00000000E+00
  9.30000000E+02  5.00000000E+01  0.00000000E+00
  9.40000000E+02  5.00000000E+01  0.00000000E+00
  9.50000000E+02  5.00000000E+01  0.00000000E+00
  9.60000000E+02  5.00000000E+01  0.00000000E+00
  9.70000000E+02  5.00000000E+01  0.00000000E+00
  9.80000000E+02  5.00000000E+01  0.00000000E+00
  9.90000000E+02  5.00000000E+01  0.00000000E+00
  1.00000000E+03  5.00000000E+01  0.00000000E+00
  0.00000000E+00  5.20000000E+01  0.00000000E+00
  1.00000000E+01  5.20000000E+01  0.00000000E+00
  2.00000000E+01  5.20000000E+01  0.00000000E+00
  3.00000000E+01  5.20000000E+01  0.00000000E+00
  4.00000000E+01  5.20000000E+01  0.00000000E+00
  5.00000000E+01  5.20000000E+01  0.00000000E+00
  6.00000000E+01  5.20000000E+01  0.00000000E+00
  7.00000000E+01  5.20000000E+01  0.00000000E+00
  8.00000000E+01  5.20000000E+01  0.00000000E+00
  9.00000000E+01  5.20000000E+01  0.00000000E+00
  1.00000000E+02  5.20000000E+01  0.00000000E+00
  1.10000000E+02  5.20000000E+01  0.00000000E+00
  1.20000000E+02  5.20000000E+01  0.00000000E+00
  1.30000000E+02  5.20000000E+01  0.00000000E+00
  1.40000000E+02  5.20000000E+01  0.00000000E+00
  1.50000000E+02  5.20000000E+01  0.00000000E+00
  1.60000000E+02  5.20000000E+01  0.00000000E+00
  1.70000000E+02  5.20000000E+01  0.00000000E+00
  1.80000000E+02  5.20000000E+01  0.00000000E+00
  1.90000000E+02  5.20000000E+01  0.00000000E+00
  2.00000000E+02  5.20000000E+01  0.00000000E+00
  2.10000000E+02  5.20000000E+01  0.00000000E+00
  2.20000000E+02  5.20000000E+01  0.00000000E+00
  2.30000000E+02  5.20000000E+01  0.00000000E+00
  2.40000000E+02  5.20000000E+01  0.00000000E+00
  2.50000000E+02  5.20000000E+01  0.00000000E+00
  2.60000000E+02  5.20000000E+01  0.00000000E+00
  2.70000000E+02  5.20000000E+01  0.00000000E+00
  2.80000000E+02  5.20000000E+01  0.00000000E+00
  2.90000000E+02  5.20000000E+01  0.00000000E+00
  3.00000000E+02  5.20000000E+01  0.00000000E+00
  3.10000000E+02  5.20000000E+01  0.00000000E+00
  3.20000000E+02  5.20000000E+01  0.00000000E+00
  3.30000000E+02  5.20000000E+01  0.00000000E+00
  3.40000000E+02  5.20000000E+01  0.00000000E+00
  3.50000000E+02  5.20000000E+01  0.00000000E+00
  3.60000000E+02  5.20000000E+01  0.00000000E+00
  3.70000000E+02  5.20000000E+01  0.00000000E+00
  3.80000000E+02  5.20000000E+01  0.00000000E+00
  3.90000000E+02  5.20000000E+01  0.00000000E+00
  4.00000000E+02  5.20000000E+01  0.00000000E+00
  4.10000000E+02  5.20000000E+01  0.00000000E+00
  4.20000000E+02  5.20000000E+01  0.00000000E+00
  4.30000000E+02  5.20000000E+01  0.00000000E+00
  4.40000000E+02  5.20000000E+01  0.00000000E+00
  4.50000000E+02  5.20000000E+01  0.00000000E+00
  4.60000000E+02  5.20000000E+01  0.00000000E+00
  4.70000000E+02  5.20000000E+01  0.00000000E+00
  4.80000000E+02  5.20000000E+01  0.00000000E+00
  4.90000000E+02  5.20000000E+01  0.00000000E+00
  5.00000000E+02  5.20000000E+01  0.00000000E+00
  5.10000000E+02  5.20000000E+01  0.00000000E+00
  5.20000000E+02  5.20000000E+01  0.00000000E+00
  5.30000000E+02  5.20000000E+01  0.00000000E+00
  5.40000000E+02  5.20000000E+01  0.00000000E+00
  5.50000000E+02  5.20000000E+01  0.00000000E+00
  5.60000000E+02  5.20000000E+01  0.00000000E+00
  5.70000000E+02  5.20000000E+01  0.00000000E+00
  5.80000000E+02  5.20000000E+01  0.00000000E+00
  5.90000000E+02  5.20000000E+01  0.00000000E+00
  6.00000000E+02  5.20000000E+01  0.00000000E+00
  6.10000000E+02  5.20000000E+01  0.00000000E+00
  6.20000000E+02  5.20000000E+01  0.00000000E+00
  6.30000000E+02  5.20000000E+01  0.00000000E+00
  6.40000000E+02  5.20000000E+01  0.00000000E+00
  6.50000000E+02  5.20000000E+01  0.00000000E+00
  6.60000000E+02  5.20000000E+01  0.00000000E+00
  6.70000000E+02  5.20000000E+01  0.00000000E+00
  6.80000000E+02  5.20000000E+01  0.00000000E+00
  6.90000000E+02  5.20000000E+01  0.00000000E+00
  7.00000000E+02  5.20000000E+01  0.00000000E+00
  7.10000000E+02  5.20000000E+01  0.00000000E+00
  7.20000000E+02  5.20000000E+01  0.00000000E+00
  7.30000000E+02  5.20000000E+01  0.00000000E+00
  7.40000000E+02  5.20000000E+01  0.00000000E+00
  7.50000000E+02  5.20000000E+01  0.00000000E+00
  7.60000000E+02  5.20000000E+01  0.00000000E+00
  7.70000000E+02  5.20000000E+01  0.00000000E+00
  7.80000000E+02  5.20000000E+01  0.00000000E+00
  7.90000000E+02  5.20000000E+01  0.00000000E+00
  8.00000000E+02  5.20000000E+01  0.00000000E+00
  8.10000000E+02  5.20000000E+01  0.00000000E+00
  8.20000000E+02  5.20000000E+01  0.00000000E+00
  8.30000000E+02  5.20000000E+01  0.00000000E+00
  8.40000000E+02  5.20000000E+01  0.00000000E+00
  8.50000000E+02  5.20000000E+01  0.00000000E+00
  8.60000000E+02  5.20000000E+01  0.00000000E+00
  8.70000000E+02  5.20000000E+01  0.00000000E+00
  8.80000000E+02  5.20000000E+01  0.00000000E+00
  8.90000000E+02  5.20000000E+01  0.00000000E+00
  9.00000000E+02  5.20000000E+01  0.00000000E+00
  9.10000000E+02  5.20000000E+01  0.00000000E+00
  9.20000000E+02  5.20000000E+01  0.00000000E+00
  9.30000000E+02  5.20000000E+01  0.00000000E+00
  9.40000000E+02  5.20000000E+01  0.00000000E+00
  9.50000000E+02  5.20000000E+01  0.00000000E+00
  9.60000000E+02  5.20000000E+01  0.00000000E+00
  9.70000000E+02  5.20000000E+01  0.00000000E+00
  9.80000000E+02  5.20000000E+01  0.00000000E+00
  9.90000000E+02  5.20000000E+01  0.00000000E+00
  1.00000000E+03  5.20000000E+01  0.00000000E+00
  0.00000000E+00  5.40000000E+01  0.00000000E+00
  1.00000000E+01  5.40000000E+01  0.00000000E+00
  2.00000000E+01  5.40000000E+01  0.00000000E+00
  3.00000000E+01  5.40000000E+01  0.00000000E+00
  4.00000000E+01  5.40000000E+01  0.00000000E+00
  5.00000000E+01  5.40000000E+01  0.00000000E+00
  6.00000000E+01  5.40000000E+01  0.00000000E+00
  7.00000000E+01  5.40000000E+01  0.00000000E+00
  8.00000000E+01  5.40000000E+01  0.00000000E+00
  9.00000000E+01  5.40000000E+01  0.00000000E+00
  1.00000000E+02  5.40000000E+01  0.00000000E+00
  1.10000000E+02  5.40000000E+01  0.00000000E+00
  1.20000000E+02  5.40000000E+01  0.00000000E+00
  1.30000000E+02  5.40000000E+01  0.00000000E+00
  1.40000000E+02  5.40000000E+01  0.00000000E+00
  1.50000000E+02  5.40000000E+01  0.00000000E+00
  1.60000000E+02  5.40000000E+01  0.00000000E+00
  1.70000000E+02  5.40000000E+01  0.00000000E+00
  1.80000000E+02  5.40000000E+01  0.00000000E+00
  1.90000000E+02  5.40000000E+01  0.00000000E+00
  2.00000000E+02  5.40000000E+01  0.00000000E+00
  2.10000000E+02  5.40000000E+01  0.00000000E+00
  2.20000000E+02  5.40000000E+01  0.00000000E+00
  2.30000000E+02  5.40000000E+01  0.00000000E+00
  2.40000000E+02  5.40000000E+01  0.00000000E+00
  2.50000000E+02  5.40000000E+01  0.00000000E+00
  2.60000000E+02  5.40000000E+01  0.00000000E+00
  2.70000000E+02  5.40000000E+01  0.00000000E+00
  2.80000000E+02  5.40000000E+01  0.00000000E+00
  2.90000000E+02  5.40000000E+01  0.00000000E+00
  3.00000000E+02  5.40000000E+01  0.00000000E+00
  3.10000000E+02  5.40000000E+01  0.00000000E+00
  3.20000000E+02  5.40000000E+01  0.00000000E+00
  3.30000000E+02  5.40000000E+01  0.00000000E+00
  3.40000000E+02  5.40000000E+01  0.00000000E+00
  3.50000000E+02  5.40000000E+01  0.00000000E+00
  3.60000000E+02  5.40000000E+01  0.00000000E+00
  3.70000000E+02  5.40000000E+01  0.00000000E+00
  3.80000000E+02  5.40000000E+01  0.00000000E+00
  3.90000000E+02  5.40000000E+01  0.00000000E+00
  4.00000000E+02  5.40000000E+01  0.00000000E+00
  4.10000000E+02  5.40000000E+01  0.00000000E+00
  4.20000000E+02  5.40000000E+01  0.00000000E+00
  4.30000000E+02  5.40000000E+01  0.00000000E+00
  4.40000000E+02  5.40000000E+01  0.00000000E+00
  4.50000000E+02  5.40000000E+01  0.00000000E+00
  4.60000000E+02  5.40000000E+01  0.00000000E+00
  4.70000000E+02  5.40000000E+01  0.00000000E+00
  4.80000000E+02  5.40000000E+01  0.00000000E+00
  4.90000000E+02  5.40000000E+01  0.00000000E+00
  5.00000000E+02  5.40000000E+01  0.00000000E+00
  5.10000000E+02  5.40000000E+01  0.00000000E+00
  5.20000000E+02  5.40000000E+01  0.00000000E+00
  5.30000000E+02  5.40000000E+01  0.00000000E+00
  5.40000000E+02  5.40000000E+01  0.00000000E+00
  5.50000000E+02  5.40000000E+01  0.00000000E+00
  5.60000000E+02  5.40000000E+01  0.00000000E+00
  5.70000000E+02  5.40000000E+01  0.00000000E+00
  5.80000000E+02  5.40000000E+01  0.00000000E+00
  5.90000000E+02  5.40000000E+01  0.00000000E+00
  6.00000000E+02  5.40000000E+01  0.00000000E+00
  6.10000000E+02  5.40000000E+01  0.00000000E+00
  6.20000000E+02  5.40000000E+01  0.00000000E+00
  6.30000000E+02  5.40000000E+01  0.00000000E+00
  6.40000000E+02  5.40000000E+01  0.00000000E+00
  6.50000000E+02  5.40000000E+01  0.00000000E+00
  6.60000000E+02  5.40000000E+01  0.00000000E+00
  6.70000000E+02  5.40000000E+01  0.00000000E+00
  6.80000000E+02  5.40000000E+01  0.00000000E+00
  6.90000000E+02  5.40000000E+01  0.00000000E+00
  7.00000000E+02  5.40000000E+01  0.00000000E+00
  7.10000000E+02  5.40000000E+01  0.00000000E+00
  7.20000000E+02  5.40000000E+01  0.00000000E+00
  7.30000000E+02  5.40000000E+01  0.00000000E+00
  7.40000000E+02  5.40000000E+01  0.00000000E+00
  7.50000000E+02  5.40000000E+01  0.00000000E+00
  7.60000000E+02  5.40000000E+01  0.00000000E+00
  7.70000000E+02  5.40000000E+01  0.00000000E+00
  7.80000000E+02  5.40000000E+01  0.00000000E+00
  7.90000000E+02  5.40000000E+01  0.00000000E+00
  8.00000000E+02  5.40000000E+01  0.00000000E+00
  8.10000000E+02  5.40000000E+01  0.00000000E+00
  8.20000000E+02  5.40000000E+01  0.00000000E+00
  8.30000000E+02  5.40000000E+01  0.00000000E+00
  8.40000000E+02  5.40000000E+01  0.00000000E+00
  8.50000000E+02  5.40000000E+01  0.00000000E+00
  8.60000000E+02  5.40000000E+01  0.00000000E+00
  8.70000000E+02  5.40000000E+01  0.00000000E+00
  8.80000000E+02  5.40000000E+01  0.00000000E+00
  8.90000000E+02  5.40000000E+01  0.00000000E+00
  9.00000000E+02  5.40000000E+01  0.00000000E+00
  9.10000000E+02  5.40000000E+01  0.00000000E+00
  9.20000000E+02  5.40000000E+01  0.00000000E+00
  9.30000000E+02  5.40000000E+01  0.00000000E+00
  9.40000000E+02  5.40000000E+01  0.00000000E+00
  9.50000000E+02  5.40000000E+01  0.00000000E+00
  9.60000000E+02  5.40000000E+01  0.00000000E+00
  9.70000000E+02  5.40000000E+01  0.00000000E+00
  9.80000000E+02  5.40000000E+01  0.00000000E+00
  9.90000000E+02  5.40000000E+01  0.00000000E+00
  1.00000000E+03  5.40000000E+01  0.00000000E+00
  0.00000000E+00  5.60000000E+01  0.00000000E+00
  1.00000000E+01  5.60000000E+01  0.00000000E+00
  2.00000000E+01  5.60000000E+01  0.00000000E+00
  3.00000000E+01  5.60000000E+01  0.00000000E+00
  4.00000000E+01  5.60000000E+01  0.00000000E+00
  5.00000000E+01  5.60000000E+01  0.00000000E+00
  6.00000000E+01  5.60000000E+01  0.00000000E+00
  7.00000000E+01  5.60000000E+01  0.00000000E+00
  8.00000000E+01  5.60000000E+01  0.00000000E+00
  9.00000000E+01  5.60000000E+01  0.00000000E+00
  1.00000000E+02  5.60000000E+01  0.00000000E+00
  1.10000000E+02  5.60000000E+01  0.00000000E+00
  1.20000000E+02  5.60000000E+01  0.00000000E+00
  1.30000000E+02  5.60000000E+01  0.00000000E+00
  1.40000000E+02  5.60000000E+01  0.00000000E+00
  1.50000000E+02  5.60000000E+01  0.00000000E+00
  1.60000000E+02  5.60000000E+01  0.00000000E+00
  1.70000000E+02  5.60000000E+01  0.00000000E+00
  1.80000000E+02  5.60000000E+01  0.00000000E+00
  1.90000000E+02  5.60000000E+01  0.00000000E+00
  2.00000000E+02  5.60000000E+01  0.00000000E+00
  2.10000000E+02  5.60000000E+01  0.00000000E+00
  2.20000000E+02  5.60000000E+01  0.00000000E+00
  2.30000000E+02  5.60000000E+01  0.00000000E+00
  2.40000000E+02  5.60000000E+01  0.00000000E+00
  2.50000000E+02  5.60000000E+01  0.00000000E+00
  2.60000000E+02  5.60000000E+01  0.00000000E+00
  2.70000000E+02  5.60000000E+01  0.00000000E+00
  2.80000000E+02  5.60000000E+01  0.00000000E+00
  2.90000000E+02  5.60000000E+01  0.00000000E+00
  3.00000000E+02  5.60000000E+01  0.00000000E+00
  3.10000000E+02  5.60000000E+01  0.00000000E+00
  3.20000000E+02  5.60000000E+01  0.00000000E+00
  3.30000000E+02  5.60000000E+01  0.00000000E+00
  3.40000000E+02  5.60000000E+01  0.00000000E+00
  3.50000000E+02  5.60000000E+01  0.00000000E+00
  3.60000000E+02  5.60000000E+01  0.00000000E+00
  3.70000000E+02  5.60000000E+01  0.00000000E+00
  3.80000000E+02  5.60000000E+01  0.00000000E+00
  3.90000000E+02  5.60000000E+01  0.00000000E+00
  4.00000000E+02  5.60000000E+01  0.00000000E+00
  4.10000000E+02  5.60000000E+01  0.00000000E+00
  4.20000000E+02  5.60000000E+01  0.00000000E+00
  4.30000000E+02  5.60000000E+01  0.00000000E+00
  4.40000000E+02  5.60000000E+01  0.00000000E+00
  4.50000000E+02  5.60000000E+01  0.00000000E+00
  4.60000000E+02  5.60000000E+01  0.00000000E+00
  4.70000000E+02  5.60000000E+01  0.00000000E+00
  4.80000000E+02  5.60000000E+01  0.00000000E+00
  4.90000000E+02  5.60000000E+01  0.00000000E+00
  5.00000000E+02  5.60000000E+01  0.00000000E+00
  5.10000000E+02  5.60000000E+01  0.00000000E+00
  5.20000000E+02  5.60000000E+01  0.00000000E+00
  5.30000000E+02  5.60000000E+01  0.00000000E+00
  5.40000000E+02  5.60000000E+01  0.00000000E+00
  5.50000000E+02  5.60000000E+01  0.00000000E+00
  5.60000000E+02  5.60000000E+01  0.00000000E+00
  5.70000000E+02  5.60000000E+01  0.00000000E+00
  5.80000000E+02  5.60000000E+01  0.00000000E+00
  5.90000000E+02  5.60000000E+01  0.00000000E+00
  6.00000000E+02  5.60000000E+01  0.00000000E+00
  6.10000000E+02  5.60000000E+01  0.00000000E+00
  6.20000000E+02  5.60000000E+01  0.00000000E+00
  6.30000000E+02  5.60000000E+01  0.00000000E+00
  6.40000000E+02  5.60000000E+01  0.00000000E+00
  6.50000000E+02  5.60000000E+01  0.00000000E+00
  6.60000000E+02  5.60000000E+01  0.00000000E+00
  6.70000000E+02  5.60000000E+01  0.00000000E+00
  6.80000000E+02  5.60000000E+01  0.00000000E+00
  6.90000000E+02  5.60000000E+01  0.00000000E+00
  7.00000000E+02  5.60000000E+01  0.00000000E+00
  7.10000000E+02  5.60000000E+01  0.00000000E+00
  7.20000000E+02  5.60000000E+01  0.00000000E+00
  7.30000000E+02  5.60000000E+01  0.00000000E+00
  7.40000000E+02  5.60000000E+01  0.00000000E+00
  7.50000000E+02  5.60000000E+01  0.00000000E+00
  7.60000000E+02  5.60000000E+01  0.00000000E+00
  7.70000000E+02  5.60000000E+01  0.00000000E+00
  7.80000000E+02  5.60000000E+01  0.00000000E+00
  7.90000000E+02  5.60000000E+01  0.00000000E+00
  8.00000000E+02  5.60000000E+01  0.00000000E+00
  8.10000000E+02  5.60000000E+01  0.00000000E+00
  8.20000000E+02  5.60000000E+01  0.00000000E+00
  8.30000000E+02  5.60000000E+01  0.00000000E+00
  8.40000000E+02  5.60000000E+01  0.00000000E+00
  8.50000000E+02  5.60000000E+01  0.00000000E+00
  8.60000000E+02  5.60000000E+01  0.00000000E+00
  8.70000000E+02  5.60000000E+01  0.00000000E+00
  8.80000000E+02  5.60000000E+01  0.00000000E+00
  8.90000000E+02  5.60000000E+01  0.00000000E+00
  9.00000000E+02  5.60000000E+01  0.00000000E+00
  9.10000000E+02  5.60000000E+01  0.00000000E+00
  9.20000000E+02  5.60000000E+01  0.00000000E+00
  9.30000000E+02  5.60000000E+01  0.00000000E+00
  9.40000000E+02  5.60000000E+01  0.00000000E+00
  9.50000000E+02  5.60000000E+01  0.00000000E+00
  9.60000000E+02  5.60000000E+01  0.00000000E+00
  9.70000000E+02  5.60000000E+01  0.00000000E+00
  9.80000000E+02  5.60000000E+01  0.00000000E+00
  9.90000000E+02  5.60000000E+01  0.00000000E+00
  1.00000000E+03  5.60000000E+01  0.00000000E+00
  0.00000000E+00  5.80000000E+01  0.00000000E+00
  1.00000000E+01  5.80000000E+01  0.00000000E+00
  2.00000000E+01  5.80000000E+01  0.00000000E+00
  3.00000000E+01  5.80000000E+01  0.00000000E+00
  4.00000000E+01  5.80000000E+01  0.00000000E+00
  5.00000000E+01  5.80000000E+01  0.00000000E+00
  6.00000000E+01  5.80000000E+01  0.00000000E+00
  7.00000000E+01  5.80000000E+01  0.00000000E+00
  8.00000000E+01  5.80000000E+01  0.00000000E+00
  9.00000000E+01  5.80000000E+01  0.00000000E+00
  1.00000000E+02  5.80000000E+01  0.00000000E+00
  1.10000000E+02  5.80000000E+01  0.00000000E+00
  1.20000000E+02  5.80000000E+01  0.00000000E+00
  1.30000000E+02  5.80000000E+01  0.00000000E+00
  1.40000000E+02  5.80000000E+01  0.00000000E+00
  1.50000000E+02  5.80000000E+01  0.00000000E+00
  1.60000000E+02  5.80000000E+01  0.00000000E+00
  1.70000000E+02  5.80000000E+01  0.00000000E+00
  1.80000000E+02  5.80000000E+01  0.00000000E+00
  1.90000000E+02  5.80000000E+01  0.00000000E+00
  2.00000000E+02  5.80000000E+01  0.00000000E+00
  2.10000000E+02  5.80000000E+01  0.00000000E+00
  2.20000000E+02  5.80000000E+01  0.00000000E+00
  2.30000000E+02  5.80000000E+01  0.00000000E+00
  2.40000000E+02  5.80000000E+01  0.00000000E+00
  2.50000000E+02  5.80000000E+01  0.00000000E+00
  2.60000000E+02  5.80000000E+01  0.00000000E+00
  2.70000000E+02  5.80000000E+01  0.00000000E+00
  2.80000000E+02  5.80000000E+01  0.00000000E+00
  2.90000000E+02  5.80000000E+01  0.00000000E+00
  3.00000000E+02  5.80000000E+01  0.00000000E+00
  3.10000000E+02  5.80000000E+01  0.00000000E+00
  3.20000000E+02  5.80000000E+01  0.00000000E+00
  3.30000000E+02  5.80000000E+01  0.00000000E+00
  3.40000000E+02  5.80000000E+01  0.00000000E+00
  3.50000000E+02  5.80000000E+01  0.00000000E+00
  3.60000000E+02  5.80000000E+01  0.00000000E+00
  3.70000000E+02  5.80000000E+01  0.00000000E+00
  3.80000000E+02  5.80000000E+01  0.00000000E+00
  3.90000000E+02  5.80000000E+01  0.00000000E+00
  4.00000000E+02  5.80000000E+01  0.00000000E+00
  4.10000000E+02  5.80000000E+01  0.00000000E+00
  4.20000000E+02  5.80000000E+01  0.00000000E+00
  4.30000000E+02  5.80000000E+01  0.00000000E+00
  4.40000000E+02  5.80000000E+01  0.00000000E+00
  4.50000000E+02  5.80000000E+01  0.00000000E+00
  4.60000000E+02  5.80000000E+01  0.00000000E+00
  4.70000000E+02  5.80000000E+01  0.00000000E+00
  4.80000000E+02  5.80000000E+01  0.00000000E+00
  4.90000000E+02  5.80000000E+01  0.00000000E+00
  5.00000000E+02  5.80000000E+01  0.00000000E+00
  5.10000000E+02  5.80000000E+01  0.00000000E+00
  5.20000000E+02  5.80000000E+01  0.00000000E+00
  5.30000000E+02  5.80000000E+01  0.00000000E+00
  5.40000000E+02  5.80000000E+01  0.00000000E+00
  5.50000000E+02  5.80000000E+01  0.00000000E+00
  5.60000000E+02  5.80000000E+01  0.00000000E+00
  5.70000000E+02  5.80000000E+01  0.00000000E+00
  5.80000000E+02  5.80000000E+01  0.00000000E+00
  5.90000000E+02  5.80000000E+01  0.00000000E+00
  6.00000000E+02  5.80000000E+01  0.00000000E+00
  6.10000000E+02  5.80000000E+01  0.00000000E+00
  6.20000000E+02  5.80000000E+01  0.00000000E+00
  6.30000000E+02  5.80000000E+01  0.00000000E+00
  6.40000000E+02  5.80000000E+01  0.00000000E+00
  6.50000000E+02  5.80000000E+01  0.00000000E+00
  6.60000000E+02  5.80000000E+01  0.00000000E+00
  6.70000000E+02  5.80000000E+01  0.00000000E+00
  6.80000000E+02  5.80000000E+01  0.00000000E+00
  6.90000000E+02  5.80000000E+01  0.00000000E+00
  7.00000000E+02  5.80000000E+01  0.00000000E+00
  7.10000000E+02  5.80000000E+01  0.00000000E+00
  7.20000000E+02  5.80000000E+01  0.00000000E+00
  7.30000000E+02  5.80000000E+01  0.00000000E+00
  7.40000000E+02  5.80000000E+01  0.00000000E+00
  7.50000000E+02  5.80000000E+01  0.00000000E+00
  7.60000000E+02  5.80000000E+01  0.00000000E+00
  7.70000000E+02  5.80000000E+01  0.00000000E+00
  7.80000000E+02  5.80000000E+01  0.00000000E+00
  7.90000000E+02  5.80000000E+01  0.00000000E+00
  8.00000000E+02  5.80000000E+01  0.00000000E+00
  8.10000000E+02  5.80000000E+01  0.00000000E+00
  8.20000000E+02  5.80000000E+01  0.00000000E+00
  8.30000000E+02  5.80000000E+01  0.00000000E+00
  8.40000000E+02  5.80000000E+01  0.00000000E+00
  8.50000000E+02  5.80000000E+01  0.00000000E+00
  8.60000000E+02  5.80000000E+01  0.00000000E+00
  8.70000000E+02  5.80000000E+01  0.00000000E+00
  8.80000000E+02  5.80000000E+01  0.00000000E+00
  8.90000000E+02  5.80000000E+01  0.00000000E+00
  9.00000000E+02  5.80000000E+01  0.00000000E+00
  9.10000000E+02  5.80000000E+01  0.00000000E+00
  9.20000000E+02  5.80000000E+01  0.00000000E+00
  9.30000000E+02  5.80000000E+01  0.00000000E+00
  9.40000000E+02  5.80000000E+01  0.00000000E+00
  9.50000000E+02  5.80000000E+01  0.00000000E+00
  9.60000000E+02  5.80000000E+01  0.00000000E+00
  9.70000000E+02  5.80000000E+01  0.00000000E+00
  9.80000000E+02  5.80000000E+01  0.00000000E+00
  9.90000000E+02  5.80000000E+01  0.00000000E+00
  1.00000000E+03  5.80000000E+01  0.00000000E+00
  0.00000000E+00  6.00000000E+01  0.00000000E+00
  1.00000000E+01  6.00000000E+01  0.00000000E+00
  2.00000000E+01  6.00000000E+01  0.00000000E+00
  3.00000000E+01  6.00000000E+01  0.00000000E+00
  4.00000000E+01  6.00000000E+01  0.00000000E+00
  5.00000000E+01  6.00000000E+01  0.00000000E+00
  6.00000000E+01  6.00000000E+01  0.00000000E+00
  7.00000000E+01  6.00000000E+01  0.00000000E+00
  8.00000000E+01  6.00000000E+01  0.00000000E+00
  9.00000000E+01  6.00000000E+01  0.00000000E+00
  1.00000000E+02  6.00000000E+01  0.00000000E+00
  1.10000000E+02  6.00000000E+01  0.00000000E+00
  1.20000000E+02  6.00000000E+01  0.00000000E+00
  1.30000000E+02  6.00000000E+01  0.00000000E+00
  1.40000000E+02  6.00000000E+01  0.00000000E+00
  1.50000000E+02  6.00000000E+01  0.00000000E+00
  1.60000000E+02  6.00000000E+01  0.00000000E+00
  1.70000000E+02  6.00000000E+01  0.00000000E+00
  1.80000000E+02  6.00000000E+01  0.00000000E+00
  1.90000000E+02  6.00000000E+01  0.00000000E+00
  2.00000000E+02  6.00000000E+01  0.00000000E+00
  2.10000000E+02  6.00000000E+01  0.00000000E+00
  2.20000000E+02  6.00000000E+01  0.00000000E+00
  2.30000000E+02  6.00000000E+01  0.00000000E+00
  2.40000000E+02  6.00000000E+01  0.00000000E+00
  2.50000000E+02  6.00000000E+01  0.00000000E+00
  2.60000000E+02  6.00000000E+01  0.00000000E+00
  2.70000000E+02  6.00000000E+01  0.00000000E+00
  2.80000000E+02  6.00000000E+01  0.00000000E+00
  2.90000000E+02  6.00000000E+01  0.00000000E+00
  3.00000000E+02  6.00000000E+01  0.00000000E+00
  3.10000000E+02  6.00000000E+01  0.00000000E+00
  3.20000000E+02  6.00000000E+01  0.00000000E+00
  3.30000000E+02  6.00000000E+01  0.00000000E+00
  3.40000000E+02  6.00000000E+01  0.00000000E+00
  3.50000000E+02  6.00000000E+01  0.00000000E+00
  3.60000000E+02  6.00000000E+01  0.00000000E+00
  3.70000000E+02  6.00000000E+01  0.00000000E+00
  3.80000000E+02  6.00000000E+01  0.00000000E+00
  3.90000000E+02  6.00000000E+01  0.00000000E+00
  4.00000000E+02  6.00000000E+01  0.00000000E+00
  4.10000000E+02  6.00000000E+01  0.00000000E+00
  4.20000000E+02  6.00000000E+01  0.00000000E+00
  4.30000000E+02  6.00000000E+01  0.00000000E+00
  4.40000000E+02  6.00000000E+01  0.00000000E+00
  4.50000000E+02  6.00000000E+01  0.00000000E+00
  4.60000000E+02  6.00000000E+01  0.00000000E+00
  4.70000000E+02  6.00000000E+01  0.00000000E+00
  4.80000000E+02  6.00000000E+01  0.00000000E+00
  4.90000000E+02  6.00000000E+01  0.00000000E+00
  5.00000000E+02  6.00000000E+01  0.00000000E+00
  5.10000000E+02  6.00000000E+01  0.00000000E+00
  5.20000000E+02  6.00000000E+01  0.00000000E+00
  5.30000000E+02  6.00000000E+01  0.00000000E+00
  5.40000000E+02  6.00000000E+01  0.00000000E+00
  5.50000000E+02  6.00000000E+01  0.00000000E+00
  5.60000000E+02  6.00000000E+01  0.00000000E+00
  5.70000000E+02  6.00000000E+01  0.00000000E+00
  5.80000000E+02  6.00000000E+01  0.00000000E+00
  5.90000000E+02  6.00000000E+01  0.00000000E+00
  6.00000000E+02  6.00000000E+01  0.00000000E+00
  6.10000000E+02  6.00000000E+01  0.00000000E+00
  6.20000000E+02  6.00000000E+01  0.00000000E+00
  6.30000000E+02  6.00000000E+01  0.00000000E+00
  6.40000000E+02  6.00000000E+01  0.00000000E+00
  6.50000000E+02  6.00000000E+01  0.00000000E+00
  6.60000000E+02  6.00000000E+01  0.00000000E+00
  6.70000000E+02  6.00000000E+01  0.00000000E+00
  6.80000000E+02  6.00000000E+01  0.00000000E+00
  6.90000000E+02  6.00000000E+01  0.00000000E+00
  7.00000000E+02  6.00000000E+01  0.00000000E+00
  7.10000000E+02  6.00000000E+01  0.00000000E+00
  7.20000000E+02  6.00000000E+01  0.00000000E+00
  7.30000000E+02  6.00000000E+01  0.00000000E+00
  7.40000000E+02  6.00000000E+01  0.00000000E+00
  7.50000000E+02  6.00000000E+01  0.00000000E+00
  7.60000000E+02  6.00000000E+01  0.00000000E+00
  7.70000000E+02  6.00000000E+01  0.00000000E+00
  7.80000000E+02  6.00000000E+01  0.00000000E+00
  7.90000000E+02  6.00000000E+01  0.00000000E+00
  8.00000000E+02  6.00000000E+01  0.00000000E+00
  8.10000000E+02  6.00000000E+01  0.00000000E+00
  8.20000000E+02  6.00000000E+01  0.00000000E+00
  8.30000000E+02  6.00000000E+01  0.00000000E+00
  8.40000000E+02  6.00000000E+01  0.00000000E+00
  8.50000000E+02  6.00000000E+01  0.00000000E+00
  8.60000000E+02  6.00000000E+01  0.00000000E+00
  8.70000000E+02  6.00000000E+01  0.00000000E+00
  8.80000000E+02  6.00000000E+01  0.00000000E+00
  8.90000000E+02  6.00000000E+01  0.00000000E+00
  9.00000000E+02  6.00000000E+01  0.00000000E+00
  9.10000000E+02  6.00000000E+01  0.00000000E+00
  9.20000000E+02  6.00000000E+01  0.00000000E+00
  9.30000000E+02  6.00000000E+01  0.00000000E+00
  9.40000000E+02  6.00000000E+01  0.00000000E+00
  9.50000000E+02  6.00000000E+01  0.00000000E+00
  9.60000000E+02  6.00000000E+01  0.00000000E+00
  9.70000000E+02  6.00000000E+01  0.00000000E+00
  9.80000000E+02  6.00000000E+01  0.00000000E+00
  9.90000000E+02  6.00000000E+01  0.00000000E+00
  1.00000000E+03  6.00000000E+01  0.00000000E+00
  0.00000000E+00  6.20000000E+01  0.00000000E+00
  1.00000000E+01  6.20000000E+01  0.00000000E+00
  2.00000000E+01  6.20000000E+01  0.00000000E+00
  3.00000000E+01  6.20000000E+01  0.00000000E+00
  4.00000000E+01  6.20000000E+01  0.00000000E+00
  5.00000000E+01  6.20000000E+01  0.00000000E+00
  6.00000000E+01  6.20000000E+01  0.00000000E+00
  7.00000000E+01  6.20000000E+01  0.00000000E+00
  8.00000000E+01  6.20000000E+01  0.00000000E+00
  9.00000000E+01  6.20000000E+01  0.00000000E+00
  1.00000000E+02  6.20000000E+01  0.00000000E+00
  1.10000000E+02  6.20000000E+01  0.00000000E+00
  1.20000000E+02  6.20000000E+01  0.00000000E+00
  1.30000000E+02  6.20000000E+01  0.00000000E+00
  1.40000000E+02  6.20000000E+01  0.00000000E+00
  1.50000000E+02  6.20000000E+01  0.00000000E+00
  1.60000000E+02  6.20000000E+01  0.00000000E+00
  1.70000000E+02  6.20000000E+01  0.00000000E+00
  1.80000000E+02  6.20000000E+01  0.00000000E+00
  1.90000000E+02  6.20000000E+01  0.00000000E+00
  2.00000000E+02  6.20000000E+01  0.00000000E+00
  2.10000000E+02  6.20000000E+01  0.00000000E+00
  2.20000000E+02  6.20000000E+01  0.00000000E+00
  2.30000000E+02  6.20000000E+01  0.00000000E+00
  2.40000000E+02  6.20000000E+01  0.00000000E+00
  2.50000000E+02  6.20000000E+01  0.00000000E+00
  2.60000000E+02  6.20000000E+01  0.00000000E+00
  2.70000000E+02  6.20000000E+01  0.00000000E+00
  2.80000000E+02  6.20000000E+01  0.00000000E+00
  2.90000000E+02  6.20000000E+01  0.00000000E+00
  3.00000000E+02  6.20000000E+01  0.00000000E+00
  3.10000000E+02  6.20000000E+01  0.00000000E+00
  3.20000000E+02  6.20000000E+01  0.00000000E+00
  3.30000000E+02  6.20000000E+01  0.00000000E+00
  3.40000000E+02  6.20000000E+01  0.00000000E+00
  3.50000000E+02  6.20000000E+01  0.00000000E+00
  3.60000000E+02  6.20000000E+01  0.00000000E+00
  3.70000000E+02  6.20000000E+01  0.00000000E+00
  3.80000000E+02  6.20000000E+01  0.00000000E+00
  3.90000000E+02  6.20000000E+01  0.00000000E+00
  4.00000000E+02  6.20000000E+01  0.00000000E+00
  4.10000000E+02  6.20000000E+01  0.00000000E+00
  4.20000000E+02  6.20000000E+01  0.00000000E+00
  4.30000000E+02  6.20000000E+01  0.00000000E+00
  4.40000000E+02  6.20000000E+01  0.00000000E+00
  4.50000000E+02  6.20000000E+01  0.00000000E+00
  4.60000000E+02  6.20000000E+01  0.00000000E+00
  4.70000000E+02  6.20000000E+01  0.00000000E+00
  4.80000000E+02  6.20000000E+01  0.00000000E+00
  4.90000000E+02  6.20000000E+01  0.00000000E+00
  5.00000000E+02  6.20000000E+01  0.00000000E+00
  5.10000000E+02  6.20000000E+01  0.00000000E+00
  5.20000000E+02  6.20000000E+01  0.00000000E+00
  5.30000000E+02  6.20000000E+01  0.00000000E+00
  5.40000000E+02  6.20000000E+01  0.00000000E+00
  5.50000000E+02  6.20000000E+01  0.00000000E+00
  5.60000000E+02  6.20000000E+01  0.00000000E+00
  5.70000000E+02  6.20000000E+01  0.00000000E+00
  5.80000000E+02  6.20000000E+01  0.00000000E+00
  5.90000000E+02  6.20000000E+01  0.00000000E+00
  6.00000000E+02  6.20000000E+01  0.00000000E+00
  6.10000000E+02  6.20000000E+01  0.00000000E+00
  6.20000000E+02  6.20000000E+01  0.00000000E+00
  6.30000000E+02  6.20000000E+01  0.00000000E+00
  6.40000000E+02  6.20000000E+01  0.00000000E+00
  6.50000000E+02  6.20000000E+01  0.00000000E+00
  6.60000000E+02  6.20000000E+01  0.00000000E+00
  6.70000000E+02  6.20000000E+01  0.00000000E+00
  6.80000000E+02  6.20000000E+01  0.00000000E+00
  6.90000000E+02  6.20000000E+01  0.00000000E+00
  7.00000000E+02  6.20000000E+01  0.00000000E+00
  7.10000000E+02  6.20000000E+01  0.00000000E+00
  7.20000000E+02  6.20000000E+01  0.00000000E+00
  7.30000000E+02  6.20000000E+01  0.00000000E+00
  7.40000000E+02  6.20000000E+01  0.00000000E+00
  7.50000000E+02  6.20000000E+01  0.00000000E+00
  7.60000000E+02  6.20000000E+01  0.00000000E+00
  7.70000000E+02  6.20000000E+01  0.00000000E+00
  7.80000000E+02  6.20000000E+01  0.00000000E+00
  7.90000000E+02  6.20000000E+01  0.00000000E+00
  8.00000000E+02  6.20000000E+01  0.00000000E+00
  8.10000000E+02  6.20000000E+01  0.00000000E+00
  8.20000000E+02  6.20000000E+01  0.00000000E+00
  8.30000000E+02  6.20000000E+01  0.00000000E+00
  8.40000000E+02  6.20000000E+01  0.00000000E+00
  8.50000000E+02  6.20000000E+01  0.00000000E+00
  8.60000000E+02  6.20000000E+01  0.00000000E+00
  8.70000000E+02  6.20000000E+01  0.00000000E+00
  8.80000000E+02  6.20000000E+01  0.00000000E+00
  8.90000000E+02  6.20000000E+01  0.00000000E+00
  9.00000000E+02  6.20000000E+01  0.00000000E+00
  9.10000000E+02  6.20000000E+01  0.00000000E+00
  9.20000000E+02  6.20000000E+01  0.00000000E+00
  9.30000000E+02  6.20000000E+01  0.00000000E+00
  9.40000000E+02  6.20000000E+01  0.00000000E+00
  9.50000000E+02  6.20000000E+01  0.00000000E+00
  9.60000000E+02  6.20000000E+01  0.00000000E+00
  9.70000000E+02  6.20000000E+01  0.00000000E+00
  9.80000000E+02  6.20000000E+01  0.00000000E+00
  9.90000000E+02  6.20000000E+01  0.00000000E+00
  1.00000000E+03  6.20000000E+01  0.00000000E+00
  0.00000000E+00  6.40000000E+01  0.00000000E+00
  1.00000000E+01  6.40000000E+01  0.00000000E+00
  2.00000000E+01  6.40000000E+01  0.00000000E+00
  3.00000000E+01  6.40000000E+01  0.00000000E+00
  4.00000000E+01  6.40000000E+01  0.00000000E+00
  5.00000000E+01  6.40000000E+01  0.00000000E+00
  6.00000000E+01  6.40000000E+01  0.00000000E+00
  7.00000000E+01  6.40000000E+01  0.00000000E+00
  8.00000000E+01  6.40000000E+01  0.00000000E+00
  9.00000000E+01  6.40000000E+01  0.00000000E+00
  1.00000000E+02  6.40000000E+01  0.00000000E+00
  1.10000000E+02  6.40000000E+01  0.00000000E+00
  1.20000000E+02  6.40000000E+01  0.00000000E+00
  1.30000000E+02  6.40000000E+01  0.00000000E+00
  1.40000000E+02  6.40000000E+01  0.00000000E+00
  1.50000000E+02  6.40000000E+01  0.00000000E+00
  1.60000000E+02  6.40000000E+01  0.00000000E+00
  1.70000000E+02  6.40000000E+01  0.00000000E+00
  1.80000000E+02  6.40000000E+01  0.00000000E+00
  1.90000000E+02  6.40000000E+01  0.00000000E+00
  2.00000000E+02  6.40000000E+01  0.00000000E+00
  2.10000000E+02  6.40000000E+01  0.00000000E+00
  2.20000000E+02  6.40000000E+01  0.00000000E+00
  2.30000000E+02  6.40000000E+01  0.00000000E+00
  2.40000000E+02  6.40000000E+01  0.00000000E+00
  2.50000000E+02  6.40000000E+01  0.00000000E+00
  2.60000000E+02  6.40000000E+01  0.00000000E+00
  2.70000000E+02  6.40000000E+01  0.00000000E+00
  2.80000000E+02  6.40000000E+01  0.00000000E+00
  2.90000000E+02  6.40000000E+01  0.00000000E+00
  3.00000000E+02  6.40000000E+01  0.00000000E+00
  3.10000000E+02  6.40000000E+01  0.00000000E+00
  3.20000000E+02  6.40000000E+01  0.00000000E+00
  3.30000000E+02  6.40000000E+01  0.00000000E+00
  3.40000000E+02  6.40000000E+01  0.00000000E+00
  3.50000000E+02  6.40000000E+01  0.00000000E+00
  3.60000000E+02  6.40000000E+01  0.00000000E+00
  3.70000000E+02  6.40000000E+01  0.00000000E+00
  3.80000000E+02  6.40000000E+01  0.00000000E+00
  3.90000000E+02  6.40000000E+01  0.00000000E+00
  4.00000000E+02  6.40000000E+01  0.00000000E+00
  4.10000000E+02  6.40000000E+01  0.00000000E+00
  4.20000000E+02  6.40000000E+01  0.00000000E+00
  4.30000000E+02  6.40000000E+01  0.00000000E+00
  4.40000000E+02  6.40000000E+01  0.00000000E+00
  4.50000000E+02  6.40000000E+01  0.00000000E+00
  4.60000000E+02  6.40000000E+01  0.00000000E+00
  4.70000000E+02  6.40000000E+01  0.00000000E+00
  4.80000000E+02  6.40000000E+01  0.00000000E+00
  4.90000000E+02  6.40000000E+01  0.00000000E+00
  5.00000000E+02  6.40000000E+01  0.00000000E+00
  5.10000000E+02  6.40000000E+01  0.00000000E+00
  5.20000000E+02  6.40000000E+01  0.00000000E+00
  5.30000000E+02  6.40000000E+01  0.00000000E+00
  5.40000000E+02  6.40000000E+01  0.00000000E+00
  5.50000000E+02  6.40000000E+01  0.00000000E+00
  5.60000000E+02  6.40000000E+01  0.00000000E+00
  5.70000000E+02  6.40000000E+01  0.00000000E+00
  5.80000000E+02  6.40000000E+01  0.00000000E+00
  5.90000000E+02  6.40000000E+01  0.00000000E+00
  6.00000000E+02  6.40000000E+01  0.00000000E+00
  6.10000000E+02  6.40000000E+01  0.00000000E+00
  6.20000000E+02  6.40000000E+01  0.00000000E+00
  6.30000000E+02  6.40000000E+01  0.00000000E+00
  6.40000000E+02  6.40000000E+01  0.00000000E+00
  6.50000000E+02  6.40000000E+01  0.00000000E+00
  6.60000000E+02  6.40000000E+01  0.00000000E+00
  6.70000000E+02  6.40000000E+01  0.00000000E+00
  6.80000000E+02  6.40000000E+01  0.00000000E+00
  6.90000000E+02  6.40000000E+01  0.00000000E+00
  7.00000000E+02  6.40000000E+01  0.00000000E+00
  7.10000000E+02  6.40000000E+01  0.00000000E+00
  7.20000000E+02  6.40000000E+01  0.00000000E+00
  7.30000000E+02  6.40000000E+01  0.00000000E+00
  7.40000000E+02  6.40000000E+01  0.00000000E+00
  7.50000000E+02  6.40000000E+01  0.00000000E+00
  7.60000000E+02  6.40000000E+01  0.00000000E+00
  7.70000000E+02  6.40000000E+01  0.00000000E+00
  7.80000000E+02  6.40000000E+01  0.00000000E+00
  7.90000000E+02  6.40000000E+01  0.00000000E+00
  8.00000000E+02  6.40000000E+01  0.00000000E+00
  8.10000000E+02  6.40000000E+01  0.00000000E+00
  8.20000000E+02  6.40000000E+01  0.00000000E+00
  8.30000000E+02  6.40000000E+01  0.00000000E+00
  8.40000000E+02  6.40000000E+01  0.00000000E+00
  8.50000000E+02  6.40000000E+01  0.00000000E+00
  8.60000000E+02  6.40000000E+01  0.00000000E+00
  8.70000000E+02  6.40000000E+01  0.00000000E+00
  8.80000000E+02  6.40000000E+01  0.00000000E+00
  8.90000000E+02  6.40000000E+01  0.00000000E+00
  9.00000000E+02  6.40000000E+01  0.00000000E+00
  9.10000000E+02  6.40000000E+01  0.00000000E+00
  9.20000000E+02  6.40000000E+01  0.00000000E+00
  9.30000000E+02  6.40000000E+01  0.00000000E+00
  9.40000000E+02  6.40000000E+01  0.00000000E+00
  9.50000000E+02  6.40000000E+01  0.00000000E+00
  9.60000000E+02  6.40000000E+01  0.00000000E+00
  9.70000000E+02  6.40000000E+01  0.00000000E+00
  9.80000000E+02  6.40000000E+01  0.00000000E+00
  9.90000000E+02  6.40000000E+01  0.00000000E+00
  1.00000000E+03  6.40000000E+01  0.00000000E+00
  0.00000000E+00  6.60000000E+01  0.00000000E+00
  1.00000000E+01  6.60000000E+01  0.00000000E+00
  2.00000000E+01  6.60000000E+01  0.00000000E+00
  3.00000000E+01  6.60000000E+01  0.00000000E+00
  4.00000000E+01  6.60000000E+01  0.00000000E+00
  5.00000000E+01  6.60000000E+01  0.00000000E+00
  6.00000000E+01  6.60000000E+01  0.00000000E+00
  7.00000000E+01  6.60000000E+01  0.00000000E+00
  8.00000000E+01  6.60000000E+01  0.00000000E+00
  9.00000000E+01  6.60000000E+01  0.00000000E+00
  1.00000000E+02  6.60000000E+01  0.00000000E+00
  1.10000000E+02  6.60000000E+01  0.00000000E+00
  1.20000000E+02  6.60000000E+01  0.00000000E+00
  1.30000000E+02  6.60000000E+01  0.00000000E+00
  1.40000000E+02  6.60000000E+01  0.00000000E+00
  1.50000000E+02  6.60000000E+01  0.00000000E+00
  1.60000000E+02  6.60000000E+01  0.00000000E+00
  1.70000000E+02  6.60000000E+01  0.00000000E+00
  1.80000000E+02  6.60000000E+01  0.00000000E+00
  1.90000000E+02  6.60000000E+01  0.00000000E+00
  2.00000000E+02  6.60000000E+01  0.00000000E+00
  2.10000000E+02  6.60000000E+01  0.00000000E+00
  2.20000000E+02  6.60000000E+01  0.00000000E+00
  2.30000000E+02  6.60000000E+01  0.00000000E+00
  2.40000000E+02  6.60000000E+01  0.00000000E+00
  2.50000000E+02  6.60000000E+01  0.00000000E+00
  2.60000000E+02  6.60000000E+01  0.00000000E+00
  2.70000000E+02  6.60000000E+01  0.00000000E+00
  2.80000000E+02  6.60000000E+01  0.00000000E+00
  2.90000000E+02  6.60000000E+01  0.00000000E+00
  3.00000000E+02  6.60000000E+01  0.00000000E+00
  3.10000000E+02  6.60000000E+01  0.00000000E+00
  3.20000000E+02  6.60000000E+01  0.00000000E+00
  3.30000000E+02  6.60000000E+01  0.00000000E+00
  3.40000000E+02  6.60000000E+01  0.00000000E+00
  3.50000000E+02  6.60000000E+01  0.00000000E+00
  3.60000000E+02  6.60000000E+01  0.00000000E+00
  3.70000000E+02  6.60000000E+01  0.00000000E+00
  3.80000000E+02  6.60000000E+01  0.00000000E+00
  3.90000000E+02  6.60000000E+01  0.00000000E+00
  4.00000000E+02  6.60000000E+01  0.00000000E+00
  4.10000000E+02  6.60000000E+01  0.00000000E+00
  4.20000000E+02  6.60000000E+01  0.00000000E+00
  4.30000000E+02  6.60000000E+01  0.00000000E+00
  4.40000000E+02  6.60000000E+01  0.00000000E+00
  4.50000000E+02  6.60000000E+01  0.00000000E+00
  4.60000000E+02  6.60000000E+01  0.00000000E+00
  4.70000000E+02  6.60000000E+01  0.00000000E+00
  4.80000000E+02  6.60000000E+01  0.00000000E+00
  4.90000000E+02  6.60000000E+01  0.00000000E+00
  5.00000000E+02  6.60000000E+01  0.00000000E+00
  5.10000000E+02  6.60000000E+01  0.00000000E+00
  5.20000000E+02  6.60000000E+01  0.00000000E+00
  5.30000000E+02  6.60000000E+01  0.00000000E+00
  5.40000000E+02  6.60000000E+01  0.00000000E+00
  5.50000000E+02  6.60000000E+01  0.00000000E+00
  5.60000000E+02  6.60000000E+01  0.00000000E+00
  5.70000000E+02  6.60000000E+01  0.00000000E+00
  5.80000000E+02  6.60000000E+01  0.00000000E+00
  5.90000000E+02  6.60000000E+01  0.00000000E+00
  6.00000000E+02  6.60000000E+01  0.00000000E+00
  6.10000000E+02  6.60000000E+01  0.00000000E+00
  6.20000000E+02  6.60000000E+01  0.00000000E+00
  6.30000000E+02  6.60000000E+01  0.00000000E+00
  6.40000000E+02  6.60000000E+01  0.00000000E+00
  6.50000000E+02  6.60000000E+01  0.00000000E+00
  6.60000000E+02  6.60000000E+01  0.00000000E+00
  6.70000000E+02  6.60000000E+01  0.00000000E+00
  6.80000000E+02  6.60000000E+01  0.00000000E+00
  6.90000000E+02  6.60000000E+01  0.00000000E+00
  7.00000000E+02  6.60000000E+01  0.00000000E+00
  7.10000000E+02  6.60000000E+01  0.00000000E+00
  7.20000000E+02  6.60000000E+01  0.00000000E+00
  7.30000000E+02  6.60000000E+01  0.00000000E+00
  7.40000000E+02  6.60000000E+01  0.00000000E+00
  7.50000000E+02  6.60000000E+01  0.00000000E+00
  7.60000000E+02  6.60000000E+01  0.00000000E+00
  7.70000000E+02  6.60000000E+01  0.00000000E+00
  7.80000000E+02  6.60000000E+01  0.00000000E+00
  7.90000000E+02  6.60000000E+01  0.00000000E+00
  8.00000000E+02  6.60000000E+01  0.00000000E+00
  8.10000000E+02  6.60000000E+01  0.00000000E+00
  8.20000000E+02  6.60000000E+01  0.00000000E+00
  8.30000000E+02  6.60000000E+01  0.00000000E+00
  8.40000000E+02  6.60000000E+01  0.00000000E+00
  8.50000000E+02  6.60000000E+01  0.00000000E+00
  8.60000000E+02  6.60000000E+01  0.00000000E+00
  8.70000000E+02  6.60000000E+01  0.00000000E+00
  8.80000000E+02  6.60000000E+01  0.00000000E+00
  8.90000000E+02  6.60000000E+01  0.00000000E+00
  9.00000000E+02  6.60000000E+01  0.00000000E+00
  9.10000000E+02  6.60000000E+01  0.00000000E+00
  9.20000000E+02  6.60000000E+01  0.00000000E+00
  9.30000000E+02  6.60000000E+01  0.00000000E+00
  9.40000000E+02  6.60000000E+01  0.00000000E+00
  9.50000000E+02  6.60000000E+01  0.00000000E+00
  9.60000000E+02  6.60000000E+01  0.00000000E+00
  9.70000000E+02  6.60000000E+01  0.00000000E+00
  9.80000000E+02  6.60000000E+01  0.00000000E+00
  9.90000000E+02  6.60000000E+01  0.00000000E+00
  1.00000000E+03  6.60000000E+01  0.00000000E+00
  0.00000000E+00  6.80000000E+01  0.00000000E+00
  1.00000000E+01  6.80000000E+01  0.00000000E+00
  2.00000000E+01  6.80000000E+01  0.00000000E+00
  3.00000000E+01  6.80000000E+01  0.00000000E+00
  4.00000000E+01  6.80000000E+01  0.00000000E+00
  5.00000000E+01  6.80000000E+01  0.00000000E+00
  6.00000000E+01  6.80000000E+01  0.00000000E+00
  7.00000000E+01  6.80000000E+01  0.00000000E+00
  8.00000000E+01  6.80000000E+01  0.00000000E+00
  9.00000000E+01  6.80000000E+01  0.00000000E+00
  1.00000000E+02  6.80000000E+01  0.00000000E+00
  1.10000000E+02  6.80000000E+01  0.00000000E+00
  1.20000000E+02  6.80000000E+01  0.00000000E+00
  1.30000000E+02  6.80000000E+01  0.00000000E+00
  1.40000000E+02  6.80000000E+01  0.00000000E+00
  1.50000000E+02  6.80000000E+01  0.00000000E+00
  1.60000000E+02  6.80000000E+01  0.00000000E+00
  1.70000000E+02  6.80000000E+01  0.00000000E+00
  1.80000000E+02  6.80000000E+01  0.00000000E+00
  1.90000000E+02  6.80000000E+01  0.00000000E+00
  2.00000000E+02  6.80000000E+01  0.00000000E+00
  2.10000000E+02  6.80000000E+01  0.00000000E+00
  2.20000000E+02  6.80000000E+01  0.00000000E+00
  2.30000000E+02  6.80000000E+01  0.00000000E+00
  2.40000000E+02  6.80000000E+01  0.00000000E+00
  2.50000000E+02  6.80000000E+01  0.00000000E+00
  2.60000000E+02  6.80000000E+01  0.00000000E+00
  2.70000000E+02  6.80000000E+01  0.00000000E+00
  2.80000000E+02  6.80000000E+01  0.00000000E+00
  2.90000000E+02  6.80000000E+01  0.00000000E+00
  3.00000000E+02  6.80000000E+01  0.00000000E+00
  3.10000000E+02  6.80000000E+01  0.00000000E+00
  3.20000000E+02  6.80000000E+01  0.00000000E+00
  3.30000000E+02  6.80000000E+01  0.00000000E+00
  3.40000000E+02  6.80000000E+01  0.00000000E+00
  3.50000000E+02  6.80000000E+01  0.00000000E+00
  3.60000000E+02  6.80000000E+01  0.00000000E+00
  3.70000000E+02  6.80000000E+01  0.00000000E+00
  3.80000000E+02  6.80000000E+01  0.00000000E+00
  3.90000000E+02  6.80000000E+01  0.00000000E+00
  4.00000000E+02  6.80000000E+01  0.00000000E+00
  4.10000000E+02  6.80000000E+01  0.00000000E+00
  4.20000000E+02  6.80000000E+01  0.00000000E+00
  4.30000000E+02  6.80000000E+01  0.00000000E+00
  4.40000000E+02  6.80000000E+01  0.00000000E+00
  4.50000000E+02  6.80000000E+01  0.00000000E+00
  4.60000000E+02  6.80000000E+01  0.00000000E+00
  4.70000000E+02  6.80000000E+01  0.00000000E+00
  4.80000000E+02  6.80000000E+01  0.00000000E+00
  4.90000000E+02  6.80000000E+01  0.00000000E+00
  5.00000000E+02  6.80000000E+01  0.00000000E+00
  5.10000000E+02  6.80000000E+01  0.00000000E+00
  5.20000000E+02  6.80000000E+01  0.00000000E+00
  5.30000000E+02  6.80000000E+01  0.00000000E+00
  5.40000000E+02  6.80000000E+01  0.00000000E+00
  5.50000000E+02  6.80000000E+01  0.00000000E+00
  5.60000000E+02  6.80000000E+01  0.00000000E+00
  5.70000000E+02  6.80000000E+01  0.00000000E+00
  5.80000000E+02  6.80000000E+01  0.00000000E+00
  5.90000000E+02  6.80000000E+01  0.00000000E+00
  6.00000000E+02  6.80000000E+01  0.00000000E+00
  6.10000000E+02  6.80000000E+01  0.00000000E+00
  6.20000000E+02  6.80000000E+01  0.00000000E+00
  6.30000000E+02  6.80000000E+01  0.00000000E+00
  6.40000000E+02  6.80000000E+01  0.00000000E+00
  6.50000000E+02  6.80000000E+01  0.00000000E+00
  6.60000000E+02  6.80000000E+01  0.00000000E+00
  6.70000000E+02  6.80000000E+01  0.00000000E+00
  6.80000000E+02  6.80000000E+01  0.00000000E+00
  6.90000000E+02  6.80000000E+01  0.00000000E+00
  7.00000000E+02  6.80000000E+01  0.00000000E+00
  7.10000000E+02  6.80000000E+01  0.00000000E+00
  7.20000000E+02  6.80000000E+01  0.00000000E+00
  7.30000000E+02  6.80000000E+01  0.00000000E+00
  7.40000000E+02  6.80000000E+01  0.00000000E+00
  7.50000000E+02  6.80000000E+01  0.00000000E+00
  7.60000000E+02  6.80000000E+01  0.00000000E+00
  7.70000000E+02  6.80000000E+01  0.00000000E+00
  7.80000000E+02  6.80000000E+01  0.00000000E+00
  7.90000000E+02  6.80000000E+01  0.00000000E+00
  8.00000000E+02  6.80000000E+01  0.00000000E+00
  8.10000000E+02  6.80000000E+01  0.00000000E+00
  8.20000000E+02  6.80000000E+01  0.00000000E+00
  8.30000000E+02  6.80000000E+01  0.00000000E+00
  8.40000000E+02  6.80000000E+01  0.00000000E+00
  8.50000000E+02  6.80000000E+01  0.00000000E+00
  8.60000000E+02  6.80000000E+01  0.00000000E+00
  8.70000000E+02  6.80000000E+01  0.00000000E+00
  8.80000000E+02  6.80000000E+01  0.00000000E+00
  8.90000000E+02  6.80000000E+01  0.00000000E+00
  9.00000000E+02  6.80000000E+01  0.00000000E+00
  9.10000000E+02  6.80000000E+01  0.00000000E+00
  9.20000000E+02  6.80000000E+01  0.00000000E+00
  9.30000000E+02  6.80000000E+01  0.00000000E+00
  9.40000000E+02  6.80000000E+01  0.00000000E+00
  9.50000000E+02  6.80000000E+01  0.00000000E+00
  9.60000000E+02  6.80000000E+01  0.00000000E+00
  9.70000000E+02  6.80000000E+01  0.00000000E+00
  9.80000000E+02  6.80000000E+01  0.00000000E+00
  9.90000000E+02  6.80000000E+01  0.00000000E+00
  1.00000000E+03  6.80000000E+01  0.00000000E+00
  0.00000000E+00  7.00000000E+01  0.00000000E+00
  1.00000000E+01  7.00000000E+01  0.00000000E+00
  2.00000000E+01  7.00000000E+01  0.00000000E+00
  3.00000000E+01  7.00000000E+01  0.00000000E+00
  4.00000000E+01  7.00000000E+01  0.00000000E+00
  5.00000000E+01  7.00000000E+01  0.00000000E+00
  6.00000000E+01  7.00000000E+01  0.00000000E+00
  7.00000000E+01  7.00000000E+01  0.00000000E+00
  8.00000000E+01  7.00000000E+01  0.00000000E+00
  9.00000000E+01  7.00000000E+01  0.00000000E+00
  1.00000000E+02  7.00000000E+01  0.00000000E+00
  1.10000000E+02  7.00000000E+01  0.00000000E+00
  1.20000000E+02  7.00000000E+01  0.00000000E+00
  1.30000000E+02  7.00000000E+01  0.00000000E+00
  1.40000000E+02  7.00000000E+01  0.00000000E+00
  1.50000000E+02  7.00000000E+01  0.00000000E+00
  1.60000000E+02  7.00000000E+01  0.00000000E+00
  1.70000000E+02  7.00000000E+01  0.00000000E+00
  1.80000000E+02  7.00000000E+01  0.00000000E+00
  1.90000000E+02  7.00000000E+01  0.00000000E+00
  2.00000000E+02  7.00000000E+01  0.00000000E+00
  2.10000000E+02  7.00000000E+01  0.00000000E+00
  2.20000000E+02  7.00000000E+01  0.00000000E+00
  2.30000000E+02  7.00000000E+01  0.00000000E+00
  2.40000000E+02  7.00000000E+01  0.00000000E+00
  2.50000000E+02  7.00000000E+01  0.00000000E+00
  2.60000000E+02  7.00000000E+01  0.00000000E+00
  2.70000000E+02  7.00000000E+01  0.00000000E+00
  2.80000000E+02  7.00000000E+01  0.00000000E+00
  2.90000000E+02  7.00000000E+01  0.00000000E+00
  3.00000000E+02  7.00000000E+01  0.00000000E+00
  3.10000000E+02  7.00000000E+01  0.00000000E+00
  3.20000000E+02  7.00000000E+01  0.00000000E+00
  3.30000000E+02  7.00000000E+01  0.00000000E+00
  3.40000000E+02  7.00000000E+01  0.00000000E+00
  3.50000000E+02  7.00000000E+01  0.00000000E+00
  3.60000000E+02  7.00000000E+01  0.00000000E+00
  3.70000000E+02  7.00000000E+01  0.00000000E+00
  3.80000000E+02  7.00000000E+01  0.00000000E+00
  3.90000000E+02  7.00000000E+01  0.00000000E+00
  4.00000000E+02  7.00000000E+01  0.00000000E+00
  4.10000000E+02  7.00000000E+01  0.00000000E+00
  4.20000000E+02  7.00000000E+01  0.00000000E+00
  4.30000000E+02  7.00000000E+01  0.00000000E+00
  4.40000000E+02  7.00000000E+01  0.00000000E+00
  4.50000000E+02  7.00000000E+01  0.00000000E+00
  4.60000000E+02  7.00000000E+01  0.00000000E+00
  4.70000000E+02  7.00000000E+01  0.00000000E+00
  4.80000000E+02  7.00000000E+01  0.00000000E+00
  4.90000000E+02  7.00000000E+01  0.00000000E+00
  5.00000000E+02  7.00000000E+01  0.00000000E+00
  5.10000000E+02  7.00000000E+01  0.00000000E+00
  5.20000000E+02  7.00000000E+01  0.00000000E+00
  5.30000000E+02  7.00000000E+01  0.00000000E+00
  5.40000000E+02  7.00000000E+01  0.00000000E+00
  5.50000000E+02  7.00000000E+01  0.00000000E+00
  5.60000000E+02  7.00000000E+01  0.00000000E+00
  5.70000000E+02  7.00000000E+01  0.00000000E+00
  5.80000000E+02  7.00000000E+01  0.00000000E+00
  5.90000000E+02  7.00000000E+01  0.00000000E+00
  6.00000000E+02  7.00000000E+01  0.00000000E+00
  6.10000000E+02  7.00000000E+01  0.00000000E+00
  6.20000000E+02  7.00000000E+01  0.00000000E+00
  6.30000000E+02  7.00000000E+01  0.00000000E+00
  6.40000000E+02  7.00000000E+01  0.00000000E+00
  6.50000000E+02  7.00000000E+01  0.00000000E+00
  6.60000000E+02  7.00000000E+01  0.00000000E+00
  6.70000000E+02  7.00000000E+01  0.00000000E+00
  6.80000000E+02  7.00000000E+01  0.00000000E+00
  6.90000000E+02  7.00000000E+01  0.00000000E+00
  7.00000000E+02  7.00000000E+01  0.00000000E+00
  7.10000000E+02  7.00000000E+01  0.00000000E+00
  7.20000000E+02  7.00000000E+01  0.00000000E+00
  7.30000000E+02  7.00000000E+01  0.00000000E+00
  7.40000000E+02  7.00000000E+01  0.00000000E+00
  7.50000000E+02  7.00000000E+01  0.00000000E+00
  7.60000000E+02  7.00000000E+01  0.00000000E+00
  7.70000000E+02  7.00000000E+01  0.00000000E+00
  7.80000000E+02  7.00000000E+01  0.00000000E+00
  7.90000000E+02  7.00000000E+01  0.00000000E+00
  8.00000000E+02  7.00000000E+01  0.00000000E+00
  8.10000000E+02  7.00000000E+01  0.00000000E+00
  8.20000000E+02  7.00000000E+01  0.00000000E+00
  8.30000000E+02  7.00000000E+01  0.00000000E+00
  8.40000000E+02  7.00000000E+01  0.00000000E+00
  8.50000000E+02  7.00000000E+01  0.00000000E+00
  8.60000000E+02  7.00000000E+01  0.00000000E+00
  8.70000000E+02  7.00000000E+01  0.00000000E+00
  8.80000000E+02  7.00000000E+01  0.00000000E+00
  8.90000000E+02  7.00000000E+01  0.00000000E+00
  9.00000000E+02  7.00000000E+01  0.00000000E+00
  9.10000000E+02  7.00000000E+01  0.00000000E+00
  9.20000000E+02  7.00000000E+01  0.00000000E+00
  9.30000000E+02  7.00000000E+01  0.00000000E+00
  9.40000000E+02  7.00000000E+01  0.00000000E+00
  9.50000000E+02  7.00000000E+01  0.00000000E+00
  9.60000000E+02  7.00000000E+01  0.00000000E+00
  9.70000000E+02  7.00000000E+01  0.00000000E+00
  9.80000000E+02  7.00000000E+01  0.00000000E+00
  9.90000000E+02  7.00000000E+01  0.00000000E+00
  1.00000000E+03  7.00000000E+01  0.00000000E+00
  0.00000000E+00  7.20000000E+01  0.00000000E+00
  1.00000000E+01  7.20000000E+01  0.00000000E+00
  2.00000000E+01  7.20000000E+01  0.00000000E+00
  3.00000000E+01  7.20000000E+01  0.00000000E+00
  4.00000000E+01  7.20000000E+01  0.00000000E+00
  5.00000000E+01  7.20000000E+01  0.00000000E+00
  6.00000000E+01  7.20000000E+01  0.00000000E+00
  7.00000000E+01  7.20000000E+01  0.00000000E+00
  8.00000000E+01  7.20000000E+01  0.00000000E+00
  9.00000000E+01  7.20000000E+01  0.00000000E+00
  1.00000000E+02  7.20000000E+01  0.00000000E+00
  1.10000000E+02  7.20000000E+01  0.00000000E+00
  1.20000000E+02  7.20000000E+01  0.00000000E+00
  1.30000000E+02  7.20000000E+01  0.00000000E+00
  1.40000000E+02  7.20000000E+01  0.00000000E+00
  1.50000000E+02  7.20000000E+01  0.00000000E+00
  1.60000000E+02  7.20000000E+01  0.00000000E+00
  1.70000000E+02  7.20000000E+01  0.00000000E+00
  1.80000000E+02  7.20000000E+01  0.00000000E+00
  1.90000000E+02  7.20000000E+01  0.00000000E+00
  2.00000000E+02  7.20000000E+01  0.00000000E+00
  2.10000000E+02  7.20000000E+01  0.00000000E+00
  2.20000000E+02  7.20000000E+01  0.00000000E+00
  2.30000000E+02  7.20000000E+01  0.00000000E+00
  2.40000000E+02  7.20000000E+01  0.00000000E+00
  2.50000000E+02  7.20000000E+01  0.00000000E+00
  2.60000000E+02  7.20000000E+01  0.00000000E+00
  2.70000000E+02  7.20000000E+01  0.00000000E+00
  2.80000000E+02  7.20000000E+01  0.00000000E+00
  2.90000000E+02  7.20000000E+01  0.00000000E+00
  3.00000000E+02  7.20000000E+01  0.00000000E+00
  3.10000000E+02  7.20000000E+01  0.00000000E+00
  3.20000000E+02  7.20000000E+01  0.00000000E+00
  3.30000000E+02  7.20000000E+01  0.00000000E+00
  3.40000000E+02  7.20000000E+01  0.00000000E+00
  3.50000000E+02  7.20000000E+01  0.00000000E+00
  3.60000000E+02  7.20000000E+01  0.00000000E+00
  3.70000000E+02  7.20000000E+01  0.00000000E+00
  3.80000000E+02  7.20000000E+01  0.00000000E+00
  3.90000000E+02  7.20000000E+01  0.00000000E+00
  4.00000000E+02  7.20000000E+01  0.00000000E+00
  4.10000000E+02  7.20000000E+01  0.00000000E+00
  4.20000000E+02  7.20000000E+01  0.00000000E+00
  4.30000000E+02  7.20000000E+01  0.00000000E+00
  4.40000000E+02  7.20000000E+01  0.00000000E+00
  4.50000000E+02  7.20000000E+01  0.00000000E+00
  4.60000000E+02  7.20000000E+01  0.00000000E+00
  4.70000000E+02  7.20000000E+01  0.00000000E+00
  4.80000000E+02  7.20000000E+01  0.00000000E+00
  4.90000000E+02  7.20000000E+01  0.00000000E+00
  5.00000000E+02  7.20000000E+01  0.00000000E+00
  5.10000000E+02  7.20000000E+01  0.00000000E+00
  5.20000000E+02  7.20000000E+01  0.00000000E+00
  5.30000000E+02  7.20000000E+01  0.00000000E+00
  5.40000000E+02  7.20000000E+01  0.00000000E+00
  5.50000000E+02  7.20000000E+01  0.00000000E+00
  5.60000000E+02  7.20000000E+01  0.00000000E+00
  5.70000000E+02  7.20000000E+01  0.00000000E+00
  5.80000000E+02  7.20000000E+01  0.00000000E+00
  5.90000000E+02  7.20000000E+01  0.00000000E+00
  6.00000000E+02  7.20000000E+01  0.00000000E+00
  6.10000000E+02  7.20000000E+01  0.00000000E+00
  6.20000000E+02  7.20000000E+01  0.00000000E+00
  6.30000000E+02  7.20000000E+01  0.00000000E+00
  6.40000000E+02  7.20000000E+01  0.00000000E+00
  6.50000000E+02  7.20000000E+01  0.00000000E+00
  6.60000000E+02  7.20000000E+01  0.00000000E+00
  6.70000000E+02  7.20000000E+01  0.00000000E+00
  6.80000000E+02  7.20000000E+01  0.00000000E+00
  6.90000000E+02  7.20000000E+01  0.00000000E+00
  7.00000000E+02  7.20000000E+01  0.00000000E+00
  7.10000000E+02  7.20000000E+01  0.00000000E+00
  7.20000000E+02  7.20000000E+01  0.00000000E+00
  7.30000000E+02  7.20000000E+01  0.00000000E+00
  7.40000000E+02  7.20000000E+01  0.00000000E+00
  7.50000000E+02  7.20000000E+01  0.00000000E+00
  7.60000000E+02  7.20000000E+01  0.00000000E+00
  7.70000000E+02  7.20000000E+01  0.00000000E+00
  7.80000000E+02  7.20000000E+01  0.00000000E+00
  7.90000000E+02  7.20000000E+01  0.00000000E+00
  8.00000000E+02  7.20000000E+01  0.00000000E+00
  8.10000000E+02  7.20000000E+01  0.00000000E+00
  8.20000000E+02  7.20000000E+01  0.00000000E+00
  8.30000000E+02  7.20000000E+01  0.00000000E+00
  8.40000000E+02  7.20000000E+01  0.00000000E+00
  8.50000000E+02  7.20000000E+01  0.00000000E+00
  8.60000000E+02  7.20000000E+01  0.00000000E+00
  8.70000000E+02  7.20000000E+01  0.00000000E+00
  8.80000000E+02  7.20000000E+01  0.00000000E+00
  8.90000000E+02  7.20000000E+01  0.00000000E+00
  9.00000000E+02  7.20000000E+01  0.00000000E+00
  9.10000000E+02  7.20000000E+01  0.00000000E+00
  9.20000000E+02  7.20000000E+01  0.00000000E+00
  9.30000000E+02  7.20000000E+01  0.00000000E+00
  9.40000000E+02  7.20000000E+01  0.00000000E+00
  9.50000000E+02  7.20000000E+01  0.00000000E+00
  9.60000000E+02  7.20000000E+01  0.00000000E+00
  9.70000000E+02  7.20000000E+01  0.00000000E+00
  9.80000000E+02  7.20000000E+01  0.00000000E+00
  9.90000000E+02  7.20000000E+01  0.00000000E+00
  1.00000000E+03  7.20000000E+01  0.00000000E+00
  0.00000000E+00  7.40000000E+01  0.00000000E+00
  1.00000000E+01  7.40000000E+01  0.00000000E+00
  2.00000000E+01  7.40000000E+01  0.00000000E+00
  3.00000000E+01  7.40000000E+01  0.00000000E+00
  4.00000000E+01  7.40000000E+01  0.00000000E+00
  5.00000000E+01  7.40000000E+01  0.00000000E+00
  6.00000000E+01  7.40000000E+01  0.00000000E+00
  7.00000000E+01  7.40000000E+01  0.00000000E+00
  8.00000000E+01  7.40000000E+01  0.00000000E+00
  9.00000000E+01  7.40000000E+01  0.00000000E+00
  1.00000000E+02  7.40000000E+01  0.00000000E+00
  1.10000000E+02  7.40000000E+01  0.00000000E+00
  1.20000000E+02  7.40000000E+01  0.00000000E+00
  1.30000000E+02  7.40000000E+01  0.00000000E+00
  1.40000000E+02  7.40000000E+01  0.00000000E+00
  1.50000000E+02  7.40000000E+01  0.00000000E+00
  1.60000000E+02  7.40000000E+01  0.00000000E+00
  1.70000000E+02  7.40000000E+01  0.00000000E+00
  1.80000000E+02  7.40000000E+01  0.00000000E+00
  1.90000000E+02  7.40000000E+01  0.00000000E+00
  2.00000000E+02  7.40000000E+01  0.00000000E+00
  2.10000000E+02  7.40000000E+01  0.00000000E+00
  2.20000000E+02  7.40000000E+01  0.00000000E+00
  2.30000000E+02  7.40000000E+01  0.00000000E+00
  2.40000000E+02  7.40000000E+01  0.00000000E+00
  2.50000000E+02  7.40000000E+01  0.00000000E+00
  2.60000000E+02  7.40000000E+01  0.00000000E+00
  2.70000000E+02  7.40000000E+01  0.00000000E+00
  2.80000000E+02  7.40000000E+01  0.00000000E+00
  2.90000000E+02  7.40000000E+01  0.00000000E+00
  3.00000000E+02  7.40000000E+01  0.00000000E+00
  3.10000000E+02  7.40000000E+01  0.00000000E+00
  3.20000000E+02  7.40000000E+01  0.00000000E+00
  3.30000000E+02  7.40000000E+01  0.00000000E+00
  3.40000000E+02  7.40000000E+01  0.00000000E+00
  3.50000000E+02  7.40000000E+01  0.00000000E+00
  3.60000000E+02  7.40000000E+01  0.00000000E+00
  3.70000000E+02  7.40000000E+01  0.00000000E+00
  3.80000000E+02  7.40000000E+01  0.00000000E+00
  3.90000000E+02  7.40000000E+01  0.00000000E+00
  4.00000000E+02  7.40000000E+01  0.00000000E+00
  4.10000000E+02  7.40000000E+01  0.00000000E+00
  4.20000000E+02  7.40000000E+01  0.00000000E+00
  4.30000000E+02  7.40000000E+01  0.00000000E+00
  4.40000000E+02  7.40000000E+01  0.00000000E+00
  4.50000000E+02  7.40000000E+01  0.00000000E+00
  4.60000000E+02  7.40000000E+01  0.00000000E+00
  4.70000000E+02  7.40000000E+01  0.00000000E+00
  4.80000000E+02  7.40000000E+01  0.00000000E+00
  4.90000000E+02  7.40000000E+01  0.00000000E+00
  5.00000000E+02  7.40000000E+01  0.00000000E+00
  5.10000000E+02  7.40000000E+01  0.00000000E+00
  5.20000000E+02  7.40000000E+01  0.00000000E+00
  5.30000000E+02  7.40000000E+01  0.00000000E+00
  5.40000000E+02  7.40000000E+01  0.00000000E+00
  5.50000000E+02  7.40000000E+01  0.00000000E+00
  5.60000000E+02  7.40000000E+01  0.00000000E+00
  5.70000000E+02  7.40000000E+01  0.00000000E+00
  5.80000000E+02  7.40000000E+01  0.00000000E+00
  5.90000000E+02  7.40000000E+01  0.00000000E+00
  6.00000000E+02  7.40000000E+01  0.00000000E+00
  6.10000000E+02  7.40000000E+01  0.00000000E+00
  6.20000000E+02  7.40000000E+01  0.00000000E+00
  6.30000000E+02  7.40000000E+01  0.00000000E+00
  6.40000000E+02  7.40000000E+01  0.00000000E+00
  6.50000000E+02  7.40000000E+01  0.00000000E+00
  6.60000000E+02  7.40000000E+01  0.00000000E+00
  6.70000000E+02  7.40000000E+01  0.00000000E+00
  6.80000000E+02  7.40000000E+01  0.00000000E+00
  6.90000000E+02  7.40000000E+01  0.00000000E+00
  7.00000000E+02  7.40000000E+01  0.00000000E+00
  7.10000000E+02  7.40000000E+01  0.00000000E+00
  7.20000000E+02  7.40000000E+01  0.00000000E+00
  7.30000000E+02  7.40000000E+01  0.00000000E+00
  7.40000000E+02  7.40000000E+01  0.00000000E+00
  7.50000000E+02  7.40000000E+01  0.00000000E+00
  7.60000000E+02  7.40000000E+01  0.00000000E+00
  7.70000000E+02  7.40000000E+01  0.00000000E+00
  7.80000000E+02  7.40000000E+01  0.00000000E+00
  7.90000000E+02  7.40000000E+01  0.00000000E+00
  8.00000000E+02  7.40000000E+01  0.00000000E+00
  8.10000000E+02  7.40000000E+01  0.00000000E+00
  8.20000000E+02  7.40000000E+01  0.00000000E+00
  8.30000000E+02  7.40000000E+01  0.00000000E+00
  8.40000000E+02  7.40000000E+01  0.00000000E+00
  8.50000000E+02  7.40000000E+01  0.00000000E+00
  8.60000000E+02  7.40000000E+01  0.00000000E+00
  8.70000000E+02  7.40000000E+01  0.00000000E+00
  8.80000000E+02  7.40000000E+01  0.00000000E+00
  8.90000000E+02  7.40000000E+01  0.00000000E+00
  9.00000000E+02  7.40000000E+01  0.00000000E+00
  9.10000000E+02  7.40000000E+01  0.00000000E+00
  9.20000000E+02  7.40000000E+01  0.00000000E+00
  9.30000000E+02  7.40000000E+01  0.00000000E+00
  9.40000000E+02  7.40000000E+01  0.00000000E+00
  9.50000000E+02  7.40000000E+01  0.00000000E+00
  9.60000000E+02  7.40000000E+01  0.00000000E+00
  9.70000000E+02  7.40000000E+01  0.00000000E+00
  9.80000000E+02  7.40000000E+01  0.00000000E+00
  9.90000000E+02  7.40000000E+01  0.00000000E+00
  1.00000000E+03  7.40000000E+01  0.00000000E+00
  0.00000000E+00  7.60000000E+01  0.00000000E+00
  1.00000000E+01  7.60000000E+01  0.00000000E+00
  2.00000000E+01  7.60000000E+01  0.00000000E+00
  3.00000000E+01  7.60000000E+01  0.00000000E+00
  4.00000000E+01  7.60000000E+01  0.00000000E+00
  5.00000000E+01  7.60000000E+01  0.00000000E+00
  6.00000000E+01  7.60000000E+01  0.00000000E+00
  7.00000000E+01  7.60000000E+01  0.00000000E+00
  8.00000000E+01  7.60000000E+01  0.00000000E+00
  9.00000000E+01  7.60000000E+01  0.00000000E+00
  1.00000000E+02  7.60000000E+01  0.00000000E+00
  1.10000000E+02  7.60000000E+01  0.00000000E+00
  1.20000000E+02  7.60000000E+01  0.00000000E+00
  1.30000000E+02  7.60000000E+01  0.00000000E+00
  1.40000000E+02  7.60000000E+01  0.00000000E+00
  1.50000000E+02  7.60000000E+01  0.00000000E+00
  1.60000000E+02  7.60000000E+01  0.00000000E+00
  1.70000000E+02  7.60000000E+01  0.00000000E+00
  1.80000000E+02  7.60000000E+01  0.00000000E+00
  1.90000000E+02  7.60000000E+01  0.00000000E+00
  2.00000000E+02  7.60000000E+01  0.00000000E+00
  2.10000000E+02  7.60000000E+01  0.00000000E+00
  2.20000000E+02  7.60000000E+01  0.00000000E+00
  2.30000000E+02  7.60000000E+01  0.00000000E+00
  2.40000000E+02  7.60000000E+01  0.00000000E+00
  2.50000000E+02  7.60000000E+01  0.00000000E+00
  2.60000000E+02  7.60000000E+01  0.00000000E+00
  2.70000000E+02  7.60000000E+01  0.00000000E+00
  2.80000000E+02  7.60000000E+01  0.00000000E+00
  2.90000000E+02  7.60000000E+01  0.00000000E+00
  3.00000000E+02  7.60000000E+01  0.00000000E+00
  3.10000000E+02  7.60000000E+01  0.00000000E+00
  3.20000000E+02  7.60000000E+01  0.00000000E+00
  3.30000000E+02  7.60000000E+01  0.00000000E+00
  3.40000000E+02  7.60000000E+01  0.00000000E+00
  3.50000000E+02  7.60000000E+01  0.00000000E+00
  3.60000000E+02  7.60000000E+01  0.00000000E+00
  3.70000000E+02  7.60000000E+01  0.00000000E+00
  3.80000000E+02  7.60000000E+01  0.00000000E+00
  3.90000000E+02  7.60000000E+01  0.00000000E+00
  4.00000000E+02  7.60000000E+01  0.00000000E+00
  4.10000000E+02  7.60000000E+01  0.00000000E+00
  4.20000000E+02  7.60000000E+01  0.00000000E+00
  4.30000000E+02  7.60000000E+01  0.00000000E+00
  4.40000000E+02  7.60000000E+01  0.00000000E+00
  4.50000000E+02  7.60000000E+01  0.00000000E+00
  4.60000000E+02  7.60000000E+01  0.00000000E+00
  4.70000000E+02  7.60000000E+01  0.00000000E+00
  4.80000000E+02  7.60000000E+01  0.00000000E+00
  4.90000000E+02  7.60000000E+01  0.00000000E+00
  5.00000000E+02  7.60000000E+01  0.00000000E+00
  5.10000000E+02  7.60000000E+01  0.00000000E+00
  5.20000000E+02  7.60000000E+01  0.00000000E+00
  5.30000000E+02  7.60000000E+01  0.00000000E+00
  5.40000000E+02  7.60000000E+01  0.00000000E+00
  5.50000000E+02  7.60000000E+01  0.00000000E+00
  5.60000000E+02  7.60000000E+01  0.00000000E+00
  5.70000000E+02  7.60000000E+01  0.00000000E+00
  5.80000000E+02  7.60000000E+01  0.00000000E+00
  5.90000000E+02  7.60000000E+01  0.00000000E+00
  6.00000000E+02  7.60000000E+01  0.00000000E+00
  6.10000000E+02  7.60000000E+01  0.00000000E+00
  6.20000000E+02  7.60000000E+01  0.00000000E+00
  6.30000000E+02  7.60000000E+01  0.00000000E+00
  6.40000000E+02  7.60000000E+01  0.00000000E+00
  6.50000000E+02  7.60000000E+01  0.00000000E+00
  6.60000000E+02  7.60000000E+01  0.00000000E+00
  6.70000000E+02  7.60000000E+01  0.00000000E+00
  6.80000000E+02  7.60000000E+01  0.00000000E+00
  6.90000000E+02  7.60000000E+01  0.00000000E+00
  7.00000000E+02  7.60000000E+01  0.00000000E+00
  7.10000000E+02  7.60000000E+01  0.00000000E+00
  7.20000000E+02  7.60000000E+01  0.00000000E+00
  7.30000000E+02  7.60000000E+01  0.00000000E+00
  7.40000000E+02  7.60000000E+01  0.00000000E+00
  7.50000000E+02  7.60000000E+01  0.00000000E+00
  7.60000000E+02  7.60000000E+01  0.00000000E+00
  7.70000000E+02  7.60000000E+01  0.00000000E+00
  7.80000000E+02  7.60000000E+01  0.00000000E+00
  7.90000000E+02  7.60000000E+01  0.00000000E+00
  8.00000000E+02  7.60000000E+01  0.00000000E+00
  8.10000000E+02  7.60000000E+01  0.00000000E+00
  8.20000000E+02  7.60000000E+01  0.00000000E+00
  8.30000000E+02  7.60000000E+01  0.00000000E+00
  8.40000000E+02  7.60000000E+01  0.00000000E+00
  8.50000000E+02  7.60000000E+01  0.00000000E+00
  8.60000000E+02  7.60000000E+01  0.00000000E+00
  8.70000000E+02  7.60000000E+01  0.00000000E+00
  8.80000000E+02  7.60000000E+01  0.00000000E+00
  8.90000000E+02  7.60000000E+01  0.00000000E+00
  9.00000000E+02  7.60000000E+01  0.00000000E+00
  9.10000000E+02  7.60000000E+01  0.00000000E+00
  9.20000000E+02  7.60000000E+01  0.00000000E+00
  9.30000000E+02  7.60000000E+01  0.00000000E+00
  9.40000000E+02  7.60000000E+01  0.00000000E+00
  9.50000000E+02  7.60000000E+01  0.00000000E+00
  9.60000000E+02  7.60000000E+01  0.00000000E+00
  9.70000000E+02  7.60000000E+01  0.00000000E+00
  9.80000000E+02  7.60000000E+01  0.00000000E+00
  9.90000000E+02  7.60000000E+01  0.00000000E+00
  1.00000000E+03  7.60000000E+01  0.00000000E+00
  0.00000000E+00  7.80000000E+01  0.00000000E+00
  1.00000000E+01  7.80000000E+01  0.00000000E+00
  2.00000000E+01  7.80000000E+01  0.00000000E+00
  3.00000000E+01  7.80000000E+01  0.00000000E+00
  4.00000000E+01  7.80000000E+01  0.00000000E+00
  5.00000000E+01  7.80000000E+01  0.00000000E+00
  6.00000000E+01  7.80000000E+01  0.00000000E+00
  7.00000000E+01  7.80000000E+01  0.00000000E+00
  8.00000000E+01  7.80000000E+01  0.00000000E+00
  9.00000000E+01  7.80000000E+01  0.00000000E+00
  1.00000000E+02  7.80000000E+01  0.00000000E+00
  1.10000000E+02  7.80000000E+01  0.00000000E+00
  1.20000000E+02  7.80000000E+01  0.00000000E+00
  1.30000000E+02  7.80000000E+01  0.00000000E+00
  1.40000000E+02  7.80000000E+01  0.00000000E+00
  1.50000000E+02  7.80000000E+01  0.00000000E+00
  1.60000000E+02  7.80000000E+01  0.00000000E+00
  1.70000000E+02  7.80000000E+01  0.00000000E+00
  1.80000000E+02  7.80000000E+01  0.00000000E+00
  1.90000000E+02  7.80000000E+01  0.00000000E+00
  2.00000000E+02  7.80000000E+01  0.00000000E+00
  2.10000000E+02  7.80000000E+01  0.00000000E+00
  2.20000000E+02  7.80000000E+01  0.00000000E+00
  2.30000000E+02  7.80000000E+01  0.00000000E+00
  2.40000000E+02  7.80000000E+01  0.00000000E+00
  2.50000000E+02  7.80000000E+01  0.00000000E+00
  2.60000000E+02  7.80000000E+01  0.00000000E+00
  2.70000000E+02  7.80000000E+01  0.00000000E+00
  2.80000000E+02  7.80000000E+01  0.00000000E+00
  2.90000000E+02  7.80000000E+01  0.00000000E+00
  3.00000000E+02  7.80000000E+01  0.00000000E+00
  3.10000000E+02  7.80000000E+01  0.00000000E+00
  3.20000000E+02  7.80000000E+01  0.00000000E+00
  3.30000000E+02  7.80000000E+01  0.00000000E+00
  3.40000000E+02  7.80000000E+01  0.00000000E+00
  3.50000000E+02  7.80000000E+01  0.00000000E+00
  3.60000000E+02  7.80000000E+01  0.00000000E+00
  3.70000000E+02  7.80000000E+01  0.00000000E+00
  3.80000000E+02  7.80000000E+01  0.00000000E+00
  3.90000000E+02  7.80000000E+01  0.00000000E+00
  4.00000000E+02  7.80000000E+01  0.00000000E+00
  4.10000000E+02  7.80000000E+01  0.00000000E+00
  4.20000000E+02  7.80000000E+01  0.00000000E+00
  4.30000000E+02  7.80000000E+01  0.00000000E+00
  4.40000000E+02  7.80000000E+01  0.00000000E+00
  4.50000000E+02  7.80000000E+01  0.00000000E+00
  4.60000000E+02  7.80000000E+01  0.00000000E+00
  4.70000000E+02  7.80000000E+01  0.00000000E+00
  4.80000000E+02  7.80000000E+01  0.00000000E+00
  4.90000000E+02  7.80000000E+01  0.00000000E+00
  5.00000000E+02  7.80000000E+01  0.00000000E+00
  5.10000000E+02  7.80000000E+01  0.00000000E+00
  5.20000000E+02  7.80000000E+01  0.00000000E+00
  5.30000000E+02  7.80000000E+01  0.00000000E+00
  5.40000000E+02  7.80000000E+01  0.00000000E+00
  5.50000000E+02  7.80000000E+01  0.00000000E+00
  5.60000000E+02  7.80000000E+01  0.00000000E+00
  5.70000000E+02  7.80000000E+01  0.00000000E+00
  5.80000000E+02  7.80000000E+01  0.00000000E+00
  5.90000000E+02  7.80000000E+01  0.00000000E+00
  6.00000000E+02  7.80000000E+01  0.00000000E+00
  6.10000000E+02  7.80000000E+01  0.00000000E+00
  6.20000000E+02  7.80000000E+01  0.00000000E+00
  6.30000000E+02  7.80000000E+01  0.00000000E+00
  6.40000000E+02  7.80000000E+01  0.00000000E+00
  6.50000000E+02  7.80000000E+01  0.00000000E+00
  6.60000000E+02  7.80000000E+01  0.00000000E+00
  6.70000000E+02  7.80000000E+01  0.00000000E+00
  6.80000000E+02  7.80000000E+01  0.00000000E+00
  6.90000000E+02  7.80000000E+01  0.00000000E+00
  7.00000000E+02  7.80000000E+01  0.00000000E+00
  7.10000000E+02  7.80000000E+01  0.00000000E+00
  7.20000000E+02  7.80000000E+01  0.00000000E+00
  7.30000000E+02  7.80000000E+01  0.00000000E+00
  7.40000000E+02  7.80000000E+01  0.00000000E+00
  7.50000000E+02  7.80000000E+01  0.00000000E+00
  7.60000000E+02  7.80000000E+01  0.00000000E+00
  7.70000000E+02  7.80000000E+01  0.00000000E+00
  7.80000000E+02  7.80000000E+01  0.00000000E+00
  7.90000000E+02  7.80000000E+01  0.00000000E+00
  8.00000000E+02  7.80000000E+01  0.00000000E+00
  8.10000000E+02  7.80000000E+01  0.00000000E+00
  8.20000000E+02  7.80000000E+01  0.00000000E+00
  8.30000000E+02  7.80000000E+01  0.00000000E+00
  8.40000000E+02  7.80000000E+01  0.00000000E+00
  8.50000000E+02  7.80000000E+01  0.00000000E+00
  8.60000000E+02  7.80000000E+01  0.00000000E+00
  8.70000000E+02  7.80000000E+01  0.00000000E+00
  8.80000000E+02  7.80000000E+01  0.00000000E+00
  8.90000000E+02  7.80000000E+01  0.00000000E+00
  9.00000000E+02  7.80000000E+01  0.00000000E+00
  9.10000000E+02  7.80000000E+01  0.00000000E+00
  9.20000000E+02  7.80000000E+01  0.00000000E+00
  9.30000000E+02  7.80000000E+01  0.00000000E+00
  9.40000000E+02  7.80000000E+01  0.00000000E+00
  9.50000000E+02  7.80000000E+01  0.00000000E+00
  9.60000000E+02  7.80000000E+01  0.00000000E+00
  9.70000000E+02  7.80000000E+01  0.00000000E+00
  9.80000000E+02  7.80000000E+01  0.00000000E+00
  9.90000000E+02  7.80000000E+01  0.00000000E+00
  1.00000000E+03  7.80000000E+01  0.00000000E+00
  0.00000000E+00  8.00000000E+01  0.00000000E+00
  1.00000000E+01  8.00000000E+01  0.00000000E+00
  2.00000000E+01  8.00000000E+01  0.00000000E+00
  3.00000000E+01  8.00000000E+01  0.00000000E+00
  4.00000000E+01  8.00000000E+01  0.00000000E+00
  5.00000000E+01  8.00000000E+01  0.00000000E+00
  6.00000000E+01  8.00000000E+01  0.00000000E+00
  7.00000000E+01  8.00000000E+01  0.00000000E+00
  8.00000000E+01  8.00000000E+01  0.00000000E+00
  9.00000000E+01  8.00000000E+01  0.00000000E+00
  1.00000000E+02  8.00000000E+01  0.00000000E+00
  1.10000000E+02  8.00000000E+01  0.00000000E+00
  1.20000000E+02  8.00000000E+01  0.00000000E+00
  1.30000000E+02  8.00000000E+01  0.00000000E+00
  1.40000000E+02  8.00000000E+01  0.00000000E+00
  1.50000000E+02  8.00000000E+01  0.00000000E+00
  1.60000000E+02  8.00000000E+01  0.00000000E+00
  1.70000000E+02  8.00000000E+01  0.00000000E+00
  1.80000000E+02  8.00000000E+01  0.00000000E+00
  1.90000000E+02  8.00000000E+01  0.00000000E+00
  2.00000000E+02  8.00000000E+01  0.00000000E+00
  2.10000000E+02  8.00000000E+01  0.00000000E+00
  2.20000000E+02  8.00000000E+01  0.00000000E+00
  2.30000000E+02  8.00000000E+01  0.00000000E+00
  2.40000000E+02  8.00000000E+01  0.00000000E+00
  2.50000000E+02  8.00000000E+01  0.00000000E+00
  2.60000000E+02  8.00000000E+01  0.00000000E+00
  2.70000000E+02  8.00000000E+01  0.00000000E+00
  2.80000000E+02  8.00000000E+01  0.00000000E+00
  2.90000000E+02  8.00000000E+01  0.00000000E+00
  3.00000000E+02  8.00000000E+01  0.00000000E+00
  3.10000000E+02  8.00000000E+01  0.00000000E+00
  3.20000000E+02  8.00000000E+01  0.00000000E+00
  3.30000000E+02  8.00000000E+01  0.00000000E+00
  3.40000000E+02  8.00000000E+01  0.00000000E+00
  3.50000000E+02  8.00000000E+01  0.00000000E+00
  3.60000000E+02  8.00000000E+01  0.00000000E+00
  3.70000000E+02  8.00000000E+01  0.00000000E+00
  3.80000000E+02  8.00000000E+01  0.00000000E+00
  3.90000000E+02  8.00000000E+01  0.00000000E+00
  4.00000000E+02  8.00000000E+01  0.00000000E+00
  4.10000000E+02  8.00000000E+01  0.00000000E+00
  4.20000000E+02  8.00000000E+01  0.00000000E+00
  4.30000000E+02  8.00000000E+01  0.00000000E+00
  4.40000000E+02  8.00000000E+01  0.00000000E+00
  4.50000000E+02  8.00000000E+01  0.00000000E+00
  4.60000000E+02  8.00000000E+01  0.00000000E+00
  4.70000000E+02  8.00000000E+01  0.00000000E+00
  4.80000000E+02  8.00000000E+01  0.00000000E+00
  4.90000000E+02  8.00000000E+01  0.00000000E+00
  5.00000000E+02  8.00000000E+01  0.00000000E+00
  5.10000000E+02  8.00000000E+01  0.00000000E+00
  5.20000000E+02  8.00000000E+01  0.00000000E+00
  5.30000000E+02  8.00000000E+01  0.00000000E+00
  5.40000000E+02  8.00000000E+01  0.00000000E+00
  5.50000000E+02  8.00000000E+01  0.00000000E+00
  5.60000000E+02  8.00000000E+01  0.00000000E+00
  5.70000000E+02  8.00000000E+01  0.00000000E+00
  5.80000000E+02  8.00000000E+01  0.00000000E+00
  5.90000000E+02  8.00000000E+01  0.00000000E+00
  6.00000000E+02  8.00000000E+01  0.00000000E+00
  6.10000000E+02  8.00000000E+01  0.00000000E+00
  6.20000000E+02  8.00000000E+01  0.00000000E+00
  6.30000000E+02  8.00000000E+01  0.00000000E+00
  6.40000000E+02  8.00000000E+01  0.00000000E+00
  6.50000000E+02  8.00000000E+01  0.00000000E+00
  6.60000000E+02  8.00000000E+01  0.00000000E+00
  6.70000000E+02  8.00000000E+01  0.00000000E+00
  6.80000000E+02  8.00000000E+01  0.00000000E+00
  6.90000000E+02  8.00000000E+01  0.00000000E+00
  7.00000000E+02  8.00000000E+01  0.00000000E+00
  7.10000000E+02  8.00000000E+01  0.00000000E+00
  7.20000000E+02  8.00000000E+01  0.00000000E+00
  7.30000000E+02  8.00000000E+01  0.00000000E+00
  7.40000000E+02  8.00000000E+01  0.00000000E+00
  7.50000000E+02  8.00000000E+01  0.00000000E+00
  7.60000000E+02  8.00000000E+01  0.00000000E+00
  7.70000000E+02  8.00000000E+01  0.00000000E+00
  7.80000000E+02  8.00000000E+01  0.00000000E+00
  7.90000000E+02  8.00000000E+01  0.00000000E+00
  8.00000000E+02  8.00000000E+01  0.00000000E+00
  8.10000000E+02  8.00000000E+01  0.00000000E+00
  8.20000000E+02  8.00000000E+01  0.00000000E+00
  8.30000000E+02  8.00000000E+01  0.00000000E+00
  8.40000000E+02  8.00000000E+01  0.00000000E+00
  8.50000000E+02  8.00000000E+01  0.00000000E+00
  8.60000000E+02  8.00000000E+01  0.00000000E+00
  8.70000000E+02  8.00000000E+01  0.00000000E+00
  8.80000000E+02  8.00000000E+01  0.00000000E+00
  8.90000000E+02  8.00000000E+01  0.00000000E+00
  9.00000000E+02  8.00000000E+01  0.00000000E+00
  9.10000000E+02  8.00000000E+01  0.00000000E+00
  9.20000000E+02  8.00000000E+01  0.00000000E+00
  9.30000000E+02  8.00000000E+01  0.00000000E+00
  9.40000000E+02  8.00000000E+01  0.00000000E+00
  9.50000000E+02  8.00000000E+01  0.00000000E+00
  9.60000000E+02  8.00000000E+01  0.00000000E+00
  9.70000000E+02  8.00000000E+01  0.00000000E+00
  9.80000000E+02  8.00000000E+01  0.00000000E+00
  9.90000000E+02  8.00000000E+01  0.00000000E+00
  1.00000000E+03  8.00000000E+01  0.00000000E+00
  0.00000000E+00  8.20000000E+01  0.00000000E+00
  1.00000000E+01  8.20000000E+01  0.00000000E+00
  2.00000000E+01  8.20000000E+01  0.00000000E+00
  3.00000000E+01  8.20000000E+01  0.00000000E+00
  4.00000000E+01  8.20000000E+01  0.00000000E+00
  5.00000000E+01  8.20000000E+01  0.00000000E+00
  6.00000000E+01  8.20000000E+01  0.00000000E+00
  7.00000000E+01  8.20000000E+01  0.00000000E+00
  8.00000000E+01  8.20000000E+01  0.00000000E+00
  9.00000000E+01  8.20000000E+01  0.00000000E+00
  1.00000000E+02  8.20000000E+01  0.00000000E+00
  1.10000000E+02  8.20000000E+01  0.00000000E+00
  1.20000000E+02  8.20000000E+01  0.00000000E+00
  1.30000000E+02  8.20000000E+01  0.00000000E+00
  1.40000000E+02  8.20000000E+01  0.00000000E+00
  1.50000000E+02  8.20000000E+01  0.00000000E+00
  1.60000000E+02  8.20000000E+01  0.00000000E+00
  1.70000000E+02  8.20000000E+01  0.00000000E+00
  1.80000000E+02  8.20000000E+01  0.00000000E+00
  1.90000000E+02  8.20000000E+01  0.00000000E+00
  2.00000000E+02  8.20000000E+01  0.00000000E+00
  2.10000000E+02  8.20000000E+01  0.00000000E+00
  2.20000000E+02  8.20000000E+01  0.00000000E+00
  2.30000000E+02  8.20000000E+01  0.00000000E+00
  2.40000000E+02  8.20000000E+01  0.00000000E+00
  2.50000000E+02  8.20000000E+01  0.00000000E+00
  2.60000000E+02  8.20000000E+01  0.00000000E+00
  2.70000000E+02  8.20000000E+01  0.00000000E+00
  2.80000000E+02  8.20000000E+01  0.00000000E+00
  2.90000000E+02  8.20000000E+01  0.00000000E+00
  3.00000000E+02  8.20000000E+01  0.00000000E+00
  3.10000000E+02  8.20000000E+01  0.00000000E+00
  3.20000000E+02  8.20000000E+01  0.00000000E+00
  3.30000000E+02  8.20000000E+01  0.00000000E+00
  3.40000000E+02  8.20000000E+01  0.00000000E+00
  3.50000000E+02  8.20000000E+01  0.00000000E+00
  3.60000000E+02  8.20000000E+01  0.00000000E+00
  3.70000000E+02  8.20000000E+01  0.00000000E+00
  3.80000000E+02  8.20000000E+01  0.00000000E+00
  3.90000000E+02  8.20000000E+01  0.00000000E+00
  4.00000000E+02  8.20000000E+01  0.00000000E+00
  4.10000000E+02  8.20000000E+01  0.00000000E+00
  4.20000000E+02  8.20000000E+01  0.00000000E+00
  4.30000000E+02  8.20000000E+01  0.00000000E+00
  4.40000000E+02  8.20000000E+01  0.00000000E+00
  4.50000000E+02  8.20000000E+01  0.00000000E+00
  4.60000000E+02  8.20000000E+01  0.00000000E+00
  4.70000000E+02  8.20000000E+01  0.00000000E+00
  4.80000000E+02  8.20000000E+01  0.00000000E+00
  4.90000000E+02  8.20000000E+01  0.00000000E+00
  5.00000000E+02  8.20000000E+01  0.00000000E+00
  5.10000000E+02  8.20000000E+01  0.00000000E+00
  5.20000000E+02  8.20000000E+01  0.00000000E+00
  5.30000000E+02  8.20000000E+01  0.00000000E+00
  5.40000000E+02  8.20000000E+01  0.00000000E+00
  5.50000000E+02  8.20000000E+01  0.00000000E+00
  5.60000000E+02  8.20000000E+01  0.00000000E+00
  5.70000000E+02  8.20000000E+01  0.00000000E+00
  5.80000000E+02  8.20000000E+01  0.00000000E+00
  5.90000000E+02  8.20000000E+01  0.00000000E+00
  6.00000000E+02  8.20000000E+01  0.00000000E+00
  6.10000000E+02  8.20000000E+01  0.00000000E+00
  6.20000000E+02  8.20000000E+01  0.00000000E+00
  6.30000000E+02  8.20000000E+01  0.00000000E+00
  6.40000000E+02  8.20000000E+01  0.00000000E+00
  6.50000000E+02  8.20000000E+01  0.00000000E+00
  6.60000000E+02  8.20000000E+01  0.00000000E+00
  6.70000000E+02  8.20000000E+01  0.00000000E+00
  6.80000000E+02  8.20000000E+01  0.00000000E+00
  6.90000000E+02  8.20000000E+01  0.00000000E+00
  7.00000000E+02  8.20000000E+01  0.00000000E+00
  7.10000000E+02  8.20000000E+01  0.00000000E+00
  7.20000000E+02  8.20000000E+01  0.00000000E+00
  7.30000000E+02  8.20000000E+01  0.00000000E+00
  7.40000000E+02  8.20000000E+01  0.00000000E+00
  7.50000000E+02  8.20000000E+01  0.00000000E+00
  7.60000000E+02  8.20000000E+01  0.00000000E+00
  7.70000000E+02  8.20000000E+01  0.00000000E+00
  7.80000000E+02  8.20000000E+01  0.00000000E+00
  7.90000000E+02  8.20000000E+01  0.00000000E+00
  8.00000000E+02  8.20000000E+01  0.00000000E+00
  8.10000000E+02  8.20000000E+01  0.00000000E+00
  8.20000000E+02  8.20000000E+01  0.00000000E+00
  8.30000000E+02  8.20000000E+01  0.00000000E+00
  8.40000000E+02  8.20000000E+01  0.00000000E+00
  8.50000000E+02  8.20000000E+01  0.00000000E+00
  8.60000000E+02  8.20000000E+01  0.00000000E+00
  8.70000000E+02  8.20000000E+01  0.00000000E+00
  8.80000000E+02  8.20000000E+01  0.00000000E+00
  8.90000000E+02  8.20000000E+01  0.00000000E+00
  9.00000000E+02  8.20000000E+01  0.00000000E+00
  9.10000000E+02  8.20000000E+01  0.00000000E+00
  9.20000000E+02  8.20000000E+01  0.00000000E+00
  9.30000000E+02  8.20000000E+01  0.00000000E+00
  9.40000000E+02  8.20000000E+01  0.00000000E+00
  9.50000000E+02  8.20000000E+01  0.00000000E+00
  9.60000000E+02  8.20000000E+01  0.00000000E+00
  9.70000000E+02  8.20000000E+01  0.00000000E+00
  9.80000000E+02  8.20000000E+01  0.00000000E+00
  9.90000000E+02  8.20000000E+01  0.00000000E+00
  1.00000000E+03  8.20000000E+01  0.00000000E+00
  0.00000000E+00  8.40000000E+01  0.00000000E+00
  1.00000000E+01  8.40000000E+01  0.00000000E+00
  2.00000000E+01  8.40000000E+01  0.00000000E+00
  3.00000000E+01  8.40000000E+01  0.00000000E+00
  4.00000000E+01  8.40000000E+01  0.00000000E+00
  5.00000000E+01  8.40000000E+01  0.00000000E+00
  6.00000000E+01  8.40000000E+01  0.00000000E+00
  7.00000000E+01  8.40000000E+01  0.00000000E+00
  8.00000000E+01  8.40000000E+01  0.00000000E+00
  9.00000000E+01  8.40000000E+01  0.00000000E+00
  1.00000000E+02  8.40000000E+01  0.00000000E+00
  1.10000000E+02  8.40000000E+01  0.00000000E+00
  1.20000000E+02  8.40000000E+01  0.00000000E+00
  1.30000000E+02  8.40000000E+01  0.00000000E+00
  1.40000000E+02  8.40000000E+01  0.00000000E+00
  1.50000000E+02  8.40000000E+01  0.00000000E+00
  1.60000000E+02  8.40000000E+01  0.00000000E+00
  1.70000000E+02  8.40000000E+01  0.00000000E+00
  1.80000000E+02  8.40000000E+01  0.00000000E+00
  1.90000000E+02  8.40000000E+01  0.00000000E+00
  2.00000000E+02  8.40000000E+01  0.00000000E+00
  2.10000000E+02  8.40000000E+01  0.00000000E+00
  2.20000000E+02  8.40000000E+01  0.00000000E+00
  2.30000000E+02  8.40000000E+01  0.00000000E+00
  2.40000000E+02  8.40000000E+01  0.00000000E+00
  2.50000000E+02  8.40000000E+01  0.00000000E+00
  2.60000000E+02  8.40000000E+01  0.00000000E+00
  2.70000000E+02  8.40000000E+01  0.00000000E+00
  2.80000000E+02  8.40000000E+01  0.00000000E+00
  2.90000000E+02  8.40000000E+01  0.00000000E+00
  3.00000000E+02  8.40000000E+01  0.00000000E+00
  3.10000000E+02  8.40000000E+01  0.00000000E+00
  3.20000000E+02  8.40000000E+01  0.00000000E+00
  3.30000000E+02  8.40000000E+01  0.00000000E+00
  3.40000000E+02  8.40000000E+01  0.00000000E+00
  3.50000000E+02  8.40000000E+01  0.00000000E+00
  3.60000000E+02  8.40000000E+01  0.00000000E+00
  3.70000000E+02  8.40000000E+01  0.00000000E+00
  3.80000000E+02  8.40000000E+01  0.00000000E+00
  3.90000000E+02  8.40000000E+01  0.00000000E+00
  4.00000000E+02  8.40000000E+01  0.00000000E+00
  4.10000000E+02  8.40000000E+01  0.00000000E+00
  4.20000000E+02  8.40000000E+01  0.00000000E+00
  4.30000000E+02  8.40000000E+01  0.00000000E+00
  4.40000000E+02  8.40000000E+01  0.00000000E+00
  4.50000000E+02  8.40000000E+01  0.00000000E+00
  4.60000000E+02  8.40000000E+01  0.00000000E+00
  4.70000000E+02  8.40000000E+01  0.00000000E+00
  4.80000000E+02  8.40000000E+01  0.00000000E+00
  4.90000000E+02  8.40000000E+01  0.00000000E+00
  5.00000000E+02  8.40000000E+01  0.00000000E+00
  5.10000000E+02  8.40000000E+01  0.00000000E+00
  5.20000000E+02  8.40000000E+01  0.00000000E+00
  5.30000000E+02  8.40000000E+01  0.00000000E+00
  5.40000000E+02  8.40000000E+01  0.00000000E+00
  5.50000000E+02  8.40000000E+01  0.00000000E+00
  5.60000000E+02  8.40000000E+01  0.00000000E+00
  5.70000000E+02  8.40000000E+01  0.00000000E+00
  5.80000000E+02  8.40000000E+01  0.00000000E+00
  5.90000000E+02  8.40000000E+01  0.00000000E+00
  6.00000000E+02  8.40000000E+01  0.00000000E+00
  6.10000000E+02  8.40000000E+01  0.00000000E+00
  6.20000000E+02  8.40000000E+01  0.00000000E+00
  6.30000000E+02  8.40000000E+01  0.00000000E+00
  6.40000000E+02  8.40000000E+01  0.00000000E+00
  6.50000000E+02  8.40000000E+01  0.00000000E+00
  6.60000000E+02  8.40000000E+01  0.00000000E+00
  6.70000000E+02  8.40000000E+01  0.00000000E+00
  6.80000000E+02  8.40000000E+01  0.00000000E+00
  6.90000000E+02  8.40000000E+01  0.00000000E+00
  7.00000000E+02  8.40000000E+01  0.00000000E+00
  7.10000000E+02  8.40000000E+01  0.00000000E+00
  7.20000000E+02  8.40000000E+01  0.00000000E+00
  7.30000000E+02  8.40000000E+01  0.00000000E+00
  7.40000000E+02  8.40000000E+01  0.00000000E+00
  7.50000000E+02  8.40000000E+01  0.00000000E+00
  7.60000000E+02  8.40000000E+01  0.00000000E+00
  7.70000000E+02  8.40000000E+01  0.00000000E+00
  7.80000000E+02  8.40000000E+01  0.00000000E+00
  7.90000000E+02  8.40000000E+01  0.00000000E+00
  8.00000000E+02  8.40000000E+01  0.00000000E+00
  8.10000000E+02  8.40000000E+01  0.00000000E+00
  8.20000000E+02  8.40000000E+01  0.00000000E+00
  8.30000000E+02  8.40000000E+01  0.00000000E+00
  8.40000000E+02  8.40000000E+01  0.00000000E+00
  8.50000000E+02  8.40000000E+01  0.00000000E+00
  8.60000000E+02  8.40000000E+01  0.00000000E+00
  8.70000000E+02  8.40000000E+01  0.00000000E+00
  8.80000000E+02  8.40000000E+01  0.00000000E+00
  8.90000000E+02  8.40000000E+01  0.00000000E+00
  9.00000000E+02  8.40000000E+01  0.00000000E+00
  9.10000000E+02  8.40000000E+01  0.00000000E+00
  9.20000000E+02  8.40000000E+01  0.00000000E+00
  9.30000000E+02  8.40000000E+01  0.00000000E+00
  9.40000000E+02  8.40000000E+01  0.00000000E+00
  9.50000000E+02  8.40000000E+01  0.00000000E+00
  9.60000000E+02  8.40000000E+01  0.00000000E+00
  9.70000000E+02  8.40000000E+01  0.00000000E+00
  9.80000000E+02  8.40000000E+01  0.00000000E+00
  9.90000000E+02  8.40000000E+01  0.00000000E+00
  1.00000000E+03  8.40000000E+01  0.00000000E+00
  0.00000000E+00  8.60000000E+01  0.00000000E+00
  1.00000000E+01  8.60000000E+01  0.00000000E+00
  2.00000000E+01  8.60000000E+01  0.00000000E+00
  3.00000000E+01  8.60000000E+01  0.00000000E+00
  4.00000000E+01  8.60000000E+01  0.00000000E+00
  5.00000000E+01  8.60000000E+01  0.00000000E+00
  6.00000000E+01  8.60000000E+01  0.00000000E+00
  7.00000000E+01  8.60000000E+01  0.00000000E+00
  8.00000000E+01  8.60000000E+01  0.00000000E+00
  9.00000000E+01  8.60000000E+01  0.00000000E+00
  1.00000000E+02  8.60000000E+01  0.00000000E+00
  1.10000000E+02  8.60000000E+01  0.00000000E+00
  1.20000000E+02  8.60000000E+01  0.00000000E+00
  1.30000000E+02  8.60000000E+01  0.00000000E+00
  1.40000000E+02  8.60000000E+01  0.00000000E+00
  1.50000000E+02  8.60000000E+01  0.00000000E+00
  1.60000000E+02  8.60000000E+01  0.00000000E+00
  1.70000000E+02  8.60000000E+01  0.00000000E+00
  1.80000000E+02  8.60000000E+01  0.00000000E+00
  1.90000000E+02  8.60000000E+01  0.00000000E+00
  2.00000000E+02  8.60000000E+01  0.00000000E+00
  2.10000000E+02  8.60000000E+01  0.00000000E+00
  2.20000000E+02  8.60000000E+01  0.00000000E+00
  2.30000000E+02  8.60000000E+01  0.00000000E+00
  2.40000000E+02  8.60000000E+01  0.00000000E+00
  2.50000000E+02  8.60000000E+01  0.00000000E+00
  2.60000000E+02  8.60000000E+01  0.00000000E+00
  2.70000000E+02  8.60000000E+01  0.00000000E+00
  2.80000000E+02  8.60000000E+01  0.00000000E+00
  2.90000000E+02  8.60000000E+01  0.00000000E+00
  3.00000000E+02  8.60000000E+01  0.00000000E+00
  3.10000000E+02  8.60000000E+01  0.00000000E+00
  3.20000000E+02  8.60000000E+01  0.00000000E+00
  3.30000000E+02  8.60000000E+01  0.00000000E+00
  3.40000000E+02  8.60000000E+01  0.00000000E+00
  3.50000000E+02  8.60000000E+01  0.00000000E+00
  3.60000000E+02  8.60000000E+01  0.00000000E+00
  3.70000000E+02  8.60000000E+01  0.00000000E+00
  3.80000000E+02  8.60000000E+01  0.00000000E+00
  3.90000000E+02  8.60000000E+01  0.00000000E+00
  4.00000000E+02  8.60000000E+01  0.00000000E+00
  4.10000000E+02  8.60000000E+01  0.00000000E+00
  4.20000000E+02  8.60000000E+01  0.00000000E+00
  4.30000000E+02  8.60000000E+01  0.00000000E+00
  4.40000000E+02  8.60000000E+01  0.00000000E+00
  4.50000000E+02  8.60000000E+01  0.00000000E+00
  4.60000000E+02  8.60000000E+01  0.00000000E+00
  4.70000000E+02  8.60000000E+01  0.00000000E+00
  4.80000000E+02  8.60000000E+01  0.00000000E+00
  4.90000000E+02  8.60000000E+01  0.00000000E+00
  5.00000000E+02  8.60000000E+01  0.00000000E+00
  5.10000000E+02  8.60000000E+01  0.00000000E+00
  5.20000000E+02  8.60000000E+01  0.00000000E+00
  5.30000000E+02  8.60000000E+01  0.00000000E+00
  5.40000000E+02  8.60000000E+01  0.00000000E+00
  5.50000000E+02  8.60000000E+01  0.00000000E+00
  5.60000000E+02  8.60000000E+01  0.00000000E+00
  5.70000000E+02  8.60000000E+01  0.00000000E+00
  5.80000000E+02  8.60000000E+01  0.00000000E+00
  5.90000000E+02  8.60000000E+01  0.00000000E+00
  6.00000000E+02  8.60000000E+01  0.00000000E+00
  6.10000000E+02  8.60000000E+01  0.00000000E+00
  6.20000000E+02  8.60000000E+01  0.00000000E+00
  6.30000000E+02  8.60000000E+01  0.00000000E+00
  6.40000000E+02  8.60000000E+01  0.00000000E+00
  6.50000000E+02  8.60000000E+01  0.00000000E+00
  6.60000000E+02  8.60000000E+01  0.00000000E+00
  6.70000000E+02  8.60000000E+01  0.00000000E+00
  6.80000000E+02  8.60000000E+01  0.00000000E+00
  6.90000000E+02  8.60000000E+01  0.00000000E+00
  7.00000000E+02  8.60000000E+01  0.00000000E+00
  7.10000000E+02  8.60000000E+01  0.00000000E+00
  7.20000000E+02  8.60000000E+01  0.00000000E+00
  7.30000000E+02  8.60000000E+01  0.00000000E+00
  7.40000000E+02  8.60000000E+01  0.00000000E+00
  7.50000000E+02  8.60000000E+01  0.00000000E+00
  7.60000000E+02  8.60000000E+01  0.00000000E+00
  7.70000000E+02  8.60000000E+01  0.00000000E+00
  7.80000000E+02  8.60000000E+01  0.00000000E+00
  7.90000000E+02  8.60000000E+01  0.00000000E+00
  8.00000000E+02  8.60000000E+01  0.00000000E+00
  8.10000000E+02  8.60000000E+01  0.00000000E+00
  8.20000000E+02  8.60000000E+01  0.00000000E+00
  8.30000000E+02  8.60000000E+01  0.00000000E+00
  8.40000000E+02  8.60000000E+01  0.00000000E+00
  8.50000000E+02  8.60000000E+01  0.00000000E+00
  8.60000000E+02  8.60000000E+01  0.00000000E+00
  8.70000000E+02  8.60000000E+01  0.00000000E+00
  8.80000000E+02  8.60000000E+01  0.00000000E+00
  8.90000000E+02  8.60000000E+01  0.00000000E+00
  9.00000000E+02  8.60000000E+01  0.00000000E+00
  9.10000000E+02  8.60000000E+01  0.00000000E+00
  9.20000000E+02  8.60000000E+01  0.00000000E+00
  9.30000000E+02  8.60000000E+01  0.00000000E+00
  9.40000000E+02  8.60000000E+01  0.00000000E+00
  9.50000000E+02  8.60000000E+01  0.00000000E+00
  9.60000000E+02  8.60000000E+01  0.00000000E+00
  9.70000000E+02  8.60000000E+01  0.00000000E+00
  9.80000000E+02  8.60000000E+01  0.00000000E+00
  9.90000000E+02  8.60000000E+01  0.00000000E+00
  1.00000000E+03  8.60000000E+01  0.00000000E+00
  0.00000000E+00  8.80000000E+01  0.00000000E+00
  1.00000000E+01  8.80000000E+01  0.00000000E+00
  2.00000000E+01  8.80000000E+01  0.00000000E+00
  3.00000000E+01  8.80000000E+01  0.00000000E+00
  4.00000000E+01  8.80000000E+01  0.00000000E+00
  5.00000000E+01  8.80000000E+01  0.00000000E+00
  6.00000000E+01  8.80000000E+01  0.00000000E+00
  7.00000000E+01  8.80000000E+01  0.00000000E+00
  8.00000000E+01  8.80000000E+01  0.00000000E+00
  9.00000000E+01  8.80000000E+01  0.00000000E+00
  1.00000000E+02  8.80000000E+01  0.00000000E+00
  1.10000000E+02  8.80000000E+01  0.00000000E+00
  1.20000000E+02  8.80000000E+01  0.00000000E+00
  1.30000000E+02  8.80000000E+01  0.00000000E+00
  1.40000000E+02  8.80000000E+01  0.00000000E+00
  1.50000000E+02  8.80000000E+01  0.00000000E+00
  1.60000000E+02  8.80000000E+01  0.00000000E+00
  1.70000000E+02  8.80000000E+01  0.00000000E+00
  1.80000000E+02  8.80000000E+01  0.00000000E+00
  1.90000000E+02  8.80000000E+01  0.00000000E+00
  2.00000000E+02  8.80000000E+01  0.00000000E+00
  2.10000000E+02  8.80000000E+01  0.00000000E+00
  2.20000000E+02  8.80000000E+01  0.00000000E+00
  2.30000000E+02  8.80000000E+01  0.00000000E+00
  2.40000000E+02  8.80000000E+01  0.00000000E+00
  2.50000000E+02  8.80000000E+01  0.00000000E+00
  2.60000000E+02  8.80000000E+01  0.00000000E+00
  2.70000000E+02  8.80000000E+01  0.00000000E+00
  2.80000000E+02  8.80000000E+01  0.00000000E+00
  2.90000000E+02  8.80000000E+01  0.00000000E+00
  3.00000000E+02  8.80000000E+01  0.00000000E+00
  3.10000000E+02  8.80000000E+01  0.00000000E+00
  3.20000000E+02  8.80000000E+01  0.00000000E+00
  3.30000000E+02  8.80000000E+01  0.00000000E+00
  3.40000000E+02  8.80000000E+01  0.00000000E+00
  3.50000000E+02  8.80000000E+01  0.00000000E+00
  3.60000000E+02  8.80000000E+01  0.00000000E+00
  3.70000000E+02  8.80000000E+01  0.00000000E+00
  3.80000000E+02  8.80000000E+01  0.00000000E+00
  3.90000000E+02  8.80000000E+01  0.00000000E+00
  4.00000000E+02  8.80000000E+01  0.00000000E+00
  4.10000000E+02  8.80000000E+01  0.00000000E+00
  4.20000000E+02  8.80000000E+01  0.00000000E+00
  4.30000000E+02  8.80000000E+01  0.00000000E+00
  4.40000000E+02  8.80000000E+01  0.00000000E+00
  4.50000000E+02  8.80000000E+01  0.00000000E+00
  4.60000000E+02  8.80000000E+01  0.00000000E+00
  4.70000000E+02  8.80000000E+01  0.00000000E+00
  4.80000000E+02  8.80000000E+01  0.00000000E+00
  4.90000000E+02  8.80000000E+01  0.00000000E+00
  5.00000000E+02  8.80000000E+01  0.00000000E+00
  5.10000000E+02  8.80000000E+01  0.00000000E+00
  5.20000000E+02  8.80000000E+01  0.00000000E+00
  5.30000000E+02  8.80000000E+01  0.00000000E+00
  5.40000000E+02  8.80000000E+01  0.00000000E+00
  5.50000000E+02  8.80000000E+01  0.00000000E+00
  5.60000000E+02  8.80000000E+01  0.00000000E+00
  5.70000000E+02  8.80000000E+01  0.00000000E+00
  5.80000000E+02  8.80000000E+01  0.00000000E+00
  5.90000000E+02  8.80000000E+01  0.00000000E+00
  6.00000000E+02  8.80000000E+01  0.00000000E+00
  6.10000000E+02  8.80000000E+01  0.00000000E+00
  6.20000000E+02  8.80000000E+01  0.00000000E+00
  6.30000000E+02  8.80000000E+01  0.00000000E+00
  6.40000000E+02  8.80000000E+01  0.00000000E+00
  6.50000000E+02  8.80000000E+01  0.00000000E+00
  6.60000000E+02  8.80000000E+01  0.00000000E+00
  6.70000000E+02  8.80000000E+01  0.00000000E+00
  6.80000000E+02  8.80000000E+01  0.00000000E+00
  6.90000000E+02  8.80000000E+01  0.00000000E+00
  7.00000000E+02  8.80000000E+01  0.00000000E+00
  7.10000000E+02  8.80000000E+01  0.00000000E+00
  7.20000000E+02  8.80000000E+01  0.00000000E+00
  7.30000000E+02  8.80000000E+01  0.00000000E+00
  7.40000000E+02  8.80000000E+01  0.00000000E+00
  7.50000000E+02  8.80000000E+01  0.00000000E+00
  7.60000000E+02  8.80000000E+01  0.00000000E+00
  7.70000000E+02  8.80000000E+01  0.00000000E+00
  7.80000000E+02  8.80000000E+01  0.00000000E+00
  7.90000000E+02  8.80000000E+01  0.00000000E+00
  8.00000000E+02  8.80000000E+01  0.00000000E+00
  8.10000000E+02  8.80000000E+01  0.00000000E+00
  8.20000000E+02  8.80000000E+01  0.00000000E+00
  8.30000000E+02  8.80000000E+01  0.00000000E+00
  8.40000000E+02  8.80000000E+01  0.00000000E+00
  8.50000000E+02  8.80000000E+01  0.00000000E+00
  8.60000000E+02  8.80000000E+01  0.00000000E+00
  8.70000000E+02  8.80000000E+01  0.00000000E+00
  8.80000000E+02  8.80000000E+01  0.00000000E+00
  8.90000000E+02  8.80000000E+01  0.00000000E+00
  9.00000000E+02  8.80000000E+01  0.00000000E+00
  9.10000000E+02  8.80000000E+01  0.00000000E+00
  9.20000000E+02  8.80000000E+01  0.00000000E+00
  9.30000000E+02  8.80000000E+01  0.00000000E+00
  9.40000000E+02  8.80000000E+01  0.00000000E+00
  9.50000000E+02  8.80000000E+01  0.00000000E+00
  9.60000000E+02  8.80000000E+01  0.00000000E+00
  9.70000000E+02  8.80000000E+01  0.00000000E+00
  9.80000000E+02  8.80000000E+01  0.00000000E+00
  9.90000000E+02  8.80000000E+01  0.00000000E+00
  1.00000000E+03  8.80000000E+01  0.00000000E+00
  0.00000000E+00  9.00000000E+01  0.00000000E+00
  1.00000000E+01  9.00000000E+01  0.00000000E+00
  2.00000000E+01  9.00000000E+01  0.00000000E+00
  3.00000000E+01  9.00000000E+01  0.00000000E+00
  4.00000000E+01  9.00000000E+01  0.00000000E+00
  5.00000000E+01  9.00000000E+01  0.00000000E+00
  6.00000000E+01  9.00000000E+01  0.00000000E+00
  7.00000000E+01  9.00000000E+01  0.00000000E+00
  8.00000000E+01  9.00000000E+01  0.00000000E+00
  9.00000000E+01  9.00000000E+01  0.00000000E+00
  1.00000000E+02  9.00000000E+01  0.00000000E+00
  1.10000000E+02  9.00000000E+01  0.00000000E+00
  1.20000000E+02  9.00000000E+01  0.00000000E+00
  1.30000000E+02  9.00000000E+01  0.00000000E+00
  1.40000000E+02  9.00000000E+01  0.00000000E+00
  1.50000000E+02  9.00000000E+01  0.00000000E+00
  1.60000000E+02  9.00000000E+01  0.00000000E+00
  1.70000000E+02  9.00000000E+01  0.00000000E+00
  1.80000000E+02  9.00000000E+01  0.00000000E+00
  1.90000000E+02  9.00000000E+01  0.00000000E+00
  2.00000000E+02  9.00000000E+01  0.00000000E+00
  2.10000000E+02  9.00000000E+01  0.00000000E+00
  2.20000000E+02  9.00000000E+01  0.00000000E+00
  2.30000000E+02  9.00000000E+01  0.00000000E+00
  2.40000000E+02  9.00000000E+01  0.00000000E+00
  2.50000000E+02  9.00000000E+01  0.00000000E+00
  2.60000000E+02  9.00000000E+01  0.00000000E+00
  2.70000000E+02  9.00000000E+01  0.00000000E+00
  2.80000000E+02  9.00000000E+01  0.00000000E+00
  2.90000000E+02  9.00000000E+01  0.00000000E+00
  3.00000000E+02  9.00000000E+01  0.00000000E+00
  3.10000000E+02  9.00000000E+01  0.00000000E+00
  3.20000000E+02  9.00000000E+01  0.00000000E+00
  3.30000000E+02  9.00000000E+01  0.00000000E+00
  3.40000000E+02  9.00000000E+01  0.00000000E+00
  3.50000000E+02  9.00000000E+01  0.00000000E+00
  3.60000000E+02  9.00000000E+01  0.00000000E+00
  3.70000000E+02  9.00000000E+01  0.00000000E+00
  3.80000000E+02  9.00000000E+01  0.00000000E+00
  3.90000000E+02  9.00000000E+01  0.00000000E+00
  4.00000000E+02  9.00000000E+01  0.00000000E+00
  4.10000000E+02  9.00000000E+01  0.00000000E+00
  4.20000000E+02  9.00000000E+01  0.00000000E+00
  4.30000000E+02  9.00000000E+01  0.00000000E+00
  4.40000000E+02  9.00000000E+01  0.00000000E+00
  4.50000000E+02  9.00000000E+01  0.00000000E+00
  4.60000000E+02  9.00000000E+01  0.00000000E+00
  4.70000000E+02  9.00000000E+01  0.00000000E+00
  4.80000000E+02  9.00000000E+01  0.00000000E+00
  4.90000000E+02  9.00000000E+01  0.00000000E+00
  5.00000000E+02  9.00000000E+01  0.00000000E+00
  5.10000000E+02  9.00000000E+01  0.00000000E+00
  5.20000000E+02  9.00000000E+01  0.00000000E+00
  5.30000000E+02  9.00000000E+01  0.00000000E+00
  5.40000000E+02  9.00000000E+01  0.00000000E+00
  5.50000000E+02  9.00000000E+01  0.00000000E+00
  5.60000000E+02  9.00000000E+01  0.00000000E+00
  5.70000000E+02  9.00000000E+01  0.00000000E+00
  5.80000000E+02  9.00000000E+01  0.00000000E+00
  5.90000000E+02  9.00000000E+01  0.00000000E+00
  6.00000000E+02  9.00000000E+01  0.00000000E+00
  6.10000000E+02  9.00000000E+01  0.00000000E+00
  6.20000000E+02  9.00000000E+01  0.00000000E+00
  6.30000000E+02  9.00000000E+01  0.00000000E+00
  6.40000000E+02  9.00000000E+01  0.00000000E+00
  6.50000000E+02  9.00000000E+01  0.00000000E+00
  6.60000000E+02  9.00000000E+01  0.00000000E+00
  6.70000000E+02  9.00000000E+01  0.00000000E+00
  6.80000000E+02  9.00000000E+01  0.00000000E+00
  6.90000000E+02  9.00000000E+01  0.00000000E+00
  7.00000000E+02  9.00000000E+01  0.00000000E+00
  7.10000000E+02  9.00000000E+01  0.00000000E+00
  7.20000000E+02  9.00000000E+01  0.00000000E+00
  7.30000000E+02  9.00000000E+01  0.00000000E+00
  7.40000000E+02  9.00000000E+01  0.00000000E+00
  7.50000000E+02  9.00000000E+01  0.00000000E+00
  7.60000000E+02  9.00000000E+01  0.00000000E+00
  7.70000000E+02  9.00000000E+01  0.00000000E+00
  7.80000000E+02  9.00000000E+01  0.00000000E+00
  7.90000000E+02  9.00000000E+01  0.00000000E+00
  8.00000000E+02  9.00000000E+01  0.00000000E+00
  8.10000000E+02  9.00000000E+01  0.00000000E+00
  8.20000000E+02  9.00000000E+01  0.00000000E+00
  8.30000000E+02  9.00000000E+01  0.00000000E+00
  8.40000000E+02  9.00000000E+01  0.00000000E+00
  8.50000000E+02  9.00000000E+01  0.00000000E+00
  8.60000000E+02  9.00000000E+01  0.00000000E+00
  8.70000000E+02  9.00000000E+01  0.00000000E+00
  8.80000000E+02  9.00000000E+01  0.00000000E+00
  8.90000000E+02  9.00000000E+01  0.00000000E+00
  9.00000000E+02  9.00000000E+01  0.00000000E+00
  9.10000000E+02  9.00000000E+01  0.00000000E+00
  9.20000000E+02  9.00000000E+01  0.00000000E+00
  9.30000000E+02  9.00000000E+01  0.00000000E+00
  9.40000000E+02  9.00000000E+01  0.00000000E+00
  9.50000000E+02  9.00000000E+01  0.00000000E+00
  9.60000000E+02  9.00000000E+01  0.00000000E+00
  9.70000000E+02  9.00000000E+01  0.00000000E+00
  9.80000000E+02  9.00000000E+01  0.00000000E+00
  9.90000000E+02  9.00000000E+01  0.00000000E+00
  1.00000000E+03  9.00000000E+01  0.00000000E+00
  0.00000000E+00  9.20000000E+01  0.00000000E+00
  1.00000000E+01  9.20000000E+01  0.00000000E+00
  2.00000000E+01  9.20000000E+01  0.00000000E+00
  3.00000000E+01  9.20000000E+01  0.00000000E+00
  4.00000000E+01  9.20000000E+01  0.00000000E+00
  5.00000000E+01  9.20000000E+01  0.00000000E+00
  6.00000000E+01  9.20000000E+01  0.00000000E+00
  7.00000000E+01  9.20000000E+01  0.00000000E+00
  8.00000000E+01  9.20000000E+01  0.00000000E+00
  9.00000000E+01  9.20000000E+01  0.00000000E+00
  1.00000000E+02  9.20000000E+01  0.00000000E+00
  1.10000000E+02  9.20000000E+01  0.00000000E+00
  1.20000000E+02  9.20000000E+01  0.00000000E+00
  1.30000000E+02  9.20000000E+01  0.00000000E+00
  1.40000000E+02  9.20000000E+01  0.00000000E+00
  1.50000000E+02  9.20000000E+01  0.00000000E+00
  1.60000000E+02  9.20000000E+01  0.00000000E+00
  1.70000000E+02  9.20000000E+01  0.00000000E+00
  1.80000000E+02  9.20000000E+01  0.00000000E+00
  1.90000000E+02  9.20000000E+01  0.00000000E+00
  2.00000000E+02  9.20000000E+01  0.00000000E+00
  2.10000000E+02  9.20000000E+01  0.00000000E+00
  2.20000000E+02  9.20000000E+01  0.00000000E+00
  2.30000000E+02  9.20000000E+01  0.00000000E+00
  2.40000000E+02  9.20000000E+01  0.00000000E+00
  2.50000000E+02  9.20000000E+01  0.00000000E+00
  2.60000000E+02  9.20000000E+01  0.00000000E+00
  2.70000000E+02  9.20000000E+01  0.00000000E+00
  2.80000000E+02  9.20000000E+01  0.00000000E+00
  2.90000000E+02  9.20000000E+01  0.00000000E+00
  3.00000000E+02  9.20000000E+01  0.00000000E+00
  3.10000000E+02  9.20000000E+01  0.00000000E+00
  3.20000000E+02  9.20000000E+01  0.00000000E+00
  3.30000000E+02  9.20000000E+01  0.00000000E+00
  3.40000000E+02  9.20000000E+01  0.00000000E+00
  3.50000000E+02  9.20000000E+01  0.00000000E+00
  3.60000000E+02  9.20000000E+01  0.00000000E+00
  3.70000000E+02  9.20000000E+01  0.00000000E+00
  3.80000000E+02  9.20000000E+01  0.00000000E+00
  3.90000000E+02  9.20000000E+01  0.00000000E+00
  4.00000000E+02  9.20000000E+01  0.00000000E+00
  4.10000000E+02  9.20000000E+01  0.00000000E+00
  4.20000000E+02  9.20000000E+01  0.00000000E+00
  4.30000000E+02  9.20000000E+01  0.00000000E+00
  4.40000000E+02  9.20000000E+01  0.00000000E+00
  4.50000000E+02  9.20000000E+01  0.00000000E+00
  4.60000000E+02  9.20000000E+01  0.00000000E+00
  4.70000000E+02  9.20000000E+01  0.00000000E+00
  4.80000000E+02  9.20000000E+01  0.00000000E+00
  4.90000000E+02  9.20000000E+01  0.00000000E+00
  5.00000000E+02  9.20000000E+01  0.00000000E+00
  5.10000000E+02  9.20000000E+01  0.00000000E+00
  5.20000000E+02  9.20000000E+01  0.00000000E+00
  5.30000000E+02  9.20000000E+01  0.00000000E+00
  5.40000000E+02  9.20000000E+01  0.00000000E+00
  5.50000000E+02  9.20000000E+01  0.00000000E+00
  5.60000000E+02  9.20000000E+01  0.00000000E+00
  5.70000000E+02  9.20000000E+01  0.00000000E+00
  5.80000000E+02  9.20000000E+01  0.00000000E+00
  5.90000000E+02  9.20000000E+01  0.00000000E+00
  6.00000000E+02  9.20000000E+01  0.00000000E+00
  6.10000000E+02  9.20000000E+01  0.00000000E+00
  6.20000000E+02  9.20000000E+01  0.00000000E+00
  6.30000000E+02  9.20000000E+01  0.00000000E+00
  6.40000000E+02  9.20000000E+01  0.00000000E+00
  6.50000000E+02  9.20000000E+01  0.00000000E+00
  6.60000000E+02  9.20000000E+01  0.00000000E+00
  6.70000000E+02  9.20000000E+01  0.00000000E+00
  6.80000000E+02  9.20000000E+01  0.00000000E+00
  6.90000000E+02  9.20000000E+01  0.00000000E+00
  7.00000000E+02  9.20000000E+01  0.00000000E+00
  7.10000000E+02  9.20000000E+01  0.00000000E+00
  7.20000000E+02  9.20000000E+01  0.00000000E+00
  7.30000000E+02  9.20000000E+01  0.00000000E+00
  7.40000000E+02  9.20000000E+01  0.00000000E+00
  7.50000000E+02  9.20000000E+01  0.00000000E+00
  7.60000000E+02  9.20000000E+01  0.00000000E+00
  7.70000000E+02  9.20000000E+01  0.00000000E+00
  7.80000000E+02  9.20000000E+01  0.00000000E+00
  7.90000000E+02  9.20000000E+01  0.00000000E+00
  8.00000000E+02  9.20000000E+01  0.00000000E+00
  8.10000000E+02  9.20000000E+01  0.00000000E+00
  8.20000000E+02  9.20000000E+01  0.00000000E+00
  8.30000000E+02  9.20000000E+01  0.00000000E+00
  8.40000000E+02  9.20000000E+01  0.00000000E+00
  8.50000000E+02  9.20000000E+01  0.00000000E+00
  8.60000000E+02  9.20000000E+01  0.00000000E+00
  8.70000000E+02  9.20000000E+01  0.00000000E+00
  8.80000000E+02  9.20000000E+01  0.00000000E+00
  8.90000000E+02  9.20000000E+01  0.00000000E+00
  9.00000000E+02  9.20000000E+01  0.00000000E+00
  9.10000000E+02  9.20000000E+01  0.00000000E+00
  9.20000000E+02  9.20000000E+01  0.00000000E+00
  9.30000000E+02  9.20000000E+01  0.00000000E+00
  9.40000000E+02  9.20000000E+01  0.00000000E+00
  9.50000000E+02  9.20000000E+01  0.00000000E+00
  9.60000000E+02  9.20000000E+01  0.00000000E+00
  9.70000000E+02  9.20000000E+01  0.00000000E+00
  9.80000000E+02  9.20000000E+01  0.00000000E+00
  9.90000000E+02  9.20000000E+01  0.00000000E+00
  1.00000000E+03  9.20000000E+01  0.00000000E+00
  0.00000000E+00  9.40000000E+01  0.00000000E+00
  1.00000000E+01  9.40000000E+01  0.00000000E+00
  2.00000000E+01  9.40000000E+01  0.00000000E+00
  3.00000000E+01  9.40000000E+01  0.00000000E+00
  4.00000000E+01  9.40000000E+01  0.00000000E+00
  5.00000000E+01  9.40000000E+01  0.00000000E+00
  6.00000000E+01  9.40000000E+01  0.00000000E+00
  7.00000000E+01  9.40000000E+01  0.00000000E+00
  8.00000000E+01  9.40000000E+01  0.00000000E+00
  9.00000000E+01  9.40000000E+01  0.00000000E+00
  1.00000000E+02  9.40000000E+01  0.00000000E+00
  1.10000000E+02  9.40000000E+01  0.00000000E+00
  1.20000000E+02  9.40000000E+01  0.00000000E+00
  1.30000000E+02  9.40000000E+01  0.00000000E+00
  1.40000000E+02  9.40000000E+01  0.00000000E+00
  1.50000000E+02  9.40000000E+01  0.00000000E+00
  1.60000000E+02  9.40000000E+01  0.00000000E+00
  1.70000000E+02  9.40000000E+01  0.00000000E+00
  1.80000000E+02  9.40000000E+01  0.00000000E+00
  1.90000000E+02  9.40000000E+01  0.00000000E+00
  2.00000000E+02  9.40000000E+01  0.00000000E+00
  2.10000000E+02  9.40000000E+01  0.00000000E+00
  2.20000000E+02  9.40000000E+01  0.00000000E+00
  2.30000000E+02  9.40000000E+01  0.00000000E+00
  2.40000000E+02  9.40000000E+01  0.00000000E+00
  2.50000000E+02  9.40000000E+01  0.00000000E+00
  2.60000000E+02  9.40000000E+01  0.00000000E+00
  2.70000000E+02  9.40000000E+01  0.00000000E+00
  2.80000000E+02  9.40000000E+01  0.00000000E+00
  2.90000000E+02  9.40000000E+01  0.00000000E+00
  3.00000000E+02  9.40000000E+01  0.00000000E+00
  3.10000000E+02  9.40000000E+01  0.00000000E+00
  3.20000000E+02  9.40000000E+01  0.00000000E+00
  3.30000000E+02  9.40000000E+01  0.00000000E+00
  3.40000000E+02  9.40000000E+01  0.00000000E+00
  3.50000000E+02  9.40000000E+01  0.00000000E+00
  3.60000000E+02  9.40000000E+01  0.00000000E+00
  3.70000000E+02  9.40000000E+01  0.00000000E+00
  3.80000000E+02  9.40000000E+01  0.00000000E+00
  3.90000000E+02  9.40000000E+01  0.00000000E+00
  4.00000000E+02  9.40000000E+01  0.00000000E+00
  4.10000000E+02  9.40000000E+01  0.00000000E+00
  4.20000000E+02  9.40000000E+01  0.00000000E+00
  4.30000000E+02  9.40000000E+01  0.00000000E+00
  4.40000000E+02  9.40000000E+01  0.00000000E+00
  4.50000000E+02  9.40000000E+01  0.00000000E+00
  4.60000000E+02  9.40000000E+01  0.00000000E+00
  4.70000000E+02  9.40000000E+01  0.00000000E+00
  4.80000000E+02  9.40000000E+01  0.00000000E+00
  4.90000000E+02  9.40000000E+01  0.00000000E+00
  5.00000000E+02  9.40000000E+01  0.00000000E+00
  5.10000000E+02  9.40000000E+01  0.00000000E+00
  5.20000000E+02  9.40000000E+01  0.00000000E+00
  5.30000000E+02  9.40000000E+01  0.00000000E+00
  5.40000000E+02  9.40000000E+01  0.00000000E+00
  5.50000000E+02  9.40000000E+01  0.00000000E+00
  5.60000000E+02  9.40000000E+01  0.00000000E+00
  5.70000000E+02  9.40000000E+01  0.00000000E+00
  5.80000000E+02  9.40000000E+01  0.00000000E+00
  5.90000000E+02  9.40000000E+01  0.00000000E+00
  6.00000000E+02  9.40000000E+01  0.00000000E+00
  6.10000000E+02  9.40000000E+01  0.00000000E+00
  6.20000000E+02  9.40000000E+01  0.00000000E+00
  6.30000000E+02  9.40000000E+01  0.00000000E+00
  6.40000000E+02  9.40000000E+01  0.00000000E+00
  6.50000000E+02  9.40000000E+01  0.00000000E+00
  6.60000000E+02  9.40000000E+01  0.00000000E+00
  6.70000000E+02  9.40000000E+01  0.00000000E+00
  6.80000000E+02  9.40000000E+01  0.00000000E+00
  6.90000000E+02  9.40000000E+01  0.00000000E+00
  7.00000000E+02  9.40000000E+01  0.00000000E+00
  7.10000000E+02  9.40000000E+01  0.00000000E+00
  7.20000000E+02  9.40000000E+01  0.00000000E+00
  7.30000000E+02  9.40000000E+01  0.00000000E+00
  7.40000000E+02  9.40000000E+01  0.00000000E+00
  7.50000000E+02  9.40000000E+01  0.00000000E+00
  7.60000000E+02  9.40000000E+01  0.00000000E+00
  7.70000000E+02  9.40000000E+01  0.00000000E+00
  7.80000000E+02  9.40000000E+01  0.00000000E+00
  7.90000000E+02  9.40000000E+01  0.00000000E+00
  8.00000000E+02  9.40000000E+01  0.00000000E+00
  8.10000000E+02  9.40000000E+01  0.00000000E+00
  8.20000000E+02  9.40000000E+01  0.00000000E+00
  8.30000000E+02  9.40000000E+01  0.00000000E+00
  8.40000000E+02  9.40000000E+01  0.00000000E+00
  8.50000000E+02  9.40000000E+01  0.00000000E+00
  8.60000000E+02  9.40000000E+01  0.00000000E+00
  8.70000000E+02  9.40000000E+01  0.00000000E+00
  8.80000000E+02  9.40000000E+01  0.00000000E+00
  8.90000000E+02  9.40000000E+01  0.00000000E+00
  9.00000000E+02  9.40000000E+01  0.00000000E+00
  9.10000000E+02  9.40000000E+01  0.00000000E+00
  9.20000000E+02  9.40000000E+01  0.00000000E+00
  9.30000000E+02  9.40000000E+01  0.00000000E+00
  9.40000000E+02  9.40000000E+01  0.00000000E+00
  9.50000000E+02  9.40000000E+01  0.00000000E+00
  9.60000000E+02  9.40000000E+01  0.00000000E+00
  9.70000000E+02  9.40000000E+01  0.00000000E+00
  9.80000000E+02  9.40000000E+01  0.00000000E+00
  9.90000000E+02  9.40000000E+01  0.00000000E+00
  1.00000000E+03  9.40000000E+01  0.00000000E+00
  0.00000000E+00  9.60000000E+01  0.00000000E+00
  1.00000000E+01  9.60000000E+01  0.00000000E+00
  2.00000000E+01  9.60000000E+01  0.00000000E+00
  3.00000000E+01  9.60000000E+01  0.00000000E+00
  4.00000000E+01  9.60000000E+01  0.00000000E+00
  5.00000000E+01  9.60000000E+01  0.00000000E+00
  6.00000000E+01  9.60000000E+01  0.00000000E+00
  7.00000000E+01  9.60000000E+01  0.00000000E+00
  8.00000000E+01  9.60000000E+01  0.00000000E+00
  9.00000000E+01  9.60000000E+01  0.00000000E+00
  1.00000000E+02  9.60000000E+01  0.00000000E+00
  1.10000000E+02  9.60000000E+01  0.00000000E+00
  1.20000000E+02  9.60000000E+01  0.00000000E+00
  1.30000000E+02  9.60000000E+01  0.00000000E+00
  1.40000000E+02  9.60000000E+01  0.00000000E+00
  1.50000000E+02  9.60000000E+01  0.00000000E+00
  1.60000000E+02  9.60000000E+01  0.00000000E+00
  1.70000000E+02  9.60000000E+01  0.00000000E+00
  1.80000000E+02  9.60000000E+01  0.00000000E+00
  1.90000000E+02  9.60000000E+01  0.00000000E+00
  2.00000000E+02  9.60000000E+01  0.00000000E+00
  2.10000000E+02  9.60000000E+01  0.00000000E+00
  2.20000000E+02  9.60000000E+01  0.00000000E+00
  2.30000000E+02  9.60000000E+01  0.00000000E+00
  2.40000000E+02  9.60000000E+01  0.00000000E+00
  2.50000000E+02  9.60000000E+01  0.00000000E+00
  2.60000000E+02  9.60000000E+01  0.00000000E+00
  2.70000000E+02  9.60000000E+01  0.00000000E+00
  2.80000000E+02  9.60000000E+01  0.00000000E+00
  2.90000000E+02  9.60000000E+01  0.00000000E+00
  3.00000000E+02  9.60000000E+01  0.00000000E+00
  3.10000000E+02  9.60000000E+01  0.00000000E+00
  3.20000000E+02  9.60000000E+01  0.00000000E+00
  3.30000000E+02  9.60000000E+01  0.00000000E+00
  3.40000000E+02  9.60000000E+01  0.00000000E+00
  3.50000000E+02  9.60000000E+01  0.00000000E+00
  3.60000000E+02  9.60000000E+01  0.00000000E+00
  3.70000000E+02  9.60000000E+01  0.00000000E+00
  3.80000000E+02  9.60000000E+01  0.00000000E+00
  3.90000000E+02  9.60000000E+01  0.00000000E+00
  4.00000000E+02  9.60000000E+01  0.00000000E+00
  4.10000000E+02  9.60000000E+01  0.00000000E+00
  4.20000000E+02  9.60000000E+01  0.00000000E+00
  4.30000000E+02  9.60000000E+01  0.00000000E+00
  4.40000000E+02  9.60000000E+01  0.00000000E+00
  4.50000000E+02  9.60000000E+01  0.00000000E+00
  4.60000000E+02  9.60000000E+01  0.00000000E+00
  4.70000000E+02  9.60000000E+01  0.00000000E+00
  4.80000000E+02  9.60000000E+01  0.00000000E+00
  4.90000000E+02  9.60000000E+01  0.00000000E+00
  5.00000000E+02  9.60000000E+01  0.00000000E+00
  5.10000000E+02  9.60000000E+01  0.00000000E+00
  5.20000000E+02  9.60000000E+01  0.00000000E+00
  5.30000000E+02  9.60000000E+01  0.00000000E+00
  5.40000000E+02  9.60000000E+01  0.00000000E+00
  5.50000000E+02  9.60000000E+01  0.00000000E+00
  5.60000000E+02  9.60000000E+01  0.00000000E+00
  5.70000000E+02  9.60000000E+01  0.00000000E+00
  5.80000000E+02  9.60000000E+01  0.00000000E+00
  5.90000000E+02  9.60000000E+01  0.00000000E+00
  6.00000000E+02  9.60000000E+01  0.00000000E+00
  6.10000000E+02  9.60000000E+01  0.00000000E+00
  6.20000000E+02  9.60000000E+01  0.00000000E+00
  6.30000000E+02  9.60000000E+01  0.00000000E+00
  6.40000000E+02  9.60000000E+01  0.00000000E+00
  6.50000000E+02  9.60000000E+01  0.00000000E+00
  6.60000000E+02  9.60000000E+01  0.00000000E+00
  6.70000000E+02  9.60000000E+01  0.00000000E+00
  6.80000000E+02  9.60000000E+01  0.00000000E+00
  6.90000000E+02  9.60000000E+01  0.00000000E+00
  7.00000000E+02  9.60000000E+01  0.00000000E+00
  7.10000000E+02  9.60000000E+01  0.00000000E+00
  7.20000000E+02  9.60000000E+01  0.00000000E+00
  7.30000000E+02  9.60000000E+01  0.00000000E+00
  7.40000000E+02  9.60000000E+01  0.00000000E+00
  7.50000000E+02  9.60000000E+01  0.00000000E+00
  7.60000000E+02  9.60000000E+01  0.00000000E+00
  7.70000000E+02  9.60000000E+01  0.00000000E+00
  7.80000000E+02  9.60000000E+01  0.00000000E+00
  7.90000000E+02  9.60000000E+01  0.00000000E+00
  8.00000000E+02  9.60000000E+01  0.00000000E+00
  8.10000000E+02  9.60000000E+01  0.00000000E+00
  8.20000000E+02  9.60000000E+01  0.00000000E+00
  8.30000000E+02  9.60000000E+01  0.00000000E+00
  8.40000000E+02  9.60000000E+01  0.00000000E+00
  8.50000000E+02  9.60000000E+01  0.00000000E+00
  8.60000000E+02  9.60000000E+01  0.00000000E+00
  8.70000000E+02  9.60000000E+01  0.00000000E+00
  8.80000000E+02  9.60000000E+01  0.00000000E+00
  8.90000000E+02  9.60000000E+01  0.00000000E+00
  9.00000000E+02  9.60000000E+01  0.00000000E+00
  9.10000000E+02  9.60000000E+01  0.00000000E+00
  9.20000000E+02  9.60000000E+01  0.00000000E+00
  9.30000000E+02  9.60000000E+01  0.00000000E+00
  9.40000000E+02  9.60000000E+01  0.00000000E+00
  9.50000000E+02  9.60000000E+01  0.00000000E+00
  9.60000000E+02  9.60000000E+01  0.00000000E+00
  9.70000000E+02  9.60000000E+01  0.00000000E+00
  9.80000000E+02  9.60000000E+01  0.00000000E+00
  9.90000000E+02  9.60000000E+01  0.00000000E+00
  1.00000000E+03  9.60000000E+01  0.00000000E+00
  0.00000000E+00  9.80000000E+01  0.00000000E+00
  1.00000000E+01  9.80000000E+01  0.00000000E+00
  2.00000000E+01  9.80000000E+01  0.00000000E+00
  3.00000000E+01  9.80000000E+01  0.00000000E+00
  4.00000000E+01  9.80000000E+01  0.00000000E+00
  5.00000000E+01  9.80000000E+01  0.00000000E+00
  6.00000000E+01  9.80000000E+01  0.00000000E+00
  7.00000000E+01  9.80000000E+01  0.00000000E+00
  8.00000000E+01  9.80000000E+01  0.00000000E+00
  9.00000000E+01  9.80000000E+01  0.00000000E+00
  1.00000000E+02  9.80000000E+01  0.00000000E+00
  1.10000000E+02  9.80000000E+01  0.00000000E+00
  1.20000000E+02  9.80000000E+01  0.00000000E+00
  1.30000000E+02  9.80000000E+01  0.00000000E+00
  1.40000000E+02  9.80000000E+01  0.00000000E+00
  1.50000000E+02  9.80000000E+01  0.00000000E+00
  1.60000000E+02  9.80000000E+01  0.00000000E+00
  1.70000000E+02  9.80000000E+01  0.00000000E+00
  1.80000000E+02  9.80000000E+01  0.00000000E+00
  1.90000000E+02  9.80000000E+01  0.00000000E+00
  2.00000000E+02  9.80000000E+01  0.00000000E+00
  2.10000000E+02  9.80000000E+01  0.00000000E+00
  2.20000000E+02  9.80000000E+01  0.00000000E+00
  2.30000000E+02  9.80000000E+01  0.00000000E+00
  2.40000000E+02  9.80000000E+01  0.00000000E+00
  2.50000000E+02  9.80000000E+01  0.00000000E+00
  2.60000000E+02  9.80000000E+01  0.00000000E+00
  2.70000000E+02  9.80000000E+01  0.00000000E+00
  2.80000000E+02  9.80000000E+01  0.00000000E+00
  2.90000000E+02  9.80000000E+01  0.00000000E+00
  3.00000000E+02  9.80000000E+01  0.00000000E+00
  3.10000000E+02  9.80000000E+01  0.00000000E+00
  3.20000000E+02  9.80000000E+01  0.00000000E+00
  3.30000000E+02  9.80000000E+01  0.00000000E+00
  3.40000000E+02  9.80000000E+01  0.00000000E+00
  3.50000000E+02  9.80000000E+01  0.00000000E+00
  3.60000000E+02  9.80000000E+01  0.00000000E+00
  3.70000000E+02  9.80000000E+01  0.00000000E+00
  3.80000000E+02  9.80000000E+01  0.00000000E+00
  3.90000000E+02  9.80000000E+01  0.00000000E+00
  4.00000000E+02  9.80000000E+01  0.00000000E+00
  4.10000000E+02  9.80000000E+01  0.00000000E+00
  4.20000000E+02  9.80000000E+01  0.00000000E+00
  4.30000000E+02  9.80000000E+01  0.00000000E+00
  4.40000000E+02  9.80000000E+01  0.00000000E+00
  4.50000000E+02  9.80000000E+01  0.00000000E+00
  4.60000000E+02  9.80000000E+01  0.00000000E+00
  4.70000000E+02  9.80000000E+01  0.00000000E+00
  4.80000000E+02  9.80000000E+01  0.00000000E+00
  4.90000000E+02  9.80000000E+01  0.00000000E+00
  5.00000000E+02  9.80000000E+01  0.00000000E+00
  5.10000000E+02  9.80000000E+01  0.00000000E+00
  5.20000000E+02  9.80000000E+01  0.00000000E+00
  5.30000000E+02  9.80000000E+01  0.00000000E+00
  5.40000000E+02  9.80000000E+01  0.00000000E+00
  5.50000000E+02  9.80000000E+01  0.00000000E+00
  5.60000000E+02  9.80000000E+01  0.00000000E+00
  5.70000000E+02  9.80000000E+01  0.00000000E+00
  5.80000000E+02  9.80000000E+01  0.00000000E+00
  5.90000000E+02  9.80000000E+01  0.00000000E+00
  6.00000000E+02  9.80000000E+01  0.00000000E+00
  6.10000000E+02  9.80000000E+01  0.00000000E+00
  6.20000000E+02  9.80000000E+01  0.00000000E+00
  6.30000000E+02  9.80000000E+01  0.00000000E+00
  6.40000000E+02  9.80000000E+01  0.00000000E+00
  6.50000000E+02  9.80000000E+01  0.00000000E+00
  6.60000000E+02  9.80000000E+01  0.00000000E+00
  6.70000000E+02  9.80000000E+01  0.00000000E+00
  6.80000000E+02  9.80000000E+01  0.00000000E+00
  6.90000000E+02  9.80000000E+01  0.00000000E+00
  7.00000000E+02  9.80000000E+01  0.00000000E+00
  7.10000000E+02  9.80000000E+01  0.00000000E+00
  7.20000000E+02  9.80000000E+01  0.00000000E+00
  7.30000000E+02  9.80000000E+01  0.00000000E+00
  7.40000000E+02  9.80000000E+01  0.00000000E+00
  7.50000000E+02  9.80000000E+01  0.00000000E+00
  7.60000000E+02  9.80000000E+01  0.00000000E+00
  7.70000000E+02  9.80000000E+01  0.00000000E+00
  7.80000000E+02  9.80000000E+01  0.00000000E+00
  7.90000000E+02  9.80000000E+01  0.00000000E+00
  8.00000000E+02  9.80000000E+01  0.00000000E+00
  8.10000000E+02  9.80000000E+01  0.00000000E+00
  8.20000000E+02  9.80000000E+01  0.00000000E+00
  8.30000000E+02  9.80000000E+01  0.00000000E+00
  8.40000000E+02  9.80000000E+01  0.00000000E+00
  8.50000000E+02  9.80000000E+01  0.00000000E+00
  8.60000000E+02  9.80000000E+01  0.00000000E+00
  8.70000000E+02  9.80000000E+01  0.00000000E+00
  8.80000000E+02  9.80000000E+01  0.00000000E+00
  8.90000000E+02  9.80000000E+01  0.00000000E+00
  9.00000000E+02  9.80000000E+01  0.00000000E+00
  9.10000000E+02  9.80000000E+01  0.00000000E+00
  9.20000000E+02  9.80000000E+01  0.00000000E+00
  9.30000000E+02  9.80000000E+01  0.00000000E+00
  9.40000000E+02  9.80000000E+01  0.00000000E+00
  9.50000000E+02  9.80000000E+01  0.00000000E+00
  9.60000000E+02  9.80000000E+01  0.00000000E+00
  9.70000000E+02  9.80000000E+01  0.00000000E+00
  9.80000000E+02  9.80000000E+01  0.00000000E+00
  9.90000000E+02  9.80000000E+01  0.00000000E+00
  1.00000000E+03  9.80000000E+01  0.00000000E+00
  0.00000000E+00  1.00000000E+02  0.00000000E+00
  1.00000000E+01  1.00000000E+02  0.00000000E+00
  2.00000000E+01  1.00000000E+02  0.00000000E+00
  3.00000000E+01  1.00000000E+02  0.00000000E+00
  4.00000000E+01  1.00000000E+02  0.00000000E+00
  5.00000000E+01  1.00000000E+02  0.00000000E+00
  6.00000000E+01  1.00000000E+02  0.00000000E+00
  7.00000000E+01  1.00000000E+02  0.00000000E+00
  8.00000000E+01  1.00000000E+02  0.00000000E+00
  9.00000000E+01  1.00000000E+02  0.00000000E+00
  1.00000000E+02  1.00000000E+02  0.00000000E+00
  1.10000000E+02  1.00000000E+02  0.00000000E+00
  1.20000000E+02  1.00000000E+02  0.00000000E+00
  1.30000000E+02  1.00000000E+02  0.00000000E+00
  1.40000000E+02  1.00000000E+02  0.00000000E+00
  1.50000000E+02  1.00000000E+02  0.00000000E+00
  1.60000000E+02  1.00000000E+02  0.00000000E+00
  1.70000000E+02  1.00000000E+02  0.00000000E+00
  1.80000000E+02  1.00000000E+02  0.00000000E+00
  1.90000000E+02  1.00000000E+02  0.00000000E+00
  2.00000000E+02  1.00000000E+02  0.00000000E+00
  2.10000000E+02  1.00000000E+02  0.00000000E+00
  2.20000000E+02  1.00000000E+02  0.00000000E+00
  2.30000000E+02  1.00000000E+02  0.00000000E+00
  2.40000000E+02  1.00000000E+02  0.00000000E+00
  2.50000000E+02  1.00000000E+02  0.00000000E+00
  2.60000000E+02  1.00000000E+02  0.00000000E+00
  2.70000000E+02  1.00000000E+02  0.00000000E+00
  2.80000000E+02  1.00000000E+02  0.00000000E+00
  2.90000000E+02  1.00000000E+02  0.00000000E+00
  3.00000000E+02  1.00000000E+02  0.00000000E+00
  3.10000000E+02  1.00000000E+02  0.00000000E+00
  3.20000000E+02  1.00000000E+02  0.00000000E+00
  3.30000000E+02  1.00000000E+02  0.00000000E+00
  3.40000000E+02  1.00000000E+02  0.00000000E+00
  3.50000000E+02  1.00000000E+02  0.00000000E+00
  3.60000000E+02  1.00000000E+02  0.00000000E+00
  3.70000000E+02  1.00000000E+02  0.00000000E+00
  3.80000000E+02  1.00000000E+02  0.00000000E+00
  3.90000000E+02  1.00000000E+02  0.00000000E+00
  4.00000000E+02  1.00000000E+02  0.00000000E+00
  4.10000000E+02  1.00000000E+02  0.00000000E+00
  4.20000000E+02  1.00000000E+02  0.00000000E+00
  4.30000000E+02  1.00000000E+02  0.00000000E+00
  4.40000000E+02  1.00000000E+02  0.00000000E+00
  4.50000000E+02  1.00000000E+02  0.00000000E+00
  4.60000000E+02  1.00000000E+02  0.00000000E+00
  4.70000000E+02  1.00000000E+02  0.00000000E+00
  4.80000000E+02  1.00000000E+02  0.00000000E+00
  4.90000000E+02  1.00000000E+02  0.00000000E+00
  5.00000000E+02  1.00000000E+02  0.00000000E+00
  5.10000000E+02  1.00000000E+02  0.00000000E+00
  5.20000000E+02  1.00000000E+02  0.00000000E+00
  5.30000000E+02  1.00000000E+02  0.00000000E+00
  5.40000000E+02  1.00000000E+02  0.00000000E+00
  5.50000000E+02  1.00000000E+02  0.00000000E+00
  5.60000000E+02  1.00000000E+02  0.00000000E+00
  5.70000000E+02  1.00000000E+02  0.00000000E+00
  5.80000000E+02  1.00000000E+02  0.00000000E+00
  5.90000000E+02  1.00000000E+02  0.00000000E+00
  6.00000000E+02  1.00000000E+02  0.00000000E+00
  6.10000000E+02  1.00000000E+02  0.00000000E+00
  6.20000000E+02  1.00000000E+02  0.00000000E+00
  6.30000000E+02  1.00000000E+02  0.00000000E+00
  6.40000000E+02  1.00000000E+02  0.00000000E+00
  6.50000000E+02  1.00000000E+02  0.00000000E+00
  6.60000000E+02  1.00000000E+02  0.00000000E+00
  6.70000000E+02  1.00000000E+02  0.00000000E+00
  6.80000000E+02  1.00000000E+02  0.00000000E+00
  6.90000000E+02  1.00000000E+02  0.00000000E+00
  7.00000000E+02  1.00000000E+02  0.00000000E+00
  7.10000000E+02  1.00000000E+02  0.00000000E+00
  7.20000000E+02  1.00000000E+02  0.00000000E+00
  7.30000000E+02  1.00000000E+02  0.00000000E+00
  7.40000000E+02  1.00000000E+02  0.00000000E+00
  7.50000000E+02  1.00000000E+02  0.00000000E+00
  7.60000000E+02  1.00000000E+02  0.00000000E+00
  7.70000000E+02  1.00000000E+02  0.00000000E+00
  7.80000000E+02  1.00000000E+02  0.00000000E+00
  7.90000000E+02  1.00000000E+02  0.00000000E+00
  8.00000000E+02  1.00000000E+02  0.00000000E+00
  8.10000000E+02  1.00000000E+02  0.00000000E+00
  8.20000000E+02  1.00000000E+02  0.00000000E+00
  8.30000000E+02  1.00000000E+02  0.00000000E+00
  8.40000000E+02  1.00000000E+02  0.00000000E+00
  8.50000000E+02  1.00000000E+02  0.00000000E+00
  8.60000000E+02  1.00000000E+02  0.00000000E+00
  8.70000000E+02  1.00000000E+02  0.00000000E+00
  8.80000000E+02  1.00000000E+02  0.00000000E+00
  8.90000000E+02  1.00000000E+02  0.00000000E+00
  9.00000000E+02  1.00000000E+02  0.00000000E+00
  9.10000000E+02  1.00000000E+02  0.00000000E+00
  9.20000000E+02  1.00000000E+02  0.00000000E+00
  9.30000000E+02  1.00000000E+02  0.00000000E+00
  9.40000000E+02  1.00000000E+02  0.00000000E+00
  9.50000000E+02  1.00000000E+02  0.00000000E+00
  9.60000000E+02  1.00000000E+02  0.00000000E+00
  9.70000000E+02  1.00000000E+02  0.00000000E+00
  9.80000000E+02  1.00000000E+02  0.00000000E+00
  9.90000000E+02  1.00000000E+02  0.00000000E+00
  1.00000000E+03  1.00000000E+02  0.00000000E+00
CELLS      5000     25000
         4           0           1         102         101
         4           1           2         103         102
         4           2           3         104         103
         4           3           4         105         104
         4           4           5         106         105
         4           5           6         107         106
         4           6           7         108         107
         4           7           8         109         108
         4           8           9         110         109
         4           9          10         111         110
         4          10          11         112         111
         4          11          12         113         112
         4          12          13         114         113
         4          13          14         115         114
         4          14          15         116         115
         4          15          16         117         116
         4          16          17         118         117
         4          17          18         119         118
         4          18          19         120         119
         4          19          20         121         120
         4          20          21         122         121
         4          21          22         123         122
         4          22          23         124         123
         4          23          24         125         124
         4          24          25         126         125
         4          25          26         127         126
         4          26          27         128         127
         4          27          28         129         128
         4          28          29         130         129
         4          29          30         131         130
         4          30          31         132         131
         4          31          32         133         132
         4          32          33         134         133
         4          33          34         135         134
         4          34          35         136         135
         4          35          36         137         136
         4          36          37         138         137
         4          37          38         139         138
         4          38          39         140         139
         4          39          40         141         140
         4          40          41         142         141
         4          41          42         143         142
         4          42          43         144         143
         4          43          44         145         144
         4          44          45         146         145
         4          45          46         147         146
         4          46          47         148         147
         4          47          48         149         148
         4          48          49         150         149
         4          49          50         151         150
         4          50          51         152         151
         4          51          52         153         152
         4          52          53         154         153
         4          53          54         155         154
         4          54          55         156         155
         4          55          56         157         156
         4          56          57         158         157
         4          57          58         159         158
         4          58          59         160         159
         4          59          60         161         160
         4          60          61         162         161
         4          61          62         163         162
         4          62          63         164         163
         4          63          64         165         164
         4          64          65         166         165
         4          65          66         167         166
         4          66          67         168         167
         4          67          68         169         168
         4          68          69         170         169
         4          69          70         171         170
         4          70          71         172         171
         4          71          72         173         172
         4          72          73         174         173
         4          73          74         175         174
         4          74          75         176         175
         4          75          76         177         176
         4          76          77         178         177
         4          77          78         179         178
         4          78          79         180         179
         4          79          80         181         180
         4          80          81         182         181
         4          81          82         183         182
         4          82          83         184         183
         4          83          84         185         184
         4          84          85         186         185
         4          85          86         187         186
         4          86          87         188         187
         4          87          88         189         188
         4          88          89         190         189
         4          89          90         191         190
         4          90          91         192         191
         4          91          92         193         192
         4          92          93         194         193
         4          93          94         195         194
         4          94          95         196         195
         4          95          96         197         196
         4          96          97         198         197
         4          97          98         199         198
         4          98          99         200         199
         4          99         100         201         200
         4         101         102         203         202
         4         102         103         204         203
         4         103         104         205         204
         4         104         105         206         205
         4         105         106         207         206
         4         106         107         208         207
         4         107         108         209         208
         4         108         109         210         209
         4         109         110         211         210
         4         110         111         212         211
         4         111         112         213         212
         4         112         113         214         213
         4         113         114         215         214
         4         114         115         216         215
         4         115         116         217         216
         4         116         117         218         217
         4         117         118         219         218
         4         118         119         220         219
         4         119         120         221         220
         4         120         121         222         221
         4         121         122         223         222
         4         122         123         224         223
         4         123         124         225         224
         4         124         125         226         225
         4         125         126         227         226
         4         126         127         228         227
         4         127         128         229         228
         4         128         129         230         229
         4         129         130         231         230
         4         130         131         232         231
         4         131         132         233         232
         4         132         133         234         233
         4         133         134         235         234
         4         134         135         236         235
         4         135         136         237         236
         4         136         137         238         237
         4         137         138         239         238
         4         138         139         240         239
         4         139         140         241         240
         4         140         141         242         241
         4         141         142         243         242
         4         142         143         244         243
         4         143         144         245         244
         4         144         145         246         245
         4         145         146         247         246
         4         146         147         248         247
         4         147         148         249         248
         4         148         149         250         249
         4         149         150         251         250
         4         150         151         252         251
         4         151         152         253         252
         4         152         153         254         253
         4         153         154         255         254
         4         154         155         256         255
         4         155         156         257         256
         4         156         157         258         257
         4         157         158         259         258
         4         158         159         260         259
         4         159         160         261         260
         4         160         161         262         261
         4         161         162         263         262
         4         162         163         264         263
         4         163         164         265         264
         4         164         165         266         265
         4         165         166         267         266
         4         166         167         268         267
         4         167         168         269         268
         4         168         169         270         269
         4         169         170         271         270
         4         170         171         272         271
         4         171         172         273         272
         4         172         173         274         273
         4         173         174         275         274
         4         174         175         276         275
         4         175         176         277         276
         4         176         177         278         277
         4         177         178         279         278
         4         178         179         280         279
         4         179         180         281         280
         4         180         181         282         281
         4         181         182         283         282
         4         182         183         284         283
         4         183         184         285         284
         4         184         185         286         285
         4         185         186         287         286
         4         186         187         288         287
         4         187         188         289         288
         4         188         189         290         289
         4         189         190         291         290
         4         190         191         292         291
         4         191         192         293         292
         4         192         193         294         293
         4         193         194         295         294
         4         194         195         296         295
         4         195         196         297         296
         4         196         197         298         297
         4         197         198         299         298
         4         198         199         300         299
         4         199         200         301         300
         4         200         201         302         301
         4         202         203         304         303
         4         203         204         305         304
         4         204         205         306         305
         4         205         206         307         306
         4         206         207         308         307
         4         207         208         309         308
         4         208         209         310         309
         4         209         210         311         310
         4         210         211         312         311
         4         211         212         313         312
         4         212         213         314         313
         4         213         214         315         314
         4         214         215         316         315
         4         215         216         317         316
         4         216         217         318         317
         4         217         218         319         318
         4         218         219         320         319
         4         219         220         321         320
         4         220         221         322         321
         4         221         222         323         322
         4         222         223         324         323
         4         223         224         325         324
         4         224         225         326         325
         4         225         226         327         326
         4         226         227         328         327
         4         227         228         329         328
         4         228         229         330         329
         4         229         230         331         330
         4         230         231         332         331
         4         231         232         333         332
         4         232         233         334         333
         4         233         234         335         334
         4         234         235         336         335
         4         235         236         337         336
         4         236         237         338         337
         4         237         238         339         338
         4         238         239         340         339
         4         239         240         341         340
         4         240         241         342         341
         4         241         242         343         342
         4         242         243         344         343
         4         243         244         345         344
         4         244         245         346         345
         4         245         246         347         346
         4         246         247         348         347
         4         247         248         349         348
         4         248         249         350         349
         4         249         250         351         350
         4         250         251         352         351
         4         251         252         353         352
         4         252         253         354         353
         4         253         254         355         354
         4         254         255         356         355
         4         255         256         357         356
         4         256         257         358         357
         4         257         258         359         358
         4         258         259         360         359
         4         259         260         361         360
         4         260         261         362         361
         4         261         262         363         362
         4         262         263         364         363
         4         263         264         365         364
         4         264         265         366         365
         4         265         266         367         366
         4         266         267         368         367
         4         267         268         369         368
         4         268         269         370         369
         4         269         270         371         370
         4         270         271         372         371
         4         271         272         373         372
         4         272         273         374         373
         4         273         274         375         374
         4         274         275         376         375
         4         275         276         377         376
         4         276         277         378         377
         4         277         278         379         378
         4         278         279         380         379
         4         279         280         381         380
         4         280         281         382         381
         4         281         282         383         382
         4         282         283         384         383
         4         283         284         385         384
         4         284         285         386         385
         4         285         286         387         386
         4         286         287         388         387
         4         287         288         389         388
         4         288         289         390         389
         4         289         290         391         390
         4         290         291         392         391
         4         291         292         393         392
         4         292         293         394         393
         4         293         294         395         394
         4         294         295         396         395
         4         295         296         397         396
         4         296         297         398         397
         4         297         298         399         398
         4         298         299         400         399
         4         299         300         401         400
         4         300         301         402         401
         4         301         302         403         402
         4         303         304         405         404
         4         304         305         406         405
         4         305         306         407         406
         4         306         307         408         407
         4         307         308         409         408
         4         308         309         410         409
         4         309         310         411         410
         4         310         311         412         411
         4         311         312         413         412
         4         312         313         414         413
         4         313         314         415         414
         4         314         315         416         415
         4         315         316         417         416
         4         316         317         418         417
         4         317         318         419         418
         4         318         319         420         419
         4         319         320         421         420
         4         320         321         422         421
         4         321         322         423         422
         4         322         323         424         423
         4         323         324         425         424
         4         324         325         426         425
         4         325         326         427         426
         4         326         327         428         427
         4         327         328         429         428
         4         328         329         430         429
         4         329         330         431         430
         4         330         331         432         431
         4         331         332         433         432
         4         332         333         434         433
         4         333         334         435         434
         4         334         335         436         435
         4         335         336         437         436
         4         336         337         438         437
         4         337         338         439         438
         4         338         339         440         439
         4         339         340         441         440
         4         340         341         442         441
         4         341         342         443         442
         4         342         343         444         443
         4         343         344         445         444
         4         344         345         446         445
         4         345         346         447         446
         4         346         347         448         447
         4         347         348         449         448
         4         348         349         450         449
         4         349         350         451         450
         4         350         351         452         451
         4         351         352         453         452
         4         352         353         454         453
         4         353         354         455         454
         4         354         355         456         455
         4         355         356         457         456
         4         356         357         458         457
         4         357         358         459         458
         4         358         359         460         459
         4         359         360         461         460
         4         360         361         462         461
         4         361         362         463         462
         4         362         363         464         463
         4         363         364         465         464
         4         364         365         466         465
         4         365         366         467         466
         4         366         367         468         467
         4         367         368         469         468
         4         368         369         470         469
         4         369         370         471         470
         4         370         371         472         471
         4         371         372         473         472
         4         372         373         474         473
         4         373         374         475         474
         4         374         375         476         475
         4         375         376         477         476
         4         376         377         478         477
         4         377         378         479         478
         4         378         379         480         479
         4         379         380         481         480
         4         380         381         482         481
         4         381         382         483         482
         4         382         383         484         483
         4         383         384         485         484
         4         384         385         486         485
         4         385         386         487         486
         4         386         387         488         487
         4         387         388         489         488
         4         388         389         490         489
         4         389         390         491         490
         4         390         391         492         491
         4         391         392         493         492
         4         392         393         494         493
         4         393         394         495         494
         4         394         395         496         495
         4         395         396         497         496
         4         396         397         498         497
         4         397         398         499         498
         4         398         399         500         499
         4         399         400         501         500
         4         400         401         502         501
         4         401         402         503         502
         4         402         403         504         503
         4         404         405         506         505
         4         405         406         507         506
         4         406         407         508         507
         4         407         408         509         508
         4         408         409         510         509
         4         409         410         511         510
         4         410         411         512         511
         4         411         412         513         512
         4         412         413         514         513
         4         413         414         515         514
         4         414         415         516         515
         4         415         416         517         516
         4         416         417         518         517
         4         417         418         519         518
         4         418         419         520         519
         4         419         420         521         520
         4         420         421         522         521
         4         421         422         523         522
         4         422         423         524         523
         4         423         424         525         524
         4         424         425         526         525
         4         425         426         527         526
         4         426         427         528         527
         4         427         428         529         528
         4         428         429         530         529
         4         429         430         531         530
         4         430         431         532         531
         4         431         432         533         532
         4         432         433         534         533
         4         433         434         535         534
         4         434         435         536         535
         4         435         436         537         536
         4         436         437         538         537
         4         437         438         539         538
         4         438         439         540         539
         4         439         440         541         540
         4         440         441         542         541
         4         441         442         543         542
         4         442         443         544         543
         4         443         444         545         544
         4         444         445         546         545
         4         445         446         547         546
         4         446         447         548         547
         4         447         448         549         548
         4         448         449         550         549
         4         449         450         551         550
         4         450         451         552         551
         4         451         452         553         552
         4         452         453         554         553
         4         453         454         555         554
         4         454         455         556         555
         4         455         456         557         556
         4         456         457         558         557
         4         457         458         559         558
         4         458         459         560         559
         4         459         460         561         560
         4         460         461         562         561
         4         461         462         563         562
         4         462         463         564         563
         4         463         464         565         564
         4         464         465         566         565
         4         465         466         567         566
         4         466         467         568         567
         4         467         468         569         568
         4         468         469         570         569
         4         469         470         571         570
         4         470         471         572         571
         4         471         472         573         572
         4         472         473         574         573
         4         473         474         575         574
         4         474         475         576         575
         4         475         476         577         576
         4         476         477         578         577
         4         477         478         579         578
         4         478         479         580         579
         4         479         480         581         580
         4         480         481         582         581
         4         481         482         583         582
         4         482         483         584         583
         4         483         484         585         584
         4         484         485         586         585
         4         485         486         587         586
         4         486         487         588         587
         4         487         488         589         588
         4         488         489         590         589
         4         489         490         591         590
         4         490         491         592         591
         4         491         492         593         592
         4         492         493         594         593
         4         493         494         595         594
         4         494         495         596         595
         4         495         496         597         596
         4         496         497         598         597
         4         497         498         599         598
         4         498         499         600         599
         4         499         500         601         600
         4         500         501         602         601
         4         501         502         603         602
         4         502         503         604         603
         4         503         504         605         604
         4         505         506         607         606
         4         506         507         608         607
         4         507         508         609         608
         4         508         509         610         609
         4         509         510         611         610
         4         510         511         612         611
         4         511         512         613         612
         4         512         513         614         613
         4         513         514         615         614
         4         514         515         616         615
         4         515         516         617         616
         4         516         517         618         617
         4         517         518         619         618
         4         518         519         620         619
         4         519         520         621         620
         4         520         521         622         621
         4         521         522         623         622
         4         522         523         624         623
         4         523         524         625         624
         4         524         525         626         625
         4         525         526         627         626
         4         526         527         628         627
         4         527         528         629         628
         4         528         529         630         629
         4         529         530         631         630
         4         530         531         632         631
         4         531         532         633         632
         4         532         533         634         633
         4         533         534         635         634
         4         534         535         636         635
         4         535         536         637         636
         4         536         537         638         637
         4         537         538         639         638
         4         538         539         640         639
         4         539         540         641         640
         4         540         541         642         641
         4         541         542         643         642
         4         542         543         644         643
         4         543         544         645         644
         4         544         545         646         645
         4         545         546         647         646
         4         546         547         648         647
         4         547         548         649         648
         4         548         549         650         649
         4         549         550         651         650
         4         550         551         652         651
         4         551         552         653         652
         4         552         553         654         653
         4         553         554         655         654
         4         554         555         656         655
         4         555         556         657         656
         4         556         557         658         657
         4         557         558         659         658
         4         558         559         660         659
         4         559         560         661         660
         4         560         561         662         661
         4         561         562         663         662
         4         562         563         664         663
         4         563         564         665         664
         4         564         565         666         665
         4         565         566         667         666
         4         566         567         668         667
         4         567         568         669         668
         4         568         569         670         669
         4         569         570         671         670
         4         570         571         672         671
         4         571         572         673         672
         4         572         573         674         673
         4         573         574         675         674
         4         574         575         676         675
         4         575         576         677         676
         4         576         577         678         677
         4         577         578         679         678
         4         578         579         680         679
         4         579         580         681         680
         4         580         581         682         681
         4         581         582         683         682
         4         582         583         684         683
         4         583         584         685         684
         4         584         585         686         685
         4         585         586         687         686
         4         586         587         688         687
         4         587         588         689         688
         4         588         589         690         689
         4         589         590         691         690
         4         590         591         692         691
         4         591         592         693         692
         4         592         593         694         693
         4         593         594         695         694
         4         594         595         696         695
         4         595         596         697         696
         4         596         597         698         697
         4         597         598         699         698
         4         598         599         700         699
         4         599         600         701         700
         4         600         601         702         701
         4         601         602         703         702
         4         602         603         704         703
         4         603         604         705         704
         4         604         605         706         705
         4         606         607         708         707
         4         607         608         709         708
         4         608         609         710         709
         4         609         610         711         710
         4         610         611         712         711
         4         611         612         713         712
         4         612         613         714         713
         4         613         614         715         714
         4         614         615         716         715
         4         615         616         717         716
         4         616         617         718         717
         4         617         618         719         718
         4         618         619         720         719
         4         619         620         721         720
         4         620         621         722         721
         4         621         622         723         722
         4         622         623         724         723
         4         623         624         725         724
         4         624         625         726         725
         4         625         626         727         726
         4         626         627         728         727
         4         627         628         729         728
         4         628         629         730         729
         4         629         630         731         730
         4         630         631         732         731
         4         631         632         733         732
         4         632         633         734         733
         4         633         634         735         734
         4         634         635         736         735
         4         635         636         737         736
         4         636         637         738         737
         4         637         638         739         738
         4         638         639         740         739
         4         639         640         741         740
         4         640         641         742         741
         4         641         642         743         742
         4         642         643         744         743
         4         643         644         745         744
         4         644         645         746         745
         4         645         646         747         746
         4         646         647         748         747
         4         647         648         749         748
         4         648         649         750         749
         4         649         650         751         750
         4         650         651         752         751
         4         651         652         753         752
         4         652         653         754         753
         4         653         654         755         754
         4         654         655         756         755
         4         655         656         757         756
         4         656         657         758         757
         4         657         658         759         758
         4         658         659         760         759
         4         659         660         761         760
         4         660         661         762         761
         4         661         662         763         762
         4         662         663         764         763
         4         663         664         765         764
         4         664         665         766         765
         4         665         666         767         766
         4         666         667         768         767
         4         667         668         769         768
         4         668         669         770         769
         4         669         670         771         770
         4         670         671         772         771
         4         671         672         773         772
         4         672         673         774         773
         4         673         674         775         774
         4         674         675         776         775
         4         675         676         777         776
         4         676         677         778         777
         4         677         678         779         778
         4         678         679         780         779
         4         679         680         781         780
         4         680         681         782         781
         4         681         682         783         782
         4         682         683         784         783
         4         683         684         785         784
         4         684         685         786         785
         4         685         686         787         786
         4         686         687         788         787
         4         687         688         789         788
         4         688         689         790         789
         4         689         690         791         790
         4         690         691         792         791
         4         691         692         793         792
         4         692         693         794         793
         4         693         694         795         794
         4         694         695         796         795
         4         695         696         797         796
         4         696         697         798         797
         4         697         698         799         798
         4         698         699         800         799
         4         699         700         801         800
         4         700         701         802         801
         4         701         702         803         802
         4         702         703         804         803
         4         703         704         805         804
         4         704         705         806         805
         4         705         706         807         806
         4         707         708         809         808
         4         708         709         810         809
         4         709         710         811         810
         4         710         711         812         811
         4         711         712         813         812
         4         712         713         814         813
         4         713         714         815         814
         4         714         715         816         815
         4         715         716         817         816
         4         716         717         818         817
         4         717         718         819         818
         4         718         719         820         819
         4         719         720         821         820
         4         720         721         822         821
         4         721         722         823         822
         4         722         723         824         823
         4         723         724         825         824
         4         724         725         826         825
         4         725         726         827         826
         4         726         727         828         827
         4         727         728         829         828
         4         728         729         830         829
         4         729         730         831         830
         4         730         731         832         831
         4         731         732         833         832
         4         732         733         834         833
         4         733         734         835         834
         4         734         735         836         835
         4         735         736         837         836
         4         736         737         838         837
         4         737         738         839         838
         4         738         739         840         839
         4         739         740         841         840
         4         740         741         842         841
         4         741         742         843         842
         4         742         743         844         843
         4         743         744         845         844
         4         744         745         846         845
         4         745         746         847         846
         4         746         747         848         847
         4         747         748         849         848
         4         748         749         850         849
         4         749         750         851         850
         4         750         751         852         851
         4         751         752         853         852
         4         752         753         854         853
         4         753         754         855         854
         4         754         755         856         855
         4         755         756         857         856
         4         756         757         858         857
         4         757         758         859         858
         4         758         759         860         859
         4         759         760         861         860
         4         760         761         862         861
         4         761         762         863         862
         4         762         763         864         863
         4         763         764         865         864
         4         764         765         866         865
         4         765         766         867         866
         4         766         767         868         867
         4         767         768         869         868
         4         768         769         870         869
         4         769         770         871         870
         4         770         771         872         871
         4         771         772         873         872
         4         772         773         874         873
         4         773         774         875         874
         4         774         775         876         875
         4         775         776         877         876
         4         776         777         878         877
         4         777         778         879         878
         4         778         779         880         879
         4         779         780         881         880
         4         780         781         882         881
         4         781         782         883         882
         4         782         783         884         883
         4         783         784         885         884
         4         784         785         886         885
         4         785         786         887         886
         4         786         787         888         887
         4         787         788         889         888
         4         788         789         890         889
         4         789         790         891         890
         4         790         791         892         891
         4         791         792         893         892
         4         792         793         894         893
         4         793         794         895         894
         4         794         795         896         895
         4         795         796         897         896
         4         796         797         898         897
         4         797         798         899         898
         4         798         799         900         899
         4         799         800         901         900
         4         800         801         902         901
         4         801         802         903         902
         4         802         803         904         903
         4         803         804         905         904
         4         804         805         906         905
         4         805         806         907         906
         4         806         807         908         907
         4         808         809         910         909
         4         809         810         911         910
         4         810         811         912         911
         4         811         812         913         912
         4         812         813         914         913
         4         813         814         915         914
         4         814         815         916         915
         4         815         816         917         916
         4         816         817         918         917
         4         817         818         919         918
         4         818         819         920         919
         4         819         820         921         920
         4         820         821         922         921
         4         821         822         923         922
         4         822         823         924         923
         4         823         824         925         924
         4         824         825         926         925
         4         825         826         927         926
         4         826         827         928         927
         4         827         828         929         928
         4         828         829         930         929
         4         829         830         931         930
         4         830         831         932         931
         4         831         832         933         932
         4         832         833         934         933
         4         833         834         935         934
         4         834         835         936         935
         4         835         836         937         936
         4         836         837         938         937
         4         837         838         939         938
         4         838         839         940         939
         4         839         840         941         940
         4         840         841         942         941
         4         841         842         943         942
         4         842         843         944         943
         4         843         844         945         944
         4         844         845         946         945
         4         845         846         947         946
         4         846         847         948         947
         4         847         848         949         948
         4         848         849         950         949
         4         849         850         951         950
         4         850         851         952         951
         4         851         852         953         952
         4         852         853         954         953
         4         853         854         955         954
         4         854         855         956         955
         4         855         856         957         956
         4         856         857         958         957
         4         857         858         959         958
         4         858         859         960         959
         4         859         860         961         960
         4         860         861         962         961
         4         861         862         963         962
         4         862         863         964         963
         4         863         864         965         964
         4         864         865         966         965
         4         865         866         967         966
         4         866         867         968         967
         4         867         868         969         968
         4         868         869         970         969
         4         869         870         971         970
         4         870         871         972         971
         4         871         872         973         972
         4         872         873         974         973
         4         873         874         975         974
         4         874         875         976         975
         4         875         876         977         976
         4         876         877         978         977
         4         877         878         979         978
         4         878         879         980         979
         4         879         880         981         980
         4         880         881         982         981
         4         881         882         983         982
         4         882         883         984         983
         4         883         884         985         984
         4         884         885         986         985
         4         885         886         987         986
         4         886         887         988         987
         4         887         888         989         988
         4         888         889         990         989
         4         889         890         991         990
         4         890         891         992         991
         4         891         892         993         992
         4         892         893         994         993
         4         893         894         995         994
         4         894         895         996         995
         4         895         896         997         996
         4         896         897         998         997
         4         897         898         999         998
         4         898         899        1000         999
         4         899         900        1001        1000
         4         900         901        1002        1001
         4         901         902        1003        1002
         4         902         903        1004        1003
         4         903         904        1005        1004
         4         904         905        1006        1005
         4         905         906        1007        1006
         4         906         907        1008        1007
         4         907         908        1009        1008
         4         909         910        1011        1010
         4         910         911        1012        1011
         4         911         912        1013        1012
         4         912         913        1014        1013
         4         913         914        1015        1014
         4         914         915        1016        1015
         4         915         916        1017        1016
         4         916         917        1018        1017
         4         917         918        1019        1018
         4         918         919        1020        1019
         4         919         920        1021        1020
         4         920         921        1022        1021
         4         921         922        1023        1022
         4         922         923        1024        1023
         4         923         924        1025        1024
         4         924         925        1026        1025
         4         925         926        1027        1026
         4         926         927        1028        1027
         4         927         928        1029        1028
         4         928         929        1030        1029
         4         929         930        1031        1030
         4         930         931        1032        1031
         4         931         932        1033        1032
         4         932         933        1034        1033
         4         933         934        1035        1034
         4         934         935        1036        1035
         4         935         936        1037        1036
         4         936         937        1038        1037
         4         937         938        1039        1038
         4         938         939        1040        1039
         4         939         940        1041        1040
         4         940         941        1042        1041
         4         941         942        1043        1042
         4         942         943        1044        1043
         4         943         944        1045        1044
         4         944         945        1046        1045
         4         945         946        1047        1046
         4         946         947        1048        1047
         4         947         948        1049        1048
         4         948         949        1050        1049
         4         949         950        1051        1050
         4         950         951        1052        1051
         4         951         952        1053        1052
         4         952         953        1054        1053
         4         953         954        1055        1054
         4         954         955        1056        1055
         4         955         956        1057        1056
         4         956         957        1058        1057
         4         957         958        1059        1058
         4         958         959        1060        1059
         4         959         960        1061        1060
         4         960         961        1062        1061
         4         961         962        1063        1062
         4         962         963        1064        1063
         4         963         964        1065        1064
         4         964         965        1066        1065
         4         965         966        1067        1066
         4         966         967        1068        1067
         4         967         968        1069        1068
         4         968         969        1070        1069
         4         969         970        1071        1070
         4         970         971        1072        1071
         4         971         972        1073        1072
         4         972         973        1074        1073
         4         973         974        1075        1074
         4         974         975        1076        1075
         4         975         976        1077        1076
         4         976         977        1078        1077
         4         977         978        1079        1078
         4         978         979        1080        1079
         4         979         980        1081        1080
         4         980         981        1082        1081
         4         981         982        1083        1082
         4         982         983        1084        1083
         4         983         984        1085        1084
         4         984         985        1086        1085
         4         985         986        1087        1086
         4         986         987        1088        1087
         4         987         988        1089        1088
         4         988         989        1090        1089
         4         989         990        1091        1090
         4         990         991        1092        1091
         4         991         992        1093        1092
         4         992         993        1094        1093
         4         993         994        1095        1094
         4         994         995        1096        1095
         4         995         996        1097        1096
         4         996         997        1098        1097
         4         997         998        1099        1098
         4         998         999        1100        1099
         4         999        1000        1101        1100
         4        1000        1001        1102        1101
         4        1001        1002        1103        1102
         4        1002        1003        1104        1103
         4        1003        1004        1105        1104
         4        1004        1005        1106        1105
         4        1005        1006        1107        1106
         4        1006        1007        1108        1107
         4        1007        1008        1109        1108
         4        1008        1009        1110        1109
         4        1010        1011        1112        1111
         4        1011        1012        1113        1112
         4        1012        1013        1114        1113
         4        1013        1014        1115        1114
         4        1014        1015        1116        1115
         4        1015        1016        1117        1116
         4        1016        1017        1118        1117
         4        1017        1018        1119        1118
         4        1018        1019        1120        1119
         4        1019        1020        1121        1120
         4        1020        1021        1122        1121
         4        1021        1022        1123        1122
         4        1022        1023        1124        1123
         4        1023        1024        1125        1124
         4        1024        1025        1126        1125
         4        1025        1026        1127        1126
         4        1026        1027        1128        1127
         4        1027        1028        1129        1128
         4        1028        1029        1130        1129
         4        1029        1030        1131        1130
         4        1030        1031        1132        1131
         4        1031        1032        1133        1132
         4        1032        1033        1134        1133
         4        1033        1034        1135        1134
         4        1034        1035        1136        1135
         4        1035        1036        1137        1136
         4        1036        1037        1138        1137
         4        1037        1038        1139        1138
         4        1038        1039        1140        1139
         4        1039        1040        1141        1140
         4        1040        1041        1142        1141
         4        1041        1042        1143        1142
         4        1042        1043        1144        1143
         4        1043        1044        1145        1144
         4        1044        1045        1146        1145
         4        1045        1046        1147        1146
         4        1046        1047        1148        1147
         4        1047        1048        1149        1148
         4        1048        1049        1150        1149
         4        1049        1050        1151        1150
         4        1050        1051        1152        1151
         4        1051        1052        1153        1152
         4        1052        1053        1154        1153
         4        1053        1054        1155        1154
         4        1054        1055        1156        1155
         4        1055        1056        1157        1156
         4        1056        1057        1158        1157
         4        1057        1058        1159        1158
         4        1058        1059        1160        1159
         4        1059        1060        1161        1160
         4        1060        1061        1162        1161
         4        1061        1062        1163        1162
         4        1062        1063        1164        1163
         4        1063        1064        1165        1164
         4        1064        1065        1166        1165
         4        1065        1066        1167        1166
         4        1066        1067        1168        1167
         4        1067        1068        1169        1168
         4        1068        1069        1170        1169
         4        1069        1070        1171        1170
         4        1070        1071        1172        1171
         4        1071        1072        1173        1172
         4        1072        1073        1174        1173
         4        1073        1074        1175        1174
         4        1074        1075        1176        1175
         4        1075        1076        1177        1176
         4        1076        1077        1178        1177
         4        1077        1078        1179        1178
         4        1078        1079        1180        1179
         4        1079        1080        1181        1180
         4        1080        1081        1182        1181
         4        1081        1082        1183        1182
         4        1082        1083        1184        1183
         4        1083        1084        1185        1184
         4        1084        1085        1186        1185
         4        1085        1086        1187        1186
         4        1086        1087        1188        1187
         4        1087        1088        1189        1188
         4        1088        1089        1190        1189
         4        1089        1090        1191        1190
         4        1090        1091        1192        1191
         4        1091        1092        1193        1192
         4        1092        1093        1194        1193
         4        1093        1094        1195        1194
         4        1094        1095        1196        1195
         4        1095        1096        1197        1196
         4        1096        1097        1198        1197
         4        1097        1098        1199        1198
         4        1098        1099        1200        1199
         4        1099        1100        1201        1200
         4        1100        1101        1202        1201
         4        1101        1102        1203        1202
         4        1102        1103        1204        1203
         4        1103        1104        1205        1204
         4        1104        1105        1206        1205
         4        1105        1106        1207        1206
         4        1106        1107        1208        1207
         4        1107        1108        1209        1208
         4        1108        1109        1210        1209
         4        1109        1110        1211        1210
         4        1111        1112        1213        1212
         4        1112        1113        1214        1213
         4        1113        1114        1215        1214
         4        1114        1115        1216        1215
         4        1115        1116        1217        1216
         4        1116        1117        1218        1217
         4        1117        1118        1219        1218
         4        1118        1119        1220        1219
         4        1119        1120        1221        1220
         4        1120        1121        1222        1221
         4        1121        1122        1223        1222
         4        1122        1123        1224        1223
         4        1123        1124        1225        1224
         4        1124        1125        1226        1225
         4        1125        1126        1227        1226
         4        1126        1127        1228        1227
         4        1127        1128        1229        1228
         4        1128        1129        1230        1229
         4        1129        1130        1231        1230
         4        1130        1131        1232        1231
         4        1131        1132        1233        1232
         4        1132        1133        1234        1233
         4        1133        1134        1235        1234
         4        1134        1135        1236        1235
         4        1135        1136        1237        1236
         4        1136        1137        1238        1237
         4        1137        1138        1239        1238
         4        1138        1139        1240        1239
         4        1139        1140        1241        1240
         4        1140        1141        1242        1241
         4        1141        1142        1243        1242
         4        1142        1143        1244        1243
         4        1143        1144        1245        1244
         4        1144        1145        1246        1245
         4        1145        1146        1247        1246
         4        1146        1147        1248        1247
         4        1147        1148        1249        1248
         4        1148        1149        1250        1249
         4        1149        1150        1251        1250
         4        1150        1151        1252        1251
         4        1151        1152        1253        1252
         4        1152        1153        1254        1253
         4        1153        1154        1255        1254
         4        1154        1155        1256        1255
         4        1155        1156        1257        1256
         4        1156        1157        1258        1257
         4        1157        1158        1259        1258
         4        1158        1159        1260        1259
         4        1159        1160        1261        1260
         4        1160        1161        1262        1261
         4        1161        1162        1263        1262
         4        1162        1163        1264        1263
         4        1163        1164        1265        1264
         4        1164        1165        1266        1265
         4        1165        1166        1267        1266
         4        1166        1167        1268        1267
         4        1167        1168        1269        1268
         4        1168        1169        1270        1269
         4        1169        1170        1271        1270
         4        1170        1171        1272        1271
         4        1171        1172        1273        1272
         4        1172        1173        1274        1273
         4        1173        1174        1275        1274
         4        1174        1175        1276        1275
         4        1175        1176        1277        1276
         4        1176        1177        1278        1277
         4        1177        1178        1279        1278
         4        1178        1179        1280        1279
         4        1179        1180        1281        1280
         4        1180        1181        1282        1281
         4        1181        1182        1283        1282
         4        1182        1183        1284        1283
         4        1183        1184        1285        1284
         4        1184        1185        1286        1285
         4        1185        1186        1287        1286
         4        1186        1187        1288        1287
         4        1187        1188        1289        1288
         4        1188        1189        1290        1289
         4        1189        1190        1291        1290
         4        1190        1191        1292        1291
         4        1191        1192        1293        1292
         4        1192        1193        1294        1293
         4        1193        1194        1295        1294
         4        1194        1195        1296        1295
         4        1195        1196        1297        1296
         4        1196        1197        1298        1297
         4        1197        1198        1299        1298
         4        1198        1199        1300        1299
         4        1199        1200        1301        1300
         4        1200        1201        1302        1301
         4        1201        1202        1303        1302
         4        1202        1203        1304        1303
         4        1203        1204        1305        1304
         4        1204        1205        1306        1305
         4        1205        1206        1307        1306
         4        1206        1207        1308        1307
         4        1207        1208        1309        1308
         4        1208        1209        1310        1309
         4        1209        1210        1311        1310
         4        1210        1211        1312        1311
         4        1212        1213        1314        1313
         4        1213        1214        1315        1314
         4        1214        1215        1316        1315
         4        1215        1216        1317        1316
         4        1216        1217        1318        1317
         4        1217        1218        1319        1318
         4        1218        1219        1320        1319
         4        1219        1220        1321        1320
         4        1220        1221        1322        1321
         4        1221        1222        1323        1322
         4        1222        1223        1324        1323
         4        1223        1224        1325        1324
         4        1224        1225        1326        1325
         4        1225        1226        1327        1326
         4        1226        1227        1328        1327
         4        1227        1228        1329        1328
         4        1228        1229        1330        1329
         4        1229        1230        1331        1330
         4        1230        1231        1332        1331
         4        1231        1232        1333        1332
         4        1232        1233        1334        1333
         4        1233        1234        1335        1334
         4        1234        1235        1336        1335
         4        1235        1236        1337        1336
         4        1236        1237        1338        1337
         4        1237        1238        1339        1338
         4        1238        1239        1340        1339
         4        1239        1240        1341        1340
         4        1240        1241        1342        1341
         4        1241        1242        1343        1342
         4        1242        1243        1344        1343
         4        1243        1244        1345        1344
         4        1244        1245        1346        1345
         4        1245        1246        1347        1346
         4        1246        1247        1348        1347
         4        1247        1248        1349        1348
         4        1248        1249        1350        1349
         4        1249        1250        1351        1350
         4        1250        1251        1352        1351
         4        1251        1252        1353        1352
         4        1252        1253        1354        1353
         4        1253        1254        1355        1354
         4        1254        1255        1356        1355
         4        1255        1256        1357        1356
         4        1256        1257        1358        1357
         4        1257        1258        1359        1358
         4        1258        1259        1360        1359
         4        1259        1260        1361        1360
         4        1260        1261        1362        1361
         4        1261        1262        1363        1362
         4        1262        1263        1364        1363
         4        1263        1264        1365        1364
         4        1264        1265        1366        1365
         4        1265        1266        1367        1366
         4        1266        1267        1368        1367
         4        1267        1268        1369        1368
         4        1268        1269        1370        1369
         4        1269        1270        1371        1370
         4        1270        1271        1372        1371
         4        1271        1272        1373        1372
         4        1272        1273        1374        1373
         4        1273        1274        1375        1374
         4        1274        1275        1376        1375
         4        1275        1276        1377        1376
         4        1276        1277        1378        1377
         4        1277        1278        1379        1378
         4        1278        1279        1380        1379
         4        1279        1280        1381        1380
         4        1280        1281        1382        1381
         4        1281        1282        1383        1382
         4        1282        1283        1384        1383
         4        1283        1284        1385        1384
         4        1284        1285        1386        1385
         4        1285        1286        1387        1386
         4        1286        1287        1388        1387
         4        1287        1288        1389        1388
         4        1288        1289        1390        1389
         4        1289        1290        1391        1390
         4        1290        1291        1392        1391
         4        1291        1292        1393        1392
         4        1292        1293        1394        1393
         4        1293        1294        1395        1394
         4        1294        1295        1396        1395
         4        1295        1296        1397        1396
         4        1296        1297        1398        1397
         4        1297        1298        1399        1398
         4        1298        1299        1400        1399
         4        1299        1300        1401        1400
         4        1300        1301        1402        1401
         4        1301        1302        1403        1402
         4        1302        1303        1404        1403
         4        1303        1304        1405        1404
         4        1304        1305        1406        1405
         4        1305        1306        1407        1406
         4        1306        1307        1408        1407
         4        1307        1308        1409        1408
         4        1308        1309        1410        1409
         4        1309        1310        1411        1410
         4        1310        1311        1412        1411
         4        1311        1312        1413        1412
         4        1313        1314        1415        1414
         4        1314        1315        1416        1415
         4        1315        1316        1417        1416
         4        1316        1317        1418        1417
         4        1317        1318        1419        1418
         4        1318        1319        1420        1419
         4        1319        1320        1421        1420
         4        1320        1321        1422        1421
         4        1321        1322        1423        1422
         4        1322        1323        1424        1423
         4        1323        1324        1425        1424
         4        1324        1325        1426        1425
         4        1325        1326        1427        1426
         4        1326        1327        1428        1427
         4        1327        1328        1429        1428
         4        1328        1329        1430        1429
         4        1329        1330        1431        1430
         4        1330        1331        1432        1431
         4        1331        1332        1433        1432
         4        1332        1333        1434        1433
         4        1333        1334        1435        1434
         4        1334        1335        1436        1435
         4        1335        1336        1437        1436
         4        1336        1337        1438        1437
         4        1337        1338        1439        1438
         4        1338        1339        1440        1439
         4        1339        1340        1441        1440
         4        1340        1341        1442        1441
         4        1341        1342        1443        1442
         4        1342        1343        1444        1443
         4        1343        1344        1445        1444
         4        1344        1345        1446        1445
         4        1345        1346        1447        1446
         4        1346        1347        1448        1447
         4        1347        1348        1449        1448
         4        1348        1349        1450        1449
         4        1349        1350        1451        1450
         4        1350        1351        1452        1451
         4        1351        1352        1453        1452
         4        1352        1353        1454        1453
         4        1353        1354        1455        1454
         4        1354        1355        1456        1455
         4        1355        1356        1457        1456
         4        1356        1357        1458        1457
         4        1357        1358        1459        1458
         4        1358        1359        1460        1459
         4        1359        1360        1461        1460
         4        1360        1361        1462        1461
         4        1361        1362        1463        1462
         4        1362        1363        1464        1463
         4        1363        1364        1465        1464
         4        1364        1365        1466        1465
         4        1365        1366        1467        1466
         4        1366        1367        1468        1467
         4        1367        1368        1469        1468
         4        1368        1369        1470        1469
         4        1369        1370        1471        1470
         4        1370        1371        1472        1471
         4        1371        1372        1473        1472
         4        1372        1373        1474        1473
         4        1373        1374        1475        1474
         4        1374        1375        1476        1475
         4        1375        1376        1477        1476
         4        1376        1377        1478        1477
         4        1377        1378        1479        1478
         4        1378        1379        1480        1479
         4        1379        1380        1481        1480
         4        1380        1381        1482        1481
         4        1381        1382        1483        1482
         4        1382        1383        1484        1483
         4        1383        1384        1485        1484
         4        1384        1385        1486        1485
         4        1385        1386        1487        1486
         4        1386        1387        1488        1487
         4        1387        1388        1489        1488
         4        1388        1389        1490        1489
         4        1389        1390        1491        1490
         4        1390        1391        1492        1491
         4        1391        1392        1493        1492
         4        1392        1393        1494        1493
         4        1393        1394        1495        1494
         4        1394        1395        1496        1495
         4        1395        1396        1497        1496
         4        1396        1397        1498        1497
         4        1397        1398        1499        1498
         4        1398        1399        1500        1499
         4        1399        1400        1501        1500
         4        1400        1401        1502        1501
         4        1401        1402        1503        1502
         4        1402        1403        1504        1503
         4        1403        1404        1505        1504
         4        1404        1405        1506        1505
         4        1405        1406        1507        1506
         4        1406        1407        1508        1507
         4        1407        1408        1509        1508
         4        1408        1409        1510        1509
         4        1409        1410        1511        1510
         4        1410        1411        1512        1511
         4        1411        1412        1513        1512
         4        1412        1413        1514        1513
         4        1414        1415        1516        1515
         4        1415        1416        1517        1516
         4        1416        1417        1518        1517
         4        1417        1418        1519        1518
         4        1418        1419        1520        1519
         4        1419        1420        1521        1520
         4        1420        1421        1522        1521
         4        1421        1422        1523        1522
         4        1422        1423        1524        1523
         4        1423        1424        1525        1524
         4        1424        1425        1526        1525
         4        1425        1426        1527        1526
         4        1426        1427        1528        1527
         4        1427        1428        1529        1528
         4        1428        1429        1530        1529
         4        1429        1430        1531        1530
         4        1430        1431        1532        1531
         4        1431        1432        1533        1532
         4        1432        1433        1534        1533
         4        1433        1434        1535        1534
         4        1434        1435        1536        1535
         4        1435        1436        1537        1536
         4        1436        1437        1538        1537
         4        1437        1438        1539        1538
         4        1438        1439        1540        1539
         4        1439        1440        1541        1540
         4        1440        1441        1542        1541
         4        1441        1442        1543        1542
         4        1442        1443        1544        1543
         4        1443        1444        1545        1544
         4        1444        1445        1546        1545
         4        1445        1446        1547        1546
         4        1446        1447        1548        1547
         4        1447        1448        1549        1548
         4        1448        1449        1550        1549
         4        1449        1450        1551        1550
         4        1450        1451        1552        1551
         4        1451        1452        1553        1552
         4        1452        1453        1554        1553
         4        1453        1454        1555        1554
         4        1454        1455        1556        1555
         4        1455        1456        1557        1556
         4        1456        1457        1558        1557
         4        1457        1458        1559        1558
         4        1458        1459        1560        1559
         4        1459        1460        1561        1560
         4        1460        1461        1562        1561
         4        1461        1462        1563        1562
         4        1462        1463        1564        1563
         4        1463        1464        1565        1564
         4        1464        1465        1566        1565
         4        1465        1466        1567        1566
         4        1466        1467        1568        1567
         4        1467        1468        1569        1568
         4        1468        1469        1570        1569
         4        1469        1470        1571        1570
         4        1470        1471        1572        1571
         4        1471        1472        1573        1572
         4        1472        1473        1574        1573
         4        1473        1474        1575        1574
         4        1474        1475        1576        1575
         4        1475        1476        1577        1576
         4        1476        1477        1578        1577
         4        1477        1478        1579        1578
         4        1478        1479        1580        1579
         4        1479        1480        1581        1580
         4        1480        1481        1582        1581
         4        1481        1482        1583        1582
         4        1482        1483        1584        1583
         4        1483        1484        1585        1584
         4        1484        1485        1586        1585
         4        1485        1486        1587        1586
         4        1486        1487        1588        1587
         4        1487        1488        1589        1588
         4        1488        1489        1590        1589
         4        1489        1490        1591        1590
         4        1490        1491        1592        1591
         4        1491        1492        1593        1592
         4        1492        1493        1594        1593
         4        1493        1494        1595        1594
         4        1494        1495        1596        1595
         4        1495        1496        1597        1596
         4        1496        1497        1598        1597
         4        1497        1498        1599        1598
         4        1498        1499        1600        1599
         4        1499        1500        1601        1600
         4        1500        1501        1602        1601
         4        1501        1502        1603        1602
         4        1502        1503        1604        1603
         4        1503        1504        1605        1604
         4        1504        1505        1606        1605
         4        1505        1506        1607        1606
         4        1506        1507        1608        1607
         4        1507        1508        1609        1608
         4        1508        1509        1610        1609
         4        1509        1510        1611        1610
         4        1510        1511        1612        1611
         4        1511        1512        1613        1612
         4        1512        1513        1614        1613
         4        1513        1514        1615        1614
         4        1515        1516        1617        1616
         4        1516        1517        1618        1617
         4        1517        1518        1619        1618
         4        1518        1519        1620        1619
         4        1519        1520        1621        1620
         4        1520        1521        1622        1621
         4        1521        1522        1623        1622
         4        1522        1523        1624        1623
         4        1523        1524        1625        1624
         4        1524        1525        1626        1625
         4        1525        1526        1627        1626
         4        1526        1527        1628        1627
         4        1527        1528        1629        1628
         4        1528        1529        1630        1629
         4        1529        1530        1631        1630
         4        1530        1531        1632        1631
         4        1531        1532        1633        1632
         4        1532        1533        1634        1633
         4        1533        1534        1635        1634
         4        1534        1535        1636        1635
         4        1535        1536        1637        1636
         4        1536        1537        1638        1637
         4        1537        1538        1639        1638
         4        1538        1539        1640        1639
         4        1539        1540        1641        1640
         4        1540        1541        1642        1641
         4        1541        1542        1643        1642
         4        1542        1543        1644        1643
         4        1543        1544        1645        1644
         4        1544        1545        1646        1645
         4        1545        1546        1647        1646
         4        1546        1547        1648        1647
         4        1547        1548        1649        1648
         4        1548        1549        1650        1649
         4        1549        1550        1651        1650
         4        1550        1551        1652        1651
         4        1551        1552        1653        1652
         4        1552        1553        1654        1653
         4        1553        1554        1655        1654
         4        1554        1555        1656        1655
         4        1555        1556        1657        1656
         4        1556        1557        1658        1657
         4        1557        1558        1659        1658
         4        1558        1559        1660        1659
         4        1559        1560        1661        1660
         4        1560        1561        1662        1661
         4        1561        1562        1663        1662
         4        1562        1563        1664        1663
         4        1563        1564        1665        1664
         4        1564        1565        1666        1665
         4        1565        1566        1667        1666
         4        1566        1567        1668        1667
         4        1567        1568        1669        1668
         4        1568        1569        1670        1669
         4        1569        1570        1671        1670
         4        1570        1571        1672        1671
         4        1571        1572        1673        1672
         4        1572        1573        1674        1673
         4        1573        1574        1675        1674
         4        1574        1575        1676        1675
         4        1575        1576        1677        1676
         4        1576        1577        1678        1677
         4        1577        1578        1679        1678
         4        1578        1579        1680        1679
         4        1579        1580        1681        1680
         4        1580        1581        1682        1681
         4        1581        1582        1683        1682
         4        1582        1583        1684        1683
         4        1583        1584        1685        1684
         4        1584        1585        1686        1685
         4        1585        1586        1687        1686
         4        1586        1587        1688        1687
         4        1587        1588        1689        1688
         4        1588        1589        1690        1689
         4        1589        1590        1691        1690
         4        1590        1591        1692        1691
         4        1591        1592        1693        1692
         4        1592        1593        1694        1693
         4        1593        1594        1695        1694
         4        1594        1595        1696        1695
         4        1595        1596        1697        1696
         4        1596        1597        1698        1697
         4        1597        1598        1699        1698
         4        1598        1599        1700        1699
         4        1599        1600        1701        1700
         4        1600        1601        1702        1701
         4        1601        1602        1703        1702
         4        1602        1603        1704        1703
         4        1603        1604        1705        1704
         4        1604        1605        1706        1705
         4        1605        1606        1707        1706
         4        1606        1607        1708        1707
         4        1607        1608        1709        1708
         4        1608        1609        1710        1709
         4        1609        1610        1711        1710
         4        1610        1611        1712        1711
         4        1611        1612        1713        1712
         4        1612        1613        1714        1713
         4        1613        1614        1715        1714
         4        1614        1615        1716        1715
         4        1616        1617        1718        1717
         4        1617        1618        1719        1718
         4        1618        1619        1720        1719
         4        1619        1620        1721        1720
         4        1620        1621        1722        1721
         4        1621        1622        1723        1722
         4        1622        1623        1724        1723
         4        1623        1624        1725        1724
         4        1624        1625        1726        1725
         4        1625        1626        1727        1726
         4        1626        1627        1728        1727
         4        1627        1628        1729        1728
         4        1628        1629        1730        1729
         4        1629        1630        1731        1730
         4        1630        1631        1732        1731
         4        1631        1632        1733        1732
         4        1632        1633        1734        1733
         4        1633        1634        1735        1734
         4        1634        1635        1736        1735
         4        1635        1636        1737        1736
         4        1636        1637        1738        1737
         4        1637        1638        1739        1738
         4        1638        1639        1740        1739
         4        1639        1640        1741        1740
         4        1640        1641        1742        1741
         4        1641        1642        1743        1742
         4        1642        1643        1744        1743
         4        1643        1644        1745        1744
         4        1644        1645        1746        1745
         4        1645        1646        1747        1746
         4        1646        1647        1748        1747
         4        1647        1648        1749        1748
         4        1648        1649        1750        1749
         4        1649        1650        1751        1750
         4        1650        1651        1752        1751
         4        1651        1652        1753        1752
         4        1652        1653        1754        1753
         4        1653        1654        1755        1754
         4        1654        1655        1756        1755
         4        1655        1656        1757        1756
         4        1656        1657        1758        1757
         4        1657        1658        1759        1758
         4        1658        1659        1760        1759
         4        1659        1660        1761        1760
         4        1660        1661        1762        1761
         4        1661        1662        1763        1762
         4        1662        1663        1764        1763
         4        1663        1664        1765        1764
         4        1664        1665        1766        1765
         4        1665        1666        1767        1766
         4        1666        1667        1768        1767
         4        1667        1668        1769        1768
         4        1668        1669        1770        1769
         4        1669        1670        1771        1770
         4        1670        1671        1772        1771
         4        1671        1672        1773        1772
         4        1672        1673        1774        1773
         4        1673        1674        1775        1774
         4        1674        1675        1776        1775
         4        1675        1676        1777        1776
         4        1676        1677        1778        1777
         4        1677        1678        1779        1778
         4        1678        1679        1780        1779
         4        1679        1680        1781        1780
         4        1680        1681        1782        1781
         4        1681        1682        1783        1782
         4        1682        1683        1784        1783
         4        1683        1684        1785        1784
         4        1684        1685        1786        1785
         4        1685        1686        1787        1786
         4        1686        1687        1788        1787
         4        1687        1688        1789        1788
         4        1688        1689        1790        1789
         4        1689        1690        1791        1790
         4        1690        1691        1792        1791
         4        1691        1692        1793        1792
         4        1692        1693        1794        1793
         4        1693        1694        1795        1794
         4        1694        1695        1796        1795
         4        1695        1696        1797        1796
         4        1696        1697        1798        1797
         4        1697        1698        1799        1798
         4        1698        1699        1800        1799
         4        1699        1700        1801        1800
         4        1700        1701        1802        1801
         4        1701        1702        1803        1802
         4        1702        1703        1804        1803
         4        1703        1704        1805        1804
         4        1704        1705        1806        1805
         4        1705        1706        1807        1806
         4        1706        1707        1808        1807
         4        1707        1708        1809        1808
         4        1708        1709        1810        1809
         4        1709        1710        1811        1810
         4        1710        1711        1812        1811
         4        1711        1712        1813        1812
         4        1712        1713        1814        1813
         4        1713        1714        1815        1814
         4        1714        1715        1816        1815
         4        1715        1716        1817        1816
         4        1717        1718        1819        1818
         4        1718        1719        1820        1819
         4        1719        1720        1821        1820
         4        1720        1721        1822        1821
         4        1721        1722        1823        1822
         4        1722        1723        1824        1823
         4        1723        1724        1825        1824
         4        1724        1725        1826        1825
         4        1725        1726        1827        1826
         4        1726        1727        1828        1827
         4        1727        1728        1829        1828
         4        1728        1729        1830        1829
         4        1729        1730        1831        1830
         4        1730        1731        1832        1831
         4        1731        1732        1833        1832
         4        1732        1733        1834        1833
         4        1733        1734        1835        1834
         4        1734        1735        1836        1835
         4        1735        1736        1837        1836
         4        1736        1737        1838        1837
         4        1737        1738        1839        1838
         4        1738        1739        1840        1839
         4        1739        1740        1841        1840
         4        1740        1741        1842        1841
         4        1741        1742        1843        1842
         4        1742        1743        1844        1843
         4        1743        1744        1845        1844
         4        1744        1745        1846        1845
         4        1745        1746        1847        1846
         4        1746        1747        1848        1847
         4        1747        1748        1849        1848
         4        1748        1749        1850        1849
         4        1749        1750        1851        1850
         4        1750        1751        1852        1851
         4        1751        1752        1853        1852
         4        1752        1753        1854        1853
         4        1753        1754        1855        1854
         4        1754        1755        1856        1855
         4        1755        1756        1857        1856
         4        1756        1757        1858        1857
         4        1757        1758        1859        1858
         4        1758        1759        1860        1859
         4        1759        1760        1861        1860
         4        1760        1761        1862        1861
         4        1761        1762        1863        1862
         4        1762        1763        1864        1863
         4        1763        1764        1865        1864
         4        1764        1765        1866        1865
         4        1765        1766        1867        1866
         4        1766        1767        1868        1867
         4        1767        1768        1869        1868
         4        1768        1769        1870        1869
         4        1769        1770        1871        1870
         4        1770        1771        1872        1871
         4        1771        1772        1873        1872
         4        1772        1773        1874        1873
         4        1773        1774        1875        1874
         4        1774        1775        1876        1875
         4        1775        1776        1877        1876
         4        1776        1777        1878        1877
         4        1777        1778        1879        1878
         4        1778        1779        1880        1879
         4        1779        1780        1881        1880
         4        1780        1781        1882        1881
         4        1781        1782        1883        1882
         4        1782        1783        1884        1883
         4        1783        1784        1885        1884
         4        1784        1785        1886        1885
         4        1785        1786        1887        1886
         4        1786        1787        1888        1887
         4        1787        1788        1889        1888
         4        1788        1789        1890        1889
         4        1789        1790        1891        1890
         4        1790        1791        1892        1891
         4        1791        1792        1893        1892
         4        1792        1793        1894        1893
         4        1793        1794        1895        1894
         4        1794        1795        1896        1895
         4        1795        1796        1897        1896
         4        1796        1797        1898        1897
         4        1797        1798        1899        1898
         4        1798        1799        1900        1899
         4        1799        1800        1901        1900
         4        1800        1801        1902        1901
         4        1801        1802        1903        1902
         4        1802        1803        1904        1903
         4        1803        1804        1905        1904
         4        1804        1805        1906        1905
         4        1805        1806        1907        1906
         4        1806        1807        1908        1907
         4        1807        1808        1909        1908
         4        1808        1809        1910        1909
         4        1809        1810        1911        1910
         4        1810        1811        1912        1911
         4        1811        1812        1913        1912
         4        1812        1813        1914        1913
         4        1813        1814        1915        1914
         4        1814        1815        1916        1915
         4        1815        1816        1917        1916
         4        1816        1817        1918        1917
         4        1818        1819        1920        1919
         4        1819        1820        1921        1920
         4        1820        1821        1922        1921
         4        1821        1822        1923        1922
         4        1822        1823        1924        1923
         4        1823        1824        1925        1924
         4        1824        1825        1926        1925
         4        1825        1826        1927        1926
         4        1826        1827        1928        1927
         4        1827        1828        1929        1928
         4        1828        1829        1930        1929
         4        1829        1830        1931        1930
         4        1830        1831        1932        1931
         4        1831        1832        1933        1932
         4        1832        1833        1934        1933
         4        1833        1834        1935        1934
         4        1834        1835        1936        1935
         4        1835        1836        1937        1936
         4        1836        1837        1938        1937
         4        1837        1838        1939        1938
         4        1838        1839        1940        1939
         4        1839        1840        1941        1940
         4        1840        1841        1942        1941
         4        1841        1842        1943        1942
         4        1842        1843        1944        1943
         4        1843        1844        1945        1944
         4        1844        1845        1946        1945
         4        1845        1846        1947        1946
         4        1846        1847        1948        1947
         4        1847        1848        1949        1948
         4        1848        1849        1950        1949
         4        1849        1850        1951        1950
         4        1850        1851        1952        1951
         4        1851        1852        1953        1952
         4        1852        1853        1954        1953
         4        1853        1854        1955        1954
         4        1854        1855        1956        1955
         4        1855        1856        1957        1956
         4        1856        1857        1958        1957
         4        1857        1858        1959        1958
         4        1858        1859        1960        1959
         4        1859        1860        1961        1960
         4        1860        1861        1962        1961
         4        1861        1862        1963        1962
         4        1862        1863        1964        1963
         4        1863        1864        1965        1964
         4        1864        1865        1966        1965
         4        1865        1866        1967        1966
         4        1866        1867        1968        1967
         4        1867        1868        1969        1968
         4        1868        1869        1970        1969
         4        1869        1870        1971        1970
         4        1870        1871        1972        1971
         4        1871        1872        1973        1972
         4        1872        1873        1974        1973
         4        1873        1874        1975        1974
         4        1874        1875        1976        1975
         4        1875        1876        1977        1976
         4        1876        1877        1978        1977
         4        1877        1878        1979        1978
         4        1878        1879        1980        1979
         4        1879        1880        1981        1980
         4        1880        1881        1982        1981
         4        1881        1882        1983        1982
         4        1882        1883        1984        1983
         4        1883        1884        1985        1984
         4        1884        1885        1986        1985
         4        1885        1886        1987        1986
         4        1886        1887        1988        1987
         4        1887        1888        1989        1988
         4        1888        1889        1990        1989
         4        1889        1890        1991        1990
         4        1890        1891        1992        1991
         4        1891        1892        1993        1992
         4        1892        1893        1994        1993
         4        1893        1894        1995        1994
         4        1894        1895        1996        1995
         4        1895        1896        1997        1996
         4        1896        1897        1998        1997
         4        1897        1898        1999        1998
         4        1898        1899        2000        1999
         4        1899        1900        2001        2000
         4        1900        1901        2002        2001
         4        1901        1902        2003        2002
         4        1902        1903        2004        2003
         4        1903        1904        2005        2004
         4        1904        1905        2006        2005
         4        1905        1906        2007        2006
         4        1906        1907        2008        2007
         4        1907        1908        2009        2008
         4        1908        1909        2010        2009
         4        1909        1910        2011        2010
         4        1910        1911        2012        2011
         4        1911        1912        2013        2012
         4        1912        1913        2014        2013
         4        1913        1914        2015        2014
         4        1914        1915        2016        2015
         4        1915        1916        2017        2016
         4        1916        1917        2018        2017
         4        1917        1918        2019        2018
         4        1919        1920        2021        2020
         4        1920        1921        2022        2021
         4        1921        1922        2023        2022
         4        1922        1923        2024        2023
         4        1923        1924        2025        2024
         4        1924        1925        2026        2025
         4        1925        1926        2027        2026
         4        1926        1927        2028        2027
         4        1927        1928        2029        2028
         4        1928        1929        2030        2029
         4        1929        1930        2031        2030
         4        1930        1931        2032        2031
         4        1931        1932        2033        2032
         4        1932        1933        2034        2033
         4        1933        1934        2035        2034
         4        1934        1935        2036        2035
         4        1935        1936        2037        2036
         4        1936        1937        2038        2037
         4        1937        1938        2039        2038
         4        1938        1939        2040        2039
         4        1939        1940        2041        2040
         4        1940        1941        2042        2041
         4        1941        1942        2043        2042
         4        1942        1943        2044        2043
         4        1943        1944        2045        2044
         4        1944        1945        2046        2045
         4        1945        1946        2047        2046
         4        1946        1947        2048        2047
         4        1947        1948        2049        2048
         4        1948        1949        2050        2049
         4        1949        1950        2051        2050
         4        1950        1951        2052        2051
         4        1951        1952        2053        2052
         4        1952        1953        2054        2053
         4        1953        1954        2055        2054
         4        1954        1955        2056        2055
         4        1955        1956        2057        2056
         4        1956        1957        2058        2057
         4        1957        1958        2059        2058
         4        1958        1959        2060        2059
         4        1959        1960        2061        2060
         4        1960        1961        2062        2061
         4        1961        1962        2063        2062
         4        1962        1963        2064        2063
         4        1963        1964        2065        2064
         4        1964        1965        2066        2065
         4        1965        1966        2067        2066
         4        1966        1967        2068        2067
         4        1967        1968        2069        2068
         4        1968        1969        2070        2069
         4        1969        1970        2071        2070
         4        1970        1971        2072        2071
         4        1971        1972        2073        2072
         4        1972        1973        2074        2073
         4        1973        1974        2075        2074
         4        1974        1975        2076        2075
         4        1975        1976        2077        2076
         4        1976        1977        2078        2077
         4        1977        1978        2079        2078
         4        1978        1979        2080        2079
         4        1979        1980        2081        2080
         4        1980        1981        2082        2081
         4        1981        1982        2083        2082
         4        1982        1983        2084        2083
         4        1983        1984        2085        2084
         4        1984        1985        2086        2085
         4        1985        1986        2087        2086
         4        1986        1987        2088        2087
         4        1987        1988        2089        2088
         4        1988        1989        2090        2089
         4        1989        1990        2091        2090
         4        1990        1991        2092        2091
         4        1991        1992        2093        2092
         4        1992        1993        2094        2093
         4        1993        1994        2095        2094
         4        1994        1995        2096        2095
         4        1995        1996        2097        2096
         4        1996        1997        2098        2097
         4        1997        1998        2099        2098
         4        1998        1999        2100        2099
         4        1999        2000        2101        2100
         4        2000        2001        2102        2101
         4        2001        2002        2103        2102
         4        2002        2003        2104        2103
         4        2003        2004        2105        2104
         4        2004        2005        2106        2105
         4        2005        2006        2107        2106
         4        2006        2007        2108        2107
         4        2007        2008        2109        2108
         4        2008        2009        2110        2109
         4        2009        2010        2111        2110
         4        2010        2011        2112        2111
         4        2011        2012        2113        2112
         4        2012        2013        2114        2113
         4        2013        2014        2115        2114
         4        2014        2015        2116        2115
         4        2015        2016        2117        2116
         4        2016        2017        2118        2117
         4        2017        2018        2119        2118
         4        2018        2019        2120        2119
         4        2020        2021        2122        2121
         4        2021        2022        2123        2122
         4        2022        2023        2124        2123
         4        2023        2024        2125        2124
         4        2024        2025        2126        2125
         4        2025        2026        2127        2126
         4        2026        2027        2128        2127
         4        2027        2028        2129        2128
         4        2028        2029        2130        2129
         4        2029        2030        2131        2130
         4        2030        2031        2132        2131
         4        2031        2032        2133        2132
         4        2032        2033        2134        2133
         4        2033        2034        2135        2134
         4        2034        2035        2136        2135
         4        2035        2036        2137        2136
         4        2036        2037        2138        2137
         4        2037        2038        2139        2138
         4        2038        2039        2140        2139
         4        2039        2040        2141        2140
         4        2040        2041        2142        2141
         4        2041        2042        2143        2142
         4        2042        2043        2144        2143
         4        2043        2044        2145        2144
         4        2044        2045        2146        2145
         4        2045        2046        2147        2146
         4        2046        2047        2148        2147
         4        2047        2048        2149        2148
         4        2048        2049        2150        2149
         4        2049        2050        2151        2150
         4        2050        2051        2152        2151
         4        2051        2052        2153        2152
         4        2052        2053        2154        2153
         4        2053        2054        2155        2154
         4        2054        2055        2156        2155
         4        2055        2056        2157        2156
         4        2056        2057        2158        2157
         4        2057        2058        2159        2158
         4        2058        2059        2160        2159
         4        2059        2060        2161        2160
         4        2060        2061        2162        2161
         4        2061        2062        2163        2162
         4        2062        2063        2164        2163
         4        2063        2064        2165        2164
         4        2064        2065        2166        2165
         4        2065        2066        2167        2166
         4        2066        2067        2168        2167
         4        2067        2068        2169        2168
         4        2068        2069        2170        2169
         4        2069        2070        2171        2170
         4        2070        2071        2172        2171
         4        2071        2072        2173        2172
         4        2072        2073        2174        2173
         4        2073        2074        2175        2174
         4        2074        2075        2176        2175
         4        2075        2076        2177        2176
         4        2076        2077        2178        2177
         4        2077        2078        2179        2178
         4        2078        2079        2180        2179
         4        2079        2080        2181        2180
         4        2080        2081        2182        2181
         4        2081        2082        2183        2182
         4        2082        2083        2184        2183
         4        2083        2084        2185        2184
         4        2084        2085        2186        2185
         4        2085        2086        2187        2186
         4        2086        2087        2188        2187
         4        2087        2088        2189        2188
         4        2088        2089        2190        2189
         4        2089        2090        2191        2190
         4        2090        2091        2192        2191
         4        2091        2092        2193        2192
         4        2092        2093        2194        2193
         4        2093        2094        2195        2194
         4        2094        2095        2196        2195
         4        2095        2096        2197        2196
         4        2096        2097        2198        2197
         4        2097        2098        2199        2198
         4        2098        2099        2200        2199
         4        2099        2100        2201        2200
         4        2100        2101        2202        2201
         4        2101        2102        2203        2202
         4        2102        2103        2204        2203
         4        2103        2104        2205        2204
         4        2104        2105        2206        2205
         4        2105        2106        2207        2206
         4        2106        2107        2208        2207
         4        2107        2108        2209        2208
         4        2108        2109        2210        2209
         4        2109        2110        2211        2210
         4        2110        2111        2212        2211
         4        2111        2112        2213        2212
         4        2112        2113        2214        2213
         4        2113        2114        2215        2214
         4        2114        2115        2216        2215
         4        2115        2116        2217        2216
         4        2116        2117        2218        2217
         4        2117        2118        2219        2218
         4        2118        2119        2220        2219
         4        2119        2120        2221        2220
         4        2121        2122        2223        2222
         4        2122        2123        2224        2223
         4        2123        2124        2225        2224
         4        2124        2125        2226        2225
         4        2125        2126        2227        2226
         4        2126        2127        2228        2227
         4        2127        2128        2229        2228
         4        2128        2129        2230        2229
         4        2129        2130        2231        2230
         4        2130        2131        2232        2231
         4        2131        2132        2233        2232
         4        2132        2133        2234        2233
         4        2133        2134        2235        2234
         4        2134        2135        2236        2235
         4        2135        2136        2237        2236
         4        2136        2137        2238        2237
         4        2137        2138        2239        2238
         4        2138        2139        2240        2239
         4        2139        2140        2241        2240
         4        2140        2141        2242        2241
         4        2141        2142        2243        2242
         4        2142        2143        2244        2243
         4        2143        2144        2245        2244
         4        2144        2145        2246        2245
         4        2145        2146        2247        2246
         4        2146        2147        2248        2247
         4        2147        2148        2249        2248
         4        2148        2149        2250        2249
         4        2149        2150        2251        2250
         4        2150        2151        2252        2251
         4        2151        2152        2253        2252
         4        2152        2153        2254        2253
         4        2153        2154        2255        2254
         4        2154        2155        2256        2255
         4        2155        2156        2257        2256
         4        2156        2157        2258        2257
         4        2157        2158        2259        2258
         4        2158        2159        2260        2259
         4        2159        2160        2261        2260
         4        2160        2161        2262        2261
         4        2161        2162        2263        2262
         4        2162        2163        2264        2263
         4        2163        2164        2265        2264
         4        2164        2165        2266        2265
         4        2165        2166        2267        2266
         4        2166        2167        2268        2267
         4        2167        2168        2269        2268
         4        2168        2169        2270        2269
         4        2169        2170        2271        2270
         4        2170        2171        2272        2271
         4        2171        2172        2273        2272
         4        2172        2173        2274        2273
         4        2173        2174        2275        2274
         4        2174        2175        2276        2275
         4        2175        2176        2277        2276
         4        2176        2177        2278        2277
         4        2177        2178        2279        2278
         4        2178        2179        2280        2279
         4        2179        2180        2281        2280
         4        2180        2181        2282        2281
         4        2181        2182        2283        2282
         4        2182        2183        2284        2283
         4        2183        2184        2285        2284
         4        2184        2185        2286        2285
         4        2185        2186        2287        2286
         4        2186        2187        2288        2287
         4        2187        2188        2289        2288
         4        2188        2189        2290        2289
         4        2189        2190        2291        2290
         4        2190        2191        2292        2291
         4        2191        2192        2293        2292
         4        2192        2193        2294        2293
         4        2193        2194        2295        2294
         4        2194        2195        2296        2295
         4        2195        2196        2297        2296
         4        2196        2197        2298        2297
         4        2197        2198        2299        2298
         4        2198        2199        2300        2299
         4        2199        2200        2301        2300
         4        2200        2201        2302        2301
         4        2201        2202        2303        2302
         4        2202        2203        2304        2303
         4        2203        2204        2305        2304
         4        2204        2205        2306        2305
         4        2205        2206        2307        2306
         4        2206        2207        2308        2307
         4        2207        2208        2309        2308
         4        2208        2209        2310        2309
         4        2209        2210        2311        2310
         4        2210        2211        2312        2311
         4        2211        2212        2313        2312
         4        2212        2213        2314        2313
         4        2213        2214        2315        2314
         4        2214        2215        2316        2315
         4        2215        2216        2317        2316
         4        2216        2217        2318        2317
         4        2217        2218        2319        2318
         4        2218        2219        2320        2319
         4        2219        2220        2321        2320
         4        2220        2221        2322        2321
         4        2222        2223        2324        2323
         4        2223        2224        2325        2324
         4        2224        2225        2326        2325
         4        2225        2226        2327        2326
         4        2226        2227        2328        2327
         4        2227        2228        2329        2328
         4        2228        2229        2330        2329
         4        2229        2230        2331        2330
         4        2230        2231        2332        2331
         4        2231        2232        2333        2332
         4        2232        2233        2334        2333
         4        2233        2234        2335        2334
         4        2234        2235        2336        2335
         4        2235        2236        2337        2336
         4        2236        2237        2338        2337
         4        2237        2238        2339        2338
         4        2238        2239        2340        2339
         4        2239        2240        2341        2340
         4        2240        2241        2342        2341
         4        2241        2242        2343        2342
         4        2242        2243        2344        2343
         4        2243        2244        2345        2344
         4        2244        2245        2346        2345
         4        2245        2246        2347        2346
         4        2246        2247        2348        2347
         4        2247        2248        2349        2348
         4        2248        2249        2350        2349
         4        2249        2250        2351        2350
         4        2250        2251        2352        2351
         4        2251        2252        2353        2352
         4        2252        2253        2354        2353
         4        2253        2254        2355        2354
         4        2254        2255        2356        2355
         4        2255        2256        2357        2356
         4        2256        2257        2358        2357
         4        2257        2258        2359        2358
         4        2258        2259        2360        2359
         4        2259        2260        2361        2360
         4        2260        2261        2362        2361
         4        2261        2262        2363        2362
         4        2262        2263        2364        2363
         4        2263        2264        2365        2364
         4        2264        2265        2366        2365
         4        2265        2266        2367        2366
         4        2266        2267        2368        2367
         4        2267        2268        2369        2368
         4        2268        2269        2370        2369
         4        2269        2270        2371        2370
         4        2270        2271        2372        2371
         4        2271        2272        2373        2372
         4        2272        2273        2374        2373
         4        2273        2274        2375        2374
         4        2274        2275        2376        2375
         4        2275        2276        2377        2376
         4        2276        2277        2378        2377
         4        2277        2278        2379        2378
         4        2278        2279        2380        2379
         4        2279        2280        2381        2380
         4        2280        2281        2382        2381
         4        2281        2282        2383        2382
         4        2282        2283        2384        2383
         4        2283        2284        2385        2384
         4        2284        2285        2386        2385
         4        2285        2286        2387        2386
         4        2286        2287        2388        2387
         4        2287        2288        2389        2388
         4        2288        2289        2390        2389
         4        2289        2290        2391        2390
         4        2290        2291        2392        2391
         4        2291        2292        2393        2392
         4        2292        2293        2394        2393
         4        2293        2294        2395        2394
         4        2294        2295        2396        2395
         4        2295        2296        2397        2396
         4        2296        2297        2398        2397
         4        2297        2298        2399        2398
         4        2298        2299        2400        2399
         4        2299        2300        2401        2400
         4        2300        2301        2402        2401
         4        2301        2302        2403        2402
         4        2302        2303        2404        2403
         4        2303        2304        2405        2404
         4        2304        2305        2406        2405
         4        2305        2306        2407        2406
         4        2306        2307        2408        2407
         4        2307        2308        2409        2408
         4        2308        2309        2410        2409
         4        2309        2310        2411        2410
         4        2310        2311        2412        2411
         4        2311        2312        2413        2412
         4        2312        2313        2414        2413
         4        2313        2314        2415        2414
         4        2314        2315        2416        2415
         4        2315        2316        2417        2416
         4        2316        2317        2418        2417
         4        2317        2318        2419        2418
         4        2318        2319        2420        2419
         4        2319        2320        2421        2420
         4        2320        2321        2422        2421
         4        2321        2322        2423        2422
         4        2323        2324        2425        2424
         4        2324        2325        2426        2425
         4        2325        2326        2427        2426
         4        2326        2327        2428        2427
         4        2327        2328        2429        2428
         4        2328        2329        2430        2429
         4        2329        2330        2431        2430
         4        2330        2331        2432        2431
         4        2331        2332        2433        2432
         4        2332        2333        2434        2433
         4        2333        2334        2435        2434
         4        2334        2335        2436        2435
         4        2335        2336        2437        2436
         4        2336        2337        2438        2437
         4        2337        2338        2439        2438
         4        2338        2339        2440        2439
         4        2339        2340        2441        2440
         4        2340        2341        2442        2441
         4        2341        2342        2443        2442
         4        2342        2343        2444        2443
         4        2343        2344        2445        2444
         4        2344        2345        2446        2445
         4        2345        2346        2447        2446
         4        2346        2347        2448        2447
         4        2347        2348        2449        2448
         4        2348        2349        2450        2449
         4        2349        2350        2451        2450
         4        2350        2351        2452        2451
         4        2351        2352        2453        2452
         4        2352        2353        2454        2453
         4        2353        2354        2455        2454
         4        2354        2355        2456        2455
         4        2355        2356        2457        2456
         4        2356        2357        2458        2457
         4        2357        2358        2459        2458
         4        2358        2359        2460        2459
         4        2359        2360        2461        2460
         4        2360        2361        2462        2461
         4        2361        2362        2463        2462
         4        2362        2363        2464        2463
         4        2363        2364        2465        2464
         4        2364        2365        2466        2465
         4        2365        2366        2467        2466
         4        2366        2367        2468        2467
         4        2367        2368        2469        2468
         4        2368        2369        2470        2469
         4        2369        2370        2471        2470
         4        2370        2371        2472        2471
         4        2371        2372        2473        2472
         4        2372        2373        2474        2473
         4        2373        2374        2475        2474
         4        2374        2375        2476        2475
         4        2375        2376        2477        2476
         4        2376        2377        2478        2477
         4        2377        2378        2479        2478
         4        2378        2379        2480        2479
         4        2379        2380        2481        2480
         4        2380        2381        2482        2481
         4        2381        2382        2483        2482
         4        2382        2383        2484        2483
         4        2383        2384        2485        2484
         4        2384        2385        2486        2485
         4        2385        2386        2487        2486
         4        2386        2387        2488        2487
         4        2387        2388        2489        2488
         4        2388        2389        2490        2489
         4        2389        2390        2491        2490
         4        2390        2391        2492        2491
         4        2391        2392        2493        2492
         4        2392        2393        2494        2493
         4        2393        2394        2495        2494
         4        2394        2395        2496        2495
         4        2395        2396        2497        2496
         4        2396        2397        2498        2497
         4        2397        2398        2499        2498
         4        2398        2399        2500        2499
         4        2399        2400        2501        2500
         4        2400        2401        2502        2501
         4        2401        2402        2503        2502
         4        2402        2403        2504        2503
         4        2403        2404        2505        2504
         4        2404        2405        2506        2505
         4        2405        2406        2507        2506
         4        2406        2407        2508        2507
         4        2407        2408        2509        2508
         4        2408        2409        2510        2509
         4        2409        2410        2511        2510
         4        2410        2411        2512        2511
         4        2411        2412        2513        2512
         4        2412        2413        2514        2513
         4        2413        2414        2515        2514
         4        2414        2415        2516        2515
         4        2415        2416        2517        2516
         4        2416        2417        2518        2517
         4        2417        2418        2519        2518
         4        2418        2419        2520        2519
         4        2419        2420        2521        2520
         4        2420        2421        2522        2521
         4        2421        2422        2523        2522
         4        2422        2423        2524        2523
         4        2424        2425        2526        2525
         4        2425        2426        2527        2526
         4        2426        2427        2528        2527
         4        2427        2428        2529        2528
         4        2428        2429        2530        2529
         4        2429        2430        2531        2530
         4        2430        2431        2532        2531
         4        2431        2432        2533        2532
         4        2432        2433        2534        2533
         4        2433        2434        2535        2534
         4        2434        2435        2536        2535
         4        2435        2436        2537        2536
         4        2436        2437        2538        2537
         4        2437        2438        2539        2538
         4        2438        2439        2540        2539
         4        2439        2440        2541        2540
         4        2440        2441        2542        2541
         4        2441        2442        2543        2542
         4        2442        2443        2544        2543
         4        2443        2444        2545        2544
         4        2444        2445        2546        2545
         4        2445        2446        2547        2546
         4        2446        2447        2548        2547
         4        2447        2448        2549        2548
         4        2448        2449        2550        2549
         4        2449        2450        2551        2550
         4        2450        2451        2552        2551
         4        2451        2452        2553        2552
         4        2452        2453        2554        2553
         4        2453        2454        2555        2554
         4        2454        2455        2556        2555
         4        2455        2456        2557        2556
         4        2456        2457        2558        2557
         4        2457        2458        2559        2558
         4        2458        2459        2560        2559
         4        2459        2460        2561        2560
         4        2460        2461        2562        2561
         4        2461        2462        2563        2562
         4        2462        2463        2564        2563
         4        2463        2464        2565        2564
         4        2464        2465        2566        2565
         4        2465        2466        2567        2566
         4        2466        2467        2568        2567
         4        2467        2468        2569        2568
         4        2468        2469        2570        2569
         4        2469        2470        2571        2570
         4        2470        2471        2572        2571
         4        2471        2472        2573        2572
         4        2472        2473        2574        2573
         4        2473        2474        2575        2574
         4        2474        2475        2576        2575
         4        2475        2476        2577        2576
         4        2476        2477        2578        2577
         4        2477        2478        2579        2578
         4        2478        2479        2580        2579
         4        2479        2480        2581        2580
         4        2480        2481        2582        2581
         4        2481        2482        2583        2582
         4        2482        2483        2584        2583
         4        2483        2484        2585        2584
         4        2484        2485        2586        2585
         4        2485        2486        2587        2586
         4        2486        2487        2588        2587
         4        2487        2488        2589        2588
         4        2488        2489        2590        2589
         4        2489        2490        2591        2590
         4        2490        2491        2592        2591
         4        2491        2492        2593        2592
         4        2492        2493        2594        2593
         4        2493        2494        2595        2594
         4        2494        2495        2596        2595
         4        2495        2496        2597        2596
         4        2496        2497        2598        2597
         4        2497        2498        2599        2598
         4        2498        2499        2600        2599
         4        2499        2500        2601        2600
         4        2500        2501        2602        2601
         4        2501        2502        2603        2602
         4        2502        2503        2604        2603
         4        2503        2504        2605        2604
         4        2504        2505        2606        2605
         4        2505        2506        2607        2606
         4        2506        2507        2608        2607
         4        2507        2508        2609        2608
         4        2508        2509        2610        2609
         4        2509        2510        2611        2610
         4        2510        2511        2612        2611
         4        2511        2512        2613        2612
         4        2512        2513        2614        2613
         4        2513        2514        2615        2614
         4        2514        2515        2616        2615
         4        2515        2516        2617        2616
         4        2516        2517        2618        2617
         4        2517        2518        2619        2618
         4        2518        2519        2620        2619
         4        2519        2520        2621        2620
         4        2520        2521        2622        2621
         4        2521        2522        2623        2622
         4        2522        2523        2624        2623
         4        2523        2524        2625        2624
         4        2525        2526        2627        2626
         4        2526        2527        2628        2627
         4        2527        2528        2629        2628
         4        2528        2529        2630        2629
         4        2529        2530        2631        2630
         4        2530        2531        2632        2631
         4        2531        2532        2633        2632
         4        2532        2533        2634        2633
         4        2533        2534        2635        2634
         4        2534        2535        2636        2635
         4        2535        2536        2637        2636
         4        2536        2537        2638        2637
         4        2537        2538        2639        2638
         4        2538        2539        2640        2639
         4        2539        2540        2641        2640
         4        2540        2541        2642        2641
         4        2541        2542        2643        2642
         4        2542        2543        2644        2643
         4        2543        2544        2645        2644
         4        2544        2545        2646        2645
         4        2545        2546        2647        2646
         4        2546        2547        2648        2647
         4        2547        2548        2649        2648
         4        2548        2549        2650        2649
         4        2549        2550        2651        2650
         4        2550        2551        2652        2651
         4        2551        2552        2653        2652
         4        2552        2553        2654        2653
         4        2553        2554        2655        2654
         4        2554        2555        2656        2655
         4        2555        2556        2657        2656
         4        2556        2557        2658        2657
         4        2557        2558        2659        2658
         4        2558        2559        2660        2659
         4        2559        2560        2661        2660
         4        2560        2561        2662        2661
         4        2561        2562        2663        2662
         4        2562        2563        2664        2663
         4        2563        2564        2665        2664
         4        2564        2565        2666        2665
         4        2565        2566        2667        2666
         4        2566        2567        2668        2667
         4        2567        2568        2669        2668
         4        2568        2569        2670        2669
         4        2569        2570        2671        2670
         4        2570        2571        2672        2671
         4        2571        2572        2673        2672
         4        2572        2573        2674        2673
         4        2573        2574        2675        2674
         4        2574        2575        2676        2675
         4        2575        2576        2677        2676
         4        2576        2577        2678        2677
         4        2577        2578        2679        2678
         4        2578        2579        2680        2679
         4        2579        2580        2681        2680
         4        2580        2581        2682        2681
         4        2581        2582        2683        2682
         4        2582        2583        2684        2683
         4        2583        2584        2685        2684
         4        2584        2585        2686        2685
         4        2585        2586        2687        2686
         4        2586        2587        2688        2687
         4        2587        2588        2689        2688
         4        2588        2589        2690        2689
         4        2589        2590        2691        2690
         4        2590        2591        2692        2691
         4        2591        2592        2693        2692
         4        2592        2593        2694        2693
         4        2593        2594        2695        2694
         4        2594        2595        2696        2695
         4        2595        2596        2697        2696
         4        2596        2597        2698        2697
         4        2597        2598        2699        2698
         4        2598        2599        2700        2699
         4        2599        2600        2701        2700
         4        2600        2601        2702        2701
         4        2601        2602        2703        2702
         4        2602        2603        2704        2703
         4        2603        2604        2705        2704
         4        2604        2605        2706        2705
         4        2605        2606        2707        2706
         4        2606        2607        2708        2707
         4        2607        2608        2709        2708
         4        2608        2609        2710        2709
         4        2609        2610        2711        2710
         4        2610        2611        2712        2711
         4        2611        2612        2713        2712
         4        2612        2613        2714        2713
         4        2613        2614        2715        2714
         4        2614        2615        2716        2715
         4        2615        2616        2717        2716
         4        2616        2617        2718        2717
         4        2617        2618        2719        2718
         4        2618        2619        2720        2719
         4        2619        2620        2721        2720
         4        2620        2621        2722        2721
         4        2621        2622        2723        2722
         4        2622        2623        2724        2723
         4        2623        2624        2725        2724
         4        2624        2625        2726        2725
         4        2626        2627        2728        2727
         4        2627        2628        2729        2728
         4        2628        2629        2730        2729
         4        2629        2630        2731        2730
         4        2630        2631        2732        2731
         4        2631        2632        2733        2732
         4        2632        2633        2734        2733
         4        2633        2634        2735        2734
         4        2634        2635        2736        2735
         4        2635        2636        2737        2736
         4        2636        2637        2738        2737
         4        2637        2638        2739        2738
         4        2638        2639        2740        2739
         4        2639        2640        2741        2740
         4        2640        2641        2742        2741
         4        2641        2642        2743        2742
         4        2642        2643        2744        2743
         4        2643        2644        2745        2744
         4        2644        2645        2746        2745
         4        2645        2646        2747        2746
         4        2646        2647        2748        2747
         4        2647        2648        2749        2748
         4        2648        2649        2750        2749
         4        2649        2650        2751        2750
         4        2650        2651        2752        2751
         4        2651        2652        2753        2752
         4        2652        2653        2754        2753
         4        2653        2654        2755        2754
         4        2654        2655        2756        2755
         4        2655        2656        2757        2756
         4        2656        2657        2758        2757
         4        2657        2658        2759        2758
         4        2658        2659        2760        2759
         4        2659        2660        2761        2760
         4        2660        2661        2762        2761
         4        2661        2662        2763        2762
         4        2662        2663        2764        2763
         4        2663        2664        2765        2764
         4        2664        2665        2766        2765
         4        2665        2666        2767        2766
         4        2666        2667        2768        2767
         4        2667        2668        2769        2768
         4        2668        2669        2770        2769
         4        2669        2670        2771        2770
         4        2670        2671        2772        2771
         4        2671        2672        2773        2772
         4        2672        2673        2774        2773
         4        2673        2674        2775        2774
         4        2674        2675        2776        2775
         4        2675        2676        2777        2776
         4        2676        2677        2778        2777
         4        2677        2678        2779        2778
         4        2678        2679        2780        2779
         4        2679        2680        2781        2780
         4        2680        2681        2782        2781
         4        2681        2682        2783        2782
         4        2682        2683        2784        2783
         4        2683        2684        2785        2784
         4        2684        2685        2786        2785
         4        2685        2686        2787        2786
         4        2686        2687        2788        2787
         4        2687        2688        2789        2788
         4        2688        2689        2790        2789
         4        2689        2690        2791        2790
         4        2690        2691        2792        2791
         4        2691        2692        2793        2792
         4        2692        2693        2794        2793
         4        2693        2694        2795        2794
         4        2694        2695        2796        2795
         4        2695        2696        2797        2796
         4        2696        2697        2798        2797
         4        2697        2698        2799        2798
         4        2698        2699        2800        2799
         4        2699        2700        2801        2800
         4        2700        2701        2802        2801
         4        2701        2702        2803        2802
         4        2702        2703        2804        2803
         4        2703        2704        2805        2804
         4        2704        2705        2806        2805
         4        2705        2706        2807        2806
         4        2706        2707        2808        2807
         4        2707        2708        2809        2808
         4        2708        2709        2810        2809
         4        2709        2710        2811        2810
         4        2710        2711        2812        2811
         4        2711        2712        2813        2812
         4        2712        2713        2814        2813
         4        2713        2714        2815        2814
         4        2714        2715        2816        2815
         4        2715        2716        2817        2816
         4        2716        2717        2818        2817
         4        2717        2718        2819        2818
         4        2718        2719        2820        2819
         4        2719        2720        2821        2820
         4        2720        2721        2822        2821
         4        2721        2722        2823        2822
         4        2722        2723        2824        2823
         4        2723        2724        2825        2824
         4        2724        2725        2826        2825
         4        2725        2726        2827        2826
         4        2727        2728        2829        2828
         4        2728        2729        2830        2829
         4        2729        2730        2831        2830
         4        2730        2731        2832        2831
         4        2731        2732        2833        2832
         4        2732        2733        2834        2833
         4        2733        2734        2835        2834
         4        2734        2735        2836        2835
         4        2735        2736        2837        2836
         4        2736        2737        2838        2837
         4        2737        2738        2839        2838
         4        2738        2739        2840        2839
         4        2739        2740        2841        2840
         4        2740        2741        2842        2841
         4        2741        2742        2843        2842
         4        2742        2743        2844        2843
         4        2743        2744        2845        2844
         4        2744        2745        2846        2845
         4        2745        2746        2847        2846
         4        2746        2747        2848        2847
         4        2747        2748        2849        2848
         4        2748        2749        2850        2849
         4        2749        2750        2851        2850
         4        2750        2751        2852        2851
         4        2751        2752        2853        2852
         4        2752        2753        2854        2853
         4        2753        2754        2855        2854
         4        2754        2755        2856        2855
         4        2755        2756        2857        2856
         4        2756        2757        2858        2857
         4        2757        2758        2859        2858
         4        2758        2759        2860        2859
         4        2759        2760        2861        2860
         4        2760        2761        2862        2861
         4        2761        2762        2863        2862
         4        2762        2763        2864        2863
         4        2763        2764        2865        2864
         4        2764        2765        2866        2865
         4        2765        2766        2867        2866
         4        2766        2767        2868        2867
         4        2767        2768        2869        2868
         4        2768        2769        2870        2869
         4        2769        2770        2871        2870
         4        2770        2771        2872        2871
         4        2771        2772        2873        2872
         4        2772        2773        2874        2873
         4        2773        2774        2875        2874
         4        2774        2775        2876        2875
         4        2775        2776        2877        2876
         4        2776        2777        2878        2877
         4        2777        2778        2879        2878
         4        2778        2779        2880        2879
         4        2779        2780        2881        2880
         4        2780        2781        2882        2881
         4        2781        2782        2883        2882
         4        2782        2783        2884        2883
         4        2783        2784        2885        2884
         4        2784        2785        2886        2885
         4        2785        2786        2887        2886
         4        2786        2787        2888        2887
         4        2787        2788        2889        2888
         4        2788        2789        2890        2889
         4        2789        2790        2891        2890
         4        2790        2791        2892        2891
         4        2791        2792        2893        2892
         4        2792        2793        2894        2893
         4        2793        2794        2895        2894
         4        2794        2795        2896        2895
         4        2795        2796        2897        2896
         4        2796        2797        2898        2897
         4        2797        2798        2899        2898
         4        2798        2799        2900        2899
         4        2799        2800        2901        2900
         4        2800        2801        2902        2901
         4        2801        2802        2903        2902
         4        2802        2803        2904        2903
         4        2803        2804        2905        2904
         4        2804        2805        2906        2905
         4        2805        2806        2907        2906
         4        2806        2807        2908        2907
         4        2807        2808        2909        2908
         4        2808        2809        2910        2909
         4        2809        2810        2911        2910
         4        2810        2811        2912        2911
         4        2811        2812        2913        2912
         4        2812        2813        2914        2913
         4        2813        2814        2915        2914
         4        2814        2815        2916        2915
         4        2815        2816        2917        2916
         4        2816        2817        2918        2917
         4        2817        2818        2919        2918
         4        2818        2819        2920        2919
         4        2819        2820        2921        2920
         4        2820        2821        2922        2921
         4        2821        2822        2923        2922
         4        2822        2823        2924        2923
         4        2823        2824        2925        2924
         4        2824        2825        2926        2925
         4        2825        2826        2927        2926
         4        2826        2827        2928        2927
         4        2828        2829        2930        2929
         4        2829        2830        2931        2930
         4        2830        2831        2932        2931
         4        2831        2832        2933        2932
         4        2832        2833        2934        2933
         4        2833        2834        2935        2934
         4        2834        2835        2936        2935
         4        2835        2836        2937        2936
         4        2836        2837        2938        2937
         4        2837        2838        2939        2938
         4        2838        2839        2940        2939
         4        2839        2840        2941        2940
         4        2840        2841        2942        2941
         4        2841        2842        2943        2942
         4        2842        2843        2944        2943
         4        2843        2844        2945        2944
         4        2844        2845        2946        2945
         4        2845        2846        2947        2946
         4        2846        2847        2948        2947
         4        2847        2848        2949        2948
         4        2848        2849        2950        2949
         4        2849        2850        2951        2950
         4        2850        2851        2952        2951
         4        2851        2852        2953        2952
         4        2852        2853        2954        2953
         4        2853        2854        2955        2954
         4        2854        2855        2956        2955
         4        2855        2856        2957        2956
         4        2856        2857        2958        2957
         4        2857        2858        2959        2958
         4        2858        2859        2960        2959
         4        2859        2860        2961        2960
         4        2860        2861        2962        2961
         4        2861        2862        2963        2962
         4        2862        2863        2964        2963
         4        2863        2864        2965        2964
         4        2864        2865        2966        2965
         4        2865        2866        2967        2966
         4        2866        2867        2968        2967
         4        2867        2868        2969        2968
         4        2868        2869        2970        2969
         4        2869        2870        2971        2970
         4        2870        2871        2972        2971
         4        2871        2872        2973        2972
         4        2872        2873        2974        2973
         4        2873        2874        2975        2974
         4        2874        2875        2976        2975
         4        2875        2876        2977        2976
         4        2876        2877        2978        2977
         4        2877        2878        2979        2978
         4        2878        2879        2980        2979
         4        2879        2880        2981        2980
         4        2880        2881        2982        2981
         4        2881        2882        2983        2982
         4        2882        2883        2984        2983
         4        2883        2884        2985        2984
         4        2884        2885        2986        2985
         4        2885        2886        2987        2986
         4        2886        2887        2988        2987
         4        2887        2888        2989        2988
         4        2888        2889        2990        2989
         4        2889        2890        2991        2990
         4        2890        2891        2992        2991
         4        2891        2892        2993        2992
         4        2892        2893        2994        2993
         4        2893        2894        2995        2994
         4        2894        2895        2996        2995
         4        2895        2896        2997        2996
         4        2896        2897        2998        2997
         4        2897        2898        2999        2998
         4        2898        2899        3000        2999
         4        2899        2900        3001        3000
         4        2900        2901        3002        3001
         4        2901        2902        3003        3002
         4        2902        2903        3004        3003
         4        2903        2904        3005        3004
         4        2904        2905        3006        3005
         4        2905        2906        3007        3006
         4        2906        2907        3008        3007
         4        2907        2908        3009        3008
         4        2908        2909        3010        3009
         4        2909        2910        3011        3010
         4        2910        2911        3012        3011
         4        2911        2912        3013        3012
         4        2912        2913        3014        3013
         4        2913        2914        3015        3014
         4        2914        2915        3016        3015
         4        2915        2916        3017        3016
         4        2916        2917        3018        3017
         4        2917        2918        3019        3018
         4        2918        2919        3020        3019
         4        2919        2920        3021        3020
         4        2920        2921        3022        3021
         4        2921        2922        3023        3022
         4        2922        2923        3024        3023
         4        2923        2924        3025        3024
         4        2924        2925        3026        3025
         4        2925        2926        3027        3026
         4        2926        2927        3028        3027
         4        2927        2928        3029        3028
         4        2929        2930        3031        3030
         4        2930        2931        3032        3031
         4        2931        2932        3033        3032
         4        2932        2933        3034        3033
         4        2933        2934        3035        3034
         4        2934        2935        3036        3035
         4        2935        2936        3037        3036
         4        2936        2937        3038        3037
         4        2937        2938        3039        3038
         4        2938        2939        3040        3039
         4        2939        2940        3041        3040
         4        2940        2941        3042        3041
         4        2941        2942        3043        3042
         4        2942        2943        3044        3043
         4        2943        2944        3045        3044
         4        2944        2945        3046        3045
         4        2945        2946        3047        3046
         4        2946        2947        3048        3047
         4        2947        2948        3049        3048
         4        2948        2949        3050        3049
         4        2949        2950        3051        3050
         4        2950        2951        3052        3051
         4        2951        2952        3053        3052
         4        2952        2953        3054        3053
         4        2953        2954        3055        3054
         4        2954        2955        3056        3055
         4        2955        2956        3057        3056
         4        2956        2957        3058        3057
         4        2957        2958        3059        3058
         4        2958        2959        3060        3059
         4        2959        2960        3061        3060
         4        2960        2961        3062        3061
         4        2961        2962        3063        3062
         4        2962        2963        3064        3063
         4        2963        2964        3065        3064
         4        2964        2965        3066        3065
         4        2965        2966        3067        3066
         4        2966        2967        3068        3067
         4        2967        2968        3069        3068
         4        2968        2969        3070        3069
         4        2969        2970        3071        3070
         4        2970        2971        3072        3071
         4        2971        2972        3073        3072
         4        2972        2973        3074        3073
         4        2973        2974        3075        3074
         4        2974        2975        3076        3075
         4        2975        2976        3077        3076
         4        2976        2977        3078        3077
         4        2977        2978        3079        3078
         4        2978        2979        3080        3079
         4        2979        2980        3081        3080
         4        2980        2981        3082        3081
         4        2981        2982        3083        3082
         4        2982        2983        3084        3083
         4        2983        2984        3085        3084
         4        2984        2985        3086        3085
         4        2985        2986        3087        3086
         4        2986        2987        3088        3087
         4        2987        2988        3089        3088
         4        2988        2989        3090        3089
         4        2989        2990        3091        3090
         4        2990        2991        3092        3091
         4        2991        2992        3093        3092
         4        2992        2993        3094        3093
         4        2993        2994        3095        3094
         4        2994        2995        3096        3095
         4        2995        2996        3097        3096
         4        2996        2997        3098        3097
         4        2997        2998        3099        3098
         4        2998        2999        3100        3099
         4        2999        3000        3101        3100
         4        3000        3001        3102        3101
         4        3001        3002        3103        3102
         4        3002        3003        3104        3103
         4        3003        3004        3105        3104
         4        3004        3005        3106        3105
         4        3005        3006        3107        3106
         4        3006        3007        3108        3107
         4        3007        3008        3109        3108
         4        3008        3009        3110        3109
         4        3009        3010        3111        3110
         4        3010        3011        3112        3111
         4        3011        3012        3113        3112
         4        3012        3013        3114        3113
         4        3013        3014        3115        3114
         4        3014        3015        3116        3115
         4        3015        3016        3117        3116
         4        3016        3017        3118        3117
         4        3017        3018        3119        3118
         4        3018        3019        3120        3119
         4        3019        3020        3121        3120
         4        3020        3021        3122        3121
         4        3021        3022        3123        3122
         4        3022        3023        3124        3123
         4        3023        3024        3125        3124
         4        3024        3025        3126        3125
         4        3025        3026        3127        3126
         4        3026        3027        3128        3127
         4        3027        3028        3129        3128
         4        3028        3029        3130        3129
         4        3030        3031        3132        3131
         4        3031        3032        3133        3132
         4        3032        3033        3134        3133
         4        3033        3034        3135        3134
         4        3034        3035        3136        3135
         4        3035        3036        3137        3136
         4        3036        3037        3138        3137
         4        3037        3038        3139        3138
         4        3038        3039        3140        3139
         4        3039        3040        3141        3140
         4        3040        3041        3142        3141
         4        3041        3042        3143        3142
         4        3042        3043        3144        3143
         4        3043        3044        3145        3144
         4        3044        3045        3146        3145
         4        3045        3046        3147        3146
         4        3046        3047        3148        3147
         4        3047        3048        3149        3148
         4        3048        3049        3150        3149
         4        3049        3050        3151        3150
         4        3050        3051        3152        3151
         4        3051        3052        3153        3152
         4        3052        3053        3154        3153
         4        3053        3054        3155        3154
         4        3054        3055        3156        3155
         4        3055        3056        3157        3156
         4        3056        3057        3158        3157
         4        3057        3058        3159        3158
         4        3058        3059        3160        3159
         4        3059        3060        3161        3160
         4        3060        3061        3162        3161
         4        3061        3062        3163        3162
         4        3062        3063        3164        3163
         4        3063        3064        3165        3164
         4        3064        3065        3166        3165
         4        3065        3066        3167        3166
         4        3066        3067        3168        3167
         4        3067        3068        3169        3168
         4        3068        3069        3170        3169
         4        3069        3070        3171        3170
         4        3070        3071        3172        3171
         4        3071        3072        3173        3172
         4        3072        3073        3174        3173
         4        3073        3074        3175        3174
         4        3074        3075        3176        3175
         4        3075        3076        3177        3176
         4        3076        3077        3178        3177
         4        3077        3078        3179        3178
         4        3078        3079        3180        3179
         4        3079        3080        3181        3180
         4        3080        3081        3182        3181
         4        3081        3082        3183        3182
         4        3082        3083        3184        3183
         4        3083        3084        3185        3184
         4        3084        3085        3186        3185
         4        3085        3086        3187        3186
         4        3086        3087        3188        3187
         4        3087        3088        3189        3188
         4        3088        3089        3190        3189
         4        3089        3090        3191        3190
         4        3090        3091        3192        3191
         4        3091        3092        3193        3192
         4        3092        3093        3194        3193
         4        3093        3094        3195        3194
         4        3094        3095        3196        3195
         4        3095        3096        3197        3196
         4        3096        3097        3198        3197
         4        3097        3098        3199        3198
         4        3098        3099        3200        3199
         4        3099        3100        3201        3200
         4        3100        3101        3202        3201
         4        3101        3102        3203        3202
         4        3102        3103        3204        3203
         4        3103        3104        3205        3204
         4        3104        3105        3206        3205
         4        3105        3106        3207        3206
         4        3106        3107        3208        3207
         4        3107        3108        3209        3208
         4        3108        3109        3210        3209
         4        3109        3110        3211        3210
         4        3110        3111        3212        3211
         4        3111        3112        3213        3212
         4        3112        3113        3214        3213
         4        3113        3114        3215        3214
         4        3114        3115        3216        3215
         4        3115        3116        3217        3216
         4        3116        3117        3218        3217
         4        3117        3118        3219        3218
         4        3118        3119        3220        3219
         4        3119        3120        3221        3220
         4        3120        3121        3222        3221
         4        3121        3122        3223        3222
         4        3122        3123        3224        3223
         4        3123        3124        3225        3224
         4        3124        3125        3226        3225
         4        3125        3126        3227        3226
         4        3126        3127        3228        3227
         4        3127        3128        3229        3228
         4        3128        3129        3230        3229
         4        3129        3130        3231        3230
         4        3131        3132        3233        3232
         4        3132        3133        3234        3233
         4        3133        3134        3235        3234
         4        3134        3135        3236        3235
         4        3135        3136        3237        3236
         4        3136        3137        3238        3237
         4        3137        3138        3239        3238
         4        3138        3139        3240        3239
         4        3139        3140        3241        3240
         4        3140        3141        3242        3241
         4        3141        3142        3243        3242
         4        3142        3143        3244        3243
         4        3143        3144        3245        3244
         4        3144        3145        3246        3245
         4        3145        3146        3247        3246
         4        3146        3147        3248        3247
         4        3147        3148        3249        3248
         4        3148        3149        3250        3249
         4        3149        3150        3251        3250
         4        3150        3151        3252        3251
         4        3151        3152        3253        3252
         4        3152        3153        3254        3253
         4        3153        3154        3255        3254
         4        3154        3155        3256        3255
         4        3155        3156        3257        3256
         4        3156        3157        3258        3257
         4        3157        3158        3259        3258
         4        3158        3159        3260        3259
         4        3159        3160        3261        3260
         4        3160        3161        3262        3261
         4        3161        3162        3263        3262
         4        3162        3163        3264        3263
         4        3163        3164        3265        3264
         4        3164        3165        3266        3265
         4        3165        3166        3267        3266
         4        3166        3167        3268        3267
         4        3167        3168        3269        3268
         4        3168        3169        3270        3269
         4        3169        3170        3271        3270
         4        3170        3171        3272        3271
         4        3171        3172        3273        3272
         4        3172        3173        3274        3273
         4        3173        3174        3275        3274
         4        3174        3175        3276        3275
         4        3175        3176        3277        3276
         4        3176        3177        3278        3277
         4        3177        3178        3279        3278
         4        3178        3179        3280        3279
         4        3179        3180        3281        3280
         4        3180        3181        3282        3281
         4        3181        3182        3283        3282
         4        3182        3183        3284        3283
         4        3183        3184        3285        3284
         4        3184        3185        3286        3285
         4        3185        3186        3287        3286
         4        3186        3187        3288        3287
         4        3187        3188        3289        3288
         4        3188        3189        3290        3289
         4        3189        3190        3291        3290
         4        3190        3191        3292        3291
         4        3191        3192        3293        3292
         4        3192        3193        3294        3293
         4        3193        3194        3295        3294
         4        3194        3195        3296        3295
         4        3195        3196        3297        3296
         4        3196        3197        3298        3297
         4        3197        3198        3299        3298
         4        3198        3199        3300        3299
         4        3199        3200        3301        3300
         4        3200        3201        3302        3301
         4        3201        3202        3303        3302
         4        3202        3203        3304        3303
         4        3203        3204        3305        3304
         4        3204        3205        3306        3305
         4        3205        3206        3307        3306
         4        3206        3207        3308        3307
         4        3207        3208        3309        3308
         4        3208        3209        3310        3309
         4        3209        3210        3311        3310
         4        3210        3211        3312        3311
         4        3211        3212        3313        3312
         4        3212        3213        3314        3313
         4        3213        3214        3315        3314
         4        3214        3215        3316        3315
         4        3215        3216        3317        3316
         4        3216        3217        3318        3317
         4        3217        3218        3319        3318
         4        3218        3219        3320        3319
         4        3219        3220        3321        3320
         4        3220        3221        3322        3321
         4        3221        3222        3323        3322
         4        3222        3223        3324        3323
         4        3223        3224        3325        3324
         4        3224        3225        3326        3325
         4        3225        3226        3327        3326
         4        3226        3227        3328        3327
         4        3227        3228        3329        3328
         4        3228        3229        3330        3329
         4        3229        3230        3331        3330
         4        3230        3231        3332        3331
         4        3232        3233        3334        3333
         4        3233        3234        3335        3334
         4        3234        3235        3336        3335
         4        3235        3236        3337        3336
         4        3236        3237        3338        3337
         4        3237        3238        3339        3338
         4        3238        3239        3340        3339
         4        3239        3240        3341        3340
         4        3240        3241        3342        3341
         4        3241        3242        3343        3342
         4        3242        3243        3344        3343
         4        3243        3244        3345        3344
         4        3244        3245        3346        3345
         4        3245        3246        3347        3346
         4        3246        3247        3348        3347
         4        3247        3248        3349        3348
         4        3248        3249        3350        3349
         4        3249        3250        3351        3350
         4        3250        3251        3352        3351
         4        3251        3252        3353        3352
         4        3252        3253        3354        3353
         4        3253        3254        3355        3354
         4        3254        3255        3356        3355
         4        3255        3256        3357        3356
         4        3256        3257        3358        3357
         4        3257        3258        3359        3358
         4        3258        3259        3360        3359
         4        3259        3260        3361        3360
         4        3260        3261        3362        3361
         4        3261        3262        3363        3362
         4        3262        3263        3364        3363
         4        3263        3264        3365        3364
         4        3264        3265        3366        3365
         4        3265        3266        3367        3366
         4        3266        3267        3368        3367
         4        3267        3268        3369        3368
         4        3268        3269        3370        3369
         4        3269        3270        3371        3370
         4        3270        3271        3372        3371
         4        3271        3272        3373        3372
         4        3272        3273        3374        3373
         4        3273        3274        3375        3374
         4        3274        3275        3376        3375
         4        3275        3276        3377        3376
         4        3276        3277        3378        3377
         4        3277        3278        3379        3378
         4        3278        3279        3380        3379
         4        3279        3280        3381        3380
         4        3280        3281        3382        3381
         4        3281        3282        3383        3382
         4        3282        3283        3384        3383
         4        3283        3284        3385        3384
         4        3284        3285        3386        3385
         4        3285        3286        3387        3386
         4        3286        3287        3388        3387
         4        3287        3288        3389        3388
         4        3288        3289        3390        3389
         4        3289        3290        3391        3390
         4        3290        3291        3392        3391
         4        3291        3292        3393        3392
         4        3292        3293        3394        3393
         4        3293        3294        3395        3394
         4        3294        3295        3396        3395
         4        3295        3296        3397        3396
         4        3296        3297        3398        3397
         4        3297        3298        3399        3398
         4        3298        3299        3400        3399
         4        3299        3300        3401        3400
         4        3300        3301        3402        3401
         4        3301        3302        3403        3402
         4        3302        3303        3404        3403
         4        3303        3304        3405        3404
         4        3304        3305        3406        3405
         4        3305        3306        3407        3406
         4        3306        3307        3408        3407
         4        3307        3308        3409        3408
         4        3308        3309        3410        3409
         4        3309        3310        3411        3410
         4        3310        3311        3412        3411
         4        3311        3312        3413        3412
         4        3312        3313        3414        3413
         4        3313        3314        3415        3414
         4        3314        3315        3416        3415
         4        3315        3316        3417        3416
         4        3316        3317        3418        3417
         4        3317        3318        3419        3418
         4        3318        3319        3420        3419
         4        3319        3320        3421        3420
         4        3320        3321        3422        3421
         4        3321        3322        3423        3422
         4        3322        3323        3424        3423
         4        3323        3324        3425        3424
         4        3324        3325        3426        3425
         4        3325        3326        3427        3426
         4        3326        3327        3428        3427
         4        3327        3328        3429        3428
         4        3328        3329        3430        3429
         4        3329        3330        3431        3430
         4        3330        3331        3432        3431
         4        3331        3332        3433        3432
         4        3333        3334        3435        3434
         4        3334        3335        3436        3435
         4        3335        3336        3437        3436
         4        3336        3337        3438        3437
         4        3337        3338        3439        3438
         4        3338        3339        3440        3439
         4        3339        3340        3441        3440
         4        3340        3341        3442        3441
         4        3341        3342        3443        3442
         4        3342        3343        3444        3443
         4        3343        3344        3445        3444
         4        3344        3345        3446        3445
         4        3345        3346        3447        3446
         4        3346        3347        3448        3447
         4        3347        3348        3449        3448
         4        3348        3349        3450        3449
         4        3349        3350        3451        3450
         4        3350        3351        3452        3451
         4        3351        3352        3453        3452
         4        3352        3353        3454        3453
         4        3353        3354        3455        3454
         4        3354        3355        3456        3455
         4        3355        3356        3457        3456
         4        3356        3357        3458        3457
         4        3357        3358        3459        3458
         4        3358        3359        3460        3459
         4        3359        3360        3461        3460
         4        3360        3361        3462        3461
         4        3361        3362        3463        3462
         4        3362        3363        3464        3463
         4        3363        3364        3465        3464
         4        3364        3365        3466        3465
         4        3365        3366        3467        3466
         4        3366        3367        3468        3467
         4        3367        3368        3469        3468
         4        3368        3369        3470        3469
         4        3369        3370        3471        3470
         4        3370        3371        3472        3471
         4        3371        3372        3473        3472
         4        3372        3373        3474        3473
         4        3373        3374        3475        3474
         4        3374        3375        3476        3475
         4        3375        3376        3477        3476
         4        3376        3377        3478        3477
         4        3377        3378        3479        3478
         4        3378        3379        3480        3479
         4        3379        3380        3481        3480
         4        3380        3381        3482        3481
         4        3381        3382        3483        3482
         4        3382        3383        3484        3483
         4        3383        3384        3485        3484
         4        3384        3385        3486        3485
         4        3385        3386        3487        3486
         4        3386        3387        3488        3487
         4        3387        3388        3489        3488
         4        3388        3389        3490        3489
         4        3389        3390        3491        3490
         4        3390        3391        3492        3491
         4        3391        3392        3493        3492
         4        3392        3393        3494        3493
         4        3393        3394        3495        3494
         4        3394        3395        3496        3495
         4        3395        3396        3497        3496
         4        3396        3397        3498        3497
         4        3397        3398        3499        3498
         4        3398        3399        3500        3499
         4        3399        3400        3501        3500
         4        3400        3401        3502        3501
         4        3401        3402        3503        3502
         4        3402        3403        3504        3503
         4        3403        3404        3505        3504
         4        3404        3405        3506        3505
         4        3405        3406        3507        3506
         4        3406        3407        3508        3507
         4        3407        3408        3509        3508
         4        3408        3409        3510        3509
         4        3409        3410        3511        3510
         4        3410        3411        3512        3511
         4        3411        3412        3513        3512
         4        3412        3413        3514        3513
         4        3413        3414        3515        3514
         4        3414        3415        3516        3515
         4        3415        3416        3517        3516
         4        3416        3417        3518        3517
         4        3417        3418        3519        3518
         4        3418        3419        3520        3519
         4        3419        3420        3521        3520
         4        3420        3421        3522        3521
         4        3421        3422        3523        3522
         4        3422        3423        3524        3523
         4        3423        3424        3525        3524
         4        3424        3425        3526        3525
         4        3425        3426        3527        3526
         4        3426        3427        3528        3527
         4        3427        3428        3529        3528
         4        3428        3429        3530        3529
         4        3429        3430        3531        3530
         4        3430        3431        3532        3531
         4        3431        3432        3533        3532
         4        3432        3433        3534        3533
         4        3434        3435        3536        3535
         4        3435        3436        3537        3536
         4        3436        3437        3538        3537
         4        3437        3438        3539        3538
         4        3438        3439        3540        3539
         4        3439        3440        3541        3540
         4        3440        3441        3542        3541
         4        3441        3442        3543        3542
         4        3442        3443        3544        3543
         4        3443        3444        3545        3544
         4        3444        3445        3546        3545
         4        3445        3446        3547        3546
         4        3446        3447        3548        3547
         4        3447        3448        3549        3548
         4        3448        3449        3550        3549
         4        3449        3450        3551        3550
         4        3450        3451        3552        3551
         4        3451        3452        3553        3552
         4        3452        3453        3554        3553
         4        3453        3454        3555        3554
         4        3454        3455        3556        3555
         4        3455        3456        3557        3556
         4        3456        3457        3558        3557
         4        3457        3458        3559        3558
         4        3458        3459        3560        3559
         4        3459        3460        3561        3560
         4        3460        3461        3562        3561
         4        3461        3462        3563        3562
         4        3462        3463        3564        3563
         4        3463        3464        3565        3564
         4        3464        3465        3566        3565
         4        3465        3466        3567        3566
         4        3466        3467        3568        3567
         4        3467        3468        3569        3568
         4        3468        3469        3570        3569
         4        3469        3470        3571        3570
         4        3470        3471        3572        3571
         4        3471        3472        3573        3572
         4        3472        3473        3574        3573
         4        3473        3474        3575        3574
         4        3474        3475        3576        3575
         4        3475        3476        3577        3576
         4        3476        3477        3578        3577
         4        3477        3478        3579        3578
         4        3478        3479        3580        3579
         4        3479        3480        3581        3580
         4        3480        3481        3582        3581
         4        3481        3482        3583        3582
         4        3482        3483        3584        3583
         4        3483        3484        3585        3584
         4        3484        3485        3586        3585
         4        3485        3486        3587        3586
         4        3486        3487        3588        3587
         4        3487        3488        3589        3588
         4        3488        3489        3590        3589
         4        3489        3490        3591        3590
         4        3490        3491        3592        3591
         4        3491        3492        3593        3592
         4        3492        3493        3594        3593
         4        3493        3494        3595        3594
         4        3494        3495        3596        3595
         4        3495        3496        3597        3596
         4        3496        3497        3598        3597
         4        3497        3498        3599        3598
         4        3498        3499        3600        3599
         4        3499        3500        3601        3600
         4        3500        3501        3602        3601
         4        3501        3502        3603        3602
         4        3502        3503        3604        3603
         4        3503        3504        3605        3604
         4        3504        3505        3606        3605
         4        3505        3506        3607        3606
         4        3506        3507        3608        3607
         4        3507        3508        3609        3608
         4        3508        3509        3610        3609
         4        3509        3510        3611        3610
         4        3510        3511        3612        3611
         4        3511        3512        3613        3612
         4        3512        3513        3614        3613
         4        3513        3514        3615        3614
         4        3514        3515        3616        3615
         4        3515        3516        3617        3616
         4        3516        3517        3618        3617
         4        3517        3518        3619        3618
         4        3518        3519        3620        3619
         4        3519        3520        3621        3620
         4        3520        3521        3622        3621
         4        3521        3522        3623        3622
         4        3522        3523        3624        3623
         4        3523        3524        3625        3624
         4        3524        3525        3626        3625
         4        3525        3526        3627        3626
         4        3526        3527        3628        3627
         4        3527        3528        3629        3628
         4        3528        3529        3630        3629
         4        3529        3530        3631        3630
         4        3530        3531        3632        3631
         4        3531        3532        3633        3632
         4        3532        3533        3634        3633
         4        3533        3534        3635        3634
         4        3535        3536        3637        3636
         4        3536        3537        3638        3637
         4        3537        3538        3639        3638
         4        3538        3539        3640        3639
         4        3539        3540        3641        3640
         4        3540        3541        3642        3641
         4        3541        3542        3643        3642
         4        3542        3543        3644        3643
         4        3543        3544        3645        3644
         4        3544        3545        3646        3645
         4        3545        3546        3647        3646
         4        3546        3547        3648        3647
         4        3547        3548        3649        3648
         4        3548        3549        3650        3649
         4        3549        3550        3651        3650
         4        3550        3551        3652        3651
         4        3551        3552        3653        3652
         4        3552        3553        3654        3653
         4        3553        3554        3655        3654
         4        3554        3555        3656        3655
         4        3555        3556        3657        3656
         4        3556        3557        3658        3657
         4        3557        3558        3659        3658
         4        3558        3559        3660        3659
         4        3559        3560        3661        3660
         4        3560        3561        3662        3661
         4        3561        3562        3663        3662
         4        3562        3563        3664        3663
         4        3563        3564        3665        3664
         4        3564        3565        3666        3665
         4        3565        3566        3667        3666
         4        3566        3567        3668        3667
         4        3567        3568        3669        3668
         4        3568        3569        3670        3669
         4        3569        3570        3671        3670
         4        3570        3571        3672        3671
         4        3571        3572        3673        3672
         4        3572        3573        3674        3673
         4        3573        3574        3675        3674
         4        3574        3575        3676        3675
         4        3575        3576        3677        3676
         4        3576        3577        3678        3677
         4        3577        3578        3679        3678
         4        3578        3579        3680        3679
         4        3579        3580        3681        3680
         4        3580        3581        3682        3681
         4        3581        3582        3683        3682
         4        3582        3583        3684        3683
         4        3583        3584        3685        3684
         4        3584        3585        3686        3685
         4        3585        3586        3687        3686
         4        3586        3587        3688        3687
         4        3587        3588        3689        3688
         4        3588        3589        3690        3689
         4        3589        3590        3691        3690
         4        3590        3591        3692        3691
         4        3591        3592        3693        3692
         4        3592        3593        3694        3693
         4        3593        3594        3695        3694
         4        3594        3595        3696        3695
         4        3595        3596        3697        3696
         4        3596        3597        3698        3697
         4        3597        3598        3699        3698
         4        3598        3599        3700        3699
         4        3599        3600        3701        3700
         4        3600        3601        3702        3701
         4        3601        3602        3703        3702
         4        3602        3603        3704        3703
         4        3603        3604        3705        3704
         4        3604        3605        3706        3705
         4        3605        3606        3707        3706
         4        3606        3607        3708        3707
         4        3607        3608        3709        3708
         4        3608        3609        3710        3709
         4        3609        3610        3711        3710
         4        3610        3611        3712        3711
         4        3611        3612        3713        3712
         4        3612        3613        3714        3713
         4        3613        3614        3715        3714
         4        3614        3615        3716        3715
         4        3615        3616        3717        3716
         4        3616        3617        3718        3717
         4        3617        3618        3719        3718
         4        3618        3619        3720        3719
         4        3619        3620        3721        3720
         4        3620        3621        3722        3721
         4        3621        3622        3723        3722
         4        3622        3623        3724        3723
         4        3623        3624        3725        3724
         4        3624        3625        3726        3725
         4        3625        3626        3727        3726
         4        3626        3627        3728        3727
         4        3627        3628        3729        3728
         4        3628        3629        3730        3729
         4        3629        3630        3731        3730
         4        3630        3631        3732        3731
         4        3631        3632        3733        3732
         4        3632        3633        3734        3733
         4        3633        3634        3735        3734
         4        3634        3635        3736        3735
         4        3636        3637        3738        3737
         4        3637        3638        3739        3738
         4        3638        3639        3740        3739
         4        3639        3640        3741        3740
         4        3640        3641        3742        3741
         4        3641        3642        3743        3742
         4        3642        3643        3744        3743
         4        3643        3644        3745        3744
         4        3644        3645        3746        3745
         4        3645        3646        3747        3746
         4        3646        3647        3748        3747
         4        3647        3648        3749        3748
         4        3648        3649        3750        3749
         4        3649        3650        3751        3750
         4        3650        3651        3752        3751
         4        3651        3652        3753        3752
         4        3652        3653        3754        3753
         4        3653        3654        3755        3754
         4        3654        3655        3756        3755
         4        3655        3656        3757        3756
         4        3656        3657        3758        3757
         4        3657        3658        3759        3758
         4        3658        3659        3760        3759
         4        3659        3660        3761        3760
         4        3660        3661        3762        3761
         4        3661        3662        3763        3762
         4        3662        3663        3764        3763
         4        3663        3664        3765        3764
         4        3664        3665        3766        3765
         4        3665        3666        3767        3766
         4        3666        3667        3768        3767
         4        3667        3668        3769        3768
         4        3668        3669        3770        3769
         4        3669        3670        3771        3770
         4        3670        3671        3772        3771
         4        3671        3672        3773        3772
         4        3672        3673        3774        3773
         4        3673        3674        3775        3774
         4        3674        3675        3776        3775
         4        3675        3676        3777        3776
         4        3676        3677        3778        3777
         4        3677        3678        3779        3778
         4        3678        3679        3780        3779
         4        3679        3680        3781        3780
         4        3680        3681        3782        3781
         4        3681        3682        3783        3782
         4        3682        3683        3784        3783
         4        3683        3684        3785        3784
         4        3684        3685        3786        3785
         4        3685        3686        3787        3786
         4        3686        3687        3788        3787
         4        3687        3688        3789        3788
         4        3688        3689        3790        3789
         4        3689        3690        3791        3790
         4        3690        3691        3792        3791
         4        3691        3692        3793        3792
         4        3692        3693        3794        3793
         4        3693        3694        3795        3794
         4        3694        3695        3796        3795
         4        3695        3696        3797        3796
         4        3696        3697        3798        3797
         4        3697        3698        3799        3798
         4        3698        3699        3800        3799
         4        3699        3700        3801        3800
         4        3700        3701        3802        3801
         4        3701        3702        3803        3802
         4        3702        3703        3804        3803
         4        3703        3704        3805        3804
         4        3704        3705        3806        3805
         4        3705        3706        3807        3806
         4        3706        3707        3808        3807
         4        3707        3708        3809        3808
         4        3708        3709        3810        3809
         4        3709        3710        3811        3810
         4        3710        3711        3812        3811
         4        3711        3712        3813        3812
         4        3712        3713        3814        3813
         4        3713        3714        3815        3814
         4        3714        3715        3816        3815
         4        3715        3716        3817        3816
         4        3716        3717        3818        3817
         4        3717        3718        3819        3818
         4        3718        3719        3820        3819
         4        3719        3720        3821        3820
         4        3720        3721        3822        3821
         4        3721        3722        3823        3822
         4        3722        3723        3824        3823
         4        3723        3724        3825        3824
         4        3724        3725        3826        3825
         4        3725        3726        3827        3826
         4        3726        3727        3828        3827
         4        3727        3728        3829        3828
         4        3728        3729        3830        3829
         4        3729        3730        3831        3830
         4        3730        3731        3832        3831
         4        3731        3732        3833        3832
         4        3732        3733        3834        3833
         4        3733        3734        3835        3834
         4        3734        3735        3836        3835
         4        3735        3736        3837        3836
         4        3737        3738        3839        3838
         4        3738        3739        3840        3839
         4        3739        3740        3841        3840
         4        3740        3741        3842        3841
         4        3741        3742        3843        3842
         4        3742        3743        3844        3843
         4        3743        3744        3845        3844
         4        3744        3745        3846        3845
         4        3745        3746        3847        3846
         4        3746        3747        3848        3847
         4        3747        3748        3849        3848
         4        3748        3749        3850        3849
         4        3749        3750        3851        3850
         4        3750        3751        3852        3851
         4        3751        3752        3853        3852
         4        3752        3753        3854        3853
         4        3753        3754        3855        3854
         4        3754        3755        3856        3855
         4        3755        3756        3857        3856
         4        3756        3757        3858        3857
         4        3757        3758        3859        3858
         4        3758        3759        3860        3859
         4        3759        3760        3861        3860
         4        3760        3761        3862        3861
         4        3761        3762        3863        3862
         4        3762        3763        3864        3863
         4        3763        3764        3865        3864
         4        3764        3765        3866        3865
         4        3765        3766        3867        3866
         4        3766        3767        3868        3867
         4        3767        3768        3869        3868
         4        3768        3769        3870        3869
         4        3769        3770        3871        3870
         4        3770        3771        3872        3871
         4        3771        3772        3873        3872
         4        3772        3773        3874        3873
         4        3773        3774        3875        3874
         4        3774        3775        3876        3875
         4        3775        3776        3877        3876
         4        3776        3777        3878        3877
         4        3777        3778        3879        3878
         4        3778        3779        3880        3879
         4        3779        3780        3881        3880
         4        3780        3781        3882        3881
         4        3781        3782        3883        3882
         4        3782        3783        3884        3883
         4        3783        3784        3885        3884
         4        3784        3785        3886        3885
         4        3785        3786        3887        3886
         4        3786        3787        3888        3887
         4        3787        3788        3889        3888
         4        3788        3789        3890        3889
         4        3789        3790        3891        3890
         4        3790        3791        3892        3891
         4        3791        3792        3893        3892
         4        3792        3793        3894        3893
         4        3793        3794        3895        3894
         4        3794        3795        3896        3895
         4        3795        3796        3897        3896
         4        3796        3797        3898        3897
         4        3797        3798        3899        3898
         4        3798        3799        3900        3899
         4        3799        3800        3901        3900
         4        3800        3801        3902        3901
         4        3801        3802        3903        3902
         4        3802        3803        3904        3903
         4        3803        3804        3905        3904
         4        3804        3805        3906        3905
         4        3805        3806        3907        3906
         4        3806        3807        3908        3907
         4        3807        3808        3909        3908
         4        3808        3809        3910        3909
         4        3809        3810        3911        3910
         4        3810        3811        3912        3911
         4        3811        3812        3913        3912
         4        3812        3813        3914        3913
         4        3813        3814        3915        3914
         4        3814        3815        3916        3915
         4        3815        3816        3917        3916
         4        3816        3817        3918        3917
         4        3817        3818        3919        3918
         4        3818        3819        3920        3919
         4        3819        3820        3921        3920
         4        3820        3821        3922        3921
         4        3821        3822        3923        3922
         4        3822        3823        3924        3923
         4        3823        3824        3925        3924
         4        3824        3825        3926        3925
         4        3825        3826        3927        3926
         4        3826        3827        3928        3927
         4        3827        3828        3929        3928
         4        3828        3829        3930        3929
         4        3829        3830        3931        3930
         4        3830        3831        3932        3931
         4        3831        3832        3933        3932
         4        3832        3833        3934        3933
         4        3833        3834        3935        3934
         4        3834        3835        3936        3935
         4        3835        3836        3937        3936
         4        3836        3837        3938        3937
         4        3838        3839        3940        3939
         4        3839        3840        3941        3940
         4        3840        3841        3942        3941
         4        3841        3842        3943        3942
         4        3842        3843        3944        3943
         4        3843        3844        3945        3944
         4        3844        3845        3946        3945
         4        3845        3846        3947        3946
         4        3846        3847        3948        3947
         4        3847        3848        3949        3948
         4        3848        3849        3950        3949
         4        3849        3850        3951        3950
         4        3850        3851        3952        3951
         4        3851        3852        3953        3952
         4        3852        3853        3954        3953
         4        3853        3854        3955        3954
         4        3854        3855        3956        3955
         4        3855        3856        3957        3956
         4        3856        3857        3958        3957
         4        3857        3858        3959        3958
         4        3858        3859        3960        3959
         4        3859        3860        3961        3960
         4        3860        3861        3962        3961
         4        3861        3862        3963        3962
         4        3862        3863        3964        3963
         4        3863        3864        3965        3964
         4        3864        3865        3966        3965
         4        3865        3866        3967        3966
         4        3866        3867        3968        3967
         4        3867        3868        3969        3968
         4        3868        3869        3970        3969
         4        3869        3870        3971        3970
         4        3870        3871        3972        3971
         4        3871        3872        3973        3972
         4        3872        3873        3974        3973
         4        3873        3874        3975        3974
         4        3874        3875        3976        3975
         4        3875        3876        3977        3976
         4        3876        3877        3978        3977
         4        3877        3878        3979        3978
         4        3878        3879        3980        3979
         4        3879        3880        3981        3980
         4        3880        3881        3982        3981
         4        3881        3882        3983        3982
         4        3882        3883        3984        3983
         4        3883        3884        3985        3984
         4        3884        3885        3986        3985
         4        3885        3886        3987        3986
         4        3886        3887        3988        3987
         4        3887        3888        3989        3988
         4        3888        3889        3990        3989
         4        3889        3890        3991        3990
         4        3890        3891        3992        3991
         4        3891        3892        3993        3992
         4        3892        3893        3994        3993
         4        3893        3894        3995        3994
         4        3894        3895        3996        3995
         4        3895        3896        3997        3996
         4        3896        3897        3998        3997
         4        3897        3898        3999        3998
         4        3898        3899        4000        3999
         4        3899        3900        4001        4000
         4        3900        3901        4002        4001
         4        3901        3902        4003        4002
         4        3902        3903        4004        4003
         4        3903        3904        4005        4004
         4        3904        3905        4006        4005
         4        3905        3906        4007        4006
         4        3906        3907        4008        4007
         4        3907        3908        4009        4008
         4        3908        3909        4010        4009
         4        3909        3910        4011        4010
         4        3910        3911        4012        4011
         4        3911        3912        4013        4012
         4        3912        3913        4014        4013
         4        3913        3914        4015        4014
         4        3914        3915        4016        4015
         4        3915        3916        4017        4016
         4        3916        3917        4018        4017
         4        3917        3918        4019        4018
         4        3918        3919        4020        4019
         4        3919        3920        4021        4020
         4        3920        3921        4022        4021
         4        3921        3922        4023        4022
         4        3922        3923        4024        4023
         4        3923        3924        4025        4024
         4        3924        3925        4026        4025
         4        3925        3926        4027        4026
         4        3926        3927        4028        4027
         4        3927        3928        4029        4028
         4        3928        3929        4030        4029
         4        3929        3930        4031        4030
         4        3930        3931        4032        4031
         4        3931        3932        4033        4032
         4        3932        3933        4034        4033
         4        3933        3934        4035        4034
         4        3934        3935        4036        4035
         4        3935        3936        4037        4036
         4        3936        3937        4038        4037
         4        3937        3938        4039        4038
         4        3939        3940        4041        4040
         4        3940        3941        4042        4041
         4        3941        3942        4043        4042
         4        3942        3943        4044        4043
         4        3943        3944        4045        4044
         4        3944        3945        4046        4045
         4        3945        3946        4047        4046
         4        3946        3947        4048        4047
         4        3947        3948        4049        4048
         4        3948        3949        4050        4049
         4        3949        3950        4051        4050
         4        3950        3951        4052        4051
         4        3951        3952        4053        4052
         4        3952        3953        4054        4053
         4        3953        3954        4055        4054
         4        3954        3955        4056        4055
         4        3955        3956        4057        4056
         4        3956        3957        4058        4057
         4        3957        3958        4059        4058
         4        3958        3959        4060        4059
         4        3959        3960        4061        4060
         4        3960        3961        4062        4061
         4        3961        3962        4063        4062
         4        3962        3963        4064        4063
         4        3963        3964        4065        4064
         4        3964        3965        4066        4065
         4        3965        3966        4067        4066
         4        3966        3967        4068        4067
         4        3967        3968        4069        4068
         4        3968        3969        4070        4069
         4        3969        3970        4071        4070
         4        3970        3971        4072        4071
         4        3971        3972        4073        4072
         4        3972        3973        4074        4073
         4        3973        3974        4075        4074
         4        3974        3975        4076        4075
         4        3975        3976        4077        4076
         4        3976        3977        4078        4077
         4        3977        3978        4079        4078
         4        3978        3979        4080        4079
         4        3979        3980        4081        4080
         4        3980        3981        4082        4081
         4        3981        3982        4083        4082
         4        3982        3983        4084        4083
         4        3983        3984        4085        4084
         4        3984        3985        4086        4085
         4        3985        3986        4087        4086
         4        3986        3987        4088        4087
         4        3987        3988        4089        4088
         4        3988        3989        4090        4089
         4        3989        3990        4091        4090
         4        3990        3991        4092        4091
         4        3991        3992        4093        4092
         4        3992        3993        4094        4093
         4        3993        3994        4095        4094
         4        3994        3995        4096        4095
         4        3995        3996        4097        4096
         4        3996        3997        4098        4097
         4        3997        3998        4099        4098
         4        3998        3999        4100        4099
         4        3999        4000        4101        4100
         4        4000        4001        4102        4101
         4        4001        4002        4103        4102
         4        4002        4003        4104        4103
         4        4003        4004        4105        4104
         4        4004        4005        4106        4105
         4        4005        4006        4107        4106
         4        4006        4007        4108        4107
         4        4007        4008        4109        4108
         4        4008        4009        4110        4109
         4        4009        4010        4111        4110
         4        4010        4011        4112        4111
         4        4011        4012        4113        4112
         4        4012        4013        4114        4113
         4        4013        4014        4115        4114
         4        4014        4015        4116        4115
         4        4015        4016        4117        4116
         4        4016        4017        4118        4117
         4        4017        4018        4119        4118
         4        4018        4019        4120        4119
         4        4019        4020        4121        4120
         4        4020        4021        4122        4121
         4        4021        4022        4123        4122
         4        4022        4023        4124        4123
         4        4023        4024        4125        4124
         4        4024        4025        4126        4125
         4        4025        4026        4127        4126
         4        4026        4027        4128        4127
         4        4027        4028        4129        4128
         4        4028        4029        4130        4129
         4        4029        4030        4131        4130
         4        4030        4031        4132        4131
         4        4031        4032        4133        4132
         4        4032        4033        4134        4133
         4        4033        4034        4135        4134
         4        4034        4035        4136        4135
         4        4035        4036        4137        4136
         4        4036        4037        4138        4137
         4        4037        4038        4139        4138
         4        4038        4039        4140        4139
         4        4040        4041        4142        4141
         4        4041        4042        4143        4142
         4        4042        4043        4144        4143
         4        4043        4044        4145        4144
         4        4044        4045        4146        4145
         4        4045        4046        4147        4146
         4        4046        4047        4148        4147
         4        4047        4048        4149        4148
         4        4048        4049        4150        4149
         4        4049        4050        4151        4150
         4        4050        4051        4152        4151
         4        4051        4052        4153        4152
         4        4052        4053        4154        4153
         4        4053        4054        4155        4154
         4        4054        4055        4156        4155
         4        4055        4056        4157        4156
         4        4056        4057        4158        4157
         4        4057        4058        4159        4158
         4        4058        4059        4160        4159
         4        4059        4060        4161        4160
         4        4060        4061        4162        4161
         4        4061        4062        4163        4162
         4        4062        4063        4164        4163
         4        4063        4064        4165        4164
         4        4064        4065        4166        4165
         4        4065        4066        4167        4166
         4        4066        4067        4168        4167
         4        4067        4068        4169        4168
         4        4068        4069        4170        4169
         4        4069        4070        4171        4170
         4        4070        4071        4172        4171
         4        4071        4072        4173        4172
         4        4072        4073        4174        4173
         4        4073        4074        4175        4174
         4        4074        4075        4176        4175
         4        4075        4076        4177        4176
         4        4076        4077        4178        4177
         4        4077        4078        4179        4178
         4        4078        4079        4180        4179
         4        4079        4080        4181        4180
         4        4080        4081        4182        4181
         4        4081        4082        4183        4182
         4        4082        4083        4184        4183
         4        4083        4084        4185        4184
         4        4084        4085        4186        4185
         4        4085        4086        4187        4186
         4        4086        4087        4188        4187
         4        4087        4088        4189        4188
         4        4088        4089        4190        4189
         4        4089        4090        4191        4190
         4        4090        4091        4192        4191
         4        4091        4092        4193        4192
         4        4092        4093        4194        4193
         4        4093        4094        4195        4194
         4        4094        4095        4196        4195
         4        4095        4096        4197        4196
         4        4096        4097        4198        4197
         4        4097        4098        4199        4198
         4        4098        4099        4200        4199
         4        4099        4100        4201        4200
         4        4100        4101        4202        4201
         4        4101        4102        4203        4202
         4        4102        4103        4204        4203
         4        4103        4104        4205        4204
         4        4104        4105        4206        4205
         4        4105        4106        4207        4206
         4        4106        4107        4208        4207
         4        4107        4108        4209        4208
         4        4108        4109        4210        4209
         4        4109        4110        4211        4210
         4        4110        4111        4212        4211
         4        4111        4112        4213        4212
         4        4112        4113        4214        4213
         4        4113        4114        4215        4214
         4        4114        4115        4216        4215
         4        4115        4116        4217        4216
         4        4116        4117        4218        4217
         4        4117        4118        4219        4218
         4        4118        4119        4220        4219
         4        4119        4120        4221        4220
         4        4120        4121        4222        4221
         4        4121        4122        4223        4222
         4        4122        4123        4224        4223
         4        4123        4124        4225        4224
         4        4124        4125        4226        4225
         4        4125        4126        4227        4226
         4        4126        4127        4228        4227
         4        4127        4128        4229        4228
         4        4128        4129        4230        4229
         4        4129        4130        4231        4230
         4        4130        4131        4232        4231
         4        4131        4132        4233        4232
         4        4132        4133        4234        4233
         4        4133        4134        4235        4234
         4        4134        4135        4236        4235
         4        4135        4136        4237        4236
         4        4136        4137        4238        4237
         4        4137        4138        4239        4238
         4        4138        4139        4240        4239
         4        4139        4140        4241        4240
         4        4141        4142        4243        4242
         4        4142        4143        4244        4243
         4        4143        4144        4245        4244
         4        4144        4145        4246        4245
         4        4145        4146        4247        4246
         4        4146        4147        4248        4247
         4        4147        4148        4249        4248
         4        4148        4149        4250        4249
         4        4149        4150        4251        4250
         4        4150        4151        4252        4251
         4        4151        4152        4253        4252
         4        4152        4153        4254        4253
         4        4153        4154        4255        4254
         4        4154        4155        4256        4255
         4        4155        4156        4257        4256
         4        4156        4157        4258        4257
         4        4157        4158        4259        4258
         4        4158        4159        4260        4259
         4        4159        4160        4261        4260
         4        4160        4161        4262        4261
         4        4161        4162        4263        4262
         4        4162        4163        4264        4263
         4        4163        4164        4265        4264
         4        4164        4165        4266        4265
         4        4165        4166        4267        4266
         4        4166        4167        4268        4267
         4        4167        4168        4269        4268
         4        4168        4169        4270        4269
         4        4169        4170        4271        4270
         4        4170        4171        4272        4271
         4        4171        4172        4273        4272
         4        4172        4173        4274        4273
         4        4173        4174        4275        4274
         4        4174        4175        4276        4275
         4        4175        4176        4277        4276
         4        4176        4177        4278        4277
         4        4177        4178        4279        4278
         4        4178        4179        4280        4279
         4        4179        4180        4281        4280
         4        4180        4181        4282        4281
         4        4181        4182        4283        4282
         4        4182        4183        4284        4283
         4        4183        4184        4285        4284
         4        4184        4185        4286        4285
         4        4185        4186        4287        4286
         4        4186        4187        4288        4287
         4        4187        4188        4289        4288
         4        4188        4189        4290        4289
         4        4189        4190        4291        4290
         4        4190        4191        4292        4291
         4        4191        4192        4293        4292
         4        4192        4193        4294        4293
         4        4193        4194        4295        4294
         4        4194        4195        4296        4295
         4        4195        4196        4297        4296
         4        4196        4197        4298        4297
         4        4197        4198        4299        4298
         4        4198        4199        4300        4299
         4        4199        4200        4301        4300
         4        4200        4201        4302        4301
         4        4201        4202        4303        4302
         4        4202        4203        4304        4303
         4        4203        4204        4305        4304
         4        4204        4205        4306        4305
         4        4205        4206        4307        4306
         4        4206        4207        4308        4307
         4        4207        4208        4309        4308
         4        4208        4209        4310        4309
         4        4209        4210        4311        4310
         4        4210        4211        4312        4311
         4        4211        4212        4313        4312
         4        4212        4213        4314        4313
         4        4213        4214        4315        4314
         4        4214        4215        4316        4315
         4        4215        4216        4317        4316
         4        4216        4217        4318        4317
         4        4217        4218        4319        4318
         4        4218        4219        4320        4319
         4        4219        4220        4321        4320
         4        4220        4221        4322        4321
         4        4221        4222        4323        4322
         4        4222        4223        4324        4323
         4        4223        4224        4325        4324
         4        4224        4225        4326        4325
         4        4225        4226        4327        4326
         4        4226        4227        4328        4327
         4        4227        4228        4329        4328
         4        4228        4229        4330        4329
         4        4229        4230        4331        4330
         4        4230        4231        4332        4331
         4        4231        4232        4333        4332
         4        4232        4233        4334        4333
         4        4233        4234        4335        4334
         4        4234        4235        4336        4335
         4        4235        4236        4337        4336
         4        4236        4237        4338        4337
         4        4237        4238        4339        4338
         4        4238        4239        4340        4339
         4        4239        4240        4341        4340
         4        4240        4241        4342        4341
         4        4242        4243        4344        4343
         4        4243        4244        4345        4344
         4        4244        4245        4346        4345
         4        4245        4246        4347        4346
         4        4246        4247        4348        4347
         4        4247        4248        4349        4348
         4        4248        4249        4350        4349
         4        4249        4250        4351        4350
         4        4250        4251        4352        4351
         4        4251        4252        4353        4352
         4        4252        4253        4354        4353
         4        4253        4254        4355        4354
         4        4254        4255        4356        4355
         4        4255        4256        4357        4356
         4        4256        4257        4358        4357
         4        4257        4258        4359        4358
         4        4258        4259        4360        4359
         4        4259        4260        4361        4360
         4        4260        4261        4362        4361
         4        4261        4262        4363        4362
         4        4262        4263        4364        4363
         4        4263        4264        4365        4364
         4        4264        4265        4366        4365
         4        4265        4266        4367        4366
         4        4266        4267        4368        4367
         4        4267        4268        4369        4368
         4        4268        4269        4370        4369
         4        4269        4270        4371        4370
         4        4270        4271        4372        4371
         4        4271        4272        4373        4372
         4        4272        4273        4374        4373
         4        4273        4274        4375        4374
         4        4274        4275        4376        4375
         4        4275        4276        4377        4376
         4        4276        4277        4378        4377
         4        4277        4278        4379        4378
         4        4278        4279        4380        4379
         4        4279        4280        4381        4380
         4        4280        4281        4382        4381
         4        4281        4282        4383        4382
         4        4282        4283        4384        4383
         4        4283        4284        4385        4384
         4        4284        4285        4386        4385
         4        4285        4286        4387        4386
         4        4286        4287        4388        4387
         4        4287        4288        4389        4388
         4        4288        4289        4390        4389
         4        4289        4290        4391        4390
         4        4290        4291        4392        4391
         4        4291        4292        4393        4392
         4        4292        4293        4394        4393
         4        4293        4294        4395        4394
         4        4294        4295        4396        4395
         4        4295        4296        4397        4396
         4        4296        4297        4398        4397
         4        4297        4298        4399        4398
         4        4298        4299        4400        4399
         4        4299        4300        4401        4400
         4        4300        4301        4402        4401
         4        4301        4302        4403        4402
         4        4302        4303        4404        4403
         4        4303        4304        4405        4404
         4        4304        4305        4406        4405
         4        4305        4306        4407        4406
         4        4306        4307        4408        4407
         4        4307        4308        4409        4408
         4        4308        4309        4410        4409
         4        4309        4310        4411        4410
         4        4310        4311        4412        4411
         4        4311        4312        4413        4412
         4        4312        4313        4414        4413
         4        4313        4314        4415        4414
         4        4314        4315        4416        4415
         4        4315        4316        4417        4416
         4        4316        4317        4418        4417
         4        4317        4318        4419        4418
         4        4318        4319        4420        4419
         4        4319        4320        4421        4420
         4        4320        4321        4422        4421
         4        4321        4322        4423        4422
         4        4322        4323        4424        4423
         4        4323        4324        4425        4424
         4        4324        4325        4426        4425
         4        4325        4326        4427        4426
         4        4326        4327        4428        4427
         4        4327        4328        4429        4428
         4        4328        4329        4430        4429
         4        4329        4330        4431        4430
         4        4330        4331        4432        4431
         4        4331        4332        4433        4432
         4        4332        4333        4434        4433
         4        4333        4334        4435        4434
         4        4334        4335        4436        4435
         4        4335        4336        4437        4436
         4        4336        4337        4438        4437
         4        4337        4338        4439        4438
         4        4338        4339        4440        4439
         4        4339        4340        4441        4440
         4        4340        4341        4442        4441
         4        4341        4342        4443        4442
         4        4343        4344        4445        4444
         4        4344        4345        4446        4445
         4        4345        4346        4447        4446
         4        4346        4347        4448        4447
         4        4347        4348        4449        4448
         4        4348        4349        4450        4449
         4        4349        4350        4451        4450
         4        4350        4351        4452        4451
         4        4351        4352        4453        4452
         4        4352        4353        4454        4453
         4        4353        4354        4455        4454
         4        4354        4355        4456        4455
         4        4355        4356        4457        4456
         4        4356        4357        4458        4457
         4        4357        4358        4459        4458
         4        4358        4359        4460        4459
         4        4359        4360        4461        4460
         4        4360        4361        4462        4461
         4        4361        4362        4463        4462
         4        4362        4363        4464        4463
         4        4363        4364        4465        4464
         4        4364        4365        4466        4465
         4        4365        4366        4467        4466
         4        4366        4367        4468        4467
         4        4367        4368        4469        4468
         4        4368        4369        4470        4469
         4        4369        4370        4471        4470
         4        4370        4371        4472        4471
         4        4371        4372        4473        4472
         4        4372        4373        4474        4473
         4        4373        4374        4475        4474
         4        4374        4375        4476        4475
         4        4375        4376        4477        4476
         4        4376        4377        4478        4477
         4        4377        4378        4479        4478
         4        4378        4379        4480        4479
         4        4379        4380        4481        4480
         4        4380        4381        4482        4481
         4        4381        4382        4483        4482
         4        4382        4383        4484        4483
         4        4383        4384        4485        4484
         4        4384        4385        4486        4485
         4        4385        4386        4487        4486
         4        4386        4387        4488        4487
         4        4387        4388        4489        4488
         4        4388        4389        4490        4489
         4        4389        4390        4491        4490
         4        4390        4391        4492        4491
         4        4391        4392        4493        4492
         4        4392        4393        4494        4493
         4        4393        4394        4495        4494
         4        4394        4395        4496        4495
         4        4395        4396        4497        4496
         4        4396        4397        4498        4497
         4        4397        4398        4499        4498
         4        4398        4399        4500        4499
         4        4399        4400        4501        4500
         4        4400        4401        4502        4501
         4        4401        4402        4503        4502
         4        4402        4403        4504        4503
         4        4403        4404        4505        4504
         4        4404        4405        4506        4505
         4        4405        4406        4507        4506
         4        4406        4407        4508        4507
         4        4407        4408        4509        4508
         4        4408        4409        4510        4509
         4        4409        4410        4511        4510
         4        4410        4411        4512        4511
         4        4411        4412        4513        4512
         4        4412        4413        4514        4513
         4        4413        4414        4515        4514
         4        4414        4415        4516        4515
         4        4415        4416        4517        4516
         4        4416        4417        4518        4517
         4        4417        4418        4519        4518
         4        4418        4419        4520        4519
         4        4419        4420        4521        4520
         4        4420        4421        4522        4521
         4        4421        4422        4523        4522
         4        4422        4423        4524        4523
         4        4423        4424        4525        4524
         4        4424        4425        4526        4525
         4        4425        4426        4527        4526
         4        4426        4427        4528        4527
         4        4427        4428        4529        4528
         4        4428        4429        4530        4529
         4        4429        4430        4531        4530
         4        4430        4431        4532        4531
         4        4431        4432        4533        4532
         4        4432        4433        4534        4533
         4        4433        4434        4535        4534
         4        4434        4435        4536        4535
         4        4435        4436        4537        4536
         4        4436        4437        4538        4537
         4        4437        4438        4539        4538
         4        4438        4439        4540        4539
         4        4439        4440        4541        4540
         4        4440        4441        4542        4541
         4        4441        4442        4543        4542
         4        4442        4443        4544        4543
         4        4444        4445        4546        4545
         4        4445        4446        4547        4546
         4        4446        4447        4548        4547
         4        4447        4448        4549        4548
         4        4448        4449        4550        4549
         4        4449        4450        4551        4550
         4        4450        4451        4552        4551
         4        4451        4452        4553        4552
         4        4452        4453        4554        4553
         4        4453        4454        4555        4554
         4        4454        4455        4556        4555
         4        4455        4456        4557        4556
         4        4456        4457        4558        4557
         4        4457        4458        4559        4558
         4        4458        4459        4560        4559
         4        4459        4460        4561        4560
         4        4460        4461        4562        4561
         4        4461        4462        4563        4562
         4        4462        4463        4564        4563
         4        4463        4464        4565        4564
         4        4464        4465        4566        4565
         4        4465        4466        4567        4566
         4        4466        4467        4568        4567
         4        4467        4468        4569        4568
         4        4468        4469        4570        4569
         4        4469        4470        4571        4570
         4        4470        4471        4572        4571
         4        4471        4472        4573        4572
         4        4472        4473        4574        4573
         4        4473        4474        4575        4574
         4        4474        4475        4576        4575
         4        4475        4476        4577        4576
         4        4476        4477        4578        4577
         4        4477        4478        4579        4578
         4        4478        4479        4580        4579
         4        4479        4480        4581        4580
         4        4480        4481        4582        4581
         4        4481        4482        4583        4582
         4        4482        4483        4584        4583
         4        4483        4484        4585        4584
         4        4484        4485        4586        4585
         4        4485        4486        4587        4586
         4        4486        4487        4588        4587
         4        4487        4488        4589        4588
         4        4488        4489        4590        4589
         4        4489        4490        4591        4590
         4        4490        4491        4592        4591
         4        4491        4492        4593        4592
         4        4492        4493        4594        4593
         4        4493        4494        4595        4594
         4        4494        4495        4596        4595
         4        4495        4496        4597        4596
         4        4496        4497        4598        4597
         4        4497        4498        4599        4598
         4        4498        4499        4600        4599
         4        4499        4500        4601        4600
         4        4500        4501        4602        4601
         4        4501        4502        4603        4602
         4        4502        4503        4604        4603
         4        4503        4504        4605        4604
         4        4504        4505        4606        4605
         4        4505        4506        4607        4606
         4        4506        4507        4608        4607
         4        4507        4508        4609        4608
         4        4508        4509        4610        4609
         4        4509        4510        4611        4610
         4        4510        4511        4612        4611
         4        4511        4512        4613        4612
         4        4512        4513        4614        4613
         4        4513        4514        4615        4614
         4        4514        4515        4616        4615
         4        4515        4516        4617        4616
         4        4516        4517        4618        4617
         4        4517        4518        4619        4618
         4        4518        4519        4620        4619
         4        4519        4520        4621        4620
         4        4520        4521        4622        4621
         4        4521        4522        4623        4622
         4        4522        4523        4624        4623
         4        4523        4524        4625        4624
         4        4524        4525        4626        4625
         4        4525        4526        4627        4626
         4        4526        4527        4628        4627
         4        4527        4528        4629        4628
         4        4528        4529        4630        4629
         4        4529        4530        4631        4630
         4        4530        4531        4632        4631
         4        4531        4532        4633        4632
         4        4532        4533        4634        4633
         4        4533        4534        4635        4634
         4        4534        4535        4636        4635
         4        4535        4536        4637        4636
         4        4536        4537        4638        4637
         4        4537        4538        4639        4638
         4        4538        4539        4640        4639
         4        4539        4540        4641        4640
         4        4540        4541        4642        4641
         4        4541        4542        4643        4642
         4        4542        4543        4644        4643
         4        4543        4544        4645        4644
         4        4545        4546        4647        4646
         4        4546        4547        4648        4647
         4        4547        4548        4649        4648
         4        4548        4549        4650        4649
         4        4549        4550        4651        4650
         4        4550        4551        4652        4651
         4        4551        4552        4653        4652
         4        4552        4553        4654        4653
         4        4553        4554        4655        4654
         4        4554        4555        4656        4655
         4        4555        4556        4657        4656
         4        4556        4557        4658        4657
         4        4557        4558        4659        4658
         4        4558        4559        4660        4659
         4        4559        4560        4661        4660
         4        4560        4561        4662        4661
         4        4561        4562        4663        4662
         4        4562        4563        4664        4663
         4        4563        4564        4665        4664
         4        4564        4565        4666        4665
         4        4565        4566        4667        4666
         4        4566        4567        4668        4667
         4        4567        4568        4669        4668
         4        4568        4569        4670        4669
         4        4569        4570        4671        4670
         4        4570        4571        4672        4671
         4        4571        4572        4673        4672
         4        4572        4573        4674        4673
         4        4573        4574        4675        4674
         4        4574        4575        4676        4675
         4        4575        4576        4677        4676
         4        4576        4577        4678        4677
         4        4577        4578        4679        4678
         4        4578        4579        4680        4679
         4        4579        4580        4681        4680
         4        4580        4581        4682        4681
         4        4581        4582        4683        4682
         4        4582        4583        4684        4683
         4        4583        4584        4685        4684
         4        4584        4585        4686        4685
         4        4585        4586        4687        4686
         4        4586        4587        4688        4687
         4        4587        4588        4689        4688
         4        4588        4589        4690        4689
         4        4589        4590        4691        4690
         4        4590        4591        4692        4691
         4        4591        4592        4693        4692
         4        4592        4593        4694        4693
         4        4593        4594        4695        4694
         4        4594        4595        4696        4695
         4        4595        4596        4697        4696
         4        4596        4597        4698        4697
         4        4597        4598        4699        4698
         4        4598        4599        4700        4699
         4        4599        4600        4701        4700
         4        4600        4601        4702        4701
         4        4601        4602        4703        4702
         4        4602        4603        4704        4703
         4        4603        4604        4705        4704
         4        4604        4605        4706        4705
         4        4605        4606        4707        4706
         4        4606        4607        4708        4707
         4        4607        4608        4709        4708
         4        4608        4609        4710        4709
         4        4609        4610        4711        4710
         4        4610        4611        4712        4711
         4        4611        4612        4713        4712
         4        4612        4613        4714        4713
         4        4613        4614        4715        4714
         4        4614        4615        4716        4715
         4        4615        4616        4717        4716
         4        4616        4617        4718        4717
         4        4617        4618        4719        4718
         4        4618        4619        4720        4719
         4        4619        4620        4721        4720
         4        4620        4621        4722        4721
         4        4621        4622        4723        4722
         4        4622        4623        4724        4723
         4        4623        4624        4725        4724
         4        4624        4625        4726        4725
         4        4625        4626        4727        4726
         4        4626        4627        4728        4727
         4        4627        4628        4729        4728
         4        4628        4629        4730        4729
         4        4629        4630        4731        4730
         4        4630        4631        4732        4731
         4        4631        4632        4733        4732
         4        4632        4633        4734        4733
         4        4633        4634        4735        4734
         4        4634        4635        4736        4735
         4        4635        4636        4737        4736
         4        4636        4637        4738        4737
         4        4637        4638        4739        4738
         4        4638        4639        4740        4739
         4        4639        4640        4741        4740
         4        4640        4641        4742        4741
         4        4641        4642        4743        4742
         4        4642        4643        4744        4743
         4        4643        4644        4745        4744
         4        4644        4645        4746        4745
         4        4646        4647        4748        4747
         4        4647        4648        4749        4748
         4        4648        4649        4750        4749
         4        4649        4650        4751        4750
         4        4650        4651        4752        4751
         4        4651        4652        4753        4752
         4        4652        4653        4754        4753
         4        4653        4654        4755        4754
         4        4654        4655        4756        4755
         4        4655        4656        4757        4756
         4        4656        4657        4758        4757
         4        4657        4658        4759        4758
         4        4658        4659        4760        4759
         4        4659        4660        4761        4760
         4        4660        4661        4762        4761
         4        4661        4662        4763        4762
         4        4662        4663        4764        4763
         4        4663        4664        4765        4764
         4        4664        4665        4766        4765
         4        4665        4666        4767        4766
         4        4666        4667        4768        4767
         4        4667        4668        4769        4768
         4        4668        4669        4770        4769
         4        4669        4670        4771        4770
         4        4670        4671        4772        4771
         4        4671        4672        4773        4772
         4        4672        4673        4774        4773
         4        4673        4674        4775        4774
         4        4674        4675        4776        4775
         4        4675        4676        4777        4776
         4        4676        4677        4778        4777
         4        4677        4678        4779        4778
         4        4678        4679        4780        4779
         4        4679        4680        4781        4780
         4        4680        4681        4782        4781
         4        4681        4682        4783        4782
         4        4682        4683        4784        4783
         4        4683        4684        4785        4784
         4        4684        4685        4786        4785
         4        4685        4686        4787        4786
         4        4686        4687        4788        4787
         4        4687        4688        4789        4788
         4        4688        4689        4790        4789
         4        4689        4690        4791        4790
         4        4690        4691        4792        4791
         4        4691        4692        4793        4792
         4        4692        4693        4794        4793
         4        4693        4694        4795        4794
         4        4694        4695        4796        4795
         4        4695        4696        4797        4796
         4        4696        4697        4798        4797
         4        4697        4698        4799        4798
         4        4698        4699        4800        4799
         4        4699        4700        4801        4800
         4        4700        4701        4802        4801
         4        4701        4702        4803        4802
         4        4702        4703        4804        4803
         4        4703        4704        4805        4804
         4        4704        4705        4806        4805
         4        4705        4706        4807        4806
         4        4706        4707        4808        4807
         4        4707        4708        4809        4808
         4        4708        4709        4810        4809
         4        4709        4710        4811        4810
         4        4710        4711        4812        4811
         4        4711        4712        4813        4812
         4        4712        4713        4814        4813
         4        4713        4714        4815        4814
         4        4714        4715        4816        4815
         4        4715        4716        4817        4816
         4        4716        4717        4818        4817
         4        4717        4718        4819        4818
         4        4718        4719        4820        4819
         4        4719        4720        4821        4820
         4        4720        4721        4822        4821
         4        4721        4722        4823        4822
         4        4722        4723        4824        4823
         4        4723        4724        4825        4824
         4        4724        4725        4826        4825
         4        4725        4726        4827        4826
         4        4726        4727        4828        4827
         4        4727        4728        4829        4828
         4        4728        4729        4830        4829
         4        4729        4730        4831        4830
         4        4730        4731        4832        4831
         4        4731        4732        4833        4832
         4        4732        4733        4834        4833
         4        4733        4734        4835        4834
         4        4734        4735        4836        4835
         4        4735        4736        4837        4836
         4        4736        4737        4838        4837
         4        4737        4738        4839        4838
         4        4738        4739        4840        4839
         4        4739        4740        4841        4840
         4        4740        4741        4842        4841
         4        4741        4742        4843        4842
         4        4742        4743        4844        4843
         4        4743        4744        4845        4844
         4        4744        4745        4846        4845
         4        4745        4746        4847        4846
         4        4747        4748        4849        4848
         4        4748        4749        4850        4849
         4        4749        4750        4851        4850
         4        4750        4751        4852        4851
         4        4751        4752        4853        4852
         4        4752        4753        4854        4853
         4        4753        4754        4855        4854
         4        4754        4755        4856        4855
         4        4755        4756        4857        4856
         4        4756        4757        4858        4857
         4        4757        4758        4859        4858
         4        4758        4759        4860        4859
         4        4759        4760        4861        4860
         4        4760        4761        4862        4861
         4        4761        4762        4863        4862
         4        4762        4763        4864        4863
         4        4763        4764        4865        4864
         4        4764        4765        4866        4865
         4        4765        4766        4867        4866
         4        4766        4767        4868        4867
         4        4767        4768        4869        4868
         4        4768        4769        4870        4869
         4        4769        4770        4871        4870
         4        4770        4771        4872        4871
         4        4771        4772        4873        4872
         4        4772        4773        4874        4873
         4        4773        4774        4875        4874
         4        4774        4775        4876        4875
         4        4775        4776        4877        4876
         4        4776        4777        4878        4877
         4        4777        4778        4879        4878
         4        4778        4779        4880        4879
         4        4779        4780        4881        4880
         4        4780        4781        4882        4881
         4        4781        4782        4883        4882
         4        4782        4783        4884        4883
         4        4783        4784        4885        4884
         4        4784        4785        4886        4885
         4        4785        4786        4887        4886
         4        4786        4787        4888        4887
         4        4787        4788        4889        4888
         4        4788        4789        4890        4889
         4        4789        4790        4891        4890
         4        4790        4791        4892        4891
         4        4791        4792        4893        4892
         4        4792        4793        4894        4893
         4        4793        4794        4895        4894
         4        4794        4795        4896        4895
         4        4795        4796        4897        4896
         4        4796        4797        4898        4897
         4        4797        4798        4899        4898
         4        4798        4799        4900        4899
         4        4799        4800        4901        4900
         4        4800        4801        4902        4901
         4        4801        4802        4903        4902
         4        4802        4803        4904        4903
         4        4803        4804        4905        4904
         4        4804        4805        4906        4905
         4        4805        4806        4907        4906
         4        4806        4807        4908        4907
         4        4807        4808        4909        4908
         4        4808        4809        4910        4909
         4        4809        4810        4911        4910
         4        4810        4811        4912        4911
         4        4811        4812        4913        4912
         4        4812        4813        4914        4913
         4        4813        4814        4915        4914
         4        4814        4815        4916        4915
         4        4815        4816        4917        4916
         4        4816        4817        4918        4917
         4        4817        4818        4919        4918
         4        4818        4819        4920        4919
         4        4819        4820        4921        4920
         4        4820        4821        4922        4921
         4        4821        4822        4923        4922
         4        4822        4823        4924        4923
         4        4823        4824        4925        4924
         4        4824        4825        4926        4925
         4        4825        4826        4927        4926
         4        4826        4827        4928        4927
         4        4827        4828        4929        4928
         4        4828        4829        4930        4929
         4        4829        4830        4931        4930
         4        4830        4831        4932        4931
         4        4831        4832        4933        4932
         4        4832        4833        4934        4933
         4        4833        4834        4935        4934
         4        4834        4835        4936        4935
         4        4835        4836        4937        4936
         4        4836        4837        4938        4937
         4        4837        4838        4939        4938
         4        4838        4839        4940        4939
         4        4839        4840        4941        4940
         4        4840        4841        4942        4941
         4        4841        4842        4943        4942
         4        4842        4843        4944        4943
         4        4843        4844        4945        4944
         4        4844        4845        4946        4945
         4        4845        4846        4947        4946
         4        4846        4847        4948        4947
         4        4848        4849        4950        4949
         4        4849        4850        4951        4950
         4        4850        4851        4952        4951
         4        4851        4852        4953        4952
         4        4852        4853        4954        4953
         4        4853        4854        4955        4954
         4        4854        4855        4956        4955
         4        4855        4856        4957        4956
         4        4856        4857        4958        4957
         4        4857        4858        4959        4958
         4        4858        4859        4960        4959
         4        4859        4860        4961        4960
         4        4860        4861        4962        4961
         4        4861        4862        4963        4962
         4        4862        4863        4964        4963
         4        4863        4864        4965        4964
         4        4864        4865        4966        4965
         4        4865        4866        4967        4966
         4        4866        4867        4968        4967
         4        4867        4868        4969        4968
         4        4868        4869        4970        4969
         4        4869        4870        4971        4970
         4        4870        4871        4972        4971
         4        4871        4872        4973        4972
         4        4872        4873        4974        4973
         4        4873        4874        4975        4974
         4        4874        4875        4976        4975
         4        4875        4876        4977        4976
         4        4876        4877        4978        4977
         4        4877        4878        4979        4978
         4        4878        4879        4980        4979
         4        4879        4880        4981        4980
         4        4880        4881        4982        4981
         4        4881        4882        4983        4982
         4        4882        4883        4984        4983
         4        4883        4884        4985        4984
         4        4884        4885        4986        4985
         4        4885        4886        4987        4986
         4        4886        4887        4988        4987
         4        4887        4888        4989        4988
         4        4888        4889        4990        4989
         4        4889        4890        4991        4990
         4        4890        4891        4992        4991
         4        4891        4892        4993        4992
         4        4892        4893        4994        4993
         4        4893        4894        4995        4994
         4        4894        4895        4996        4995
         4        4895        4896        4997        4996
         4        4896        4897        4998        4997
         4        4897        4898        4999        4998
         4        4898        4899        5000        4999
         4        4899        4900        5001        5000
         4        4900        4901        5002        5001
         4        4901        4902        5003        5002
         4        4902        4903        5004        5003
         4        4903        4904        5005        5004
         4        4904        4905        5006        5005
         4        4905        4906        5007        5006
         4        4906        4907        5008        5007
         4        4907        4908        5009        5008
         4        4908        4909        5010        5009
         4        4909        4910        5011        5010
         4        4910        4911        5012        5011
         4        4911        4912        5013        5012
         4        4912        4913        5014        5013
         4        4913        4914        5015        5014
         4        4914        4915        5016        5015
         4        4915        4916        5017        5016
         4        4916        4917        5018        5017
         4        4917        4918        5019        5018
         4        4918        4919        5020        5019
         4        4919        4920        5021        5020
         4        4920        4921        5022        5021
         4        4921        4922        5023        5022
         4        4922        4923        5024        5023
         4        4923        4924        5025        5024
         4        4924        4925        5026        5025
         4        4925        4926        5027        5026
         4        4926        4927        5028        5027
         4        4927        4928        5029        5028
         4        4928        4929        5030        5029
         4        4929        4930        5031        5030
         4        4930        4931        5032        5031
         4        4931        4932        5033        5032
         4        4932        4933        5034        5033
         4        4933        4934        5035        5034
         4        4934        4935        5036        5035
         4        4935        4936        5037        5036
         4        4936        4937        5038        5037
         4        4937        4938        5039        5038
         4        4938        4939        5040        5039
         4        4939        4940        5041        5040
         4        4940        4941        5042        5041
         4        4941        4942        5043        5042
         4        4942        4943        5044        5043
         4        4943        4944        5045        5044
         4        4944        4945        5046        5045
         4        4945        4946        5047        5046
         4        4946        4947        5048        5047
         4        4947        4948        5049        5048
         4        4949        4950        5051        5050
         4        4950        4951        5052        5051
         4        4951        4952        5053        5052
         4        4952        4953        5054        5053
         4        4953        4954        5055        5054
         4        4954        4955        5056        5055
         4        4955        4956        5057        5056
         4        4956        4957        5058        5057
         4        4957        4958        5059        5058
         4        4958        4959        5060        5059
         4        4959        4960        5061        5060
         4        4960        4961        5062        5061
         4        4961        4962        5063        5062
         4        4962        4963        5064        5063
         4        4963        4964        5065        5064
         4        4964        4965        5066        5065
         4        4965        4966        5067        5066
         4        4966        4967        5068        5067
         4        4967        4968        5069        5068
         4        4968        4969        5070        5069
         4        4969        4970        5071        5070
         4        4970        4971        5072        5071
         4        4971        4972        5073        5072
         4        4972        4973        5074        5073
         4        4973        4974        5075        5074
         4        4974        4975        5076        5075
         4        4975        4976        5077        5076
         4        4976        4977        5078        5077
         4        4977        4978        5079        5078
         4        4978        4979        5080        5079
         4        4979        4980        5081        5080
         4        4980        4981        5082        5081
         4        4981        4982        5083        5082
         4        4982        4983        5084        5083
         4        4983        4984        5085        5084
         4        4984        4985        5086        5085
         4        4985        4986        5087        5086
         4        4986        4987        5088        5087
         4        4987        4988        5089        5088
         4        4988        4989        5090        5089
         4        4989        4990        5091        5090
         4        4990        4991        5092        5091
         4        4991        4992        5093        5092
         4        4992        4993        5094        5093
         4        4993        4994        5095        5094
         4        4994        4995        5096        5095
         4        4995        4996        5097        5096
         4        4996        4997        5098        5097
         4        4997        4998        5099        5098
         4        4998        4999        5100        5099
         4        4999        5000        5101        5100
         4        5000        5001        5102        5101
         4        5001        5002        5103        5102
         4        5002        5003        5104        5103
         4        5003        5004        5105        5104
         4        5004        5005        5106        5105
         4        5005        5006        5107        5106
         4        5006        5007        5108        5107
         4        5007        5008        5109        5108
         4        5008        5009        5110        5109
         4        5009        5010        5111        5110
         4        5010        5011        5112        5111
         4        5011        5012        5113        5112
         4        5012        5013        5114        5113
         4        5013        5014        5115        5114
         4        5014        5015        5116        5115
         4        5015        5016        5117        5116
         4        5016        5017        5118        5117
         4        5017        5018        5119        5118
         4        5018        5019        5120        5119
         4        5019        5020        5121        5120
         4        5020        5021        5122        5121
         4        5021        5022        5123        5122
         4        5022        5023        5124        5123
         4        5023        5024        5125        5124
         4        5024        5025        5126        5125
         4        5025        5026        5127        5126
         4        5026        5027        5128        5127
         4        5027        5028        5129        5128
         4        5028        5029        5130        5129
         4        5029        5030        5131        5130
         4        5030        5031        5132        5131
         4        5031        5032        5133        5132
         4        5032        5033        5134        5133
         4        5033        5034        5135        5134
         4        5034        5035        5136        5135
         4        5035        5036        5137        5136
         4        5036        5037        5138        5137
         4        5037        5038        5139        5138
         4        5038        5039        5140        5139
         4        5039        5040        5141        5140
         4        5040        5041        5142        5141
         4        5041        5042        5143        5142
         4        5042        5043        5144        5143
         4        5043        5044        5145        5144
         4        5044        5045        5146        5145
         4        5045        5046        5147        5146
         4        5046        5047        5148        5147
         4        5047        5048        5149        5148
         4        5048        5049        5150        5149
CELL_TYPES       5000
9
9
9
9
9
9
9
9
9
9
9
9
9
9
9
9
9
9
9
9
9
9
9
9
9
9
9
9
9
9
9
9
9
9
9
9
9
9
9
9
9
9
9
9
9
9
9
9
9
9
9
9
9
9
9
9
9
9
9
9
9
9
9
9
9
9
9
9
9
9
9
9
9
9
9
9
9
9
9
9
9
9
9
9
9
9
9
9
9
9
9
9
9
9
9
9
9
9
9
9
9
9
9
9
9
9
9
9
9
9
9
9
9
9
9
9
9
9
9
9
9
9
9
9
9
9
9
9
9
9
9
9
9
9
9
9
9
9
9
9
9
9
9
9
9
9
9
9
9
9
9
9
9
9
9
9
9
9
9
9
9
9
9
9
9
9
9
9
9
9
9
9
9
9
9
9
9
9
9
9
9
9
9
9
9
9
9
9
9
9
9
9
9
9
9
9
9
9
9
9
9
9
9
9
9
9
9
9
9
9
9
9
9
9
9
9
9
9
9
9
9
9
9
9
9
9
9
9
9
9
9
9
9
9
9
9
9
9
9
9
9
9
9
9
9
9
9
9
9
9
9
9
9
9
9
9
9
9
9
9
9
9
9
9
9
9
9
9
9
9
9
9
9
9
9
9
9
9
9
9
9
9
9
9
9
9
9
9
9
9
9
9
9
9
9
9
9
9
9
9
9
9
9
9
9
9
9
9
9
9
9
9
9
9
9
9
9
9
9
9
9
9
9
9
9
9
9
9
9
9
9
9
9
9
9
9
9
9
9
9
9
9
9
9
9
9
9
9
9
9
9
9
9
9
9
9
9
9
9
9
9
9
9
9
9
9
9
9
9
9
9
9
9
9
9
9
9
9
9
9
9
9
9
9
9
9
9
9
9
9
9
9
9
9
9
9
9
9
9
9
9
9
9
9
9
9
9
9
9
9
9
9
9
9
9
9
9
9
9
9
9
9
9
9
9
9
9
9
9
9
9
9
9
9
9
9
9
9
9
9
9
9
9
9
9
9
9
9
9
9
9
9
9
9
9
9
9
9
9
9
9
9
9
9
9
9
9
9
9
9
9
9
9
9
9
9
9
9
9
9
9
9
9
9
9
9
9
9
9
9
9
9
9
9
9
9
9
9
9
9
9
9
9
9
9
9
9
9
9
9
9
9
9
9
9
9
9
9
9
9
9
9
9
9
9
9
9
9
9
9
9
9
9
9
9
9
9
9
9
9
9
9
9
9
9
9
9
9
9
9
9
9
9
9
9
9
9
9
9
9
9
9
9
9
9
9
9
9
9
9
9
9
9
9
9
9
9
9
9
9
9
9
9
9
9
9
9
9
9
9
9
9
9
9
9
9
9
9
9
9
9
9
9
9
9
9
9
9
9
9
9
9
9
9
9
9
9
9
9
9
9
9
9
9
9
9
9
9
9
9
9
9
9
9
9
9
9
9
9
9
9
9
9
9
9
9
9
9
9
9
9
9
9
9
9
9
9
9
9
9
9
9
9
9
9
9
9
9
9
9
9
9
9
9
9
9
9
9
9
9
9
9
9
9
9
9
9
9
9
9
9
9
9
9
9
9
9
9
9
9
9
9
9
9
9
9
9
9
9
9
9
9
9
9
9
9
9
9
9
9
9
9
9
9
9
9
9
9
9
9
9
9
9
9
9
9
9
9
9
9
9
9
9
9
9
9
9
9
9
9
9
9
9
9
9
9
9
9
9
9
9
9
9
9
9
9
9
9
9
9
9
9
9
9
9
9
9
9
9
9
9
9
9
9
9
9
9
9
9
9
9
9
9
9
9
9
9
9
9
9
9
9
9
9
9
9
9
9
9
9
9
9
9
9
9
9
9
9
9
9
9
9
9
9
9
9
9
9
9
9
9
9
9
9
9
9
9
9
9
9
9
9
9
9
9
9
9
9
9
9
9
9
9
9
9
9
9
9
9
9
9
9
9
9
9
9
9
9
9
9
9
9
9
9
9
9
9
9
9
9
9
9
9
9
9
9
9
9
9
9
9
9
9
9
9
9
9
9
9
9
9
9
9
9
9
9
9
9
9
9
9
9
9
9
9
9
9
9
9
9
9
9
9
9
9
9
9
9
9
9
9
9
9
9
9
9
9
9
9
9
9
9
9
9
9
9
9
9
9
9
9
9
9
9
9
9
9
9
9
9
9
9
9
9
9
9
9
9
9
9
9
9
9
9
9
9
9
9
9
9
9
9
9
9
9
9
9
9
9
9
9
9
9
9
9
9
9
9
9
9
9
9
9
9
9
9
9
9
9
9
9
9
9
9
9
9
9
9
9
9
9
9
9
9
9
9
9
9
9
9
9
9
9
9
9
9
9
9
9
9
9
9
9
9
9
9
9
9
9
9
9
9
9
9
9
9
9
9
9
9
9
9
9
9
9
9
9
9
9
9
9
9
9
9
9
9
9
9
9
9
9
9
9
9
9
9
9
9
9
9
9
9
9
9
9
9
9
9
9
9
9
9
9
9
9
9
9
9
9
9
9
9
9
9
9
9
9
9
9
9
9
9
9
9
9
9
9
9
9
9
9
9
9
9
9
9
9
9
9
9
9
9
9
9
9
9
9
9
9
9
9
9
9
9
9
9
9
9
9
9
9
9
9
9
9
9
9
9
9
9
9
9
9
9
9
9
9
9
9
9
9
9
9
9
9
9
9
9
9
9
9
9
9
9
9
9
9
9
9
9
9
9
9
9
9
9
9
9
9
9
9
9
9
9
9
9
9
9
9
9
9
9
9
9
9
9
9
9
9
9
9
9
9
9
9
9
9
9
9
9
9
9
9
9
9
9
9
9
9
9
9
9
9
9
9
9
9
9
9
9
9
9
9
9
9
9
9
9
9
9
9
9
9
9
9
9
9
9
9
9
9
9
9
9
9
9
9
9
9
9
9
9
9
9
9
9
9
9
9
9
9
9
9
9
9
9
9
9
9
9
9
9
9
9
9
9
9
9
9
9
9
9
9
9
9
9
9
9
9
9
9
9
9
9
9
9
9
9
9
9
9
9
9
9
9
9
9
9
9
9
9
9
9
9
9
9
9
9
9
9
9
9
9
9
9
9
9
9
9
9
9
9
9
9
9
9
9
9
9
9
9
9
9
9
9
9
9
9
9
9
9
9
9
9
9
9
9
9
9
9
9
9
9
9
9
9
9
9
9
9
9
9
9
9
9
9
9
9
9
9
9
9
9
9
9
9
9
9
9
9
9
9
9
9
9
9
9
9
9
9
9
9
9
9
9
9
9
9
9
9
9
9
9
9
9
9
9
9
9
9
9
9
9
9
9
9
9
9
9
9
9
9
9
9
9
9
9
9
9
9
9
9
9
9
9
9
9
9
9
9
9
9
9
9
9
9
9
9
9
9
9
9
9
9
9
9
9
9
9
9
9
9
9
9
9
9
9
9
9
9
9
9
9
9
9
9
9
9
9
9
9
9
9
9
9
9
9
9
9
9
9
9
9
9
9
9
9
9
9
9
9
9
9
9
9
9
9
9
9
9
9
9
9
9
9
9
9
9
9
9
9
9
9
9
9
9
9
9
9
9
9
9
9
9
9
9
9
9
9
9
9
9
9
9
9
9
9
9
9
9
9
9
9
9
9
9
9
9
9
9
9
9
9
9
9
9
9
9
9
9
9
9
9
9
9
9
9
9
9
9
9
9
9
9
9
9
9
9
9
9
9
9
9
9
9
9
9
9
9
9
9
9
9
9
9
9
9
9
9
9
9
9
9
9
9
9
9
9
9
9
9
9
9
9
9
9
9
9
9
9
9
9
9
9
9
9
9
9
9
9
9
9
9
9
9
9
9
9
9
9
9
9
9
9
9
9
9
9
9
9
9
9
9
9
9
9
9
9
9
9
9
9
9
9
9
9
9
9
9
9
9
9
9
9
9
9
9
9
9
9
9
9
9
9
9
9
9
9
9
9
9
9
9
9
9
9
9
9
9
9
9
9
9
9
9
9
9
9
9
9
9
9
9
9
9
9
9
9
9
9
9
9
9
9
9
9
9
9
9
9
9
9
9
9
9
9
9
9
9
9
9
9
9
9
9
9
9
9
9
9
9
9
9
9
9
9
9
9
9
9
9
9
9
9
9
9
9
9
9
9
9
9
9
9
9
9
9
9
9
9
9
9
9
9
9
9
9
9
9
9
9
9
9
9
9
9
9
9
9
9
9
9
9
9
9
9
9
9
9
9
9
9
9
9
9
9
9
9
9
9
9
9
9
9
9
9
9
9
9
9
9
9
9
9
9
9
9
9
9
9
9
9
9
9
9
9
9
9
9
9
9
9
9
9
9
9
9
9
9
9
9
9
9
9
9
9
9
9
9
9
9
9
9
9
9
9
9
9
9
9
9
9
9
9
9
9
9
9
9
9
9
9
9
9
9
9
9
9
9
9
9
9
9
9
9
9
9
9
9
9
9
9
9
9
9
9
9
9
9
9
9
9
9
9
9
9
9
9
9
9
9
9
9
9
9
9
9
9
9
9
9
9
9
9
9
9
9
9
9
9
9
9
9
9
9
9
9
9
9
9
9
9
9
9
9
9
9
9
9
9
9
9
9
9
9
9
9
9
9
9
9
9
9
9
9
9
9
9
9
9
9
9
9
9
9
9
9
9
9
9
9
9
9
9
9
9
9
9
9
9
9
9
9
9
9
9
9
9
9
9
9
9
9
9
9
9
9
9
9
9
9
9
9
9
9
9
9
9
9
9
9
9
9
9
9
9
9
9
9
9
9
9
9
9
9
9
9
9
9
9
9
9
9
9
9
9
9
9
9
9
9
9
9
9
9
9
9
9
9
9
9
9
9
9
9
9
9
9
9
9
9
9
9
9
9
9
9
9
9
9
9
9
9
9
9
9
9
9
9
9
9
9
9
9
9
9
9
9
9
9
9
9
9
9
9
9
9
9
9
9
9
9
9
9
9
9
9
9
9
9
9
9
9
9
9
9
9
9
9
9
9
9
9
9
9
9
9
9
9
9
9
9
9
9
9
9
9
9
9
9
9
9
9
9
9
9
9
9
9
9
9
9
9
9
9
9
9
9
9
9
9
9
9
9
9
9
9
9
9
9
9
9
9
9
9
9
9
9
9
9
9
9
9
9
9
9
9
9
9
9
9
9
9
9
9
9
9
9
9
9
9
9
9
9
9
9
9
9
9
9
9
9
9
9
9
9
9
9
9
9
9
9
9
9
9
9
9
9
9
9
9
9
9
9
9
9
9
9
9
9
9
9
9
9
9
9
9
9
9
9
9
9
9
9
9
9
9
9
9
9
9
9
9
9
9
9
9
9
9
9
9
9
9
9
9
9
9
9
9
9
9
9
9
9
9
9
9
9
9
9
9
9
9
9
9
9
9
9
9
9
9
9
9
9
9
9
9
9
9
9
9
9
9
9
9
9
9
9
9
9
9
9
9
9
9
9
9
9
9
9
9
9
9
9
9
9
9
9
9
9
9
9
9
9
9
9
9
9
9
9
9
9
9
9
9
9
9
9
9
9
9
9
9
9
9
9
9
9
9
9
9
9
9
9
9
9
9
9
9
9
9
9
9
9
9
9
9
9
9
9
9
9
9
9
9
9
9
9
9
9
9
9
9
9
9
9
9
9
9
9
9
9
9
9
9
9
9
9
9
9
9
9
9
9
9
9
9
9
9
9
9
9
9
9
9
9
9
9
9
9
9
9
9
9
9
9
9
9
9
9
9
9
9
9
9
9
9
9
9
9
9
9
9
9
9
9
9
9
9
9
9
9
9
9
9
9
9
9
9
9
9
9
9
9
9
9
9
9
9
9
9
9
9
9
9
9
9
9
9
9
9
9
9
9
9
9
9
9
9
9
9
9
9
9
9
9
9
9
9
9
9
9
9
9
9
9
9
9
9
9
9
9
9
9
9
9
9
9
9
9
9
9
9
9
9
9
9
9
9
9
9
9
9
9
9
9
9
9
9
9
9
9
9
9
9
9
9
9
9
9
9
9
9
9
9
9
9
9
9
9
9
9
9
9
9
9
9
9
9
9
9
9
9
9
9
9
9
9
9
9
9
9
9
9
9
9
9
9
9
9
9
9
9
9
9
9
9
9
9
9
9
9
9
9
9
9
9
9
9
9
9
9
9
9
9
9
9
9
9
9
9
9
9
9
9
9
9
9
9
9
9
9
9
9
9
9
9
9
9
9
9
9
9
9
9
9
9
9
9
9
9
9
9
9
9
9
9
9
9
9
9
9
9
9
9
9
9
9
9
9
9
9
9
9
9
9
9
9
9
9
9
9
9
9
9
9
9
9
9
9
9
9
9
9
9
9
9
9
9
9
9
9
9
9
9
9
9
9
9
9
9
9
9
9
9
9
9
9
9
9
9
9
9
9
9
9
9
9
9
9
9
9
9
9
9
9
9
9
9
9
9
9
9
9
9
9
9
9
9
9
9
9
9
9
9
9
9
9
9
9
9
9
9
9
9
9
9
9
9
9
9
9
9
9
9
9
9
9
9
9
9
9
9
9
9
9
9
9
9
9
9
9
9
9
9
9
9
9
9
9
9
9
9
9
9
9
9
9
9
9
9
9
9
9
9
9
9
9
9
9
9
9
9
9
9
9
9
9
9
9
9
9
9
9
9
9
9
9
9
9
9
9
9
9
9
9
9
9
9
9
9
9
9
9
9
9
9
9
9
9
9
9
9
9
9
9
9
9
9
9
9
9
9
9
9
9
9
9
9
9
9
9
9
9
9
9
9
9
9
9
9
9
9
9
9
9
9
9
9
9
9
9
9
9
9
9
9
9
9
9
9
9
9
9
9
9
9
9
9
9
9
9
9
9
9
9
9
9
9
9
9
9
9
9
9
9
9
9
9
9
9
9
9
9
9
9
9
9
9
9
9
9
9
9
9
9
9
9
9
9
9
9
9
9
9
9
9
9
9
9
9
9
9
9
9
9
9
9
9
9
9
9
9
9
9
9
9
9
9
9
9
9
9
9
9
9
9
9
9
9
9
9
9
9
9
9
9
9
9
9
9
9
9
9
9
9
9
9
9
9
9
9
9
9
9
9
9
9
9
9
9
9
9
9
9
9
9
9
9
9
9
9
9
9
9
9
9
9
9
9
9
9
9
9
9
9
9
9
9
9
9
9
9
9
9
9
9
9
9
9
9
9
9
9
9
9
9
9
9
9
9
9
9
9
9
9
9
9
9
9
9
9
9
9
9
9
9
9
9
9
9
9
9
9
9
9
9
9
9
9
9
9
9
9
9
9
9
9
9
9
9
9
9
9
9
9
9
9
9
9
9
9
9
9
9
9
9
9
9
9
9
9
9
9
9
9
9
9
9
9
9
9
9
9
9
9
9
9
9
9
9
9
9
9
9
9
9
9
9
9
9
9
9
9
9
9
9
9
9
9
9
9
9
9
9
9
9
9
9
9
9
9
9
9
9
9
9
9
9
9
9
9
9
9
9
9
9
9
9
9
9
9
9
9
9
9
9
9
9
9
9
9
9
9
9
9
9
9
9
9
9
9
9
9
9
9
9
9
9
9
9
9
9
9
9
9
9
9
9
9
9
9
9
9
9
9
9
9
9
9
9
9
9
9
9
9
9
9
9
9
9
9
9
9
9
9
9
9
9
9
9
9
9
9
9
9
9
9
9
9
9
9
9
9
9
9
9
9
9
9
9
9
9
9
9
9
9
9
9
9
9
9
9
9
9
9
9
9
9
9
9
9
9
9
9
9
9
9
9
9
9
9
9
9
9
9
9
9
9
9
9
9
9
9
9
9
9
9
9
9
9
9
9
9
9
9
9
9
9
9
9
9
9
9
9
9
9
9
9
9
9
9
9
9
9
9
9
9
9
9
9
9
9
9
9
9
9
9
9
9
9
9
9
9
9
9
9
9
9
9
9
9
9
9
9
9
9
9
9
9
9
9
9
9
9
9
9
9
9
9
9
9
9
9
9
9
9
9
9
9
9
9
9
9
9
9
9
9
9
9
9
9
9
9
9
9
9
9
9
9
9
9
9
9
9
9
9
9
9
9
9
9
9
9
9
9
9
9
9
9
9
9
9
9
9
9
9
9
9
9
9
9
9
9
9
9
9
9
9
9
9
9
9
9
9
9
9
9
9
9
9
9
9
9
9
9
9
9
9
9
9
9
9
9
9
9
9
9
9
9
9
9
9
9
9
9
9
9
9
9
9
9
9
9
9
9
9
9
9
9
9
9
9
9
9
9
9
9
9
9
9
9
9
9
9
9
9
9
9
9
9
9
9
9
9
9
9
9
9
9
9
9
9
9
9
9
9
9
9
9
9
9
9
9
9
9
9
9
9
9
9
9
9
9
9
9
9
9
9
9
9
9
9
9
9
9
9
9
9
9
9
9
9
9
9
9
9
9
9
9
9
9
9
9
9
9
9
9
9
9
9
9
9
9
9
9
9
9
9
9
9
9
9
9
9
9
9
9
9
9
9
9
9
9
9
9
9
9
9
9
9
9
9
9
9
9
9
9
9
9
9
9
9
9
9
9
9
9
9
9
9
9
9
9
9
9
9
9
9
9
9
9
9
9
9
9
9
9
9
9
9
9
9
9
9
9
9
9
9
9
9
9
9
9
9
9
9
9
9
9
9
9
9
9
9
9
9
9
9
9
9
9
9
9
9
9
9
9
9
9
9
9
9
9
9
9
9
9
9
9
9
9
9
9
9
9
9
9
9
9
9
9
9
9
9
9
9
9
9
9
9
9
9
9
9
9
9
9
9
9
9
9
9
9
9
9
9
9
9
9
9
9
9
9
9
9
9
9
9
9
9
9
9
9
9
9
9
9
9
9
9
9
9
9
9
9
9
9
9
9
9
9
9
9
9
9
9
9
9
9
9
9
9
9
9
9
9
9
9
9
9
9
9
9
9
9
9
9
9
9
9
9
9
9
9
9
9
9
9
9
9
9
9
9
9
9
9
9
9
9
9
9
9
9
9
9
9
9
9
9
9
9
9
9
9
9
9
9
9
9
9
9
9
9
9
9
9
9
9
9
9
9
9
9
9
9
9
9
9
9
9
9
9
9
9
9
9
9
9
9
9
9
9
9
9
9
9
9
9
9
9
9
9
9
9
9
9
9
9
9
9
9
9
9
9
9
9
9
9
9
9
9
9
9
9
9
9
9
9
9
9
9
9
9
9
9
9
9
9
9
9
9
9
9
9
9
9
9
9
9
9
9
9
9
9
9
9
9
9
9
9
9
9
9
9
9
9
9
9
9
9
9
9
9
9
9
9
9
9
9
9
9
9
9
9
9
9
9
9
9
9
9
9
9
9
9
9
9
9
9
9
9
9
9
9
9
9
9
9
9
9
9
9
9
9
9
9
9
9
9
9
9
9
9
9
9
9
9
9
9
9
9
9
9
9
9
9
9
9
9
9
9
9
9
9
9
9
9
9
9
9
9
9
9
9
9
9
9
9
9
9
9
9
9
9
9
9
9
9
9
9
9
9
9
9
9
9
9
9
9
9
9
9
9
9
9
9
9
9
9
9
9
9
9
9
9
9
9
9
9
9
9
9
9
9
9
9
9
9
9
9
9
9
9
9
9
9
9
9
9
9
9
9
9
9
9
9
9
9
9
9
9
9
9
9
9
9
9
9
9
9
9
9
9
9
9
9
9
9
9
9
9
9
9
9
9
9
9
9
9
9
9
9
9
9
9
9
9
9
9
9
9
9
9
9
9
9
9
9
9
9
9
9
9
9
9
9
9
9
9
9
9
9
9
9
9
9
9
9
9
9
9
9
9
9
9
9
9
9
9
9
9
9
9
9
9
9
9
9
9
9
9
9
9
9
9
9
9
9
9
9
9
9
9
9
9
9
9
9
9
9
9
9
9
9
9
9
9
9
9
9
9
9
9
9
9
9
9
9
9
9
9
9
9
9
9
9
9
9
9
9
9
9
9
9
9
9
9
9
9
9
9
9
9
9
9
9
9
9
9
9
9
9
9
9
9
9
9
9
9
9
9
9
9
9
9
9
9
9
9
9
9
9
9
9
9
9
9
9
9
9
9
9
9
9
9
9
9
9
9
9
9
9
9
9
9
9
9
9
9
9
9
9
9
9
9
9
9
9
9
9
9
9
9
9
9
9
9
9
9
9
9
9
9
9
9
9
9
9
9
9
9
9
9
9
9
9
9
9
9
9
9
9
9
9
9
9
9
9
9
9
9
9
9
9
9
9
9
9
9
9
9
9
9
9
9
9
9
9
9
9
9
9
9
9
9
9
9
9
9
9
9
9
9
9
9
9
9
9
9
9
9
9
9
9
9
9
9
9
9
9
9
9
9
9
9
9
9
9
9
9
9
9
9
9
9
9
9
9
9
9
9
9
9
9
9
9
9
9
9
9
9
9
9
9
9
9
9
9
9
9
9
9
9
9
9
9
9
9
9
9
9
9
9
9
9
9
9
9
9
9
9
9
9
9
9
9
9
9
9
9
9
9
9
9
9
9
9
9
9
9
9
9
9
9
9
9
9
9
9
9
9
9
9
9
9
9
9
9
9
9
9
9
9
9
9
9
9
9
9
9
9
9
9
9
9
9
9
9
9
9
9
9
9
9
9
9
9
9
9
9
9
9
9
9
9
9
9
9
9
9
9
9
9
9
9
9
9
9
9
9
9
9
9
9
9
9
9
9
9
9
9
9
9
9
9
9
9
9
9
9
9
9
9
9
9
9
9
9
9
9
9
9
9
9
9
9
9
9
9
9
9
9
9
9
9
9
9
9
9
9
9
9
9
9
9
9
9
9
9
9
9
9
9
9
9
9
9
9
9
9
9
9
9
9
9
9
9
9
9
9
9
9
9
9
9
9
9
9
9
9
9
9
9
9
9
9
9
9
9
9
9
9
9
9
9
9
9
9
9
9
9
9
9
9
9
9
9
9
9
9
9
9
9
9
9
9
9
9
9
9
9
9
9
9
9
9
9
9
9
9
9
9
9
9
9
9
9
9
9
9
9
9
9
9
9
9
9
9
9
9
9
9
9
9
9
9
9
9
9
9
9
9
9
9
9
9
9
9
9
9
9
9
9
9
9
9
9
9
9
9
9
9
9
9
9
9
9
9
9
9
9
9
9
9
9
9
9
9
9
9
9
9
9
9
9
9
9
9
9
9
9
9
9
9
9
9
9
9
9
9
9
9
9
9
9
9
9
9
9
9
9
9
9
9
9
9
9
9
9
9
9
9
9
9
9
9
9
9
9
9
9
9
9
9
9
9
9
9
9
POINT_DATA      5151
SCALARS p double 
LOOKUP_TABLE default
   70000000.0000000     
   69585712.5535499     
   69171610.0215215     
   68757875.8746020     
   68344690.8207025     
   67932231.6442557     
   67520670.1953332     
   67110172.5156702     
   66700898.0896421     
   66292999.2091224     
   65886620.4419812     
   65481898.1947599     
   65078960.3607761     
   64677926.0455892     
   64278905.3623828     
   63881999.2904068     
   63487299.5901667     
   63094888.7695554     
   62704840.0955967     
   62317217.6469063     
   61932076.4023912     
   61549462.3620833     
   61169412.6963606     
   60791955.9201356     
   60417112.0888980     
   60044893.0137788     
   59675302.4930710     
   59308336.5578781     
   58943983.7297937     
   58582225.2887214     
   58223035.5491368     
   57866382.1432742     
   57512226.3098820     
   57160523.1873467     
   56811222.1101220     
   56464266.9075315     
   56119596.2041276     
   55777143.7209032     
   55436838.5767473     
   55098605.5896300     
   54762365.5770830     
   54428035.6556173     
   54095529.5387892     
   53764757.8336844     
   53435628.3356478     
   53108046.3211334     
   52781914.8385929     
   52457134.9973601     
   52133606.2545197     
   51811226.6997769     
   51489893.3383669     
   51169502.3720647     
   50849949.4783647     
   50531130.0879118     
   50212939.6602706     
   49895273.9581213     
   49578029.3199637     
   49261102.9314070     
   48944393.0951109     
   48627799.4994246     
   48311223.4857525     
   47994568.3146500     
   47677739.4306210     
   47360644.7255588     
   47043194.8007268     
   46725303.2271371     
   46406886.8041295     
   46087865.8159037     
   45768164.2856895     
   45447710.2271776     
   45126435.8927563     
   44804278.0180172     
   44481178.0619064     
   44157082.4417973     
   43831942.7626587     
   43505716.0393751     
   43178364.9111516     
   42849857.8468012     
   42520169.3395690     
   42189280.0899849     
   41857177.1750719     
   41523854.2020485     
   41189311.4444698     
   40853555.9585339     
   40516601.6770550     
   40178469.4783538     
   39839187.2270480     
   39498789.7834456     
   39157318.9779271     
   38814823.5463794     
   38471359.0223826     
   38126987.5814731     
   37781777.8323957     
   37435804.5498159     
   37089148.3424940     
   36741895.2504171     
   36394136.2638405     
   36045966.7566111     
   35697485.8255235     
   35348795.5267909     
   35000000.0000000     
   70000000.0000000     
   69585712.5535499     
   69171610.0215214     
   68757875.8746020     
   68344690.8207025     
   67932231.6442558     
   67520670.1953332     
   67110172.5156702     
   66700898.0896422     
   66292999.2091224     
   65886620.4419812     
   65481898.1947599     
   65078960.3607761     
   64677926.0455892     
   64278905.3623828     
   63881999.2904068     
   63487299.5901667     
   63094888.7695554     
   62704840.0955967     
   62317217.6469063     
   61932076.4023911     
   61549462.3620833     
   61169412.6963606     
   60791955.9201357     
   60417112.0888979     
   60044893.0137789     
   59675302.4930710     
   59308336.5578781     
   58943983.7297937     
   58582225.2887214     
   58223035.5491368     
   57866382.1432742     
   57512226.3098821     
   57160523.1873467     
   56811222.1101220     
   56464266.9075315     
   56119596.2041277     
   55777143.7209032     
   55436838.5767473     
   55098605.5896301     
   54762365.5770830     
   54428035.6556173     
   54095529.5387892     
   53764757.8336844     
   53435628.3356478     
   53108046.3211334     
   52781914.8385928     
   52457134.9973601     
   52133606.2545198     
   51811226.6997769     
   51489893.3383669     
   51169502.3720647     
   50849949.4783647     
   50531130.0879118     
   50212939.6602706     
   49895273.9581213     
   49578029.3199637     
   49261102.9314070     
   48944393.0951109     
   48627799.4994246     
   48311223.4857525     
   47994568.3146500     
   47677739.4306211     
   47360644.7255589     
   47043194.8007268     
   46725303.2271371     
   46406886.8041295     
   46087865.8159037     
   45768164.2856895     
   45447710.2271776     
   45126435.8927563     
   44804278.0180172     
   44481178.0619065     
   44157082.4417973     
   43831942.7626587     
   43505716.0393751     
   43178364.9111516     
   42849857.8468012     
   42520169.3395690     
   42189280.0899849     
   41857177.1750719     
   41523854.2020485     
   41189311.4444698     
   40853555.9585339     
   40516601.6770550     
   40178469.4783538     
   39839187.2270480     
   39498789.7834455     
   39157318.9779271     
   38814823.5463794     
   38471359.0223826     
   38126987.5814731     
   37781777.8323957     
   37435804.5498159     
   37089148.3424940     
   36741895.2504172     
   36394136.2638405     
   36045966.7566111     
   35697485.8255236     
   35348795.5267909     
   35000000.0000000     
   70000000.0000000     
   69585712.5535498     
   69171610.0215214     
   68757875.8746020     
   68344690.8207024     
   67932231.6442557     
   67520670.1953332     
   67110172.5156701     
   66700898.0896422     
   66292999.2091224     
   65886620.4419812     
   65481898.1947599     
   65078960.3607761     
   64677926.0455892     
   64278905.3623828     
   63881999.2904068     
   63487299.5901668     
   63094888.7695554     
   62704840.0955968     
   62317217.6469063     
   61932076.4023911     
   61549462.3620833     
   61169412.6963606     
   60791955.9201357     
   60417112.0888979     
   60044893.0137789     
   59675302.4930711     
   59308336.5578781     
   58943983.7297937     
   58582225.2887214     
   58223035.5491368     
   57866382.1432742     
   57512226.3098821     
   57160523.1873467     
   56811222.1101220     
   56464266.9075316     
   56119596.2041277     
   55777143.7209032     
   55436838.5767473     
   55098605.5896301     
   54762365.5770830     
   54428035.6556173     
   54095529.5387892     
   53764757.8336844     
   53435628.3356478     
   53108046.3211334     
   52781914.8385928     
   52457134.9973601     
   52133606.2545198     
   51811226.6997769     
   51489893.3383669     
   51169502.3720648     
   50849949.4783648     
   50531130.0879118     
   50212939.6602706     
   49895273.9581213     
   49578029.3199637     
   49261102.9314070     
   48944393.0951109     
   48627799.4994246     
   48311223.4857525     
   47994568.3146500     
   47677739.4306211     
   47360644.7255589     
   47043194.8007269     
   46725303.2271371     
   46406886.8041295     
   46087865.8159037     
   45768164.2856894     
   45447710.2271776     
   45126435.8927563     
   44804278.0180173     
   44481178.0619065     
   44157082.4417973     
   43831942.7626587     
   43505716.0393752     
   43178364.9111516     
   42849857.8468012     
   42520169.3395690     
   42189280.0899849     
   41857177.1750719     
   41523854.2020485     
   41189311.4444698     
   40853555.9585339     
   40516601.6770550     
   40178469.4783538     
   39839187.2270480     
   39498789.7834455     
   39157318.9779271     
   38814823.5463794     
   38471359.0223826     
   38126987.5814731     
   37781777.8323957     
   37435804.5498158     
   37089148.3424940     
   36741895.2504172     
   36394136.2638405     
   36045966.7566111     
   35697485.8255236     
   35348795.5267909     
   35000000.0000000     
   70000000.0000000     
   69585712.5535499     
   69171610.0215214     
   68757875.8746020     
   68344690.8207024     
   67932231.6442557     
   67520670.1953332     
   67110172.5156701     
   66700898.0896421     
   66292999.2091224     
   65886620.4419812     
   65481898.1947599     
   65078960.3607760     
   64677926.0455892     
   64278905.3623828     
   63881999.2904069     
   63487299.5901667     
   63094888.7695555     
   62704840.0955968     
   62317217.6469062     
   61932076.4023911     
   61549462.3620833     
   61169412.6963606     
   60791955.9201356     
   60417112.0888980     
   60044893.0137788     
   59675302.4930711     
   59308336.5578782     
   58943983.7297937     
   58582225.2887214     
   58223035.5491369     
   57866382.1432743     
   57512226.3098821     
   57160523.1873467     
   56811222.1101221     
   56464266.9075315     
   56119596.2041277     
   55777143.7209033     
   55436838.5767473     
   55098605.5896301     
   54762365.5770830     
   54428035.6556173     
   54095529.5387892     
   53764757.8336844     
   53435628.3356478     
   53108046.3211334     
   52781914.8385928     
   52457134.9973601     
   52133606.2545198     
   51811226.6997769     
   51489893.3383670     
   51169502.3720648     
   50849949.4783648     
   50531130.0879118     
   50212939.6602706     
   49895273.9581213     
   49578029.3199637     
   49261102.9314070     
   48944393.0951110     
   48627799.4994246     
   48311223.4857525     
   47994568.3146500     
   47677739.4306211     
   47360644.7255589     
   47043194.8007269     
   46725303.2271371     
   46406886.8041296     
   46087865.8159037     
   45768164.2856895     
   45447710.2271776     
   45126435.8927563     
   44804278.0180172     
   44481178.0619065     
   44157082.4417973     
   43831942.7626587     
   43505716.0393752     
   43178364.9111516     
   42849857.8468012     
   42520169.3395690     
   42189280.0899849     
   41857177.1750719     
   41523854.2020485     
   41189311.4444698     
   40853555.9585339     
   40516601.6770550     
   40178469.4783538     
   39839187.2270480     
   39498789.7834456     
   39157318.9779271     
   38814823.5463794     
   38471359.0223826     
   38126987.5814731     
   37781777.8323957     
   37435804.5498159     
   37089148.3424940     
   36741895.2504171     
   36394136.2638405     
   36045966.7566111     
   35697485.8255236     
   35348795.5267909     
   35000000.0000000     
   70000000.0000000     
   69585712.5535499     
   69171610.0215214     
   68757875.8746020     
   68344690.8207024     
   67932231.6442556     
   67520670.1953331     
   67110172.5156701     
   66700898.0896421     
   66292999.2091224     
   65886620.4419812     
   65481898.1947599     
   65078960.3607761     
   64677926.0455892     
   64278905.3623828     
   63881999.2904069     
   63487299.5901668     
   63094888.7695555     
   62704840.0955968     
   62317217.6469062     
   61932076.4023910     
   61549462.3620833     
   61169412.6963606     
   60791955.9201356     
   60417112.0888980     
   60044893.0137788     
   59675302.4930711     
   59308336.5578782     
   58943983.7297938     
   58582225.2887215     
   58223035.5491369     
   57866382.1432744     
   57512226.3098821     
   57160523.1873467     
   56811222.1101221     
   56464266.9075315     
   56119596.2041277     
   55777143.7209033     
   55436838.5767473     
   55098605.5896301     
   54762365.5770830     
   54428035.6556173     
   54095529.5387892     
   53764757.8336844     
   53435628.3356478     
   53108046.3211334     
   52781914.8385928     
   52457134.9973601     
   52133606.2545198     
   51811226.6997770     
   51489893.3383670     
   51169502.3720648     
   50849949.4783648     
   50531130.0879118     
   50212939.6602707     
   49895273.9581213     
   49578029.3199637     
   49261102.9314071     
   48944393.0951110     
   48627799.4994246     
   48311223.4857525     
   47994568.3146500     
   47677739.4306211     
   47360644.7255589     
   47043194.8007269     
   46725303.2271371     
   46406886.8041296     
   46087865.8159037     
   45768164.2856895     
   45447710.2271776     
   45126435.8927562     
   44804278.0180172     
   44481178.0619065     
   44157082.4417973     
   43831942.7626586     
   43505716.0393752     
   43178364.9111516     
   42849857.8468012     
   42520169.3395690     
   42189280.0899849     
   41857177.1750719     
   41523854.2020485     
   41189311.4444698     
   40853555.9585339     
   40516601.6770550     
   40178469.4783538     
   39839187.2270480     
   39498789.7834456     
   39157318.9779271     
   38814823.5463794     
   38471359.0223826     
   38126987.5814730     
   37781777.8323957     
   37435804.5498158     
   37089148.3424940     
   36741895.2504171     
   36394136.2638405     
   36045966.7566111     
   35697485.8255235     
   35348795.5267909     
   35000000.0000000     
   70000000.0000000     
   69585712.5535498     
   69171610.0215214     
   68757875.8746019     
   68344690.8207024     
   67932231.6442556     
   67520670.1953331     
   67110172.5156701     
   66700898.0896420     
   66292999.2091224     
   65886620.4419812     
   65481898.1947599     
   65078960.3607761     
   64677926.0455892     
   64278905.3623828     
   63881999.2904069     
   63487299.5901667     
   63094888.7695556     
   62704840.0955967     
   62317217.6469062     
   61932076.4023911     
   61549462.3620832     
   61169412.6963606     
   60791955.9201356     
   60417112.0888980     
   60044893.0137789     
   59675302.4930711     
   59308336.5578782     
   58943983.7297939     
   58582225.2887215     
   58223035.5491369     
   57866382.1432744     
   57512226.3098821     
   57160523.1873467     
   56811222.1101220     
   56464266.9075315     
   56119596.2041277     
   55777143.7209033     
   55436838.5767474     
   55098605.5896300     
   54762365.5770829     
   54428035.6556173     
   54095529.5387892     
   53764757.8336844     
   53435628.3356479     
   53108046.3211334     
   52781914.8385928     
   52457134.9973601     
   52133606.2545198     
   51811226.6997770     
   51489893.3383670     
   51169502.3720648     
   50849949.4783648     
   50531130.0879118     
   50212939.6602707     
   49895273.9581213     
   49578029.3199637     
   49261102.9314071     
   48944393.0951110     
   48627799.4994246     
   48311223.4857525     
   47994568.3146500     
   47677739.4306211     
   47360644.7255589     
   47043194.8007269     
   46725303.2271371     
   46406886.8041296     
   46087865.8159038     
   45768164.2856895     
   45447710.2271776     
   45126435.8927563     
   44804278.0180172     
   44481178.0619065     
   44157082.4417973     
   43831942.7626586     
   43505716.0393752     
   43178364.9111516     
   42849857.8468012     
   42520169.3395690     
   42189280.0899849     
   41857177.1750719     
   41523854.2020486     
   41189311.4444697     
   40853555.9585339     
   40516601.6770550     
   40178469.4783538     
   39839187.2270480     
   39498789.7834456     
   39157318.9779271     
   38814823.5463794     
   38471359.0223826     
   38126987.5814731     
   37781777.8323957     
   37435804.5498158     
   37089148.3424939     
   36741895.2504171     
   36394136.2638405     
   36045966.7566111     
   35697485.8255235     
   35348795.5267908     
   35000000.0000000     
   70000000.0000000     
   69585712.5535498     
   69171610.0215213     
   68757875.8746019     
   68344690.8207023     
   67932231.6442556     
   67520670.1953330     
   67110172.5156700     
   66700898.0896419     
   66292999.2091224     
   65886620.4419812     
   65481898.1947599     
   65078960.3607761     
   64677926.0455892     
   64278905.3623828     
   63881999.2904069     
   63487299.5901668     
   63094888.7695556     
   62704840.0955967     
   62317217.6469062     
   61932076.4023911     
   61549462.3620832     
   61169412.6963606     
   60791955.9201357     
   60417112.0888980     
   60044893.0137788     
   59675302.4930711     
   59308336.5578782     
   58943983.7297938     
   58582225.2887215     
   58223035.5491370     
   57866382.1432744     
   57512226.3098821     
   57160523.1873467     
   56811222.1101220     
   56464266.9075315     
   56119596.2041277     
   55777143.7209033     
   55436838.5767473     
   55098605.5896300     
   54762365.5770829     
   54428035.6556173     
   54095529.5387892     
   53764757.8336844     
   53435628.3356479     
   53108046.3211334     
   52781914.8385927     
   52457134.9973600     
   52133606.2545198     
   51811226.6997770     
   51489893.3383670     
   51169502.3720648     
   50849949.4783648     
   50531130.0879118     
   50212939.6602707     
   49895273.9581213     
   49578029.3199637     
   49261102.9314071     
   48944393.0951110     
   48627799.4994246     
   48311223.4857526     
   47994568.3146501     
   47677739.4306212     
   47360644.7255589     
   47043194.8007269     
   46725303.2271372     
   46406886.8041296     
   46087865.8159037     
   45768164.2856895     
   45447710.2271775     
   45126435.8927563     
   44804278.0180172     
   44481178.0619065     
   44157082.4417973     
   43831942.7626586     
   43505716.0393752     
   43178364.9111516     
   42849857.8468012     
   42520169.3395690     
   42189280.0899849     
   41857177.1750718     
   41523854.2020485     
   41189311.4444697     
   40853555.9585338     
   40516601.6770550     
   40178469.4783538     
   39839187.2270480     
   39498789.7834455     
   39157318.9779271     
   38814823.5463794     
   38471359.0223826     
   38126987.5814731     
   37781777.8323956     
   37435804.5498158     
   37089148.3424939     
   36741895.2504170     
   36394136.2638405     
   36045966.7566111     
   35697485.8255235     
   35348795.5267908     
   35000000.0000000     
   70000000.0000000     
   69585712.5535498     
   69171610.0215213     
   68757875.8746019     
   68344690.8207023     
   67932231.6442555     
   67520670.1953330     
   67110172.5156700     
   66700898.0896418     
   66292999.2091223     
   65886620.4419812     
   65481898.1947598     
   65078960.3607761     
   64677926.0455891     
   64278905.3623829     
   63881999.2904068     
   63487299.5901668     
   63094888.7695556     
   62704840.0955967     
   62317217.6469063     
   61932076.4023911     
   61549462.3620832     
   61169412.6963606     
   60791955.9201357     
   60417112.0888980     
   60044893.0137788     
   59675302.4930711     
   59308336.5578782     
   58943983.7297938     
   58582225.2887215     
   58223035.5491370     
   57866382.1432744     
   57512226.3098821     
   57160523.1873467     
   56811222.1101220     
   56464266.9075315     
   56119596.2041277     
   55777143.7209032     
   55436838.5767473     
   55098605.5896300     
   54762365.5770829     
   54428035.6556173     
   54095529.5387892     
   53764757.8336844     
   53435628.3356478     
   53108046.3211334     
   52781914.8385927     
   52457134.9973601     
   52133606.2545198     
   51811226.6997770     
   51489893.3383669     
   51169502.3720648     
   50849949.4783648     
   50531130.0879118     
   50212939.6602707     
   49895273.9581212     
   49578029.3199637     
   49261102.9314071     
   48944393.0951110     
   48627799.4994246     
   48311223.4857526     
   47994568.3146500     
   47677739.4306212     
   47360644.7255589     
   47043194.8007269     
   46725303.2271372     
   46406886.8041296     
   46087865.8159037     
   45768164.2856895     
   45447710.2271775     
   45126435.8927562     
   44804278.0180172     
   44481178.0619065     
   44157082.4417973     
   43831942.7626586     
   43505716.0393751     
   43178364.9111516     
   42849857.8468012     
   42520169.3395690     
   42189280.0899849     
   41857177.1750718     
   41523854.2020485     
   41189311.4444697     
   40853555.9585337     
   40516601.6770550     
   40178469.4783537     
   39839187.2270480     
   39498789.7834455     
   39157318.9779271     
   38814823.5463794     
   38471359.0223825     
   38126987.5814731     
   37781777.8323956     
   37435804.5498158     
   37089148.3424939     
   36741895.2504170     
   36394136.2638404     
   36045966.7566110     
   35697485.8255235     
   35348795.5267908     
   35000000.0000000     
   70000000.0000000     
   69585712.5535497     
   69171610.0215213     
   68757875.8746018     
   68344690.8207023     
   67932231.6442555     
   67520670.1953330     
   67110172.5156699     
   66700898.0896419     
   66292999.2091223     
   65886620.4419812     
   65481898.1947598     
   65078960.3607760     
   64677926.0455891     
   64278905.3623829     
   63881999.2904069     
   63487299.5901667     
   63094888.7695556     
   62704840.0955968     
   62317217.6469063     
   61932076.4023911     
   61549462.3620831     
   61169412.6963606     
   60791955.9201356     
   60417112.0888979     
   60044893.0137788     
   59675302.4930711     
   59308336.5578782     
   58943983.7297938     
   58582225.2887216     
   58223035.5491371     
   57866382.1432744     
   57512226.3098821     
   57160523.1873467     
   56811222.1101220     
   56464266.9075315     
   56119596.2041276     
   55777143.7209033     
   55436838.5767473     
   55098605.5896300     
   54762365.5770829     
   54428035.6556172     
   54095529.5387892     
   53764757.8336844     
   53435628.3356479     
   53108046.3211334     
   52781914.8385927     
   52457134.9973601     
   52133606.2545198     
   51811226.6997770     
   51489893.3383669     
   51169502.3720648     
   50849949.4783648     
   50531130.0879118     
   50212939.6602706     
   49895273.9581212     
   49578029.3199637     
   49261102.9314071     
   48944393.0951110     
   48627799.4994247     
   48311223.4857526     
   47994568.3146500     
   47677739.4306212     
   47360644.7255589     
   47043194.8007269     
   46725303.2271372     
   46406886.8041296     
   46087865.8159037     
   45768164.2856895     
   45447710.2271775     
   45126435.8927562     
   44804278.0180172     
   44481178.0619065     
   44157082.4417973     
   43831942.7626586     
   43505716.0393751     
   43178364.9111515     
   42849857.8468012     
   42520169.3395690     
   42189280.0899848     
   41857177.1750718     
   41523854.2020486     
   41189311.4444697     
   40853555.9585337     
   40516601.6770549     
   40178469.4783537     
   39839187.2270480     
   39498789.7834455     
   39157318.9779270     
   38814823.5463794     
   38471359.0223825     
   38126987.5814731     
   37781777.8323956     
   37435804.5498157     
   37089148.3424938     
   36741895.2504170     
   36394136.2638404     
   36045966.7566110     
   35697485.8255235     
   35348795.5267908     
   35000000.0000000     
   70000000.0000000     
   69585712.5535497     
   69171610.0215212     
   68757875.8746017     
   68344690.8207022     
   67932231.6442553     
   67520670.1953329     
   67110172.5156698     
   66700898.0896418     
   66292999.2091223     
   65886620.4419812     
   65481898.1947598     
   65078960.3607760     
   64677926.0455891     
   64278905.3623829     
   63881999.2904069     
   63487299.5901668     
   63094888.7695556     
   62704840.0955968     
   62317217.6469063     
   61932076.4023910     
   61549462.3620831     
   61169412.6963606     
   60791955.9201356     
   60417112.0888979     
   60044893.0137788     
   59675302.4930711     
   59308336.5578782     
   58943983.7297938     
   58582225.2887216     
   58223035.5491371     
   57866382.1432744     
   57512226.3098821     
   57160523.1873467     
   56811222.1101220     
   56464266.9075314     
   56119596.2041276     
   55777143.7209032     
   55436838.5767473     
   55098605.5896300     
   54762365.5770829     
   54428035.6556172     
   54095529.5387892     
   53764757.8336844     
   53435628.3356479     
   53108046.3211334     
   52781914.8385927     
   52457134.9973601     
   52133606.2545198     
   51811226.6997770     
   51489893.3383669     
   51169502.3720647     
   50849949.4783647     
   50531130.0879118     
   50212939.6602706     
   49895273.9581212     
   49578029.3199636     
   49261102.9314071     
   48944393.0951110     
   48627799.4994246     
   48311223.4857526     
   47994568.3146500     
   47677739.4306213     
   47360644.7255589     
   47043194.8007269     
   46725303.2271372     
   46406886.8041296     
   46087865.8159037     
   45768164.2856895     
   45447710.2271775     
   45126435.8927562     
   44804278.0180171     
   44481178.0619064     
   44157082.4417972     
   43831942.7626586     
   43505716.0393750     
   43178364.9111515     
   42849857.8468011     
   42520169.3395689     
   42189280.0899848     
   41857177.1750718     
   41523854.2020485     
   41189311.4444697     
   40853555.9585337     
   40516601.6770548     
   40178469.4783536     
   39839187.2270480     
   39498789.7834455     
   39157318.9779270     
   38814823.5463793     
   38471359.0223825     
   38126987.5814730     
   37781777.8323956     
   37435804.5498157     
   37089148.3424938     
   36741895.2504169     
   36394136.2638403     
   36045966.7566110     
   35697485.8255235     
   35348795.5267908     
   35000000.0000000     
   70000000.0000000     
   69585712.5535497     
   69171610.0215210     
   68757875.8746016     
   68344690.8207021     
   67932231.6442553     
   67520670.1953328     
   67110172.5156698     
   66700898.0896418     
   66292999.2091223     
   65886620.4419811     
   65481898.1947597     
   65078960.3607760     
   64677926.0455891     
   64278905.3623828     
   63881999.2904069     
   63487299.5901668     
   63094888.7695556     
   62704840.0955968     
   62317217.6469063     
   61932076.4023910     
   61549462.3620831     
   61169412.6963606     
   60791955.9201355     
   60417112.0888979     
   60044893.0137788     
   59675302.4930711     
   59308336.5578782     
   58943983.7297938     
   58582225.2887216     
   58223035.5491371     
   57866382.1432744     
   57512226.3098820     
   57160523.1873467     
   56811222.1101220     
   56464266.9075314     
   56119596.2041276     
   55777143.7209032     
   55436838.5767473     
   55098605.5896300     
   54762365.5770828     
   54428035.6556172     
   54095529.5387891     
   53764757.8336844     
   53435628.3356479     
   53108046.3211334     
   52781914.8385928     
   52457134.9973600     
   52133606.2545197     
   51811226.6997770     
   51489893.3383668     
   51169502.3720647     
   50849949.4783647     
   50531130.0879118     
   50212939.6602705     
   49895273.9581212     
   49578029.3199636     
   49261102.9314071     
   48944393.0951110     
   48627799.4994247     
   48311223.4857527     
   47994568.3146501     
   47677739.4306212     
   47360644.7255589     
   47043194.8007269     
   46725303.2271372     
   46406886.8041295     
   46087865.8159036     
   45768164.2856894     
   45447710.2271775     
   45126435.8927561     
   44804278.0180171     
   44481178.0619064     
   44157082.4417972     
   43831942.7626585     
   43505716.0393750     
   43178364.9111514     
   42849857.8468010     
   42520169.3395689     
   42189280.0899848     
   41857177.1750718     
   41523854.2020484     
   41189311.4444696     
   40853555.9585336     
   40516601.6770548     
   40178469.4783536     
   39839187.2270480     
   39498789.7834454     
   39157318.9779269     
   38814823.5463793     
   38471359.0223824     
   38126987.5814730     
   37781777.8323956     
   37435804.5498157     
   37089148.3424937     
   36741895.2504169     
   36394136.2638403     
   36045966.7566110     
   35697485.8255235     
   35348795.5267908     
   35000000.0000000     
   70000000.0000000     
   69585712.5535496     
   69171610.0215209     
   68757875.8746015     
   68344690.8207020     
   67932231.6442553     
   67520670.1953327     
   67110172.5156697     
   66700898.0896417     
   66292999.2091223     
   65886620.4419811     
   65481898.1947596     
   65078960.3607760     
   64677926.0455891     
   64278905.3623828     
   63881999.2904069     
   63487299.5901668     
   63094888.7695556     
   62704840.0955968     
   62317217.6469062     
   61932076.4023909     
   61549462.3620831     
   61169412.6963606     
   60791955.9201355     
   60417112.0888978     
   60044893.0137787     
   59675302.4930710     
   59308336.5578782     
   58943983.7297938     
   58582225.2887216     
   58223035.5491370     
   57866382.1432744     
   57512226.3098820     
   57160523.1873466     
   56811222.1101219     
   56464266.9075314     
   56119596.2041275     
   55777143.7209031     
   55436838.5767472     
   55098605.5896300     
   54762365.5770828     
   54428035.6556171     
   54095529.5387890     
   53764757.8336843     
   53435628.3356479     
   53108046.3211333     
   52781914.8385928     
   52457134.9973600     
   52133606.2545197     
   51811226.6997769     
   51489893.3383668     
   51169502.3720647     
   50849949.4783646     
   50531130.0879117     
   50212939.6602705     
   49895273.9581212     
   49578029.3199635     
   49261102.9314070     
   48944393.0951110     
   48627799.4994247     
   48311223.4857527     
   47994568.3146501     
   47677739.4306212     
   47360644.7255589     
   47043194.8007269     
   46725303.2271372     
   46406886.8041295     
   46087865.8159036     
   45768164.2856894     
   45447710.2271774     
   45126435.8927562     
   44804278.0180171     
   44481178.0619064     
   44157082.4417971     
   43831942.7626585     
   43505716.0393749     
   43178364.9111514     
   42849857.8468009     
   42520169.3395688     
   42189280.0899848     
   41857177.1750717     
   41523854.2020484     
   41189311.4444695     
   40853555.9585336     
   40516601.6770548     
   40178469.4783535     
   39839187.2270479     
   39498789.7834454     
   39157318.9779269     
   38814823.5463793     
   38471359.0223824     
   38126987.5814729     
   37781777.8323955     
   37435804.5498157     
   37089148.3424937     
   36741895.2504168     
   36394136.2638403     
   36045966.7566110     
   35697485.8255234     
   35348795.5267908     
   35000000.0000000     
   70000000.0000000     
   69585712.5535496     
   69171610.0215209     
   68757875.8746015     
   68344690.8207018     
   67932231.6442553     
   67520670.1953326     
   67110172.5156697     
   66700898.0896417     
   66292999.2091221     
   65886620.4419810     
   65481898.1947596     
   65078960.3607759     
   64677926.0455890     
   64278905.3623827     
   63881999.2904069     
   63487299.5901667     
   63094888.7695556     
   62704840.0955968     
   62317217.6469062     
   61932076.4023909     
   61549462.3620830     
   61169412.6963605     
   60791955.9201354     
   60417112.0888978     
   60044893.0137787     
   59675302.4930710     
   59308336.5578782     
   58943983.7297939     
   58582225.2887216     
   58223035.5491370     
   57866382.1432743     
   57512226.3098820     
   57160523.1873466     
   56811222.1101219     
   56464266.9075313     
   56119596.2041275     
   55777143.7209031     
   55436838.5767472     
   55098605.5896299     
   54762365.5770827     
   54428035.6556171     
   54095529.5387890     
   53764757.8336843     
   53435628.3356479     
   53108046.3211333     
   52781914.8385928     
   52457134.9973600     
   52133606.2545197     
   51811226.6997769     
   51489893.3383668     
   51169502.3720646     
   50849949.4783646     
   50531130.0879117     
   50212939.6602704     
   49895273.9581212     
   49578029.3199635     
   49261102.9314070     
   48944393.0951111     
   48627799.4994246     
   48311223.4857526     
   47994568.3146501     
   47677739.4306212     
   47360644.7255589     
   47043194.8007269     
   46725303.2271371     
   46406886.8041295     
   46087865.8159035     
   45768164.2856894     
   45447710.2271774     
   45126435.8927561     
   44804278.0180170     
   44481178.0619064     
   44157082.4417970     
   43831942.7626584     
   43505716.0393748     
   43178364.9111513     
   42849857.8468009     
   42520169.3395688     
   42189280.0899847     
   41857177.1750716     
   41523854.2020483     
   41189311.4444695     
   40853555.9585335     
   40516601.6770547     
   40178469.4783535     
   39839187.2270478     
   39498789.7834453     
   39157318.9779268     
   38814823.5463792     
   38471359.0223824     
   38126987.5814729     
   37781777.8323955     
   37435804.5498156     
   37089148.3424936     
   36741895.2504168     
   36394136.2638403     
   36045966.7566110     
   35697485.8255234     
   35348795.5267908     
   35000000.0000000     
   70000000.0000000     
   69585712.5535496     
   69171610.0215209     
   68757875.8746014     
   68344690.8207017     
   67932231.6442552     
   67520670.1953326     
   67110172.5156695     
   66700898.0896416     
   66292999.2091221     
   65886620.4419809     
   65481898.1947596     
   65078960.3607758     
   64677926.0455890     
   64278905.3623827     
   63881999.2904068     
   63487299.5901667     
   63094888.7695555     
   62704840.0955969     
   62317217.6469062     
   61932076.4023909     
   61549462.3620831     
   61169412.6963605     
   60791955.9201353     
   60417112.0888977     
   60044893.0137786     
   59675302.4930710     
   59308336.5578782     
   58943983.7297940     
   58582225.2887216     
   58223035.5491370     
   57866382.1432743     
   57512226.3098820     
   57160523.1873466     
   56811222.1101219     
   56464266.9075313     
   56119596.2041274     
   55777143.7209031     
   55436838.5767472     
   55098605.5896299     
   54762365.5770827     
   54428035.6556171     
   54095529.5387890     
   53764757.8336843     
   53435628.3356479     
   53108046.3211333     
   52781914.8385928     
   52457134.9973601     
   52133606.2545197     
   51811226.6997768     
   51489893.3383668     
   51169502.3720645     
   50849949.4783646     
   50531130.0879116     
   50212939.6602704     
   49895273.9581212     
   49578029.3199635     
   49261102.9314070     
   48944393.0951111     
   48627799.4994246     
   48311223.4857527     
   47994568.3146501     
   47677739.4306212     
   47360644.7255589     
   47043194.8007269     
   46725303.2271371     
   46406886.8041295     
   46087865.8159036     
   45768164.2856894     
   45447710.2271774     
   45126435.8927561     
   44804278.0180170     
   44481178.0619064     
   44157082.4417970     
   43831942.7626583     
   43505716.0393747     
   43178364.9111513     
   42849857.8468009     
   42520169.3395687     
   42189280.0899847     
   41857177.1750716     
   41523854.2020483     
   41189311.4444695     
   40853555.9585335     
   40516601.6770547     
   40178469.4783534     
   39839187.2270477     
   39498789.7834453     
   39157318.9779268     
   38814823.5463792     
   38471359.0223823     
   38126987.5814728     
   37781777.8323954     
   37435804.5498156     
   37089148.3424936     
   36741895.2504168     
   36394136.2638403     
   36045966.7566110     
   35697485.8255234     
   35348795.5267908     
   35000000.0000000     
   70000000.0000000     
   69585712.5535496     
   69171610.0215209     
   68757875.8746013     
   68344690.8207017     
   67932231.6442550     
   67520670.1953325     
   67110172.5156695     
   66700898.0896415     
   66292999.2091220     
   65886620.4419809     
   65481898.1947595     
   65078960.3607758     
   64677926.0455890     
   64278905.3623826     
   63881999.2904068     
   63487299.5901667     
   63094888.7695555     
   62704840.0955969     
   62317217.6469061     
   61932076.4023909     
   61549462.3620830     
   61169412.6963604     
   60791955.9201353     
   60417112.0888977     
   60044893.0137786     
   59675302.4930710     
   59308336.5578782     
   58943983.7297940     
   58582225.2887215     
   58223035.5491370     
   57866382.1432743     
   57512226.3098820     
   57160523.1873466     
   56811222.1101220     
   56464266.9075312     
   56119596.2041274     
   55777143.7209030     
   55436838.5767471     
   55098605.5896299     
   54762365.5770827     
   54428035.6556170     
   54095529.5387889     
   53764757.8336843     
   53435628.3356479     
   53108046.3211333     
   52781914.8385928     
   52457134.9973601     
   52133606.2545197     
   51811226.6997768     
   51489893.3383667     
   51169502.3720645     
   50849949.4783646     
   50531130.0879116     
   50212939.6602704     
   49895273.9581211     
   49578029.3199635     
   49261102.9314070     
   48944393.0951110     
   48627799.4994247     
   48311223.4857527     
   47994568.3146501     
   47677739.4306212     
   47360644.7255589     
   47043194.8007269     
   46725303.2271371     
   46406886.8041295     
   46087865.8159036     
   45768164.2856894     
   45447710.2271774     
   45126435.8927561     
   44804278.0180170     
   44481178.0619063     
   44157082.4417970     
   43831942.7626582     
   43505716.0393747     
   43178364.9111512     
   42849857.8468008     
   42520169.3395686     
   42189280.0899847     
   41857177.1750716     
   41523854.2020482     
   41189311.4444694     
   40853555.9585335     
   40516601.6770547     
   40178469.4783533     
   39839187.2270477     
   39498789.7834452     
   39157318.9779267     
   38814823.5463791     
   38471359.0223823     
   38126987.5814727     
   37781777.8323954     
   37435804.5498155     
   37089148.3424935     
   36741895.2504168     
   36394136.2638402     
   36045966.7566109     
   35697485.8255234     
   35348795.5267908     
   35000000.0000000     
   70000000.0000000     
   69585712.5535495     
   69171610.0215207     
   68757875.8746012     
   68344690.8207016     
   67932231.6442550     
   67520670.1953324     
   67110172.5156694     
   66700898.0896414     
   66292999.2091219     
   65886620.4419809     
   65481898.1947594     
   65078960.3607758     
   64677926.0455889     
   64278905.3623826     
   63881999.2904067     
   63487299.5901667     
   63094888.7695555     
   62704840.0955968     
   62317217.6469061     
   61932076.4023909     
   61549462.3620830     
   61169412.6963604     
   60791955.9201353     
   60417112.0888977     
   60044893.0137786     
   59675302.4930709     
   59308336.5578782     
   58943983.7297939     
   58582225.2887216     
   58223035.5491370     
   57866382.1432743     
   57512226.3098820     
   57160523.1873466     
   56811222.1101219     
   56464266.9075312     
   56119596.2041274     
   55777143.7209030     
   55436838.5767471     
   55098605.5896298     
   54762365.5770826     
   54428035.6556170     
   54095529.5387888     
   53764757.8336843     
   53435628.3356479     
   53108046.3211333     
   52781914.8385928     
   52457134.9973601     
   52133606.2545197     
   51811226.6997768     
   51489893.3383667     
   51169502.3720645     
   50849949.4783645     
   50531130.0879115     
   50212939.6602703     
   49895273.9581211     
   49578029.3199635     
   49261102.9314069     
   48944393.0951110     
   48627799.4994247     
   48311223.4857528     
   47994568.3146501     
   47677739.4306212     
   47360644.7255589     
   47043194.8007269     
   46725303.2271371     
   46406886.8041295     
   46087865.8159036     
   45768164.2856894     
   45447710.2271773     
   45126435.8927561     
   44804278.0180170     
   44481178.0619062     
   44157082.4417969     
   43831942.7626582     
   43505716.0393747     
   43178364.9111511     
   42849857.8468007     
   42520169.3395686     
   42189280.0899847     
   41857177.1750715     
   41523854.2020482     
   41189311.4444694     
   40853555.9585334     
   40516601.6770546     
   40178469.4783533     
   39839187.2270476     
   39498789.7834452     
   39157318.9779267     
   38814823.5463791     
   38471359.0223823     
   38126987.5814727     
   37781777.8323953     
   37435804.5498154     
   37089148.3424935     
   36741895.2504168     
   36394136.2638402     
   36045966.7566108     
   35697485.8255234     
   35348795.5267908     
   35000000.0000000     
   70000000.0000000     
   69585712.5535495     
   69171610.0215207     
   68757875.8746011     
   68344690.8207016     
   67932231.6442549     
   67520670.1953322     
   67110172.5156694     
   66700898.0896413     
   66292999.2091218     
   65886620.4419808     
   65481898.1947594     
   65078960.3607756     
   64677926.0455889     
   64278905.3623826     
   63881999.2904067     
   63487299.5901666     
   63094888.7695556     
   62704840.0955967     
   62317217.6469060     
   61932076.4023908     
   61549462.3620829     
   61169412.6963603     
   60791955.9201353     
   60417112.0888977     
   60044893.0137786     
   59675302.4930709     
   59308336.5578782     
   58943983.7297939     
   58582225.2887216     
   58223035.5491370     
   57866382.1432743     
   57512226.3098820     
   57160523.1873466     
   56811222.1101218     
   56464266.9075312     
   56119596.2041274     
   55777143.7209029     
   55436838.5767471     
   55098605.5896298     
   54762365.5770826     
   54428035.6556170     
   54095529.5387888     
   53764757.8336843     
   53435628.3356479     
   53108046.3211333     
   52781914.8385928     
   52457134.9973600     
   52133606.2545197     
   51811226.6997768     
   51489893.3383667     
   51169502.3720645     
   50849949.4783645     
   50531130.0879115     
   50212939.6602704     
   49895273.9581211     
   49578029.3199635     
   49261102.9314069     
   48944393.0951110     
   48627799.4994248     
   48311223.4857528     
   47994568.3146501     
   47677739.4306211     
   47360644.7255590     
   47043194.8007269     
   46725303.2271371     
   46406886.8041295     
   46087865.8159035     
   45768164.2856893     
   45447710.2271773     
   45126435.8927560     
   44804278.0180170     
   44481178.0619062     
   44157082.4417969     
   43831942.7626581     
   43505716.0393747     
   43178364.9111511     
   42849857.8468006     
   42520169.3395685     
   42189280.0899846     
   41857177.1750714     
   41523854.2020482     
   41189311.4444693     
   40853555.9585334     
   40516601.6770545     
   40178469.4783532     
   39839187.2270475     
   39498789.7834452     
   39157318.9779266     
   38814823.5463791     
   38471359.0223823     
   38126987.5814726     
   37781777.8323953     
   37435804.5498154     
   37089148.3424935     
   36741895.2504167     
   36394136.2638401     
   36045966.7566108     
   35697485.8255234     
   35348795.5267908     
   35000000.0000000     
   70000000.0000000     
   69585712.5535494     
   69171610.0215206     
   68757875.8746010     
   68344690.8207015     
   67932231.6442547     
   67520670.1953321     
   67110172.5156694     
   66700898.0896413     
   66292999.2091217     
   65886620.4419807     
   65481898.1947594     
   65078960.3607755     
   64677926.0455888     
   64278905.3623826     
   63881999.2904067     
   63487299.5901666     
   63094888.7695556     
   62704840.0955966     
   62317217.6469060     
   61932076.4023907     
   61549462.3620830     
   61169412.6963603     
   60791955.9201354     
   60417112.0888976     
   60044893.0137786     
   59675302.4930709     
   59308336.5578782     
   58943983.7297940     
   58582225.2887216     
   58223035.5491370     
   57866382.1432743     
   57512226.3098820     
   57160523.1873465     
   56811222.1101218     
   56464266.9075312     
   56119596.2041273     
   55777143.7209030     
   55436838.5767470     
   55098605.5896297     
   54762365.5770826     
   54428035.6556169     
   54095529.5387888     
   53764757.8336843     
   53435628.3356478     
   53108046.3211333     
   52781914.8385928     
   52457134.9973600     
   52133606.2545197     
   51811226.6997767     
   51489893.3383667     
   51169502.3720645     
   50849949.4783645     
   50531130.0879115     
   50212939.6602703     
   49895273.9581211     
   49578029.3199635     
   49261102.9314069     
   48944393.0951110     
   48627799.4994247     
   48311223.4857527     
   47994568.3146501     
   47677739.4306212     
   47360644.7255590     
   47043194.8007270     
   46725303.2271371     
   46406886.8041295     
   46087865.8159035     
   45768164.2856892     
   45447710.2271773     
   45126435.8927560     
   44804278.0180169     
   44481178.0619061     
   44157082.4417968     
   43831942.7626581     
   43505716.0393747     
   43178364.9111510     
   42849857.8468006     
   42520169.3395685     
   42189280.0899845     
   41857177.1750714     
   41523854.2020481     
   41189311.4444693     
   40853555.9585333     
   40516601.6770544     
   40178469.4783531     
   39839187.2270475     
   39498789.7834451     
   39157318.9779266     
   38814823.5463790     
   38471359.0223822     
   38126987.5814725     
   37781777.8323952     
   37435804.5498154     
   37089148.3424934     
   36741895.2504167     
   36394136.2638401     
   36045966.7566108     
   35697485.8255234     
   35348795.5267908     
   35000000.0000000     
   70000000.0000000     
   69585712.5535493     
   69171610.0215206     
   68757875.8746009     
   68344690.8207015     
   67932231.6442546     
   67520670.1953321     
   67110172.5156692     
   66700898.0896413     
   66292999.2091217     
   65886620.4419806     
   65481898.1947594     
   65078960.3607756     
   64677926.0455888     
   64278905.3623827     
   63881999.2904066     
   63487299.5901666     
   63094888.7695556     
   62704840.0955966     
   62317217.6469060     
   61932076.4023907     
   61549462.3620829     
   61169412.6963602     
   60791955.9201354     
   60417112.0888976     
   60044893.0137786     
   59675302.4930710     
   59308336.5578782     
   58943983.7297940     
   58582225.2887216     
   58223035.5491370     
   57866382.1432743     
   57512226.3098819     
   57160523.1873465     
   56811222.1101217     
   56464266.9075313     
   56119596.2041274     
   55777143.7209029     
   55436838.5767470     
   55098605.5896298     
   54762365.5770825     
   54428035.6556169     
   54095529.5387888     
   53764757.8336843     
   53435628.3356478     
   53108046.3211333     
   52781914.8385928     
   52457134.9973600     
   52133606.2545197     
   51811226.6997768     
   51489893.3383667     
   51169502.3720645     
   50849949.4783645     
   50531130.0879115     
   50212939.6602703     
   49895273.9581211     
   49578029.3199635     
   49261102.9314069     
   48944393.0951111     
   48627799.4994247     
   48311223.4857528     
   47994568.3146502     
   47677739.4306212     
   47360644.7255590     
   47043194.8007270     
   46725303.2271371     
   46406886.8041295     
   46087865.8159035     
   45768164.2856892     
   45447710.2271772     
   45126435.8927559     
   44804278.0180168     
   44481178.0619060     
   44157082.4417967     
   43831942.7626580     
   43505716.0393747     
   43178364.9111510     
   42849857.8468006     
   42520169.3395684     
   42189280.0899845     
   41857177.1750714     
   41523854.2020480     
   41189311.4444693     
   40853555.9585332     
   40516601.6770543     
   40178469.4783530     
   39839187.2270474     
   39498789.7834451     
   39157318.9779265     
   38814823.5463790     
   38471359.0223822     
   38126987.5814725     
   37781777.8323952     
   37435804.5498154     
   37089148.3424934     
   36741895.2504167     
   36394136.2638401     
   36045966.7566108     
   35697485.8255233     
   35348795.5267908     
   35000000.0000000     
   70000000.0000000     
   69585712.5535493     
   69171610.0215205     
   68757875.8746009     
   68344690.8207013     
   67932231.6442545     
   67520670.1953321     
   67110172.5156691     
   66700898.0896412     
   66292999.2091216     
   65886620.4419806     
   65481898.1947594     
   65078960.3607755     
   64677926.0455888     
   64278905.3623826     
   63881999.2904068     
   63487299.5901666     
   63094888.7695556     
   62704840.0955967     
   62317217.6469059     
   61932076.4023907     
   61549462.3620829     
   61169412.6963603     
   60791955.9201354     
   60417112.0888977     
   60044893.0137786     
   59675302.4930709     
   59308336.5578782     
   58943983.7297939     
   58582225.2887216     
   58223035.5491370     
   57866382.1432743     
   57512226.3098820     
   57160523.1873464     
   56811222.1101217     
   56464266.9075313     
   56119596.2041273     
   55777143.7209030     
   55436838.5767470     
   55098605.5896298     
   54762365.5770826     
   54428035.6556169     
   54095529.5387888     
   53764757.8336842     
   53435628.3356479     
   53108046.3211334     
   52781914.8385928     
   52457134.9973600     
   52133606.2545197     
   51811226.6997768     
   51489893.3383667     
   51169502.3720645     
   50849949.4783645     
   50531130.0879115     
   50212939.6602703     
   49895273.9581212     
   49578029.3199635     
   49261102.9314069     
   48944393.0951111     
   48627799.4994248     
   48311223.4857529     
   47994568.3146502     
   47677739.4306213     
   47360644.7255591     
   47043194.8007271     
   46725303.2271371     
   46406886.8041295     
   46087865.8159035     
   45768164.2856892     
   45447710.2271773     
   45126435.8927559     
   44804278.0180168     
   44481178.0619060     
   44157082.4417967     
   43831942.7626580     
   43505716.0393746     
   43178364.9111509     
   42849857.8468005     
   42520169.3395684     
   42189280.0899845     
   41857177.1750713     
   41523854.2020480     
   41189311.4444693     
   40853555.9585332     
   40516601.6770543     
   40178469.4783529     
   39839187.2270473     
   39498789.7834450     
   39157318.9779266     
   38814823.5463789     
   38471359.0223821     
   38126987.5814725     
   37781777.8323951     
   37435804.5498153     
   37089148.3424934     
   36741895.2504166     
   36394136.2638400     
   36045966.7566108     
   35697485.8255233     
   35348795.5267908     
   35000000.0000000     
   70000000.0000000     
   69585712.5535493     
   69171610.0215205     
   68757875.8746008     
   68344690.8207011     
   67932231.6442544     
   67520670.1953321     
   67110172.5156691     
   66700898.0896412     
   66292999.2091216     
   65886620.4419805     
   65481898.1947594     
   65078960.3607754     
   64677926.0455888     
   64278905.3623825     
   63881999.2904069     
   63487299.5901667     
   63094888.7695556     
   62704840.0955967     
   62317217.6469059     
   61932076.4023908     
   61549462.3620828     
   61169412.6963602     
   60791955.9201355     
   60417112.0888977     
   60044893.0137787     
   59675302.4930710     
   59308336.5578782     
   58943983.7297939     
   58582225.2887216     
   58223035.5491371     
   57866382.1432743     
   57512226.3098820     
   57160523.1873464     
   56811222.1101217     
   56464266.9075312     
   56119596.2041274     
   55777143.7209030     
   55436838.5767470     
   55098605.5896298     
   54762365.5770827     
   54428035.6556169     
   54095529.5387889     
   53764757.8336843     
   53435628.3356478     
   53108046.3211335     
   52781914.8385928     
   52457134.9973600     
   52133606.2545198     
   51811226.6997768     
   51489893.3383667     
   51169502.3720646     
   50849949.4783645     
   50531130.0879116     
   50212939.6602704     
   49895273.9581212     
   49578029.3199635     
   49261102.9314070     
   48944393.0951111     
   48627799.4994249     
   48311223.4857529     
   47994568.3146503     
   47677739.4306213     
   47360644.7255591     
   47043194.8007271     
   46725303.2271371     
   46406886.8041296     
   46087865.8159036     
   45768164.2856892     
   45447710.2271773     
   45126435.8927559     
   44804278.0180167     
   44481178.0619059     
   44157082.4417966     
   43831942.7626579     
   43505716.0393745     
   43178364.9111509     
   42849857.8468005     
   42520169.3395683     
   42189280.0899844     
   41857177.1750713     
   41523854.2020480     
   41189311.4444693     
   40853555.9585332     
   40516601.6770543     
   40178469.4783529     
   39839187.2270473     
   39498789.7834450     
   39157318.9779265     
   38814823.5463789     
   38471359.0223821     
   38126987.5814724     
   37781777.8323951     
   37435804.5498152     
   37089148.3424933     
   36741895.2504166     
   36394136.2638400     
   36045966.7566108     
   35697485.8255233     
   35348795.5267908     
   35000000.0000000     
   70000000.0000000     
   69585712.5535491     
   69171610.0215205     
   68757875.8746006     
   68344690.8207010     
   67932231.6442544     
   67520670.1953320     
   67110172.5156690     
   66700898.0896411     
   66292999.2091217     
   65886620.4419805     
   65481898.1947594     
   65078960.3607754     
   64677926.0455887     
   64278905.3623825     
   63881999.2904069     
   63487299.5901666     
   63094888.7695556     
   62704840.0955967     
   62317217.6469059     
   61932076.4023907     
   61549462.3620828     
   61169412.6963602     
   60791955.9201355     
   60417112.0888978     
   60044893.0137786     
   59675302.4930710     
   59308336.5578781     
   58943983.7297939     
   58582225.2887216     
   58223035.5491371     
   57866382.1432742     
   57512226.3098820     
   57160523.1873463     
   56811222.1101217     
   56464266.9075312     
   56119596.2041273     
   55777143.7209030     
   55436838.5767471     
   55098605.5896298     
   54762365.5770827     
   54428035.6556169     
   54095529.5387888     
   53764757.8336843     
   53435628.3356479     
   53108046.3211335     
   52781914.8385929     
   52457134.9973600     
   52133606.2545199     
   51811226.6997769     
   51489893.3383667     
   51169502.3720645     
   50849949.4783646     
   50531130.0879115     
   50212939.6602705     
   49895273.9581213     
   49578029.3199636     
   49261102.9314071     
   48944393.0951111     
   48627799.4994250     
   48311223.4857529     
   47994568.3146503     
   47677739.4306215     
   47360644.7255591     
   47043194.8007272     
   46725303.2271372     
   46406886.8041296     
   46087865.8159035     
   45768164.2856893     
   45447710.2271773     
   45126435.8927559     
   44804278.0180168     
   44481178.0619059     
   44157082.4417966     
   43831942.7626580     
   43505716.0393745     
   43178364.9111508     
   42849857.8468005     
   42520169.3395684     
   42189280.0899844     
   41857177.1750714     
   41523854.2020479     
   41189311.4444693     
   40853555.9585331     
   40516601.6770542     
   40178469.4783529     
   39839187.2270473     
   39498789.7834449     
   39157318.9779265     
   38814823.5463788     
   38471359.0223820     
   38126987.5814724     
   37781777.8323950     
   37435804.5498152     
   37089148.3424933     
   36741895.2504165     
   36394136.2638399     
   36045966.7566108     
   35697485.8255232     
   35348795.5267908     
   35000000.0000000     
   70000000.0000000     
   69585712.5535492     
   69171610.0215204     
   68757875.8746006     
   68344690.8207010     
   67932231.6442542     
   67520670.1953320     
   67110172.5156689     
   66700898.0896411     
   66292999.2091216     
   65886620.4419805     
   65481898.1947594     
   65078960.3607754     
   64677926.0455886     
   64278905.3623824     
   63881999.2904069     
   63487299.5901666     
   63094888.7695555     
   62704840.0955968     
   62317217.6469060     
   61932076.4023907     
   61549462.3620828     
   61169412.6963602     
   60791955.9201355     
   60417112.0888979     
   60044893.0137787     
   59675302.4930710     
   59308336.5578780     
   58943983.7297939     
   58582225.2887217     
   58223035.5491371     
   57866382.1432742     
   57512226.3098819     
   57160523.1873462     
   56811222.1101216     
   56464266.9075312     
   56119596.2041274     
   55777143.7209030     
   55436838.5767471     
   55098605.5896298     
   54762365.5770827     
   54428035.6556170     
   54095529.5387888     
   53764757.8336843     
   53435628.3356480     
   53108046.3211336     
   52781914.8385930     
   52457134.9973601     
   52133606.2545199     
   51811226.6997769     
   51489893.3383667     
   51169502.3720645     
   50849949.4783646     
   50531130.0879116     
   50212939.6602705     
   49895273.9581213     
   49578029.3199637     
   49261102.9314071     
   48944393.0951112     
   48627799.4994250     
   48311223.4857530     
   47994568.3146504     
   47677739.4306215     
   47360644.7255593     
   47043194.8007272     
   46725303.2271373     
   46406886.8041296     
   46087865.8159036     
   45768164.2856893     
   45447710.2271774     
   45126435.8927560     
   44804278.0180167     
   44481178.0619058     
   44157082.4417966     
   43831942.7626579     
   43505716.0393744     
   43178364.9111508     
   42849857.8468005     
   42520169.3395684     
   42189280.0899844     
   41857177.1750714     
   41523854.2020479     
   41189311.4444692     
   40853555.9585331     
   40516601.6770542     
   40178469.4783529     
   39839187.2270473     
   39498789.7834449     
   39157318.9779265     
   38814823.5463788     
   38471359.0223820     
   38126987.5814724     
   37781777.8323949     
   37435804.5498151     
   37089148.3424933     
   36741895.2504165     
   36394136.2638399     
   36045966.7566108     
   35697485.8255233     
   35348795.5267908     
   35000000.0000000     
   70000000.0000000     
   69585712.5535492     
   69171610.0215203     
   68757875.8746005     
   68344690.8207009     
   67932231.6442542     
   67520670.1953319     
   67110172.5156689     
   66700898.0896411     
   66292999.2091216     
   65886620.4419805     
   65481898.1947592     
   65078960.3607754     
   64677926.0455885     
   64278905.3623824     
   63881999.2904068     
   63487299.5901666     
   63094888.7695555     
   62704840.0955967     
   62317217.6469061     
   61932076.4023907     
   61549462.3620827     
   61169412.6963603     
   60791955.9201354     
   60417112.0888979     
   60044893.0137787     
   59675302.4930710     
   59308336.5578780     
   58943983.7297939     
   58582225.2887216     
   58223035.5491371     
   57866382.1432742     
   57512226.3098819     
   57160523.1873462     
   56811222.1101216     
   56464266.9075312     
   56119596.2041273     
   55777143.7209030     
   55436838.5767471     
   55098605.5896298     
   54762365.5770828     
   54428035.6556170     
   54095529.5387890     
   53764757.8336844     
   53435628.3356480     
   53108046.3211336     
   52781914.8385931     
   52457134.9973602     
   52133606.2545199     
   51811226.6997769     
   51489893.3383668     
   51169502.3720646     
   50849949.4783647     
   50531130.0879116     
   50212939.6602706     
   49895273.9581214     
   49578029.3199637     
   49261102.9314071     
   48944393.0951112     
   48627799.4994251     
   48311223.4857531     
   47994568.3146505     
   47677739.4306216     
   47360644.7255592     
   47043194.8007273     
   46725303.2271373     
   46406886.8041295     
   46087865.8159036     
   45768164.2856893     
   45447710.2271774     
   45126435.8927560     
   44804278.0180167     
   44481178.0619058     
   44157082.4417966     
   43831942.7626579     
   43505716.0393744     
   43178364.9111508     
   42849857.8468005     
   42520169.3395684     
   42189280.0899844     
   41857177.1750713     
   41523854.2020480     
   41189311.4444692     
   40853555.9585331     
   40516601.6770542     
   40178469.4783528     
   39839187.2270472     
   39498789.7834448     
   39157318.9779265     
   38814823.5463789     
   38471359.0223819     
   38126987.5814724     
   37781777.8323949     
   37435804.5498151     
   37089148.3424932     
   36741895.2504164     
   36394136.2638399     
   36045966.7566107     
   35697485.8255232     
   35348795.5267907     
   35000000.0000000     
   70000000.0000000     
   69585712.5535492     
   69171610.0215203     
   68757875.8746005     
   68344690.8207009     
   67932231.6442542     
   67520670.1953317     
   67110172.5156688     
   66700898.0896410     
   66292999.2091216     
   65886620.4419804     
   65481898.1947592     
   65078960.3607754     
   64677926.0455885     
   64278905.3623824     
   63881999.2904067     
   63487299.5901666     
   63094888.7695554     
   62704840.0955967     
   62317217.6469061     
   61932076.4023907     
   61549462.3620828     
   61169412.6963602     
   60791955.9201355     
   60417112.0888979     
   60044893.0137788     
   59675302.4930710     
   59308336.5578780     
   58943983.7297939     
   58582225.2887216     
   58223035.5491371     
   57866382.1432743     
   57512226.3098819     
   57160523.1873462     
   56811222.1101216     
   56464266.9075312     
   56119596.2041273     
   55777143.7209030     
   55436838.5767472     
   55098605.5896299     
   54762365.5770828     
   54428035.6556171     
   54095529.5387890     
   53764757.8336844     
   53435628.3356481     
   53108046.3211337     
   52781914.8385931     
   52457134.9973603     
   52133606.2545200     
   51811226.6997770     
   51489893.3383668     
   51169502.3720646     
   50849949.4783647     
   50531130.0879117     
   50212939.6602707     
   49895273.9581215     
   49578029.3199638     
   49261102.9314072     
   48944393.0951112     
   48627799.4994252     
   48311223.4857532     
   47994568.3146505     
   47677739.4306216     
   47360644.7255593     
   47043194.8007273     
   46725303.2271373     
   46406886.8041295     
   46087865.8159036     
   45768164.2856894     
   45447710.2271774     
   45126435.8927560     
   44804278.0180168     
   44481178.0619058     
   44157082.4417967     
   43831942.7626579     
   43505716.0393744     
   43178364.9111507     
   42849857.8468005     
   42520169.3395684     
   42189280.0899844     
   41857177.1750713     
   41523854.2020480     
   41189311.4444691     
   40853555.9585330     
   40516601.6770542     
   40178469.4783528     
   39839187.2270471     
   39498789.7834448     
   39157318.9779264     
   38814823.5463789     
   38471359.0223819     
   38126987.5814724     
   37781777.8323948     
   37435804.5498150     
   37089148.3424932     
   36741895.2504163     
   36394136.2638398     
   36045966.7566107     
   35697485.8255233     
   35348795.5267907     
   35000000.0000000     
   70000000.0000000     
   69585712.5535492     
   69171610.0215202     
   68757875.8746004     
   68344690.8207009     
   67932231.6442540     
   67520670.1953317     
   67110172.5156686     
   66700898.0896409     
   66292999.2091215     
   65886620.4419805     
   65481898.1947591     
   65078960.3607753     
   64677926.0455885     
   64278905.3623823     
   63881999.2904067     
   63487299.5901665     
   63094888.7695555     
   62704840.0955967     
   62317217.6469061     
   61932076.4023907     
   61549462.3620828     
   61169412.6963602     
   60791955.9201356     
   60417112.0888979     
   60044893.0137788     
   59675302.4930709     
   59308336.5578781     
   58943983.7297938     
   58582225.2887216     
   58223035.5491371     
   57866382.1432743     
   57512226.3098819     
   57160523.1873462     
   56811222.1101216     
   56464266.9075312     
   56119596.2041274     
   55777143.7209031     
   55436838.5767472     
   55098605.5896299     
   54762365.5770829     
   54428035.6556171     
   54095529.5387891     
   53764757.8336845     
   53435628.3356481     
   53108046.3211338     
   52781914.8385931     
   52457134.9973604     
   52133606.2545201     
   51811226.6997770     
   51489893.3383669     
   51169502.3720647     
   50849949.4783647     
   50531130.0879118     
   50212939.6602707     
   49895273.9581216     
   49578029.3199638     
   49261102.9314072     
   48944393.0951113     
   48627799.4994253     
   48311223.4857533     
   47994568.3146505     
   47677739.4306218     
   47360644.7255594     
   47043194.8007273     
   46725303.2271374     
   46406886.8041295     
   46087865.8159037     
   45768164.2856894     
   45447710.2271774     
   45126435.8927559     
   44804278.0180168     
   44481178.0619058     
   44157082.4417966     
   43831942.7626579     
   43505716.0393744     
   43178364.9111508     
   42849857.8468005     
   42520169.3395684     
   42189280.0899844     
   41857177.1750713     
   41523854.2020479     
   41189311.4444691     
   40853555.9585330     
   40516601.6770541     
   40178469.4783528     
   39839187.2270471     
   39498789.7834447     
   39157318.9779264     
   38814823.5463788     
   38471359.0223819     
   38126987.5814723     
   37781777.8323948     
   37435804.5498150     
   37089148.3424931     
   36741895.2504163     
   36394136.2638398     
   36045966.7566107     
   35697485.8255233     
   35348795.5267907     
   35000000.0000000     
   70000000.0000000     
   69585712.5535492     
   69171610.0215202     
   68757875.8746004     
   68344690.8207009     
   67932231.6442540     
   67520670.1953315     
   67110172.5156685     
   66700898.0896408     
   66292999.2091214     
   65886620.4419804     
   65481898.1947590     
   65078960.3607753     
   64677926.0455884     
   64278905.3623823     
   63881999.2904067     
   63487299.5901665     
   63094888.7695555     
   62704840.0955967     
   62317217.6469062     
   61932076.4023908     
   61549462.3620827     
   61169412.6963601     
   60791955.9201356     
   60417112.0888979     
   60044893.0137788     
   59675302.4930709     
   59308336.5578782     
   58943983.7297938     
   58582225.2887217     
   58223035.5491371     
   57866382.1432743     
   57512226.3098818     
   57160523.1873463     
   56811222.1101215     
   56464266.9075311     
   56119596.2041274     
   55777143.7209032     
   55436838.5767472     
   55098605.5896300     
   54762365.5770830     
   54428035.6556172     
   54095529.5387892     
   53764757.8336845     
   53435628.3356482     
   53108046.3211339     
   52781914.8385933     
   52457134.9973605     
   52133606.2545202     
   51811226.6997771     
   51489893.3383670     
   51169502.3720648     
   50849949.4783648     
   50531130.0879119     
   50212939.6602708     
   49895273.9581217     
   49578029.3199640     
   49261102.9314073     
   48944393.0951114     
   48627799.4994253     
   48311223.4857533     
   47994568.3146506     
   47677739.4306218     
   47360644.7255594     
   47043194.8007273     
   46725303.2271373     
   46406886.8041295     
   46087865.8159037     
   45768164.2856894     
   45447710.2271774     
   45126435.8927559     
   44804278.0180168     
   44481178.0619058     
   44157082.4417966     
   43831942.7626579     
   43505716.0393744     
   43178364.9111508     
   42849857.8468004     
   42520169.3395684     
   42189280.0899844     
   41857177.1750713     
   41523854.2020479     
   41189311.4444690     
   40853555.9585330     
   40516601.6770540     
   40178469.4783528     
   39839187.2270471     
   39498789.7834447     
   39157318.9779263     
   38814823.5463787     
   38471359.0223818     
   38126987.5814723     
   37781777.8323948     
   37435804.5498150     
   37089148.3424930     
   36741895.2504162     
   36394136.2638397     
   36045966.7566106     
   35697485.8255233     
   35348795.5267907     
   35000000.0000000     
   70000000.0000000     
   69585712.5535492     
   69171610.0215201     
   68757875.8746003     
   68344690.8207007     
   67932231.6442538     
   67520670.1953314     
   67110172.5156683     
   66700898.0896407     
   66292999.2091213     
   65886620.4419804     
   65481898.1947590     
   65078960.3607753     
   64677926.0455884     
   64278905.3623823     
   63881999.2904067     
   63487299.5901666     
   63094888.7695555     
   62704840.0955966     
   62317217.6469062     
   61932076.4023908     
   61549462.3620827     
   61169412.6963601     
   60791955.9201356     
   60417112.0888979     
   60044893.0137788     
   59675302.4930709     
   59308336.5578782     
   58943983.7297939     
   58582225.2887217     
   58223035.5491371     
   57866382.1432743     
   57512226.3098818     
   57160523.1873463     
   56811222.1101215     
   56464266.9075311     
   56119596.2041274     
   55777143.7209032     
   55436838.5767472     
   55098605.5896300     
   54762365.5770830     
   54428035.6556174     
   54095529.5387893     
   53764757.8336846     
   53435628.3356483     
   53108046.3211340     
   52781914.8385934     
   52457134.9973606     
   52133606.2545203     
   51811226.6997772     
   51489893.3383670     
   51169502.3720649     
   50849949.4783648     
   50531130.0879119     
   50212939.6602708     
   49895273.9581217     
   49578029.3199640     
   49261102.9314073     
   48944393.0951114     
   48627799.4994253     
   48311223.4857533     
   47994568.3146506     
   47677739.4306218     
   47360644.7255593     
   47043194.8007272     
   46725303.2271374     
   46406886.8041295     
   46087865.8159037     
   45768164.2856894     
   45447710.2271774     
   45126435.8927558     
   44804278.0180168     
   44481178.0619058     
   44157082.4417966     
   43831942.7626579     
   43505716.0393744     
   43178364.9111507     
   42849857.8468004     
   42520169.3395684     
   42189280.0899843     
   41857177.1750712     
   41523854.2020478     
   41189311.4444689     
   40853555.9585329     
   40516601.6770541     
   40178469.4783527     
   39839187.2270470     
   39498789.7834447     
   39157318.9779263     
   38814823.5463786     
   38471359.0223817     
   38126987.5814722     
   37781777.8323948     
   37435804.5498150     
   37089148.3424930     
   36741895.2504162     
   36394136.2638396     
   36045966.7566106     
   35697485.8255232     
   35348795.5267907     
   35000000.0000000     
   70000000.0000000     
   69585712.5535492     
   69171610.0215200     
   68757875.8746003     
   68344690.8207007     
   67932231.6442537     
   67520670.1953313     
   67110172.5156683     
   66700898.0896407     
   66292999.2091213     
   65886620.4419803     
   65481898.1947591     
   65078960.3607753     
   64677926.0455884     
   64278905.3623823     
   63881999.2904066     
   63487299.5901665     
   63094888.7695554     
   62704840.0955967     
   62317217.6469062     
   61932076.4023908     
   61549462.3620827     
   61169412.6963601     
   60791955.9201355     
   60417112.0888979     
   60044893.0137788     
   59675302.4930710     
   59308336.5578782     
   58943983.7297939     
   58582225.2887217     
   58223035.5491371     
   57866382.1432742     
   57512226.3098818     
   57160523.1873462     
   56811222.1101214     
   56464266.9075311     
   56119596.2041273     
   55777143.7209031     
   55436838.5767473     
   55098605.5896301     
   54762365.5770831     
   54428035.6556174     
   54095529.5387894     
   53764757.8336847     
   53435628.3356484     
   53108046.3211341     
   52781914.8385935     
   52457134.9973607     
   52133606.2545204     
   51811226.6997773     
   51489893.3383671     
   51169502.3720649     
   50849949.4783649     
   50531130.0879119     
   50212939.6602709     
   49895273.9581218     
   49578029.3199642     
   49261102.9314074     
   48944393.0951115     
   48627799.4994254     
   48311223.4857534     
   47994568.3146507     
   47677739.4306218     
   47360644.7255594     
   47043194.8007272     
   46725303.2271374     
   46406886.8041295     
   46087865.8159037     
   45768164.2856895     
   45447710.2271774     
   45126435.8927558     
   44804278.0180168     
   44481178.0619057     
   44157082.4417965     
   43831942.7626579     
   43505716.0393744     
   43178364.9111507     
   42849857.8468004     
   42520169.3395684     
   42189280.0899843     
   41857177.1750713     
   41523854.2020478     
   41189311.4444689     
   40853555.9585329     
   40516601.6770541     
   40178469.4783527     
   39839187.2270470     
   39498789.7834446     
   39157318.9779262     
   38814823.5463785     
   38471359.0223816     
   38126987.5814722     
   37781777.8323947     
   37435804.5498149     
   37089148.3424930     
   36741895.2504161     
   36394136.2638396     
   36045966.7566106     
   35697485.8255232     
   35348795.5267907     
   35000000.0000000     
   70000000.0000000     
   69585712.5535493     
   69171610.0215200     
   68757875.8746002     
   68344690.8207006     
   67932231.6442536     
   67520670.1953312     
   67110172.5156682     
   66700898.0896406     
   66292999.2091213     
   65886620.4419803     
   65481898.1947590     
   65078960.3607754     
   64677926.0455884     
   64278905.3623823     
   63881999.2904066     
   63487299.5901665     
   63094888.7695553     
   62704840.0955968     
   62317217.6469062     
   61932076.4023908     
   61549462.3620828     
   61169412.6963601     
   60791955.9201355     
   60417112.0888979     
   60044893.0137787     
   59675302.4930709     
   59308336.5578782     
   58943983.7297939     
   58582225.2887216     
   58223035.5491371     
   57866382.1432742     
   57512226.3098818     
   57160523.1873461     
   56811222.1101214     
   56464266.9075310     
   56119596.2041273     
   55777143.7209031     
   55436838.5767473     
   55098605.5896300     
   54762365.5770832     
   54428035.6556175     
   54095529.5387895     
   53764757.8336848     
   53435628.3356485     
   53108046.3211342     
   52781914.8385936     
   52457134.9973608     
   52133606.2545205     
   51811226.6997773     
   51489893.3383671     
   51169502.3720650     
   50849949.4783649     
   50531130.0879119     
   50212939.6602710     
   49895273.9581218     
   49578029.3199643     
   49261102.9314075     
   48944393.0951117     
   48627799.4994254     
   48311223.4857534     
   47994568.3146508     
   47677739.4306218     
   47360644.7255594     
   47043194.8007272     
   46725303.2271373     
   46406886.8041296     
   46087865.8159038     
   45768164.2856895     
   45447710.2271774     
   45126435.8927559     
   44804278.0180168     
   44481178.0619057     
   44157082.4417965     
   43831942.7626579     
   43505716.0393744     
   43178364.9111507     
   42849857.8468003     
   42520169.3395684     
   42189280.0899843     
   41857177.1750713     
   41523854.2020478     
   41189311.4444689     
   40853555.9585329     
   40516601.6770540     
   40178469.4783527     
   39839187.2270469     
   39498789.7834446     
   39157318.9779261     
   38814823.5463785     
   38471359.0223816     
   38126987.5814721     
   37781777.8323947     
   37435804.5498148     
   37089148.3424929     
   36741895.2504161     
   36394136.2638396     
   36045966.7566105     
   35697485.8255231     
   35348795.5267907     
   35000000.0000000     
   70000000.0000000     
   69585712.5535492     
   69171610.0215199     
   68757875.8746001     
   68344690.8207005     
   67932231.6442537     
   67520670.1953309     
   67110172.5156683     
   66700898.0896405     
   66292999.2091213     
   65886620.4419803     
   65481898.1947590     
   65078960.3607754     
   64677926.0455884     
   64278905.3623823     
   63881999.2904065     
   63487299.5901664     
   63094888.7695553     
   62704840.0955967     
   62317217.6469062     
   61932076.4023908     
   61549462.3620828     
   61169412.6963601     
   60791955.9201355     
   60417112.0888980     
   60044893.0137787     
   59675302.4930709     
   59308336.5578782     
   58943983.7297938     
   58582225.2887215     
   58223035.5491370     
   57866382.1432742     
   57512226.3098817     
   57160523.1873461     
   56811222.1101214     
   56464266.9075310     
   56119596.2041273     
   55777143.7209032     
   55436838.5767473     
   55098605.5896301     
   54762365.5770832     
   54428035.6556176     
   54095529.5387895     
   53764757.8336849     
   53435628.3356486     
   53108046.3211343     
   52781914.8385937     
   52457134.9973609     
   52133606.2545205     
   51811226.6997774     
   51489893.3383672     
   51169502.3720650     
   50849949.4783650     
   50531130.0879119     
   50212939.6602710     
   49895273.9581220     
   49578029.3199644     
   49261102.9314077     
   48944393.0951118     
   48627799.4994254     
   48311223.4857535     
   47994568.3146508     
   47677739.4306219     
   47360644.7255594     
   47043194.8007272     
   46725303.2271373     
   46406886.8041296     
   46087865.8159038     
   45768164.2856894     
   45447710.2271774     
   45126435.8927559     
   44804278.0180167     
   44481178.0619057     
   44157082.4417965     
   43831942.7626578     
   43505716.0393744     
   43178364.9111506     
   42849857.8468004     
   42520169.3395683     
   42189280.0899843     
   41857177.1750712     
   41523854.2020478     
   41189311.4444689     
   40853555.9585329     
   40516601.6770540     
   40178469.4783527     
   39839187.2270469     
   39498789.7834445     
   39157318.9779261     
   38814823.5463784     
   38471359.0223815     
   38126987.5814721     
   37781777.8323947     
   37435804.5498148     
   37089148.3424929     
   36741895.2504160     
   36394136.2638395     
   36045966.7566105     
   35697485.8255231     
   35348795.5267907     
   35000000.0000000     
   70000000.0000000     
   69585712.5535491     
   69171610.0215199     
   68757875.8745999     
   68344690.8207005     
   67932231.6442535     
   67520670.1953310     
   67110172.5156683     
   66700898.0896405     
   66292999.2091213     
   65886620.4419803     
   65481898.1947590     
   65078960.3607754     
   64677926.0455884     
   64278905.3623823     
   63881999.2904064     
   63487299.5901664     
   63094888.7695553     
   62704840.0955967     
   62317217.6469062     
   61932076.4023908     
   61549462.3620828     
   61169412.6963601     
   60791955.9201355     
   60417112.0888980     
   60044893.0137787     
   59675302.4930709     
   59308336.5578781     
   58943983.7297938     
   58582225.2887215     
   58223035.5491370     
   57866382.1432742     
   57512226.3098817     
   57160523.1873460     
   56811222.1101214     
   56464266.9075310     
   56119596.2041273     
   55777143.7209032     
   55436838.5767474     
   55098605.5896302     
   54762365.5770833     
   54428035.6556176     
   54095529.5387896     
   53764757.8336849     
   53435628.3356487     
   53108046.3211344     
   52781914.8385938     
   52457134.9973611     
   52133606.2545205     
   51811226.6997775     
   51489893.3383673     
   51169502.3720651     
   50849949.4783650     
   50531130.0879121     
   50212939.6602710     
   49895273.9581220     
   49578029.3199645     
   49261102.9314078     
   48944393.0951119     
   48627799.4994256     
   48311223.4857535     
   47994568.3146508     
   47677739.4306219     
   47360644.7255594     
   47043194.8007272     
   46725303.2271373     
   46406886.8041296     
   46087865.8159038     
   45768164.2856894     
   45447710.2271774     
   45126435.8927559     
   44804278.0180167     
   44481178.0619057     
   44157082.4417965     
   43831942.7626578     
   43505716.0393744     
   43178364.9111506     
   42849857.8468004     
   42520169.3395683     
   42189280.0899843     
   41857177.1750712     
   41523854.2020477     
   41189311.4444689     
   40853555.9585328     
   40516601.6770540     
   40178469.4783527     
   39839187.2270469     
   39498789.7834445     
   39157318.9779260     
   38814823.5463784     
   38471359.0223815     
   38126987.5814720     
   37781777.8323946     
   37435804.5498147     
   37089148.3424928     
   36741895.2504160     
   36394136.2638395     
   36045966.7566104     
   35697485.8255231     
   35348795.5267907     
   35000000.0000000     
   70000000.0000000     
   69585712.5535491     
   69171610.0215199     
   68757875.8745999     
   68344690.8207004     
   67932231.6442534     
   67520670.1953309     
   67110172.5156681     
   66700898.0896405     
   66292999.2091211     
   65886620.4419803     
   65481898.1947591     
   65078960.3607754     
   64677926.0455884     
   64278905.3623823     
   63881999.2904063     
   63487299.5901663     
   63094888.7695553     
   62704840.0955967     
   62317217.6469062     
   61932076.4023907     
   61549462.3620828     
   61169412.6963602     
   60791955.9201355     
   60417112.0888980     
   60044893.0137786     
   59675302.4930709     
   59308336.5578781     
   58943983.7297938     
   58582225.2887215     
   58223035.5491369     
   57866382.1432742     
   57512226.3098816     
   57160523.1873459     
   56811222.1101214     
   56464266.9075309     
   56119596.2041273     
   55777143.7209031     
   55436838.5767473     
   55098605.5896302     
   54762365.5770833     
   54428035.6556178     
   54095529.5387897     
   53764757.8336851     
   53435628.3356488     
   53108046.3211345     
   52781914.8385939     
   52457134.9973612     
   52133606.2545206     
   51811226.6997776     
   51489893.3383674     
   51169502.3720651     
   50849949.4783650     
   50531130.0879121     
   50212939.6602710     
   49895273.9581221     
   49578029.3199645     
   49261102.9314079     
   48944393.0951120     
   48627799.4994256     
   48311223.4857535     
   47994568.3146509     
   47677739.4306219     
   47360644.7255595     
   47043194.8007272     
   46725303.2271373     
   46406886.8041296     
   46087865.8159038     
   45768164.2856894     
   45447710.2271774     
   45126435.8927559     
   44804278.0180168     
   44481178.0619057     
   44157082.4417965     
   43831942.7626577     
   43505716.0393744     
   43178364.9111507     
   42849857.8468004     
   42520169.3395683     
   42189280.0899842     
   41857177.1750712     
   41523854.2020478     
   41189311.4444688     
   40853555.9585329     
   40516601.6770540     
   40178469.4783527     
   39839187.2270470     
   39498789.7834444     
   39157318.9779260     
   38814823.5463783     
   38471359.0223814     
   38126987.5814720     
   37781777.8323946     
   37435804.5498146     
   37089148.3424928     
   36741895.2504160     
   36394136.2638395     
   36045966.7566104     
   35697485.8255231     
   35348795.5267907     
   35000000.0000000     
   70000000.0000000     
   69585712.5535491     
   69171610.0215198     
   68757875.8745998     
   68344690.8207003     
   67932231.6442533     
   67520670.1953307     
   67110172.5156679     
   66700898.0896403     
   66292999.2091211     
   65886620.4419802     
   65481898.1947591     
   65078960.3607754     
   64677926.0455882     
   64278905.3623824     
   63881999.2904063     
   63487299.5901663     
   63094888.7695553     
   62704840.0955967     
   62317217.6469061     
   61932076.4023908     
   61549462.3620828     
   61169412.6963603     
   60791955.9201355     
   60417112.0888979     
   60044893.0137786     
   59675302.4930709     
   59308336.5578780     
   58943983.7297938     
   58582225.2887215     
   58223035.5491369     
   57866382.1432742     
   57512226.3098816     
   57160523.1873459     
   56811222.1101214     
   56464266.9075309     
   56119596.2041273     
   55777143.7209032     
   55436838.5767474     
   55098605.5896302     
   54762365.5770833     
   54428035.6556178     
   54095529.5387898     
   53764757.8336851     
   53435628.3356489     
   53108046.3211346     
   52781914.8385940     
   52457134.9973612     
   52133606.2545207     
   51811226.6997776     
   51489893.3383674     
   51169502.3720651     
   50849949.4783651     
   50531130.0879121     
   50212939.6602710     
   49895273.9581221     
   49578029.3199646     
   49261102.9314081     
   48944393.0951120     
   48627799.4994256     
   48311223.4857536     
   47994568.3146509     
   47677739.4306219     
   47360644.7255594     
   47043194.8007272     
   46725303.2271372     
   46406886.8041296     
   46087865.8159038     
   45768164.2856894     
   45447710.2271774     
   45126435.8927559     
   44804278.0180167     
   44481178.0619057     
   44157082.4417965     
   43831942.7626577     
   43505716.0393743     
   43178364.9111507     
   42849857.8468003     
   42520169.3395683     
   42189280.0899842     
   41857177.1750712     
   41523854.2020478     
   41189311.4444689     
   40853555.9585328     
   40516601.6770540     
   40178469.4783527     
   39839187.2270469     
   39498789.7834444     
   39157318.9779259     
   38814823.5463782     
   38471359.0223814     
   38126987.5814719     
   37781777.8323946     
   37435804.5498146     
   37089148.3424927     
   36741895.2504159     
   36394136.2638395     
   36045966.7566104     
   35697485.8255230     
   35348795.5267907     
   35000000.0000000     
   70000000.0000000     
   69585712.5535491     
   69171610.0215197     
   68757875.8745998     
   68344690.8207001     
   67932231.6442532     
   67520670.1953307     
   67110172.5156678     
   66700898.0896402     
   66292999.2091210     
   65886620.4419801     
   65481898.1947591     
   65078960.3607753     
   64677926.0455883     
   64278905.3623824     
   63881999.2904062     
   63487299.5901663     
   63094888.7695553     
   62704840.0955968     
   62317217.6469061     
   61932076.4023908     
   61549462.3620829     
   61169412.6963603     
   60791955.9201355     
   60417112.0888978     
   60044893.0137786     
   59675302.4930708     
   59308336.5578780     
   58943983.7297938     
   58582225.2887214     
   58223035.5491369     
   57866382.1432743     
   57512226.3098816     
   57160523.1873460     
   56811222.1101214     
   56464266.9075309     
   56119596.2041273     
   55777143.7209032     
   55436838.5767473     
   55098605.5896302     
   54762365.5770833     
   54428035.6556179     
   54095529.5387898     
   53764757.8336852     
   53435628.3356490     
   53108046.3211347     
   52781914.8385941     
   52457134.9973613     
   52133606.2545208     
   51811226.6997777     
   51489893.3383674     
   51169502.3720652     
   50849949.4783651     
   50531130.0879121     
   50212939.6602712     
   49895273.9581222     
   49578029.3199646     
   49261102.9314082     
   48944393.0951120     
   48627799.4994257     
   48311223.4857536     
   47994568.3146509     
   47677739.4306219     
   47360644.7255594     
   47043194.8007273     
   46725303.2271372     
   46406886.8041296     
   46087865.8159038     
   45768164.2856894     
   45447710.2271774     
   45126435.8927559     
   44804278.0180167     
   44481178.0619057     
   44157082.4417964     
   43831942.7626577     
   43505716.0393743     
   43178364.9111507     
   42849857.8468003     
   42520169.3395682     
   42189280.0899842     
   41857177.1750712     
   41523854.2020478     
   41189311.4444689     
   40853555.9585328     
   40516601.6770540     
   40178469.4783527     
   39839187.2270469     
   39498789.7834444     
   39157318.9779259     
   38814823.5463781     
   38471359.0223813     
   38126987.5814719     
   37781777.8323945     
   37435804.5498146     
   37089148.3424927     
   36741895.2504160     
   36394136.2638395     
   36045966.7566103     
   35697485.8255231     
   35348795.5267907     
   35000000.0000000     
   70000000.0000000     
   69585712.5535491     
   69171610.0215197     
   68757875.8745998     
   68344690.8207001     
   67932231.6442531     
   67520670.1953307     
   67110172.5156677     
   66700898.0896402     
   66292999.2091209     
   65886620.4419801     
   65481898.1947591     
   65078960.3607753     
   64677926.0455883     
   64278905.3623822     
   63881999.2904063     
   63487299.5901662     
   63094888.7695553     
   62704840.0955967     
   62317217.6469061     
   61932076.4023909     
   61549462.3620829     
   61169412.6963605     
   60791955.9201355     
   60417112.0888978     
   60044893.0137786     
   59675302.4930708     
   59308336.5578780     
   58943983.7297937     
   58582225.2887214     
   58223035.5491369     
   57866382.1432742     
   57512226.3098816     
   57160523.1873460     
   56811222.1101214     
   56464266.9075310     
   56119596.2041273     
   55777143.7209033     
   55436838.5767474     
   55098605.5896303     
   54762365.5770832     
   54428035.6556180     
   54095529.5387898     
   53764757.8336853     
   53435628.3356491     
   53108046.3211347     
   52781914.8385942     
   52457134.9973613     
   52133606.2545209     
   51811226.6997777     
   51489893.3383674     
   51169502.3720652     
   50849949.4783650     
   50531130.0879122     
   50212939.6602711     
   49895273.9581223     
   49578029.3199645     
   49261102.9314082     
   48944393.0951120     
   48627799.4994258     
   48311223.4857538     
   47994568.3146509     
   47677739.4306219     
   47360644.7255594     
   47043194.8007273     
   46725303.2271373     
   46406886.8041296     
   46087865.8159038     
   45768164.2856894     
   45447710.2271774     
   45126435.8927560     
   44804278.0180166     
   44481178.0619057     
   44157082.4417964     
   43831942.7626577     
   43505716.0393742     
   43178364.9111507     
   42849857.8468003     
   42520169.3395683     
   42189280.0899843     
   41857177.1750712     
   41523854.2020478     
   41189311.4444689     
   40853555.9585328     
   40516601.6770540     
   40178469.4783527     
   39839187.2270469     
   39498789.7834444     
   39157318.9779259     
   38814823.5463781     
   38471359.0223813     
   38126987.5814718     
   37781777.8323945     
   37435804.5498146     
   37089148.3424927     
   36741895.2504159     
   36394136.2638395     
   36045966.7566103     
   35697485.8255230     
   35348795.5267908     
   35000000.0000000     
   70000000.0000000     
   69585712.5535491     
   69171610.0215197     
   68757875.8745997     
   68344690.8207000     
   67932231.6442530     
   67520670.1953306     
   67110172.5156676     
   66700898.0896401     
   66292999.2091209     
   65886620.4419802     
   65481898.1947590     
   65078960.3607753     
   64677926.0455883     
   64278905.3623821     
   63881999.2904062     
   63487299.5901662     
   63094888.7695553     
   62704840.0955968     
   62317217.6469062     
   61932076.4023909     
   61549462.3620829     
   61169412.6963605     
   60791955.9201355     
   60417112.0888979     
   60044893.0137786     
   59675302.4930708     
   59308336.5578779     
   58943983.7297937     
   58582225.2887213     
   58223035.5491368     
   57866382.1432743     
   57512226.3098816     
   57160523.1873461     
   56811222.1101214     
   56464266.9075310     
   56119596.2041274     
   55777143.7209033     
   55436838.5767474     
   55098605.5896303     
   54762365.5770833     
   54428035.6556180     
   54095529.5387900     
   53764757.8336854     
   53435628.3356491     
   53108046.3211348     
   52781914.8385943     
   52457134.9973614     
   52133606.2545209     
   51811226.6997778     
   51489893.3383674     
   51169502.3720652     
   50849949.4783651     
   50531130.0879122     
   50212939.6602712     
   49895273.9581224     
   49578029.3199646     
   49261102.9314083     
   48944393.0951120     
   48627799.4994258     
   48311223.4857538     
   47994568.3146509     
   47677739.4306219     
   47360644.7255595     
   47043194.8007273     
   46725303.2271372     
   46406886.8041295     
   46087865.8159037     
   45768164.2856894     
   45447710.2271775     
   45126435.8927560     
   44804278.0180166     
   44481178.0619057     
   44157082.4417964     
   43831942.7626577     
   43505716.0393742     
   43178364.9111507     
   42849857.8468003     
   42520169.3395682     
   42189280.0899842     
   41857177.1750713     
   41523854.2020479     
   41189311.4444688     
   40853555.9585329     
   40516601.6770541     
   40178469.4783527     
   39839187.2270470     
   39498789.7834443     
   39157318.9779259     
   38814823.5463781     
   38471359.0223813     
   38126987.5814717     
   37781777.8323944     
   37435804.5498146     
   37089148.3424927     
   36741895.2504159     
   36394136.2638395     
   36045966.7566103     
   35697485.8255230     
   35348795.5267907     
   35000000.0000000     
   70000000.0000000     
   69585712.5535490     
   69171610.0215199     
   68757875.8745996     
   68344690.8206999     
   67932231.6442530     
   67520670.1953305     
   67110172.5156675     
   66700898.0896401     
   66292999.2091209     
   65886620.4419802     
   65481898.1947590     
   65078960.3607753     
   64677926.0455884     
   64278905.3623821     
   63881999.2904062     
   63487299.5901662     
   63094888.7695553     
   62704840.0955967     
   62317217.6469062     
   61932076.4023909     
   61549462.3620830     
   61169412.6963606     
   60791955.9201356     
   60417112.0888978     
   60044893.0137786     
   59675302.4930708     
   59308336.5578779     
   58943983.7297937     
   58582225.2887213     
   58223035.5491368     
   57866382.1432742     
   57512226.3098817     
   57160523.1873461     
   56811222.1101213     
   56464266.9075310     
   56119596.2041274     
   55777143.7209033     
   55436838.5767474     
   55098605.5896304     
   54762365.5770834     
   54428035.6556180     
   54095529.5387901     
   53764757.8336856     
   53435628.3356492     
   53108046.3211348     
   52781914.8385943     
   52457134.9973615     
   52133606.2545210     
   51811226.6997778     
   51489893.3383675     
   51169502.3720652     
   50849949.4783651     
   50531130.0879122     
   50212939.6602712     
   49895273.9581223     
   49578029.3199646     
   49261102.9314083     
   48944393.0951120     
   48627799.4994259     
   48311223.4857538     
   47994568.3146510     
   47677739.4306219     
   47360644.7255595     
   47043194.8007274     
   46725303.2271372     
   46406886.8041295     
   46087865.8159036     
   45768164.2856894     
   45447710.2271775     
   45126435.8927561     
   44804278.0180167     
   44481178.0619057     
   44157082.4417964     
   43831942.7626577     
   43505716.0393742     
   43178364.9111507     
   42849857.8468004     
   42520169.3395682     
   42189280.0899842     
   41857177.1750712     
   41523854.2020479     
   41189311.4444689     
   40853555.9585329     
   40516601.6770541     
   40178469.4783528     
   39839187.2270469     
   39498789.7834443     
   39157318.9779258     
   38814823.5463782     
   38471359.0223813     
   38126987.5814717     
   37781777.8323944     
   37435804.5498146     
   37089148.3424926     
   36741895.2504159     
   36394136.2638395     
   36045966.7566103     
   35697485.8255230     
   35348795.5267907     
   35000000.0000000     
   70000000.0000000     
   69585712.5535489     
   69171610.0215198     
   68757875.8745996     
   68344690.8206998     
   67932231.6442529     
   67520670.1953304     
   67110172.5156675     
   66700898.0896401     
   66292999.2091209     
   65886620.4419801     
   65481898.1947590     
   65078960.3607753     
   64677926.0455883     
   64278905.3623820     
   63881999.2904061     
   63487299.5901662     
   63094888.7695553     
   62704840.0955968     
   62317217.6469063     
   61932076.4023908     
   61549462.3620830     
   61169412.6963606     
   60791955.9201356     
   60417112.0888979     
   60044893.0137785     
   59675302.4930708     
   59308336.5578779     
   58943983.7297936     
   58582225.2887213     
   58223035.5491367     
   57866382.1432742     
   57512226.3098817     
   57160523.1873461     
   56811222.1101213     
   56464266.9075310     
   56119596.2041274     
   55777143.7209033     
   55436838.5767474     
   55098605.5896305     
   54762365.5770835     
   54428035.6556180     
   54095529.5387902     
   53764757.8336856     
   53435628.3356493     
   53108046.3211349     
   52781914.8385944     
   52457134.9973615     
   52133606.2545210     
   51811226.6997779     
   51489893.3383676     
   51169502.3720651     
   50849949.4783651     
   50531130.0879123     
   50212939.6602713     
   49895273.9581224     
   49578029.3199647     
   49261102.9314082     
   48944393.0951120     
   48627799.4994259     
   48311223.4857539     
   47994568.3146510     
   47677739.4306219     
   47360644.7255596     
   47043194.8007275     
   46725303.2271372     
   46406886.8041295     
   46087865.8159036     
   45768164.2856894     
   45447710.2271775     
   45126435.8927561     
   44804278.0180167     
   44481178.0619058     
   44157082.4417964     
   43831942.7626577     
   43505716.0393742     
   43178364.9111507     
   42849857.8468004     
   42520169.3395682     
   42189280.0899842     
   41857177.1750712     
   41523854.2020479     
   41189311.4444689     
   40853555.9585329     
   40516601.6770541     
   40178469.4783527     
   39839187.2270470     
   39498789.7834442     
   39157318.9779258     
   38814823.5463781     
   38471359.0223813     
   38126987.5814717     
   37781777.8323944     
   37435804.5498146     
   37089148.3424926     
   36741895.2504158     
   36394136.2638394     
   36045966.7566103     
   35697485.8255230     
   35348795.5267907     
   35000000.0000000     
   70000000.0000000     
   69585712.5535490     
   69171610.0215196     
   68757875.8745996     
   68344690.8206997     
   67932231.6442529     
   67520670.1953304     
   67110172.5156676     
   66700898.0896401     
   66292999.2091208     
   65886620.4419801     
   65481898.1947590     
   65078960.3607754     
   64677926.0455882     
   64278905.3623818     
   63881999.2904062     
   63487299.5901662     
   63094888.7695553     
   62704840.0955968     
   62317217.6469062     
   61932076.4023908     
   61549462.3620830     
   61169412.6963606     
   60791955.9201356     
   60417112.0888978     
   60044893.0137785     
   59675302.4930708     
   59308336.5578779     
   58943983.7297935     
   58582225.2887212     
   58223035.5491367     
   57866382.1432741     
   57512226.3098818     
   57160523.1873460     
   56811222.1101213     
   56464266.9075311     
   56119596.2041275     
   55777143.7209033     
   55436838.5767474     
   55098605.5896305     
   54762365.5770835     
   54428035.6556180     
   54095529.5387902     
   53764757.8336857     
   53435628.3356494     
   53108046.3211349     
   52781914.8385945     
   52457134.9973615     
   52133606.2545211     
   51811226.6997779     
   51489893.3383676     
   51169502.3720651     
   50849949.4783652     
   50531130.0879123     
   50212939.6602714     
   49895273.9581224     
   49578029.3199647     
   49261102.9314082     
   48944393.0951120     
   48627799.4994259     
   48311223.4857540     
   47994568.3146511     
   47677739.4306221     
   47360644.7255596     
   47043194.8007274     
   46725303.2271372     
   46406886.8041295     
   46087865.8159036     
   45768164.2856894     
   45447710.2271775     
   45126435.8927561     
   44804278.0180167     
   44481178.0619058     
   44157082.4417963     
   43831942.7626578     
   43505716.0393741     
   43178364.9111507     
   42849857.8468004     
   42520169.3395682     
   42189280.0899842     
   41857177.1750713     
   41523854.2020479     
   41189311.4444689     
   40853555.9585330     
   40516601.6770542     
   40178469.4783528     
   39839187.2270470     
   39498789.7834442     
   39157318.9779258     
   38814823.5463781     
   38471359.0223813     
   38126987.5814717     
   37781777.8323943     
   37435804.5498146     
   37089148.3424926     
   36741895.2504158     
   36394136.2638393     
   36045966.7566102     
   35697485.8255230     
   35348795.5267907     
   35000000.0000000     
   70000000.0000000     
   69585712.5535490     
   69171610.0215195     
   68757875.8745996     
   68344690.8206996     
   67932231.6442529     
   67520670.1953303     
   67110172.5156675     
   66700898.0896401     
   66292999.2091208     
   65886620.4419802     
   65481898.1947590     
   65078960.3607754     
   64677926.0455881     
   64278905.3623818     
   63881999.2904062     
   63487299.5901660     
   63094888.7695553     
   62704840.0955968     
   62317217.6469062     
   61932076.4023909     
   61549462.3620830     
   61169412.6963606     
   60791955.9201357     
   60417112.0888979     
   60044893.0137785     
   59675302.4930708     
   59308336.5578779     
   58943983.7297935     
   58582225.2887212     
   58223035.5491367     
   57866382.1432741     
   57512226.3098818     
   57160523.1873461     
   56811222.1101214     
   56464266.9075312     
   56119596.2041275     
   55777143.7209033     
   55436838.5767475     
   55098605.5896305     
   54762365.5770835     
   54428035.6556180     
   54095529.5387902     
   53764757.8336858     
   53435628.3356495     
   53108046.3211350     
   52781914.8385945     
   52457134.9973616     
   52133606.2545211     
   51811226.6997779     
   51489893.3383677     
   51169502.3720652     
   50849949.4783652     
   50531130.0879123     
   50212939.6602715     
   49895273.9581224     
   49578029.3199648     
   49261102.9314082     
   48944393.0951121     
   48627799.4994259     
   48311223.4857540     
   47994568.3146512     
   47677739.4306221     
   47360644.7255597     
   47043194.8007274     
   46725303.2271373     
   46406886.8041295     
   46087865.8159036     
   45768164.2856894     
   45447710.2271776     
   45126435.8927561     
   44804278.0180167     
   44481178.0619058     
   44157082.4417964     
   43831942.7626578     
   43505716.0393741     
   43178364.9111507     
   42849857.8468005     
   42520169.3395682     
   42189280.0899842     
   41857177.1750713     
   41523854.2020478     
   41189311.4444689     
   40853555.9585329     
   40516601.6770542     
   40178469.4783527     
   39839187.2270470     
   39498789.7834442     
   39157318.9779257     
   38814823.5463780     
   38471359.0223812     
   38126987.5814717     
   37781777.8323943     
   37435804.5498145     
   37089148.3424926     
   36741895.2504158     
   36394136.2638393     
   36045966.7566101     
   35697485.8255229     
   35348795.5267907     
   35000000.0000000     
   70000000.0000000     
   69585712.5535490     
   69171610.0215195     
   68757875.8745994     
   68344690.8206995     
   67932231.6442528     
   67520670.1953302     
   67110172.5156675     
   66700898.0896400     
   66292999.2091208     
   65886620.4419802     
   65481898.1947590     
   65078960.3607753     
   64677926.0455881     
   64278905.3623818     
   63881999.2904062     
   63487299.5901660     
   63094888.7695553     
   62704840.0955968     
   62317217.6469062     
   61932076.4023909     
   61549462.3620831     
   61169412.6963606     
   60791955.9201357     
   60417112.0888980     
   60044893.0137785     
   59675302.4930707     
   59308336.5578778     
   58943983.7297935     
   58582225.2887213     
   58223035.5491367     
   57866382.1432742     
   57512226.3098817     
   57160523.1873461     
   56811222.1101214     
   56464266.9075313     
   56119596.2041275     
   55777143.7209033     
   55436838.5767475     
   55098605.5896306     
   54762365.5770835     
   54428035.6556181     
   54095529.5387903     
   53764757.8336858     
   53435628.3356495     
   53108046.3211351     
   52781914.8385946     
   52457134.9973617     
   52133606.2545211     
   51811226.6997779     
   51489893.3383676     
   51169502.3720653     
   50849949.4783652     
   50531130.0879123     
   50212939.6602715     
   49895273.9581224     
   49578029.3199648     
   49261102.9314082     
   48944393.0951122     
   48627799.4994259     
   48311223.4857540     
   47994568.3146513     
   47677739.4306221     
   47360644.7255597     
   47043194.8007274     
   46725303.2271373     
   46406886.8041295     
   46087865.8159036     
   45768164.2856895     
   45447710.2271776     
   45126435.8927561     
   44804278.0180168     
   44481178.0619058     
   44157082.4417964     
   43831942.7626578     
   43505716.0393741     
   43178364.9111507     
   42849857.8468005     
   42520169.3395683     
   42189280.0899842     
   41857177.1750713     
   41523854.2020478     
   41189311.4444689     
   40853555.9585329     
   40516601.6770541     
   40178469.4783527     
   39839187.2270470     
   39498789.7834442     
   39157318.9779257     
   38814823.5463780     
   38471359.0223812     
   38126987.5814717     
   37781777.8323942     
   37435804.5498144     
   37089148.3424926     
   36741895.2504159     
   36394136.2638393     
   36045966.7566101     
   35697485.8255229     
   35348795.5267907     
   35000000.0000000     
   70000000.0000000     
   69585712.5535489     
   69171610.0215195     
   68757875.8745994     
   68344690.8206994     
   67932231.6442527     
   67520670.1953302     
   67110172.5156675     
   66700898.0896400     
   66292999.2091209     
   65886620.4419802     
   65481898.1947590     
   65078960.3607752     
   64677926.0455881     
   64278905.3623818     
   63881999.2904061     
   63487299.5901661     
   63094888.7695553     
   62704840.0955969     
   62317217.6469062     
   61932076.4023909     
   61549462.3620832     
   61169412.6963606     
   60791955.9201357     
   60417112.0888980     
   60044893.0137785     
   59675302.4930707     
   59308336.5578778     
   58943983.7297934     
   58582225.2887212     
   58223035.5491368     
   57866382.1432743     
   57512226.3098817     
   57160523.1873461     
   56811222.1101216     
   56464266.9075314     
   56119596.2041276     
   55777143.7209033     
   55436838.5767475     
   55098605.5896306     
   54762365.5770835     
   54428035.6556181     
   54095529.5387903     
   53764757.8336859     
   53435628.3356495     
   53108046.3211352     
   52781914.8385946     
   52457134.9973617     
   52133606.2545212     
   51811226.6997779     
   51489893.3383676     
   51169502.3720654     
   50849949.4783652     
   50531130.0879124     
   50212939.6602715     
   49895273.9581225     
   49578029.3199649     
   49261102.9314082     
   48944393.0951122     
   48627799.4994259     
   48311223.4857539     
   47994568.3146514     
   47677739.4306222     
   47360644.7255598     
   47043194.8007275     
   46725303.2271374     
   46406886.8041296     
   46087865.8159036     
   45768164.2856895     
   45447710.2271776     
   45126435.8927561     
   44804278.0180169     
   44481178.0619059     
   44157082.4417964     
   43831942.7626577     
   43505716.0393742     
   43178364.9111507     
   42849857.8468005     
   42520169.3395683     
   42189280.0899842     
   41857177.1750713     
   41523854.2020478     
   41189311.4444689     
   40853555.9585329     
   40516601.6770541     
   40178469.4783528     
   39839187.2270469     
   39498789.7834442     
   39157318.9779257     
   38814823.5463780     
   38471359.0223811     
   38126987.5814717     
   37781777.8323941     
   37435804.5498144     
   37089148.3424925     
   36741895.2504158     
   36394136.2638393     
   36045966.7566101     
   35697485.8255229     
   35348795.5267907     
   35000000.0000000     
   70000000.0000000     
   69585712.5535489     
   69171610.0215195     
   68757875.8745994     
   68344690.8206994     
   67932231.6442527     
   67520670.1953302     
   67110172.5156675     
   66700898.0896400     
   66292999.2091209     
   65886620.4419802     
   65481898.1947590     
   65078960.3607752     
   64677926.0455881     
   64278905.3623818     
   63881999.2904061     
   63487299.5901661     
   63094888.7695553     
   62704840.0955969     
   62317217.6469063     
   61932076.4023910     
   61549462.3620832     
   61169412.6963607     
   60791955.9201357     
   60417112.0888980     
   60044893.0137785     
   59675302.4930708     
   59308336.5578777     
   58943983.7297934     
   58582225.2887213     
   58223035.5491369     
   57866382.1432744     
   57512226.3098817     
   57160523.1873462     
   56811222.1101217     
   56464266.9075314     
   56119596.2041275     
   55777143.7209033     
   55436838.5767475     
   55098605.5896306     
   54762365.5770835     
   54428035.6556181     
   54095529.5387903     
   53764757.8336858     
   53435628.3356496     
   53108046.3211352     
   52781914.8385945     
   52457134.9973616     
   52133606.2545212     
   51811226.6997779     
   51489893.3383676     
   51169502.3720655     
   50849949.4783652     
   50531130.0879124     
   50212939.6602716     
   49895273.9581225     
   49578029.3199649     
   49261102.9314083     
   48944393.0951122     
   48627799.4994259     
   48311223.4857539     
   47994568.3146514     
   47677739.4306222     
   47360644.7255598     
   47043194.8007275     
   46725303.2271375     
   46406886.8041296     
   46087865.8159036     
   45768164.2856895     
   45447710.2271777     
   45126435.8927562     
   44804278.0180169     
   44481178.0619059     
   44157082.4417964     
   43831942.7626577     
   43505716.0393742     
   43178364.9111507     
   42849857.8468005     
   42520169.3395684     
   42189280.0899842     
   41857177.1750713     
   41523854.2020478     
   41189311.4444690     
   40853555.9585329     
   40516601.6770541     
   40178469.4783528     
   39839187.2270470     
   39498789.7834442     
   39157318.9779256     
   38814823.5463780     
   38471359.0223811     
   38126987.5814717     
   37781777.8323941     
   37435804.5498144     
   37089148.3424926     
   36741895.2504158     
   36394136.2638393     
   36045966.7566101     
   35697485.8255228     
   35348795.5267907     
   35000000.0000000     
   70000000.0000000     
   69585712.5535489     
   69171610.0215195     
   68757875.8745993     
   68344690.8206994     
   67932231.6442526     
   67520670.1953304     
   67110172.5156675     
   66700898.0896400     
   66292999.2091209     
   65886620.4419802     
   65481898.1947590     
   65078960.3607751     
   64677926.0455880     
   64278905.3623817     
   63881999.2904060     
   63487299.5901661     
   63094888.7695554     
   62704840.0955968     
   62317217.6469063     
   61932076.4023911     
   61549462.3620832     
   61169412.6963608     
   60791955.9201357     
   60417112.0888981     
   60044893.0137785     
   59675302.4930708     
   59308336.5578776     
   58943983.7297934     
   58582225.2887213     
   58223035.5491370     
   57866382.1432744     
   57512226.3098817     
   57160523.1873462     
   56811222.1101217     
   56464266.9075314     
   56119596.2041276     
   55777143.7209033     
   55436838.5767475     
   55098605.5896305     
   54762365.5770835     
   54428035.6556181     
   54095529.5387904     
   53764757.8336859     
   53435628.3356497     
   53108046.3211352     
   52781914.8385945     
   52457134.9973616     
   52133606.2545212     
   51811226.6997779     
   51489893.3383676     
   51169502.3720654     
   50849949.4783653     
   50531130.0879125     
   50212939.6602716     
   49895273.9581226     
   49578029.3199648     
   49261102.9314083     
   48944393.0951122     
   48627799.4994260     
   48311223.4857539     
   47994568.3146515     
   47677739.4306223     
   47360644.7255599     
   47043194.8007275     
   46725303.2271375     
   46406886.8041296     
   46087865.8159036     
   45768164.2856895     
   45447710.2271777     
   45126435.8927562     
   44804278.0180169     
   44481178.0619059     
   44157082.4417964     
   43831942.7626577     
   43505716.0393742     
   43178364.9111508     
   42849857.8468006     
   42520169.3395684     
   42189280.0899842     
   41857177.1750713     
   41523854.2020478     
   41189311.4444689     
   40853555.9585329     
   40516601.6770542     
   40178469.4783528     
   39839187.2270469     
   39498789.7834442     
   39157318.9779256     
   38814823.5463779     
   38471359.0223811     
   38126987.5814717     
   37781777.8323942     
   37435804.5498144     
   37089148.3424925     
   36741895.2504158     
   36394136.2638393     
   36045966.7566100     
   35697485.8255228     
   35348795.5267906     
   35000000.0000000     
   70000000.0000000     
   69585712.5535487     
   69171610.0215195     
   68757875.8745992     
   68344690.8206994     
   67932231.6442527     
   67520670.1953304     
   67110172.5156677     
   66700898.0896399     
   66292999.2091208     
   65886620.4419802     
   65481898.1947589     
   65078960.3607751     
   64677926.0455879     
   64278905.3623818     
   63881999.2904061     
   63487299.5901660     
   63094888.7695553     
   62704840.0955968     
   62317217.6469062     
   61932076.4023911     
   61549462.3620832     
   61169412.6963608     
   60791955.9201358     
   60417112.0888980     
   60044893.0137785     
   59675302.4930709     
   59308336.5578776     
   58943983.7297934     
   58582225.2887213     
   58223035.5491371     
   57866382.1432744     
   57512226.3098817     
   57160523.1873463     
   56811222.1101217     
   56464266.9075315     
   56119596.2041275     
   55777143.7209034     
   55436838.5767474     
   55098605.5896305     
   54762365.5770835     
   54428035.6556180     
   54095529.5387903     
   53764757.8336860     
   53435628.3356496     
   53108046.3211352     
   52781914.8385946     
   52457134.9973615     
   52133606.2545212     
   51811226.6997780     
   51489893.3383677     
   51169502.3720654     
   50849949.4783654     
   50531130.0879125     
   50212939.6602716     
   49895273.9581226     
   49578029.3199648     
   49261102.9314082     
   48944393.0951122     
   48627799.4994261     
   48311223.4857540     
   47994568.3146515     
   47677739.4306224     
   47360644.7255600     
   47043194.8007276     
   46725303.2271376     
   46406886.8041297     
   46087865.8159036     
   45768164.2856896     
   45447710.2271777     
   45126435.8927563     
   44804278.0180170     
   44481178.0619059     
   44157082.4417965     
   43831942.7626577     
   43505716.0393742     
   43178364.9111509     
   42849857.8468006     
   42520169.3395684     
   42189280.0899843     
   41857177.1750713     
   41523854.2020478     
   41189311.4444689     
   40853555.9585329     
   40516601.6770541     
   40178469.4783528     
   39839187.2270469     
   39498789.7834442     
   39157318.9779256     
   38814823.5463779     
   38471359.0223811     
   38126987.5814716     
   37781777.8323941     
   37435804.5498144     
   37089148.3424925     
   36741895.2504158     
   36394136.2638392     
   36045966.7566100     
   35697485.8255228     
   35348795.5267906     
   35000000.0000000     
   70000000.0000000     
   69585712.5535487     
   69171610.0215193     
   68757875.8745992     
   68344690.8206993     
   67932231.6442527     
   67520670.1953305     
   67110172.5156678     
   66700898.0896398     
   66292999.2091208     
   65886620.4419801     
   65481898.1947590     
   65078960.3607750     
   64677926.0455879     
   64278905.3623816     
   63881999.2904060     
   63487299.5901660     
   63094888.7695553     
   62704840.0955967     
   62317217.6469063     
   61932076.4023910     
   61549462.3620833     
   61169412.6963608     
   60791955.9201359     
   60417112.0888980     
   60044893.0137785     
   59675302.4930709     
   59308336.5578777     
   58943983.7297934     
   58582225.2887213     
   58223035.5491371     
   57866382.1432744     
   57512226.3098818     
   57160523.1873463     
   56811222.1101218     
   56464266.9075315     
   56119596.2041276     
   55777143.7209033     
   55436838.5767475     
   55098605.5896305     
   54762365.5770835     
   54428035.6556180     
   54095529.5387904     
   53764757.8336860     
   53435628.3356496     
   53108046.3211352     
   52781914.8385946     
   52457134.9973615     
   52133606.2545212     
   51811226.6997779     
   51489893.3383678     
   51169502.3720654     
   50849949.4783654     
   50531130.0879126     
   50212939.6602716     
   49895273.9581227     
   49578029.3199648     
   49261102.9314082     
   48944393.0951123     
   48627799.4994261     
   48311223.4857539     
   47994568.3146515     
   47677739.4306225     
   47360644.7255600     
   47043194.8007276     
   46725303.2271376     
   46406886.8041297     
   46087865.8159037     
   45768164.2856896     
   45447710.2271777     
   45126435.8927563     
   44804278.0180170     
   44481178.0619059     
   44157082.4417965     
   43831942.7626577     
   43505716.0393742     
   43178364.9111509     
   42849857.8468005     
   42520169.3395684     
   42189280.0899843     
   41857177.1750713     
   41523854.2020478     
   41189311.4444689     
   40853555.9585329     
   40516601.6770541     
   40178469.4783528     
   39839187.2270469     
   39498789.7834442     
   39157318.9779256     
   38814823.5463779     
   38471359.0223811     
   38126987.5814716     
   37781777.8323941     
   37435804.5498142     
   37089148.3424924     
   36741895.2504158     
   36394136.2638392     
   36045966.7566099     
   35697485.8255228     
   35348795.5267906     
   35000000.0000000     
   70000000.0000000     
   69585712.5535487     
   69171610.0215193     
   68757875.8745992     
   68344690.8206994     
   67932231.6442527     
   67520670.1953305     
   67110172.5156677     
   66700898.0896400     
   66292999.2091208     
   65886620.4419801     
   65481898.1947590     
   65078960.3607750     
   64677926.0455880     
   64278905.3623816     
   63881999.2904061     
   63487299.5901660     
   63094888.7695553     
   62704840.0955968     
   62317217.6469063     
   61932076.4023910     
   61549462.3620833     
   61169412.6963609     
   60791955.9201359     
   60417112.0888979     
   60044893.0137785     
   59675302.4930709     
   59308336.5578777     
   58943983.7297935     
   58582225.2887212     
   58223035.5491371     
   57866382.1432745     
   57512226.3098818     
   57160523.1873463     
   56811222.1101217     
   56464266.9075315     
   56119596.2041275     
   55777143.7209033     
   55436838.5767476     
   55098605.5896304     
   54762365.5770836     
   54428035.6556180     
   54095529.5387905     
   53764757.8336859     
   53435628.3356496     
   53108046.3211353     
   52781914.8385946     
   52457134.9973615     
   52133606.2545212     
   51811226.6997780     
   51489893.3383678     
   51169502.3720655     
   50849949.4783654     
   50531130.0879126     
   50212939.6602717     
   49895273.9581227     
   49578029.3199648     
   49261102.9314082     
   48944393.0951123     
   48627799.4994261     
   48311223.4857540     
   47994568.3146515     
   47677739.4306225     
   47360644.7255601     
   47043194.8007276     
   46725303.2271376     
   46406886.8041298     
   46087865.8159037     
   45768164.2856897     
   45447710.2271777     
   45126435.8927564     
   44804278.0180171     
   44481178.0619058     
   44157082.4417964     
   43831942.7626576     
   43505716.0393743     
   43178364.9111510     
   42849857.8468005     
   42520169.3395685     
   42189280.0899843     
   41857177.1750713     
   41523854.2020478     
   41189311.4444689     
   40853555.9585329     
   40516601.6770541     
   40178469.4783528     
   39839187.2270469     
   39498789.7834442     
   39157318.9779255     
   38814823.5463779     
   38471359.0223811     
   38126987.5814716     
   37781777.8323941     
   37435804.5498142     
   37089148.3424924     
   36741895.2504158     
   36394136.2638392     
   36045966.7566099     
   35697485.8255228     
   35348795.5267906     
   35000000.0000000     
   70000000.0000000     
   69585712.5535487     
   69171610.0215192     
   68757875.8745993     
   68344690.8206995     
   67932231.6442527     
   67520670.1953305     
   67110172.5156678     
   66700898.0896400     
   66292999.2091208     
   65886620.4419801     
   65481898.1947590     
   65078960.3607750     
   64677926.0455880     
   64278905.3623816     
   63881999.2904060     
   63487299.5901660     
   63094888.7695553     
   62704840.0955969     
   62317217.6469062     
   61932076.4023910     
   61549462.3620834     
   61169412.6963610     
   60791955.9201359     
   60417112.0888979     
   60044893.0137785     
   59675302.4930709     
   59308336.5578778     
   58943983.7297935     
   58582225.2887212     
   58223035.5491370     
   57866382.1432744     
   57512226.3098818     
   57160523.1873464     
   56811222.1101218     
   56464266.9075314     
   56119596.2041275     
   55777143.7209034     
   55436838.5767476     
   55098605.5896304     
   54762365.5770836     
   54428035.6556180     
   54095529.5387905     
   53764757.8336860     
   53435628.3356496     
   53108046.3211352     
   52781914.8385946     
   52457134.9973616     
   52133606.2545212     
   51811226.6997781     
   51489893.3383678     
   51169502.3720655     
   50849949.4783654     
   50531130.0879126     
   50212939.6602717     
   49895273.9581228     
   49578029.3199648     
   49261102.9314082     
   48944393.0951123     
   48627799.4994262     
   48311223.4857541     
   47994568.3146515     
   47677739.4306226     
   47360644.7255600     
   47043194.8007277     
   46725303.2271376     
   46406886.8041298     
   46087865.8159038     
   45768164.2856896     
   45447710.2271778     
   45126435.8927564     
   44804278.0180171     
   44481178.0619059     
   44157082.4417964     
   43831942.7626576     
   43505716.0393743     
   43178364.9111510     
   42849857.8468005     
   42520169.3395684     
   42189280.0899844     
   41857177.1750712     
   41523854.2020479     
   41189311.4444688     
   40853555.9585329     
   40516601.6770542     
   40178469.4783528     
   39839187.2270469     
   39498789.7834443     
   39157318.9779255     
   38814823.5463778     
   38471359.0223810     
   38126987.5814716     
   37781777.8323940     
   37435804.5498141     
   37089148.3424924     
   36741895.2504157     
   36394136.2638392     
   36045966.7566099     
   35697485.8255227     
   35348795.5267906     
   35000000.0000000     
   70000000.0000000     
   69585712.5535488     
   69171610.0215191     
   68757875.8745994     
   68344690.8206995     
   67932231.6442527     
   67520670.1953305     
   67110172.5156679     
   66700898.0896399     
   66292999.2091208     
   65886620.4419800     
   65481898.1947589     
   65078960.3607750     
   64677926.0455880     
   64278905.3623816     
   63881999.2904059     
   63487299.5901660     
   63094888.7695553     
   62704840.0955969     
   62317217.6469063     
   61932076.4023910     
   61549462.3620834     
   61169412.6963610     
   60791955.9201360     
   60417112.0888978     
   60044893.0137785     
   59675302.4930709     
   59308336.5578778     
   58943983.7297935     
   58582225.2887213     
   58223035.5491369     
   57866382.1432744     
   57512226.3098817     
   57160523.1873465     
   56811222.1101217     
   56464266.9075315     
   56119596.2041275     
   55777143.7209034     
   55436838.5767477     
   55098605.5896304     
   54762365.5770836     
   54428035.6556180     
   54095529.5387905     
   53764757.8336860     
   53435628.3356496     
   53108046.3211352     
   52781914.8385946     
   52457134.9973616     
   52133606.2545212     
   51811226.6997782     
   51489893.3383679     
   51169502.3720655     
   50849949.4783655     
   50531130.0879126     
   50212939.6602717     
   49895273.9581228     
   49578029.3199648     
   49261102.9314083     
   48944393.0951123     
   48627799.4994262     
   48311223.4857542     
   47994568.3146514     
   47677739.4306226     
   47360644.7255600     
   47043194.8007277     
   46725303.2271376     
   46406886.8041298     
   46087865.8159039     
   45768164.2856897     
   45447710.2271778     
   45126435.8927564     
   44804278.0180171     
   44481178.0619059     
   44157082.4417964     
   43831942.7626576     
   43505716.0393744     
   43178364.9111510     
   42849857.8468006     
   42520169.3395684     
   42189280.0899844     
   41857177.1750712     
   41523854.2020478     
   41189311.4444688     
   40853555.9585329     
   40516601.6770541     
   40178469.4783528     
   39839187.2270469     
   39498789.7834443     
   39157318.9779256     
   38814823.5463778     
   38471359.0223811     
   38126987.5814716     
   37781777.8323940     
   37435804.5498141     
   37089148.3424925     
   36741895.2504157     
   36394136.2638392     
   36045966.7566099     
   35697485.8255227     
   35348795.5267906     
   35000000.0000000     
   70000000.0000000     
   69585712.5535487     
   69171610.0215192     
   68757875.8745994     
   68344690.8206995     
   67932231.6442527     
   67520670.1953305     
   67110172.5156680     
   66700898.0896399     
   66292999.2091207     
   65886620.4419801     
   65481898.1947589     
   65078960.3607750     
   64677926.0455880     
   64278905.3623816     
   63881999.2904060     
   63487299.5901661     
   63094888.7695553     
   62704840.0955969     
   62317217.6469063     
   61932076.4023909     
   61549462.3620834     
   61169412.6963610     
   60791955.9201360     
   60417112.0888978     
   60044893.0137785     
   59675302.4930709     
   59308336.5578778     
   58943983.7297935     
   58582225.2887212     
   58223035.5491369     
   57866382.1432744     
   57512226.3098818     
   57160523.1873465     
   56811222.1101217     
   56464266.9075314     
   56119596.2041275     
   55777143.7209035     
   55436838.5767477     
   55098605.5896304     
   54762365.5770836     
   54428035.6556180     
   54095529.5387905     
   53764757.8336860     
   53435628.3356496     
   53108046.3211352     
   52781914.8385946     
   52457134.9973616     
   52133606.2545212     
   51811226.6997782     
   51489893.3383679     
   51169502.3720655     
   50849949.4783655     
   50531130.0879126     
   50212939.6602717     
   49895273.9581228     
   49578029.3199648     
   49261102.9314083     
   48944393.0951123     
   48627799.4994262     
   48311223.4857541     
   47994568.3146515     
   47677739.4306226     
   47360644.7255599     
   47043194.8007277     
   46725303.2271376     
   46406886.8041298     
   46087865.8159040     
   45768164.2856896     
   45447710.2271778     
   45126435.8927564     
   44804278.0180171     
   44481178.0619059     
   44157082.4417964     
   43831942.7626576     
   43505716.0393744     
   43178364.9111510     
   42849857.8468006     
   42520169.3395684     
   42189280.0899844     
   41857177.1750712     
   41523854.2020478     
   41189311.4444689     
   40853555.9585330     
   40516601.6770541     
   40178469.4783528     
   39839187.2270469     
   39498789.7834443     
   39157318.9779256     
   38814823.5463778     
   38471359.0223811     
   38126987.5814716     
   37781777.8323940     
   37435804.5498141     
   37089148.3424925     
   36741895.2504158     
   36394136.2638392     
   36045966.7566099     
   35697485.8255227     
   35348795.5267906     
   35000000.0000000     
VECTORS u double 
    0.00000E+00         0.00000E+00         0.00000E+00
    0.00000E+00         0.00000E+00         0.00000E+00
    0.00000E+00         0.00000E+00         0.00000E+00
    0.00000E+00         0.00000E+00         0.00000E+00
    0.00000E+00         0.00000E+00         0.00000E+00
    0.00000E+00         0.00000E+00         0.00000E+00
    0.00000E+00         0.00000E+00         0.00000E+00
    0.00000E+00         0.00000E+00         0.00000E+00
    0.00000E+00         0.00000E+00         0.00000E+00
    0.00000E+00         0.00000E+00         0.00000E+00
    0.00000E+00         0.00000E+00         0.00000E+00
    0.00000E+00         0.00000E+00         0.00000E+00
    0.00000E+00         0.00000E+00         0.00000E+00
    0.00000E+00         0.00000E+00         0.00000E+00
    0.00000E+00         0.00000E+00         0.00000E+00
    0.00000E+00         0.00000E+00         0.00000E+00
    0.00000E+00         0.00000E+00         0.00000E+00
    0.00000E+00         0.00000E+00         0.00000E+00
    0.00000E+00         0.00000E+00         0.00000E+00
    0.00000E+00         0.00000E+00         0.00000E+00
    0.00000E+00         0.00000E+00         0.00000E+00
    0.00000E+00         0.00000E+00         0.00000E+00
    0.00000E+00         0.00000E+00         0.00000E+00
    0.00000E+00         0.00000E+00         0.00000E+00
    0.00000E+00         0.00000E+00         0.00000E+00
    0.00000E+00         0.00000E+00         0.00000E+00
    0.00000E+00         0.00000E+00         0.00000E+00
    0.00000E+00         0.00000E+00         0.00000E+00
    0.00000E+00         0.00000E+00         0.00000E+00
    0.00000E+00         0.00000E+00         0.00000E+00
    0.00000E+00         0.00000E+00         0.00000E+00
    0.00000E+00         0.00000E+00         0.00000E+00
    0.00000E+00         0.00000E+00         0.00000E+00
    0.00000E+00         0.00000E+00         0.00000E+00
    0.00000E+00         0.00000E+00         0.00000E+00
    0.00000E+00         0.00000E+00         0.00000E+00
    0.00000E+00         0.00000E+00         0.00000E+00
    0.00000E+00         0.00000E+00         0.00000E+00
    0.00000E+00         0.00000E+00         0.00000E+00
    0.00000E+00         0.00000E+00         0.00000E+00
    0.00000E+00         0.00000E+00         0.00000E+00
    0.00000E+00         0.00000E+00         0.00000E+00
    0.00000E+00         0.00000E+00         0.00000E+00
    0.00000E+00         0.00000E+00         0.00000E+00
    0.00000E+00         0.00000E+00         0.00000E+00
    0.00000E+00         0.00000E+00         0.00000E+00
    0.00000E+00         0.00000E+00         0.00000E+00
    0.00000E+00         0.00000E+00         0.00000E+00
    0.00000E+00         0.00000E+00         0.00000E+00
    0.00000E+00         0.00000E+00         0.00000E+00
    0.00000E+00         0.00000E+00         0.00000E+00
    0.00000E+00         0.00000E+00         0.00000E+00
    0.00000E+00         0.00000E+00         0.00000E+00
    0.00000E+00         0.00000E+00         0.00000E+00
    0.00000E+00         0.00000E+00         0.00000E+00
    0.00000E+00         0.00000E+00         0.00000E+00
    0.00000E+00         0.00000E+00         0.00000E+00
    0.00000E+00         0.00000E+00         0.00000E+00
    0.00000E+00         0.00000E+00         0.00000E+00
    0.00000E+00         0.00000E+00         0.00000E+00
    0.00000E+00         0.00000E+00         0.00000E+00
    0.00000E+00         0.00000E+00         0.00000E+00
    0.00000E+00         0.00000E+00         0.00000E+00
    0.00000E+00         0.00000E+00         0.00000E+00
    0.00000E+00         0.00000E+00         0.00000E+00
    0.00000E+00         0.00000E+00         0.00000E+00
    0.00000E+00         0.00000E+00         0.00000E+00
    0.00000E+00         0.00000E+00         0.00000E+00
    0.00000E+00         0.00000E+00         0.00000E+00
    0.00000E+00         0.00000E+00         0.00000E+00
    0.00000E+00         0.00000E+00         0.00000E+00
    0.00000E+00         0.00000E+00         0.00000E+00
    0.00000E+00         0.00000E+00         0.00000E+00
    0.00000E+00         0.00000E+00         0.00000E+00
    0.00000E+00         0.00000E+00         0.00000E+00
    0.00000E+00         0.00000E+00         0.00000E+00
    0.00000E+00         0.00000E+00         0.00000E+00
    0.00000E+00         0.00000E+00         0.00000E+00
    0.00000E+00         0.00000E+00         0.00000E+00
    0.00000E+00         0.00000E+00         0.00000E+00
    0.00000E+00         0.00000E+00         0.00000E+00
    0.00000E+00         0.00000E+00         0.00000E+00
    0.00000E+00         0.00000E+00         0.00000E+00
    0.00000E+00         0.00000E+00         0.00000E+00
    0.00000E+00         0.00000E+00         0.00000E+00
    0.00000E+00         0.00000E+00         0.00000E+00
    0.00000E+00         0.00000E+00         0.00000E+00
    0.00000E+00         0.00000E+00         0.00000E+00
    0.00000E+00         0.00000E+00         0.00000E+00
    0.00000E+00         0.00000E+00         0.00000E+00
    0.00000E+00         0.00000E+00         0.00000E+00
    0.00000E+00         0.00000E+00         0.00000E+00
    0.00000E+00         0.00000E+00         0.00000E+00
    0.00000E+00         0.00000E+00         0.00000E+00
    0.00000E+00         0.00000E+00         0.00000E+00
    0.00000E+00         0.00000E+00         0.00000E+00
    0.00000E+00         0.00000E+00         0.00000E+00
    0.00000E+00         0.00000E+00         0.00000E+00
    0.00000E+00         0.00000E+00         0.00000E+00
    0.00000E+00         0.00000E+00         0.00000E+00
    0.00000E+00         0.00000E+00         0.00000E+00
    0.00000E+00         0.97679E-03         0.00000E+00
    0.10233E-03         0.96753E-03         0.00000E+00
    0.16499E-03         0.94720E-03         0.00000E+00
    0.21505E-03         0.92212E-03         0.00000E+00
    0.25649E-03         0.89208E-03         0.00000E+00
    0.29224E-03         0.85828E-03         0.00000E+00
    0.32368E-03         0.82147E-03         0.00000E+00
    0.35160E-03         0.78242E-03         0.00000E+00
    0.37641E-03         0.74173E-03         0.00000E+00
    0.39829E-03         0.69987E-03         0.00000E+00
    0.41732E-03         0.65717E-03         0.00000E+00
    0.43346E-03         0.61386E-03         0.00000E+00
    0.44659E-03         0.57001E-03         0.00000E+00
    0.45644E-03         0.52561E-03         0.00000E+00
    0.46261E-03         0.48031E-03         0.00000E+00
    0.46244E-03         0.43364E-03         0.00000E+00
    0.45506E-03         0.37992E-03         0.00000E+00
    0.45212E-03         0.33210E-03         0.00000E+00
    0.45415E-03         0.28640E-03         0.00000E+00
    0.45756E-03         0.24192E-03         0.00000E+00
    0.46146E-03         0.19827E-03         0.00000E+00
    0.46542E-03         0.15530E-03         0.00000E+00
    0.46921E-03         0.11297E-03         0.00000E+00
    0.47268E-03         0.71266E-04         0.00000E+00
    0.47574E-03         0.30183E-04         0.00000E+00
    0.47832E-03        -0.10297E-04         0.00000E+00
    0.48038E-03        -0.50198E-04         0.00000E+00
    0.48190E-03        -0.89550E-04         0.00000E+00
    0.48286E-03        -0.12839E-03         0.00000E+00
    0.48324E-03        -0.16677E-03         0.00000E+00
    0.48302E-03        -0.20475E-03         0.00000E+00
    0.48218E-03        -0.24237E-03         0.00000E+00
    0.48070E-03        -0.27971E-03         0.00000E+00
    0.47855E-03        -0.31682E-03         0.00000E+00
    0.47566E-03        -0.35378E-03         0.00000E+00
    0.47190E-03        -0.39061E-03         0.00000E+00
    0.46707E-03        -0.42741E-03         0.00000E+00
    0.45954E-03        -0.46396E-03         0.00000E+00
    0.45217E-03        -0.49988E-03         0.00000E+00
    0.44760E-03        -0.53558E-03         0.00000E+00
    0.44396E-03        -0.57137E-03         0.00000E+00
    0.44102E-03        -0.60715E-03         0.00000E+00
    0.43860E-03        -0.64293E-03         0.00000E+00
    0.43660E-03        -0.67866E-03         0.00000E+00
    0.43494E-03        -0.71433E-03         0.00000E+00
    0.43359E-03        -0.74993E-03         0.00000E+00
    0.43249E-03        -0.78544E-03         0.00000E+00
    0.43161E-03        -0.82087E-03         0.00000E+00
    0.43092E-03        -0.85621E-03         0.00000E+00
    0.43041E-03        -0.89147E-03         0.00000E+00
    0.43004E-03        -0.92665E-03         0.00000E+00
    0.42982E-03        -0.96177E-03         0.00000E+00
    0.42971E-03        -0.99684E-03         0.00000E+00
    0.42973E-03        -0.10319E-02         0.00000E+00
    0.42985E-03        -0.10669E-02         0.00000E+00
    0.43007E-03        -0.11019E-02         0.00000E+00
    0.43038E-03        -0.11369E-02         0.00000E+00
    0.43079E-03        -0.11719E-02         0.00000E+00
    0.43127E-03        -0.12070E-02         0.00000E+00
    0.43183E-03        -0.12421E-02         0.00000E+00
    0.43246E-03        -0.12773E-02         0.00000E+00
    0.43315E-03        -0.13126E-02         0.00000E+00
    0.43389E-03        -0.13480E-02         0.00000E+00
    0.43469E-03        -0.13836E-02         0.00000E+00
    0.43551E-03        -0.14193E-02         0.00000E+00
    0.43636E-03        -0.14551E-02         0.00000E+00
    0.43722E-03        -0.14912E-02         0.00000E+00
    0.43806E-03        -0.15275E-02         0.00000E+00
    0.43888E-03        -0.15640E-02         0.00000E+00
    0.43964E-03        -0.16007E-02         0.00000E+00
    0.44033E-03        -0.16378E-02         0.00000E+00
    0.44090E-03        -0.16751E-02         0.00000E+00
    0.44132E-03        -0.17128E-02         0.00000E+00
    0.44155E-03        -0.17509E-02         0.00000E+00
    0.44153E-03        -0.17893E-02         0.00000E+00
    0.44122E-03        -0.18282E-02         0.00000E+00
    0.44055E-03        -0.18675E-02         0.00000E+00
    0.43945E-03        -0.19074E-02         0.00000E+00
    0.43785E-03        -0.19477E-02         0.00000E+00
    0.43567E-03        -0.19887E-02         0.00000E+00
    0.43282E-03        -0.20302E-02         0.00000E+00
    0.42921E-03        -0.20724E-02         0.00000E+00
    0.42476E-03        -0.21153E-02         0.00000E+00
    0.41939E-03        -0.21589E-02         0.00000E+00
    0.41302E-03        -0.22033E-02         0.00000E+00
    0.40560E-03        -0.22484E-02         0.00000E+00
    0.39710E-03        -0.22941E-02         0.00000E+00
    0.38749E-03        -0.23405E-02         0.00000E+00
    0.37679E-03        -0.23874E-02         0.00000E+00
    0.36504E-03        -0.24347E-02         0.00000E+00
    0.35229E-03        -0.24822E-02         0.00000E+00
    0.33855E-03        -0.25295E-02         0.00000E+00
    0.32380E-03        -0.25764E-02         0.00000E+00
    0.30785E-03        -0.26225E-02         0.00000E+00
    0.29026E-03        -0.26674E-02         0.00000E+00
    0.27016E-03        -0.27109E-02         0.00000E+00
    0.24602E-03        -0.27524E-02         0.00000E+00
    0.21551E-03        -0.27924E-02         0.00000E+00
    0.17375E-03        -0.28290E-02         0.00000E+00
    0.11627E-03        -0.28668E-02         0.00000E+00
    0.00000E+00        -0.28880E-02         0.00000E+00
    0.00000E+00         0.19433E-02         0.00000E+00
    0.19405E-03         0.19272E-02         0.00000E+00
    0.32154E-03         0.18892E-02         0.00000E+00
    0.42201E-03         0.18397E-02         0.00000E+00
    0.50569E-03         0.17804E-02         0.00000E+00
    0.57778E-03         0.17132E-02         0.00000E+00
    0.64116E-03         0.16400E-02         0.00000E+00
    0.69740E-03         0.15622E-02         0.00000E+00
    0.74732E-03         0.14811E-02         0.00000E+00
    0.79133E-03         0.13977E-02         0.00000E+00
    0.82959E-03         0.13126E-02         0.00000E+00
    0.86204E-03         0.12263E-02         0.00000E+00
    0.88848E-03         0.11389E-02         0.00000E+00
    0.90844E-03         0.10504E-02         0.00000E+00
    0.92098E-03         0.96032E-03         0.00000E+00
    0.92244E-03         0.86744E-03         0.00000E+00
    0.91071E-03         0.76248E-03         0.00000E+00
    0.90466E-03         0.66599E-03         0.00000E+00
    0.90813E-03         0.57442E-03         0.00000E+00
    0.91446E-03         0.48537E-03         0.00000E+00
    0.92184E-03         0.39803E-03         0.00000E+00
    0.92939E-03         0.31208E-03         0.00000E+00
    0.93665E-03         0.22742E-03         0.00000E+00
    0.94330E-03         0.14402E-03         0.00000E+00
    0.94915E-03         0.61864E-04         0.00000E+00
    0.95408E-03        -0.19089E-04         0.00000E+00
    0.95801E-03        -0.98883E-04         0.00000E+00
    0.96088E-03        -0.17758E-03         0.00000E+00
    0.96266E-03        -0.25526E-03         0.00000E+00
    0.96330E-03        -0.33202E-03         0.00000E+00
    0.96277E-03        -0.40796E-03         0.00000E+00
    0.96104E-03        -0.48321E-03         0.00000E+00
    0.95805E-03        -0.55787E-03         0.00000E+00
    0.95372E-03        -0.63210E-03         0.00000E+00
    0.94793E-03        -0.70599E-03         0.00000E+00
    0.94047E-03        -0.77963E-03         0.00000E+00
    0.93078E-03        -0.85311E-03         0.00000E+00
    0.91649E-03        -0.92608E-03         0.00000E+00
    0.90265E-03        -0.99811E-03         0.00000E+00
    0.89345E-03        -0.10697E-02         0.00000E+00
    0.88624E-03        -0.11414E-02         0.00000E+00
    0.88037E-03        -0.12131E-02         0.00000E+00
    0.87553E-03        -0.12847E-02         0.00000E+00
    0.87153E-03        -0.13563E-02         0.00000E+00
    0.86822E-03        -0.14277E-02         0.00000E+00
    0.86551E-03        -0.14989E-02         0.00000E+00
    0.86330E-03        -0.15700E-02         0.00000E+00
    0.86153E-03        -0.16409E-02         0.00000E+00
    0.86015E-03        -0.17117E-02         0.00000E+00
    0.85911E-03        -0.17823E-02         0.00000E+00
    0.85837E-03        -0.18527E-02         0.00000E+00
    0.85791E-03        -0.19230E-02         0.00000E+00
    0.85770E-03        -0.19931E-02         0.00000E+00
    0.85773E-03        -0.20632E-02         0.00000E+00
    0.85796E-03        -0.21333E-02         0.00000E+00
    0.85840E-03        -0.22033E-02         0.00000E+00
    0.85903E-03        -0.22734E-02         0.00000E+00
    0.85984E-03        -0.23435E-02         0.00000E+00
    0.86081E-03        -0.24136E-02         0.00000E+00
    0.86193E-03        -0.24839E-02         0.00000E+00
    0.86320E-03        -0.25543E-02         0.00000E+00
    0.86459E-03        -0.26250E-02         0.00000E+00
    0.86610E-03        -0.26958E-02         0.00000E+00
    0.86769E-03        -0.27669E-02         0.00000E+00
    0.86936E-03        -0.28383E-02         0.00000E+00
    0.87108E-03        -0.29101E-02         0.00000E+00
    0.87281E-03        -0.29822E-02         0.00000E+00
    0.87453E-03        -0.30548E-02         0.00000E+00
    0.87619E-03        -0.31278E-02         0.00000E+00
    0.87775E-03        -0.32013E-02         0.00000E+00
    0.87915E-03        -0.32754E-02         0.00000E+00
    0.88033E-03        -0.33501E-02         0.00000E+00
    0.88122E-03        -0.34254E-02         0.00000E+00
    0.88172E-03        -0.35015E-02         0.00000E+00
    0.88175E-03        -0.35783E-02         0.00000E+00
    0.88118E-03        -0.36560E-02         0.00000E+00
    0.87991E-03        -0.37346E-02         0.00000E+00
    0.87779E-03        -0.38141E-02         0.00000E+00
    0.87466E-03        -0.38948E-02         0.00000E+00
    0.87038E-03        -0.39765E-02         0.00000E+00
    0.86477E-03        -0.40595E-02         0.00000E+00
    0.85765E-03        -0.41438E-02         0.00000E+00
    0.84885E-03        -0.42294E-02         0.00000E+00
    0.83820E-03        -0.43164E-02         0.00000E+00
    0.82556E-03        -0.44049E-02         0.00000E+00
    0.81081E-03        -0.44949E-02         0.00000E+00
    0.79385E-03        -0.45862E-02         0.00000E+00
    0.77465E-03        -0.46788E-02         0.00000E+00
    0.75321E-03        -0.47724E-02         0.00000E+00
    0.72960E-03        -0.48668E-02         0.00000E+00
    0.70387E-03        -0.49615E-02         0.00000E+00
    0.67607E-03        -0.50560E-02         0.00000E+00
    0.64610E-03        -0.51496E-02         0.00000E+00
    0.61358E-03        -0.52416E-02         0.00000E+00
    0.57763E-03        -0.53311E-02         0.00000E+00
    0.53649E-03        -0.54174E-02         0.00000E+00
    0.48728E-03        -0.54999E-02         0.00000E+00
    0.42487E-03        -0.55779E-02         0.00000E+00
    0.34124E-03        -0.56500E-02         0.00000E+00
    0.22206E-03        -0.57184E-02         0.00000E+00
    0.00000E+00        -0.57528E-02         0.00000E+00
    0.00000E+00         0.29011E-02         0.00000E+00
    0.27776E-03         0.28796E-02         0.00000E+00
    0.47006E-03         0.28258E-02         0.00000E+00
    0.62147E-03         0.27530E-02         0.00000E+00
    0.74790E-03         0.26650E-02         0.00000E+00
    0.85688E-03         0.25649E-02         0.00000E+00
    0.95266E-03         0.24556E-02         0.00000E+00
    0.10376E-02         0.23394E-02         0.00000E+00
    0.11129E-02         0.22182E-02         0.00000E+00
    0.11793E-02         0.20935E-02         0.00000E+00
    0.12370E-02         0.19662E-02         0.00000E+00
    0.12859E-02         0.18372E-02         0.00000E+00
    0.13259E-02         0.17066E-02         0.00000E+00
    0.13562E-02         0.15743E-02         0.00000E+00
    0.13755E-02         0.14399E-02         0.00000E+00
    0.13800E-02         0.13014E-02         0.00000E+00
    0.13662E-02         0.11472E-02         0.00000E+00
    0.13574E-02         0.10017E-02         0.00000E+00
    0.13619E-02         0.86400E-03         0.00000E+00
    0.13707E-02         0.73033E-03         0.00000E+00
    0.13812E-02         0.59927E-03         0.00000E+00
    0.13920E-02         0.47032E-03         0.00000E+00
    0.14024E-02         0.34333E-03         0.00000E+00
    0.14119E-02         0.21825E-03         0.00000E+00
    0.14203E-02         0.95023E-04         0.00000E+00
    0.14274E-02        -0.26394E-04         0.00000E+00
    0.14330E-02        -0.14608E-03         0.00000E+00
    0.14370E-02        -0.26411E-03         0.00000E+00
    0.14395E-02        -0.38063E-03         0.00000E+00
    0.14403E-02        -0.49576E-03         0.00000E+00
    0.14394E-02        -0.60967E-03         0.00000E+00
    0.14367E-02        -0.72252E-03         0.00000E+00
    0.14321E-02        -0.83452E-03         0.00000E+00
    0.14256E-02        -0.94583E-03         0.00000E+00
    0.14169E-02        -0.10566E-02         0.00000E+00
    0.14058E-02        -0.11671E-02         0.00000E+00
    0.13913E-02        -0.12771E-02         0.00000E+00
    0.13709E-02        -0.13865E-02         0.00000E+00
    0.13513E-02        -0.14948E-02         0.00000E+00
    0.13376E-02        -0.16025E-02         0.00000E+00
    0.13268E-02        -0.17102E-02         0.00000E+00
    0.13180E-02        -0.18179E-02         0.00000E+00
    0.13108E-02        -0.19254E-02         0.00000E+00
    0.13048E-02        -0.20329E-02         0.00000E+00
    0.12998E-02        -0.21401E-02         0.00000E+00
    0.12958E-02        -0.22471E-02         0.00000E+00
    0.12924E-02        -0.23538E-02         0.00000E+00
    0.12898E-02        -0.24603E-02         0.00000E+00
    0.12877E-02        -0.25664E-02         0.00000E+00
    0.12861E-02        -0.26724E-02         0.00000E+00
    0.12850E-02        -0.27781E-02         0.00000E+00
    0.12843E-02        -0.28836E-02         0.00000E+00
    0.12840E-02        -0.29889E-02         0.00000E+00
    0.12840E-02        -0.30941E-02         0.00000E+00
    0.12844E-02        -0.31993E-02         0.00000E+00
    0.12850E-02        -0.33044E-02         0.00000E+00
    0.12860E-02        -0.34095E-02         0.00000E+00
    0.12872E-02        -0.35147E-02         0.00000E+00
    0.12886E-02        -0.36200E-02         0.00000E+00
    0.12903E-02        -0.37255E-02         0.00000E+00
    0.12922E-02        -0.38312E-02         0.00000E+00
    0.12943E-02        -0.39371E-02         0.00000E+00
    0.12966E-02        -0.40435E-02         0.00000E+00
    0.12990E-02        -0.41501E-02         0.00000E+00
    0.13016E-02        -0.42573E-02         0.00000E+00
    0.13042E-02        -0.43649E-02         0.00000E+00
    0.13068E-02        -0.44732E-02         0.00000E+00
    0.13094E-02        -0.45820E-02         0.00000E+00
    0.13119E-02        -0.46915E-02         0.00000E+00
    0.13143E-02        -0.48018E-02         0.00000E+00
    0.13165E-02        -0.49129E-02         0.00000E+00
    0.13183E-02        -0.50249E-02         0.00000E+00
    0.13197E-02        -0.51378E-02         0.00000E+00
    0.13205E-02        -0.52519E-02         0.00000E+00
    0.13206E-02        -0.53670E-02         0.00000E+00
    0.13199E-02        -0.54834E-02         0.00000E+00
    0.13181E-02        -0.56012E-02         0.00000E+00
    0.13150E-02        -0.57204E-02         0.00000E+00
    0.13104E-02        -0.58411E-02         0.00000E+00
    0.13041E-02        -0.59636E-02         0.00000E+00
    0.12959E-02        -0.60878E-02         0.00000E+00
    0.12853E-02        -0.62140E-02         0.00000E+00
    0.12723E-02        -0.63422E-02         0.00000E+00
    0.12565E-02        -0.64725E-02         0.00000E+00
    0.12376E-02        -0.66049E-02         0.00000E+00
    0.12156E-02        -0.67395E-02         0.00000E+00
    0.11903E-02        -0.68762E-02         0.00000E+00
    0.11615E-02        -0.70147E-02         0.00000E+00
    0.11293E-02        -0.71549E-02         0.00000E+00
    0.10937E-02        -0.72962E-02         0.00000E+00
    0.10548E-02        -0.74380E-02         0.00000E+00
    0.10126E-02        -0.75794E-02         0.00000E+00
    0.96692E-03        -0.77196E-02         0.00000E+00
    0.91722E-03        -0.78572E-02         0.00000E+00
    0.86213E-03        -0.79910E-02         0.00000E+00
    0.79908E-03        -0.81197E-02         0.00000E+00
    0.72373E-03        -0.82420E-02         0.00000E+00
    0.62847E-03        -0.83567E-02         0.00000E+00
    0.50189E-03        -0.84621E-02         0.00000E+00
    0.31895E-03        -0.85553E-02         0.00000E+00
    0.00000E+00        -0.85984E-02         0.00000E+00
    0.00000E+00         0.38514E-02         0.00000E+00
    0.35522E-03         0.38252E-02         0.00000E+00
    0.61124E-03         0.37571E-02         0.00000E+00
    0.81390E-03         0.36618E-02         0.00000E+00
    0.98349E-03         0.35458E-02         0.00000E+00
    0.11298E-02         0.34133E-02         0.00000E+00
    0.12584E-02         0.32683E-02         0.00000E+00
    0.13724E-02         0.31140E-02         0.00000E+00
    0.14734E-02         0.29530E-02         0.00000E+00
    0.15623E-02         0.27872E-02         0.00000E+00
    0.16396E-02         0.26181E-02         0.00000E+00
    0.17053E-02         0.24466E-02         0.00000E+00
    0.17589E-02         0.22731E-02         0.00000E+00
    0.17999E-02         0.20974E-02         0.00000E+00
    0.18264E-02         0.19190E-02         0.00000E+00
    0.18352E-02         0.17353E-02         0.00000E+00
    0.18211E-02         0.15338E-02         0.00000E+00
    0.18102E-02         0.13390E-02         0.00000E+00
    0.18153E-02         0.11551E-02         0.00000E+00
    0.18263E-02         0.97676E-03         0.00000E+00
    0.18394E-02         0.80195E-03         0.00000E+00
    0.18531E-02         0.63000E-03         0.00000E+00
    0.18664E-02         0.46069E-03         0.00000E+00
    0.18786E-02         0.29392E-03         0.00000E+00
    0.18893E-02         0.12964E-03         0.00000E+00
    0.18982E-02        -0.32232E-04         0.00000E+00
    0.19053E-02        -0.19179E-03         0.00000E+00
    0.19104E-02        -0.34917E-03         0.00000E+00
    0.19134E-02        -0.50451E-03         0.00000E+00
    0.19142E-02        -0.65801E-03         0.00000E+00
    0.19129E-02        -0.80988E-03         0.00000E+00
    0.19091E-02        -0.96034E-03         0.00000E+00
    0.19030E-02        -0.11097E-02         0.00000E+00
    0.18943E-02        -0.12581E-02         0.00000E+00
    0.18827E-02        -0.14058E-02         0.00000E+00
    0.18680E-02        -0.15530E-02         0.00000E+00
    0.18489E-02        -0.16995E-02         0.00000E+00
    0.18229E-02        -0.18452E-02         0.00000E+00
    0.17980E-02        -0.19899E-02         0.00000E+00
    0.17799E-02        -0.21339E-02         0.00000E+00
    0.17657E-02        -0.22777E-02         0.00000E+00
    0.17540E-02        -0.24214E-02         0.00000E+00
    0.17444E-02        -0.25650E-02         0.00000E+00
    0.17364E-02        -0.27084E-02         0.00000E+00
    0.17298E-02        -0.28515E-02         0.00000E+00
    0.17244E-02        -0.29943E-02         0.00000E+00
    0.17199E-02        -0.31368E-02         0.00000E+00
    0.17164E-02        -0.32788E-02         0.00000E+00
    0.17136E-02        -0.34205E-02         0.00000E+00
    0.17115E-02        -0.35619E-02         0.00000E+00
    0.17100E-02        -0.37029E-02         0.00000E+00
    0.17090E-02        -0.38437E-02         0.00000E+00
    0.17086E-02        -0.39842E-02         0.00000E+00
    0.17086E-02        -0.41246E-02         0.00000E+00
    0.17091E-02        -0.42648E-02         0.00000E+00
    0.17099E-02        -0.44050E-02         0.00000E+00
    0.17112E-02        -0.45453E-02         0.00000E+00
    0.17128E-02        -0.46856E-02         0.00000E+00
    0.17148E-02        -0.48261E-02         0.00000E+00
    0.17170E-02        -0.49668E-02         0.00000E+00
    0.17196E-02        -0.51078E-02         0.00000E+00
    0.17224E-02        -0.52491E-02         0.00000E+00
    0.17255E-02        -0.53909E-02         0.00000E+00
    0.17287E-02        -0.55332E-02         0.00000E+00
    0.17321E-02        -0.56761E-02         0.00000E+00
    0.17356E-02        -0.58196E-02         0.00000E+00
    0.17392E-02        -0.59639E-02         0.00000E+00
    0.17427E-02        -0.61091E-02         0.00000E+00
    0.17461E-02        -0.62551E-02         0.00000E+00
    0.17494E-02        -0.64021E-02         0.00000E+00
    0.17523E-02        -0.65502E-02         0.00000E+00
    0.17548E-02        -0.66995E-02         0.00000E+00
    0.17568E-02        -0.68500E-02         0.00000E+00
    0.17580E-02        -0.70020E-02         0.00000E+00
    0.17582E-02        -0.71554E-02         0.00000E+00
    0.17573E-02        -0.73105E-02         0.00000E+00
    0.17550E-02        -0.74673E-02         0.00000E+00
    0.17511E-02        -0.76261E-02         0.00000E+00
    0.17452E-02        -0.77869E-02         0.00000E+00
    0.17369E-02        -0.79499E-02         0.00000E+00
    0.17261E-02        -0.81153E-02         0.00000E+00
    0.17122E-02        -0.82832E-02         0.00000E+00
    0.16950E-02        -0.84538E-02         0.00000E+00
    0.16741E-02        -0.86271E-02         0.00000E+00
    0.16492E-02        -0.88033E-02         0.00000E+00
    0.16200E-02        -0.89824E-02         0.00000E+00
    0.15863E-02        -0.91641E-02         0.00000E+00
    0.15480E-02        -0.93485E-02         0.00000E+00
    0.15050E-02        -0.95349E-02         0.00000E+00
    0.14573E-02        -0.97229E-02         0.00000E+00
    0.14050E-02        -0.99116E-02         0.00000E+00
    0.13481E-02        -0.10100E-01         0.00000E+00
    0.12863E-02        -0.10286E-01         0.00000E+00
    0.12188E-02        -0.10469E-01         0.00000E+00
    0.11438E-02        -0.10647E-01         0.00000E+00
    0.10580E-02        -0.10817E-01         0.00000E+00
    0.95547E-03        -0.10979E-01         0.00000E+00
    0.82645E-03        -0.11129E-01         0.00000E+00
    0.65558E-03        -0.11265E-01         0.00000E+00
    0.40828E-03        -0.11378E-01         0.00000E+00
    0.00000E+00        -0.11428E-01         0.00000E+00
    0.00000E+00         0.47951E-02         0.00000E+00
    0.42764E-03         0.47647E-02         0.00000E+00
    0.74584E-03         0.46833E-02         0.00000E+00
    0.99977E-03         0.45665E-02         0.00000E+00
    0.12128E-02         0.44229E-02         0.00000E+00
    0.13969E-02         0.42584E-02         0.00000E+00
    0.15586E-02         0.40781E-02         0.00000E+00
    0.17019E-02         0.38859E-02         0.00000E+00
    0.18289E-02         0.36854E-02         0.00000E+00
    0.19407E-02         0.34789E-02         0.00000E+00
    0.20378E-02         0.32682E-02         0.00000E+00
    0.21203E-02         0.30546E-02         0.00000E+00
    0.21879E-02         0.28384E-02         0.00000E+00
    0.22397E-02         0.26197E-02         0.00000E+00
    0.22740E-02         0.23976E-02         0.00000E+00
    0.22877E-02         0.21691E-02         0.00000E+00
    0.22750E-02         0.19220E-02         0.00000E+00
    0.22628E-02         0.16778E-02         0.00000E+00
    0.22684E-02         0.14477E-02         0.00000E+00
    0.22811E-02         0.12246E-02         0.00000E+00
    0.22967E-02         0.10061E-02         0.00000E+00
    0.23130E-02         0.79110E-03         0.00000E+00
    0.23288E-02         0.57947E-03         0.00000E+00
    0.23433E-02         0.37103E-03         0.00000E+00
    0.23561E-02         0.16570E-03         0.00000E+00
    0.23668E-02        -0.36621E-04         0.00000E+00
    0.23751E-02        -0.23605E-03         0.00000E+00
    0.23811E-02        -0.43276E-03         0.00000E+00
    0.23845E-02        -0.62692E-03         0.00000E+00
    0.23853E-02        -0.81879E-03         0.00000E+00
    0.23833E-02        -0.10086E-02         0.00000E+00
    0.23785E-02        -0.11967E-02         0.00000E+00
    0.23708E-02        -0.13833E-02         0.00000E+00
    0.23599E-02        -0.15688E-02         0.00000E+00
    0.23455E-02        -0.17534E-02         0.00000E+00
    0.23271E-02        -0.19373E-02         0.00000E+00
    0.23036E-02        -0.21204E-02         0.00000E+00
    0.22724E-02        -0.23024E-02         0.00000E+00
    0.22427E-02        -0.24835E-02         0.00000E+00
    0.22205E-02        -0.26639E-02         0.00000E+00
    0.22028E-02        -0.28439E-02         0.00000E+00
    0.21884E-02        -0.30238E-02         0.00000E+00
    0.21764E-02        -0.32036E-02         0.00000E+00
    0.21664E-02        -0.33830E-02         0.00000E+00
    0.21582E-02        -0.35621E-02         0.00000E+00
    0.21514E-02        -0.37407E-02         0.00000E+00
    0.21458E-02        -0.39189E-02         0.00000E+00
    0.21413E-02        -0.40966E-02         0.00000E+00
    0.21378E-02        -0.42739E-02         0.00000E+00
    0.21352E-02        -0.44507E-02         0.00000E+00
    0.21333E-02        -0.46271E-02         0.00000E+00
    0.21321E-02        -0.48032E-02         0.00000E+00
    0.21315E-02        -0.49790E-02         0.00000E+00
    0.21315E-02        -0.51545E-02         0.00000E+00
    0.21321E-02        -0.53300E-02         0.00000E+00
    0.21332E-02        -0.55053E-02         0.00000E+00
    0.21347E-02        -0.56807E-02         0.00000E+00
    0.21368E-02        -0.58562E-02         0.00000E+00
    0.21392E-02        -0.60319E-02         0.00000E+00
    0.21421E-02        -0.62078E-02         0.00000E+00
    0.21453E-02        -0.63841E-02         0.00000E+00
    0.21488E-02        -0.65609E-02         0.00000E+00
    0.21527E-02        -0.67382E-02         0.00000E+00
    0.21568E-02        -0.69161E-02         0.00000E+00
    0.21611E-02        -0.70948E-02         0.00000E+00
    0.21655E-02        -0.72742E-02         0.00000E+00
    0.21700E-02        -0.74546E-02         0.00000E+00
    0.21744E-02        -0.76360E-02         0.00000E+00
    0.21788E-02        -0.78186E-02         0.00000E+00
    0.21829E-02        -0.80023E-02         0.00000E+00
    0.21867E-02        -0.81874E-02         0.00000E+00
    0.21899E-02        -0.83739E-02         0.00000E+00
    0.21924E-02        -0.85620E-02         0.00000E+00
    0.21940E-02        -0.87519E-02         0.00000E+00
    0.21945E-02        -0.89435E-02         0.00000E+00
    0.21935E-02        -0.91372E-02         0.00000E+00
    0.21908E-02        -0.93331E-02         0.00000E+00
    0.21861E-02        -0.95313E-02         0.00000E+00
    0.21788E-02        -0.97320E-02         0.00000E+00
    0.21688E-02        -0.99355E-02         0.00000E+00
    0.21554E-02        -0.10142E-01         0.00000E+00
    0.21384E-02        -0.10351E-01         0.00000E+00
    0.21171E-02        -0.10564E-01         0.00000E+00
    0.20913E-02        -0.10780E-01         0.00000E+00
    0.20604E-02        -0.11000E-01         0.00000E+00
    0.20241E-02        -0.11223E-01         0.00000E+00
    0.19821E-02        -0.11450E-01         0.00000E+00
    0.19342E-02        -0.11680E-01         0.00000E+00
    0.18804E-02        -0.11912E-01         0.00000E+00
    0.18205E-02        -0.12147E-01         0.00000E+00
    0.17546E-02        -0.12382E-01         0.00000E+00
    0.16827E-02        -0.12617E-01         0.00000E+00
    0.16043E-02        -0.12850E-01         0.00000E+00
    0.15184E-02        -0.13078E-01         0.00000E+00
    0.14228E-02        -0.13299E-01         0.00000E+00
    0.13133E-02        -0.13511E-01         0.00000E+00
    0.11826E-02        -0.13710E-01         0.00000E+00
    0.10189E-02        -0.13894E-01         0.00000E+00
    0.80248E-03        -0.14059E-01         0.00000E+00
    0.49121E-03        -0.14189E-01         0.00000E+00
    0.00000E+00        -0.14242E-01         0.00000E+00
    0.00000E+00         0.57329E-02         0.00000E+00
    0.49592E-03         0.56985E-02         0.00000E+00
    0.87455E-03         0.56046E-02         0.00000E+00
    0.11795E-02         0.54670E-02         0.00000E+00
    0.14362E-02         0.52964E-02         0.00000E+00
    0.16583E-02         0.51003E-02         0.00000E+00
    0.18536E-02         0.48849E-02         0.00000E+00
    0.20265E-02         0.46553E-02         0.00000E+00
    0.21797E-02         0.44155E-02         0.00000E+00
    0.23145E-02         0.41685E-02         0.00000E+00
    0.24316E-02         0.39165E-02         0.00000E+00
    0.25311E-02         0.36610E-02         0.00000E+00
    0.26128E-02         0.34025E-02         0.00000E+00
    0.26758E-02         0.31411E-02         0.00000E+00
    0.27183E-02         0.28757E-02         0.00000E+00
    0.27377E-02         0.26028E-02         0.00000E+00
    0.27279E-02         0.23113E-02         0.00000E+00
    0.27151E-02         0.20181E-02         0.00000E+00
    0.27211E-02         0.17417E-02         0.00000E+00
    0.27352E-02         0.14739E-02         0.00000E+00
    0.27529E-02         0.12116E-02         0.00000E+00
    0.27715E-02         0.95359E-03         0.00000E+00
    0.27896E-02         0.69965E-03         0.00000E+00
    0.28062E-02         0.44955E-03         0.00000E+00
    0.28208E-02         0.20318E-03         0.00000E+00
    0.28330E-02        -0.39580E-04         0.00000E+00
    0.28425E-02        -0.27888E-03         0.00000E+00
    0.28492E-02        -0.51490E-03         0.00000E+00
    0.28529E-02        -0.74789E-03         0.00000E+00
    0.28535E-02        -0.97811E-03         0.00000E+00
    0.28509E-02        -0.12059E-02         0.00000E+00
    0.28449E-02        -0.14316E-02         0.00000E+00
    0.28355E-02        -0.16555E-02         0.00000E+00
    0.28224E-02        -0.18780E-02         0.00000E+00
    0.28052E-02        -0.20995E-02         0.00000E+00
    0.27833E-02        -0.23201E-02         0.00000E+00
    0.27556E-02        -0.25397E-02         0.00000E+00
    0.27196E-02        -0.27580E-02         0.00000E+00
    0.26855E-02        -0.29757E-02         0.00000E+00
    0.26592E-02        -0.31925E-02         0.00000E+00
    0.26382E-02        -0.34089E-02         0.00000E+00
    0.26210E-02        -0.36251E-02         0.00000E+00
    0.26067E-02        -0.38410E-02         0.00000E+00
    0.25948E-02        -0.40566E-02         0.00000E+00
    0.25849E-02        -0.42717E-02         0.00000E+00
    0.25767E-02        -0.44863E-02         0.00000E+00
    0.25701E-02        -0.47003E-02         0.00000E+00
    0.25647E-02        -0.49137E-02         0.00000E+00
    0.25604E-02        -0.51266E-02         0.00000E+00
    0.25572E-02        -0.53389E-02         0.00000E+00
    0.25549E-02        -0.55507E-02         0.00000E+00
    0.25535E-02        -0.57622E-02         0.00000E+00
    0.25528E-02        -0.59732E-02         0.00000E+00
    0.25528E-02        -0.61841E-02         0.00000E+00
    0.25534E-02        -0.63947E-02         0.00000E+00
    0.25547E-02        -0.66052E-02         0.00000E+00
    0.25566E-02        -0.68158E-02         0.00000E+00
    0.25590E-02        -0.70265E-02         0.00000E+00
    0.25620E-02        -0.72374E-02         0.00000E+00
    0.25654E-02        -0.74486E-02         0.00000E+00
    0.25693E-02        -0.76603E-02         0.00000E+00
    0.25736E-02        -0.78725E-02         0.00000E+00
    0.25782E-02        -0.80853E-02         0.00000E+00
    0.25832E-02        -0.82989E-02         0.00000E+00
    0.25884E-02        -0.85133E-02         0.00000E+00
    0.25937E-02        -0.87287E-02         0.00000E+00
    0.25992E-02        -0.89452E-02         0.00000E+00
    0.26046E-02        -0.91629E-02         0.00000E+00
    0.26099E-02        -0.93819E-02         0.00000E+00
    0.26149E-02        -0.96024E-02         0.00000E+00
    0.26195E-02        -0.98244E-02         0.00000E+00
    0.26235E-02        -0.10048E-01         0.00000E+00
    0.26267E-02        -0.10274E-01         0.00000E+00
    0.26287E-02        -0.10502E-01         0.00000E+00
    0.26294E-02        -0.10731E-01         0.00000E+00
    0.26285E-02        -0.10964E-01         0.00000E+00
    0.26254E-02        -0.11198E-01         0.00000E+00
    0.26199E-02        -0.11436E-01         0.00000E+00
    0.26115E-02        -0.11677E-01         0.00000E+00
    0.25997E-02        -0.11920E-01         0.00000E+00
    0.25840E-02        -0.12168E-01         0.00000E+00
    0.25638E-02        -0.12419E-01         0.00000E+00
    0.25386E-02        -0.12673E-01         0.00000E+00
    0.25079E-02        -0.12932E-01         0.00000E+00
    0.24711E-02        -0.13195E-01         0.00000E+00
    0.24278E-02        -0.13463E-01         0.00000E+00
    0.23776E-02        -0.13734E-01         0.00000E+00
    0.23202E-02        -0.14009E-01         0.00000E+00
    0.22554E-02        -0.14288E-01         0.00000E+00
    0.21833E-02        -0.14568E-01         0.00000E+00
    0.21036E-02        -0.14850E-01         0.00000E+00
    0.20163E-02        -0.15131E-01         0.00000E+00
    0.19209E-02        -0.15409E-01         0.00000E+00
    0.18160E-02        -0.15682E-01         0.00000E+00
    0.16990E-02        -0.15947E-01         0.00000E+00
    0.15650E-02        -0.16199E-01         0.00000E+00
    0.14053E-02        -0.16436E-01         0.00000E+00
    0.12058E-02        -0.16652E-01         0.00000E+00
    0.94289E-03        -0.16843E-01         0.00000E+00
    0.56866E-03        -0.16987E-01         0.00000E+00
    0.00000E+00        -0.17044E-01         0.00000E+00
    0.00000E+00         0.66653E-02         0.00000E+00
    0.56073E-03         0.66272E-02         0.00000E+00
    0.99803E-03         0.65212E-02         0.00000E+00
    0.13537E-02         0.63634E-02         0.00000E+00
    0.16541E-02         0.61664E-02         0.00000E+00
    0.19144E-02         0.59391E-02         0.00000E+00
    0.21435E-02         0.56889E-02         0.00000E+00
    0.23463E-02         0.54220E-02         0.00000E+00
    0.25259E-02         0.51432E-02         0.00000E+00
    0.26839E-02         0.48561E-02         0.00000E+00
    0.28212E-02         0.45631E-02         0.00000E+00
    0.29380E-02         0.42659E-02         0.00000E+00
    0.30340E-02         0.39654E-02         0.00000E+00
    0.31085E-02         0.36615E-02         0.00000E+00
    0.31597E-02         0.33531E-02         0.00000E+00
    0.31852E-02         0.30363E-02         0.00000E+00
    0.31794E-02         0.27013E-02         0.00000E+00
    0.31669E-02         0.23597E-02         0.00000E+00
    0.31731E-02         0.20371E-02         0.00000E+00
    0.31886E-02         0.17245E-02         0.00000E+00
    0.32081E-02         0.14184E-02         0.00000E+00
    0.32288E-02         0.11175E-02         0.00000E+00
    0.32489E-02         0.82121E-03         0.00000E+00
    0.32674E-02         0.52945E-03         0.00000E+00
    0.32836E-02         0.24206E-03         0.00000E+00
    0.32970E-02        -0.41128E-04         0.00000E+00
    0.33075E-02        -0.32028E-03         0.00000E+00
    0.33147E-02        -0.59562E-03         0.00000E+00
    0.33185E-02        -0.86742E-03         0.00000E+00
    0.33189E-02        -0.11360E-02         0.00000E+00
    0.33155E-02        -0.14017E-02         0.00000E+00
    0.33084E-02        -0.16650E-02         0.00000E+00
    0.32973E-02        -0.19262E-02         0.00000E+00
    0.32820E-02        -0.21858E-02         0.00000E+00
    0.32620E-02        -0.24442E-02         0.00000E+00
    0.32367E-02        -0.27015E-02         0.00000E+00
    0.32048E-02        -0.29576E-02         0.00000E+00
    0.31645E-02        -0.32122E-02         0.00000E+00
    0.31262E-02        -0.34666E-02         0.00000E+00
    0.30962E-02        -0.37199E-02         0.00000E+00
    0.30719E-02        -0.39727E-02         0.00000E+00
    0.30520E-02        -0.42253E-02         0.00000E+00
    0.30354E-02        -0.44775E-02         0.00000E+00
    0.30215E-02        -0.47292E-02         0.00000E+00
    0.30100E-02        -0.49804E-02         0.00000E+00
    0.30005E-02        -0.52310E-02         0.00000E+00
    0.29927E-02        -0.54808E-02         0.00000E+00
    0.29864E-02        -0.57300E-02         0.00000E+00
    0.29815E-02        -0.59786E-02         0.00000E+00
    0.29777E-02        -0.62265E-02         0.00000E+00
    0.29750E-02        -0.64738E-02         0.00000E+00
    0.29732E-02        -0.67206E-02         0.00000E+00
    0.29724E-02        -0.69670E-02         0.00000E+00
    0.29724E-02        -0.72131E-02         0.00000E+00
    0.29731E-02        -0.74590E-02         0.00000E+00
    0.29746E-02        -0.77048E-02         0.00000E+00
    0.29768E-02        -0.79506E-02         0.00000E+00
    0.29797E-02        -0.81965E-02         0.00000E+00
    0.29831E-02        -0.84427E-02         0.00000E+00
    0.29871E-02        -0.86892E-02         0.00000E+00
    0.29917E-02        -0.89362E-02         0.00000E+00
    0.29967E-02        -0.91839E-02         0.00000E+00
    0.30022E-02        -0.94322E-02         0.00000E+00
    0.30080E-02        -0.96815E-02         0.00000E+00
    0.30141E-02        -0.99317E-02         0.00000E+00
    0.30204E-02        -0.10183E-01         0.00000E+00
    0.30268E-02        -0.10436E-01         0.00000E+00
    0.30332E-02        -0.10690E-01         0.00000E+00
    0.30395E-02        -0.10945E-01         0.00000E+00
    0.30455E-02        -0.11202E-01         0.00000E+00
    0.30509E-02        -0.11461E-01         0.00000E+00
    0.30557E-02        -0.11722E-01         0.00000E+00
    0.30595E-02        -0.11986E-01         0.00000E+00
    0.30621E-02        -0.12251E-01         0.00000E+00
    0.30631E-02        -0.12519E-01         0.00000E+00
    0.30621E-02        -0.12790E-01         0.00000E+00
    0.30588E-02        -0.13063E-01         0.00000E+00
    0.30526E-02        -0.13340E-01         0.00000E+00
    0.30431E-02        -0.13620E-01         0.00000E+00
    0.30296E-02        -0.13904E-01         0.00000E+00
    0.30116E-02        -0.14192E-01         0.00000E+00
    0.29884E-02        -0.14485E-01         0.00000E+00
    0.29594E-02        -0.14781E-01         0.00000E+00
    0.29239E-02        -0.15083E-01         0.00000E+00
    0.28813E-02        -0.15389E-01         0.00000E+00
    0.28311E-02        -0.15700E-01         0.00000E+00
    0.27727E-02        -0.16016E-01         0.00000E+00
    0.27059E-02        -0.16336E-01         0.00000E+00
    0.26302E-02        -0.16660E-01         0.00000E+00
    0.25457E-02        -0.16987E-01         0.00000E+00
    0.24521E-02        -0.17315E-01         0.00000E+00
    0.23491E-02        -0.17642E-01         0.00000E+00
    0.22362E-02        -0.17966E-01         0.00000E+00
    0.21118E-02        -0.18283E-01         0.00000E+00
    0.19727E-02        -0.18590E-01         0.00000E+00
    0.18132E-02        -0.18882E-01         0.00000E+00
    0.16235E-02        -0.19156E-01         0.00000E+00
    0.13875E-02        -0.19404E-01         0.00000E+00
    0.10772E-02        -0.19617E-01         0.00000E+00
    0.64142E-03        -0.19774E-01         0.00000E+00
    0.00000E+00        -0.19834E-01         0.00000E+00
    0.00000E+00         0.75929E-02         0.00000E+00
    0.62258E-03         0.75510E-02         0.00000E+00
    0.11169E-02         0.74334E-02         0.00000E+00
    0.15226E-02         0.72560E-02         0.00000E+00
    0.18667E-02         0.70328E-02         0.00000E+00
    0.21655E-02         0.67746E-02         0.00000E+00
    0.24286E-02         0.64900E-02         0.00000E+00
    0.26615E-02         0.61862E-02         0.00000E+00
    0.28678E-02         0.58687E-02         0.00000E+00
    0.30492E-02         0.55415E-02         0.00000E+00
    0.32068E-02         0.52078E-02         0.00000E+00
    0.33410E-02         0.48693E-02         0.00000E+00
    0.34516E-02         0.45271E-02         0.00000E+00
    0.35378E-02         0.41810E-02         0.00000E+00
    0.35981E-02         0.38300E-02         0.00000E+00
    0.36302E-02         0.34697E-02         0.00000E+00
    0.36293E-02         0.30915E-02         0.00000E+00
    0.36181E-02         0.27026E-02         0.00000E+00
    0.36246E-02         0.23337E-02         0.00000E+00
    0.36412E-02         0.19765E-02         0.00000E+00
    0.36623E-02         0.16266E-02         0.00000E+00
    0.36847E-02         0.12827E-02         0.00000E+00
    0.37066E-02         0.94412E-03         0.00000E+00
    0.37267E-02         0.61073E-03         0.00000E+00
    0.37443E-02         0.28232E-03         0.00000E+00
    0.37589E-02        -0.41283E-04         0.00000E+00
    0.37701E-02        -0.36028E-03         0.00000E+00
    0.37777E-02        -0.67493E-03         0.00000E+00
    0.37816E-02        -0.98554E-03         0.00000E+00
    0.37815E-02        -0.12925E-02         0.00000E+00
    0.37774E-02        -0.15961E-02         0.00000E+00
    0.37691E-02        -0.18970E-02         0.00000E+00
    0.37563E-02        -0.21955E-02         0.00000E+00
    0.37387E-02        -0.24922E-02         0.00000E+00
    0.37159E-02        -0.27874E-02         0.00000E+00
    0.36873E-02        -0.30814E-02         0.00000E+00
    0.36515E-02        -0.33740E-02         0.00000E+00
    0.36071E-02        -0.36651E-02         0.00000E+00
    0.35649E-02        -0.39561E-02         0.00000E+00
    0.35313E-02        -0.42460E-02         0.00000E+00
    0.35039E-02        -0.45354E-02         0.00000E+00
    0.34813E-02        -0.48243E-02         0.00000E+00
    0.34624E-02        -0.51129E-02         0.00000E+00
    0.34467E-02        -0.54009E-02         0.00000E+00
    0.34336E-02        -0.56882E-02         0.00000E+00
    0.34227E-02        -0.59748E-02         0.00000E+00
    0.34138E-02        -0.62607E-02         0.00000E+00
    0.34066E-02        -0.65457E-02         0.00000E+00
    0.34009E-02        -0.68299E-02         0.00000E+00
    0.33965E-02        -0.71135E-02         0.00000E+00
    0.33934E-02        -0.73963E-02         0.00000E+00
    0.33914E-02        -0.76786E-02         0.00000E+00
    0.33904E-02        -0.79604E-02         0.00000E+00
    0.33904E-02        -0.82418E-02         0.00000E+00
    0.33912E-02        -0.85229E-02         0.00000E+00
    0.33929E-02        -0.88040E-02         0.00000E+00
    0.33954E-02        -0.90850E-02         0.00000E+00
    0.33986E-02        -0.93662E-02         0.00000E+00
    0.34026E-02        -0.96477E-02         0.00000E+00
    0.34072E-02        -0.99296E-02         0.00000E+00
    0.34124E-02        -0.10212E-01         0.00000E+00
    0.34182E-02        -0.10495E-01         0.00000E+00
    0.34245E-02        -0.10779E-01         0.00000E+00
    0.34311E-02        -0.11064E-01         0.00000E+00
    0.34382E-02        -0.11350E-01         0.00000E+00
    0.34455E-02        -0.11637E-01         0.00000E+00
    0.34529E-02        -0.11926E-01         0.00000E+00
    0.34603E-02        -0.12216E-01         0.00000E+00
    0.34675E-02        -0.12508E-01         0.00000E+00
    0.34745E-02        -0.12802E-01         0.00000E+00
    0.34808E-02        -0.13098E-01         0.00000E+00
    0.34864E-02        -0.13396E-01         0.00000E+00
    0.34910E-02        -0.13697E-01         0.00000E+00
    0.34941E-02        -0.14000E-01         0.00000E+00
    0.34954E-02        -0.14306E-01         0.00000E+00
    0.34946E-02        -0.14615E-01         0.00000E+00
    0.34910E-02        -0.14928E-01         0.00000E+00
    0.34843E-02        -0.15244E-01         0.00000E+00
    0.34737E-02        -0.15564E-01         0.00000E+00
    0.34586E-02        -0.15888E-01         0.00000E+00
    0.34384E-02        -0.16217E-01         0.00000E+00
    0.34123E-02        -0.16550E-01         0.00000E+00
    0.33795E-02        -0.16888E-01         0.00000E+00
    0.33394E-02        -0.17232E-01         0.00000E+00
    0.32911E-02        -0.17581E-01         0.00000E+00
    0.32341E-02        -0.17936E-01         0.00000E+00
    0.31676E-02        -0.18296E-01         0.00000E+00
    0.30913E-02        -0.18661E-01         0.00000E+00
    0.30048E-02        -0.19030E-01         0.00000E+00
    0.29077E-02        -0.19403E-01         0.00000E+00
    0.28000E-02        -0.19777E-01         0.00000E+00
    0.26811E-02        -0.20150E-01         0.00000E+00
    0.25502E-02        -0.20519E-01         0.00000E+00
    0.24056E-02        -0.20880E-01         0.00000E+00
    0.22437E-02        -0.21229E-01         0.00000E+00
    0.20581E-02        -0.21561E-01         0.00000E+00
    0.18375E-02        -0.21870E-01         0.00000E+00
    0.15639E-02        -0.22148E-01         0.00000E+00
    0.12060E-02        -0.22383E-01         0.00000E+00
    0.71013E-03        -0.22551E-01         0.00000E+00
    0.00000E+00        -0.22614E-01         0.00000E+00
    0.00000E+00         0.85161E-02         0.00000E+00
    0.68190E-03         0.84706E-02         0.00000E+00
    0.12315E-02         0.83414E-02         0.00000E+00
    0.16868E-02         0.81448E-02         0.00000E+00
    0.20745E-02         0.78959E-02         0.00000E+00
    0.24119E-02         0.76071E-02         0.00000E+00
    0.27091E-02         0.72883E-02         0.00000E+00
    0.29725E-02         0.69478E-02         0.00000E+00
    0.32055E-02         0.65918E-02         0.00000E+00
    0.34105E-02         0.62250E-02         0.00000E+00
    0.35887E-02         0.58507E-02         0.00000E+00
    0.37404E-02         0.54712E-02         0.00000E+00
    0.38657E-02         0.50875E-02         0.00000E+00
    0.39640E-02         0.46996E-02         0.00000E+00
    0.40338E-02         0.43062E-02         0.00000E+00
    0.40730E-02         0.39028E-02         0.00000E+00
    0.40777E-02         0.34817E-02         0.00000E+00
    0.40687E-02         0.30465E-02         0.00000E+00
    0.40753E-02         0.26316E-02         0.00000E+00
    0.40929E-02         0.22297E-02         0.00000E+00
    0.41154E-02         0.18361E-02         0.00000E+00
    0.41394E-02         0.14492E-02         0.00000E+00
    0.41628E-02         0.10684E-02         0.00000E+00
    0.41843E-02         0.69336E-03         0.00000E+00
    0.42031E-02         0.32395E-03         0.00000E+00
    0.42186E-02        -0.40064E-04         0.00000E+00
    0.42304E-02        -0.39890E-03         0.00000E+00
    0.42383E-02        -0.75285E-03         0.00000E+00
    0.42421E-02        -0.11023E-02         0.00000E+00
    0.42416E-02        -0.14476E-02         0.00000E+00
    0.42366E-02        -0.17892E-02         0.00000E+00
    0.42269E-02        -0.21276E-02         0.00000E+00
    0.42124E-02        -0.24634E-02         0.00000E+00
    0.41926E-02        -0.27971E-02         0.00000E+00
    0.41671E-02        -0.31292E-02         0.00000E+00
    0.41352E-02        -0.34599E-02         0.00000E+00
    0.40957E-02        -0.37890E-02         0.00000E+00
    0.40474E-02        -0.41166E-02         0.00000E+00
    0.40017E-02        -0.44442E-02         0.00000E+00
    0.39646E-02        -0.47708E-02         0.00000E+00
    0.39342E-02        -0.50968E-02         0.00000E+00
    0.39089E-02        -0.54223E-02         0.00000E+00
    0.38879E-02        -0.57473E-02         0.00000E+00
    0.38702E-02        -0.60716E-02         0.00000E+00
    0.38555E-02        -0.63952E-02         0.00000E+00
    0.38433E-02        -0.67179E-02         0.00000E+00
    0.38333E-02        -0.70398E-02         0.00000E+00
    0.38251E-02        -0.73607E-02         0.00000E+00
    0.38187E-02        -0.76807E-02         0.00000E+00
    0.38138E-02        -0.79998E-02         0.00000E+00
    0.38102E-02        -0.83183E-02         0.00000E+00
    0.38079E-02        -0.86360E-02         0.00000E+00
    0.38068E-02        -0.89532E-02         0.00000E+00
    0.38067E-02        -0.92700E-02         0.00000E+00
    0.38077E-02        -0.95865E-02         0.00000E+00
    0.38096E-02        -0.99028E-02         0.00000E+00
    0.38124E-02        -0.10219E-01         0.00000E+00
    0.38160E-02        -0.10536E-01         0.00000E+00
    0.38204E-02        -0.10852E-01         0.00000E+00
    0.38256E-02        -0.11170E-01         0.00000E+00
    0.38315E-02        -0.11488E-01         0.00000E+00
    0.38381E-02        -0.11806E-01         0.00000E+00
    0.38451E-02        -0.12126E-01         0.00000E+00
    0.38527E-02        -0.12446E-01         0.00000E+00
    0.38607E-02        -0.12768E-01         0.00000E+00
    0.38689E-02        -0.13092E-01         0.00000E+00
    0.38774E-02        -0.13416E-01         0.00000E+00
    0.38858E-02        -0.13743E-01         0.00000E+00
    0.38941E-02        -0.14071E-01         0.00000E+00
    0.39020E-02        -0.14402E-01         0.00000E+00
    0.39093E-02        -0.14735E-01         0.00000E+00
    0.39157E-02        -0.15070E-01         0.00000E+00
    0.39210E-02        -0.15408E-01         0.00000E+00
    0.39247E-02        -0.15749E-01         0.00000E+00
    0.39264E-02        -0.16093E-01         0.00000E+00
    0.39257E-02        -0.16441E-01         0.00000E+00
    0.39220E-02        -0.16792E-01         0.00000E+00
    0.39147E-02        -0.17147E-01         0.00000E+00
    0.39032E-02        -0.17507E-01         0.00000E+00
    0.38866E-02        -0.17871E-01         0.00000E+00
    0.38643E-02        -0.18240E-01         0.00000E+00
    0.38354E-02        -0.18614E-01         0.00000E+00
    0.37990E-02        -0.18994E-01         0.00000E+00
    0.37544E-02        -0.19380E-01         0.00000E+00
    0.37005E-02        -0.19772E-01         0.00000E+00
    0.36367E-02        -0.20170E-01         0.00000E+00
    0.35622E-02        -0.20574E-01         0.00000E+00
    0.34765E-02        -0.20984E-01         0.00000E+00
    0.33791E-02        -0.21398E-01         0.00000E+00
    0.32695E-02        -0.21816E-01         0.00000E+00
    0.31474E-02        -0.22236E-01         0.00000E+00
    0.30122E-02        -0.22654E-01         0.00000E+00
    0.28630E-02        -0.23068E-01         0.00000E+00
    0.26977E-02        -0.23473E-01         0.00000E+00
    0.25123E-02        -0.23864E-01         0.00000E+00
    0.22996E-02        -0.24235E-01         0.00000E+00
    0.20474E-02        -0.24578E-01         0.00000E+00
    0.17354E-02        -0.24885E-01         0.00000E+00
    0.13296E-02        -0.25140E-01         0.00000E+00
    0.77532E-03        -0.25318E-01         0.00000E+00
    0.00000E+00        -0.25384E-01         0.00000E+00
    0.00000E+00         0.94353E-02         0.00000E+00
    0.73901E-03         0.93861E-02         0.00000E+00
    0.13425E-02         0.92456E-02         0.00000E+00
    0.18466E-02         0.90300E-02         0.00000E+00
    0.22778E-02         0.87557E-02         0.00000E+00
    0.26538E-02         0.84365E-02         0.00000E+00
    0.29854E-02         0.80838E-02         0.00000E+00
    0.32793E-02         0.77068E-02         0.00000E+00
    0.35394E-02         0.73126E-02         0.00000E+00
    0.37681E-02         0.69063E-02         0.00000E+00
    0.39669E-02         0.64919E-02         0.00000E+00
    0.41363E-02         0.60716E-02         0.00000E+00
    0.42766E-02         0.56466E-02         0.00000E+00
    0.43871E-02         0.52172E-02         0.00000E+00
    0.44667E-02         0.47817E-02         0.00000E+00
    0.45136E-02         0.43358E-02         0.00000E+00
    0.45243E-02         0.38718E-02         0.00000E+00
    0.45182E-02         0.33913E-02         0.00000E+00
    0.45252E-02         0.29306E-02         0.00000E+00
    0.45437E-02         0.24842E-02         0.00000E+00
    0.45674E-02         0.20468E-02         0.00000E+00
    0.45928E-02         0.16170E-02         0.00000E+00
    0.46176E-02         0.11939E-02         0.00000E+00
    0.46403E-02         0.77731E-03         0.00000E+00
    0.46600E-02         0.36691E-03         0.00000E+00
    0.46762E-02        -0.37491E-04         0.00000E+00
    0.46885E-02        -0.43616E-03         0.00000E+00
    0.46965E-02        -0.82941E-03         0.00000E+00
    0.47001E-02        -0.12176E-02         0.00000E+00
    0.46990E-02        -0.16012E-02         0.00000E+00
    0.46931E-02        -0.19808E-02         0.00000E+00
    0.46821E-02        -0.23568E-02         0.00000E+00
    0.46658E-02        -0.27299E-02         0.00000E+00
    0.46438E-02        -0.31006E-02         0.00000E+00
    0.46157E-02        -0.34696E-02         0.00000E+00
    0.45806E-02        -0.38369E-02         0.00000E+00
    0.45374E-02        -0.42027E-02         0.00000E+00
    0.44856E-02        -0.45668E-02         0.00000E+00
    0.44364E-02        -0.49311E-02         0.00000E+00
    0.43960E-02        -0.52945E-02         0.00000E+00
    0.43627E-02        -0.56571E-02         0.00000E+00
    0.43349E-02        -0.60192E-02         0.00000E+00
    0.43117E-02        -0.63807E-02         0.00000E+00
    0.42922E-02        -0.67414E-02         0.00000E+00
    0.42759E-02        -0.71013E-02         0.00000E+00
    0.42623E-02        -0.74602E-02         0.00000E+00
    0.42512E-02        -0.78181E-02         0.00000E+00
    0.42421E-02        -0.81749E-02         0.00000E+00
    0.42350E-02        -0.85308E-02         0.00000E+00
    0.42295E-02        -0.88857E-02         0.00000E+00
    0.42255E-02        -0.92397E-02         0.00000E+00
    0.42229E-02        -0.95930E-02         0.00000E+00
    0.42216E-02        -0.99456E-02         0.00000E+00
    0.42215E-02        -0.10298E-01         0.00000E+00
    0.42225E-02        -0.10650E-01         0.00000E+00
    0.42246E-02        -0.11001E-01         0.00000E+00
    0.42277E-02        -0.11353E-01         0.00000E+00
    0.42317E-02        -0.11705E-01         0.00000E+00
    0.42367E-02        -0.12057E-01         0.00000E+00
    0.42425E-02        -0.12410E-01         0.00000E+00
    0.42490E-02        -0.12763E-01         0.00000E+00
    0.42563E-02        -0.13117E-01         0.00000E+00
    0.42642E-02        -0.13472E-01         0.00000E+00
    0.42727E-02        -0.13829E-01         0.00000E+00
    0.42816E-02        -0.14186E-01         0.00000E+00
    0.42909E-02        -0.14546E-01         0.00000E+00
    0.43003E-02        -0.14907E-01         0.00000E+00
    0.43098E-02        -0.15270E-01         0.00000E+00
    0.43191E-02        -0.15635E-01         0.00000E+00
    0.43280E-02        -0.16002E-01         0.00000E+00
    0.43363E-02        -0.16372E-01         0.00000E+00
    0.43436E-02        -0.16744E-01         0.00000E+00
    0.43496E-02        -0.17120E-01         0.00000E+00
    0.43540E-02        -0.17498E-01         0.00000E+00
    0.43562E-02        -0.17880E-01         0.00000E+00
    0.43557E-02        -0.18266E-01         0.00000E+00
    0.43519E-02        -0.18656E-01         0.00000E+00
    0.43441E-02        -0.19050E-01         0.00000E+00
    0.43317E-02        -0.19449E-01         0.00000E+00
    0.43137E-02        -0.19853E-01         0.00000E+00
    0.42894E-02        -0.20262E-01         0.00000E+00
    0.42578E-02        -0.20677E-01         0.00000E+00
    0.42179E-02        -0.21099E-01         0.00000E+00
    0.41688E-02        -0.21527E-01         0.00000E+00
    0.41095E-02        -0.21961E-01         0.00000E+00
    0.40390E-02        -0.22402E-01         0.00000E+00
    0.39566E-02        -0.22850E-01         0.00000E+00
    0.38615E-02        -0.23304E-01         0.00000E+00
    0.37531E-02        -0.23763E-01         0.00000E+00
    0.36309E-02        -0.24226E-01         0.00000E+00
    0.34943E-02        -0.24691E-01         0.00000E+00
    0.33426E-02        -0.25155E-01         0.00000E+00
    0.31747E-02        -0.25614E-01         0.00000E+00
    0.29881E-02        -0.26062E-01         0.00000E+00
    0.27785E-02        -0.26495E-01         0.00000E+00
    0.25380E-02        -0.26903E-01         0.00000E+00
    0.22532E-02        -0.27280E-01         0.00000E+00
    0.19022E-02        -0.27615E-01         0.00000E+00
    0.14486E-02        -0.27889E-01         0.00000E+00
    0.83742E-03        -0.28077E-01         0.00000E+00
    0.00000E+00        -0.28144E-01         0.00000E+00
    0.00000E+00         0.10351E-01         0.00000E+00
    0.79420E-03         0.10298E-01         0.00000E+00
    0.14502E-02         0.10146E-01         0.00000E+00
    0.20024E-02         0.99118E-02         0.00000E+00
    0.24769E-02         0.96122E-02         0.00000E+00
    0.28916E-02         0.92629E-02         0.00000E+00
    0.32577E-02         0.88766E-02         0.00000E+00
    0.35822E-02         0.84633E-02         0.00000E+00
    0.38695E-02         0.80311E-02         0.00000E+00
    0.41221E-02         0.75856E-02         0.00000E+00
    0.43416E-02         0.71312E-02         0.00000E+00
    0.45289E-02         0.66703E-02         0.00000E+00
    0.46843E-02         0.62045E-02         0.00000E+00
    0.48073E-02         0.57337E-02         0.00000E+00
    0.48971E-02         0.52565E-02         0.00000E+00
    0.49520E-02         0.47684E-02         0.00000E+00
    0.49694E-02         0.42618E-02         0.00000E+00
    0.49667E-02         0.37369E-02         0.00000E+00
    0.49743E-02         0.32307E-02         0.00000E+00
    0.49936E-02         0.27398E-02         0.00000E+00
    0.50184E-02         0.22588E-02         0.00000E+00
    0.50450E-02         0.17860E-02         0.00000E+00
    0.50709E-02         0.13208E-02         0.00000E+00
    0.50946E-02         0.86258E-03         0.00000E+00
    0.51151E-02         0.41121E-03         0.00000E+00
    0.51319E-02        -0.33581E-04         0.00000E+00
    0.51444E-02        -0.47207E-03         0.00000E+00
    0.51524E-02        -0.90461E-03         0.00000E+00
    0.51557E-02        -0.13316E-02         0.00000E+00
    0.51539E-02        -0.17536E-02         0.00000E+00
    0.51470E-02        -0.21711E-02         0.00000E+00
    0.51346E-02        -0.25847E-02         0.00000E+00
    0.51165E-02        -0.29950E-02         0.00000E+00
    0.50924E-02        -0.34028E-02         0.00000E+00
    0.50616E-02        -0.38086E-02         0.00000E+00
    0.50234E-02        -0.42126E-02         0.00000E+00
    0.49767E-02        -0.46150E-02         0.00000E+00
    0.49215E-02        -0.50157E-02         0.00000E+00
    0.48691E-02        -0.54168E-02         0.00000E+00
    0.48257E-02        -0.58169E-02         0.00000E+00
    0.47895E-02        -0.62163E-02         0.00000E+00
    0.47593E-02        -0.66151E-02         0.00000E+00
    0.47339E-02        -0.70132E-02         0.00000E+00
    0.47126E-02        -0.74104E-02         0.00000E+00
    0.46947E-02        -0.78066E-02         0.00000E+00
    0.46798E-02        -0.82017E-02         0.00000E+00
    0.46676E-02        -0.85957E-02         0.00000E+00
    0.46576E-02        -0.89885E-02         0.00000E+00
    0.46497E-02        -0.93802E-02         0.00000E+00
    0.46436E-02        -0.97709E-02         0.00000E+00
    0.46392E-02        -0.10161E-01         0.00000E+00
    0.46363E-02        -0.10549E-01         0.00000E+00
    0.46348E-02        -0.10938E-01         0.00000E+00
    0.46347E-02        -0.11325E-01         0.00000E+00
    0.46358E-02        -0.11712E-01         0.00000E+00
    0.46381E-02        -0.12100E-01         0.00000E+00
    0.46414E-02        -0.12487E-01         0.00000E+00
    0.46459E-02        -0.12874E-01         0.00000E+00
    0.46513E-02        -0.13261E-01         0.00000E+00
    0.46577E-02        -0.13649E-01         0.00000E+00
    0.46649E-02        -0.14038E-01         0.00000E+00
    0.46730E-02        -0.14428E-01         0.00000E+00
    0.46817E-02        -0.14819E-01         0.00000E+00
    0.46911E-02        -0.15211E-01         0.00000E+00
    0.47010E-02        -0.15604E-01         0.00000E+00
    0.47112E-02        -0.16000E-01         0.00000E+00
    0.47217E-02        -0.16397E-01         0.00000E+00
    0.47322E-02        -0.16796E-01         0.00000E+00
    0.47426E-02        -0.17198E-01         0.00000E+00
    0.47525E-02        -0.17602E-01         0.00000E+00
    0.47618E-02        -0.18008E-01         0.00000E+00
    0.47700E-02        -0.18418E-01         0.00000E+00
    0.47769E-02        -0.18831E-01         0.00000E+00
    0.47819E-02        -0.19247E-01         0.00000E+00
    0.47846E-02        -0.19667E-01         0.00000E+00
    0.47843E-02        -0.20091E-01         0.00000E+00
    0.47805E-02        -0.20520E-01         0.00000E+00
    0.47724E-02        -0.20953E-01         0.00000E+00
    0.47591E-02        -0.21391E-01         0.00000E+00
    0.47399E-02        -0.21835E-01         0.00000E+00
    0.47136E-02        -0.22284E-01         0.00000E+00
    0.46794E-02        -0.22740E-01         0.00000E+00
    0.46361E-02        -0.23202E-01         0.00000E+00
    0.45827E-02        -0.23672E-01         0.00000E+00
    0.45180E-02        -0.24149E-01         0.00000E+00
    0.44410E-02        -0.24633E-01         0.00000E+00
    0.43508E-02        -0.25124E-01         0.00000E+00
    0.42464E-02        -0.25622E-01         0.00000E+00
    0.41270E-02        -0.26126E-01         0.00000E+00
    0.39921E-02        -0.26634E-01         0.00000E+00
    0.38408E-02        -0.27144E-01         0.00000E+00
    0.36724E-02        -0.27653E-01         0.00000E+00
    0.34853E-02        -0.28156E-01         0.00000E+00
    0.32769E-02        -0.28647E-01         0.00000E+00
    0.30424E-02        -0.29120E-01         0.00000E+00
    0.27733E-02        -0.29567E-01         0.00000E+00
    0.24552E-02        -0.29977E-01         0.00000E+00
    0.20645E-02        -0.30338E-01         0.00000E+00
    0.15632E-02        -0.30630E-01         0.00000E+00
    0.89684E-03        -0.30826E-01         0.00000E+00
    0.00000E+00        -0.30896E-01         0.00000E+00
    0.00000E+00         0.11263E-01         0.00000E+00
    0.84770E-03         0.11206E-01         0.00000E+00
    0.15550E-02         0.11043E-01         0.00000E+00
    0.21546E-02         0.10790E-01         0.00000E+00
    0.26722E-02         0.10466E-01         0.00000E+00
    0.31255E-02         0.10086E-01         0.00000E+00
    0.35262E-02         0.96666E-02         0.00000E+00
    0.38815E-02         0.92173E-02         0.00000E+00
    0.41961E-02         0.87473E-02         0.00000E+00
    0.44726E-02         0.82629E-02         0.00000E+00
    0.47131E-02         0.77687E-02         0.00000E+00
    0.49184E-02         0.72676E-02         0.00000E+00
    0.50891E-02         0.67611E-02         0.00000E+00
    0.52248E-02         0.62493E-02         0.00000E+00
    0.53251E-02         0.57306E-02         0.00000E+00
    0.53884E-02         0.52006E-02         0.00000E+00
    0.54127E-02         0.46517E-02         0.00000E+00
    0.54138E-02         0.40831E-02         0.00000E+00
    0.54224E-02         0.35319E-02         0.00000E+00
    0.54425E-02         0.29965E-02         0.00000E+00
    0.54684E-02         0.24720E-02         0.00000E+00
    0.54959E-02         0.19563E-02         0.00000E+00
    0.55227E-02         0.14489E-02         0.00000E+00
    0.55472E-02         0.94912E-03         0.00000E+00
    0.55684E-02         0.45680E-03         0.00000E+00
    0.55855E-02        -0.28354E-04         0.00000E+00
    0.55982E-02        -0.50665E-03         0.00000E+00
    0.56061E-02        -0.97848E-03         0.00000E+00
    0.56089E-02        -0.14443E-02         0.00000E+00
    0.56064E-02        -0.19046E-02         0.00000E+00
    0.55983E-02        -0.23600E-02         0.00000E+00
    0.55845E-02        -0.28112E-02         0.00000E+00
    0.55647E-02        -0.32588E-02         0.00000E+00
    0.55383E-02        -0.37036E-02         0.00000E+00
    0.55049E-02        -0.41462E-02         0.00000E+00
    0.54638E-02        -0.45870E-02         0.00000E+00
    0.54138E-02        -0.50260E-02         0.00000E+00
    0.53554E-02        -0.54634E-02         0.00000E+00
    0.52999E-02        -0.59012E-02         0.00000E+00
    0.52535E-02        -0.63382E-02         0.00000E+00
    0.52146E-02        -0.67744E-02         0.00000E+00
    0.51820E-02        -0.72099E-02         0.00000E+00
    0.51545E-02        -0.76447E-02         0.00000E+00
    0.51314E-02        -0.80784E-02         0.00000E+00
    0.51120E-02        -0.85111E-02         0.00000E+00
    0.50958E-02        -0.89425E-02         0.00000E+00
    0.50824E-02        -0.93726E-02         0.00000E+00
    0.50715E-02        -0.98015E-02         0.00000E+00
    0.50629E-02        -0.10229E-01         0.00000E+00
    0.50562E-02        -0.10656E-01         0.00000E+00
    0.50513E-02        -0.11081E-01         0.00000E+00
    0.50481E-02        -0.11505E-01         0.00000E+00
    0.50465E-02        -0.11929E-01         0.00000E+00
    0.50463E-02        -0.12352E-01         0.00000E+00
    0.50475E-02        -0.12775E-01         0.00000E+00
    0.50499E-02        -0.13197E-01         0.00000E+00
    0.50536E-02        -0.13620E-01         0.00000E+00
    0.50584E-02        -0.14042E-01         0.00000E+00
    0.50644E-02        -0.14465E-01         0.00000E+00
    0.50713E-02        -0.14889E-01         0.00000E+00
    0.50793E-02        -0.15313E-01         0.00000E+00
    0.50881E-02        -0.15739E-01         0.00000E+00
    0.50976E-02        -0.16165E-01         0.00000E+00
    0.51079E-02        -0.16593E-01         0.00000E+00
    0.51188E-02        -0.17022E-01         0.00000E+00
    0.51300E-02        -0.17454E-01         0.00000E+00
    0.51415E-02        -0.17887E-01         0.00000E+00
    0.51531E-02        -0.18322E-01         0.00000E+00
    0.51645E-02        -0.18760E-01         0.00000E+00
    0.51756E-02        -0.19201E-01         0.00000E+00
    0.51858E-02        -0.19645E-01         0.00000E+00
    0.51950E-02        -0.20092E-01         0.00000E+00
    0.52027E-02        -0.20542E-01         0.00000E+00
    0.52085E-02        -0.20996E-01         0.00000E+00
    0.52117E-02        -0.21454E-01         0.00000E+00
    0.52117E-02        -0.21916E-01         0.00000E+00
    0.52079E-02        -0.22383E-01         0.00000E+00
    0.51995E-02        -0.22855E-01         0.00000E+00
    0.51855E-02        -0.23332E-01         0.00000E+00
    0.51650E-02        -0.23816E-01         0.00000E+00
    0.51370E-02        -0.24305E-01         0.00000E+00
    0.51003E-02        -0.24802E-01         0.00000E+00
    0.50537E-02        -0.25305E-01         0.00000E+00
    0.49961E-02        -0.25816E-01         0.00000E+00
    0.49262E-02        -0.26335E-01         0.00000E+00
    0.48427E-02        -0.26862E-01         0.00000E+00
    0.47447E-02        -0.27396E-01         0.00000E+00
    0.46310E-02        -0.27938E-01         0.00000E+00
    0.45008E-02        -0.28486E-01         0.00000E+00
    0.43530E-02        -0.29039E-01         0.00000E+00
    0.41870E-02        -0.29594E-01         0.00000E+00
    0.40015E-02        -0.30147E-01         0.00000E+00
    0.37948E-02        -0.30694E-01         0.00000E+00
    0.35642E-02        -0.31228E-01         0.00000E+00
    0.33042E-02        -0.31742E-01         0.00000E+00
    0.30058E-02        -0.32225E-01         0.00000E+00
    0.26536E-02        -0.32668E-01         0.00000E+00
    0.22227E-02        -0.33054E-01         0.00000E+00
    0.16741E-02        -0.33364E-01         0.00000E+00
    0.95387E-03        -0.33568E-01         0.00000E+00
    0.00000E+00        -0.33641E-01         0.00000E+00
    0.00000E+00         0.12172E-01         0.00000E+00
    0.89971E-03         0.12112E-01         0.00000E+00
    0.16571E-02         0.11938E-01         0.00000E+00
    0.23035E-02         0.11666E-01         0.00000E+00
    0.28639E-02         0.11316E-01         0.00000E+00
    0.33559E-02         0.10907E-01         0.00000E+00
    0.37912E-02         0.10454E-01         0.00000E+00
    0.41775E-02         0.99688E-02         0.00000E+00
    0.45194E-02         0.94612E-02         0.00000E+00
    0.48200E-02         0.89381E-02         0.00000E+00
    0.50815E-02         0.84044E-02         0.00000E+00
    0.53049E-02         0.78632E-02         0.00000E+00
    0.54910E-02         0.73163E-02         0.00000E+00
    0.56397E-02         0.67638E-02         0.00000E+00
    0.57506E-02         0.62039E-02         0.00000E+00
    0.58227E-02         0.56324E-02         0.00000E+00
    0.58543E-02         0.50416E-02         0.00000E+00
    0.58597E-02         0.44298E-02         0.00000E+00
    0.58694E-02         0.38340E-02         0.00000E+00
    0.58905E-02         0.32544E-02         0.00000E+00
    0.59172E-02         0.26863E-02         0.00000E+00
    0.59456E-02         0.21278E-02         0.00000E+00
    0.59732E-02         0.15782E-02         0.00000E+00
    0.59983E-02         0.10369E-02         0.00000E+00
    0.60199E-02         0.50368E-03         0.00000E+00
    0.60372E-02        -0.21829E-04         0.00000E+00
    0.60499E-02        -0.53993E-03         0.00000E+00
    0.60575E-02        -0.10510E-02         0.00000E+00
    0.60597E-02        -0.15556E-02         0.00000E+00
    0.60564E-02        -0.20542E-02         0.00000E+00
    0.60472E-02        -0.25476E-02         0.00000E+00
    0.60320E-02        -0.30363E-02         0.00000E+00
    0.60103E-02        -0.35213E-02         0.00000E+00
    0.59817E-02        -0.40031E-02         0.00000E+00
    0.59458E-02        -0.44825E-02         0.00000E+00
    0.59017E-02        -0.49601E-02         0.00000E+00
    0.58486E-02        -0.54357E-02         0.00000E+00
    0.57871E-02        -0.59098E-02         0.00000E+00
    0.57287E-02        -0.63845E-02         0.00000E+00
    0.56795E-02        -0.68583E-02         0.00000E+00
    0.56380E-02        -0.73315E-02         0.00000E+00
    0.56031E-02        -0.78038E-02         0.00000E+00
    0.55735E-02        -0.82752E-02         0.00000E+00
    0.55486E-02        -0.87456E-02         0.00000E+00
    0.55277E-02        -0.92147E-02         0.00000E+00
    0.55102E-02        -0.96825E-02         0.00000E+00
    0.54958E-02        -0.10149E-01         0.00000E+00
    0.54840E-02        -0.10614E-01         0.00000E+00
    0.54745E-02        -0.11077E-01         0.00000E+00
    0.54673E-02        -0.11540E-01         0.00000E+00
    0.54620E-02        -0.12001E-01         0.00000E+00
    0.54585E-02        -0.12461E-01         0.00000E+00
    0.54566E-02        -0.12920E-01         0.00000E+00
    0.54564E-02        -0.13379E-01         0.00000E+00
    0.54576E-02        -0.13837E-01         0.00000E+00
    0.54602E-02        -0.14295E-01         0.00000E+00
    0.54642E-02        -0.14753E-01         0.00000E+00
    0.54694E-02        -0.15211E-01         0.00000E+00
    0.54759E-02        -0.15669E-01         0.00000E+00
    0.54834E-02        -0.16128E-01         0.00000E+00
    0.54920E-02        -0.16588E-01         0.00000E+00
    0.55016E-02        -0.17049E-01         0.00000E+00
    0.55120E-02        -0.17511E-01         0.00000E+00
    0.55232E-02        -0.17975E-01         0.00000E+00
    0.55350E-02        -0.18440E-01         0.00000E+00
    0.55473E-02        -0.18907E-01         0.00000E+00
    0.55598E-02        -0.19377E-01         0.00000E+00
    0.55725E-02        -0.19849E-01         0.00000E+00
    0.55850E-02        -0.20323E-01         0.00000E+00
    0.55971E-02        -0.20801E-01         0.00000E+00
    0.56084E-02        -0.21281E-01         0.00000E+00
    0.56186E-02        -0.21765E-01         0.00000E+00
    0.56272E-02        -0.22253E-01         0.00000E+00
    0.56337E-02        -0.22744E-01         0.00000E+00
    0.56375E-02        -0.23240E-01         0.00000E+00
    0.56379E-02        -0.23740E-01         0.00000E+00
    0.56342E-02        -0.24246E-01         0.00000E+00
    0.56255E-02        -0.24757E-01         0.00000E+00
    0.56109E-02        -0.25273E-01         0.00000E+00
    0.55893E-02        -0.25796E-01         0.00000E+00
    0.55595E-02        -0.26326E-01         0.00000E+00
    0.55204E-02        -0.26862E-01         0.00000E+00
    0.54707E-02        -0.27407E-01         0.00000E+00
    0.54090E-02        -0.27959E-01         0.00000E+00
    0.53339E-02        -0.28520E-01         0.00000E+00
    0.52441E-02        -0.29089E-01         0.00000E+00
    0.51384E-02        -0.29667E-01         0.00000E+00
    0.50155E-02        -0.30252E-01         0.00000E+00
    0.48744E-02        -0.30844E-01         0.00000E+00
    0.47138E-02        -0.31441E-01         0.00000E+00
    0.45328E-02        -0.32040E-01         0.00000E+00
    0.43300E-02        -0.32638E-01         0.00000E+00
    0.41035E-02        -0.33228E-01         0.00000E+00
    0.38499E-02        -0.33805E-01         0.00000E+00
    0.35638E-02        -0.34358E-01         0.00000E+00
    0.32354E-02        -0.34879E-01         0.00000E+00
    0.28485E-02        -0.35353E-01         0.00000E+00
    0.23770E-02        -0.35764E-01         0.00000E+00
    0.17814E-02        -0.36090E-01         0.00000E+00
    0.10088E-02        -0.36303E-01         0.00000E+00
    0.00000E+00        -0.36378E-01         0.00000E+00
    0.00000E+00         0.13079E-01         0.00000E+00
    0.95042E-03         0.13015E-01         0.00000E+00
    0.17569E-02         0.12829E-01         0.00000E+00
    0.24495E-02         0.12538E-01         0.00000E+00
    0.30524E-02         0.12164E-01         0.00000E+00
    0.35830E-02         0.11725E-01         0.00000E+00
    0.40530E-02         0.11239E-01         0.00000E+00
    0.44703E-02         0.10718E-01         0.00000E+00
    0.48396E-02         0.10173E-01         0.00000E+00
    0.51645E-02         0.96112E-02         0.00000E+00
    0.54470E-02         0.90382E-02         0.00000E+00
    0.56886E-02         0.84573E-02         0.00000E+00
    0.58902E-02         0.78703E-02         0.00000E+00
    0.60520E-02         0.72772E-02         0.00000E+00
    0.61739E-02         0.66765E-02         0.00000E+00
    0.62551E-02         0.60638E-02         0.00000E+00
    0.62943E-02         0.54314E-02         0.00000E+00
    0.63042E-02         0.47770E-02         0.00000E+00
    0.63153E-02         0.41369E-02         0.00000E+00
    0.63374E-02         0.35132E-02         0.00000E+00
    0.63649E-02         0.29017E-02         0.00000E+00
    0.63941E-02         0.23005E-02         0.00000E+00
    0.64222E-02         0.17088E-02         0.00000E+00
    0.64478E-02         0.11260E-02         0.00000E+00
    0.64696E-02         0.55183E-03         0.00000E+00
    0.64870E-02        -0.14024E-04         0.00000E+00
    0.64995E-02        -0.57192E-03         0.00000E+00
    0.65067E-02        -0.11223E-02         0.00000E+00
    0.65083E-02        -0.16656E-02         0.00000E+00
    0.65040E-02        -0.22026E-02         0.00000E+00
    0.64937E-02        -0.27339E-02         0.00000E+00
    0.64769E-02        -0.32602E-02         0.00000E+00
    0.64534E-02        -0.37824E-02         0.00000E+00
    0.64227E-02        -0.43013E-02         0.00000E+00
    0.63843E-02        -0.48176E-02         0.00000E+00
    0.63374E-02        -0.53318E-02         0.00000E+00
    0.62812E-02        -0.58442E-02         0.00000E+00
    0.62167E-02        -0.63551E-02         0.00000E+00
    0.61556E-02        -0.68666E-02         0.00000E+00
    0.61037E-02        -0.73774E-02         0.00000E+00
    0.60597E-02        -0.78875E-02         0.00000E+00
    0.60225E-02        -0.83967E-02         0.00000E+00
    0.59910E-02        -0.89049E-02         0.00000E+00
    0.59644E-02        -0.94119E-02         0.00000E+00
    0.59419E-02        -0.99176E-02         0.00000E+00
    0.59232E-02        -0.10422E-01         0.00000E+00
    0.59076E-02        -0.10924E-01         0.00000E+00
    0.58949E-02        -0.11426E-01         0.00000E+00
    0.58847E-02        -0.11925E-01         0.00000E+00
    0.58768E-02        -0.12423E-01         0.00000E+00
    0.58711E-02        -0.12920E-01         0.00000E+00
    0.58672E-02        -0.13416E-01         0.00000E+00
    0.58652E-02        -0.13911E-01         0.00000E+00
    0.58649E-02        -0.14405E-01         0.00000E+00
    0.58662E-02        -0.14899E-01         0.00000E+00
    0.58690E-02        -0.15392E-01         0.00000E+00
    0.58732E-02        -0.15886E-01         0.00000E+00
    0.58788E-02        -0.16379E-01         0.00000E+00
    0.58858E-02        -0.16873E-01         0.00000E+00
    0.58939E-02        -0.17367E-01         0.00000E+00
    0.59032E-02        -0.17863E-01         0.00000E+00
    0.59135E-02        -0.18359E-01         0.00000E+00
    0.59248E-02        -0.18857E-01         0.00000E+00
    0.59369E-02        -0.19357E-01         0.00000E+00
    0.59497E-02        -0.19858E-01         0.00000E+00
    0.59630E-02        -0.20361E-01         0.00000E+00
    0.59766E-02        -0.20867E-01         0.00000E+00
    0.59904E-02        -0.21375E-01         0.00000E+00
    0.60040E-02        -0.21886E-01         0.00000E+00
    0.60172E-02        -0.22400E-01         0.00000E+00
    0.60296E-02        -0.22918E-01         0.00000E+00
    0.60408E-02        -0.23439E-01         0.00000E+00
    0.60503E-02        -0.23964E-01         0.00000E+00
    0.60575E-02        -0.24493E-01         0.00000E+00
    0.60619E-02        -0.25026E-01         0.00000E+00
    0.60628E-02        -0.25565E-01         0.00000E+00
    0.60592E-02        -0.26109E-01         0.00000E+00
    0.60504E-02        -0.26658E-01         0.00000E+00
    0.60352E-02        -0.27214E-01         0.00000E+00
    0.60125E-02        -0.27776E-01         0.00000E+00
    0.59812E-02        -0.28345E-01         0.00000E+00
    0.59398E-02        -0.28922E-01         0.00000E+00
    0.58870E-02        -0.29507E-01         0.00000E+00
    0.58213E-02        -0.30101E-01         0.00000E+00
    0.57412E-02        -0.30704E-01         0.00000E+00
    0.56453E-02        -0.31315E-01         0.00000E+00
    0.55320E-02        -0.31935E-01         0.00000E+00
    0.53999E-02        -0.32564E-01         0.00000E+00
    0.52479E-02        -0.33200E-01         0.00000E+00
    0.50744E-02        -0.33841E-01         0.00000E+00
    0.48783E-02        -0.34484E-01         0.00000E+00
    0.46580E-02        -0.35125E-01         0.00000E+00
    0.44112E-02        -0.35759E-01         0.00000E+00
    0.41344E-02        -0.36377E-01         0.00000E+00
    0.38215E-02        -0.36970E-01         0.00000E+00
    0.34624E-02        -0.37527E-01         0.00000E+00
    0.30402E-02        -0.38032E-01         0.00000E+00
    0.25279E-02        -0.38467E-01         0.00000E+00
    0.18856E-02        -0.38809E-01         0.00000E+00
    0.10619E-02        -0.39031E-01         0.00000E+00
    0.00000E+00        -0.39107E-01         0.00000E+00
    0.00000E+00         0.13983E-01         0.00000E+00
    0.99999E-03         0.13915E-01         0.00000E+00
    0.18547E-02         0.13717E-01         0.00000E+00
    0.25929E-02         0.13408E-01         0.00000E+00
    0.32380E-02         0.13009E-01         0.00000E+00
    0.38071E-02         0.12540E-01         0.00000E+00
    0.43119E-02         0.12021E-01         0.00000E+00
    0.47602E-02         0.11464E-01         0.00000E+00
    0.51571E-02         0.10882E-01         0.00000E+00
    0.55061E-02         0.10282E-01         0.00000E+00
    0.58098E-02         0.96703E-02         0.00000E+00
    0.60697E-02         0.90498E-02         0.00000E+00
    0.62870E-02         0.84229E-02         0.00000E+00
    0.64620E-02         0.77896E-02         0.00000E+00
    0.65950E-02         0.71483E-02         0.00000E+00
    0.66855E-02         0.64947E-02         0.00000E+00
    0.67326E-02         0.58211E-02         0.00000E+00
    0.67472E-02         0.51246E-02         0.00000E+00
    0.67601E-02         0.44406E-02         0.00000E+00
    0.67832E-02         0.37730E-02         0.00000E+00
    0.68115E-02         0.31182E-02         0.00000E+00
    0.68413E-02         0.24743E-02         0.00000E+00
    0.68698E-02         0.18405E-02         0.00000E+00
    0.68957E-02         0.12163E-02         0.00000E+00
    0.69176E-02         0.60122E-03         0.00000E+00
    0.69350E-02        -0.49583E-05         0.00000E+00
    0.69472E-02        -0.60263E-03         0.00000E+00
    0.69538E-02        -0.11923E-02         0.00000E+00
    0.69547E-02        -0.17744E-02         0.00000E+00
    0.69494E-02        -0.23497E-02         0.00000E+00
    0.69378E-02        -0.29189E-02         0.00000E+00
    0.69194E-02        -0.34828E-02         0.00000E+00
    0.68941E-02        -0.40422E-02         0.00000E+00
    0.68612E-02        -0.45981E-02         0.00000E+00
    0.68204E-02        -0.51513E-02         0.00000E+00
    0.67707E-02        -0.57023E-02         0.00000E+00
    0.67116E-02        -0.62515E-02         0.00000E+00
    0.66444E-02        -0.67991E-02         0.00000E+00
    0.65806E-02        -0.73475E-02         0.00000E+00
    0.65261E-02        -0.78953E-02         0.00000E+00
    0.64797E-02        -0.84424E-02         0.00000E+00
    0.64403E-02        -0.89886E-02         0.00000E+00
    0.64069E-02        -0.95337E-02         0.00000E+00
    0.63785E-02        -0.10077E-01         0.00000E+00
    0.63546E-02        -0.10620E-01         0.00000E+00
    0.63346E-02        -0.11160E-01         0.00000E+00
    0.63180E-02        -0.11699E-01         0.00000E+00
    0.63043E-02        -0.12237E-01         0.00000E+00
    0.62934E-02        -0.12772E-01         0.00000E+00
    0.62849E-02        -0.13306E-01         0.00000E+00
    0.62787E-02        -0.13839E-01         0.00000E+00
    0.62745E-02        -0.14371E-01         0.00000E+00
    0.62723E-02        -0.14901E-01         0.00000E+00
    0.62719E-02        -0.15431E-01         0.00000E+00
    0.62732E-02        -0.15960E-01         0.00000E+00
    0.62762E-02        -0.16489E-01         0.00000E+00
    0.62807E-02        -0.17018E-01         0.00000E+00
    0.62867E-02        -0.17547E-01         0.00000E+00
    0.62941E-02        -0.18076E-01         0.00000E+00
    0.63028E-02        -0.18607E-01         0.00000E+00
    0.63128E-02        -0.19138E-01         0.00000E+00
    0.63239E-02        -0.19670E-01         0.00000E+00
    0.63360E-02        -0.20203E-01         0.00000E+00
    0.63490E-02        -0.20739E-01         0.00000E+00
    0.63628E-02        -0.21276E-01         0.00000E+00
    0.63771E-02        -0.21815E-01         0.00000E+00
    0.63919E-02        -0.22357E-01         0.00000E+00
    0.64068E-02        -0.22902E-01         0.00000E+00
    0.64215E-02        -0.23449E-01         0.00000E+00
    0.64358E-02        -0.24000E-01         0.00000E+00
    0.64493E-02        -0.24554E-01         0.00000E+00
    0.64615E-02        -0.25112E-01         0.00000E+00
    0.64719E-02        -0.25674E-01         0.00000E+00
    0.64800E-02        -0.26241E-01         0.00000E+00
    0.64851E-02        -0.26812E-01         0.00000E+00
    0.64864E-02        -0.27389E-01         0.00000E+00
    0.64831E-02        -0.27971E-01         0.00000E+00
    0.64741E-02        -0.28559E-01         0.00000E+00
    0.64584E-02        -0.29154E-01         0.00000E+00
    0.64348E-02        -0.29755E-01         0.00000E+00
    0.64020E-02        -0.30364E-01         0.00000E+00
    0.63584E-02        -0.30981E-01         0.00000E+00
    0.63027E-02        -0.31607E-01         0.00000E+00
    0.62332E-02        -0.32242E-01         0.00000E+00
    0.61482E-02        -0.32886E-01         0.00000E+00
    0.60461E-02        -0.33539E-01         0.00000E+00
    0.59253E-02        -0.34202E-01         0.00000E+00
    0.57842E-02        -0.34874E-01         0.00000E+00
    0.56213E-02        -0.35553E-01         0.00000E+00
    0.54350E-02        -0.36237E-01         0.00000E+00
    0.52237E-02        -0.36924E-01         0.00000E+00
    0.49856E-02        -0.37609E-01         0.00000E+00
    0.47182E-02        -0.38285E-01         0.00000E+00
    0.44176E-02        -0.38945E-01         0.00000E+00
    0.40774E-02        -0.39577E-01         0.00000E+00
    0.36870E-02        -0.40169E-01         0.00000E+00
    0.32288E-02        -0.40705E-01         0.00000E+00
    0.26754E-02        -0.41164E-01         0.00000E+00
    0.19870E-02        -0.41522E-01         0.00000E+00
    0.11133E-02        -0.41752E-01         0.00000E+00
    0.00000E+00        -0.41831E-01         0.00000E+00
    0.00000E+00         0.14885E-01         0.00000E+00
    0.10485E-02         0.14813E-01         0.00000E+00
    0.19506E-02         0.14604E-01         0.00000E+00
    0.27339E-02         0.14275E-01         0.00000E+00
    0.34210E-02         0.13851E-01         0.00000E+00
    0.40285E-02         0.13353E-01         0.00000E+00
    0.45681E-02         0.12800E-01         0.00000E+00
    0.50474E-02         0.12208E-01         0.00000E+00
    0.54719E-02         0.11589E-01         0.00000E+00
    0.58452E-02         0.10951E-01         0.00000E+00
    0.61700E-02         0.10301E-01         0.00000E+00
    0.64483E-02         0.96408E-02         0.00000E+00
    0.66813E-02         0.89742E-02         0.00000E+00
    0.68697E-02         0.83009E-02         0.00000E+00
    0.70140E-02         0.76193E-02         0.00000E+00
    0.71140E-02         0.69251E-02         0.00000E+00
    0.71692E-02         0.62107E-02         0.00000E+00
    0.71889E-02         0.54726E-02         0.00000E+00
    0.72037E-02         0.47451E-02         0.00000E+00
    0.72279E-02         0.40338E-02         0.00000E+00
    0.72570E-02         0.33357E-02         0.00000E+00
    0.72872E-02         0.26493E-02         0.00000E+00
    0.73161E-02         0.19735E-02         0.00000E+00
    0.73421E-02         0.13078E-02         0.00000E+00
    0.73640E-02         0.65184E-03         0.00000E+00
    0.73811E-02         0.53496E-05         0.00000E+00
    0.73928E-02        -0.63210E-03         0.00000E+00
    0.73988E-02        -0.12610E-02         0.00000E+00
    0.73988E-02        -0.18819E-02         0.00000E+00
    0.73925E-02        -0.24955E-02         0.00000E+00
    0.73795E-02        -0.31026E-02         0.00000E+00
    0.73596E-02        -0.37041E-02         0.00000E+00
    0.73324E-02        -0.43008E-02         0.00000E+00
    0.72974E-02        -0.48938E-02         0.00000E+00
    0.72542E-02        -0.54838E-02         0.00000E+00
    0.72019E-02        -0.60716E-02         0.00000E+00
    0.71399E-02        -0.66575E-02         0.00000E+00
    0.70700E-02        -0.72421E-02         0.00000E+00
    0.70037E-02        -0.78274E-02         0.00000E+00
    0.69468E-02        -0.84123E-02         0.00000E+00
    0.68981E-02        -0.89964E-02         0.00000E+00
    0.68566E-02        -0.95796E-02         0.00000E+00
    0.68212E-02        -0.10162E-01         0.00000E+00
    0.67912E-02        -0.10742E-01         0.00000E+00
    0.67659E-02        -0.11321E-01         0.00000E+00
    0.67446E-02        -0.11898E-01         0.00000E+00
    0.67268E-02        -0.12474E-01         0.00000E+00
    0.67123E-02        -0.13047E-01         0.00000E+00
    0.67006E-02        -0.13619E-01         0.00000E+00
    0.66915E-02        -0.14189E-01         0.00000E+00
    0.66848E-02        -0.14758E-01         0.00000E+00
    0.66803E-02        -0.15325E-01         0.00000E+00
    0.66779E-02        -0.15891E-01         0.00000E+00
    0.66774E-02        -0.16457E-01         0.00000E+00
    0.66788E-02        -0.17021E-01         0.00000E+00
    0.66819E-02        -0.17586E-01         0.00000E+00
    0.66867E-02        -0.18150E-01         0.00000E+00
    0.66930E-02        -0.18715E-01         0.00000E+00
    0.67009E-02        -0.19280E-01         0.00000E+00
    0.67102E-02        -0.19845E-01         0.00000E+00
    0.67209E-02        -0.20412E-01         0.00000E+00
    0.67327E-02        -0.20980E-01         0.00000E+00
    0.67457E-02        -0.21549E-01         0.00000E+00
    0.67596E-02        -0.22120E-01         0.00000E+00
    0.67744E-02        -0.22693E-01         0.00000E+00
    0.67898E-02        -0.23269E-01         0.00000E+00
    0.68056E-02        -0.23847E-01         0.00000E+00
    0.68216E-02        -0.24428E-01         0.00000E+00
    0.68375E-02        -0.25012E-01         0.00000E+00
    0.68529E-02        -0.25599E-01         0.00000E+00
    0.68675E-02        -0.26191E-01         0.00000E+00
    0.68808E-02        -0.26786E-01         0.00000E+00
    0.68922E-02        -0.27385E-01         0.00000E+00
    0.69012E-02        -0.27989E-01         0.00000E+00
    0.69070E-02        -0.28598E-01         0.00000E+00
    0.69088E-02        -0.29213E-01         0.00000E+00
    0.69058E-02        -0.29833E-01         0.00000E+00
    0.68968E-02        -0.30460E-01         0.00000E+00
    0.68807E-02        -0.31094E-01         0.00000E+00
    0.68562E-02        -0.31734E-01         0.00000E+00
    0.68219E-02        -0.32383E-01         0.00000E+00
    0.67763E-02        -0.33040E-01         0.00000E+00
    0.67177E-02        -0.33706E-01         0.00000E+00
    0.66445E-02        -0.34381E-01         0.00000E+00
    0.65548E-02        -0.35067E-01         0.00000E+00
    0.64467E-02        -0.35762E-01         0.00000E+00
    0.63185E-02        -0.36467E-01         0.00000E+00
    0.61685E-02        -0.37181E-01         0.00000E+00
    0.59947E-02        -0.37903E-01         0.00000E+00
    0.57954E-02        -0.38631E-01         0.00000E+00
    0.55689E-02        -0.39362E-01         0.00000E+00
    0.53129E-02        -0.40089E-01         0.00000E+00
    0.50246E-02        -0.40808E-01         0.00000E+00
    0.46998E-02        -0.41509E-01         0.00000E+00
    0.43317E-02        -0.42180E-01         0.00000E+00
    0.39093E-02        -0.42807E-01         0.00000E+00
    0.34147E-02        -0.43373E-01         0.00000E+00
    0.28201E-02        -0.43855E-01         0.00000E+00
    0.20859E-02        -0.44228E-01         0.00000E+00
    0.11633E-02        -0.44466E-01         0.00000E+00
    0.00000E+00        -0.44548E-01         0.00000E+00
    0.00000E+00         0.15785E-01         0.00000E+00
    0.10962E-02         0.15709E-01         0.00000E+00
    0.20449E-02         0.15488E-01         0.00000E+00
    0.28728E-02         0.15140E-01         0.00000E+00
    0.36016E-02         0.14690E-01         0.00000E+00
    0.42475E-02         0.14163E-01         0.00000E+00
    0.48218E-02         0.13577E-01         0.00000E+00
    0.53322E-02         0.12950E-01         0.00000E+00
    0.57843E-02         0.12294E-01         0.00000E+00
    0.61819E-02         0.11618E-01         0.00000E+00
    0.65279E-02         0.10929E-01         0.00000E+00
    0.68246E-02         0.10230E-01         0.00000E+00
    0.70734E-02         0.95241E-02         0.00000E+00
    0.72753E-02         0.88112E-02         0.00000E+00
    0.74310E-02         0.80896E-02         0.00000E+00
    0.75407E-02         0.73551E-02         0.00000E+00
    0.76041E-02         0.66002E-02         0.00000E+00
    0.76291E-02         0.58209E-02         0.00000E+00
    0.76461E-02         0.50503E-02         0.00000E+00
    0.76715E-02         0.42954E-02         0.00000E+00
    0.77013E-02         0.35543E-02         0.00000E+00
    0.77319E-02         0.28253E-02         0.00000E+00
    0.77610E-02         0.21075E-02         0.00000E+00
    0.77869E-02         0.14004E-02         0.00000E+00
    0.78086E-02         0.70367E-03         0.00000E+00
    0.78254E-02         0.16881E-04         0.00000E+00
    0.78366E-02        -0.66033E-03         0.00000E+00
    0.78418E-02        -0.13285E-02         0.00000E+00
    0.78408E-02        -0.19881E-02         0.00000E+00
    0.78333E-02        -0.26401E-02         0.00000E+00
    0.78190E-02        -0.32851E-02         0.00000E+00
    0.77975E-02        -0.39242E-02         0.00000E+00
    0.77684E-02        -0.45582E-02         0.00000E+00
    0.77313E-02        -0.51881E-02         0.00000E+00
    0.76857E-02        -0.58150E-02         0.00000E+00
    0.76308E-02        -0.64396E-02         0.00000E+00
    0.75661E-02        -0.70624E-02         0.00000E+00
    0.74936E-02        -0.76838E-02         0.00000E+00
    0.74250E-02        -0.83061E-02         0.00000E+00
    0.73657E-02        -0.89281E-02         0.00000E+00
    0.73148E-02        -0.95494E-02         0.00000E+00
    0.72712E-02        -0.10170E-01         0.00000E+00
    0.72340E-02        -0.10789E-01         0.00000E+00
    0.72024E-02        -0.11406E-01         0.00000E+00
    0.71756E-02        -0.12022E-01         0.00000E+00
    0.71530E-02        -0.12635E-01         0.00000E+00
    0.71342E-02        -0.13247E-01         0.00000E+00
    0.71188E-02        -0.13857E-01         0.00000E+00
    0.71063E-02        -0.14465E-01         0.00000E+00
    0.70966E-02        -0.15071E-01         0.00000E+00
    0.70894E-02        -0.15676E-01         0.00000E+00
    0.70846E-02        -0.16279E-01         0.00000E+00
    0.70820E-02        -0.16881E-01         0.00000E+00
    0.70814E-02        -0.17482E-01         0.00000E+00
    0.70828E-02        -0.18082E-01         0.00000E+00
    0.70860E-02        -0.18682E-01         0.00000E+00
    0.70911E-02        -0.19282E-01         0.00000E+00
    0.70978E-02        -0.19882E-01         0.00000E+00
    0.71062E-02        -0.20483E-01         0.00000E+00
    0.71161E-02        -0.21084E-01         0.00000E+00
    0.71274E-02        -0.21686E-01         0.00000E+00
    0.71400E-02        -0.22290E-01         0.00000E+00
    0.71538E-02        -0.22895E-01         0.00000E+00
    0.71687E-02        -0.23502E-01         0.00000E+00
    0.71845E-02        -0.24111E-01         0.00000E+00
    0.72009E-02        -0.24723E-01         0.00000E+00
    0.72179E-02        -0.25337E-01         0.00000E+00
    0.72350E-02        -0.25954E-01         0.00000E+00
    0.72520E-02        -0.26575E-01         0.00000E+00
    0.72686E-02        -0.27199E-01         0.00000E+00
    0.72843E-02        -0.27827E-01         0.00000E+00
    0.72987E-02        -0.28459E-01         0.00000E+00
    0.73111E-02        -0.29096E-01         0.00000E+00
    0.73210E-02        -0.29737E-01         0.00000E+00
    0.73276E-02        -0.30384E-01         0.00000E+00
    0.73300E-02        -0.31037E-01         0.00000E+00
    0.73272E-02        -0.31695E-01         0.00000E+00
    0.73183E-02        -0.32361E-01         0.00000E+00
    0.73018E-02        -0.33033E-01         0.00000E+00
    0.72766E-02        -0.33713E-01         0.00000E+00
    0.72410E-02        -0.34401E-01         0.00000E+00
    0.71935E-02        -0.35098E-01         0.00000E+00
    0.71322E-02        -0.35804E-01         0.00000E+00
    0.70553E-02        -0.36520E-01         0.00000E+00
    0.69609E-02        -0.37246E-01         0.00000E+00
    0.68471E-02        -0.37983E-01         0.00000E+00
    0.67116E-02        -0.38730E-01         0.00000E+00
    0.65526E-02        -0.39487E-01         0.00000E+00
    0.63681E-02        -0.40251E-01         0.00000E+00
    0.61559E-02        -0.41022E-01         0.00000E+00
    0.59140E-02        -0.41796E-01         0.00000E+00
    0.56399E-02        -0.42566E-01         0.00000E+00
    0.53304E-02        -0.43327E-01         0.00000E+00
    0.49809E-02        -0.44068E-01         0.00000E+00
    0.45845E-02        -0.44778E-01         0.00000E+00
    0.41296E-02        -0.45439E-01         0.00000E+00
    0.35981E-02        -0.46035E-01         0.00000E+00
    0.29620E-02        -0.46540E-01         0.00000E+00
    0.21825E-02        -0.46929E-01         0.00000E+00
    0.12121E-02        -0.47175E-01         0.00000E+00
    0.00000E+00        -0.47259E-01         0.00000E+00
    0.00000E+00         0.16684E-01         0.00000E+00
    0.11432E-02         0.16603E-01         0.00000E+00
    0.21379E-02         0.16370E-01         0.00000E+00
    0.30100E-02         0.16002E-01         0.00000E+00
    0.37803E-02         0.15527E-01         0.00000E+00
    0.44645E-02         0.14970E-01         0.00000E+00
    0.50734E-02         0.14352E-01         0.00000E+00
    0.56149E-02         0.13690E-01         0.00000E+00
    0.60945E-02         0.12997E-01         0.00000E+00
    0.65164E-02         0.12283E-01         0.00000E+00
    0.68837E-02         0.11556E-01         0.00000E+00
    0.71987E-02         0.10818E-01         0.00000E+00
    0.74634E-02         0.10073E-01         0.00000E+00
    0.76788E-02         0.93203E-02         0.00000E+00
    0.78461E-02         0.85590E-02         0.00000E+00
    0.79656E-02         0.77845E-02         0.00000E+00
    0.80374E-02         0.69896E-02         0.00000E+00
    0.80679E-02         0.61696E-02         0.00000E+00
    0.80872E-02         0.53561E-02         0.00000E+00
    0.81140E-02         0.45579E-02         0.00000E+00
    0.81445E-02         0.37738E-02         0.00000E+00
    0.81754E-02         0.30024E-02         0.00000E+00
    0.82045E-02         0.22427E-02         0.00000E+00
    0.82303E-02         0.14943E-02         0.00000E+00
    0.82517E-02         0.75668E-03         0.00000E+00
    0.82679E-02         0.29617E-04         0.00000E+00
    0.82784E-02        -0.68734E-03         0.00000E+00
    0.82828E-02        -0.13947E-02         0.00000E+00
    0.82808E-02        -0.20932E-02         0.00000E+00
    0.82720E-02        -0.27834E-02         0.00000E+00
    0.82562E-02        -0.34664E-02         0.00000E+00
    0.82331E-02        -0.41430E-02         0.00000E+00
    0.82022E-02        -0.48143E-02         0.00000E+00
    0.81630E-02        -0.54813E-02         0.00000E+00
    0.81150E-02        -0.61451E-02         0.00000E+00
    0.80577E-02        -0.68065E-02         0.00000E+00
    0.79903E-02        -0.74661E-02         0.00000E+00
    0.79154E-02        -0.81245E-02         0.00000E+00
    0.78444E-02        -0.87839E-02         0.00000E+00
    0.77829E-02        -0.94430E-02         0.00000E+00
    0.77298E-02        -0.10101E-01         0.00000E+00
    0.76842E-02        -0.10759E-01         0.00000E+00
    0.76453E-02        -0.11415E-01         0.00000E+00
    0.76121E-02        -0.12069E-01         0.00000E+00
    0.75839E-02        -0.12722E-01         0.00000E+00
    0.75601E-02        -0.13372E-01         0.00000E+00
    0.75402E-02        -0.14020E-01         0.00000E+00
    0.75238E-02        -0.14666E-01         0.00000E+00
    0.75106E-02        -0.15310E-01         0.00000E+00
    0.75003E-02        -0.15953E-01         0.00000E+00
    0.74926E-02        -0.16593E-01         0.00000E+00
    0.74874E-02        -0.17232E-01         0.00000E+00
    0.74846E-02        -0.17870E-01         0.00000E+00
    0.74839E-02        -0.18507E-01         0.00000E+00
    0.74853E-02        -0.19143E-01         0.00000E+00
    0.74887E-02        -0.19778E-01         0.00000E+00
    0.74940E-02        -0.20414E-01         0.00000E+00
    0.75011E-02        -0.21050E-01         0.00000E+00
    0.75099E-02        -0.21686E-01         0.00000E+00
    0.75204E-02        -0.22323E-01         0.00000E+00
    0.75324E-02        -0.22961E-01         0.00000E+00
    0.75458E-02        -0.23600E-01         0.00000E+00
    0.75605E-02        -0.24241E-01         0.00000E+00
    0.75763E-02        -0.24884E-01         0.00000E+00
    0.75930E-02        -0.25529E-01         0.00000E+00
    0.76105E-02        -0.26176E-01         0.00000E+00
    0.76286E-02        -0.26827E-01         0.00000E+00
    0.76469E-02        -0.27481E-01         0.00000E+00
    0.76651E-02        -0.28138E-01         0.00000E+00
    0.76828E-02        -0.28798E-01         0.00000E+00
    0.76997E-02        -0.29463E-01         0.00000E+00
    0.77152E-02        -0.30133E-01         0.00000E+00
    0.77287E-02        -0.30807E-01         0.00000E+00
    0.77395E-02        -0.31486E-01         0.00000E+00
    0.77468E-02        -0.32170E-01         0.00000E+00
    0.77499E-02        -0.32861E-01         0.00000E+00
    0.77475E-02        -0.33557E-01         0.00000E+00
    0.77387E-02        -0.34261E-01         0.00000E+00
    0.77220E-02        -0.34972E-01         0.00000E+00
    0.76960E-02        -0.35691E-01         0.00000E+00
    0.76592E-02        -0.36418E-01         0.00000E+00
    0.76098E-02        -0.37155E-01         0.00000E+00
    0.75460E-02        -0.37901E-01         0.00000E+00
    0.74657E-02        -0.38657E-01         0.00000E+00
    0.73668E-02        -0.39425E-01         0.00000E+00
    0.72471E-02        -0.40203E-01         0.00000E+00
    0.71046E-02        -0.40991E-01         0.00000E+00
    0.69368E-02        -0.41790E-01         0.00000E+00
    0.67415E-02        -0.42597E-01         0.00000E+00
    0.65164E-02        -0.43411E-01         0.00000E+00
    0.62591E-02        -0.44227E-01         0.00000E+00
    0.59667E-02        -0.45040E-01         0.00000E+00
    0.56357E-02        -0.45842E-01         0.00000E+00
    0.52613E-02        -0.46624E-01         0.00000E+00
    0.48359E-02        -0.47371E-01         0.00000E+00
    0.43481E-02        -0.48067E-01         0.00000E+00
    0.37792E-02        -0.48691E-01         0.00000E+00
    0.31017E-02        -0.49219E-01         0.00000E+00
    0.22772E-02        -0.49623E-01         0.00000E+00
    0.12597E-02        -0.49878E-01         0.00000E+00
    0.00000E+00        -0.49965E-01         0.00000E+00
    0.00000E+00         0.17581E-01         0.00000E+00
    0.11895E-02         0.17496E-01         0.00000E+00
    0.22297E-02         0.17250E-01         0.00000E+00
    0.31457E-02         0.16863E-01         0.00000E+00
    0.39573E-02         0.16362E-01         0.00000E+00
    0.46796E-02         0.15775E-01         0.00000E+00
    0.53232E-02         0.15124E-01         0.00000E+00
    0.58957E-02         0.14427E-01         0.00000E+00
    0.64028E-02         0.13698E-01         0.00000E+00
    0.68489E-02         0.12947E-01         0.00000E+00
    0.72374E-02         0.12181E-01         0.00000E+00
    0.75709E-02         0.11404E-01         0.00000E+00
    0.78514E-02         0.10620E-01         0.00000E+00
    0.80805E-02         0.98284E-02         0.00000E+00
    0.82593E-02         0.90276E-02         0.00000E+00
    0.83888E-02         0.82133E-02         0.00000E+00
    0.84691E-02         0.73788E-02         0.00000E+00
    0.85053E-02         0.65185E-02         0.00000E+00
    0.85272E-02         0.56624E-02         0.00000E+00
    0.85554E-02         0.48211E-02         0.00000E+00
    0.85865E-02         0.39943E-02         0.00000E+00
    0.86176E-02         0.31806E-02         0.00000E+00
    0.86467E-02         0.23790E-02         0.00000E+00
    0.86722E-02         0.15893E-02         0.00000E+00
    0.86931E-02         0.81086E-03         0.00000E+00
    0.87087E-02         0.43540E-04         0.00000E+00
    0.87184E-02        -0.71316E-03         0.00000E+00
    0.87218E-02        -0.14598E-02         0.00000E+00
    0.87186E-02        -0.21970E-02         0.00000E+00
    0.87086E-02        -0.29256E-02         0.00000E+00
    0.86913E-02        -0.36465E-02         0.00000E+00
    0.86665E-02        -0.43606E-02         0.00000E+00
    0.86337E-02        -0.50692E-02         0.00000E+00
    0.85924E-02        -0.57732E-02         0.00000E+00
    0.85422E-02        -0.64739E-02         0.00000E+00
    0.84824E-02        -0.71722E-02         0.00000E+00
    0.84124E-02        -0.78687E-02         0.00000E+00
    0.83352E-02        -0.85641E-02         0.00000E+00
    0.82620E-02        -0.92605E-02         0.00000E+00
    0.81983E-02        -0.99568E-02         0.00000E+00
    0.81432E-02        -0.10653E-01         0.00000E+00
    0.80957E-02        -0.11347E-01         0.00000E+00
    0.80550E-02        -0.12040E-01         0.00000E+00
    0.80203E-02        -0.12732E-01         0.00000E+00
    0.79907E-02        -0.13421E-01         0.00000E+00
    0.79657E-02        -0.14108E-01         0.00000E+00
    0.79448E-02        -0.14793E-01         0.00000E+00
    0.79275E-02        -0.15475E-01         0.00000E+00
    0.79135E-02        -0.16155E-01         0.00000E+00
    0.79025E-02        -0.16834E-01         0.00000E+00
    0.78944E-02        -0.17510E-01         0.00000E+00
    0.78888E-02        -0.18185E-01         0.00000E+00
    0.78857E-02        -0.18859E-01         0.00000E+00
    0.78849E-02        -0.19531E-01         0.00000E+00
    0.78863E-02        -0.20203E-01         0.00000E+00
    0.78899E-02        -0.20874E-01         0.00000E+00
    0.78954E-02        -0.21546E-01         0.00000E+00
    0.79029E-02        -0.22217E-01         0.00000E+00
    0.79122E-02        -0.22889E-01         0.00000E+00
    0.79232E-02        -0.23561E-01         0.00000E+00
    0.79359E-02        -0.24235E-01         0.00000E+00
    0.79500E-02        -0.24910E-01         0.00000E+00
    0.79656E-02        -0.25587E-01         0.00000E+00
    0.79823E-02        -0.26265E-01         0.00000E+00
    0.80001E-02        -0.26946E-01         0.00000E+00
    0.80187E-02        -0.27630E-01         0.00000E+00
    0.80378E-02        -0.28317E-01         0.00000E+00
    0.80573E-02        -0.29007E-01         0.00000E+00
    0.80766E-02        -0.29700E-01         0.00000E+00
    0.80956E-02        -0.30398E-01         0.00000E+00
    0.81136E-02        -0.31100E-01         0.00000E+00
    0.81302E-02        -0.31806E-01         0.00000E+00
    0.81448E-02        -0.32517E-01         0.00000E+00
    0.81566E-02        -0.33234E-01         0.00000E+00
    0.81648E-02        -0.33956E-01         0.00000E+00
    0.81685E-02        -0.34684E-01         0.00000E+00
    0.81666E-02        -0.35419E-01         0.00000E+00
    0.81579E-02        -0.36161E-01         0.00000E+00
    0.81410E-02        -0.36911E-01         0.00000E+00
    0.81145E-02        -0.37668E-01         0.00000E+00
    0.80766E-02        -0.38435E-01         0.00000E+00
    0.80255E-02        -0.39211E-01         0.00000E+00
    0.79592E-02        -0.39997E-01         0.00000E+00
    0.78755E-02        -0.40794E-01         0.00000E+00
    0.77722E-02        -0.41602E-01         0.00000E+00
    0.76470E-02        -0.42421E-01         0.00000E+00
    0.74974E-02        -0.43251E-01         0.00000E+00
    0.73209E-02        -0.44091E-01         0.00000E+00
    0.71150E-02        -0.44941E-01         0.00000E+00
    0.68770E-02        -0.45796E-01         0.00000E+00
    0.66042E-02        -0.46655E-01         0.00000E+00
    0.62934E-02        -0.47510E-01         0.00000E+00
    0.59407E-02        -0.48353E-01         0.00000E+00
    0.55409E-02        -0.49174E-01         0.00000E+00
    0.50863E-02        -0.49959E-01         0.00000E+00
    0.45649E-02        -0.50689E-01         0.00000E+00
    0.39584E-02        -0.51342E-01         0.00000E+00
    0.32392E-02        -0.51893E-01         0.00000E+00
    0.23701E-02        -0.52313E-01         0.00000E+00
    0.13063E-02        -0.52576E-01         0.00000E+00
    0.00000E+00        -0.52666E-01         0.00000E+00
    0.00000E+00         0.18477E-01         0.00000E+00
    0.12353E-02         0.18387E-01         0.00000E+00
    0.23206E-02         0.18128E-01         0.00000E+00
    0.32801E-02         0.17721E-01         0.00000E+00
    0.41329E-02         0.17195E-01         0.00000E+00
    0.48932E-02         0.16577E-01         0.00000E+00
    0.55713E-02         0.15893E-01         0.00000E+00
    0.61748E-02         0.15161E-01         0.00000E+00
    0.67094E-02         0.14396E-01         0.00000E+00
    0.71797E-02         0.13608E-01         0.00000E+00
    0.75893E-02         0.12804E-01         0.00000E+00
    0.79412E-02         0.11989E-01         0.00000E+00
    0.82375E-02         0.11166E-01         0.00000E+00
    0.84802E-02         0.10335E-01         0.00000E+00
    0.86708E-02         0.94953E-02         0.00000E+00
    0.88102E-02         0.86417E-02         0.00000E+00
    0.88992E-02         0.77678E-02         0.00000E+00
    0.89412E-02         0.68678E-02         0.00000E+00
    0.89659E-02         0.59693E-02         0.00000E+00
    0.89956E-02         0.50851E-02         0.00000E+00
    0.90274E-02         0.42157E-02         0.00000E+00
    0.90586E-02         0.33597E-02         0.00000E+00
    0.90875E-02         0.25164E-02         0.00000E+00
    0.91126E-02         0.16854E-02         0.00000E+00
    0.91329E-02         0.86620E-03         0.00000E+00
    0.91478E-02         0.58631E-04         0.00000E+00
    0.91566E-02        -0.73779E-03         0.00000E+00
    0.91589E-02        -0.15236E-02         0.00000E+00
    0.91545E-02        -0.22996E-02         0.00000E+00
    0.91430E-02        -0.30665E-02         0.00000E+00
    0.91242E-02        -0.38254E-02         0.00000E+00
    0.90977E-02        -0.45771E-02         0.00000E+00
    0.90630E-02        -0.53229E-02         0.00000E+00
    0.90197E-02        -0.60640E-02         0.00000E+00
    0.89673E-02        -0.68016E-02         0.00000E+00
    0.89051E-02        -0.75367E-02         0.00000E+00
    0.88327E-02        -0.82702E-02         0.00000E+00
    0.87531E-02        -0.90026E-02         0.00000E+00
    0.86779E-02        -0.97362E-02         0.00000E+00
    0.86121E-02        -0.10470E-01         0.00000E+00
    0.85550E-02        -0.11203E-01         0.00000E+00
    0.85057E-02        -0.11935E-01         0.00000E+00
    0.84633E-02        -0.12665E-01         0.00000E+00
    0.84270E-02        -0.13393E-01         0.00000E+00
    0.83961E-02        -0.14119E-01         0.00000E+00
    0.83699E-02        -0.14843E-01         0.00000E+00
    0.83479E-02        -0.15564E-01         0.00000E+00
    0.83297E-02        -0.16283E-01         0.00000E+00
    0.83149E-02        -0.17000E-01         0.00000E+00
    0.83033E-02        -0.17714E-01         0.00000E+00
    0.82947E-02        -0.18427E-01         0.00000E+00
    0.82887E-02        -0.19138E-01         0.00000E+00
    0.82854E-02        -0.19847E-01         0.00000E+00
    0.82845E-02        -0.20556E-01         0.00000E+00
    0.82859E-02        -0.21263E-01         0.00000E+00
    0.82895E-02        -0.21970E-01         0.00000E+00
    0.82953E-02        -0.22677E-01         0.00000E+00
    0.83032E-02        -0.23384E-01         0.00000E+00
    0.83129E-02        -0.24091E-01         0.00000E+00
    0.83245E-02        -0.24799E-01         0.00000E+00
    0.83378E-02        -0.25509E-01         0.00000E+00
    0.83528E-02        -0.26220E-01         0.00000E+00
    0.83691E-02        -0.26932E-01         0.00000E+00
    0.83868E-02        -0.27647E-01         0.00000E+00
    0.84056E-02        -0.28364E-01         0.00000E+00
    0.84253E-02        -0.29084E-01         0.00000E+00
    0.84456E-02        -0.29807E-01         0.00000E+00
    0.84662E-02        -0.30533E-01         0.00000E+00
    0.84868E-02        -0.31263E-01         0.00000E+00
    0.85069E-02        -0.31998E-01         0.00000E+00
    0.85261E-02        -0.32736E-01         0.00000E+00
    0.85439E-02        -0.33479E-01         0.00000E+00
    0.85596E-02        -0.34228E-01         0.00000E+00
    0.85724E-02        -0.34982E-01         0.00000E+00
    0.85815E-02        -0.35742E-01         0.00000E+00
    0.85859E-02        -0.36508E-01         0.00000E+00
    0.85845E-02        -0.37281E-01         0.00000E+00
    0.85760E-02        -0.38061E-01         0.00000E+00
    0.85591E-02        -0.38849E-01         0.00000E+00
    0.85320E-02        -0.39646E-01         0.00000E+00
    0.84931E-02        -0.40451E-01         0.00000E+00
    0.84404E-02        -0.41267E-01         0.00000E+00
    0.83717E-02        -0.42093E-01         0.00000E+00
    0.82848E-02        -0.42929E-01         0.00000E+00
    0.81773E-02        -0.43778E-01         0.00000E+00
    0.80467E-02        -0.44637E-01         0.00000E+00
    0.78901E-02        -0.45509E-01         0.00000E+00
    0.77051E-02        -0.46391E-01         0.00000E+00
    0.74886E-02        -0.47282E-01         0.00000E+00
    0.72377E-02        -0.48179E-01         0.00000E+00
    0.69494E-02        -0.49079E-01         0.00000E+00
    0.66201E-02        -0.49976E-01         0.00000E+00
    0.62455E-02        -0.50860E-01         0.00000E+00
    0.58201E-02        -0.51721E-01         0.00000E+00
    0.53357E-02        -0.52542E-01         0.00000E+00
    0.47804E-02        -0.53306E-01         0.00000E+00
    0.41358E-02        -0.53988E-01         0.00000E+00
    0.33749E-02        -0.54561E-01         0.00000E+00
    0.24615E-02        -0.54996E-01         0.00000E+00
    0.13520E-02        -0.55269E-01         0.00000E+00
    0.00000E+00        -0.55361E-01         0.00000E+00
    0.00000E+00         0.19372E-01         0.00000E+00
    0.12806E-02         0.19278E-01         0.00000E+00
    0.24107E-02         0.19005E-01         0.00000E+00
    0.34135E-02         0.18578E-01         0.00000E+00
    0.43073E-02         0.18025E-01         0.00000E+00
    0.51056E-02         0.17378E-01         0.00000E+00
    0.58182E-02         0.16661E-01         0.00000E+00
    0.64526E-02         0.15894E-01         0.00000E+00
    0.70146E-02         0.15092E-01         0.00000E+00
    0.75090E-02         0.14267E-01         0.00000E+00
    0.79396E-02         0.13425E-01         0.00000E+00
    0.83098E-02         0.12572E-01         0.00000E+00
    0.86220E-02         0.11711E-01         0.00000E+00
    0.88783E-02         0.10841E-01         0.00000E+00
    0.90805E-02         0.99623E-02         0.00000E+00
    0.92300E-02         0.90695E-02         0.00000E+00
    0.93277E-02         0.81566E-02         0.00000E+00
    0.93758E-02         0.72175E-02         0.00000E+00
    0.94034E-02         0.62767E-02         0.00000E+00
    0.94347E-02         0.53498E-02         0.00000E+00
    0.94671E-02         0.44380E-02         0.00000E+00
    0.94984E-02         0.35399E-02         0.00000E+00
    0.95270E-02         0.26549E-02         0.00000E+00
    0.95516E-02         0.17826E-02         0.00000E+00
    0.95712E-02         0.92266E-03         0.00000E+00
    0.95851E-02         0.74872E-04         0.00000E+00
    0.95929E-02        -0.76127E-03         0.00000E+00
    0.95941E-02        -0.15863E-02         0.00000E+00
    0.95884E-02        -0.24011E-02         0.00000E+00
    0.95754E-02        -0.32063E-02         0.00000E+00
    0.95550E-02        -0.40031E-02         0.00000E+00
    0.95268E-02        -0.47924E-02         0.00000E+00
    0.94902E-02        -0.55755E-02         0.00000E+00
    0.94449E-02        -0.63536E-02         0.00000E+00
    0.93903E-02        -0.71281E-02         0.00000E+00
    0.93258E-02        -0.79001E-02         0.00000E+00
    0.92510E-02        -0.86705E-02         0.00000E+00
    0.91692E-02        -0.94401E-02         0.00000E+00
    0.90920E-02        -0.10211E-01         0.00000E+00
    0.90242E-02        -0.10982E-01         0.00000E+00
    0.89652E-02        -0.11752E-01         0.00000E+00
    0.89141E-02        -0.12521E-01         0.00000E+00
    0.88701E-02        -0.13289E-01         0.00000E+00
    0.88323E-02        -0.14054E-01         0.00000E+00
    0.88000E-02        -0.14817E-01         0.00000E+00
    0.87726E-02        -0.15578E-01         0.00000E+00
    0.87496E-02        -0.16336E-01         0.00000E+00
    0.87305E-02        -0.17091E-01         0.00000E+00
    0.87150E-02        -0.17844E-01         0.00000E+00
    0.87027E-02        -0.18595E-01         0.00000E+00
    0.86935E-02        -0.19343E-01         0.00000E+00
    0.86872E-02        -0.20090E-01         0.00000E+00
    0.86836E-02        -0.20835E-01         0.00000E+00
    0.86826E-02        -0.21580E-01         0.00000E+00
    0.86840E-02        -0.22323E-01         0.00000E+00
    0.86878E-02        -0.23065E-01         0.00000E+00
    0.86938E-02        -0.23808E-01         0.00000E+00
    0.87019E-02        -0.24551E-01         0.00000E+00
    0.87122E-02        -0.25294E-01         0.00000E+00
    0.87243E-02        -0.26038E-01         0.00000E+00
    0.87383E-02        -0.26783E-01         0.00000E+00
    0.87540E-02        -0.27529E-01         0.00000E+00
    0.87712E-02        -0.28278E-01         0.00000E+00
    0.87898E-02        -0.29028E-01         0.00000E+00
    0.88096E-02        -0.29782E-01         0.00000E+00
    0.88304E-02        -0.30538E-01         0.00000E+00
    0.88518E-02        -0.31297E-01         0.00000E+00
    0.88736E-02        -0.32060E-01         0.00000E+00
    0.88954E-02        -0.32826E-01         0.00000E+00
    0.89168E-02        -0.33597E-01         0.00000E+00
    0.89372E-02        -0.34373E-01         0.00000E+00
    0.89562E-02        -0.35153E-01         0.00000E+00
    0.89729E-02        -0.35939E-01         0.00000E+00
    0.89868E-02        -0.36730E-01         0.00000E+00
    0.89968E-02        -0.37527E-01         0.00000E+00
    0.90020E-02        -0.38331E-01         0.00000E+00
    0.90012E-02        -0.39142E-01         0.00000E+00
    0.89930E-02        -0.39961E-01         0.00000E+00
    0.89760E-02        -0.40787E-01         0.00000E+00
    0.89486E-02        -0.41622E-01         0.00000E+00
    0.89087E-02        -0.42467E-01         0.00000E+00
    0.88545E-02        -0.43322E-01         0.00000E+00
    0.87836E-02        -0.44187E-01         0.00000E+00
    0.86937E-02        -0.45064E-01         0.00000E+00
    0.85821E-02        -0.45952E-01         0.00000E+00
    0.84461E-02        -0.46853E-01         0.00000E+00
    0.82828E-02        -0.47765E-01         0.00000E+00
    0.80893E-02        -0.48688E-01         0.00000E+00
    0.78623E-02        -0.49621E-01         0.00000E+00
    0.75987E-02        -0.50560E-01         0.00000E+00
    0.72949E-02        -0.51501E-01         0.00000E+00
    0.69470E-02        -0.52439E-01         0.00000E+00
    0.65503E-02        -0.53363E-01         0.00000E+00
    0.60989E-02        -0.54263E-01         0.00000E+00
    0.55844E-02        -0.55121E-01         0.00000E+00
    0.49947E-02        -0.55918E-01         0.00000E+00
    0.43118E-02        -0.56628E-01         0.00000E+00
    0.35091E-02        -0.57224E-01         0.00000E+00
    0.25516E-02        -0.57675E-01         0.00000E+00
    0.13971E-02        -0.57957E-01         0.00000E+00
    0.00000E+00        -0.58052E-01         0.00000E+00
    0.00000E+00         0.20266E-01         0.00000E+00
    0.13257E-02         0.20167E-01         0.00000E+00
    0.25003E-02         0.19881E-01         0.00000E+00
    0.35462E-02         0.19432E-01         0.00000E+00
    0.44809E-02         0.18853E-01         0.00000E+00
    0.53170E-02         0.18176E-01         0.00000E+00
    0.60640E-02         0.17426E-01         0.00000E+00
    0.67292E-02         0.16624E-01         0.00000E+00
    0.73185E-02         0.15786E-01         0.00000E+00
    0.78369E-02         0.14924E-01         0.00000E+00
    0.82885E-02         0.14045E-01         0.00000E+00
    0.86769E-02         0.13154E-01         0.00000E+00
    0.90048E-02         0.12254E-01         0.00000E+00
    0.92748E-02         0.11346E-01         0.00000E+00
    0.94887E-02         0.10428E-01         0.00000E+00
    0.96482E-02         0.94968E-02         0.00000E+00
    0.97546E-02         0.85451E-02         0.00000E+00
    0.98090E-02         0.75675E-02         0.00000E+00
    0.98398E-02         0.65845E-02         0.00000E+00
    0.98727E-02         0.56152E-02         0.00000E+00
    0.99056E-02         0.46611E-02         0.00000E+00
    0.99369E-02         0.37210E-02         0.00000E+00
    0.99651E-02         0.27944E-02         0.00000E+00
    0.99891E-02         0.18808E-02         0.00000E+00
    0.10008E-01         0.98024E-03         0.00000E+00
    0.10021E-01         0.92245E-04         0.00000E+00
    0.10027E-01        -0.78360E-03         0.00000E+00
    0.10027E-01        -0.16479E-02         0.00000E+00
    0.10020E-01        -0.25014E-02         0.00000E+00
    0.10006E-01        -0.33450E-02         0.00000E+00
    0.99838E-02        -0.41796E-02         0.00000E+00
    0.99538E-02        -0.50065E-02         0.00000E+00
    0.99153E-02        -0.58269E-02         0.00000E+00
    0.98680E-02        -0.66421E-02         0.00000E+00
    0.98112E-02        -0.74535E-02         0.00000E+00
    0.97445E-02        -0.82624E-02         0.00000E+00
    0.96674E-02        -0.90698E-02         0.00000E+00
    0.95835E-02        -0.98765E-02         0.00000E+00
    0.95043E-02        -0.10684E-01         0.00000E+00
    0.94347E-02        -0.11493E-01         0.00000E+00
    0.93738E-02        -0.12300E-01         0.00000E+00
    0.93210E-02        -0.13107E-01         0.00000E+00
    0.92754E-02        -0.13912E-01         0.00000E+00
    0.92362E-02        -0.14714E-01         0.00000E+00
    0.92026E-02        -0.15514E-01         0.00000E+00
    0.91740E-02        -0.16312E-01         0.00000E+00
    0.91499E-02        -0.17106E-01         0.00000E+00
    0.91299E-02        -0.17898E-01         0.00000E+00
    0.91136E-02        -0.18688E-01         0.00000E+00
    0.91007E-02        -0.19474E-01         0.00000E+00
    0.90910E-02        -0.20259E-01         0.00000E+00
    0.90843E-02        -0.21042E-01         0.00000E+00
    0.90804E-02        -0.21823E-01         0.00000E+00
    0.90792E-02        -0.22603E-01         0.00000E+00
    0.90806E-02        -0.23382E-01         0.00000E+00
    0.90845E-02        -0.24161E-01         0.00000E+00
    0.90907E-02        -0.24939E-01         0.00000E+00
    0.90992E-02        -0.25717E-01         0.00000E+00
    0.91099E-02        -0.26496E-01         0.00000E+00
    0.91226E-02        -0.27276E-01         0.00000E+00
    0.91373E-02        -0.28057E-01         0.00000E+00
    0.91537E-02        -0.28839E-01         0.00000E+00
    0.91718E-02        -0.29623E-01         0.00000E+00
    0.91914E-02        -0.30410E-01         0.00000E+00
    0.92122E-02        -0.31199E-01         0.00000E+00
    0.92340E-02        -0.31991E-01         0.00000E+00
    0.92566E-02        -0.32787E-01         0.00000E+00
    0.92795E-02        -0.33586E-01         0.00000E+00
    0.93026E-02        -0.34389E-01         0.00000E+00
    0.93252E-02        -0.35197E-01         0.00000E+00
    0.93468E-02        -0.36009E-01         0.00000E+00
    0.93670E-02        -0.36826E-01         0.00000E+00
    0.93850E-02        -0.37649E-01         0.00000E+00
    0.93999E-02        -0.38478E-01         0.00000E+00
    0.94109E-02        -0.39313E-01         0.00000E+00
    0.94169E-02        -0.40155E-01         0.00000E+00
    0.94167E-02        -0.41003E-01         0.00000E+00
    0.94089E-02        -0.41860E-01         0.00000E+00
    0.93919E-02        -0.42725E-01         0.00000E+00
    0.93641E-02        -0.43599E-01         0.00000E+00
    0.93235E-02        -0.44483E-01         0.00000E+00
    0.92679E-02        -0.45376E-01         0.00000E+00
    0.91949E-02        -0.46281E-01         0.00000E+00
    0.91020E-02        -0.47198E-01         0.00000E+00
    0.89865E-02        -0.48126E-01         0.00000E+00
    0.88453E-02        -0.49067E-01         0.00000E+00
    0.86754E-02        -0.50020E-01         0.00000E+00
    0.84735E-02        -0.50984E-01         0.00000E+00
    0.82362E-02        -0.51957E-01         0.00000E+00
    0.79599E-02        -0.52937E-01         0.00000E+00
    0.76406E-02        -0.53920E-01         0.00000E+00
    0.72740E-02        -0.54898E-01         0.00000E+00
    0.68551E-02        -0.55862E-01         0.00000E+00
    0.63775E-02        -0.56800E-01         0.00000E+00
    0.58326E-02        -0.57695E-01         0.00000E+00
    0.52082E-02        -0.58525E-01         0.00000E+00
    0.44865E-02        -0.59264E-01         0.00000E+00
    0.36420E-02        -0.59882E-01         0.00000E+00
    0.26407E-02        -0.60349E-01         0.00000E+00
    0.14415E-02        -0.60640E-01         0.00000E+00
    0.00000E+00        -0.60738E-01         0.00000E+00
    0.00000E+00         0.21160E-01         0.00000E+00
    0.13706E-02         0.21056E-01         0.00000E+00
    0.25895E-02         0.20756E-01         0.00000E+00
    0.36785E-02         0.20285E-01         0.00000E+00
    0.46539E-02         0.19680E-01         0.00000E+00
    0.55278E-02         0.18971E-01         0.00000E+00
    0.63091E-02         0.18189E-01         0.00000E+00
    0.70049E-02         0.17352E-01         0.00000E+00
    0.76214E-02         0.16479E-01         0.00000E+00
    0.81636E-02         0.15579E-01         0.00000E+00
    0.86361E-02         0.14662E-01         0.00000E+00
    0.90426E-02         0.13734E-01         0.00000E+00
    0.93862E-02         0.12796E-01         0.00000E+00
    0.96698E-02         0.11850E-01         0.00000E+00
    0.98954E-02         0.10894E-01         0.00000E+00
    0.10065E-01         0.99236E-02         0.00000E+00
    0.10180E-01         0.89333E-02         0.00000E+00
    0.10241E-01         0.79180E-02         0.00000E+00
    0.10275E-01         0.68927E-02         0.00000E+00
    0.10310E-01         0.58813E-02         0.00000E+00
    0.10343E-01         0.48851E-02         0.00000E+00
    0.10374E-01         0.39031E-02         0.00000E+00
    0.10402E-01         0.29349E-02         0.00000E+00
    0.10425E-01         0.19802E-02         0.00000E+00
    0.10443E-01         0.10389E-02         0.00000E+00
    0.10455E-01         0.11073E-03         0.00000E+00
    0.10460E-01        -0.80481E-03         0.00000E+00
    0.10459E-01        -0.17083E-02         0.00000E+00
    0.10450E-01        -0.26006E-02         0.00000E+00
    0.10434E-01        -0.34825E-02         0.00000E+00
    0.10410E-01        -0.43551E-02         0.00000E+00
    0.10379E-01        -0.52195E-02         0.00000E+00
    0.10338E-01        -0.60772E-02         0.00000E+00
    0.10289E-01        -0.69294E-02         0.00000E+00
    0.10230E-01        -0.77777E-02         0.00000E+00
    0.10161E-01        -0.86236E-02         0.00000E+00
    0.10082E-01        -0.94680E-02         0.00000E+00
    0.99961E-02        -0.10312E-01         0.00000E+00
    0.99150E-02        -0.11157E-01         0.00000E+00
    0.98435E-02        -0.12003E-01         0.00000E+00
    0.97809E-02        -0.12848E-01         0.00000E+00
    0.97264E-02        -0.13692E-01         0.00000E+00
    0.96793E-02        -0.14534E-01         0.00000E+00
    0.96386E-02        -0.15374E-01         0.00000E+00
    0.96037E-02        -0.16211E-01         0.00000E+00
    0.95740E-02        -0.17045E-01         0.00000E+00
    0.95489E-02        -0.17876E-01         0.00000E+00
    0.95279E-02        -0.18705E-01         0.00000E+00
    0.95108E-02        -0.19531E-01         0.00000E+00
    0.94973E-02        -0.20354E-01         0.00000E+00
    0.94871E-02        -0.21175E-01         0.00000E+00
    0.94800E-02        -0.21994E-01         0.00000E+00
    0.94758E-02        -0.22811E-01         0.00000E+00
    0.94745E-02        -0.23627E-01         0.00000E+00
    0.94758E-02        -0.24441E-01         0.00000E+00
    0.94798E-02        -0.25256E-01         0.00000E+00
    0.94863E-02        -0.26070E-01         0.00000E+00
    0.94951E-02        -0.26884E-01         0.00000E+00
    0.95062E-02        -0.27698E-01         0.00000E+00
    0.95195E-02        -0.28514E-01         0.00000E+00
    0.95348E-02        -0.29330E-01         0.00000E+00
    0.95520E-02        -0.30149E-01         0.00000E+00
    0.95709E-02        -0.30969E-01         0.00000E+00
    0.95914E-02        -0.31792E-01         0.00000E+00
    0.96132E-02        -0.32617E-01         0.00000E+00
    0.96361E-02        -0.33445E-01         0.00000E+00
    0.96599E-02        -0.34277E-01         0.00000E+00
    0.96840E-02        -0.35113E-01         0.00000E+00
    0.97083E-02        -0.35952E-01         0.00000E+00
    0.97321E-02        -0.36797E-01         0.00000E+00
    0.97551E-02        -0.37646E-01         0.00000E+00
    0.97764E-02        -0.38500E-01         0.00000E+00
    0.97956E-02        -0.39360E-01         0.00000E+00
    0.98116E-02        -0.40226E-01         0.00000E+00
    0.98236E-02        -0.41099E-01         0.00000E+00
    0.98305E-02        -0.41978E-01         0.00000E+00
    0.98310E-02        -0.42865E-01         0.00000E+00
    0.98236E-02        -0.43759E-01         0.00000E+00
    0.98068E-02        -0.44663E-01         0.00000E+00
    0.97787E-02        -0.45575E-01         0.00000E+00
    0.97374E-02        -0.46498E-01         0.00000E+00
    0.96805E-02        -0.47431E-01         0.00000E+00
    0.96056E-02        -0.48375E-01         0.00000E+00
    0.95099E-02        -0.49331E-01         0.00000E+00
    0.93905E-02        -0.50299E-01         0.00000E+00
    0.92444E-02        -0.51280E-01         0.00000E+00
    0.90680E-02        -0.52273E-01         0.00000E+00
    0.88579E-02        -0.53277E-01         0.00000E+00
    0.86104E-02        -0.54291E-01         0.00000E+00
    0.83213E-02        -0.55312E-01         0.00000E+00
    0.79866E-02        -0.56335E-01         0.00000E+00
    0.76014E-02        -0.57354E-01         0.00000E+00
    0.71601E-02        -0.58357E-01         0.00000E+00
    0.66561E-02        -0.59333E-01         0.00000E+00
    0.60805E-02        -0.60264E-01         0.00000E+00
    0.54211E-02        -0.61126E-01         0.00000E+00
    0.46604E-02        -0.61894E-01         0.00000E+00
    0.37739E-02        -0.62535E-01         0.00000E+00
    0.27288E-02        -0.63018E-01         0.00000E+00
    0.14854E-02        -0.63319E-01         0.00000E+00
    0.00000E+00        -0.63420E-01         0.00000E+00
    0.00000E+00         0.22053E-01         0.00000E+00
    0.14154E-02         0.21945E-01         0.00000E+00
    0.26786E-02         0.21629E-01         0.00000E+00
    0.38106E-02         0.21137E-01         0.00000E+00
    0.48268E-02         0.20504E-01         0.00000E+00
    0.57384E-02         0.19765E-01         0.00000E+00
    0.65538E-02         0.18949E-01         0.00000E+00
    0.72801E-02         0.18078E-01         0.00000E+00
    0.79235E-02         0.17169E-01         0.00000E+00
    0.84894E-02         0.16233E-01         0.00000E+00
    0.89826E-02         0.15279E-01         0.00000E+00
    0.94071E-02         0.14312E-01         0.00000E+00
    0.97663E-02         0.13337E-01         0.00000E+00
    0.10063E-01         0.12353E-01         0.00000E+00
    0.10301E-01         0.11358E-01         0.00000E+00
    0.10480E-01         0.10350E-01         0.00000E+00
    0.10604E-01         0.93213E-02         0.00000E+00
    0.10671E-01         0.82684E-02         0.00000E+00
    0.10710E-01         0.72013E-02         0.00000E+00
    0.10745E-01         0.61481E-02         0.00000E+00
    0.10779E-01         0.51099E-02         0.00000E+00
    0.10810E-01         0.40861E-02         0.00000E+00
    0.10837E-01         0.30764E-02         0.00000E+00
    0.10860E-01         0.20806E-02         0.00000E+00
    0.10877E-01         0.10987E-02         0.00000E+00
    0.10887E-01         0.13032E-03         0.00000E+00
    0.10891E-01        -0.82491E-03         0.00000E+00
    0.10889E-01        -0.17676E-02         0.00000E+00
    0.10878E-01        -0.26987E-02         0.00000E+00
    0.10861E-01        -0.36189E-02         0.00000E+00
    0.10835E-01        -0.45294E-02         0.00000E+00
    0.10802E-01        -0.54315E-02         0.00000E+00
    0.10759E-01        -0.63264E-02         0.00000E+00
    0.10708E-01        -0.72157E-02         0.00000E+00
    0.10647E-01        -0.81009E-02         0.00000E+00
    0.10576E-01        -0.89837E-02         0.00000E+00
    0.10495E-01        -0.98652E-02         0.00000E+00
    0.10407E-01        -0.10746E-01         0.00000E+00
    0.10324E-01        -0.11629E-01         0.00000E+00
    0.10251E-01        -0.12512E-01         0.00000E+00
    0.10186E-01        -0.13395E-01         0.00000E+00
    0.10130E-01        -0.14276E-01         0.00000E+00
    0.10082E-01        -0.15156E-01         0.00000E+00
    0.10040E-01        -0.16033E-01         0.00000E+00
    0.10003E-01        -0.16907E-01         0.00000E+00
    0.99726E-02        -0.17778E-01         0.00000E+00
    0.99465E-02        -0.18646E-01         0.00000E+00
    0.99246E-02        -0.19511E-01         0.00000E+00
    0.99067E-02        -0.20373E-01         0.00000E+00
    0.98925E-02        -0.21233E-01         0.00000E+00
    0.98818E-02        -0.22090E-01         0.00000E+00
    0.98742E-02        -0.22945E-01         0.00000E+00
    0.98698E-02        -0.23798E-01         0.00000E+00
    0.98683E-02        -0.24650E-01         0.00000E+00
    0.98696E-02        -0.25500E-01         0.00000E+00
    0.98737E-02        -0.26350E-01         0.00000E+00
    0.98803E-02        -0.27200E-01         0.00000E+00
    0.98895E-02        -0.28050E-01         0.00000E+00
    0.99010E-02        -0.28900E-01         0.00000E+00
    0.99148E-02        -0.29752E-01         0.00000E+00
    0.99308E-02        -0.30604E-01         0.00000E+00
    0.99487E-02        -0.31458E-01         0.00000E+00
    0.99685E-02        -0.32314E-01         0.00000E+00
    0.99899E-02        -0.33173E-01         0.00000E+00
    0.10013E-01        -0.34034E-01         0.00000E+00
    0.10037E-01        -0.34899E-01         0.00000E+00
    0.10062E-01        -0.35767E-01         0.00000E+00
    0.10087E-01        -0.36639E-01         0.00000E+00
    0.10113E-01        -0.37515E-01         0.00000E+00
    0.10138E-01        -0.38396E-01         0.00000E+00
    0.10162E-01        -0.39282E-01         0.00000E+00
    0.10184E-01        -0.40174E-01         0.00000E+00
    0.10205E-01        -0.41071E-01         0.00000E+00
    0.10222E-01        -0.41974E-01         0.00000E+00
    0.10235E-01        -0.42884E-01         0.00000E+00
    0.10243E-01        -0.43801E-01         0.00000E+00
    0.10244E-01        -0.44726E-01         0.00000E+00
    0.10237E-01        -0.45659E-01         0.00000E+00
    0.10221E-01        -0.46600E-01         0.00000E+00
    0.10192E-01        -0.47551E-01         0.00000E+00
    0.10150E-01        -0.48512E-01         0.00000E+00
    0.10092E-01        -0.49484E-01         0.00000E+00
    0.10016E-01        -0.50467E-01         0.00000E+00
    0.99173E-02        -0.51463E-01         0.00000E+00
    0.97943E-02        -0.52470E-01         0.00000E+00
    0.96432E-02        -0.53491E-01         0.00000E+00
    0.94605E-02        -0.54524E-01         0.00000E+00
    0.92424E-02        -0.55569E-01         0.00000E+00
    0.89847E-02        -0.56623E-01         0.00000E+00
    0.86832E-02        -0.57685E-01         0.00000E+00
    0.83331E-02        -0.58748E-01         0.00000E+00
    0.79291E-02        -0.59806E-01         0.00000E+00
    0.74655E-02        -0.60849E-01         0.00000E+00
    0.69349E-02        -0.61862E-01         0.00000E+00
    0.63283E-02        -0.62828E-01         0.00000E+00
    0.56336E-02        -0.63723E-01         0.00000E+00
    0.48337E-02        -0.64519E-01         0.00000E+00
    0.39051E-02        -0.65183E-01         0.00000E+00
    0.28163E-02        -0.65683E-01         0.00000E+00
    0.15290E-02        -0.65994E-01         0.00000E+00
    0.00000E+00        -0.66098E-01         0.00000E+00
    0.00000E+00         0.22947E-01         0.00000E+00
    0.14602E-02         0.22833E-01         0.00000E+00
    0.27677E-02         0.22502E-01         0.00000E+00
    0.39428E-02         0.21987E-01         0.00000E+00
    0.49997E-02         0.21327E-01         0.00000E+00
    0.59489E-02         0.20557E-01         0.00000E+00
    0.67983E-02         0.19708E-01         0.00000E+00
    0.75549E-02         0.18802E-01         0.00000E+00
    0.82251E-02         0.17857E-01         0.00000E+00
    0.88145E-02         0.16884E-01         0.00000E+00
    0.93282E-02         0.15893E-01         0.00000E+00
    0.97705E-02         0.14889E-01         0.00000E+00
    0.10145E-01         0.13876E-01         0.00000E+00
    0.10456E-01         0.12854E-01         0.00000E+00
    0.10704E-01         0.11822E-01         0.00000E+00
    0.10894E-01         0.10776E-01         0.00000E+00
    0.11026E-01         0.97092E-02         0.00000E+00
    0.11100E-01         0.86185E-02         0.00000E+00
    0.11143E-01         0.75104E-02         0.00000E+00
    0.11180E-01         0.64155E-02         0.00000E+00
    0.11214E-01         0.53356E-02         0.00000E+00
    0.11245E-01         0.42701E-02         0.00000E+00
    0.11272E-01         0.32189E-02         0.00000E+00
    0.11293E-01         0.21821E-02         0.00000E+00
    0.11309E-01         0.11595E-02         0.00000E+00
    0.11318E-01         0.15098E-03         0.00000E+00
    0.11321E-01        -0.84392E-03         0.00000E+00
    0.11316E-01        -0.18259E-02         0.00000E+00
    0.11305E-01        -0.27956E-02         0.00000E+00
    0.11285E-01        -0.37542E-02         0.00000E+00
    0.11258E-01        -0.47027E-02         0.00000E+00
    0.11223E-01        -0.56423E-02         0.00000E+00
    0.11178E-01        -0.65745E-02         0.00000E+00
    0.11125E-01        -0.75009E-02         0.00000E+00
    0.11062E-01        -0.84231E-02         0.00000E+00
    0.10989E-01        -0.93427E-02         0.00000E+00
    0.10906E-01        -0.10261E-01         0.00000E+00
    0.10816E-01        -0.11180E-01         0.00000E+00
    0.10731E-01        -0.12100E-01         0.00000E+00
    0.10656E-01        -0.13020E-01         0.00000E+00
    0.10590E-01        -0.13941E-01         0.00000E+00
    0.10533E-01        -0.14860E-01         0.00000E+00
    0.10483E-01        -0.15776E-01         0.00000E+00
    0.10439E-01        -0.16691E-01         0.00000E+00
    0.10402E-01        -0.17602E-01         0.00000E+00
    0.10370E-01        -0.18510E-01         0.00000E+00
    0.10343E-01        -0.19415E-01         0.00000E+00
    0.10320E-01        -0.20317E-01         0.00000E+00
    0.10301E-01        -0.21215E-01         0.00000E+00
    0.10286E-01        -0.22111E-01         0.00000E+00
    0.10275E-01        -0.23005E-01         0.00000E+00
    0.10267E-01        -0.23896E-01         0.00000E+00
    0.10262E-01        -0.24785E-01         0.00000E+00
    0.10261E-01        -0.25673E-01         0.00000E+00
    0.10262E-01        -0.26559E-01         0.00000E+00
    0.10266E-01        -0.27445E-01         0.00000E+00
    0.10273E-01        -0.28331E-01         0.00000E+00
    0.10282E-01        -0.29216E-01         0.00000E+00
    0.10294E-01        -0.30102E-01         0.00000E+00
    0.10309E-01        -0.30989E-01         0.00000E+00
    0.10325E-01        -0.31878E-01         0.00000E+00
    0.10344E-01        -0.32768E-01         0.00000E+00
    0.10365E-01        -0.33660E-01         0.00000E+00
    0.10387E-01        -0.34555E-01         0.00000E+00
    0.10411E-01        -0.35452E-01         0.00000E+00
    0.10436E-01        -0.36353E-01         0.00000E+00
    0.10462E-01        -0.37257E-01         0.00000E+00
    0.10489E-01        -0.38166E-01         0.00000E+00
    0.10515E-01        -0.39079E-01         0.00000E+00
    0.10542E-01        -0.39996E-01         0.00000E+00
    0.10567E-01        -0.40919E-01         0.00000E+00
    0.10591E-01        -0.41847E-01         0.00000E+00
    0.10613E-01        -0.42782E-01         0.00000E+00
    0.10631E-01        -0.43722E-01         0.00000E+00
    0.10645E-01        -0.44670E-01         0.00000E+00
    0.10654E-01        -0.45625E-01         0.00000E+00
    0.10656E-01        -0.46587E-01         0.00000E+00
    0.10650E-01        -0.47558E-01         0.00000E+00
    0.10633E-01        -0.48538E-01         0.00000E+00
    0.10605E-01        -0.49527E-01         0.00000E+00
    0.10563E-01        -0.50527E-01         0.00000E+00
    0.10503E-01        -0.51537E-01         0.00000E+00
    0.10425E-01        -0.52559E-01         0.00000E+00
    0.10324E-01        -0.53594E-01         0.00000E+00
    0.10198E-01        -0.54641E-01         0.00000E+00
    0.10042E-01        -0.55701E-01         0.00000E+00
    0.98531E-02        -0.56774E-01         0.00000E+00
    0.96271E-02        -0.57859E-01         0.00000E+00
    0.93594E-02        -0.58953E-01         0.00000E+00
    0.90455E-02        -0.60054E-01         0.00000E+00
    0.86800E-02        -0.61157E-01         0.00000E+00
    0.82575E-02        -0.62255E-01         0.00000E+00
    0.77713E-02        -0.63336E-01         0.00000E+00
    0.72141E-02        -0.64387E-01         0.00000E+00
    0.65764E-02        -0.65388E-01         0.00000E+00
    0.58460E-02        -0.66315E-01         0.00000E+00
    0.50067E-02        -0.67139E-01         0.00000E+00
    0.40358E-02        -0.67826E-01         0.00000E+00
    0.29034E-02        -0.68344E-01         0.00000E+00
    0.15722E-02        -0.68664E-01         0.00000E+00
    0.00000E+00        -0.68772E-01         0.00000E+00
    0.00000E+00         0.23841E-01         0.00000E+00
    0.15052E-02         0.23721E-01         0.00000E+00
    0.28572E-02         0.23374E-01         0.00000E+00
    0.40754E-02         0.22836E-01         0.00000E+00
    0.51731E-02         0.22147E-01         0.00000E+00
    0.61598E-02         0.21346E-01         0.00000E+00
    0.70430E-02         0.20464E-01         0.00000E+00
    0.78297E-02         0.19524E-01         0.00000E+00
    0.85264E-02         0.18543E-01         0.00000E+00
    0.91391E-02         0.17534E-01         0.00000E+00
    0.96730E-02         0.16506E-01         0.00000E+00
    0.10133E-01         0.15465E-01         0.00000E+00
    0.10523E-01         0.14414E-01         0.00000E+00
    0.10847E-01         0.13355E-01         0.00000E+00
    0.11107E-01         0.12285E-01         0.00000E+00
    0.11306E-01         0.11201E-01         0.00000E+00
    0.11447E-01         0.10097E-01         0.00000E+00
    0.11528E-01         0.89683E-02         0.00000E+00
    0.11575E-01         0.78198E-02         0.00000E+00
    0.11613E-01         0.66835E-02         0.00000E+00
    0.11648E-01         0.55620E-02         0.00000E+00
    0.11679E-01         0.44549E-02         0.00000E+00
    0.11705E-01         0.33624E-02         0.00000E+00
    0.11725E-01         0.22845E-02         0.00000E+00
    0.11740E-01         0.12214E-02         0.00000E+00
    0.11748E-01         0.17271E-03         0.00000E+00
    0.11749E-01        -0.86186E-03         0.00000E+00
    0.11743E-01        -0.18830E-02         0.00000E+00
    0.11729E-01        -0.28915E-02         0.00000E+00
    0.11708E-01        -0.38885E-02         0.00000E+00
    0.11679E-01        -0.48749E-02         0.00000E+00
    0.11641E-01        -0.58521E-02         0.00000E+00
    0.11595E-01        -0.68216E-02         0.00000E+00
    0.11540E-01        -0.77850E-02         0.00000E+00
    0.11475E-01        -0.87442E-02         0.00000E+00
    0.11400E-01        -0.97008E-02         0.00000E+00
    0.11315E-01        -0.10656E-01         0.00000E+00
    0.11223E-01        -0.11612E-01         0.00000E+00
    0.11137E-01        -0.12570E-01         0.00000E+00
    0.11060E-01        -0.13528E-01         0.00000E+00
    0.10993E-01        -0.14486E-01         0.00000E+00
    0.10934E-01        -0.15442E-01         0.00000E+00
    0.10882E-01        -0.16397E-01         0.00000E+00
    0.10838E-01        -0.17348E-01         0.00000E+00
    0.10799E-01        -0.18297E-01         0.00000E+00
    0.10766E-01        -0.19242E-01         0.00000E+00
    0.10738E-01        -0.20184E-01         0.00000E+00
    0.10714E-01        -0.21122E-01         0.00000E+00
    0.10694E-01        -0.22057E-01         0.00000E+00
    0.10679E-01        -0.22989E-01         0.00000E+00
    0.10667E-01        -0.23919E-01         0.00000E+00
    0.10659E-01        -0.24846E-01         0.00000E+00
    0.10654E-01        -0.25771E-01         0.00000E+00
    0.10652E-01        -0.26695E-01         0.00000E+00
    0.10653E-01        -0.27618E-01         0.00000E+00
    0.10657E-01        -0.28539E-01         0.00000E+00
    0.10664E-01        -0.29461E-01         0.00000E+00
    0.10674E-01        -0.30382E-01         0.00000E+00
    0.10686E-01        -0.31304E-01         0.00000E+00
    0.10701E-01        -0.32227E-01         0.00000E+00
    0.10718E-01        -0.33151E-01         0.00000E+00
    0.10738E-01        -0.34077E-01         0.00000E+00
    0.10759E-01        -0.35005E-01         0.00000E+00
    0.10783E-01        -0.35936E-01         0.00000E+00
    0.10808E-01        -0.36870E-01         0.00000E+00
    0.10834E-01        -0.37807E-01         0.00000E+00
    0.10861E-01        -0.38748E-01         0.00000E+00
    0.10889E-01        -0.39693E-01         0.00000E+00
    0.10917E-01        -0.40642E-01         0.00000E+00
    0.10944E-01        -0.41596E-01         0.00000E+00
    0.10971E-01        -0.42556E-01         0.00000E+00
    0.10996E-01        -0.43521E-01         0.00000E+00
    0.11019E-01        -0.44493E-01         0.00000E+00
    0.11039E-01        -0.45471E-01         0.00000E+00
    0.11054E-01        -0.46456E-01         0.00000E+00
    0.11064E-01        -0.47448E-01         0.00000E+00
    0.11067E-01        -0.48448E-01         0.00000E+00
    0.11061E-01        -0.49457E-01         0.00000E+00
    0.11045E-01        -0.50475E-01         0.00000E+00
    0.11017E-01        -0.51503E-01         0.00000E+00
    0.10974E-01        -0.52541E-01         0.00000E+00
    0.10914E-01        -0.53590E-01         0.00000E+00
    0.10834E-01        -0.54651E-01         0.00000E+00
    0.10731E-01        -0.55724E-01         0.00000E+00
    0.10601E-01        -0.56811E-01         0.00000E+00
    0.10440E-01        -0.57910E-01         0.00000E+00
    0.10246E-01        -0.59023E-01         0.00000E+00
    0.10012E-01        -0.60147E-01         0.00000E+00
    0.97345E-02        -0.61281E-01         0.00000E+00
    0.94082E-02        -0.62422E-01         0.00000E+00
    0.90276E-02        -0.63564E-01         0.00000E+00
    0.85864E-02        -0.64700E-01         0.00000E+00
    0.80779E-02        -0.65819E-01         0.00000E+00
    0.74939E-02        -0.66907E-01         0.00000E+00
    0.68248E-02        -0.67943E-01         0.00000E+00
    0.60587E-02        -0.68902E-01         0.00000E+00
    0.51796E-02        -0.69755E-01         0.00000E+00
    0.41662E-02        -0.70465E-01         0.00000E+00
    0.29901E-02        -0.71000E-01         0.00000E+00
    0.16152E-02        -0.71331E-01         0.00000E+00
    0.00000E+00        -0.71443E-01         0.00000E+00
    0.00000E+00         0.24735E-01         0.00000E+00
    0.15504E-02         0.24609E-01         0.00000E+00
    0.29473E-02         0.24246E-01         0.00000E+00
    0.42088E-02         0.23684E-01         0.00000E+00
    0.53472E-02         0.22966E-01         0.00000E+00
    0.63713E-02         0.22134E-01         0.00000E+00
    0.72882E-02         0.21218E-01         0.00000E+00
    0.81047E-02         0.20243E-01         0.00000E+00
    0.88277E-02         0.19227E-01         0.00000E+00
    0.94633E-02         0.18182E-01         0.00000E+00
    0.10017E-01         0.17117E-01         0.00000E+00
    0.10495E-01         0.16039E-01         0.00000E+00
    0.10900E-01         0.14951E-01         0.00000E+00
    0.11237E-01         0.13855E-01         0.00000E+00
    0.11508E-01         0.12747E-01         0.00000E+00
    0.11717E-01         0.11625E-01         0.00000E+00
    0.11866E-01         0.10484E-01         0.00000E+00
    0.11955E-01         0.93180E-02         0.00000E+00
    0.12006E-01         0.81297E-02         0.00000E+00
    0.12046E-01         0.69522E-02         0.00000E+00
    0.12081E-01         0.57893E-02         0.00000E+00
    0.12111E-01         0.46407E-02         0.00000E+00
    0.12136E-01         0.35068E-02         0.00000E+00
    0.12156E-01         0.23880E-02         0.00000E+00
    0.12169E-01         0.12843E-02         0.00000E+00
    0.12175E-01         0.19549E-03         0.00000E+00
    0.12175E-01        -0.87875E-03         0.00000E+00
    0.12167E-01        -0.19391E-02         0.00000E+00
    0.12152E-01        -0.29864E-02         0.00000E+00
    0.12129E-01        -0.40217E-02         0.00000E+00
    0.12098E-01        -0.50460E-02         0.00000E+00
    0.12058E-01        -0.60609E-02         0.00000E+00
    0.12011E-01        -0.70677E-02         0.00000E+00
    0.11954E-01        -0.80682E-02         0.00000E+00
    0.11887E-01        -0.90642E-02         0.00000E+00
    0.11810E-01        -0.10058E-01         0.00000E+00
    0.11722E-01        -0.11051E-01         0.00000E+00
    0.11629E-01        -0.12044E-01         0.00000E+00
    0.11541E-01        -0.13039E-01         0.00000E+00
    0.11463E-01        -0.14035E-01         0.00000E+00
    0.11394E-01        -0.15030E-01         0.00000E+00
    0.11333E-01        -0.16024E-01         0.00000E+00
    0.11281E-01        -0.17016E-01         0.00000E+00
    0.11235E-01        -0.18005E-01         0.00000E+00
    0.11195E-01        -0.18991E-01         0.00000E+00
    0.11160E-01        -0.19973E-01         0.00000E+00
    0.11131E-01        -0.20952E-01         0.00000E+00
    0.11107E-01        -0.21927E-01         0.00000E+00
    0.11086E-01        -0.22898E-01         0.00000E+00
    0.11070E-01        -0.23867E-01         0.00000E+00
    0.11058E-01        -0.24833E-01         0.00000E+00
    0.11049E-01        -0.25796E-01         0.00000E+00
    0.11043E-01        -0.26758E-01         0.00000E+00
    0.11041E-01        -0.27717E-01         0.00000E+00
    0.11042E-01        -0.28676E-01         0.00000E+00
    0.11047E-01        -0.29634E-01         0.00000E+00
    0.11054E-01        -0.30591E-01         0.00000E+00
    0.11064E-01        -0.31548E-01         0.00000E+00
    0.11077E-01        -0.32506E-01         0.00000E+00
    0.11092E-01        -0.33465E-01         0.00000E+00
    0.11110E-01        -0.34425E-01         0.00000E+00
    0.11130E-01        -0.35387E-01         0.00000E+00
    0.11153E-01        -0.36351E-01         0.00000E+00
    0.11177E-01        -0.37318E-01         0.00000E+00
    0.11203E-01        -0.38288E-01         0.00000E+00
    0.11230E-01        -0.39261E-01         0.00000E+00
    0.11258E-01        -0.40238E-01         0.00000E+00
    0.11287E-01        -0.41219E-01         0.00000E+00
    0.11317E-01        -0.42205E-01         0.00000E+00
    0.11346E-01        -0.43196E-01         0.00000E+00
    0.11374E-01        -0.44193E-01         0.00000E+00
    0.11400E-01        -0.45195E-01         0.00000E+00
    0.11424E-01        -0.46204E-01         0.00000E+00
    0.11445E-01        -0.47219E-01         0.00000E+00
    0.11462E-01        -0.48241E-01         0.00000E+00
    0.11472E-01        -0.49271E-01         0.00000E+00
    0.11476E-01        -0.50309E-01         0.00000E+00
    0.11471E-01        -0.51356E-01         0.00000E+00
    0.11456E-01        -0.52412E-01         0.00000E+00
    0.11427E-01        -0.53478E-01         0.00000E+00
    0.11384E-01        -0.54554E-01         0.00000E+00
    0.11323E-01        -0.55642E-01         0.00000E+00
    0.11242E-01        -0.56742E-01         0.00000E+00
    0.11136E-01        -0.57854E-01         0.00000E+00
    0.11003E-01        -0.58980E-01         0.00000E+00
    0.10839E-01        -0.60118E-01         0.00000E+00
    0.10638E-01        -0.61270E-01         0.00000E+00
    0.10397E-01        -0.62433E-01         0.00000E+00
    0.10110E-01        -0.63607E-01         0.00000E+00
    0.97716E-02        -0.64787E-01         0.00000E+00
    0.93759E-02        -0.65968E-01         0.00000E+00
    0.89162E-02        -0.67142E-01         0.00000E+00
    0.83852E-02        -0.68299E-01         0.00000E+00
    0.77744E-02        -0.69423E-01         0.00000E+00
    0.70740E-02        -0.70493E-01         0.00000E+00
    0.62718E-02        -0.71485E-01         0.00000E+00
    0.53528E-02        -0.72365E-01         0.00000E+00
    0.42967E-02        -0.73099E-01         0.00000E+00
    0.30767E-02        -0.73652E-01         0.00000E+00
    0.16582E-02        -0.73994E-01         0.00000E+00
    0.00000E+00        -0.74110E-01         0.00000E+00
    0.00000E+00         0.25630E-01         0.00000E+00
    0.15962E-02         0.25497E-01         0.00000E+00
    0.30381E-02         0.25117E-01         0.00000E+00
    0.43432E-02         0.24530E-01         0.00000E+00
    0.55225E-02         0.23784E-01         0.00000E+00
    0.65838E-02         0.22920E-01         0.00000E+00
    0.75341E-02         0.21971E-01         0.00000E+00
    0.83802E-02         0.20961E-01         0.00000E+00
    0.91291E-02         0.19909E-01         0.00000E+00
    0.97875E-02         0.18828E-01         0.00000E+00
    0.10361E-01         0.17727E-01         0.00000E+00
    0.10856E-01         0.16612E-01         0.00000E+00
    0.11276E-01         0.15487E-01         0.00000E+00
    0.11626E-01         0.14353E-01         0.00000E+00
    0.11908E-01         0.13208E-01         0.00000E+00
    0.12127E-01         0.12050E-01         0.00000E+00
    0.12284E-01         0.10871E-01         0.00000E+00
    0.12381E-01         0.96676E-02         0.00000E+00
    0.12436E-01         0.84399E-02         0.00000E+00
    0.12477E-01         0.72215E-02         0.00000E+00
    0.12512E-01         0.60173E-02         0.00000E+00
    0.12542E-01         0.48273E-02         0.00000E+00
    0.12567E-01         0.36522E-02         0.00000E+00
    0.12585E-01         0.24924E-02         0.00000E+00
    0.12597E-01         0.13482E-02         0.00000E+00
    0.12602E-01         0.21929E-03         0.00000E+00
    0.12599E-01        -0.89459E-03         0.00000E+00
    0.12590E-01        -0.19941E-02         0.00000E+00
    0.12573E-01        -0.30802E-02         0.00000E+00
    0.12548E-01        -0.41538E-02         0.00000E+00
    0.12515E-01        -0.52162E-02         0.00000E+00
    0.12474E-01        -0.62686E-02         0.00000E+00
    0.12424E-01        -0.73127E-02         0.00000E+00
    0.12365E-01        -0.83503E-02         0.00000E+00
    0.12296E-01        -0.93833E-02         0.00000E+00
    0.12217E-01        -0.10414E-01         0.00000E+00
    0.12128E-01        -0.11444E-01         0.00000E+00
    0.12033E-01        -0.12474E-01         0.00000E+00
    0.11944E-01        -0.13507E-01         0.00000E+00
    0.11864E-01        -0.14540E-01         0.00000E+00
    0.11794E-01        -0.15574E-01         0.00000E+00
    0.11732E-01        -0.16606E-01         0.00000E+00
    0.11677E-01        -0.17635E-01         0.00000E+00
    0.11630E-01        -0.18662E-01         0.00000E+00
    0.11589E-01        -0.19685E-01         0.00000E+00
    0.11554E-01        -0.20704E-01         0.00000E+00
    0.11523E-01        -0.21719E-01         0.00000E+00
    0.11498E-01        -0.22731E-01         0.00000E+00
    0.11477E-01        -0.23739E-01         0.00000E+00
    0.11460E-01        -0.24745E-01         0.00000E+00
    0.11447E-01        -0.25747E-01         0.00000E+00
    0.11438E-01        -0.26746E-01         0.00000E+00
    0.11432E-01        -0.27744E-01         0.00000E+00
    0.11430E-01        -0.28740E-01         0.00000E+00
    0.11431E-01        -0.29734E-01         0.00000E+00
    0.11435E-01        -0.30728E-01         0.00000E+00
    0.11442E-01        -0.31721E-01         0.00000E+00
    0.11453E-01        -0.32714E-01         0.00000E+00
    0.11466E-01        -0.33708E-01         0.00000E+00
    0.11482E-01        -0.34702E-01         0.00000E+00
    0.11500E-01        -0.35698E-01         0.00000E+00
    0.11521E-01        -0.36696E-01         0.00000E+00
    0.11544E-01        -0.37696E-01         0.00000E+00
    0.11569E-01        -0.38699E-01         0.00000E+00
    0.11596E-01        -0.39705E-01         0.00000E+00
    0.11625E-01        -0.40715E-01         0.00000E+00
    0.11654E-01        -0.41728E-01         0.00000E+00
    0.11685E-01        -0.42746E-01         0.00000E+00
    0.11715E-01        -0.43769E-01         0.00000E+00
    0.11745E-01        -0.44797E-01         0.00000E+00
    0.11775E-01        -0.45830E-01         0.00000E+00
    0.11803E-01        -0.46869E-01         0.00000E+00
    0.11828E-01        -0.47915E-01         0.00000E+00
    0.11850E-01        -0.48968E-01         0.00000E+00
    0.11868E-01        -0.50027E-01         0.00000E+00
    0.11880E-01        -0.51095E-01         0.00000E+00
    0.11884E-01        -0.52171E-01         0.00000E+00
    0.11880E-01        -0.53255E-01         0.00000E+00
    0.11865E-01        -0.54349E-01         0.00000E+00
    0.11837E-01        -0.55453E-01         0.00000E+00
    0.11794E-01        -0.56568E-01         0.00000E+00
    0.11732E-01        -0.57694E-01         0.00000E+00
    0.11649E-01        -0.58832E-01         0.00000E+00
    0.11542E-01        -0.59983E-01         0.00000E+00
    0.11406E-01        -0.61147E-01         0.00000E+00
    0.11237E-01        -0.62325E-01         0.00000E+00
    0.11031E-01        -0.63515E-01         0.00000E+00
    0.10782E-01        -0.64718E-01         0.00000E+00
    0.10486E-01        -0.65930E-01         0.00000E+00
    0.10135E-01        -0.67149E-01         0.00000E+00
    0.97249E-02        -0.68369E-01         0.00000E+00
    0.92469E-02        -0.69581E-01         0.00000E+00
    0.86935E-02        -0.70775E-01         0.00000E+00
    0.80560E-02        -0.71934E-01         0.00000E+00
    0.73241E-02        -0.73039E-01         0.00000E+00
    0.64858E-02        -0.74062E-01         0.00000E+00
    0.55265E-02        -0.74971E-01         0.00000E+00
    0.44275E-02        -0.75729E-01         0.00000E+00
    0.31635E-02        -0.76300E-01         0.00000E+00
    0.17012E-02        -0.76653E-01         0.00000E+00
    0.00000E+00        -0.76773E-01         0.00000E+00
    0.00000E+00         0.26525E-01         0.00000E+00
    0.16425E-02         0.26386E-01         0.00000E+00
    0.31301E-02         0.25988E-01         0.00000E+00
    0.44791E-02         0.25376E-01         0.00000E+00
    0.56992E-02         0.24600E-01         0.00000E+00
    0.67977E-02         0.23703E-01         0.00000E+00
    0.77811E-02         0.22721E-01         0.00000E+00
    0.86564E-02         0.21677E-01         0.00000E+00
    0.94310E-02         0.20590E-01         0.00000E+00
    0.10112E-01         0.19472E-01         0.00000E+00
    0.10705E-01         0.18335E-01         0.00000E+00
    0.11216E-01         0.17183E-01         0.00000E+00
    0.11651E-01         0.16022E-01         0.00000E+00
    0.12014E-01         0.14851E-01         0.00000E+00
    0.12307E-01         0.13669E-01         0.00000E+00
    0.12536E-01         0.12473E-01         0.00000E+00
    0.12701E-01         0.11258E-01         0.00000E+00
    0.12805E-01         0.10017E-01         0.00000E+00
    0.12865E-01         0.87505E-02         0.00000E+00
    0.12907E-01         0.74915E-02         0.00000E+00
    0.12943E-01         0.62460E-02         0.00000E+00
    0.12972E-01         0.50148E-02         0.00000E+00
    0.12996E-01         0.37985E-02         0.00000E+00
    0.13013E-01         0.25978E-02         0.00000E+00
    0.13023E-01         0.14131E-02         0.00000E+00
    0.13027E-01         0.24411E-03         0.00000E+00
    0.13022E-01        -0.90941E-03         0.00000E+00
    0.13011E-01        -0.20482E-02         0.00000E+00
    0.12992E-01        -0.31730E-02         0.00000E+00
    0.12965E-01        -0.42850E-02         0.00000E+00
    0.12930E-01        -0.53853E-02         0.00000E+00
    0.12887E-01        -0.64754E-02         0.00000E+00
    0.12835E-01        -0.75568E-02         0.00000E+00
    0.12774E-01        -0.86314E-02         0.00000E+00
    0.12704E-01        -0.97014E-02         0.00000E+00
    0.12623E-01        -0.10769E-01         0.00000E+00
    0.12532E-01        -0.11836E-01         0.00000E+00
    0.12435E-01        -0.12904E-01         0.00000E+00
    0.12345E-01        -0.13974E-01         0.00000E+00
    0.12264E-01        -0.15045E-01         0.00000E+00
    0.12192E-01        -0.16117E-01         0.00000E+00
    0.12129E-01        -0.17186E-01         0.00000E+00
    0.12073E-01        -0.18253E-01         0.00000E+00
    0.12024E-01        -0.19317E-01         0.00000E+00
    0.11982E-01        -0.20378E-01         0.00000E+00
    0.11946E-01        -0.21434E-01         0.00000E+00
    0.11914E-01        -0.22486E-01         0.00000E+00
    0.11888E-01        -0.23535E-01         0.00000E+00
    0.11866E-01        -0.24580E-01         0.00000E+00
    0.11848E-01        -0.25622E-01         0.00000E+00
    0.11835E-01        -0.26660E-01         0.00000E+00
    0.11825E-01        -0.27696E-01         0.00000E+00
    0.11819E-01        -0.28730E-01         0.00000E+00
    0.11816E-01        -0.29761E-01         0.00000E+00
    0.11817E-01        -0.30792E-01         0.00000E+00
    0.11822E-01        -0.31821E-01         0.00000E+00
    0.11829E-01        -0.32851E-01         0.00000E+00
    0.11840E-01        -0.33880E-01         0.00000E+00
    0.11853E-01        -0.34909E-01         0.00000E+00
    0.11870E-01        -0.35940E-01         0.00000E+00
    0.11889E-01        -0.36972E-01         0.00000E+00
    0.11911E-01        -0.38006E-01         0.00000E+00
    0.11935E-01        -0.39042E-01         0.00000E+00
    0.11961E-01        -0.40081E-01         0.00000E+00
    0.11989E-01        -0.41123E-01         0.00000E+00
    0.12018E-01        -0.42169E-01         0.00000E+00
    0.12049E-01        -0.43219E-01         0.00000E+00
    0.12080E-01        -0.44273E-01         0.00000E+00
    0.12112E-01        -0.45332E-01         0.00000E+00
    0.12144E-01        -0.46397E-01         0.00000E+00
    0.12175E-01        -0.47467E-01         0.00000E+00
    0.12204E-01        -0.48543E-01         0.00000E+00
    0.12231E-01        -0.49626E-01         0.00000E+00
    0.12254E-01        -0.50716E-01         0.00000E+00
    0.12273E-01        -0.51813E-01         0.00000E+00
    0.12286E-01        -0.52918E-01         0.00000E+00
    0.12291E-01        -0.54032E-01         0.00000E+00
    0.12288E-01        -0.55154E-01         0.00000E+00
    0.12274E-01        -0.56286E-01         0.00000E+00
    0.12246E-01        -0.57428E-01         0.00000E+00
    0.12202E-01        -0.58581E-01         0.00000E+00
    0.12140E-01        -0.59746E-01         0.00000E+00
    0.12056E-01        -0.60922E-01         0.00000E+00
    0.11947E-01        -0.62112E-01         0.00000E+00
    0.11808E-01        -0.63315E-01         0.00000E+00
    0.11635E-01        -0.64531E-01         0.00000E+00
    0.11423E-01        -0.65760E-01         0.00000E+00
    0.11168E-01        -0.67001E-01         0.00000E+00
    0.10862E-01        -0.68252E-01         0.00000E+00
    0.10500E-01        -0.69509E-01         0.00000E+00
    0.10075E-01        -0.70767E-01         0.00000E+00
    0.95785E-02        -0.72016E-01         0.00000E+00
    0.90030E-02        -0.73247E-01         0.00000E+00
    0.83388E-02        -0.74442E-01         0.00000E+00
    0.75754E-02        -0.75580E-01         0.00000E+00
    0.67008E-02        -0.76635E-01         0.00000E+00
    0.57012E-02        -0.77572E-01         0.00000E+00
    0.45589E-02        -0.78354E-01         0.00000E+00
    0.32506E-02        -0.78944E-01         0.00000E+00
    0.17443E-02        -0.79309E-01         0.00000E+00
    0.00000E+00        -0.79433E-01         0.00000E+00
    0.00000E+00         0.27422E-01         0.00000E+00
    0.16896E-02         0.27276E-01         0.00000E+00
    0.32235E-02         0.26859E-01         0.00000E+00
    0.46167E-02         0.26220E-01         0.00000E+00
    0.58778E-02         0.25414E-01         0.00000E+00
    0.70133E-02         0.24485E-01         0.00000E+00
    0.80295E-02         0.23470E-01         0.00000E+00
    0.89337E-02         0.22391E-01         0.00000E+00
    0.97335E-02         0.21268E-01         0.00000E+00
    0.10436E-01         0.20115E-01         0.00000E+00
    0.11049E-01         0.18941E-01         0.00000E+00
    0.11577E-01         0.17753E-01         0.00000E+00
    0.12026E-01         0.16555E-01         0.00000E+00
    0.12401E-01         0.15347E-01         0.00000E+00
    0.12706E-01         0.14129E-01         0.00000E+00
    0.12944E-01         0.12896E-01         0.00000E+00
    0.13117E-01         0.11644E-01         0.00000E+00
    0.13229E-01         0.10367E-01         0.00000E+00
    0.13293E-01         0.90614E-02         0.00000E+00
    0.13336E-01         0.77621E-02         0.00000E+00
    0.13372E-01         0.64756E-02         0.00000E+00
    0.13401E-01         0.52031E-02         0.00000E+00
    0.13424E-01         0.39457E-02         0.00000E+00
    0.13440E-01         0.27042E-02         0.00000E+00
    0.13448E-01         0.14790E-02         0.00000E+00
    0.13450E-01         0.26993E-03         0.00000E+00
    0.13444E-01        -0.92323E-03         0.00000E+00
    0.13430E-01        -0.21012E-02         0.00000E+00
    0.13409E-01        -0.32648E-02         0.00000E+00
    0.13380E-01        -0.44151E-02         0.00000E+00
    0.13343E-01        -0.55535E-02         0.00000E+00
    0.13298E-01        -0.66811E-02         0.00000E+00
    0.13245E-01        -0.77999E-02         0.00000E+00
    0.13182E-01        -0.89116E-02         0.00000E+00
    0.13110E-01        -0.10019E-01         0.00000E+00
    0.13027E-01        -0.11123E-01         0.00000E+00
    0.12934E-01        -0.12227E-01         0.00000E+00
    0.12836E-01        -0.13333E-01         0.00000E+00
    0.12744E-01        -0.14441E-01         0.00000E+00
    0.12662E-01        -0.15550E-01         0.00000E+00
    0.12589E-01        -0.16659E-01         0.00000E+00
    0.12524E-01        -0.17766E-01         0.00000E+00
    0.12467E-01        -0.18871E-01         0.00000E+00
    0.12417E-01        -0.19973E-01         0.00000E+00
    0.12374E-01        -0.21070E-01         0.00000E+00
    0.12336E-01        -0.22164E-01         0.00000E+00
    0.12304E-01        -0.23253E-01         0.00000E+00
    0.12277E-01        -0.24339E-01         0.00000E+00
    0.12254E-01        -0.25420E-01         0.00000E+00
    0.12236E-01        -0.26498E-01         0.00000E+00
    0.12221E-01        -0.27573E-01         0.00000E+00
    0.12211E-01        -0.28645E-01         0.00000E+00
    0.12205E-01        -0.29715E-01         0.00000E+00
    0.12202E-01        -0.30783E-01         0.00000E+00
    0.12203E-01        -0.31850E-01         0.00000E+00
    0.12207E-01        -0.32915E-01         0.00000E+00
    0.12215E-01        -0.33980E-01         0.00000E+00
    0.12226E-01        -0.35045E-01         0.00000E+00
    0.12239E-01        -0.36111E-01         0.00000E+00
    0.12256E-01        -0.37177E-01         0.00000E+00
    0.12276E-01        -0.38245E-01         0.00000E+00
    0.12299E-01        -0.39315E-01         0.00000E+00
    0.12323E-01        -0.40388E-01         0.00000E+00
    0.12350E-01        -0.41463E-01         0.00000E+00
    0.12379E-01        -0.42541E-01         0.00000E+00
    0.12410E-01        -0.43623E-01         0.00000E+00
    0.12442E-01        -0.44709E-01         0.00000E+00
    0.12475E-01        -0.45800E-01         0.00000E+00
    0.12508E-01        -0.46896E-01         0.00000E+00
    0.12541E-01        -0.47997E-01         0.00000E+00
    0.12573E-01        -0.49105E-01         0.00000E+00
    0.12603E-01        -0.50218E-01         0.00000E+00
    0.12632E-01        -0.51338E-01         0.00000E+00
    0.12656E-01        -0.52465E-01         0.00000E+00
    0.12676E-01        -0.53599E-01         0.00000E+00
    0.12691E-01        -0.54742E-01         0.00000E+00
    0.12697E-01        -0.55893E-01         0.00000E+00
    0.12695E-01        -0.57053E-01         0.00000E+00
    0.12681E-01        -0.58223E-01         0.00000E+00
    0.12654E-01        -0.59403E-01         0.00000E+00
    0.12610E-01        -0.60594E-01         0.00000E+00
    0.12548E-01        -0.61797E-01         0.00000E+00
    0.12463E-01        -0.63012E-01         0.00000E+00
    0.12351E-01        -0.64240E-01         0.00000E+00
    0.12210E-01        -0.65481E-01         0.00000E+00
    0.12033E-01        -0.66736E-01         0.00000E+00
    0.11816E-01        -0.68003E-01         0.00000E+00
    0.11554E-01        -0.69283E-01         0.00000E+00
    0.11239E-01        -0.70572E-01         0.00000E+00
    0.10865E-01        -0.71867E-01         0.00000E+00
    0.10426E-01        -0.73162E-01         0.00000E+00
    0.99113E-02        -0.74449E-01         0.00000E+00
    0.93138E-02        -0.75715E-01         0.00000E+00
    0.86230E-02        -0.76945E-01         0.00000E+00
    0.78281E-02        -0.78117E-01         0.00000E+00
    0.69173E-02        -0.79202E-01         0.00000E+00
    0.58771E-02        -0.80168E-01         0.00000E+00
    0.46913E-02        -0.80975E-01         0.00000E+00
    0.33382E-02        -0.81584E-01         0.00000E+00
    0.17876E-02        -0.81962E-01         0.00000E+00
    0.00000E+00        -0.82090E-01         0.00000E+00
    0.00000E+00         0.28320E-01         0.00000E+00
    0.17377E-02         0.28166E-01         0.00000E+00
    0.33187E-02         0.27729E-01         0.00000E+00
    0.47565E-02         0.27063E-01         0.00000E+00
    0.60587E-02         0.26226E-01         0.00000E+00
    0.72309E-02         0.25266E-01         0.00000E+00
    0.82796E-02         0.24216E-01         0.00000E+00
    0.92123E-02         0.23103E-01         0.00000E+00
    0.10037E-01         0.21945E-01         0.00000E+00
    0.10761E-01         0.20756E-01         0.00000E+00
    0.11392E-01         0.19546E-01         0.00000E+00
    0.11937E-01         0.18322E-01         0.00000E+00
    0.12400E-01         0.17087E-01         0.00000E+00
    0.12787E-01         0.15843E-01         0.00000E+00
    0.13103E-01         0.14588E-01         0.00000E+00
    0.13350E-01         0.13319E-01         0.00000E+00
    0.13532E-01         0.12031E-01         0.00000E+00
    0.13651E-01         0.10716E-01         0.00000E+00
    0.13720E-01         0.93729E-02         0.00000E+00
    0.13764E-01         0.80334E-02         0.00000E+00
    0.13800E-01         0.67059E-02         0.00000E+00
    0.13829E-01         0.53923E-02         0.00000E+00
    0.13851E-01         0.40939E-02         0.00000E+00
    0.13865E-01         0.28115E-02         0.00000E+00
    0.13872E-01         0.15458E-02         0.00000E+00
    0.13872E-01         0.29673E-03         0.00000E+00
    0.13864E-01        -0.93606E-03         0.00000E+00
    0.13848E-01        -0.21532E-02         0.00000E+00
    0.13825E-01        -0.33556E-02         0.00000E+00
    0.13794E-01        -0.45443E-02         0.00000E+00
    0.13755E-01        -0.57207E-02         0.00000E+00
    0.13708E-01        -0.68860E-02         0.00000E+00
    0.13652E-01        -0.80421E-02         0.00000E+00
    0.13588E-01        -0.91909E-02         0.00000E+00
    0.13514E-01        -0.10335E-01         0.00000E+00
    0.13430E-01        -0.11476E-01         0.00000E+00
    0.13335E-01        -0.12618E-01         0.00000E+00
    0.13236E-01        -0.13761E-01         0.00000E+00
    0.13142E-01        -0.14906E-01         0.00000E+00
    0.13058E-01        -0.16053E-01         0.00000E+00
    0.12984E-01        -0.17200E-01         0.00000E+00
    0.12918E-01        -0.18346E-01         0.00000E+00
    0.12860E-01        -0.19488E-01         0.00000E+00
    0.12809E-01        -0.20627E-01         0.00000E+00
    0.12765E-01        -0.21762E-01         0.00000E+00
    0.12726E-01        -0.22893E-01         0.00000E+00
    0.12693E-01        -0.24019E-01         0.00000E+00
    0.12664E-01        -0.25142E-01         0.00000E+00
    0.12641E-01        -0.26260E-01         0.00000E+00
    0.12621E-01        -0.27375E-01         0.00000E+00
    0.12607E-01        -0.28486E-01         0.00000E+00
    0.12596E-01        -0.29594E-01         0.00000E+00
    0.12589E-01        -0.30700E-01         0.00000E+00
    0.12586E-01        -0.31805E-01         0.00000E+00
    0.12587E-01        -0.32907E-01         0.00000E+00
    0.12591E-01        -0.34009E-01         0.00000E+00
    0.12599E-01        -0.35110E-01         0.00000E+00
    0.12610E-01        -0.36211E-01         0.00000E+00
    0.12624E-01        -0.37312E-01         0.00000E+00
    0.12642E-01        -0.38415E-01         0.00000E+00
    0.12662E-01        -0.39519E-01         0.00000E+00
    0.12685E-01        -0.40625E-01         0.00000E+00
    0.12711E-01        -0.41733E-01         0.00000E+00
    0.12739E-01        -0.42844E-01         0.00000E+00
    0.12769E-01        -0.43959E-01         0.00000E+00
    0.12800E-01        -0.45077E-01         0.00000E+00
    0.12834E-01        -0.46200E-01         0.00000E+00
    0.12868E-01        -0.47328E-01         0.00000E+00
    0.12902E-01        -0.48460E-01         0.00000E+00
    0.12936E-01        -0.49598E-01         0.00000E+00
    0.12970E-01        -0.50742E-01         0.00000E+00
    0.13002E-01        -0.51892E-01         0.00000E+00
    0.13031E-01        -0.53049E-01         0.00000E+00
    0.13057E-01        -0.54214E-01         0.00000E+00
    0.13079E-01        -0.55386E-01         0.00000E+00
    0.13094E-01        -0.56566E-01         0.00000E+00
    0.13102E-01        -0.57754E-01         0.00000E+00
    0.13100E-01        -0.58952E-01         0.00000E+00
    0.13087E-01        -0.60160E-01         0.00000E+00
    0.13060E-01        -0.61378E-01         0.00000E+00
    0.13017E-01        -0.62607E-01         0.00000E+00
    0.12954E-01        -0.63848E-01         0.00000E+00
    0.12868E-01        -0.65101E-01         0.00000E+00
    0.12755E-01        -0.66367E-01         0.00000E+00
    0.12611E-01        -0.67647E-01         0.00000E+00
    0.12431E-01        -0.68939E-01         0.00000E+00
    0.12209E-01        -0.70245E-01         0.00000E+00
    0.11940E-01        -0.71563E-01         0.00000E+00
    0.11616E-01        -0.72890E-01         0.00000E+00
    0.11232E-01        -0.74222E-01         0.00000E+00
    0.10777E-01        -0.75555E-01         0.00000E+00
    0.10245E-01        -0.76878E-01         0.00000E+00
    0.96260E-02        -0.78180E-01         0.00000E+00
    0.89088E-02        -0.79444E-01         0.00000E+00
    0.80826E-02        -0.80649E-01         0.00000E+00
    0.71355E-02        -0.81766E-01         0.00000E+00
    0.60545E-02        -0.82760E-01         0.00000E+00
    0.48248E-02        -0.83592E-01         0.00000E+00
    0.34265E-02        -0.84221E-01         0.00000E+00
    0.18312E-02        -0.84611E-01         0.00000E+00
    0.00000E+00        -0.84743E-01         0.00000E+00
    0.00000E+00         0.29219E-01         0.00000E+00
    0.17871E-02         0.29058E-01         0.00000E+00
    0.34161E-02         0.28600E-01         0.00000E+00
    0.48990E-02         0.27906E-01         0.00000E+00
    0.62422E-02         0.27038E-01         0.00000E+00
    0.74510E-02         0.26044E-01         0.00000E+00
    0.85318E-02         0.24961E-01         0.00000E+00
    0.94926E-02         0.23814E-01         0.00000E+00
    0.10342E-01         0.22621E-01         0.00000E+00
    0.11087E-01         0.21396E-01         0.00000E+00
    0.11737E-01         0.20150E-01         0.00000E+00
    0.12297E-01         0.18889E-01         0.00000E+00
    0.12774E-01         0.17618E-01         0.00000E+00
    0.13173E-01         0.16338E-01         0.00000E+00
    0.13499E-01         0.15047E-01         0.00000E+00
    0.13756E-01         0.13741E-01         0.00000E+00
    0.13946E-01         0.12416E-01         0.00000E+00
    0.14072E-01         0.11066E-01         0.00000E+00
    0.14145E-01         0.96848E-02         0.00000E+00
    0.14191E-01         0.83054E-02         0.00000E+00
    0.14228E-01         0.69370E-02         0.00000E+00
    0.14256E-01         0.55824E-02         0.00000E+00
    0.14276E-01         0.42429E-02         0.00000E+00
    0.14289E-01         0.29198E-02         0.00000E+00
    0.14295E-01         0.16136E-02         0.00000E+00
    0.14292E-01         0.32450E-03         0.00000E+00
    0.14282E-01        -0.94792E-03         0.00000E+00
    0.14264E-01        -0.22043E-02         0.00000E+00
    0.14239E-01        -0.34455E-02         0.00000E+00
    0.14205E-01        -0.46726E-02         0.00000E+00
    0.14164E-01        -0.58869E-02         0.00000E+00
    0.14115E-01        -0.70899E-02         0.00000E+00
    0.14058E-01        -0.82833E-02         0.00000E+00
    0.13992E-01        -0.94692E-02         0.00000E+00
    0.13916E-01        -0.10650E-01         0.00000E+00
    0.13830E-01        -0.11828E-01         0.00000E+00
    0.13734E-01        -0.13007E-01         0.00000E+00
    0.13633E-01        -0.14188E-01         0.00000E+00
    0.13539E-01        -0.15371E-01         0.00000E+00
    0.13454E-01        -0.16556E-01         0.00000E+00
    0.13378E-01        -0.17741E-01         0.00000E+00
    0.13311E-01        -0.18924E-01         0.00000E+00
    0.13252E-01        -0.20105E-01         0.00000E+00
    0.13200E-01        -0.21281E-01         0.00000E+00
    0.13154E-01        -0.22454E-01         0.00000E+00
    0.13114E-01        -0.23622E-01         0.00000E+00
    0.13080E-01        -0.24785E-01         0.00000E+00
    0.13050E-01        -0.25944E-01         0.00000E+00
    0.13026E-01        -0.27099E-01         0.00000E+00
    0.13006E-01        -0.28251E-01         0.00000E+00
    0.12991E-01        -0.29398E-01         0.00000E+00
    0.12979E-01        -0.30543E-01         0.00000E+00
    0.12972E-01        -0.31686E-01         0.00000E+00
    0.12969E-01        -0.32826E-01         0.00000E+00
    0.12969E-01        -0.33964E-01         0.00000E+00
    0.12974E-01        -0.35102E-01         0.00000E+00
    0.12982E-01        -0.36239E-01         0.00000E+00
    0.12993E-01        -0.37376E-01         0.00000E+00
    0.13008E-01        -0.38514E-01         0.00000E+00
    0.13026E-01        -0.39652E-01         0.00000E+00
    0.13046E-01        -0.40792E-01         0.00000E+00
    0.13070E-01        -0.41934E-01         0.00000E+00
    0.13097E-01        -0.43079E-01         0.00000E+00
    0.13126E-01        -0.44226E-01         0.00000E+00
    0.13157E-01        -0.45377E-01         0.00000E+00
    0.13189E-01        -0.46532E-01         0.00000E+00
    0.13224E-01        -0.47691E-01         0.00000E+00
    0.13259E-01        -0.48855E-01         0.00000E+00
    0.13295E-01        -0.50024E-01         0.00000E+00
    0.13330E-01        -0.51199E-01         0.00000E+00
    0.13365E-01        -0.52380E-01         0.00000E+00
    0.13399E-01        -0.53567E-01         0.00000E+00
    0.13430E-01        -0.54761E-01         0.00000E+00
    0.13457E-01        -0.55963E-01         0.00000E+00
    0.13480E-01        -0.57172E-01         0.00000E+00
    0.13496E-01        -0.58390E-01         0.00000E+00
    0.13505E-01        -0.59616E-01         0.00000E+00
    0.13505E-01        -0.60852E-01         0.00000E+00
    0.13493E-01        -0.62097E-01         0.00000E+00
    0.13466E-01        -0.63353E-01         0.00000E+00
    0.13423E-01        -0.64620E-01         0.00000E+00
    0.13360E-01        -0.65899E-01         0.00000E+00
    0.13273E-01        -0.67190E-01         0.00000E+00
    0.13159E-01        -0.68494E-01         0.00000E+00
    0.13012E-01        -0.69812E-01         0.00000E+00
    0.12829E-01        -0.71142E-01         0.00000E+00
    0.12602E-01        -0.72486E-01         0.00000E+00
    0.12326E-01        -0.73841E-01         0.00000E+00
    0.11994E-01        -0.75206E-01         0.00000E+00
    0.11599E-01        -0.76576E-01         0.00000E+00
    0.11130E-01        -0.77945E-01         0.00000E+00
    0.10581E-01        -0.79304E-01         0.00000E+00
    0.99399E-02        -0.80641E-01         0.00000E+00
    0.91965E-02        -0.81939E-01         0.00000E+00
    0.83391E-02        -0.83177E-01         0.00000E+00
    0.73557E-02        -0.84324E-01         0.00000E+00
    0.62338E-02        -0.85347E-01         0.00000E+00
    0.49598E-02        -0.86205E-01         0.00000E+00
    0.35158E-02        -0.86854E-01         0.00000E+00
    0.18753E-02        -0.87258E-01         0.00000E+00
    0.00000E+00        -0.87394E-01         0.00000E+00
    0.00000E+00         0.30120E-01         0.00000E+00
    0.18380E-02         0.29950E-01         0.00000E+00
    0.35161E-02         0.29470E-01         0.00000E+00
    0.50447E-02         0.28747E-01         0.00000E+00
    0.64289E-02         0.27848E-01         0.00000E+00
    0.76739E-02         0.26821E-01         0.00000E+00
    0.87864E-02         0.25704E-01         0.00000E+00
    0.97747E-02         0.24522E-01         0.00000E+00
    0.10648E-01         0.23294E-01         0.00000E+00
    0.11414E-01         0.22034E-01         0.00000E+00
    0.12081E-01         0.20752E-01         0.00000E+00
    0.12657E-01         0.19455E-01         0.00000E+00
    0.13147E-01         0.18148E-01         0.00000E+00
    0.13558E-01         0.16832E-01         0.00000E+00
    0.13894E-01         0.15504E-01         0.00000E+00
    0.14160E-01         0.14163E-01         0.00000E+00
    0.14358E-01         0.12802E-01         0.00000E+00
    0.14492E-01         0.11415E-01         0.00000E+00
    0.14570E-01         0.99972E-02         0.00000E+00
    0.14617E-01         0.85780E-02         0.00000E+00
    0.14654E-01         0.71688E-02         0.00000E+00
    0.14681E-01         0.57733E-02         0.00000E+00
    0.14701E-01         0.43929E-02         0.00000E+00
    0.14712E-01         0.30290E-02         0.00000E+00
    0.14716E-01         0.16824E-02         0.00000E+00
    0.14711E-01         0.35322E-03         0.00000E+00
    0.14699E-01        -0.95881E-03         0.00000E+00
    0.14679E-01        -0.22544E-02         0.00000E+00
    0.14651E-01        -0.35344E-02         0.00000E+00
    0.14616E-01        -0.47999E-02         0.00000E+00
    0.14572E-01        -0.60523E-02         0.00000E+00
    0.14521E-01        -0.72929E-02         0.00000E+00
    0.14462E-01        -0.85237E-02         0.00000E+00
    0.14394E-01        -0.97467E-02         0.00000E+00
    0.14317E-01        -0.10964E-01         0.00000E+00
    0.14229E-01        -0.12180E-01         0.00000E+00
    0.14132E-01        -0.13396E-01         0.00000E+00
    0.14030E-01        -0.14614E-01         0.00000E+00
    0.13934E-01        -0.15835E-01         0.00000E+00
    0.13848E-01        -0.17058E-01         0.00000E+00
    0.13771E-01        -0.18281E-01         0.00000E+00
    0.13703E-01        -0.19502E-01         0.00000E+00
    0.13642E-01        -0.20721E-01         0.00000E+00
    0.13589E-01        -0.21935E-01         0.00000E+00
    0.13542E-01        -0.23145E-01         0.00000E+00
    0.13501E-01        -0.24350E-01         0.00000E+00
    0.13466E-01        -0.25551E-01         0.00000E+00
    0.13435E-01        -0.26747E-01         0.00000E+00
    0.13410E-01        -0.27939E-01         0.00000E+00
    0.13389E-01        -0.29126E-01         0.00000E+00
    0.13373E-01        -0.30311E-01         0.00000E+00
    0.13361E-01        -0.31492E-01         0.00000E+00
    0.13354E-01        -0.32670E-01         0.00000E+00
    0.13350E-01        -0.33847E-01         0.00000E+00
    0.13351E-01        -0.35022E-01         0.00000E+00
    0.13355E-01        -0.36195E-01         0.00000E+00
    0.13363E-01        -0.37368E-01         0.00000E+00
    0.13374E-01        -0.38542E-01         0.00000E+00
    0.13390E-01        -0.39715E-01         0.00000E+00
    0.13408E-01        -0.40890E-01         0.00000E+00
    0.13429E-01        -0.42066E-01         0.00000E+00
    0.13454E-01        -0.43244E-01         0.00000E+00
    0.13481E-01        -0.44424E-01         0.00000E+00
    0.13511E-01        -0.45608E-01         0.00000E+00
    0.13543E-01        -0.46795E-01         0.00000E+00
    0.13577E-01        -0.47986E-01         0.00000E+00
    0.13613E-01        -0.49182E-01         0.00000E+00
    0.13649E-01        -0.50382E-01         0.00000E+00
    0.13686E-01        -0.51588E-01         0.00000E+00
    0.13723E-01        -0.52800E-01         0.00000E+00
    0.13759E-01        -0.54017E-01         0.00000E+00
    0.13794E-01        -0.55242E-01         0.00000E+00
    0.13827E-01        -0.56473E-01         0.00000E+00
    0.13855E-01        -0.57712E-01         0.00000E+00
    0.13880E-01        -0.58959E-01         0.00000E+00
    0.13897E-01        -0.60214E-01         0.00000E+00
    0.13908E-01        -0.61478E-01         0.00000E+00
    0.13908E-01        -0.62751E-01         0.00000E+00
    0.13897E-01        -0.64034E-01         0.00000E+00
    0.13871E-01        -0.65328E-01         0.00000E+00
    0.13828E-01        -0.66633E-01         0.00000E+00
    0.13765E-01        -0.67949E-01         0.00000E+00
    0.13677E-01        -0.69279E-01         0.00000E+00
    0.13562E-01        -0.70621E-01         0.00000E+00
    0.13413E-01        -0.71976E-01         0.00000E+00
    0.13226E-01        -0.73345E-01         0.00000E+00
    0.12995E-01        -0.74726E-01         0.00000E+00
    0.12713E-01        -0.76119E-01         0.00000E+00
    0.12373E-01        -0.77520E-01         0.00000E+00
    0.11966E-01        -0.78927E-01         0.00000E+00
    0.11485E-01        -0.80332E-01         0.00000E+00
    0.10918E-01        -0.81727E-01         0.00000E+00
    0.10256E-01        -0.83099E-01         0.00000E+00
    0.94862E-02        -0.84431E-01         0.00000E+00
    0.85979E-02        -0.85700E-01         0.00000E+00
    0.75783E-02        -0.86878E-01         0.00000E+00
    0.64153E-02        -0.87930E-01         0.00000E+00
    0.50966E-02        -0.88813E-01         0.00000E+00
    0.36064E-02        -0.89483E-01         0.00000E+00
    0.19199E-02        -0.89901E-01         0.00000E+00
    0.00000E+00        -0.90042E-01         0.00000E+00
    0.00000E+00         0.31023E-01         0.00000E+00
    0.18908E-02         0.30844E-01         0.00000E+00
    0.36193E-02         0.30341E-01         0.00000E+00
    0.51939E-02         0.29588E-01         0.00000E+00
    0.66191E-02         0.28656E-01         0.00000E+00
    0.79000E-02         0.27596E-01         0.00000E+00
    0.90437E-02         0.26446E-01         0.00000E+00
    0.10059E-01         0.25229E-01         0.00000E+00
    0.10955E-01         0.23966E-01         0.00000E+00
    0.11742E-01         0.22670E-01         0.00000E+00
    0.12426E-01         0.21353E-01         0.00000E+00
    0.13017E-01         0.20020E-01         0.00000E+00
    0.13520E-01         0.18677E-01         0.00000E+00
    0.13943E-01         0.17325E-01         0.00000E+00
    0.14289E-01         0.15961E-01         0.00000E+00
    0.14563E-01         0.14584E-01         0.00000E+00
    0.14770E-01         0.13187E-01         0.00000E+00
    0.14911E-01         0.11765E-01         0.00000E+00
    0.14993E-01         0.10310E-01         0.00000E+00
    0.15042E-01         0.88513E-02         0.00000E+00
    0.15079E-01         0.74014E-02         0.00000E+00
    0.15106E-01         0.59650E-02         0.00000E+00
    0.15124E-01         0.45437E-02         0.00000E+00
    0.15134E-01         0.31391E-02         0.00000E+00
    0.15136E-01         0.17521E-02         0.00000E+00
    0.15129E-01         0.38289E-03         0.00000E+00
    0.15114E-01        -0.96877E-03         0.00000E+00
    0.15092E-01        -0.23036E-02         0.00000E+00
    0.15062E-01        -0.36224E-02         0.00000E+00
    0.15024E-01        -0.49263E-02         0.00000E+00
    0.14979E-01        -0.62167E-02         0.00000E+00
    0.14925E-01        -0.74950E-02         0.00000E+00
    0.14864E-01        -0.87632E-02         0.00000E+00
    0.14794E-01        -0.10023E-01         0.00000E+00
    0.14715E-01        -0.11278E-01         0.00000E+00
    0.14627E-01        -0.12530E-01         0.00000E+00
    0.14528E-01        -0.13783E-01         0.00000E+00
    0.14424E-01        -0.15039E-01         0.00000E+00
    0.14327E-01        -0.16298E-01         0.00000E+00
    0.14240E-01        -0.17559E-01         0.00000E+00
    0.14162E-01        -0.18821E-01         0.00000E+00
    0.14093E-01        -0.20080E-01         0.00000E+00
    0.14031E-01        -0.21336E-01         0.00000E+00
    0.13977E-01        -0.22588E-01         0.00000E+00
    0.13929E-01        -0.23835E-01         0.00000E+00
    0.13887E-01        -0.25078E-01         0.00000E+00
    0.13850E-01        -0.26316E-01         0.00000E+00
    0.13819E-01        -0.27549E-01         0.00000E+00
    0.13793E-01        -0.28777E-01         0.00000E+00
    0.13772E-01        -0.30002E-01         0.00000E+00
    0.13755E-01        -0.31223E-01         0.00000E+00
    0.13742E-01        -0.32440E-01         0.00000E+00
    0.13734E-01        -0.33655E-01         0.00000E+00
    0.13730E-01        -0.34868E-01         0.00000E+00
    0.13731E-01        -0.36079E-01         0.00000E+00
    0.13735E-01        -0.37288E-01         0.00000E+00
    0.13743E-01        -0.38498E-01         0.00000E+00
    0.13755E-01        -0.39707E-01         0.00000E+00
    0.13770E-01        -0.40916E-01         0.00000E+00
    0.13789E-01        -0.42127E-01         0.00000E+00
    0.13811E-01        -0.43339E-01         0.00000E+00
    0.13836E-01        -0.44553E-01         0.00000E+00
    0.13864E-01        -0.45770E-01         0.00000E+00
    0.13895E-01        -0.46990E-01         0.00000E+00
    0.13928E-01        -0.48214E-01         0.00000E+00
    0.13963E-01        -0.49441E-01         0.00000E+00
    0.14000E-01        -0.50673E-01         0.00000E+00
    0.14038E-01        -0.51910E-01         0.00000E+00
    0.14076E-01        -0.53153E-01         0.00000E+00
    0.14114E-01        -0.54401E-01         0.00000E+00
    0.14152E-01        -0.55655E-01         0.00000E+00
    0.14188E-01        -0.56917E-01         0.00000E+00
    0.14222E-01        -0.58185E-01         0.00000E+00
    0.14253E-01        -0.59461E-01         0.00000E+00
    0.14278E-01        -0.60745E-01         0.00000E+00
    0.14297E-01        -0.62038E-01         0.00000E+00
    0.14309E-01        -0.63339E-01         0.00000E+00
    0.14310E-01        -0.64650E-01         0.00000E+00
    0.14300E-01        -0.65971E-01         0.00000E+00
    0.14275E-01        -0.67303E-01         0.00000E+00
    0.14232E-01        -0.68645E-01         0.00000E+00
    0.14169E-01        -0.70000E-01         0.00000E+00
    0.14081E-01        -0.71367E-01         0.00000E+00
    0.13964E-01        -0.72747E-01         0.00000E+00
    0.13814E-01        -0.74140E-01         0.00000E+00
    0.13624E-01        -0.75546E-01         0.00000E+00
    0.13388E-01        -0.76965E-01         0.00000E+00
    0.13100E-01        -0.78395E-01         0.00000E+00
    0.12752E-01        -0.79833E-01         0.00000E+00
    0.12335E-01        -0.81276E-01         0.00000E+00
    0.11840E-01        -0.82717E-01         0.00000E+00
    0.11257E-01        -0.84147E-01         0.00000E+00
    0.10573E-01        -0.85553E-01         0.00000E+00
    0.97782E-02        -0.86918E-01         0.00000E+00
    0.88591E-02        -0.88219E-01         0.00000E+00
    0.78036E-02        -0.89428E-01         0.00000E+00
    0.65995E-02        -0.90507E-01         0.00000E+00
    0.52356E-02        -0.91416E-01         0.00000E+00
    0.36984E-02        -0.92108E-01         0.00000E+00
    0.19653E-02        -0.92540E-01         0.00000E+00
    0.00000E+00        -0.92687E-01         0.00000E+00
    0.00000E+00         0.31928E-01         0.00000E+00
    0.19459E-02         0.31739E-01         0.00000E+00
    0.37261E-02         0.31211E-01         0.00000E+00
    0.53474E-02         0.30428E-01         0.00000E+00
    0.68134E-02         0.29463E-01         0.00000E+00
    0.81297E-02         0.28370E-01         0.00000E+00
    0.93040E-02         0.27186E-01         0.00000E+00
    0.10346E-01         0.25935E-01         0.00000E+00
    0.11265E-01         0.24637E-01         0.00000E+00
    0.12071E-01         0.23306E-01         0.00000E+00
    0.12772E-01         0.21952E-01         0.00000E+00
    0.13378E-01         0.20584E-01         0.00000E+00
    0.13894E-01         0.19205E-01         0.00000E+00
    0.14327E-01         0.17817E-01         0.00000E+00
    0.14683E-01         0.16418E-01         0.00000E+00
    0.14966E-01         0.15005E-01         0.00000E+00
    0.15180E-01         0.13573E-01         0.00000E+00
    0.15328E-01         0.12115E-01         0.00000E+00
    0.15416E-01         0.10624E-01         0.00000E+00
    0.15466E-01         0.91252E-02         0.00000E+00
    0.15503E-01         0.76348E-02         0.00000E+00
    0.15530E-01         0.61577E-02         0.00000E+00
    0.15546E-01         0.46954E-02         0.00000E+00
    0.15555E-01         0.32501E-02         0.00000E+00
    0.15554E-01         0.18227E-02         0.00000E+00
    0.15545E-01         0.41349E-03         0.00000E+00
    0.15528E-01        -0.97779E-03         0.00000E+00
    0.15503E-01        -0.23518E-02         0.00000E+00
    0.15471E-01        -0.37094E-02         0.00000E+00
    0.15431E-01        -0.50518E-02         0.00000E+00
    0.15383E-01        -0.63803E-02         0.00000E+00
    0.15328E-01        -0.76963E-02         0.00000E+00
    0.15265E-01        -0.90018E-02         0.00000E+00
    0.15193E-01        -0.10299E-01         0.00000E+00
    0.15113E-01        -0.11591E-01         0.00000E+00
    0.15022E-01        -0.12880E-01         0.00000E+00
    0.14922E-01        -0.14170E-01         0.00000E+00
    0.14818E-01        -0.15463E-01         0.00000E+00
    0.14719E-01        -0.16761E-01         0.00000E+00
    0.14631E-01        -0.18060E-01         0.00000E+00
    0.14552E-01        -0.19359E-01         0.00000E+00
    0.14482E-01        -0.20657E-01         0.00000E+00
    0.14419E-01        -0.21951E-01         0.00000E+00
    0.14364E-01        -0.23241E-01         0.00000E+00
    0.14315E-01        -0.24526E-01         0.00000E+00
    0.14272E-01        -0.25805E-01         0.00000E+00
    0.14234E-01        -0.27080E-01         0.00000E+00
    0.14202E-01        -0.28350E-01         0.00000E+00
    0.14175E-01        -0.29616E-01         0.00000E+00
    0.14152E-01        -0.30877E-01         0.00000E+00
    0.14135E-01        -0.32134E-01         0.00000E+00
    0.14122E-01        -0.33388E-01         0.00000E+00
    0.14113E-01        -0.34640E-01         0.00000E+00
    0.14109E-01        -0.35888E-01         0.00000E+00
    0.14109E-01        -0.37136E-01         0.00000E+00
    0.14113E-01        -0.38381E-01         0.00000E+00
    0.14121E-01        -0.39627E-01         0.00000E+00
    0.14133E-01        -0.40872E-01         0.00000E+00
    0.14149E-01        -0.42118E-01         0.00000E+00
    0.14169E-01        -0.43364E-01         0.00000E+00
    0.14191E-01        -0.44613E-01         0.00000E+00
    0.14217E-01        -0.45863E-01         0.00000E+00
    0.14246E-01        -0.47116E-01         0.00000E+00
    0.14278E-01        -0.48372E-01         0.00000E+00
    0.14312E-01        -0.49632E-01         0.00000E+00
    0.14348E-01        -0.50896E-01         0.00000E+00
    0.14386E-01        -0.52164E-01         0.00000E+00
    0.14425E-01        -0.53438E-01         0.00000E+00
    0.14465E-01        -0.54717E-01         0.00000E+00
    0.14504E-01        -0.56002E-01         0.00000E+00
    0.14544E-01        -0.57294E-01         0.00000E+00
    0.14581E-01        -0.58592E-01         0.00000E+00
    0.14617E-01        -0.59898E-01         0.00000E+00
    0.14648E-01        -0.61211E-01         0.00000E+00
    0.14675E-01        -0.62532E-01         0.00000E+00
    0.14696E-01        -0.63862E-01         0.00000E+00
    0.14708E-01        -0.65201E-01         0.00000E+00
    0.14711E-01        -0.66550E-01         0.00000E+00
    0.14702E-01        -0.67908E-01         0.00000E+00
    0.14678E-01        -0.69278E-01         0.00000E+00
    0.14636E-01        -0.70658E-01         0.00000E+00
    0.14572E-01        -0.72051E-01         0.00000E+00
    0.14484E-01        -0.73455E-01         0.00000E+00
    0.14366E-01        -0.74873E-01         0.00000E+00
    0.14214E-01        -0.76303E-01         0.00000E+00
    0.14021E-01        -0.77747E-01         0.00000E+00
    0.13782E-01        -0.79203E-01         0.00000E+00
    0.13488E-01        -0.80670E-01         0.00000E+00
    0.13132E-01        -0.82145E-01         0.00000E+00
    0.12705E-01        -0.83624E-01         0.00000E+00
    0.12197E-01        -0.85100E-01         0.00000E+00
    0.11597E-01        -0.86565E-01         0.00000E+00
    0.10893E-01        -0.88004E-01         0.00000E+00
    0.10073E-01        -0.89402E-01         0.00000E+00
    0.91232E-02        -0.90734E-01         0.00000E+00
    0.80318E-02        -0.91972E-01         0.00000E+00
    0.67866E-02        -0.93081E-01         0.00000E+00
    0.53772E-02        -0.94016E-01         0.00000E+00
    0.37922E-02        -0.94730E-01         0.00000E+00
    0.20115E-02        -0.95177E-01         0.00000E+00
    0.00000E+00        -0.95329E-01         0.00000E+00
    0.00000E+00         0.32835E-01         0.00000E+00
    0.20039E-02         0.32635E-01         0.00000E+00
    0.38374E-02         0.32081E-01         0.00000E+00
    0.55056E-02         0.31267E-01         0.00000E+00
    0.70122E-02         0.30269E-01         0.00000E+00
    0.83635E-02         0.29142E-01         0.00000E+00
    0.95677E-02         0.27924E-01         0.00000E+00
    0.10635E-01         0.26639E-01         0.00000E+00
    0.11576E-01         0.25306E-01         0.00000E+00
    0.12401E-01         0.23939E-01         0.00000E+00
    0.13119E-01         0.22550E-01         0.00000E+00
    0.13739E-01         0.21147E-01         0.00000E+00
    0.14267E-01         0.19732E-01         0.00000E+00
    0.14711E-01         0.18308E-01         0.00000E+00
    0.15076E-01         0.16874E-01         0.00000E+00
    0.15368E-01         0.15425E-01         0.00000E+00
    0.15590E-01         0.13957E-01         0.00000E+00
    0.15745E-01         0.12464E-01         0.00000E+00
    0.15837E-01         0.10939E-01         0.00000E+00
    0.15889E-01         0.93997E-02         0.00000E+00
    0.15927E-01         0.78691E-02         0.00000E+00
    0.15952E-01         0.63511E-02         0.00000E+00
    0.15968E-01         0.48480E-02         0.00000E+00
    0.15974E-01         0.33620E-02         0.00000E+00
    0.15972E-01         0.18942E-02         0.00000E+00
    0.15960E-01         0.44500E-03         0.00000E+00
    0.15941E-01        -0.98590E-03         0.00000E+00
    0.15913E-01        -0.23991E-02         0.00000E+00
    0.15878E-01        -0.37956E-02         0.00000E+00
    0.15836E-01        -0.51765E-02         0.00000E+00
    0.15786E-01        -0.65430E-02         0.00000E+00
    0.15728E-01        -0.78968E-02         0.00000E+00
    0.15663E-01        -0.92396E-02         0.00000E+00
    0.15590E-01        -0.10574E-01         0.00000E+00
    0.15508E-01        -0.11902E-01         0.00000E+00
    0.15417E-01        -0.13229E-01         0.00000E+00
    0.15315E-01        -0.14556E-01         0.00000E+00
    0.15209E-01        -0.15887E-01         0.00000E+00
    0.15110E-01        -0.17222E-01         0.00000E+00
    0.15021E-01        -0.18560E-01         0.00000E+00
    0.14941E-01        -0.19898E-01         0.00000E+00
    0.14870E-01        -0.21233E-01         0.00000E+00
    0.14806E-01        -0.22565E-01         0.00000E+00
    0.14750E-01        -0.23893E-01         0.00000E+00
    0.14699E-01        -0.25215E-01         0.00000E+00
    0.14655E-01        -0.26533E-01         0.00000E+00
    0.14616E-01        -0.27845E-01         0.00000E+00
    0.14583E-01        -0.29152E-01         0.00000E+00
    0.14555E-01        -0.30454E-01         0.00000E+00
    0.14532E-01        -0.31752E-01         0.00000E+00
    0.14514E-01        -0.33046E-01         0.00000E+00
    0.14500E-01        -0.34336E-01         0.00000E+00
    0.14491E-01        -0.35624E-01         0.00000E+00
    0.14487E-01        -0.36909E-01         0.00000E+00
    0.14486E-01        -0.38192E-01         0.00000E+00
    0.14491E-01        -0.39474E-01         0.00000E+00
    0.14499E-01        -0.40756E-01         0.00000E+00
    0.14511E-01        -0.42037E-01         0.00000E+00
    0.14527E-01        -0.43319E-01         0.00000E+00
    0.14547E-01        -0.44602E-01         0.00000E+00
    0.14570E-01        -0.45886E-01         0.00000E+00
    0.14597E-01        -0.47173E-01         0.00000E+00
    0.14626E-01        -0.48462E-01         0.00000E+00
    0.14659E-01        -0.49754E-01         0.00000E+00
    0.14694E-01        -0.51050E-01         0.00000E+00
    0.14731E-01        -0.52351E-01         0.00000E+00
    0.14770E-01        -0.53656E-01         0.00000E+00
    0.14811E-01        -0.54966E-01         0.00000E+00
    0.14852E-01        -0.56282E-01         0.00000E+00
    0.14893E-01        -0.57604E-01         0.00000E+00
    0.14934E-01        -0.58932E-01         0.00000E+00
    0.14973E-01        -0.60268E-01         0.00000E+00
    0.15009E-01        -0.61610E-01         0.00000E+00
    0.15043E-01        -0.62961E-01         0.00000E+00
    0.15071E-01        -0.64320E-01         0.00000E+00
    0.15093E-01        -0.65687E-01         0.00000E+00
    0.15107E-01        -0.67063E-01         0.00000E+00
    0.15111E-01        -0.68450E-01         0.00000E+00
    0.15103E-01        -0.69846E-01         0.00000E+00
    0.15079E-01        -0.71253E-01         0.00000E+00
    0.15038E-01        -0.72671E-01         0.00000E+00
    0.14975E-01        -0.74101E-01         0.00000E+00
    0.14887E-01        -0.75543E-01         0.00000E+00
    0.14768E-01        -0.76998E-01         0.00000E+00
    0.14614E-01        -0.78466E-01         0.00000E+00
    0.14419E-01        -0.79947E-01         0.00000E+00
    0.14175E-01        -0.81440E-01         0.00000E+00
    0.13876E-01        -0.82943E-01         0.00000E+00
    0.13513E-01        -0.84455E-01         0.00000E+00
    0.13076E-01        -0.85969E-01         0.00000E+00
    0.12556E-01        -0.87481E-01         0.00000E+00
    0.11939E-01        -0.88979E-01         0.00000E+00
    0.11215E-01        -0.90452E-01         0.00000E+00
    0.10370E-01        -0.91882E-01         0.00000E+00
    0.93903E-02        -0.93245E-01         0.00000E+00
    0.82633E-02        -0.94513E-01         0.00000E+00
    0.69770E-02        -0.95649E-01         0.00000E+00
    0.55217E-02        -0.96611E-01         0.00000E+00
    0.38880E-02        -0.97347E-01         0.00000E+00
    0.20586E-02        -0.97811E-01         0.00000E+00
    0.00000E+00        -0.97969E-01         0.00000E+00
    0.00000E+00         0.33744E-01         0.00000E+00
    0.20656E-02         0.33533E-01         0.00000E+00
    0.39539E-02         0.32952E-01         0.00000E+00
    0.56692E-02         0.32105E-01         0.00000E+00
    0.72162E-02         0.31074E-01         0.00000E+00
    0.86017E-02         0.29913E-01         0.00000E+00
    0.98351E-02         0.28661E-01         0.00000E+00
    0.10927E-01         0.27342E-01         0.00000E+00
    0.11890E-01         0.25974E-01         0.00000E+00
    0.12734E-01         0.24572E-01         0.00000E+00
    0.13468E-01         0.23147E-01         0.00000E+00
    0.14100E-01         0.21708E-01         0.00000E+00
    0.14640E-01         0.20258E-01         0.00000E+00
    0.15094E-01         0.18799E-01         0.00000E+00
    0.15469E-01         0.17329E-01         0.00000E+00
    0.15768E-01         0.15845E-01         0.00000E+00
    0.15998E-01         0.14342E-01         0.00000E+00
    0.16160E-01         0.12814E-01         0.00000E+00
    0.16257E-01         0.11254E-01         0.00000E+00
    0.16312E-01         0.96748E-02         0.00000E+00
    0.16349E-01         0.81042E-02         0.00000E+00
    0.16374E-01         0.65455E-02         0.00000E+00
    0.16388E-01         0.50015E-02         0.00000E+00
    0.16393E-01         0.34748E-02         0.00000E+00
    0.16388E-01         0.19666E-02         0.00000E+00
    0.16374E-01         0.47742E-03         0.00000E+00
    0.16352E-01        -0.99311E-03         0.00000E+00
    0.16322E-01        -0.24456E-02         0.00000E+00
    0.16284E-01        -0.38809E-02         0.00000E+00
    0.16239E-01        -0.53002E-02         0.00000E+00
    0.16187E-01        -0.67049E-02         0.00000E+00
    0.16127E-01        -0.80964E-02         0.00000E+00
    0.16060E-01        -0.94767E-02         0.00000E+00
    0.15985E-01        -0.10848E-01         0.00000E+00
    0.15902E-01        -0.12213E-01         0.00000E+00
    0.15809E-01        -0.13577E-01         0.00000E+00
    0.15706E-01        -0.14941E-01         0.00000E+00
    0.15600E-01        -0.16310E-01         0.00000E+00
    0.15500E-01        -0.17683E-01         0.00000E+00
    0.15410E-01        -0.19059E-01         0.00000E+00
    0.15329E-01        -0.20435E-01         0.00000E+00
    0.15257E-01        -0.21809E-01         0.00000E+00
    0.15192E-01        -0.23179E-01         0.00000E+00
    0.15134E-01        -0.24544E-01         0.00000E+00
    0.15083E-01        -0.25905E-01         0.00000E+00
    0.15037E-01        -0.27259E-01         0.00000E+00
    0.14997E-01        -0.28609E-01         0.00000E+00
    0.14963E-01        -0.29953E-01         0.00000E+00
    0.14934E-01        -0.31292E-01         0.00000E+00
    0.14910E-01        -0.32626E-01         0.00000E+00
    0.14891E-01        -0.33957E-01         0.00000E+00
    0.14877E-01        -0.35284E-01         0.00000E+00
    0.14868E-01        -0.36608E-01         0.00000E+00
    0.14863E-01        -0.37929E-01         0.00000E+00
    0.14862E-01        -0.39249E-01         0.00000E+00
    0.14866E-01        -0.40567E-01         0.00000E+00
    0.14875E-01        -0.41885E-01         0.00000E+00
    0.14887E-01        -0.43202E-01         0.00000E+00
    0.14903E-01        -0.44520E-01         0.00000E+00
    0.14924E-01        -0.45839E-01         0.00000E+00
    0.14947E-01        -0.47160E-01         0.00000E+00
    0.14975E-01        -0.48482E-01         0.00000E+00
    0.15005E-01        -0.49808E-01         0.00000E+00
    0.15039E-01        -0.51136E-01         0.00000E+00
    0.15075E-01        -0.52469E-01         0.00000E+00
    0.15113E-01        -0.53806E-01         0.00000E+00
    0.15153E-01        -0.55147E-01         0.00000E+00
    0.15195E-01        -0.56494E-01         0.00000E+00
    0.15237E-01        -0.57847E-01         0.00000E+00
    0.15280E-01        -0.59205E-01         0.00000E+00
    0.15322E-01        -0.60571E-01         0.00000E+00
    0.15363E-01        -0.61943E-01         0.00000E+00
    0.15401E-01        -0.63323E-01         0.00000E+00
    0.15436E-01        -0.64711E-01         0.00000E+00
    0.15466E-01        -0.66107E-01         0.00000E+00
    0.15489E-01        -0.67512E-01         0.00000E+00
    0.15505E-01        -0.68926E-01         0.00000E+00
    0.15510E-01        -0.70350E-01         0.00000E+00
    0.15503E-01        -0.71783E-01         0.00000E+00
    0.15480E-01        -0.73228E-01         0.00000E+00
    0.15440E-01        -0.74684E-01         0.00000E+00
    0.15377E-01        -0.76152E-01         0.00000E+00
    0.15288E-01        -0.77631E-01         0.00000E+00
    0.15169E-01        -0.79124E-01         0.00000E+00
    0.15014E-01        -0.80629E-01         0.00000E+00
    0.14816E-01        -0.82147E-01         0.00000E+00
    0.14569E-01        -0.83677E-01         0.00000E+00
    0.14265E-01        -0.85216E-01         0.00000E+00
    0.13895E-01        -0.86763E-01         0.00000E+00
    0.13449E-01        -0.88313E-01         0.00000E+00
    0.12916E-01        -0.89859E-01         0.00000E+00
    0.12283E-01        -0.91392E-01         0.00000E+00
    0.11539E-01        -0.92897E-01         0.00000E+00
    0.10670E-01        -0.94358E-01         0.00000E+00
    0.96607E-02        -0.95752E-01         0.00000E+00
    0.84985E-02        -0.97049E-01         0.00000E+00
    0.71712E-02        -0.98213E-01         0.00000E+00
    0.56695E-02        -0.99201E-01         0.00000E+00
    0.39862E-02        -0.99961E-01         0.00000E+00
    0.21070E-02        -0.10044E+00         0.00000E+00
    0.00000E+00        -0.10061E+00         0.00000E+00
    0.00000E+00         0.34656E-01         0.00000E+00
    0.21319E-02         0.34433E-01         0.00000E+00
    0.40763E-02         0.33822E-01         0.00000E+00
    0.58390E-02         0.32943E-01         0.00000E+00
    0.74257E-02         0.31877E-01         0.00000E+00
    0.88448E-02         0.30683E-01         0.00000E+00
    0.10107E-01         0.29397E-01         0.00000E+00
    0.11223E-01         0.28043E-01         0.00000E+00
    0.12207E-01         0.26640E-01         0.00000E+00
    0.13068E-01         0.25203E-01         0.00000E+00
    0.13817E-01         0.23743E-01         0.00000E+00
    0.14463E-01         0.22269E-01         0.00000E+00
    0.15014E-01         0.20783E-01         0.00000E+00
    0.15478E-01         0.19289E-01         0.00000E+00
    0.15861E-01         0.17783E-01         0.00000E+00
    0.16168E-01         0.16264E-01         0.00000E+00
    0.16405E-01         0.14727E-01         0.00000E+00
    0.16574E-01         0.13163E-01         0.00000E+00
    0.16677E-01         0.11569E-01         0.00000E+00
    0.16734E-01         0.99508E-02         0.00000E+00
    0.16771E-01         0.83401E-02         0.00000E+00
    0.16794E-01         0.67407E-02         0.00000E+00
    0.16807E-01         0.51558E-02         0.00000E+00
    0.16810E-01         0.35884E-02         0.00000E+00
    0.16803E-01         0.20399E-02         0.00000E+00
    0.16787E-01         0.51073E-03         0.00000E+00
    0.16762E-01        -0.99943E-03         0.00000E+00
    0.16729E-01        -0.24912E-02         0.00000E+00
    0.16689E-01        -0.39654E-02         0.00000E+00
    0.16641E-01        -0.54232E-02         0.00000E+00
    0.16586E-01        -0.68659E-02         0.00000E+00
    0.16524E-01        -0.82952E-02         0.00000E+00
    0.16455E-01        -0.97129E-02         0.00000E+00
    0.16379E-01        -0.11121E-01         0.00000E+00
    0.16294E-01        -0.12524E-01         0.00000E+00
    0.16200E-01        -0.13924E-01         0.00000E+00
    0.16096E-01        -0.15325E-01         0.00000E+00
    0.15989E-01        -0.16732E-01         0.00000E+00
    0.15888E-01        -0.18144E-01         0.00000E+00
    0.15797E-01        -0.19558E-01         0.00000E+00
    0.15716E-01        -0.20972E-01         0.00000E+00
    0.15642E-01        -0.22384E-01         0.00000E+00
    0.15576E-01        -0.23793E-01         0.00000E+00
    0.15517E-01        -0.25196E-01         0.00000E+00
    0.15465E-01        -0.26593E-01         0.00000E+00
    0.15418E-01        -0.27986E-01         0.00000E+00
    0.15377E-01        -0.29372E-01         0.00000E+00
    0.15342E-01        -0.30753E-01         0.00000E+00
    0.15312E-01        -0.32129E-01         0.00000E+00
    0.15287E-01        -0.33501E-01         0.00000E+00
    0.15268E-01        -0.34868E-01         0.00000E+00
    0.15253E-01        -0.36231E-01         0.00000E+00
    0.15243E-01        -0.37592E-01         0.00000E+00
    0.15238E-01        -0.38950E-01         0.00000E+00
    0.15237E-01        -0.40305E-01         0.00000E+00
    0.15241E-01        -0.41660E-01         0.00000E+00
    0.15249E-01        -0.43014E-01         0.00000E+00
    0.15262E-01        -0.44367E-01         0.00000E+00
    0.15278E-01        -0.45721E-01         0.00000E+00
    0.15299E-01        -0.47076E-01         0.00000E+00
    0.15323E-01        -0.48433E-01         0.00000E+00
    0.15351E-01        -0.49792E-01         0.00000E+00
    0.15383E-01        -0.51154E-01         0.00000E+00
    0.15417E-01        -0.52519E-01         0.00000E+00
    0.15454E-01        -0.53888E-01         0.00000E+00
    0.15494E-01        -0.55261E-01         0.00000E+00
    0.15535E-01        -0.56639E-01         0.00000E+00
    0.15578E-01        -0.58022E-01         0.00000E+00
    0.15622E-01        -0.59412E-01         0.00000E+00
    0.15666E-01        -0.60807E-01         0.00000E+00
    0.15709E-01        -0.62210E-01         0.00000E+00
    0.15751E-01        -0.63619E-01         0.00000E+00
    0.15791E-01        -0.65036E-01         0.00000E+00
    0.15827E-01        -0.66461E-01         0.00000E+00
    0.15859E-01        -0.67895E-01         0.00000E+00
    0.15884E-01        -0.69337E-01         0.00000E+00
    0.15901E-01        -0.70788E-01         0.00000E+00
    0.15907E-01        -0.72250E-01         0.00000E+00
    0.15901E-01        -0.73721E-01         0.00000E+00
    0.15880E-01        -0.75203E-01         0.00000E+00
    0.15840E-01        -0.76697E-01         0.00000E+00
    0.15778E-01        -0.78202E-01         0.00000E+00
    0.15690E-01        -0.79719E-01         0.00000E+00
    0.15570E-01        -0.81249E-01         0.00000E+00
    0.15413E-01        -0.82791E-01         0.00000E+00
    0.15214E-01        -0.84346E-01         0.00000E+00
    0.14963E-01        -0.85912E-01         0.00000E+00
    0.14654E-01        -0.87488E-01         0.00000E+00
    0.14278E-01        -0.89071E-01         0.00000E+00
    0.13822E-01        -0.90656E-01         0.00000E+00
    0.13277E-01        -0.92236E-01         0.00000E+00
    0.12630E-01        -0.93802E-01         0.00000E+00
    0.11867E-01        -0.95339E-01         0.00000E+00
    0.10973E-01        -0.96832E-01         0.00000E+00
    0.99347E-02        -0.98255E-01         0.00000E+00
    0.87376E-02        -0.99581E-01         0.00000E+00
    0.73694E-02        -0.10077E+00         0.00000E+00
    0.58212E-02        -0.10179E+00         0.00000E+00
    0.40872E-02        -0.10257E+00         0.00000E+00
    0.21567E-02        -0.10307E+00         0.00000E+00
    0.00000E+00        -0.10324E+00         0.00000E+00
    0.00000E+00         0.35570E-01         0.00000E+00
    0.22043E-02         0.35334E-01         0.00000E+00
    0.42057E-02         0.34693E-01         0.00000E+00
    0.60155E-02         0.33780E-01         0.00000E+00
    0.76415E-02         0.32679E-01         0.00000E+00
    0.90931E-02         0.31451E-01         0.00000E+00
    0.10382E-01         0.30132E-01         0.00000E+00
    0.11522E-01         0.28743E-01         0.00000E+00
    0.12526E-01         0.27305E-01         0.00000E+00
    0.13404E-01         0.25833E-01         0.00000E+00
    0.14168E-01         0.24338E-01         0.00000E+00
    0.14826E-01         0.22828E-01         0.00000E+00
    0.15388E-01         0.21308E-01         0.00000E+00
    0.15861E-01         0.19778E-01         0.00000E+00
    0.16252E-01         0.18237E-01         0.00000E+00
    0.16567E-01         0.16683E-01         0.00000E+00
    0.16811E-01         0.15111E-01         0.00000E+00
    0.16987E-01         0.13513E-01         0.00000E+00
    0.17095E-01         0.11885E-01         0.00000E+00
    0.17155E-01         0.10228E-01         0.00000E+00
    0.17191E-01         0.85769E-02         0.00000E+00
    0.17214E-01         0.69367E-02         0.00000E+00
    0.17226E-01         0.53110E-02         0.00000E+00
    0.17226E-01         0.37029E-02         0.00000E+00
    0.17217E-01         0.21141E-02         0.00000E+00
    0.17198E-01         0.54492E-03         0.00000E+00
    0.17170E-01        -0.10049E-02         0.00000E+00
    0.17135E-01        -0.25359E-02         0.00000E+00
    0.17092E-01        -0.40490E-02         0.00000E+00
    0.17041E-01        -0.55453E-02         0.00000E+00
    0.16984E-01        -0.70262E-02         0.00000E+00
    0.16920E-01        -0.84933E-02         0.00000E+00
    0.16849E-01        -0.99484E-02         0.00000E+00
    0.16770E-01        -0.11394E-01         0.00000E+00
    0.16684E-01        -0.12833E-01         0.00000E+00
    0.16589E-01        -0.14270E-01         0.00000E+00
    0.16485E-01        -0.15709E-01         0.00000E+00
    0.16376E-01        -0.17153E-01         0.00000E+00
    0.16275E-01        -0.18603E-01         0.00000E+00
    0.16183E-01        -0.20056E-01         0.00000E+00
    0.16101E-01        -0.21509E-01         0.00000E+00
    0.16027E-01        -0.22959E-01         0.00000E+00
    0.15960E-01        -0.24405E-01         0.00000E+00
    0.15900E-01        -0.25847E-01         0.00000E+00
    0.15846E-01        -0.27282E-01         0.00000E+00
    0.15798E-01        -0.28712E-01         0.00000E+00
    0.15756E-01        -0.30135E-01         0.00000E+00
    0.15720E-01        -0.31554E-01         0.00000E+00
    0.15689E-01        -0.32967E-01         0.00000E+00
    0.15663E-01        -0.34375E-01         0.00000E+00
    0.15643E-01        -0.35779E-01         0.00000E+00
    0.15627E-01        -0.37179E-01         0.00000E+00
    0.15617E-01        -0.38576E-01         0.00000E+00
    0.15611E-01        -0.39970E-01         0.00000E+00
    0.15610E-01        -0.41362E-01         0.00000E+00
    0.15614E-01        -0.42753E-01         0.00000E+00
    0.15622E-01        -0.44143E-01         0.00000E+00
    0.15635E-01        -0.45532E-01         0.00000E+00
    0.15652E-01        -0.46923E-01         0.00000E+00
    0.15673E-01        -0.48314E-01         0.00000E+00
    0.15698E-01        -0.49707E-01         0.00000E+00
    0.15727E-01        -0.51102E-01         0.00000E+00
    0.15759E-01        -0.52500E-01         0.00000E+00
    0.15794E-01        -0.53901E-01         0.00000E+00
    0.15832E-01        -0.55307E-01         0.00000E+00
    0.15873E-01        -0.56716E-01         0.00000E+00
    0.15915E-01        -0.58131E-01         0.00000E+00
    0.15959E-01        -0.59551E-01         0.00000E+00
    0.16005E-01        -0.60977E-01         0.00000E+00
    0.16050E-01        -0.62410E-01         0.00000E+00
    0.16095E-01        -0.63849E-01         0.00000E+00
    0.16139E-01        -0.65295E-01         0.00000E+00
    0.16180E-01        -0.66750E-01         0.00000E+00
    0.16218E-01        -0.68212E-01         0.00000E+00
    0.16251E-01        -0.69683E-01         0.00000E+00
    0.16277E-01        -0.71162E-01         0.00000E+00
    0.16296E-01        -0.72651E-01         0.00000E+00
    0.16304E-01        -0.74150E-01         0.00000E+00
    0.16299E-01        -0.75659E-01         0.00000E+00
    0.16279E-01        -0.77179E-01         0.00000E+00
    0.16240E-01        -0.78710E-01         0.00000E+00
    0.16178E-01        -0.80253E-01         0.00000E+00
    0.16090E-01        -0.81807E-01         0.00000E+00
    0.15970E-01        -0.83374E-01         0.00000E+00
    0.15813E-01        -0.84954E-01         0.00000E+00
    0.15611E-01        -0.86545E-01         0.00000E+00
    0.15358E-01        -0.88147E-01         0.00000E+00
    0.15044E-01        -0.89759E-01         0.00000E+00
    0.14661E-01        -0.91377E-01         0.00000E+00
    0.14197E-01        -0.92997E-01         0.00000E+00
    0.13641E-01        -0.94611E-01         0.00000E+00
    0.12979E-01        -0.96209E-01         0.00000E+00
    0.12196E-01        -0.97779E-01         0.00000E+00
    0.11279E-01        -0.99302E-01         0.00000E+00
    0.10212E-01        -0.10075E+00         0.00000E+00
    0.89810E-02        -0.10211E+00         0.00000E+00
    0.75721E-02        -0.10333E+00         0.00000E+00
    0.59770E-02        -0.10437E+00         0.00000E+00
    0.41914E-02        -0.10518E+00         0.00000E+00
    0.22081E-02        -0.10569E+00         0.00000E+00
    0.00000E+00        -0.10587E+00         0.00000E+00
    0.00000E+00         0.36487E-01         0.00000E+00
    0.22843E-02         0.36235E-01         0.00000E+00
    0.43426E-02         0.35564E-01         0.00000E+00
    0.61997E-02         0.34616E-01         0.00000E+00
    0.78641E-02         0.33480E-01         0.00000E+00
    0.93470E-02         0.32219E-01         0.00000E+00
    0.10663E-01         0.30865E-01         0.00000E+00
    0.11826E-01         0.29442E-01         0.00000E+00
    0.12848E-01         0.27969E-01         0.00000E+00
    0.13743E-01         0.26462E-01         0.00000E+00
    0.14520E-01         0.24932E-01         0.00000E+00
    0.15190E-01         0.23387E-01         0.00000E+00
    0.15762E-01         0.21831E-01         0.00000E+00
    0.16244E-01         0.20266E-01         0.00000E+00
    0.16643E-01         0.18691E-01         0.00000E+00
    0.16965E-01         0.17102E-01         0.00000E+00
    0.17216E-01         0.15495E-01         0.00000E+00
    0.17398E-01         0.13863E-01         0.00000E+00
    0.17513E-01         0.12200E-01         0.00000E+00
    0.17576E-01         0.10505E-01         0.00000E+00
    0.17611E-01         0.88146E-02         0.00000E+00
    0.17633E-01         0.71336E-02         0.00000E+00
    0.17643E-01         0.54670E-02         0.00000E+00
    0.17642E-01         0.38184E-02         0.00000E+00
    0.17630E-01         0.21892E-02         0.00000E+00
    0.17608E-01         0.57998E-03         0.00000E+00
    0.17578E-01        -0.10095E-02         0.00000E+00
    0.17539E-01        -0.25797E-02         0.00000E+00
    0.17493E-01        -0.41318E-02         0.00000E+00
    0.17440E-01        -0.56666E-02         0.00000E+00
    0.17380E-01        -0.71857E-02         0.00000E+00
    0.17313E-01        -0.86906E-02         0.00000E+00
    0.17240E-01        -0.10183E-01         0.00000E+00
    0.17160E-01        -0.11666E-01         0.00000E+00
    0.17072E-01        -0.13142E-01         0.00000E+00
    0.16977E-01        -0.14616E-01         0.00000E+00
    0.16871E-01        -0.16092E-01         0.00000E+00
    0.16763E-01        -0.17574E-01         0.00000E+00
    0.16661E-01        -0.19062E-01         0.00000E+00
    0.16569E-01        -0.20554E-01         0.00000E+00
    0.16485E-01        -0.22045E-01         0.00000E+00
    0.16410E-01        -0.23534E-01         0.00000E+00
    0.16342E-01        -0.25018E-01         0.00000E+00
    0.16281E-01        -0.26497E-01         0.00000E+00
    0.16226E-01        -0.27970E-01         0.00000E+00
    0.16177E-01        -0.29437E-01         0.00000E+00
    0.16134E-01        -0.30898E-01         0.00000E+00
    0.16096E-01        -0.32354E-01         0.00000E+00
    0.16064E-01        -0.33804E-01         0.00000E+00
    0.16038E-01        -0.35249E-01         0.00000E+00
    0.16017E-01        -0.36689E-01         0.00000E+00
    0.16000E-01        -0.38126E-01         0.00000E+00
    0.15989E-01        -0.39559E-01         0.00000E+00
    0.15983E-01        -0.40990E-01         0.00000E+00
    0.15982E-01        -0.42418E-01         0.00000E+00
    0.15986E-01        -0.43845E-01         0.00000E+00
    0.15994E-01        -0.45271E-01         0.00000E+00
    0.16007E-01        -0.46697E-01         0.00000E+00
    0.16024E-01        -0.48124E-01         0.00000E+00
    0.16046E-01        -0.49551E-01         0.00000E+00
    0.16071E-01        -0.50981E-01         0.00000E+00
    0.16100E-01        -0.52412E-01         0.00000E+00
    0.16133E-01        -0.53846E-01         0.00000E+00
    0.16169E-01        -0.55284E-01         0.00000E+00
    0.16209E-01        -0.56726E-01         0.00000E+00
    0.16250E-01        -0.58172E-01         0.00000E+00
    0.16294E-01        -0.59623E-01         0.00000E+00
    0.16340E-01        -0.61080E-01         0.00000E+00
    0.16386E-01        -0.62543E-01         0.00000E+00
    0.16433E-01        -0.64012E-01         0.00000E+00
    0.16480E-01        -0.65488E-01         0.00000E+00
    0.16525E-01        -0.66972E-01         0.00000E+00
    0.16568E-01        -0.68463E-01         0.00000E+00
    0.16607E-01        -0.69963E-01         0.00000E+00
    0.16642E-01        -0.71471E-01         0.00000E+00
    0.16670E-01        -0.72988E-01         0.00000E+00
    0.16690E-01        -0.74515E-01         0.00000E+00
    0.16699E-01        -0.76051E-01         0.00000E+00
    0.16696E-01        -0.77598E-01         0.00000E+00
    0.16677E-01        -0.79155E-01         0.00000E+00
    0.16639E-01        -0.80723E-01         0.00000E+00
    0.16578E-01        -0.82303E-01         0.00000E+00
    0.16490E-01        -0.83895E-01         0.00000E+00
    0.16370E-01        -0.85499E-01         0.00000E+00
    0.16211E-01        -0.87116E-01         0.00000E+00
    0.16008E-01        -0.88744E-01         0.00000E+00
    0.15752E-01        -0.90382E-01         0.00000E+00
    0.15435E-01        -0.92029E-01         0.00000E+00
    0.15046E-01        -0.93682E-01         0.00000E+00
    0.14573E-01        -0.95336E-01         0.00000E+00
    0.14006E-01        -0.96984E-01         0.00000E+00
    0.13330E-01        -0.98615E-01         0.00000E+00
    0.12529E-01        -0.10022E+00         0.00000E+00
    0.11589E-01        -0.10177E+00         0.00000E+00
    0.10494E-01        -0.10325E+00         0.00000E+00
    0.92288E-02        -0.10463E+00         0.00000E+00
    0.77797E-02        -0.10588E+00         0.00000E+00
    0.61375E-02        -0.10694E+00         0.00000E+00
    0.42992E-02        -0.10778E+00         0.00000E+00
    0.22612E-02        -0.10831E+00         0.00000E+00
    0.00000E+00        -0.10850E+00         0.00000E+00
    0.00000E+00         0.37401E-01         0.00000E+00
    0.23716E-02         0.37133E-01         0.00000E+00
    0.44881E-02         0.36437E-01         0.00000E+00
    0.63925E-02         0.35452E-01         0.00000E+00
    0.80940E-02         0.34280E-01         0.00000E+00
    0.96070E-02         0.32985E-01         0.00000E+00
    0.10948E-01         0.31597E-01         0.00000E+00
    0.12133E-01         0.30140E-01         0.00000E+00
    0.13174E-01         0.28632E-01         0.00000E+00
    0.14084E-01         0.27090E-01         0.00000E+00
    0.14874E-01         0.25525E-01         0.00000E+00
    0.15555E-01         0.23945E-01         0.00000E+00
    0.16136E-01         0.22354E-01         0.00000E+00
    0.16626E-01         0.20754E-01         0.00000E+00
    0.17033E-01         0.19144E-01         0.00000E+00
    0.17363E-01         0.17521E-01         0.00000E+00
    0.17620E-01         0.15879E-01         0.00000E+00
    0.17808E-01         0.14212E-01         0.00000E+00
    0.17929E-01         0.12515E-01         0.00000E+00
    0.17995E-01         0.10784E-01         0.00000E+00
    0.18031E-01         0.90533E-02         0.00000E+00
    0.18052E-01         0.73314E-02         0.00000E+00
    0.18060E-01         0.56239E-02         0.00000E+00
    0.18056E-01         0.39346E-02         0.00000E+00
    0.18041E-01         0.22651E-02         0.00000E+00
    0.18017E-01         0.61590E-03         0.00000E+00
    0.17983E-01        -0.10132E-02         0.00000E+00
    0.17942E-01        -0.26228E-02         0.00000E+00
    0.17893E-01        -0.42137E-02         0.00000E+00
    0.17837E-01        -0.57872E-02         0.00000E+00
    0.17774E-01        -0.73445E-02         0.00000E+00
    0.17705E-01        -0.88872E-02         0.00000E+00
    0.17630E-01        -0.10417E-01         0.00000E+00
    0.17548E-01        -0.11937E-01         0.00000E+00
    0.17459E-01        -0.13450E-01         0.00000E+00
    0.17362E-01        -0.14961E-01         0.00000E+00
    0.17257E-01        -0.16474E-01         0.00000E+00
    0.17148E-01        -0.17994E-01         0.00000E+00
    0.17045E-01        -0.19520E-01         0.00000E+00
    0.16953E-01        -0.21051E-01         0.00000E+00
    0.16869E-01        -0.22581E-01         0.00000E+00
    0.16793E-01        -0.24108E-01         0.00000E+00
    0.16724E-01        -0.25630E-01         0.00000E+00
    0.16661E-01        -0.27147E-01         0.00000E+00
    0.16605E-01        -0.28658E-01         0.00000E+00
    0.16555E-01        -0.30163E-01         0.00000E+00
    0.16510E-01        -0.31661E-01         0.00000E+00
    0.16472E-01        -0.33154E-01         0.00000E+00
    0.16439E-01        -0.34640E-01         0.00000E+00
    0.16411E-01        -0.36122E-01         0.00000E+00
    0.16389E-01        -0.37600E-01         0.00000E+00
    0.16372E-01        -0.39073E-01         0.00000E+00
    0.16361E-01        -0.40543E-01         0.00000E+00
    0.16354E-01        -0.42010E-01         0.00000E+00
    0.16353E-01        -0.43474E-01         0.00000E+00
    0.16356E-01        -0.44938E-01         0.00000E+00
    0.16365E-01        -0.46400E-01         0.00000E+00
    0.16378E-01        -0.47862E-01         0.00000E+00
    0.16395E-01        -0.49325E-01         0.00000E+00
    0.16417E-01        -0.50789E-01         0.00000E+00
    0.16443E-01        -0.52254E-01         0.00000E+00
    0.16473E-01        -0.53722E-01         0.00000E+00
    0.16507E-01        -0.55193E-01         0.00000E+00
    0.16544E-01        -0.56667E-01         0.00000E+00
    0.16584E-01        -0.58145E-01         0.00000E+00
    0.16627E-01        -0.59627E-01         0.00000E+00
    0.16672E-01        -0.61115E-01         0.00000E+00
    0.16718E-01        -0.62609E-01         0.00000E+00
    0.16766E-01        -0.64108E-01         0.00000E+00
    0.16815E-01        -0.65615E-01         0.00000E+00
    0.16863E-01        -0.67128E-01         0.00000E+00
    0.16909E-01        -0.68649E-01         0.00000E+00
    0.16954E-01        -0.70177E-01         0.00000E+00
    0.16995E-01        -0.71714E-01         0.00000E+00
    0.17031E-01        -0.73260E-01         0.00000E+00
    0.17061E-01        -0.74814E-01         0.00000E+00
    0.17082E-01        -0.76378E-01         0.00000E+00
    0.17093E-01        -0.77952E-01         0.00000E+00
    0.17091E-01        -0.79536E-01         0.00000E+00
    0.17073E-01        -0.81131E-01         0.00000E+00
    0.17037E-01        -0.82737E-01         0.00000E+00
    0.16977E-01        -0.84354E-01         0.00000E+00
    0.16889E-01        -0.85984E-01         0.00000E+00
    0.16769E-01        -0.87625E-01         0.00000E+00
    0.16610E-01        -0.89278E-01         0.00000E+00
    0.16405E-01        -0.90942E-01         0.00000E+00
    0.16147E-01        -0.92616E-01         0.00000E+00
    0.15826E-01        -0.94299E-01         0.00000E+00
    0.15431E-01        -0.95987E-01         0.00000E+00
    0.14951E-01        -0.97675E-01         0.00000E+00
    0.14373E-01        -0.99355E-01         0.00000E+00
    0.13683E-01        -0.10102E+00         0.00000E+00
    0.12865E-01        -0.10265E+00         0.00000E+00
    0.11903E-01        -0.10423E+00         0.00000E+00
    0.10780E-01        -0.10574E+00         0.00000E+00
    0.94815E-02        -0.10715E+00         0.00000E+00
    0.79925E-02        -0.10842E+00         0.00000E+00
    0.63033E-02        -0.10952E+00         0.00000E+00
    0.44112E-02        -0.11037E+00         0.00000E+00
    0.23166E-02        -0.11093E+00         0.00000E+00
    0.00000E+00        -0.11112E+00         0.00000E+00
    0.00000E+00         0.38308E-01         0.00000E+00
    0.24629E-02         0.38030E-01         0.00000E+00
    0.46437E-02         0.37310E-01         0.00000E+00
    0.65950E-02         0.36286E-01         0.00000E+00
    0.83316E-02         0.35080E-01         0.00000E+00
    0.98734E-02         0.33750E-01         0.00000E+00
    0.11239E-01         0.32329E-01         0.00000E+00
    0.12444E-01         0.30837E-01         0.00000E+00
    0.13503E-01         0.29294E-01         0.00000E+00
    0.14428E-01         0.27717E-01         0.00000E+00
    0.15231E-01         0.26117E-01         0.00000E+00
    0.15922E-01         0.24502E-01         0.00000E+00
    0.16511E-01         0.22876E-01         0.00000E+00
    0.17009E-01         0.21241E-01         0.00000E+00
    0.17423E-01         0.19597E-01         0.00000E+00
    0.17759E-01         0.17939E-01         0.00000E+00
    0.18023E-01         0.16263E-01         0.00000E+00
    0.18217E-01         0.14562E-01         0.00000E+00
    0.18345E-01         0.12831E-01         0.00000E+00
    0.18414E-01         0.11063E-01         0.00000E+00
    0.18449E-01         0.92928E-02         0.00000E+00
    0.18470E-01         0.75300E-02         0.00000E+00
    0.18476E-01         0.57817E-02         0.00000E+00
    0.18470E-01         0.40518E-02         0.00000E+00
    0.18452E-01         0.23419E-02         0.00000E+00
    0.18425E-01         0.65268E-03         0.00000E+00
    0.18388E-01        -0.10161E-02         0.00000E+00
    0.18343E-01        -0.26650E-02         0.00000E+00
    0.18291E-01        -0.42949E-02         0.00000E+00
    0.18232E-01        -0.59070E-02         0.00000E+00
    0.18167E-01        -0.75025E-02         0.00000E+00
    0.18095E-01        -0.90831E-02         0.00000E+00
    0.18018E-01        -0.10651E-01         0.00000E+00
    0.17934E-01        -0.12208E-01         0.00000E+00
    0.17844E-01        -0.13758E-01         0.00000E+00
    0.17747E-01        -0.15305E-01         0.00000E+00
    0.17641E-01        -0.16855E-01         0.00000E+00
    0.17531E-01        -0.18413E-01         0.00000E+00
    0.17428E-01        -0.19978E-01         0.00000E+00
    0.17335E-01        -0.21547E-01         0.00000E+00
    0.17251E-01        -0.23116E-01         0.00000E+00
    0.17174E-01        -0.24681E-01         0.00000E+00
    0.17104E-01        -0.26242E-01         0.00000E+00
    0.17040E-01        -0.27797E-01         0.00000E+00
    0.16983E-01        -0.29345E-01         0.00000E+00
    0.16931E-01        -0.30888E-01         0.00000E+00
    0.16886E-01        -0.32423E-01         0.00000E+00
    0.16846E-01        -0.33953E-01         0.00000E+00
    0.16812E-01        -0.35477E-01         0.00000E+00
    0.16784E-01        -0.36996E-01         0.00000E+00
    0.16761E-01        -0.38510E-01         0.00000E+00
    0.16743E-01        -0.40020E-01         0.00000E+00
    0.16731E-01        -0.41526E-01         0.00000E+00
    0.16724E-01        -0.43029E-01         0.00000E+00
    0.16722E-01        -0.44531E-01         0.00000E+00
    0.16726E-01        -0.46030E-01         0.00000E+00
    0.16734E-01        -0.47529E-01         0.00000E+00
    0.16747E-01        -0.49027E-01         0.00000E+00
    0.16765E-01        -0.50526E-01         0.00000E+00
    0.16787E-01        -0.52026E-01         0.00000E+00
    0.16813E-01        -0.53528E-01         0.00000E+00
    0.16844E-01        -0.55032E-01         0.00000E+00
    0.16878E-01        -0.56539E-01         0.00000E+00
    0.16916E-01        -0.58050E-01         0.00000E+00
    0.16957E-01        -0.59564E-01         0.00000E+00
    0.17001E-01        -0.61083E-01         0.00000E+00
    0.17048E-01        -0.62608E-01         0.00000E+00
    0.17096E-01        -0.64138E-01         0.00000E+00
    0.17145E-01        -0.65675E-01         0.00000E+00
    0.17195E-01        -0.67218E-01         0.00000E+00
    0.17244E-01        -0.68768E-01         0.00000E+00
    0.17293E-01        -0.70326E-01         0.00000E+00
    0.17339E-01        -0.71891E-01         0.00000E+00
    0.17381E-01        -0.73466E-01         0.00000E+00
    0.17419E-01        -0.75048E-01         0.00000E+00
    0.17451E-01        -0.76640E-01         0.00000E+00
    0.17474E-01        -0.78242E-01         0.00000E+00
    0.17486E-01        -0.79853E-01         0.00000E+00
    0.17486E-01        -0.81475E-01         0.00000E+00
    0.17469E-01        -0.83107E-01         0.00000E+00
    0.17434E-01        -0.84751E-01         0.00000E+00
    0.17375E-01        -0.86406E-01         0.00000E+00
    0.17288E-01        -0.88072E-01         0.00000E+00
    0.17168E-01        -0.89750E-01         0.00000E+00
    0.17009E-01        -0.91439E-01         0.00000E+00
    0.16803E-01        -0.93140E-01         0.00000E+00
    0.16542E-01        -0.94850E-01         0.00000E+00
    0.16217E-01        -0.96568E-01         0.00000E+00
    0.15818E-01        -0.98290E-01         0.00000E+00
    0.15331E-01        -0.10001E+00         0.00000E+00
    0.14743E-01        -0.10172E+00         0.00000E+00
    0.14039E-01        -0.10342E+00         0.00000E+00
    0.13204E-01        -0.10508E+00         0.00000E+00
    0.12220E-01        -0.10669E+00         0.00000E+00
    0.11071E-01        -0.10823E+00         0.00000E+00
    0.97393E-02        -0.10967E+00         0.00000E+00
    0.82109E-02        -0.11096E+00         0.00000E+00
    0.64747E-02        -0.11208E+00         0.00000E+00
    0.45279E-02        -0.11297E+00         0.00000E+00
    0.23744E-02        -0.11355E+00         0.00000E+00
    0.00000E+00        -0.11375E+00         0.00000E+00
    0.00000E+00         0.39208E-01         0.00000E+00
    0.25564E-02         0.38925E-01         0.00000E+00
    0.48091E-02         0.38177E-01         0.00000E+00
    0.68084E-02         0.37123E-01         0.00000E+00
    0.85776E-02         0.35878E-01         0.00000E+00
    0.10146E-01         0.34515E-01         0.00000E+00
    0.11535E-01         0.33059E-01         0.00000E+00
    0.12761E-01         0.31533E-01         0.00000E+00
    0.13836E-01         0.29955E-01         0.00000E+00
    0.14775E-01         0.28343E-01         0.00000E+00
    0.15589E-01         0.26708E-01         0.00000E+00
    0.16289E-01         0.25058E-01         0.00000E+00
    0.16887E-01         0.23398E-01         0.00000E+00
    0.17392E-01         0.21728E-01         0.00000E+00
    0.17812E-01         0.20049E-01         0.00000E+00
    0.18154E-01         0.18357E-01         0.00000E+00
    0.18424E-01         0.16646E-01         0.00000E+00
    0.18625E-01         0.14912E-01         0.00000E+00
    0.18759E-01         0.13146E-01         0.00000E+00
    0.18832E-01         0.11344E-01         0.00000E+00
    0.18868E-01         0.95334E-02         0.00000E+00
    0.18887E-01         0.77296E-02         0.00000E+00
    0.18892E-01         0.59403E-02         0.00000E+00
    0.18883E-01         0.41697E-02         0.00000E+00
    0.18862E-01         0.24196E-02         0.00000E+00
    0.18831E-01         0.69031E-03         0.00000E+00
    0.18791E-01        -0.10182E-02         0.00000E+00
    0.18743E-01        -0.27064E-02         0.00000E+00
    0.18688E-01        -0.43753E-02         0.00000E+00
    0.18626E-01        -0.60260E-02         0.00000E+00
    0.18558E-01        -0.76598E-02         0.00000E+00
    0.18484E-01        -0.92783E-02         0.00000E+00
    0.18404E-01        -0.10883E-01         0.00000E+00
    0.18319E-01        -0.12478E-01         0.00000E+00
    0.18227E-01        -0.14065E-01         0.00000E+00
    0.18129E-01        -0.15648E-01         0.00000E+00
    0.18023E-01        -0.17235E-01         0.00000E+00
    0.17914E-01        -0.18831E-01         0.00000E+00
    0.17811E-01        -0.20435E-01         0.00000E+00
    0.17717E-01        -0.22043E-01         0.00000E+00
    0.17632E-01        -0.23650E-01         0.00000E+00
    0.17554E-01        -0.25254E-01         0.00000E+00
    0.17483E-01        -0.26853E-01         0.00000E+00
    0.17418E-01        -0.28446E-01         0.00000E+00
    0.17360E-01        -0.30032E-01         0.00000E+00
    0.17307E-01        -0.31612E-01         0.00000E+00
    0.17260E-01        -0.33185E-01         0.00000E+00
    0.17219E-01        -0.34752E-01         0.00000E+00
    0.17184E-01        -0.36313E-01         0.00000E+00
    0.17155E-01        -0.37869E-01         0.00000E+00
    0.17131E-01        -0.39420E-01         0.00000E+00
    0.17113E-01        -0.40966E-01         0.00000E+00
    0.17100E-01        -0.42509E-01         0.00000E+00
    0.17092E-01        -0.44049E-01         0.00000E+00
    0.17090E-01        -0.45587E-01         0.00000E+00
    0.17093E-01        -0.47123E-01         0.00000E+00
    0.17102E-01        -0.48658E-01         0.00000E+00
    0.17115E-01        -0.50193E-01         0.00000E+00
    0.17133E-01        -0.51728E-01         0.00000E+00
    0.17155E-01        -0.53264E-01         0.00000E+00
    0.17182E-01        -0.54802E-01         0.00000E+00
    0.17214E-01        -0.56342E-01         0.00000E+00
    0.17249E-01        -0.57886E-01         0.00000E+00
    0.17288E-01        -0.59433E-01         0.00000E+00
    0.17330E-01        -0.60984E-01         0.00000E+00
    0.17375E-01        -0.62539E-01         0.00000E+00
    0.17422E-01        -0.64101E-01         0.00000E+00
    0.17472E-01        -0.65668E-01         0.00000E+00
    0.17522E-01        -0.67241E-01         0.00000E+00
    0.17574E-01        -0.68821E-01         0.00000E+00
    0.17625E-01        -0.70408E-01         0.00000E+00
    0.17675E-01        -0.72003E-01         0.00000E+00
    0.17722E-01        -0.73606E-01         0.00000E+00
    0.17767E-01        -0.75217E-01         0.00000E+00
    0.17806E-01        -0.76838E-01         0.00000E+00
    0.17839E-01        -0.78467E-01         0.00000E+00
    0.17864E-01        -0.80106E-01         0.00000E+00
    0.17878E-01        -0.81755E-01         0.00000E+00
    0.17879E-01        -0.83414E-01         0.00000E+00
    0.17864E-01        -0.85084E-01         0.00000E+00
    0.17830E-01        -0.86765E-01         0.00000E+00
    0.17772E-01        -0.88457E-01         0.00000E+00
    0.17686E-01        -0.90160E-01         0.00000E+00
    0.17566E-01        -0.91875E-01         0.00000E+00
    0.17407E-01        -0.93601E-01         0.00000E+00
    0.17200E-01        -0.95338E-01         0.00000E+00
    0.16938E-01        -0.97084E-01         0.00000E+00
    0.16610E-01        -0.98837E-01         0.00000E+00
    0.16205E-01        -0.10059E+00         0.00000E+00
    0.15711E-01        -0.10235E+00         0.00000E+00
    0.15114E-01        -0.10409E+00         0.00000E+00
    0.14398E-01        -0.10582E+00         0.00000E+00
    0.13547E-01        -0.10751E+00         0.00000E+00
    0.12542E-01        -0.10915E+00         0.00000E+00
    0.11366E-01        -0.11072E+00         0.00000E+00
    0.10002E-01        -0.11218E+00         0.00000E+00
    0.84351E-02        -0.11350E+00         0.00000E+00
    0.66523E-02        -0.11464E+00         0.00000E+00
    0.46500E-02        -0.11555E+00         0.00000E+00
    0.24352E-02        -0.11615E+00         0.00000E+00
    0.00000E+00        -0.11637E+00         0.00000E+00
    0.00000E+00         0.40102E-01         0.00000E+00
    0.26519E-02         0.39816E-01         0.00000E+00
    0.49835E-02         0.39041E-01         0.00000E+00
    0.70329E-02         0.37956E-01         0.00000E+00
    0.88325E-02         0.36676E-01         0.00000E+00
    0.10426E-01         0.35279E-01         0.00000E+00
    0.11838E-01         0.33789E-01         0.00000E+00
    0.13082E-01         0.32228E-01         0.00000E+00
    0.14173E-01         0.30616E-01         0.00000E+00
    0.15125E-01         0.28969E-01         0.00000E+00
    0.15949E-01         0.27298E-01         0.00000E+00
    0.16658E-01         0.25614E-01         0.00000E+00
    0.17263E-01         0.23918E-01         0.00000E+00
    0.17775E-01         0.22215E-01         0.00000E+00
    0.18201E-01         0.20501E-01         0.00000E+00
    0.18549E-01         0.18774E-01         0.00000E+00
    0.18825E-01         0.17030E-01         0.00000E+00
    0.19032E-01         0.15261E-01         0.00000E+00
    0.19172E-01         0.13462E-01         0.00000E+00
    0.19249E-01         0.11625E-01         0.00000E+00
    0.19285E-01         0.97748E-02         0.00000E+00
    0.19304E-01         0.79300E-02         0.00000E+00
    0.19306E-01         0.60998E-02         0.00000E+00
    0.19295E-01         0.42886E-02         0.00000E+00
    0.19271E-01         0.24981E-02         0.00000E+00
    0.19237E-01         0.72877E-03         0.00000E+00
    0.19194E-01        -0.10194E-02         0.00000E+00
    0.19142E-01        -0.27470E-02         0.00000E+00
    0.19083E-01        -0.44550E-02         0.00000E+00
    0.19018E-01        -0.61443E-02         0.00000E+00
    0.18947E-01        -0.78164E-02         0.00000E+00
    0.18870E-01        -0.94728E-02         0.00000E+00
    0.18788E-01        -0.11116E-01         0.00000E+00
    0.18701E-01        -0.12747E-01         0.00000E+00
    0.18609E-01        -0.14371E-01         0.00000E+00
    0.18510E-01        -0.15991E-01         0.00000E+00
    0.18404E-01        -0.17615E-01         0.00000E+00
    0.18295E-01        -0.19249E-01         0.00000E+00
    0.18192E-01        -0.20892E-01         0.00000E+00
    0.18098E-01        -0.22538E-01         0.00000E+00
    0.18013E-01        -0.24184E-01         0.00000E+00
    0.17934E-01        -0.25827E-01         0.00000E+00
    0.17861E-01        -0.27464E-01         0.00000E+00
    0.17795E-01        -0.29095E-01         0.00000E+00
    0.17735E-01        -0.30719E-01         0.00000E+00
    0.17681E-01        -0.32337E-01         0.00000E+00
    0.17633E-01        -0.33947E-01         0.00000E+00
    0.17591E-01        -0.35551E-01         0.00000E+00
    0.17555E-01        -0.37149E-01         0.00000E+00
    0.17525E-01        -0.38742E-01         0.00000E+00
    0.17500E-01        -0.40330E-01         0.00000E+00
    0.17481E-01        -0.41913E-01         0.00000E+00
    0.17467E-01        -0.43492E-01         0.00000E+00
    0.17460E-01        -0.45069E-01         0.00000E+00
    0.17457E-01        -0.46643E-01         0.00000E+00
    0.17460E-01        -0.48215E-01         0.00000E+00
    0.17468E-01        -0.49786E-01         0.00000E+00
    0.17481E-01        -0.51358E-01         0.00000E+00
    0.17500E-01        -0.52929E-01         0.00000E+00
    0.17523E-01        -0.54502E-01         0.00000E+00
    0.17550E-01        -0.56076E-01         0.00000E+00
    0.17582E-01        -0.57653E-01         0.00000E+00
    0.17618E-01        -0.59232E-01         0.00000E+00
    0.17658E-01        -0.60816E-01         0.00000E+00
    0.17701E-01        -0.62403E-01         0.00000E+00
    0.17747E-01        -0.63996E-01         0.00000E+00
    0.17796E-01        -0.65594E-01         0.00000E+00
    0.17846E-01        -0.67197E-01         0.00000E+00
    0.17898E-01        -0.68807E-01         0.00000E+00
    0.17951E-01        -0.70424E-01         0.00000E+00
    0.18004E-01        -0.72049E-01         0.00000E+00
    0.18055E-01        -0.73681E-01         0.00000E+00
    0.18104E-01        -0.75321E-01         0.00000E+00
    0.18150E-01        -0.76970E-01         0.00000E+00
    0.18192E-01        -0.78627E-01         0.00000E+00
    0.18226E-01        -0.80294E-01         0.00000E+00
    0.18253E-01        -0.81971E-01         0.00000E+00
    0.18269E-01        -0.83657E-01         0.00000E+00
    0.18271E-01        -0.85354E-01         0.00000E+00
    0.18258E-01        -0.87061E-01         0.00000E+00
    0.18225E-01        -0.88780E-01         0.00000E+00
    0.18168E-01        -0.90509E-01         0.00000E+00
    0.18083E-01        -0.92249E-01         0.00000E+00
    0.17964E-01        -0.94001E-01         0.00000E+00
    0.17805E-01        -0.95764E-01         0.00000E+00
    0.17598E-01        -0.97536E-01         0.00000E+00
    0.17334E-01        -0.99318E-01         0.00000E+00
    0.17003E-01        -0.10111E+00         0.00000E+00
    0.16594E-01        -0.10290E+00         0.00000E+00
    0.16094E-01        -0.10468E+00         0.00000E+00
    0.15488E-01        -0.10646E+00         0.00000E+00
    0.14760E-01        -0.10822E+00         0.00000E+00
    0.13893E-01        -0.10994E+00         0.00000E+00
    0.12868E-01        -0.11161E+00         0.00000E+00
    0.11667E-01        -0.11320E+00         0.00000E+00
    0.10271E-01        -0.11469E+00         0.00000E+00
    0.86656E-02        -0.11603E+00         0.00000E+00
    0.68365E-02        -0.11720E+00         0.00000E+00
    0.47782E-02        -0.11813E+00         0.00000E+00
    0.24994E-02        -0.11876E+00         0.00000E+00
    0.00000E+00        -0.11898E+00         0.00000E+00
    0.00000E+00         0.40992E-01         0.00000E+00
    0.27500E-02         0.40696E-01         0.00000E+00
    0.51657E-02         0.39901E-01         0.00000E+00
    0.72678E-02         0.38785E-01         0.00000E+00
    0.90968E-02         0.37476E-01         0.00000E+00
    0.10714E-01         0.36042E-01         0.00000E+00
    0.12146E-01         0.34519E-01         0.00000E+00
    0.13408E-01         0.32923E-01         0.00000E+00
    0.14514E-01         0.31276E-01         0.00000E+00
    0.15478E-01         0.29593E-01         0.00000E+00
    0.16311E-01         0.27888E-01         0.00000E+00
    0.17028E-01         0.26169E-01         0.00000E+00
    0.17640E-01         0.24439E-01         0.00000E+00
    0.18157E-01         0.22701E-01         0.00000E+00
    0.18589E-01         0.20953E-01         0.00000E+00
    0.18943E-01         0.19192E-01         0.00000E+00
    0.19224E-01         0.17413E-01         0.00000E+00
    0.19437E-01         0.15611E-01         0.00000E+00
    0.19584E-01         0.13778E-01         0.00000E+00
    0.19666E-01         0.11908E-01         0.00000E+00
    0.19703E-01         0.10017E-01         0.00000E+00
    0.19720E-01         0.81313E-02         0.00000E+00
    0.19721E-01         0.62602E-02         0.00000E+00
    0.19706E-01         0.44083E-02         0.00000E+00
    0.19680E-01         0.25774E-02         0.00000E+00
    0.19642E-01         0.76806E-03         0.00000E+00
    0.19595E-01        -0.10199E-02         0.00000E+00
    0.19540E-01        -0.27869E-02         0.00000E+00
    0.19477E-01        -0.45339E-02         0.00000E+00
    0.19409E-01        -0.62619E-02         0.00000E+00
    0.19335E-01        -0.79723E-02         0.00000E+00
    0.19255E-01        -0.96667E-02         0.00000E+00
    0.19171E-01        -0.11347E-01         0.00000E+00
    0.19082E-01        -0.13016E-01         0.00000E+00
    0.18988E-01        -0.14676E-01         0.00000E+00
    0.18889E-01        -0.16333E-01         0.00000E+00
    0.18783E-01        -0.17994E-01         0.00000E+00
    0.18674E-01        -0.19666E-01         0.00000E+00
    0.18572E-01        -0.21348E-01         0.00000E+00
    0.18478E-01        -0.23033E-01         0.00000E+00
    0.18392E-01        -0.24718E-01         0.00000E+00
    0.18312E-01        -0.26399E-01         0.00000E+00
    0.18239E-01        -0.28075E-01         0.00000E+00
    0.18171E-01        -0.29744E-01         0.00000E+00
    0.18110E-01        -0.31406E-01         0.00000E+00
    0.18055E-01        -0.33061E-01         0.00000E+00
    0.18005E-01        -0.34709E-01         0.00000E+00
    0.17962E-01        -0.36350E-01         0.00000E+00
    0.17925E-01        -0.37985E-01         0.00000E+00
    0.17893E-01        -0.39615E-01         0.00000E+00
    0.17868E-01        -0.41239E-01         0.00000E+00
    0.17848E-01        -0.42859E-01         0.00000E+00
    0.17834E-01        -0.44475E-01         0.00000E+00
    0.17825E-01        -0.46088E-01         0.00000E+00
    0.17823E-01        -0.47699E-01         0.00000E+00
    0.17825E-01        -0.49307E-01         0.00000E+00
    0.17833E-01        -0.50915E-01         0.00000E+00
    0.17847E-01        -0.52523E-01         0.00000E+00
    0.17865E-01        -0.54130E-01         0.00000E+00
    0.17888E-01        -0.55739E-01         0.00000E+00
    0.17916E-01        -0.57350E-01         0.00000E+00
    0.17949E-01        -0.58963E-01         0.00000E+00
    0.17986E-01        -0.60579E-01         0.00000E+00
    0.18026E-01        -0.62199E-01         0.00000E+00
    0.18070E-01        -0.63823E-01         0.00000E+00
    0.18118E-01        -0.65452E-01         0.00000E+00
    0.18167E-01        -0.67087E-01         0.00000E+00
    0.18219E-01        -0.68727E-01         0.00000E+00
    0.18273E-01        -0.70374E-01         0.00000E+00
    0.18327E-01        -0.72028E-01         0.00000E+00
    0.18381E-01        -0.73690E-01         0.00000E+00
    0.18434E-01        -0.75359E-01         0.00000E+00
    0.18485E-01        -0.77036E-01         0.00000E+00
    0.18533E-01        -0.78722E-01         0.00000E+00
    0.18576E-01        -0.80417E-01         0.00000E+00
    0.18612E-01        -0.82122E-01         0.00000E+00
    0.18641E-01        -0.83836E-01         0.00000E+00
    0.18658E-01        -0.85560E-01         0.00000E+00
    0.18663E-01        -0.87294E-01         0.00000E+00
    0.18651E-01        -0.89039E-01         0.00000E+00
    0.18619E-01        -0.90794E-01         0.00000E+00
    0.18564E-01        -0.92561E-01         0.00000E+00
    0.18480E-01        -0.94339E-01         0.00000E+00
    0.18362E-01        -0.96127E-01         0.00000E+00
    0.18203E-01        -0.97926E-01         0.00000E+00
    0.17995E-01        -0.99734E-01         0.00000E+00
    0.17730E-01        -0.10155E+00         0.00000E+00
    0.17397E-01        -0.10337E+00         0.00000E+00
    0.16984E-01        -0.10520E+00         0.00000E+00
    0.16478E-01        -0.10702E+00         0.00000E+00
    0.15864E-01        -0.10883E+00         0.00000E+00
    0.15125E-01        -0.11062E+00         0.00000E+00
    0.14242E-01        -0.11237E+00         0.00000E+00
    0.13198E-01        -0.11406E+00         0.00000E+00
    0.11972E-01        -0.11568E+00         0.00000E+00
    0.10546E-01        -0.11719E+00         0.00000E+00
    0.89026E-02        -0.11856E+00         0.00000E+00
    0.70278E-02        -0.11975E+00         0.00000E+00
    0.49133E-02        -0.12071E+00         0.00000E+00
    0.25679E-02        -0.12136E+00         0.00000E+00
    0.00000E+00        -0.12160E+00         0.00000E+00
    0.00000E+00         0.41875E-01         0.00000E+00
    0.28525E-02         0.41566E-01         0.00000E+00
    0.53542E-02         0.40753E-01         0.00000E+00
    0.75118E-02         0.39610E-01         0.00000E+00
    0.93705E-02         0.38275E-01         0.00000E+00
    0.11009E-01         0.36804E-01         0.00000E+00
    0.12461E-01         0.35248E-01         0.00000E+00
    0.13740E-01         0.33617E-01         0.00000E+00
    0.14860E-01         0.31935E-01         0.00000E+00
    0.15834E-01         0.30218E-01         0.00000E+00
    0.16676E-01         0.28478E-01         0.00000E+00
    0.17400E-01         0.26723E-01         0.00000E+00
    0.18018E-01         0.24959E-01         0.00000E+00
    0.18540E-01         0.23186E-01         0.00000E+00
    0.18977E-01         0.21404E-01         0.00000E+00
    0.19335E-01         0.19609E-01         0.00000E+00
    0.19622E-01         0.17797E-01         0.00000E+00
    0.19841E-01         0.15960E-01         0.00000E+00
    0.19994E-01         0.14094E-01         0.00000E+00
    0.20082E-01         0.12192E-01         0.00000E+00
    0.20121E-01         0.10260E-01         0.00000E+00
    0.20137E-01         0.83336E-02         0.00000E+00
    0.20135E-01         0.64214E-02         0.00000E+00
    0.20117E-01         0.45289E-02         0.00000E+00
    0.20087E-01         0.26576E-02         0.00000E+00
    0.20045E-01         0.80817E-03         0.00000E+00
    0.19995E-01        -0.10195E-02         0.00000E+00
    0.19936E-01        -0.28260E-02         0.00000E+00
    0.19870E-01        -0.46120E-02         0.00000E+00
    0.19798E-01        -0.63788E-02         0.00000E+00
    0.19721E-01        -0.81275E-02         0.00000E+00
    0.19639E-01        -0.98599E-02         0.00000E+00
    0.19552E-01        -0.11578E-01         0.00000E+00
    0.19461E-01        -0.13284E-01         0.00000E+00
    0.19366E-01        -0.14982E-01         0.00000E+00
    0.19267E-01        -0.16675E-01         0.00000E+00
    0.19161E-01        -0.18372E-01         0.00000E+00
    0.19053E-01        -0.20082E-01         0.00000E+00
    0.18951E-01        -0.21803E-01         0.00000E+00
    0.18857E-01        -0.23528E-01         0.00000E+00
    0.18771E-01        -0.25251E-01         0.00000E+00
    0.18690E-01        -0.26971E-01         0.00000E+00
    0.18615E-01        -0.28685E-01         0.00000E+00
    0.18547E-01        -0.30392E-01         0.00000E+00
    0.18484E-01        -0.32092E-01         0.00000E+00
    0.18427E-01        -0.33784E-01         0.00000E+00
    0.18377E-01        -0.35470E-01         0.00000E+00
    0.18332E-01        -0.37149E-01         0.00000E+00
    0.18293E-01        -0.38821E-01         0.00000E+00
    0.18261E-01        -0.40488E-01         0.00000E+00
    0.18234E-01        -0.42149E-01         0.00000E+00
    0.18214E-01        -0.43805E-01         0.00000E+00
    0.18199E-01        -0.45458E-01         0.00000E+00
    0.18190E-01        -0.47108E-01         0.00000E+00
    0.18187E-01        -0.48755E-01         0.00000E+00
    0.18189E-01        -0.50400E-01         0.00000E+00
    0.18197E-01        -0.52044E-01         0.00000E+00
    0.18211E-01        -0.53688E-01         0.00000E+00
    0.18229E-01        -0.55332E-01         0.00000E+00
    0.18253E-01        -0.56977E-01         0.00000E+00
    0.18281E-01        -0.58624E-01         0.00000E+00
    0.18314E-01        -0.60274E-01         0.00000E+00
    0.18352E-01        -0.61926E-01         0.00000E+00
    0.18393E-01        -0.63583E-01         0.00000E+00
    0.18438E-01        -0.65243E-01         0.00000E+00
    0.18487E-01        -0.66909E-01         0.00000E+00
    0.18538E-01        -0.68580E-01         0.00000E+00
    0.18591E-01        -0.70258E-01         0.00000E+00
    0.18646E-01        -0.71941E-01         0.00000E+00
    0.18702E-01        -0.73632E-01         0.00000E+00
    0.18757E-01        -0.75331E-01         0.00000E+00
    0.18812E-01        -0.77037E-01         0.00000E+00
    0.18865E-01        -0.78752E-01         0.00000E+00
    0.18914E-01        -0.80475E-01         0.00000E+00
    0.18959E-01        -0.82208E-01         0.00000E+00
    0.18997E-01        -0.83950E-01         0.00000E+00
    0.19027E-01        -0.85701E-01         0.00000E+00
    0.19047E-01        -0.87463E-01         0.00000E+00
    0.19053E-01        -0.89235E-01         0.00000E+00
    0.19043E-01        -0.91017E-01         0.00000E+00
    0.19013E-01        -0.92810E-01         0.00000E+00
    0.18959E-01        -0.94614E-01         0.00000E+00
    0.18876E-01        -0.96428E-01         0.00000E+00
    0.18759E-01        -0.98253E-01         0.00000E+00
    0.18600E-01        -0.10009E+00         0.00000E+00
    0.18392E-01        -0.10193E+00         0.00000E+00
    0.18126E-01        -0.10378E+00         0.00000E+00
    0.17791E-01        -0.10564E+00         0.00000E+00
    0.17375E-01        -0.10750E+00         0.00000E+00
    0.16864E-01        -0.10935E+00         0.00000E+00
    0.16242E-01        -0.11119E+00         0.00000E+00
    0.15492E-01        -0.11301E+00         0.00000E+00
    0.14596E-01        -0.11479E+00         0.00000E+00
    0.13533E-01        -0.11651E+00         0.00000E+00
    0.12283E-01        -0.11816E+00         0.00000E+00
    0.10827E-01        -0.11969E+00         0.00000E+00
    0.91464E-02        -0.12109E+00         0.00000E+00
    0.72265E-02        -0.12230E+00         0.00000E+00
    0.50561E-02        -0.12328E+00         0.00000E+00
    0.26414E-02        -0.12395E+00         0.00000E+00
    0.00000E+00        -0.12421E+00         0.00000E+00
    0.00000E+00         0.42751E-01         0.00000E+00
    0.29607E-02         0.42426E-01         0.00000E+00
    0.55487E-02         0.41594E-01         0.00000E+00
    0.77630E-02         0.40433E-01         0.00000E+00
    0.96527E-02         0.39071E-01         0.00000E+00
    0.11311E-01         0.37568E-01         0.00000E+00
    0.12782E-01         0.35977E-01         0.00000E+00
    0.14078E-01         0.34310E-01         0.00000E+00
    0.15210E-01         0.32593E-01         0.00000E+00
    0.16194E-01         0.30841E-01         0.00000E+00
    0.17044E-01         0.29067E-01         0.00000E+00
    0.17774E-01         0.27278E-01         0.00000E+00
    0.18396E-01         0.25479E-01         0.00000E+00
    0.18923E-01         0.23672E-01         0.00000E+00
    0.19364E-01         0.21855E-01         0.00000E+00
    0.19727E-01         0.20026E-01         0.00000E+00
    0.20019E-01         0.18180E-01         0.00000E+00
    0.20243E-01         0.16310E-01         0.00000E+00
    0.20403E-01         0.14410E-01         0.00000E+00
    0.20497E-01         0.12475E-01         0.00000E+00
    0.20538E-01         0.10505E-01         0.00000E+00
    0.20553E-01         0.85367E-02         0.00000E+00
    0.20548E-01         0.65835E-02         0.00000E+00
    0.20528E-01         0.46504E-02         0.00000E+00
    0.20494E-01         0.27387E-02         0.00000E+00
    0.20448E-01         0.84911E-03         0.00000E+00
    0.20394E-01        -0.10184E-02         0.00000E+00
    0.20331E-01        -0.28643E-02         0.00000E+00
    0.20261E-01        -0.46895E-02         0.00000E+00
    0.20186E-01        -0.64950E-02         0.00000E+00
    0.20105E-01        -0.82822E-02         0.00000E+00
    0.20020E-01        -0.10053E-01         0.00000E+00
    0.19931E-01        -0.11808E-01         0.00000E+00
    0.19838E-01        -0.13552E-01         0.00000E+00
    0.19742E-01        -0.15286E-01         0.00000E+00
    0.19642E-01        -0.17016E-01         0.00000E+00
    0.19537E-01        -0.18750E-01         0.00000E+00
    0.19431E-01        -0.20498E-01         0.00000E+00
    0.19329E-01        -0.22258E-01         0.00000E+00
    0.19236E-01        -0.24022E-01         0.00000E+00
    0.19148E-01        -0.25784E-01         0.00000E+00
    0.19067E-01        -0.27543E-01         0.00000E+00
    0.18991E-01        -0.29295E-01         0.00000E+00
    0.18921E-01        -0.31040E-01         0.00000E+00
    0.18857E-01        -0.32778E-01         0.00000E+00
    0.18799E-01        -0.34508E-01         0.00000E+00
    0.18747E-01        -0.36231E-01         0.00000E+00
    0.18701E-01        -0.37947E-01         0.00000E+00
    0.18661E-01        -0.39657E-01         0.00000E+00
    0.18627E-01        -0.41360E-01         0.00000E+00
    0.18600E-01        -0.43058E-01         0.00000E+00
    0.18578E-01        -0.44752E-01         0.00000E+00
    0.18563E-01        -0.46441E-01         0.00000E+00
    0.18553E-01        -0.48127E-01         0.00000E+00
    0.18550E-01        -0.49810E-01         0.00000E+00
    0.18552E-01        -0.51492E-01         0.00000E+00
    0.18560E-01        -0.53173E-01         0.00000E+00
    0.18573E-01        -0.54853E-01         0.00000E+00
    0.18592E-01        -0.56533E-01         0.00000E+00
    0.18616E-01        -0.58215E-01         0.00000E+00
    0.18645E-01        -0.59899E-01         0.00000E+00
    0.18679E-01        -0.61584E-01         0.00000E+00
    0.18717E-01        -0.63274E-01         0.00000E+00
    0.18759E-01        -0.64966E-01         0.00000E+00
    0.18805E-01        -0.66664E-01         0.00000E+00
    0.18855E-01        -0.68366E-01         0.00000E+00
    0.18907E-01        -0.70074E-01         0.00000E+00
    0.18962E-01        -0.71788E-01         0.00000E+00
    0.19018E-01        -0.73509E-01         0.00000E+00
    0.19075E-01        -0.75237E-01         0.00000E+00
    0.19132E-01        -0.76972E-01         0.00000E+00
    0.19189E-01        -0.78716E-01         0.00000E+00
    0.19243E-01        -0.80468E-01         0.00000E+00
    0.19294E-01        -0.82229E-01         0.00000E+00
    0.19341E-01        -0.83999E-01         0.00000E+00
    0.19381E-01        -0.85778E-01         0.00000E+00
    0.19413E-01        -0.87567E-01         0.00000E+00
    0.19434E-01        -0.89366E-01         0.00000E+00
    0.19442E-01        -0.91176E-01         0.00000E+00
    0.19433E-01        -0.92995E-01         0.00000E+00
    0.19405E-01        -0.94826E-01         0.00000E+00
    0.19353E-01        -0.96667E-01         0.00000E+00
    0.19272E-01        -0.98518E-01         0.00000E+00
    0.19155E-01        -0.10038E+00         0.00000E+00
    0.18998E-01        -0.10225E+00         0.00000E+00
    0.18790E-01        -0.10413E+00         0.00000E+00
    0.18523E-01        -0.10602E+00         0.00000E+00
    0.18187E-01        -0.10791E+00         0.00000E+00
    0.17768E-01        -0.10980E+00         0.00000E+00
    0.17252E-01        -0.11169E+00         0.00000E+00
    0.16623E-01        -0.11356E+00         0.00000E+00
    0.15863E-01        -0.11541E+00         0.00000E+00
    0.14953E-01        -0.11721E+00         0.00000E+00
    0.13872E-01        -0.11896E+00         0.00000E+00
    0.12599E-01        -0.12063E+00         0.00000E+00
    0.11114E-01        -0.12219E+00         0.00000E+00
    0.93973E-02        -0.12361E+00         0.00000E+00
    0.74328E-02        -0.12484E+00         0.00000E+00
    0.52075E-02        -0.12584E+00         0.00000E+00
    0.27213E-02        -0.12654E+00         0.00000E+00
    0.00000E+00        -0.12681E+00         0.00000E+00
    0.00000E+00         0.43618E-01         0.00000E+00
    0.30762E-02         0.43272E-01         0.00000E+00
    0.57489E-02         0.42425E-01         0.00000E+00
    0.80193E-02         0.41253E-01         0.00000E+00
    0.99429E-02         0.39864E-01         0.00000E+00
    0.11621E-01         0.38332E-01         0.00000E+00
    0.13110E-01         0.36705E-01         0.00000E+00
    0.14421E-01         0.35003E-01         0.00000E+00
    0.15565E-01         0.33251E-01         0.00000E+00
    0.16558E-01         0.31465E-01         0.00000E+00
    0.17414E-01         0.29655E-01         0.00000E+00
    0.18149E-01         0.27832E-01         0.00000E+00
    0.18776E-01         0.25998E-01         0.00000E+00
    0.19306E-01         0.24157E-01         0.00000E+00
    0.19750E-01         0.22306E-01         0.00000E+00
    0.20118E-01         0.20443E-01         0.00000E+00
    0.20414E-01         0.18563E-01         0.00000E+00
    0.20644E-01         0.16659E-01         0.00000E+00
    0.20810E-01         0.14726E-01         0.00000E+00
    0.20911E-01         0.12758E-01         0.00000E+00
    0.20956E-01         0.10751E-01         0.00000E+00
    0.20969E-01         0.87406E-02         0.00000E+00
    0.20962E-01         0.67465E-02         0.00000E+00
    0.20937E-01         0.47728E-02         0.00000E+00
    0.20899E-01         0.28206E-02         0.00000E+00
    0.20850E-01         0.89086E-03         0.00000E+00
    0.20791E-01        -0.10165E-02         0.00000E+00
    0.20725E-01        -0.29019E-02         0.00000E+00
    0.20651E-01        -0.47663E-02         0.00000E+00
    0.20572E-01        -0.66106E-02         0.00000E+00
    0.20488E-01        -0.84362E-02         0.00000E+00
    0.20400E-01        -0.10245E-01         0.00000E+00
    0.20308E-01        -0.12038E-01         0.00000E+00
    0.20213E-01        -0.13819E-01         0.00000E+00
    0.20115E-01        -0.15590E-01         0.00000E+00
    0.20015E-01        -0.17357E-01         0.00000E+00
    0.19912E-01        -0.19127E-01         0.00000E+00
    0.19807E-01        -0.20913E-01         0.00000E+00
    0.19707E-01        -0.22712E-01         0.00000E+00
    0.19614E-01        -0.24516E-01         0.00000E+00
    0.19525E-01        -0.26317E-01         0.00000E+00
    0.19443E-01        -0.28114E-01         0.00000E+00
    0.19366E-01        -0.29904E-01         0.00000E+00
    0.19294E-01        -0.31688E-01         0.00000E+00
    0.19229E-01        -0.33463E-01         0.00000E+00
    0.19169E-01        -0.35231E-01         0.00000E+00
    0.19116E-01        -0.36992E-01         0.00000E+00
    0.19068E-01        -0.38745E-01         0.00000E+00
    0.19027E-01        -0.40492E-01         0.00000E+00
    0.18992E-01        -0.42232E-01         0.00000E+00
    0.18964E-01        -0.43967E-01         0.00000E+00
    0.18941E-01        -0.45698E-01         0.00000E+00
    0.18925E-01        -0.47424E-01         0.00000E+00
    0.18915E-01        -0.49146E-01         0.00000E+00
    0.18911E-01        -0.50866E-01         0.00000E+00
    0.18913E-01        -0.52584E-01         0.00000E+00
    0.18921E-01        -0.54301E-01         0.00000E+00
    0.18934E-01        -0.56018E-01         0.00000E+00
    0.18953E-01        -0.57735E-01         0.00000E+00
    0.18978E-01        -0.59453E-01         0.00000E+00
    0.19007E-01        -0.61173E-01         0.00000E+00
    0.19041E-01        -0.62895E-01         0.00000E+00
    0.19080E-01        -0.64621E-01         0.00000E+00
    0.19124E-01        -0.66350E-01         0.00000E+00
    0.19171E-01        -0.68084E-01         0.00000E+00
    0.19221E-01        -0.69823E-01         0.00000E+00
    0.19275E-01        -0.71568E-01         0.00000E+00
    0.19331E-01        -0.73319E-01         0.00000E+00
    0.19388E-01        -0.75077E-01         0.00000E+00
    0.19447E-01        -0.76842E-01         0.00000E+00
    0.19506E-01        -0.78614E-01         0.00000E+00
    0.19564E-01        -0.80395E-01         0.00000E+00
    0.19620E-01        -0.82184E-01         0.00000E+00
    0.19673E-01        -0.83983E-01         0.00000E+00
    0.19721E-01        -0.85790E-01         0.00000E+00
    0.19763E-01        -0.87607E-01         0.00000E+00
    0.19797E-01        -0.89434E-01         0.00000E+00
    0.19820E-01        -0.91270E-01         0.00000E+00
    0.19830E-01        -0.93117E-01         0.00000E+00
    0.19823E-01        -0.94974E-01         0.00000E+00
    0.19797E-01        -0.96842E-01         0.00000E+00
    0.19746E-01        -0.98720E-01         0.00000E+00
    0.19666E-01        -0.10061E+00         0.00000E+00
    0.19552E-01        -0.10251E+00         0.00000E+00
    0.19395E-01        -0.10441E+00         0.00000E+00
    0.19188E-01        -0.10633E+00         0.00000E+00
    0.18921E-01        -0.10825E+00         0.00000E+00
    0.18583E-01        -0.11018E+00         0.00000E+00
    0.18162E-01        -0.11210E+00         0.00000E+00
    0.17642E-01        -0.11402E+00         0.00000E+00
    0.17007E-01        -0.11592E+00         0.00000E+00
    0.16238E-01        -0.11780E+00         0.00000E+00
    0.15315E-01        -0.11964E+00         0.00000E+00
    0.14217E-01        -0.12141E+00         0.00000E+00
    0.12922E-01        -0.12311E+00         0.00000E+00
    0.11408E-01        -0.12469E+00         0.00000E+00
    0.96558E-02        -0.12613E+00         0.00000E+00
    0.76471E-02        -0.12738E+00         0.00000E+00
    0.53679E-02        -0.12840E+00         0.00000E+00
    0.28092E-02        -0.12912E+00         0.00000E+00
    0.00000E+00        -0.12941E+00         0.00000E+00
    0.00000E+00         0.44475E-01         0.00000E+00
    0.32003E-02         0.44103E-01         0.00000E+00
    0.59533E-02         0.43246E-01         0.00000E+00
    0.82792E-02         0.42069E-01         0.00000E+00
    0.10240E-01         0.40655E-01         0.00000E+00
    0.11939E-01         0.39097E-01         0.00000E+00
    0.13447E-01         0.37432E-01         0.00000E+00
    0.14771E-01         0.35697E-01         0.00000E+00
    0.15925E-01         0.33909E-01         0.00000E+00
    0.16925E-01         0.32088E-01         0.00000E+00
    0.17787E-01         0.30244E-01         0.00000E+00
    0.18526E-01         0.28385E-01         0.00000E+00
    0.19156E-01         0.26517E-01         0.00000E+00
    0.19689E-01         0.24642E-01         0.00000E+00
    0.20136E-01         0.22757E-01         0.00000E+00
    0.20507E-01         0.20860E-01         0.00000E+00
    0.20808E-01         0.18946E-01         0.00000E+00
    0.21043E-01         0.17009E-01         0.00000E+00
    0.21216E-01         0.15043E-01         0.00000E+00
    0.21324E-01         0.13042E-01         0.00000E+00
    0.21374E-01         0.10998E-01         0.00000E+00
    0.21386E-01         0.89455E-02         0.00000E+00
    0.21375E-01         0.69105E-02         0.00000E+00
    0.21347E-01         0.48960E-02         0.00000E+00
    0.21305E-01         0.29033E-02         0.00000E+00
    0.21251E-01         0.93341E-03         0.00000E+00
    0.21188E-01        -0.10138E-02         0.00000E+00
    0.21117E-01        -0.29388E-02         0.00000E+00
    0.21040E-01        -0.48423E-02         0.00000E+00
    0.20957E-01        -0.67255E-02         0.00000E+00
    0.20869E-01        -0.85895E-02         0.00000E+00
    0.20778E-01        -0.10436E-01         0.00000E+00
    0.20683E-01        -0.12267E-01         0.00000E+00
    0.20586E-01        -0.14085E-01         0.00000E+00
    0.20487E-01        -0.15894E-01         0.00000E+00
    0.20387E-01        -0.17698E-01         0.00000E+00
    0.20285E-01        -0.19504E-01         0.00000E+00
    0.20183E-01        -0.21327E-01         0.00000E+00
    0.20084E-01        -0.23167E-01         0.00000E+00
    0.19991E-01        -0.25009E-01         0.00000E+00
    0.19902E-01        -0.26849E-01         0.00000E+00
    0.19818E-01        -0.28685E-01         0.00000E+00
    0.19740E-01        -0.30513E-01         0.00000E+00
    0.19667E-01        -0.32335E-01         0.00000E+00
    0.19599E-01        -0.34149E-01         0.00000E+00
    0.19538E-01        -0.35954E-01         0.00000E+00
    0.19483E-01        -0.37752E-01         0.00000E+00
    0.19435E-01        -0.39543E-01         0.00000E+00
    0.19392E-01        -0.41327E-01         0.00000E+00
    0.19356E-01        -0.43105E-01         0.00000E+00
    0.19327E-01        -0.44877E-01         0.00000E+00
    0.19304E-01        -0.46644E-01         0.00000E+00
    0.19287E-01        -0.48406E-01         0.00000E+00
    0.19276E-01        -0.50166E-01         0.00000E+00
    0.19272E-01        -0.51922E-01         0.00000E+00
    0.19273E-01        -0.53677E-01         0.00000E+00
    0.19281E-01        -0.55430E-01         0.00000E+00
    0.19294E-01        -0.57183E-01         0.00000E+00
    0.19313E-01        -0.58937E-01         0.00000E+00
    0.19338E-01        -0.60691E-01         0.00000E+00
    0.19368E-01        -0.62448E-01         0.00000E+00
    0.19403E-01        -0.64206E-01         0.00000E+00
    0.19443E-01        -0.65968E-01         0.00000E+00
    0.19487E-01        -0.67734E-01         0.00000E+00
    0.19535E-01        -0.69505E-01         0.00000E+00
    0.19586E-01        -0.71281E-01         0.00000E+00
    0.19641E-01        -0.73062E-01         0.00000E+00
    0.19698E-01        -0.74850E-01         0.00000E+00
    0.19757E-01        -0.76645E-01         0.00000E+00
    0.19818E-01        -0.78447E-01         0.00000E+00
    0.19878E-01        -0.80257E-01         0.00000E+00
    0.19938E-01        -0.82075E-01         0.00000E+00
    0.19996E-01        -0.83901E-01         0.00000E+00
    0.20051E-01        -0.85737E-01         0.00000E+00
    0.20101E-01        -0.87582E-01         0.00000E+00
    0.20145E-01        -0.89436E-01         0.00000E+00
    0.20180E-01        -0.91301E-01         0.00000E+00
    0.20205E-01        -0.93175E-01         0.00000E+00
    0.20217E-01        -0.95059E-01         0.00000E+00
    0.20212E-01        -0.96954E-01         0.00000E+00
    0.20188E-01        -0.98859E-01         0.00000E+00
    0.20139E-01        -0.10077E+00         0.00000E+00
    0.20061E-01        -0.10270E+00         0.00000E+00
    0.19947E-01        -0.10463E+00         0.00000E+00
    0.19792E-01        -0.10658E+00         0.00000E+00
    0.19585E-01        -0.10853E+00         0.00000E+00
    0.19319E-01        -0.11049E+00         0.00000E+00
    0.18980E-01        -0.11245E+00         0.00000E+00
    0.18557E-01        -0.11440E+00         0.00000E+00
    0.18034E-01        -0.11635E+00         0.00000E+00
    0.17393E-01        -0.11829E+00         0.00000E+00
    0.16615E-01        -0.12019E+00         0.00000E+00
    0.15681E-01        -0.12206E+00         0.00000E+00
    0.14566E-01        -0.12386E+00         0.00000E+00
    0.13250E-01        -0.12558E+00         0.00000E+00
    0.11709E-01        -0.12718E+00         0.00000E+00
    0.99220E-02        -0.12864E+00         0.00000E+00
    0.78696E-02        -0.12991E+00         0.00000E+00
    0.55374E-02        -0.13095E+00         0.00000E+00
    0.29077E-02        -0.13169E+00         0.00000E+00
    0.00000E+00        -0.13201E+00         0.00000E+00
    0.00000E+00         0.45321E-01         0.00000E+00
    0.33340E-02         0.44914E-01         0.00000E+00
    0.61588E-02         0.44062E-01         0.00000E+00
    0.85429E-02         0.42877E-01         0.00000E+00
    0.10542E-01         0.41443E-01         0.00000E+00
    0.12264E-01         0.39863E-01         0.00000E+00
    0.13791E-01         0.38159E-01         0.00000E+00
    0.15127E-01         0.36390E-01         0.00000E+00
    0.16291E-01         0.34567E-01         0.00000E+00
    0.17297E-01         0.32711E-01         0.00000E+00
    0.18163E-01         0.30832E-01         0.00000E+00
    0.18905E-01         0.28939E-01         0.00000E+00
    0.19536E-01         0.27037E-01         0.00000E+00
    0.20072E-01         0.25127E-01         0.00000E+00
    0.20521E-01         0.23208E-01         0.00000E+00
    0.20895E-01         0.21277E-01         0.00000E+00
    0.21200E-01         0.19329E-01         0.00000E+00
    0.21441E-01         0.17359E-01         0.00000E+00
    0.21619E-01         0.15359E-01         0.00000E+00
    0.21736E-01         0.13325E-01         0.00000E+00
    0.21792E-01         0.11246E-01         0.00000E+00
    0.21803E-01         0.91510E-02         0.00000E+00
    0.21788E-01         0.70756E-02         0.00000E+00
    0.21756E-01         0.50201E-02         0.00000E+00
    0.21709E-01         0.29869E-02         0.00000E+00
    0.21651E-01         0.97676E-03         0.00000E+00
    0.21584E-01        -0.10104E-02         0.00000E+00
    0.21508E-01        -0.29750E-02         0.00000E+00
    0.21427E-01        -0.49177E-02         0.00000E+00
    0.21340E-01        -0.68397E-02         0.00000E+00
    0.21249E-01        -0.87423E-02         0.00000E+00
    0.21154E-01        -0.10627E-01         0.00000E+00
    0.21056E-01        -0.12496E-01         0.00000E+00
    0.20957E-01        -0.14352E-01         0.00000E+00
    0.20856E-01        -0.16197E-01         0.00000E+00
    0.20756E-01        -0.18038E-01         0.00000E+00
    0.20656E-01        -0.19880E-01         0.00000E+00
    0.20557E-01        -0.21741E-01         0.00000E+00
    0.20461E-01        -0.23620E-01         0.00000E+00
    0.20367E-01        -0.25502E-01         0.00000E+00
    0.20277E-01        -0.27381E-01         0.00000E+00
    0.20193E-01        -0.29255E-01         0.00000E+00
    0.20113E-01        -0.31122E-01         0.00000E+00
    0.20038E-01        -0.32982E-01         0.00000E+00
    0.19969E-01        -0.34834E-01         0.00000E+00
    0.19907E-01        -0.36677E-01         0.00000E+00
    0.19850E-01        -0.38513E-01         0.00000E+00
    0.19800E-01        -0.40341E-01         0.00000E+00
    0.19757E-01        -0.42162E-01         0.00000E+00
    0.19719E-01        -0.43977E-01         0.00000E+00
    0.19689E-01        -0.45786E-01         0.00000E+00
    0.19665E-01        -0.47589E-01         0.00000E+00
    0.19647E-01        -0.49389E-01         0.00000E+00
    0.19636E-01        -0.51185E-01         0.00000E+00
    0.19631E-01        -0.52978E-01         0.00000E+00
    0.19632E-01        -0.54769E-01         0.00000E+00
    0.19639E-01        -0.56559E-01         0.00000E+00
    0.19653E-01        -0.58349E-01         0.00000E+00
    0.19672E-01        -0.60139E-01         0.00000E+00
    0.19697E-01        -0.61929E-01         0.00000E+00
    0.19727E-01        -0.63722E-01         0.00000E+00
    0.19763E-01        -0.65518E-01         0.00000E+00
    0.19803E-01        -0.67316E-01         0.00000E+00
    0.19848E-01        -0.69119E-01         0.00000E+00
    0.19897E-01        -0.70926E-01         0.00000E+00
    0.19950E-01        -0.72738E-01         0.00000E+00
    0.20006E-01        -0.74557E-01         0.00000E+00
    0.20065E-01        -0.76382E-01         0.00000E+00
    0.20125E-01        -0.78213E-01         0.00000E+00
    0.20187E-01        -0.80052E-01         0.00000E+00
    0.20249E-01        -0.81899E-01         0.00000E+00
    0.20311E-01        -0.83755E-01         0.00000E+00
    0.20370E-01        -0.85619E-01         0.00000E+00
    0.20427E-01        -0.87492E-01         0.00000E+00
    0.20479E-01        -0.89374E-01         0.00000E+00
    0.20525E-01        -0.91266E-01         0.00000E+00
    0.20562E-01        -0.93168E-01         0.00000E+00
    0.20589E-01        -0.95080E-01         0.00000E+00
    0.20603E-01        -0.97002E-01         0.00000E+00
    0.20600E-01        -0.98934E-01         0.00000E+00
    0.20578E-01        -0.10088E+00         0.00000E+00
    0.20531E-01        -0.10283E+00         0.00000E+00
    0.20455E-01        -0.10479E+00         0.00000E+00
    0.20343E-01        -0.10676E+00         0.00000E+00
    0.20189E-01        -0.10874E+00         0.00000E+00
    0.19983E-01        -0.11073E+00         0.00000E+00
    0.19717E-01        -0.11272E+00         0.00000E+00
    0.19379E-01        -0.11472E+00         0.00000E+00
    0.18954E-01        -0.11671E+00         0.00000E+00
    0.18427E-01        -0.11869E+00         0.00000E+00
    0.17782E-01        -0.12065E+00         0.00000E+00
    0.16997E-01        -0.12259E+00         0.00000E+00
    0.16051E-01        -0.12448E+00         0.00000E+00
    0.14921E-01        -0.12631E+00         0.00000E+00
    0.13585E-01        -0.12805E+00         0.00000E+00
    0.12017E-01        -0.12967E+00         0.00000E+00
    0.10196E-01        -0.13115E+00         0.00000E+00
    0.81015E-02        -0.13244E+00         0.00000E+00
    0.57148E-02        -0.13350E+00         0.00000E+00
    0.30205E-02        -0.13424E+00         0.00000E+00
    0.00000E+00        -0.13461E+00         0.00000E+00
CELL_DATA       5000
VECTORS vDarcy double 
    0.41429E-07        -0.18626E-20         0.00000E+00
    0.41410E-07         0.25611E-20         0.00000E+00
    0.41373E-07        -0.93132E-21         0.00000E+00
    0.41319E-07         0.37253E-20         0.00000E+00
    0.41246E-07         0.27940E-20         0.00000E+00
    0.41156E-07        -0.58208E-20         0.00000E+00
    0.41050E-07         0.60536E-20         0.00000E+00
    0.40927E-07        -0.81491E-20         0.00000E+00
    0.40790E-07        -0.81491E-20         0.00000E+00
    0.40638E-07         0.60536E-20         0.00000E+00
    0.40472E-07        -0.27940E-20         0.00000E+00
    0.40294E-07        -0.12107E-19         0.00000E+00
    0.40103E-07        -0.10477E-19         0.00000E+00
    0.39902E-07         0.93132E-21         0.00000E+00
    0.39691E-07         0.86147E-20         0.00000E+00
    0.39470E-07         0.18626E-20         0.00000E+00
    0.39241E-07        -0.97789E-20         0.00000E+00
    0.39005E-07        -0.79162E-20         0.00000E+00
    0.38762E-07        -0.69849E-21         0.00000E+00
    0.38514E-07         0.74506E-20         0.00000E+00
    0.38261E-07         0.23283E-21         0.00000E+00
    0.38005E-07        -0.88476E-20         0.00000E+00
    0.37746E-07        -0.17462E-19         0.00000E+00
    0.37484E-07        -0.41910E-20         0.00000E+00
    0.37222E-07         0.34925E-20         0.00000E+00
    0.36959E-07        -0.93132E-20         0.00000E+00
    0.36697E-07        -0.81491E-20         0.00000E+00
    0.36435E-07        -0.39581E-20         0.00000E+00
    0.36176E-07        -0.44238E-20         0.00000E+00
    0.35919E-07        -0.90804E-20         0.00000E+00
    0.35665E-07         0.44238E-20         0.00000E+00
    0.35416E-07        -0.46566E-20         0.00000E+00
    0.35170E-07        -0.27940E-20         0.00000E+00
    0.34930E-07         0.13039E-19         0.00000E+00
    0.34696E-07         0.41910E-20         0.00000E+00
    0.34467E-07        -0.76834E-20         0.00000E+00
    0.34245E-07        -0.86147E-20         0.00000E+00
    0.34031E-07        -0.41910E-20         0.00000E+00
    0.33823E-07        -0.32596E-20         0.00000E+00
    0.33624E-07         0.00000E+00         0.00000E+00
    0.33433E-07         0.46566E-21         0.00000E+00
    0.33251E-07        -0.79162E-20         0.00000E+00
    0.33077E-07         0.27940E-20         0.00000E+00
    0.32913E-07         0.51223E-20         0.00000E+00
    0.32758E-07        -0.62864E-20         0.00000E+00
    0.32613E-07        -0.69849E-21         0.00000E+00
    0.32478E-07         0.25611E-20         0.00000E+00
    0.32353E-07        -0.79162E-20         0.00000E+00
    0.32238E-07        -0.11874E-19         0.00000E+00
    0.32133E-07        -0.13970E-20         0.00000E+00
    0.32039E-07        -0.25611E-20         0.00000E+00
    0.31955E-07        -0.74506E-20         0.00000E+00
    0.31882E-07         0.60536E-20         0.00000E+00
    0.31819E-07        -0.93132E-21         0.00000E+00
    0.31767E-07        -0.46566E-20         0.00000E+00
    0.31724E-07         0.32596E-20         0.00000E+00
    0.31693E-07        -0.41910E-20         0.00000E+00
    0.31671E-07         0.20955E-20         0.00000E+00
    0.31659E-07         0.90804E-20         0.00000E+00
    0.31658E-07        -0.69849E-21         0.00000E+00
    0.31666E-07        -0.39581E-20         0.00000E+00
    0.31683E-07         0.00000E+00         0.00000E+00
    0.31709E-07        -0.23283E-20         0.00000E+00
    0.31745E-07        -0.32596E-20         0.00000E+00
    0.31789E-07        -0.18626E-20         0.00000E+00
    0.31842E-07        -0.23283E-21         0.00000E+00
    0.31902E-07         0.13970E-20         0.00000E+00
    0.31970E-07         0.11642E-20         0.00000E+00
    0.32045E-07         0.95461E-20         0.00000E+00
    0.32127E-07         0.23283E-20         0.00000E+00
    0.32216E-07        -0.65193E-20         0.00000E+00
    0.32310E-07        -0.11409E-19         0.00000E+00
    0.32410E-07        -0.44238E-20         0.00000E+00
    0.32514E-07        -0.34925E-20         0.00000E+00
    0.32623E-07         0.00000E+00         0.00000E+00
    0.32735E-07        -0.11642E-20         0.00000E+00
    0.32851E-07         0.37253E-20         0.00000E+00
    0.32969E-07         0.16298E-20         0.00000E+00
    0.33089E-07         0.25611E-20         0.00000E+00
    0.33210E-07         0.67521E-20         0.00000E+00
    0.33332E-07         0.53551E-20         0.00000E+00
    0.33454E-07         0.13970E-20         0.00000E+00
    0.33576E-07         0.16298E-20         0.00000E+00
    0.33695E-07         0.16298E-20         0.00000E+00
    0.33813E-07         0.18626E-20         0.00000E+00
    0.33928E-07        -0.13970E-20         0.00000E+00
    0.34040E-07        -0.46566E-21         0.00000E+00
    0.34147E-07         0.32596E-20         0.00000E+00
    0.34250E-07         0.29104E-20         0.00000E+00
    0.34346E-07         0.90804E-20         0.00000E+00
    0.34437E-07         0.62864E-20         0.00000E+00
    0.34521E-07         0.43074E-20         0.00000E+00
    0.34597E-07        -0.15134E-20         0.00000E+00
    0.34666E-07        -0.13970E-20         0.00000E+00
    0.34725E-07        -0.37253E-20         0.00000E+00
    0.34776E-07        -0.48894E-20         0.00000E+00
    0.34817E-07         0.27940E-20         0.00000E+00
    0.34848E-07        -0.22119E-20         0.00000E+00
    0.34869E-07        -0.73342E-20         0.00000E+00
    0.34880E-07        -0.25611E-20         0.00000E+00
    0.41429E-07         0.14901E-19         0.00000E+00
    0.41410E-07         0.15832E-19         0.00000E+00
    0.41373E-07         0.93132E-21         0.00000E+00
    0.41319E-07         0.10245E-19         0.00000E+00
    0.41246E-07         0.15367E-19         0.00000E+00
    0.41156E-07         0.10012E-19         0.00000E+00
    0.41050E-07         0.22352E-19         0.00000E+00
    0.40927E-07         0.14435E-19         0.00000E+00
    0.40790E-07        -0.18626E-20         0.00000E+00
    0.40638E-07        -0.46566E-20         0.00000E+00
    0.40472E-07        -0.23283E-21         0.00000E+00
    0.40294E-07         0.79162E-20         0.00000E+00
    0.40103E-07        -0.46566E-20         0.00000E+00
    0.39902E-07        -0.14435E-19         0.00000E+00
    0.39691E-07         0.20955E-20         0.00000E+00
    0.39470E-07        -0.30268E-20         0.00000E+00
    0.39241E-07        -0.14435E-19         0.00000E+00
    0.39005E-07        -0.12806E-19         0.00000E+00
    0.38762E-07        -0.23283E-20         0.00000E+00
    0.38514E-07         0.15367E-19         0.00000E+00
    0.38261E-07         0.18394E-19         0.00000E+00
    0.38005E-07         0.69849E-20         0.00000E+00
    0.37746E-07        -0.69849E-21         0.00000E+00
    0.37484E-07         0.10245E-19         0.00000E+00
    0.37222E-07         0.51223E-20         0.00000E+00
    0.36959E-07        -0.97789E-20         0.00000E+00
    0.36697E-07        -0.67521E-20         0.00000E+00
    0.36435E-07         0.53551E-20         0.00000E+00
    0.36176E-07        -0.72177E-20         0.00000E+00
    0.35919E-07        -0.11176E-19         0.00000E+00
    0.35665E-07        -0.14668E-19         0.00000E+00
    0.35416E-07        -0.21886E-19         0.00000E+00
    0.35170E-07        -0.11176E-19         0.00000E+00
    0.34930E-07        -0.86147E-20         0.00000E+00
    0.34696E-07        -0.12107E-19         0.00000E+00
    0.34467E-07        -0.11642E-19         0.00000E+00
    0.34245E-07        -0.11176E-19         0.00000E+00
    0.34031E-07        -0.44238E-20         0.00000E+00
    0.33823E-07        -0.41910E-20         0.00000E+00
    0.33624E-07         0.27940E-20         0.00000E+00
    0.33433E-07        -0.69849E-20         0.00000E+00
    0.33251E-07        -0.12107E-19         0.00000E+00
    0.33077E-07        -0.12107E-19         0.00000E+00
    0.32913E-07        -0.14435E-19         0.00000E+00
    0.32758E-07        -0.10012E-19         0.00000E+00
    0.32613E-07        -0.58208E-20         0.00000E+00
    0.32478E-07         0.65193E-20         0.00000E+00
    0.32353E-07        -0.32596E-20         0.00000E+00
    0.32238E-07        -0.13039E-19         0.00000E+00
    0.32133E-07        -0.58208E-20         0.00000E+00
    0.32039E-07        -0.14901E-19         0.00000E+00
    0.31955E-07        -0.13970E-19         0.00000E+00
    0.31882E-07        -0.11642E-19         0.00000E+00
    0.31819E-07        -0.79162E-20         0.00000E+00
    0.31767E-07         0.55879E-20         0.00000E+00
    0.31724E-07         0.46566E-21         0.00000E+00
    0.31693E-07         0.25611E-20         0.00000E+00
    0.31671E-07         0.25611E-20         0.00000E+00
    0.31659E-07        -0.67521E-20         0.00000E+00
    0.31658E-07        -0.41910E-20         0.00000E+00
    0.31666E-07        -0.16298E-20         0.00000E+00
    0.31683E-07        -0.13039E-19         0.00000E+00
    0.31709E-07        -0.20023E-19         0.00000E+00
    0.31745E-07        -0.95461E-20         0.00000E+00
    0.31789E-07        -0.20955E-20         0.00000E+00
    0.31842E-07        -0.67521E-20         0.00000E+00
    0.31902E-07        -0.62864E-20         0.00000E+00
    0.31970E-07         0.69849E-20         0.00000E+00
    0.32045E-07        -0.44238E-20         0.00000E+00
    0.32127E-07        -0.32596E-20         0.00000E+00
    0.32216E-07        -0.51223E-20         0.00000E+00
    0.32310E-07        -0.88476E-20         0.00000E+00
    0.32410E-07        -0.13970E-19         0.00000E+00
    0.32514E-07        -0.15600E-19         0.00000E+00
    0.32623E-07        -0.13504E-19         0.00000E+00
    0.32735E-07        -0.21188E-19         0.00000E+00
    0.32851E-07        -0.11642E-19         0.00000E+00
    0.32969E-07         0.00000E+00         0.00000E+00
    0.33089E-07        -0.60536E-20         0.00000E+00
    0.33210E-07        -0.14901E-19         0.00000E+00
    0.33332E-07        -0.79162E-20         0.00000E+00
    0.33454E-07        -0.93132E-20         0.00000E+00
    0.33576E-07        -0.25611E-20         0.00000E+00
    0.33695E-07         0.46566E-20         0.00000E+00
    0.33813E-07         0.93132E-21         0.00000E+00
    0.33928E-07        -0.67521E-20         0.00000E+00
    0.34040E-07        -0.32596E-20         0.00000E+00
    0.34147E-07        -0.23283E-21         0.00000E+00
    0.34250E-07         0.15134E-20         0.00000E+00
    0.34346E-07         0.69849E-21         0.00000E+00
    0.34437E-07         0.36089E-20         0.00000E+00
    0.34521E-07        -0.43074E-20         0.00000E+00
    0.34597E-07        -0.12806E-20         0.00000E+00
    0.34666E-07         0.29104E-20         0.00000E+00
    0.34725E-07        -0.30268E-20         0.00000E+00
    0.34776E-07        -0.10827E-19         0.00000E+00
    0.34817E-07        -0.86147E-20         0.00000E+00
    0.34848E-07        -0.25611E-20         0.00000E+00
    0.34869E-07         0.13970E-20         0.00000E+00
    0.34880E-07         0.23283E-21         0.00000E+00
    0.41429E-07        -0.13039E-19         0.00000E+00
    0.41410E-07        -0.58208E-20         0.00000E+00
    0.41373E-07         0.22817E-19         0.00000E+00
    0.41319E-07         0.22817E-19         0.00000E+00
    0.41246E-07         0.21188E-19         0.00000E+00
    0.41156E-07         0.19092E-19         0.00000E+00
    0.41050E-07         0.58208E-20         0.00000E+00
    0.40927E-07         0.12573E-19         0.00000E+00
    0.40790E-07        -0.25611E-20         0.00000E+00
    0.40638E-07        -0.90804E-20         0.00000E+00
    0.40472E-07         0.41910E-20         0.00000E+00
    0.40294E-07         0.53551E-20         0.00000E+00
    0.40103E-07         0.11409E-19         0.00000E+00
    0.39902E-07        -0.32596E-20         0.00000E+00
    0.39691E-07        -0.27008E-19         0.00000E+00
    0.39470E-07        -0.97789E-20         0.00000E+00
    0.39241E-07        -0.51223E-20         0.00000E+00
    0.39005E-07        -0.16764E-19         0.00000E+00
    0.38762E-07         0.23283E-21         0.00000E+00
    0.38514E-07         0.22585E-19         0.00000E+00
    0.38261E-07         0.11874E-19         0.00000E+00
    0.38005E-07         0.55879E-20         0.00000E+00
    0.37746E-07         0.20256E-19         0.00000E+00
    0.37484E-07        -0.46566E-20         0.00000E+00
    0.37222E-07        -0.60536E-20         0.00000E+00
    0.36959E-07         0.41910E-20         0.00000E+00
    0.36697E-07        -0.16065E-19         0.00000E+00
    0.36435E-07        -0.14901E-19         0.00000E+00
    0.36176E-07        -0.55879E-20         0.00000E+00
    0.35919E-07        -0.12806E-19         0.00000E+00
    0.35665E-07        -0.22119E-19         0.00000E+00
    0.35416E-07        -0.79162E-20         0.00000E+00
    0.35170E-07        -0.20955E-20         0.00000E+00
    0.34930E-07        -0.16997E-19         0.00000E+00
    0.34696E-07        -0.18626E-20         0.00000E+00
    0.34467E-07         0.27940E-20         0.00000E+00
    0.34245E-07        -0.20722E-19         0.00000E+00
    0.34031E-07        -0.41910E-20         0.00000E+00
    0.33823E-07         0.11642E-20         0.00000E+00
    0.33624E-07         0.11642E-20         0.00000E+00
    0.33433E-07         0.32596E-20         0.00000E+00
    0.33251E-07         0.18626E-20         0.00000E+00
    0.33077E-07         0.39581E-20         0.00000E+00
    0.32913E-07         0.16298E-20         0.00000E+00
    0.32758E-07        -0.53551E-20         0.00000E+00
    0.32613E-07         0.51223E-20         0.00000E+00
    0.32478E-07         0.48894E-20         0.00000E+00
    0.32353E-07        -0.72177E-20         0.00000E+00
    0.32238E-07        -0.62864E-20         0.00000E+00
    0.32133E-07        -0.12806E-19         0.00000E+00
    0.32039E-07        -0.51223E-20         0.00000E+00
    0.31955E-07         0.23283E-21         0.00000E+00
    0.31882E-07        -0.93132E-21         0.00000E+00
    0.31819E-07         0.69849E-21         0.00000E+00
    0.31767E-07        -0.53551E-20         0.00000E+00
    0.31724E-07         0.39581E-20         0.00000E+00
    0.31693E-07         0.16298E-20         0.00000E+00
    0.31671E-07        -0.19558E-19         0.00000E+00
    0.31659E-07        -0.46566E-20         0.00000E+00
    0.31658E-07        -0.93132E-21         0.00000E+00
    0.31666E-07        -0.86147E-20         0.00000E+00
    0.31683E-07        -0.83819E-20         0.00000E+00
    0.31709E-07        -0.69849E-20         0.00000E+00
    0.31745E-07        -0.23283E-21         0.00000E+00
    0.31789E-07        -0.11874E-19         0.00000E+00
    0.31842E-07        -0.13737E-19         0.00000E+00
    0.31902E-07        -0.53551E-20         0.00000E+00
    0.31970E-07        -0.81491E-20         0.00000E+00
    0.32045E-07        -0.13504E-19         0.00000E+00
    0.32127E-07        -0.11642E-20         0.00000E+00
    0.32216E-07         0.48894E-20         0.00000E+00
    0.32310E-07        -0.46566E-20         0.00000E+00
    0.32410E-07        -0.72177E-20         0.00000E+00
    0.32514E-07         0.74506E-20         0.00000E+00
    0.32623E-07         0.46566E-20         0.00000E+00
    0.32735E-07         0.93132E-21         0.00000E+00
    0.32851E-07        -0.44238E-20         0.00000E+00
    0.32969E-07        -0.44238E-20         0.00000E+00
    0.33089E-07        -0.23283E-20         0.00000E+00
    0.33210E-07        -0.32596E-20         0.00000E+00
    0.33332E-07        -0.46566E-20         0.00000E+00
    0.33454E-07        -0.76834E-20         0.00000E+00
    0.33576E-07        -0.90804E-20         0.00000E+00
    0.33695E-07        -0.10245E-19         0.00000E+00
    0.33813E-07         0.11642E-20         0.00000E+00
    0.33928E-07         0.55879E-20         0.00000E+00
    0.34040E-07        -0.11642E-20         0.00000E+00
    0.34147E-07        -0.11642E-20         0.00000E+00
    0.34250E-07         0.10594E-19         0.00000E+00
    0.34346E-07         0.91968E-20         0.00000E+00
    0.34437E-07         0.12340E-19         0.00000E+00
    0.34521E-07         0.71013E-20         0.00000E+00
    0.34597E-07        -0.62864E-20         0.00000E+00
    0.34666E-07        -0.13970E-20         0.00000E+00
    0.34725E-07         0.23283E-20         0.00000E+00
    0.34776E-07         0.10477E-20         0.00000E+00
    0.34817E-07        -0.30268E-20         0.00000E+00
    0.34848E-07         0.11642E-20         0.00000E+00
    0.34869E-07         0.87311E-20         0.00000E+00
    0.34880E-07         0.64028E-20         0.00000E+00
    0.41429E-07         0.13970E-20         0.00000E+00
    0.41410E-07         0.60536E-20         0.00000E+00
    0.41373E-07         0.12107E-19         0.00000E+00
    0.41319E-07         0.11176E-19         0.00000E+00
    0.41246E-07         0.18859E-19         0.00000E+00
    0.41156E-07         0.21188E-19         0.00000E+00
    0.41050E-07         0.72177E-20         0.00000E+00
    0.40927E-07         0.37253E-20         0.00000E+00
    0.40790E-07         0.30268E-20         0.00000E+00
    0.40638E-07        -0.44238E-20         0.00000E+00
    0.40472E-07        -0.11874E-19         0.00000E+00
    0.40294E-07        -0.16997E-19         0.00000E+00
    0.40103E-07         0.11642E-20         0.00000E+00
    0.39902E-07         0.23283E-20         0.00000E+00
    0.39691E-07        -0.13737E-19         0.00000E+00
    0.39470E-07        -0.13737E-19         0.00000E+00
    0.39241E-07        -0.26310E-19         0.00000E+00
    0.39005E-07        -0.17462E-19         0.00000E+00
    0.38762E-07         0.32596E-20         0.00000E+00
    0.38514E-07         0.51223E-20         0.00000E+00
    0.38261E-07         0.15600E-19         0.00000E+00
    0.38005E-07         0.13737E-19         0.00000E+00
    0.37746E-07         0.90804E-20         0.00000E+00
    0.37484E-07        -0.37253E-20         0.00000E+00
    0.37222E-07        -0.69849E-20         0.00000E+00
    0.36959E-07        -0.83819E-20         0.00000E+00
    0.36697E-07        -0.93132E-20         0.00000E+00
    0.36435E-07        -0.24913E-19         0.00000E+00
    0.36176E-07        -0.27241E-19         0.00000E+00
    0.35919E-07        -0.16065E-19         0.00000E+00
    0.35665E-07        -0.20256E-19         0.00000E+00
    0.35416E-07        -0.15367E-19         0.00000E+00
    0.35170E-07         0.53551E-20         0.00000E+00
    0.34930E-07         0.37253E-20         0.00000E+00
    0.34696E-07         0.93132E-21         0.00000E+00
    0.34467E-07        -0.16298E-20         0.00000E+00
    0.34245E-07        -0.13504E-19         0.00000E+00
    0.34031E-07        -0.74506E-20         0.00000E+00
    0.33823E-07         0.60536E-20         0.00000E+00
    0.33624E-07         0.20955E-20         0.00000E+00
    0.33433E-07         0.14435E-19         0.00000E+00
    0.33251E-07         0.13039E-19         0.00000E+00
    0.33077E-07         0.46566E-21         0.00000E+00
    0.32913E-07        -0.51223E-20         0.00000E+00
    0.32758E-07        -0.44238E-20         0.00000E+00
    0.32613E-07         0.13970E-20         0.00000E+00
    0.32478E-07         0.32596E-20         0.00000E+00
    0.32353E-07        -0.46566E-21         0.00000E+00
    0.32238E-07        -0.11409E-19         0.00000E+00
    0.32133E-07        -0.15367E-19         0.00000E+00
    0.32039E-07         0.16298E-20         0.00000E+00
    0.31955E-07        -0.41910E-20         0.00000E+00
    0.31882E-07        -0.37253E-20         0.00000E+00
    0.31819E-07        -0.93132E-20         0.00000E+00
    0.31767E-07        -0.13970E-19         0.00000E+00
    0.31724E-07        -0.20955E-20         0.00000E+00
    0.31693E-07        -0.55879E-20         0.00000E+00
    0.31671E-07        -0.14203E-19         0.00000E+00
    0.31659E-07        -0.67521E-20         0.00000E+00
    0.31658E-07        -0.18626E-20         0.00000E+00
    0.31666E-07        -0.16531E-19         0.00000E+00
    0.31683E-07        -0.15134E-19         0.00000E+00
    0.31709E-07        -0.46566E-21         0.00000E+00
    0.31745E-07        -0.60536E-20         0.00000E+00
    0.31789E-07        -0.83819E-20         0.00000E+00
    0.31842E-07        -0.86147E-20         0.00000E+00
    0.31902E-07        -0.79162E-20         0.00000E+00
    0.31970E-07        -0.81491E-20         0.00000E+00
    0.32045E-07        -0.23283E-21         0.00000E+00
    0.32127E-07         0.69849E-20         0.00000E+00
    0.32216E-07         0.25611E-20         0.00000E+00
    0.32310E-07        -0.81491E-20         0.00000E+00
    0.32410E-07        -0.16531E-19         0.00000E+00
    0.32514E-07        -0.23283E-21         0.00000E+00
    0.32623E-07         0.13970E-20         0.00000E+00
    0.32735E-07        -0.16298E-20         0.00000E+00
    0.32851E-07        -0.37253E-20         0.00000E+00
    0.32969E-07        -0.83819E-20         0.00000E+00
    0.33089E-07         0.67521E-20         0.00000E+00
    0.33210E-07         0.41910E-20         0.00000E+00
    0.33332E-07        -0.67521E-20         0.00000E+00
    0.33454E-07         0.53551E-20         0.00000E+00
    0.33576E-07         0.12806E-19         0.00000E+00
    0.33695E-07         0.93132E-21         0.00000E+00
    0.33813E-07        -0.69849E-20         0.00000E+00
    0.33928E-07         0.93132E-21         0.00000E+00
    0.34040E-07        -0.18626E-20         0.00000E+00
    0.34147E-07        -0.67521E-20         0.00000E+00
    0.34250E-07         0.64028E-20         0.00000E+00
    0.34346E-07         0.55879E-20         0.00000E+00
    0.34437E-07         0.44238E-20         0.00000E+00
    0.34521E-07         0.44238E-20         0.00000E+00
    0.34597E-07         0.11525E-19         0.00000E+00
    0.34666E-07         0.13504E-19         0.00000E+00
    0.34725E-07         0.69849E-20         0.00000E+00
    0.34776E-07         0.60536E-20         0.00000E+00
    0.34817E-07        -0.19791E-20         0.00000E+00
    0.34848E-07         0.11176E-19         0.00000E+00
    0.34869E-07         0.13504E-19         0.00000E+00
    0.34880E-07        -0.10477E-20         0.00000E+00
    0.41429E-07         0.76834E-20         0.00000E+00
    0.41410E-07         0.10710E-19         0.00000E+00
    0.41373E-07         0.10245E-19         0.00000E+00
    0.41319E-07         0.17695E-19         0.00000E+00
    0.41246E-07         0.69849E-20         0.00000E+00
    0.41156E-07         0.16997E-19         0.00000E+00
    0.41050E-07         0.26077E-19         0.00000E+00
    0.40927E-07         0.23050E-19         0.00000E+00
    0.40790E-07         0.14668E-19         0.00000E+00
    0.40638E-07         0.34925E-20         0.00000E+00
    0.40472E-07         0.48894E-20         0.00000E+00
    0.40294E-07        -0.10477E-19         0.00000E+00
    0.40103E-07        -0.97789E-20         0.00000E+00
    0.39902E-07         0.23283E-20         0.00000E+00
    0.39691E-07         0.20955E-20         0.00000E+00
    0.39470E-07         0.00000E+00         0.00000E+00
    0.39241E-07        -0.10943E-19         0.00000E+00
    0.39005E-07         0.93132E-21         0.00000E+00
    0.38762E-07         0.17462E-19         0.00000E+00
    0.38514E-07        -0.15367E-19         0.00000E+00
    0.38261E-07        -0.13737E-19         0.00000E+00
    0.38005E-07        -0.55879E-20         0.00000E+00
    0.37746E-07        -0.11176E-19         0.00000E+00
    0.37484E-07        -0.25611E-20         0.00000E+00
    0.37222E-07        -0.46566E-20         0.00000E+00
    0.36959E-07        -0.46566E-20         0.00000E+00
    0.36697E-07        -0.97789E-20         0.00000E+00
    0.36435E-07        -0.18161E-19         0.00000E+00
    0.36176E-07        -0.16065E-19         0.00000E+00
    0.35919E-07        -0.79162E-20         0.00000E+00
    0.35665E-07        -0.10477E-19         0.00000E+00
    0.35416E-07        -0.58208E-20         0.00000E+00
    0.35170E-07        -0.32596E-20         0.00000E+00
    0.34930E-07         0.00000E+00         0.00000E+00
    0.34696E-07         0.41910E-20         0.00000E+00
    0.34467E-07         0.41910E-20         0.00000E+00
    0.34245E-07         0.23283E-20         0.00000E+00
    0.34031E-07        -0.21188E-19         0.00000E+00
    0.33823E-07        -0.55879E-20         0.00000E+00
    0.33624E-07         0.19092E-19         0.00000E+00
    0.33433E-07         0.11642E-20         0.00000E+00
    0.33251E-07        -0.60536E-20         0.00000E+00
    0.33077E-07        -0.44238E-20         0.00000E+00
    0.32913E-07        -0.76834E-20         0.00000E+00
    0.32758E-07        -0.86147E-20         0.00000E+00
    0.32613E-07         0.44238E-20         0.00000E+00
    0.32478E-07         0.79162E-20         0.00000E+00
    0.32353E-07        -0.27940E-20         0.00000E+00
    0.32238E-07        -0.37253E-20         0.00000E+00
    0.32133E-07         0.23283E-20         0.00000E+00
    0.32039E-07        -0.60536E-20         0.00000E+00
    0.31955E-07        -0.39581E-20         0.00000E+00
    0.31882E-07         0.69849E-20         0.00000E+00
    0.31819E-07        -0.60536E-20         0.00000E+00
    0.31767E-07        -0.11642E-20         0.00000E+00
    0.31724E-07         0.00000E+00         0.00000E+00
    0.31693E-07        -0.12573E-19         0.00000E+00
    0.31671E-07        -0.15832E-19         0.00000E+00
    0.31659E-07        -0.17928E-19         0.00000E+00
    0.31658E-07        -0.13039E-19         0.00000E+00
    0.31666E-07        -0.86147E-20         0.00000E+00
    0.31683E-07        -0.16298E-20         0.00000E+00
    0.31709E-07        -0.27940E-20         0.00000E+00
    0.31745E-07        -0.86147E-20         0.00000E+00
    0.31789E-07        -0.12107E-19         0.00000E+00
    0.31842E-07        -0.60536E-20         0.00000E+00
    0.31902E-07        -0.10012E-19         0.00000E+00
    0.31970E-07        -0.74506E-20         0.00000E+00
    0.32045E-07         0.88476E-20         0.00000E+00
    0.32127E-07         0.93132E-21         0.00000E+00
    0.32216E-07         0.55879E-20         0.00000E+00
    0.32310E-07         0.86147E-20         0.00000E+00
    0.32410E-07         0.23283E-21         0.00000E+00
    0.32514E-07         0.16298E-20         0.00000E+00
    0.32623E-07         0.25611E-20         0.00000E+00
    0.32735E-07         0.69849E-21         0.00000E+00
    0.32851E-07         0.23283E-20         0.00000E+00
    0.32969E-07        -0.62864E-20         0.00000E+00
    0.33089E-07        -0.48894E-20         0.00000E+00
    0.33210E-07         0.37253E-20         0.00000E+00
    0.33332E-07        -0.25611E-20         0.00000E+00
    0.33454E-07         0.18626E-20         0.00000E+00
    0.33576E-07         0.67521E-20         0.00000E+00
    0.33695E-07        -0.16298E-20         0.00000E+00
    0.33813E-07         0.39581E-20         0.00000E+00
    0.33928E-07        -0.11642E-20         0.00000E+00
    0.34040E-07        -0.55879E-20         0.00000E+00
    0.34147E-07         0.45402E-20         0.00000E+00
    0.34250E-07        -0.15134E-20         0.00000E+00
    0.34346E-07        -0.15134E-20         0.00000E+00
    0.34437E-07         0.19791E-20         0.00000E+00
    0.34521E-07         0.29104E-20         0.00000E+00
    0.34597E-07         0.86147E-20         0.00000E+00
    0.34666E-07         0.13271E-19         0.00000E+00
    0.34725E-07         0.20373E-19         0.00000E+00
    0.34776E-07         0.11758E-19         0.00000E+00
    0.34817E-07         0.55879E-20         0.00000E+00
    0.34848E-07         0.69849E-21         0.00000E+00
    0.34869E-07         0.23283E-20         0.00000E+00
    0.34880E-07         0.65193E-20         0.00000E+00
    0.41429E-07         0.10710E-19         0.00000E+00
    0.41410E-07         0.22119E-19         0.00000E+00
    0.41373E-07         0.15832E-19         0.00000E+00
    0.41319E-07         0.86147E-20         0.00000E+00
    0.41246E-07         0.20023E-19         0.00000E+00
    0.41156E-07         0.21188E-19         0.00000E+00
    0.41050E-07         0.26310E-19         0.00000E+00
    0.40927E-07         0.40978E-19         0.00000E+00
    0.40790E-07         0.46799E-19         0.00000E+00
    0.40638E-07         0.10245E-19         0.00000E+00
    0.40472E-07         0.69849E-20         0.00000E+00
    0.40294E-07         0.19791E-19         0.00000E+00
    0.40103E-07        -0.83819E-20         0.00000E+00
    0.39902E-07        -0.97789E-20         0.00000E+00
    0.39691E-07         0.13737E-19         0.00000E+00
    0.39470E-07         0.97789E-20         0.00000E+00
    0.39241E-07         0.93132E-21         0.00000E+00
    0.39005E-07        -0.23283E-20         0.00000E+00
    0.38762E-07        -0.74506E-20         0.00000E+00
    0.38514E-07         0.13970E-20         0.00000E+00
    0.38261E-07         0.97789E-20         0.00000E+00
    0.38005E-07         0.88476E-20         0.00000E+00
    0.37746E-07        -0.55879E-20         0.00000E+00
    0.37484E-07         0.93132E-21         0.00000E+00
    0.37222E-07         0.74506E-20         0.00000E+00
    0.36959E-07         0.13970E-20         0.00000E+00
    0.36697E-07         0.46566E-21         0.00000E+00
    0.36435E-07         0.62864E-20         0.00000E+00
    0.36176E-07        -0.30268E-20         0.00000E+00
    0.35919E-07        -0.23749E-19         0.00000E+00
    0.35665E-07        -0.13970E-19         0.00000E+00
    0.35416E-07        -0.95461E-20         0.00000E+00
    0.35170E-07        -0.93132E-20         0.00000E+00
    0.34930E-07         0.69849E-20         0.00000E+00
    0.34696E-07         0.74506E-20         0.00000E+00
    0.34467E-07         0.23283E-20         0.00000E+00
    0.34245E-07         0.90804E-20         0.00000E+00
    0.34031E-07         0.14668E-19         0.00000E+00
    0.33823E-07         0.60536E-20         0.00000E+00
    0.33624E-07         0.88476E-20         0.00000E+00
    0.33433E-07         0.11874E-19         0.00000E+00
    0.33251E-07        -0.32596E-20         0.00000E+00
    0.33077E-07        -0.41910E-20         0.00000E+00
    0.32913E-07        -0.67521E-20         0.00000E+00
    0.32758E-07         0.27940E-20         0.00000E+00
    0.32613E-07         0.62864E-20         0.00000E+00
    0.32478E-07         0.10943E-19         0.00000E+00
    0.32353E-07         0.83819E-20         0.00000E+00
    0.32238E-07        -0.30268E-20         0.00000E+00
    0.32133E-07        -0.23283E-21         0.00000E+00
    0.32039E-07         0.12573E-19         0.00000E+00
    0.31955E-07         0.97789E-20         0.00000E+00
    0.31882E-07         0.74506E-20         0.00000E+00
    0.31819E-07         0.13970E-20         0.00000E+00
    0.31767E-07        -0.20955E-20         0.00000E+00
    0.31724E-07         0.93132E-21         0.00000E+00
    0.31693E-07        -0.34925E-20         0.00000E+00
    0.31671E-07         0.69849E-21         0.00000E+00
    0.31659E-07         0.20955E-20         0.00000E+00
    0.31658E-07        -0.12340E-19         0.00000E+00
    0.31666E-07        -0.15600E-19         0.00000E+00
    0.31683E-07        -0.10710E-19         0.00000E+00
    0.31709E-07        -0.15367E-19         0.00000E+00
    0.31745E-07        -0.81491E-20         0.00000E+00
    0.31789E-07        -0.97789E-20         0.00000E+00
    0.31842E-07        -0.86147E-20         0.00000E+00
    0.31902E-07         0.95461E-20         0.00000E+00
    0.31970E-07         0.12573E-19         0.00000E+00
    0.32045E-07         0.13970E-19         0.00000E+00
    0.32127E-07         0.10710E-19         0.00000E+00
    0.32216E-07        -0.13970E-20         0.00000E+00
    0.32310E-07         0.37253E-20         0.00000E+00
    0.32410E-07         0.11176E-19         0.00000E+00
    0.32514E-07         0.41910E-20         0.00000E+00
    0.32623E-07         0.16531E-19         0.00000E+00
    0.32735E-07         0.16531E-19         0.00000E+00
    0.32851E-07         0.79162E-20         0.00000E+00
    0.32969E-07         0.13737E-19         0.00000E+00
    0.33089E-07         0.10245E-19         0.00000E+00
    0.33210E-07         0.12806E-19         0.00000E+00
    0.33332E-07         0.18626E-19         0.00000E+00
    0.33454E-07         0.55879E-20         0.00000E+00
    0.33576E-07         0.17229E-19         0.00000E+00
    0.33695E-07         0.26077E-19         0.00000E+00
    0.33813E-07         0.21653E-19         0.00000E+00
    0.33928E-07         0.10477E-19         0.00000E+00
    0.34040E-07         0.74506E-20         0.00000E+00
    0.34147E-07         0.20489E-19         0.00000E+00
    0.34250E-07         0.58208E-20         0.00000E+00
    0.34346E-07         0.43074E-20         0.00000E+00
    0.34437E-07         0.54715E-20         0.00000E+00
    0.34521E-07        -0.15134E-20         0.00000E+00
    0.34597E-07         0.31432E-20         0.00000E+00
    0.34666E-07         0.12573E-19         0.00000E+00
    0.34725E-07         0.18394E-19         0.00000E+00
    0.34776E-07         0.18859E-19         0.00000E+00
    0.34817E-07         0.18394E-19         0.00000E+00
    0.34848E-07         0.67521E-20         0.00000E+00
    0.34869E-07         0.19791E-20         0.00000E+00
    0.34880E-07         0.18626E-20         0.00000E+00
    0.41429E-07        -0.55879E-20         0.00000E+00
    0.41410E-07         0.55879E-20         0.00000E+00
    0.41373E-07         0.20489E-19         0.00000E+00
    0.41319E-07         0.20023E-19         0.00000E+00
    0.41246E-07         0.22817E-19         0.00000E+00
    0.41156E-07         0.17928E-19         0.00000E+00
    0.41050E-07         0.30268E-19         0.00000E+00
    0.40927E-07         0.43772E-19         0.00000E+00
    0.40790E-07         0.29337E-19         0.00000E+00
    0.40638E-07         0.44238E-20         0.00000E+00
    0.40472E-07         0.13271E-19         0.00000E+00
    0.40294E-07         0.21188E-19         0.00000E+00
    0.40103E-07         0.25146E-19         0.00000E+00
    0.39902E-07         0.14435E-19         0.00000E+00
    0.39691E-07        -0.69849E-21         0.00000E+00
    0.39470E-07         0.51223E-20         0.00000E+00
    0.39241E-07        -0.19092E-19         0.00000E+00
    0.39005E-07        -0.15600E-19         0.00000E+00
    0.38762E-07        -0.12806E-19         0.00000E+00
    0.38514E-07        -0.69849E-20         0.00000E+00
    0.38261E-07         0.17462E-19         0.00000E+00
    0.38005E-07         0.13039E-19         0.00000E+00
    0.37746E-07        -0.23283E-21         0.00000E+00
    0.37484E-07         0.13970E-20         0.00000E+00
    0.37222E-07         0.37253E-20         0.00000E+00
    0.36959E-07         0.32596E-20         0.00000E+00
    0.36697E-07         0.93132E-20         0.00000E+00
    0.36435E-07         0.12340E-19         0.00000E+00
    0.36176E-07        -0.76834E-20         0.00000E+00
    0.35919E-07        -0.14901E-19         0.00000E+00
    0.35665E-07        -0.60536E-20         0.00000E+00
    0.35416E-07         0.44238E-20         0.00000E+00
    0.35170E-07         0.53551E-20         0.00000E+00
    0.34930E-07         0.41910E-20         0.00000E+00
    0.34696E-07         0.14435E-19         0.00000E+00
    0.34467E-07         0.15367E-19         0.00000E+00
    0.34245E-07         0.16997E-19         0.00000E+00
    0.34031E-07         0.41910E-20         0.00000E+00
    0.33823E-07         0.46566E-21         0.00000E+00
    0.33624E-07         0.15367E-19         0.00000E+00
    0.33433E-07         0.16298E-19         0.00000E+00
    0.33251E-07         0.67521E-20         0.00000E+00
    0.33077E-07         0.27940E-20         0.00000E+00
    0.32913E-07         0.74506E-20         0.00000E+00
    0.32758E-07         0.14901E-19         0.00000E+00
    0.32613E-07         0.21886E-19         0.00000E+00
    0.32478E-07         0.65193E-20         0.00000E+00
    0.32353E-07        -0.86147E-20         0.00000E+00
    0.32238E-07        -0.12806E-19         0.00000E+00
    0.32133E-07         0.25611E-20         0.00000E+00
    0.32039E-07         0.13271E-19         0.00000E+00
    0.31955E-07         0.51223E-20         0.00000E+00
    0.31882E-07         0.65193E-20         0.00000E+00
    0.31819E-07         0.15367E-19         0.00000E+00
    0.31767E-07         0.17229E-19         0.00000E+00
    0.31724E-07         0.18626E-20         0.00000E+00
    0.31693E-07         0.23283E-21         0.00000E+00
    0.31671E-07         0.46566E-20         0.00000E+00
    0.31659E-07         0.30268E-20         0.00000E+00
    0.31658E-07        -0.46566E-20         0.00000E+00
    0.31666E-07         0.93132E-21         0.00000E+00
    0.31683E-07        -0.74506E-20         0.00000E+00
    0.31709E-07        -0.13504E-19         0.00000E+00
    0.31745E-07         0.46566E-21         0.00000E+00
    0.31789E-07        -0.72177E-20         0.00000E+00
    0.31842E-07        -0.58208E-20         0.00000E+00
    0.31902E-07        -0.48894E-20         0.00000E+00
    0.31970E-07         0.81491E-20         0.00000E+00
    0.32045E-07         0.93132E-20         0.00000E+00
    0.32127E-07         0.16298E-20         0.00000E+00
    0.32216E-07         0.27940E-20         0.00000E+00
    0.32310E-07        -0.11642E-20         0.00000E+00
    0.32410E-07         0.25611E-20         0.00000E+00
    0.32514E-07         0.90804E-20         0.00000E+00
    0.32623E-07         0.13504E-19         0.00000E+00
    0.32735E-07         0.14203E-19         0.00000E+00
    0.32851E-07         0.60536E-20         0.00000E+00
    0.32969E-07         0.10710E-19         0.00000E+00
    0.33089E-07         0.11176E-19         0.00000E+00
    0.33210E-07         0.13271E-19         0.00000E+00
    0.33332E-07         0.18626E-20         0.00000E+00
    0.33454E-07        -0.58208E-20         0.00000E+00
    0.33576E-07         0.10477E-19         0.00000E+00
    0.33695E-07         0.28871E-19         0.00000E+00
    0.33813E-07         0.20489E-19         0.00000E+00
    0.33928E-07         0.34925E-20         0.00000E+00
    0.34040E-07         0.46566E-21         0.00000E+00
    0.34147E-07         0.24447E-20         0.00000E+00
    0.34250E-07         0.61700E-20         0.00000E+00
    0.34346E-07         0.10827E-19         0.00000E+00
    0.34437E-07         0.12107E-19         0.00000E+00
    0.34521E-07         0.10710E-19         0.00000E+00
    0.34597E-07         0.79162E-20         0.00000E+00
    0.34666E-07         0.95461E-20         0.00000E+00
    0.34725E-07         0.15949E-19         0.00000E+00
    0.34776E-07         0.15716E-19         0.00000E+00
    0.34817E-07         0.45402E-20         0.00000E+00
    0.34848E-07         0.12107E-19         0.00000E+00
    0.34869E-07         0.11059E-19         0.00000E+00
    0.34880E-07         0.46566E-21         0.00000E+00
    0.41429E-07         0.25611E-19         0.00000E+00
    0.41410E-07         0.34692E-19         0.00000E+00
    0.41373E-07         0.27474E-19         0.00000E+00
    0.41319E-07         0.26077E-19         0.00000E+00
    0.41246E-07         0.30268E-19         0.00000E+00
    0.41156E-07         0.18394E-19         0.00000E+00
    0.41050E-07         0.27707E-19         0.00000E+00
    0.40927E-07         0.23283E-19         0.00000E+00
    0.40790E-07         0.25611E-20         0.00000E+00
    0.40638E-07         0.11874E-19         0.00000E+00
    0.40472E-07         0.11409E-19         0.00000E+00
    0.40294E-07         0.16997E-19         0.00000E+00
    0.40103E-07         0.10710E-19         0.00000E+00
    0.39902E-07        -0.32596E-20         0.00000E+00
    0.39691E-07        -0.19325E-19         0.00000E+00
    0.39470E-07        -0.39581E-20         0.00000E+00
    0.39241E-07         0.23283E-19         0.00000E+00
    0.39005E-07         0.93132E-21         0.00000E+00
    0.38762E-07        -0.95461E-20         0.00000E+00
    0.38514E-07         0.51223E-20         0.00000E+00
    0.38261E-07         0.19325E-19         0.00000E+00
    0.38005E-07         0.12107E-19         0.00000E+00
    0.37746E-07        -0.37253E-20         0.00000E+00
    0.37484E-07         0.13970E-19         0.00000E+00
    0.37222E-07         0.21886E-19         0.00000E+00
    0.36959E-07         0.15832E-19         0.00000E+00
    0.36697E-07         0.34925E-20         0.00000E+00
    0.36435E-07         0.41910E-20         0.00000E+00
    0.36176E-07         0.16298E-20         0.00000E+00
    0.35919E-07        -0.16531E-19         0.00000E+00
    0.35665E-07        -0.20256E-19         0.00000E+00
    0.35416E-07         0.18626E-20         0.00000E+00
    0.35170E-07         0.95461E-20         0.00000E+00
    0.34930E-07         0.13970E-20         0.00000E+00
    0.34696E-07         0.13970E-20         0.00000E+00
    0.34467E-07         0.14203E-19         0.00000E+00
    0.34245E-07         0.86147E-20         0.00000E+00
    0.34031E-07        -0.55879E-20         0.00000E+00
    0.33823E-07         0.41910E-20         0.00000E+00
    0.33624E-07         0.23283E-20         0.00000E+00
    0.33433E-07         0.67521E-20         0.00000E+00
    0.33251E-07         0.79162E-20         0.00000E+00
    0.33077E-07        -0.23283E-20         0.00000E+00
    0.32913E-07        -0.13970E-20         0.00000E+00
    0.32758E-07        -0.27940E-20         0.00000E+00
    0.32613E-07        -0.69849E-20         0.00000E+00
    0.32478E-07        -0.58208E-20         0.00000E+00
    0.32353E-07         0.65193E-20         0.00000E+00
    0.32238E-07         0.37253E-20         0.00000E+00
    0.32133E-07         0.69849E-20         0.00000E+00
    0.32039E-07         0.90804E-20         0.00000E+00
    0.31955E-07        -0.13970E-20         0.00000E+00
    0.31882E-07        -0.41910E-20         0.00000E+00
    0.31819E-07         0.55879E-20         0.00000E+00
    0.31767E-07         0.93132E-20         0.00000E+00
    0.31724E-07        -0.55879E-20         0.00000E+00
    0.31693E-07        -0.81491E-20         0.00000E+00
    0.31671E-07        -0.11176E-19         0.00000E+00
    0.31659E-07        -0.14668E-19         0.00000E+00
    0.31658E-07        -0.14435E-19         0.00000E+00
    0.31666E-07        -0.95461E-20         0.00000E+00
    0.31683E-07        -0.12107E-19         0.00000E+00
    0.31709E-07         0.93132E-21         0.00000E+00
    0.31745E-07         0.95461E-20         0.00000E+00
    0.31789E-07        -0.41910E-20         0.00000E+00
    0.31842E-07        -0.67521E-20         0.00000E+00
    0.31902E-07         0.46566E-20         0.00000E+00
    0.31970E-07         0.11642E-20         0.00000E+00
    0.32045E-07        -0.20955E-20         0.00000E+00
    0.32127E-07         0.27940E-20         0.00000E+00
    0.32216E-07         0.12107E-19         0.00000E+00
    0.32310E-07         0.19558E-19         0.00000E+00
    0.32410E-07         0.22352E-19         0.00000E+00
    0.32514E-07         0.20256E-19         0.00000E+00
    0.32623E-07         0.22817E-19         0.00000E+00
    0.32735E-07         0.18161E-19         0.00000E+00
    0.32851E-07         0.15367E-19         0.00000E+00
    0.32969E-07         0.16997E-19         0.00000E+00
    0.33089E-07         0.11874E-19         0.00000E+00
    0.33210E-07         0.69849E-20         0.00000E+00
    0.33332E-07        -0.93132E-21         0.00000E+00
    0.33454E-07         0.53551E-20         0.00000E+00
    0.33576E-07         0.17695E-19         0.00000E+00
    0.33695E-07         0.29802E-19         0.00000E+00
    0.33813E-07         0.34925E-19         0.00000E+00
    0.33928E-07         0.22119E-19         0.00000E+00
    0.34040E-07         0.16065E-19         0.00000E+00
    0.34147E-07         0.21886E-19         0.00000E+00
    0.34250E-07         0.14668E-19         0.00000E+00
    0.34346E-07         0.15716E-19         0.00000E+00
    0.34437E-07         0.12689E-19         0.00000E+00
    0.34521E-07         0.13039E-19         0.00000E+00
    0.34597E-07         0.21886E-19         0.00000E+00
    0.34666E-07         0.14552E-19         0.00000E+00
    0.34725E-07         0.21537E-19         0.00000E+00
    0.34776E-07         0.26426E-19         0.00000E+00
    0.34817E-07         0.26077E-19         0.00000E+00
    0.34848E-07         0.11991E-19         0.00000E+00
    0.34869E-07         0.18626E-20         0.00000E+00
    0.34880E-07        -0.26776E-20         0.00000E+00
    0.41429E-07         0.97789E-20         0.00000E+00
    0.41410E-07         0.35390E-19         0.00000E+00
    0.41373E-07         0.47963E-19         0.00000E+00
    0.41319E-07         0.34925E-19         0.00000E+00
    0.41246E-07         0.45169E-19         0.00000E+00
    0.41156E-07         0.53784E-19         0.00000E+00
    0.41050E-07         0.22585E-19         0.00000E+00
    0.40927E-07         0.93132E-20         0.00000E+00
    0.40790E-07         0.90804E-20         0.00000E+00
    0.40638E-07         0.90804E-20         0.00000E+00
    0.40472E-07         0.37253E-20         0.00000E+00
    0.40294E-07        -0.27940E-20         0.00000E+00
    0.40103E-07        -0.11409E-19         0.00000E+00
    0.39902E-07        -0.44238E-20         0.00000E+00
    0.39691E-07        -0.79162E-20         0.00000E+00
    0.39470E-07        -0.27474E-19         0.00000E+00
    0.39241E-07        -0.19325E-19         0.00000E+00
    0.39005E-07        -0.10245E-19         0.00000E+00
    0.38762E-07        -0.95461E-20         0.00000E+00
    0.38514E-07         0.18626E-20         0.00000E+00
    0.38261E-07         0.69849E-21         0.00000E+00
    0.38005E-07        -0.65193E-20         0.00000E+00
    0.37746E-07         0.16764E-19         0.00000E+00
    0.37484E-07         0.16065E-19         0.00000E+00
    0.37222E-07         0.72177E-20         0.00000E+00
    0.36959E-07         0.18626E-20         0.00000E+00
    0.36697E-07        -0.32596E-20         0.00000E+00
    0.36435E-07         0.10245E-19         0.00000E+00
    0.36176E-07         0.25611E-20         0.00000E+00
    0.35919E-07        -0.69849E-20         0.00000E+00
    0.35665E-07         0.11642E-20         0.00000E+00
    0.35416E-07         0.81491E-20         0.00000E+00
    0.35170E-07        -0.23283E-21         0.00000E+00
    0.34930E-07        -0.58208E-20         0.00000E+00
    0.34696E-07         0.79162E-20         0.00000E+00
    0.34467E-07         0.20955E-19         0.00000E+00
    0.34245E-07         0.18859E-19         0.00000E+00
    0.34031E-07         0.14901E-19         0.00000E+00
    0.33823E-07         0.93132E-20         0.00000E+00
    0.33624E-07        -0.51223E-20         0.00000E+00
    0.33433E-07         0.83819E-20         0.00000E+00
    0.33251E-07         0.16764E-19         0.00000E+00
    0.33077E-07         0.93132E-20         0.00000E+00
    0.32913E-07        -0.72177E-20         0.00000E+00
    0.32758E-07        -0.11874E-19         0.00000E+00
    0.32613E-07        -0.32596E-20         0.00000E+00
    0.32478E-07        -0.14435E-19         0.00000E+00
    0.32353E-07        -0.27940E-20         0.00000E+00
    0.32238E-07         0.14668E-19         0.00000E+00
    0.32133E-07         0.19092E-19         0.00000E+00
    0.32039E-07         0.14203E-19         0.00000E+00
    0.31955E-07         0.14203E-19         0.00000E+00
    0.31882E-07         0.11642E-19         0.00000E+00
    0.31819E-07         0.18161E-19         0.00000E+00
    0.31767E-07         0.11176E-19         0.00000E+00
    0.31724E-07         0.11642E-19         0.00000E+00
    0.31693E-07         0.16298E-19         0.00000E+00
    0.31671E-07         0.32596E-20         0.00000E+00
    0.31659E-07         0.62864E-20         0.00000E+00
    0.31658E-07         0.34925E-20         0.00000E+00
    0.31666E-07        -0.20955E-20         0.00000E+00
    0.31683E-07         0.18626E-20         0.00000E+00
    0.31709E-07        -0.27940E-20         0.00000E+00
    0.31745E-07        -0.16298E-20         0.00000E+00
    0.31789E-07        -0.25611E-20         0.00000E+00
    0.31842E-07        -0.53551E-20         0.00000E+00
    0.31902E-07         0.12573E-19         0.00000E+00
    0.31970E-07         0.22119E-19         0.00000E+00
    0.32045E-07         0.12340E-19         0.00000E+00
    0.32127E-07         0.24214E-19         0.00000E+00
    0.32216E-07         0.21886E-19         0.00000E+00
    0.32310E-07         0.18394E-19         0.00000E+00
    0.32410E-07         0.15600E-19         0.00000E+00
    0.32514E-07         0.11642E-19         0.00000E+00
    0.32623E-07         0.21420E-19         0.00000E+00
    0.32735E-07         0.20489E-19         0.00000E+00
    0.32851E-07         0.15367E-19         0.00000E+00
    0.32969E-07         0.22585E-19         0.00000E+00
    0.33089E-07         0.14435E-19         0.00000E+00
    0.33210E-07         0.16764E-19         0.00000E+00
    0.33332E-07         0.20256E-19         0.00000E+00
    0.33454E-07         0.22817E-19         0.00000E+00
    0.33576E-07         0.21188E-19         0.00000E+00
    0.33695E-07         0.25146E-19         0.00000E+00
    0.33813E-07         0.28405E-19         0.00000E+00
    0.33928E-07         0.25844E-19         0.00000E+00
    0.34040E-07         0.20256E-19         0.00000E+00
    0.34147E-07         0.81491E-20         0.00000E+00
    0.34250E-07         0.12224E-19         0.00000E+00
    0.34346E-07         0.15832E-19         0.00000E+00
    0.34437E-07         0.20606E-19         0.00000E+00
    0.34521E-07         0.15250E-19         0.00000E+00
    0.34597E-07         0.10943E-19         0.00000E+00
    0.34666E-07         0.22468E-19         0.00000E+00
    0.34725E-07         0.19558E-19         0.00000E+00
    0.34776E-07         0.24680E-19         0.00000E+00
    0.34817E-07         0.12806E-19         0.00000E+00
    0.34848E-07        -0.46566E-21         0.00000E+00
    0.34869E-07         0.98953E-20         0.00000E+00
    0.34880E-07         0.91968E-20         0.00000E+00
    0.41429E-07        -0.93132E-20         0.00000E+00
    0.41410E-07         0.15600E-19         0.00000E+00
    0.41373E-07         0.50291E-19         0.00000E+00
    0.41319E-07         0.40513E-19         0.00000E+00
    0.41246E-07         0.34925E-19         0.00000E+00
    0.41156E-07         0.47730E-19         0.00000E+00
    0.41050E-07         0.50524E-19         0.00000E+00
    0.40927E-07         0.31199E-19         0.00000E+00
    0.40790E-07         0.11642E-19         0.00000E+00
    0.40638E-07         0.12573E-19         0.00000E+00
    0.40472E-07         0.40745E-19         0.00000E+00
    0.40294E-07         0.35856E-19         0.00000E+00
    0.40103E-07         0.17462E-19         0.00000E+00
    0.39902E-07         0.10477E-19         0.00000E+00
    0.39691E-07        -0.16298E-20         0.00000E+00
    0.39470E-07        -0.10710E-19         0.00000E+00
    0.39241E-07         0.93132E-21         0.00000E+00
    0.39005E-07        -0.90804E-20         0.00000E+00
    0.38762E-07         0.93132E-21         0.00000E+00
    0.38514E-07         0.20489E-19         0.00000E+00
    0.38261E-07         0.15832E-19         0.00000E+00
    0.38005E-07        -0.41910E-20         0.00000E+00
    0.37746E-07         0.13504E-19         0.00000E+00
    0.37484E-07         0.27474E-19         0.00000E+00
    0.37222E-07         0.79162E-20         0.00000E+00
    0.36959E-07         0.10012E-19         0.00000E+00
    0.36697E-07         0.51223E-20         0.00000E+00
    0.36435E-07        -0.13504E-19         0.00000E+00
    0.36176E-07        -0.11409E-19         0.00000E+00
    0.35919E-07        -0.74506E-20         0.00000E+00
    0.35665E-07        -0.27940E-20         0.00000E+00
    0.35416E-07         0.46566E-20         0.00000E+00
    0.35170E-07         0.10245E-19         0.00000E+00
    0.34930E-07         0.14901E-19         0.00000E+00
    0.34696E-07         0.11176E-19         0.00000E+00
    0.34467E-07         0.44238E-20         0.00000E+00
    0.34245E-07         0.15832E-19         0.00000E+00
    0.34031E-07         0.18626E-19         0.00000E+00
    0.33823E-07         0.14901E-19         0.00000E+00
    0.33624E-07         0.11874E-19         0.00000E+00
    0.33433E-07         0.12340E-19         0.00000E+00
    0.33251E-07         0.22817E-19         0.00000E+00
    0.33077E-07         0.22817E-19         0.00000E+00
    0.32913E-07         0.13039E-19         0.00000E+00
    0.32758E-07         0.12340E-19         0.00000E+00
    0.32613E-07        -0.37253E-20         0.00000E+00
    0.32478E-07         0.69849E-21         0.00000E+00
    0.32353E-07         0.30734E-19         0.00000E+00
    0.32238E-07         0.97789E-20         0.00000E+00
    0.32133E-07         0.34925E-20         0.00000E+00
    0.32039E-07         0.11642E-19         0.00000E+00
    0.31955E-07         0.60536E-20         0.00000E+00
    0.31882E-07         0.46566E-20         0.00000E+00
    0.31819E-07         0.11874E-19         0.00000E+00
    0.31767E-07         0.15367E-19         0.00000E+00
    0.31724E-07         0.22585E-19         0.00000E+00
    0.31693E-07         0.29569E-19         0.00000E+00
    0.31671E-07         0.11642E-19         0.00000E+00
    0.31659E-07        -0.60536E-20         0.00000E+00
    0.31658E-07        -0.19325E-19         0.00000E+00
    0.31666E-07        -0.26077E-19         0.00000E+00
    0.31683E-07        -0.10245E-19         0.00000E+00
    0.31709E-07         0.83819E-20         0.00000E+00
    0.31745E-07         0.69849E-21         0.00000E+00
    0.31789E-07         0.23283E-20         0.00000E+00
    0.31842E-07         0.18859E-19         0.00000E+00
    0.31902E-07         0.20023E-19         0.00000E+00
    0.31970E-07         0.11176E-19         0.00000E+00
    0.32045E-07         0.12340E-19         0.00000E+00
    0.32127E-07         0.15367E-19         0.00000E+00
    0.32216E-07         0.13039E-19         0.00000E+00
    0.32310E-07         0.81491E-20         0.00000E+00
    0.32410E-07         0.28638E-19         0.00000E+00
    0.32514E-07         0.33528E-19         0.00000E+00
    0.32623E-07         0.27008E-19         0.00000E+00
    0.32735E-07         0.33062E-19         0.00000E+00
    0.32851E-07         0.40047E-19         0.00000E+00
    0.32969E-07         0.30501E-19         0.00000E+00
    0.33089E-07         0.18626E-19         0.00000E+00
    0.33210E-07         0.93132E-20         0.00000E+00
    0.33332E-07         0.20722E-19         0.00000E+00
    0.33454E-07         0.31898E-19         0.00000E+00
    0.33576E-07         0.17229E-19         0.00000E+00
    0.33695E-07         0.14668E-19         0.00000E+00
    0.33813E-07         0.17229E-19         0.00000E+00
    0.33928E-07         0.13737E-19         0.00000E+00
    0.34040E-07         0.12806E-19         0.00000E+00
    0.34147E-07         0.22002E-19         0.00000E+00
    0.34250E-07         0.21537E-19         0.00000E+00
    0.34346E-07         0.12573E-19         0.00000E+00
    0.34437E-07         0.11525E-19         0.00000E+00
    0.34521E-07         0.86147E-20         0.00000E+00
    0.34597E-07         0.57044E-20         0.00000E+00
    0.34666E-07         0.14203E-19         0.00000E+00
    0.34725E-07         0.22934E-19         0.00000E+00
    0.34776E-07         0.13970E-19         0.00000E+00
    0.34817E-07         0.36089E-20         0.00000E+00
    0.34848E-07        -0.12806E-20         0.00000E+00
    0.34869E-07         0.47730E-20         0.00000E+00
    0.34880E-07         0.96625E-20         0.00000E+00
    0.41429E-07         0.18626E-19         0.00000E+00
    0.41410E-07         0.45868E-19         0.00000E+00
    0.41373E-07         0.47963E-19         0.00000E+00
    0.41319E-07         0.57742E-19         0.00000E+00
    0.41246E-07         0.44471E-19         0.00000E+00
    0.41156E-07         0.26543E-19         0.00000E+00
    0.41050E-07         0.30035E-19         0.00000E+00
    0.40927E-07         0.14435E-19         0.00000E+00
    0.40790E-07         0.15134E-19         0.00000E+00
    0.40638E-07         0.13970E-19         0.00000E+00
    0.40472E-07         0.15600E-19         0.00000E+00
    0.40294E-07         0.12340E-19         0.00000E+00
    0.40103E-07         0.16531E-19         0.00000E+00
    0.39902E-07         0.31199E-19         0.00000E+00
    0.39691E-07         0.21653E-19         0.00000E+00
    0.39470E-07         0.25611E-20         0.00000E+00
    0.39241E-07         0.34925E-20         0.00000E+00
    0.39005E-07         0.00000E+00         0.00000E+00
    0.38762E-07         0.13737E-19         0.00000E+00
    0.38514E-07         0.22119E-19         0.00000E+00
    0.38261E-07         0.17928E-19         0.00000E+00
    0.38005E-07         0.28173E-19         0.00000E+00
    0.37746E-07         0.30035E-19         0.00000E+00
    0.37484E-07         0.27008E-19         0.00000E+00
    0.37222E-07         0.24680E-19         0.00000E+00
    0.36959E-07         0.23749E-19         0.00000E+00
    0.36697E-07         0.20256E-19         0.00000E+00
    0.36435E-07        -0.23283E-21         0.00000E+00
    0.36176E-07         0.11642E-20         0.00000E+00
    0.35919E-07         0.13970E-19         0.00000E+00
    0.35665E-07         0.11874E-19         0.00000E+00
    0.35416E-07         0.69849E-20         0.00000E+00
    0.35170E-07         0.13970E-19         0.00000E+00
    0.34930E-07         0.13970E-19         0.00000E+00
    0.34696E-07         0.14901E-19         0.00000E+00
    0.34467E-07         0.19791E-19         0.00000E+00
    0.34245E-07         0.30268E-19         0.00000E+00
    0.34031E-07         0.30966E-19         0.00000E+00
    0.33823E-07         0.10245E-19         0.00000E+00
    0.33624E-07         0.16764E-19         0.00000E+00
    0.33433E-07         0.31199E-19         0.00000E+00
    0.33251E-07         0.36322E-19         0.00000E+00
    0.33077E-07         0.23283E-19         0.00000E+00
    0.32913E-07         0.41910E-20         0.00000E+00
    0.32758E-07         0.32596E-20         0.00000E+00
    0.32613E-07         0.11176E-19         0.00000E+00
    0.32478E-07         0.67521E-20         0.00000E+00
    0.32353E-07         0.11874E-19         0.00000E+00
    0.32238E-07         0.31199E-19         0.00000E+00
    0.32133E-07         0.34925E-19         0.00000E+00
    0.32039E-07         0.31898E-19         0.00000E+00
    0.31955E-07         0.32596E-19         0.00000E+00
    0.31882E-07         0.24913E-19         0.00000E+00
    0.31819E-07         0.25611E-19         0.00000E+00
    0.31767E-07         0.24680E-19         0.00000E+00
    0.31724E-07         0.13970E-19         0.00000E+00
    0.31693E-07         0.12107E-19         0.00000E+00
    0.31671E-07         0.60536E-20         0.00000E+00
    0.31659E-07         0.11642E-20         0.00000E+00
    0.31658E-07         0.46566E-20         0.00000E+00
    0.31666E-07         0.69849E-20         0.00000E+00
    0.31683E-07         0.93132E-20         0.00000E+00
    0.31709E-07         0.97789E-20         0.00000E+00
    0.31745E-07         0.27940E-20         0.00000E+00
    0.31789E-07         0.83819E-20         0.00000E+00
    0.31842E-07         0.15134E-19         0.00000E+00
    0.31902E-07         0.17695E-19         0.00000E+00
    0.31970E-07         0.55879E-20         0.00000E+00
    0.32045E-07         0.15367E-19         0.00000E+00
    0.32127E-07         0.12573E-19         0.00000E+00
    0.32216E-07         0.13039E-19         0.00000E+00
    0.32310E-07         0.17462E-19         0.00000E+00
    0.32410E-07         0.17462E-19         0.00000E+00
    0.32514E-07         0.34459E-19         0.00000E+00
    0.32623E-07         0.50291E-19         0.00000E+00
    0.32735E-07         0.46333E-19         0.00000E+00
    0.32851E-07         0.36322E-19         0.00000E+00
    0.32969E-07         0.38883E-19         0.00000E+00
    0.33089E-07         0.20023E-19         0.00000E+00
    0.33210E-07         0.25611E-19         0.00000E+00
    0.33332E-07         0.24913E-19         0.00000E+00
    0.33454E-07         0.21188E-19         0.00000E+00
    0.33576E-07         0.30035E-19         0.00000E+00
    0.33695E-07         0.20489E-19         0.00000E+00
    0.33813E-07         0.23050E-19         0.00000E+00
    0.33928E-07         0.32596E-19         0.00000E+00
    0.34040E-07         0.26543E-19         0.00000E+00
    0.34147E-07         0.25146E-19         0.00000E+00
    0.34250E-07         0.25844E-19         0.00000E+00
    0.34346E-07         0.20489E-19         0.00000E+00
    0.34437E-07         0.28173E-19         0.00000E+00
    0.34521E-07         0.28289E-19         0.00000E+00
    0.34597E-07         0.20955E-19         0.00000E+00
    0.34666E-07         0.23050E-19         0.00000E+00
    0.34725E-07         0.22934E-19         0.00000E+00
    0.34776E-07         0.58208E-20         0.00000E+00
    0.34817E-07        -0.48894E-20         0.00000E+00
    0.34848E-07         0.60536E-20         0.00000E+00
    0.34869E-07         0.10361E-19         0.00000E+00
    0.34880E-07        -0.12806E-20         0.00000E+00
    0.41429E-07         0.16298E-19         0.00000E+00
    0.41410E-07         0.17695E-19         0.00000E+00
    0.41373E-07         0.22817E-19         0.00000E+00
    0.41319E-07         0.60536E-19         0.00000E+00
    0.41246E-07         0.41677E-19         0.00000E+00
    0.41156E-07         0.29104E-19         0.00000E+00
    0.41050E-07         0.41677E-19         0.00000E+00
    0.40927E-07         0.15367E-19         0.00000E+00
    0.40790E-07         0.39814E-19         0.00000E+00
    0.40638E-07         0.64494E-19         0.00000E+00
    0.40472E-07         0.36089E-19         0.00000E+00
    0.40294E-07         0.27241E-19         0.00000E+00
    0.40103E-07         0.30734E-19         0.00000E+00
    0.39902E-07         0.27241E-19         0.00000E+00
    0.39691E-07         0.22817E-19         0.00000E+00
    0.39470E-07         0.23283E-19         0.00000E+00
    0.39241E-07         0.27241E-19         0.00000E+00
    0.39005E-07         0.11176E-19         0.00000E+00
    0.38762E-07         0.32596E-20         0.00000E+00
    0.38514E-07         0.10710E-19         0.00000E+00
    0.38261E-07         0.34925E-20         0.00000E+00
    0.38005E-07         0.88476E-20         0.00000E+00
    0.37746E-07         0.21653E-19         0.00000E+00
    0.37484E-07         0.12573E-19         0.00000E+00
    0.37222E-07         0.10710E-19         0.00000E+00
    0.36959E-07         0.14901E-19         0.00000E+00
    0.36697E-07         0.41910E-20         0.00000E+00
    0.36435E-07        -0.58208E-20         0.00000E+00
    0.36176E-07        -0.74506E-20         0.00000E+00
    0.35919E-07        -0.11642E-20         0.00000E+00
    0.35665E-07         0.15134E-19         0.00000E+00
    0.35416E-07         0.12573E-19         0.00000E+00
    0.35170E-07         0.83819E-20         0.00000E+00
    0.34930E-07         0.11176E-19         0.00000E+00
    0.34696E-07         0.14435E-19         0.00000E+00
    0.34467E-07         0.31199E-19         0.00000E+00
    0.34245E-07         0.24214E-19         0.00000E+00
    0.34031E-07         0.21188E-19         0.00000E+00
    0.33823E-07         0.22817E-19         0.00000E+00
    0.33624E-07         0.22817E-19         0.00000E+00
    0.33433E-07         0.51223E-20         0.00000E+00
    0.33251E-07         0.18161E-19         0.00000E+00
    0.33077E-07         0.21420E-19         0.00000E+00
    0.32913E-07         0.41910E-20         0.00000E+00
    0.32758E-07        -0.34925E-20         0.00000E+00
    0.32613E-07        -0.53551E-20         0.00000E+00
    0.32478E-07        -0.44238E-20         0.00000E+00
    0.32353E-07        -0.46566E-20         0.00000E+00
    0.32238E-07         0.13970E-20         0.00000E+00
    0.32133E-07         0.00000E+00         0.00000E+00
    0.32039E-07         0.15600E-19         0.00000E+00
    0.31955E-07         0.33528E-19         0.00000E+00
    0.31882E-07         0.27474E-19         0.00000E+00
    0.31819E-07         0.27474E-19         0.00000E+00
    0.31767E-07         0.13039E-19         0.00000E+00
    0.31724E-07         0.93132E-21         0.00000E+00
    0.31693E-07         0.14668E-19         0.00000E+00
    0.31671E-07        -0.16298E-20         0.00000E+00
    0.31659E-07        -0.79162E-20         0.00000E+00
    0.31658E-07         0.88476E-20         0.00000E+00
    0.31666E-07         0.16298E-20         0.00000E+00
    0.31683E-07         0.13970E-20         0.00000E+00
    0.31709E-07         0.20955E-20         0.00000E+00
    0.31745E-07         0.55879E-20         0.00000E+00
    0.31789E-07         0.14203E-19         0.00000E+00
    0.31842E-07         0.14203E-19         0.00000E+00
    0.31902E-07         0.24913E-19         0.00000E+00
    0.31970E-07         0.20955E-19         0.00000E+00
    0.32045E-07         0.48894E-20         0.00000E+00
    0.32127E-07         0.97789E-20         0.00000E+00
    0.32216E-07         0.13970E-19         0.00000E+00
    0.32310E-07         0.93132E-21         0.00000E+00
    0.32410E-07         0.76834E-20         0.00000E+00
    0.32514E-07         0.30501E-19         0.00000E+00
    0.32623E-07         0.45402E-19         0.00000E+00
    0.32735E-07         0.42142E-19         0.00000E+00
    0.32851E-07         0.28871E-19         0.00000E+00
    0.32969E-07         0.33760E-19         0.00000E+00
    0.33089E-07         0.32131E-19         0.00000E+00
    0.33210E-07         0.27008E-19         0.00000E+00
    0.33332E-07         0.29569E-19         0.00000E+00
    0.33454E-07         0.30966E-19         0.00000E+00
    0.33576E-07         0.28173E-19         0.00000E+00
    0.33695E-07         0.40513E-19         0.00000E+00
    0.33813E-07         0.27707E-19         0.00000E+00
    0.33928E-07         0.34226E-19         0.00000E+00
    0.34040E-07         0.46100E-19         0.00000E+00
    0.34147E-07         0.34110E-19         0.00000E+00
    0.34250E-07         0.28173E-19         0.00000E+00
    0.34346E-07         0.18859E-19         0.00000E+00
    0.34437E-07         0.20023E-19         0.00000E+00
    0.34521E-07         0.26426E-19         0.00000E+00
    0.34597E-07         0.22119E-19         0.00000E+00
    0.34666E-07         0.20140E-19         0.00000E+00
    0.34725E-07         0.22002E-19         0.00000E+00
    0.34776E-07         0.11991E-19         0.00000E+00
    0.34817E-07         0.12806E-19         0.00000E+00
    0.34848E-07         0.11525E-19         0.00000E+00
    0.34869E-07         0.15134E-20         0.00000E+00
    0.34880E-07        -0.19791E-20         0.00000E+00
    0.41429E-07         0.88476E-20         0.00000E+00
    0.41410E-07         0.11874E-19         0.00000E+00
    0.41373E-07         0.20489E-19         0.00000E+00
    0.41319E-07         0.32829E-19         0.00000E+00
    0.41246E-07         0.38184E-19         0.00000E+00
    0.41156E-07         0.24680E-19         0.00000E+00
    0.41050E-07         0.44238E-19         0.00000E+00
    0.40927E-07         0.67288E-19         0.00000E+00
    0.40790E-07         0.33528E-19         0.00000E+00
    0.40638E-07         0.29569E-19         0.00000E+00
    0.40472E-07         0.28638E-19         0.00000E+00
    0.40294E-07         0.21188E-19         0.00000E+00
    0.40103E-07         0.18859E-19         0.00000E+00
    0.39902E-07         0.74506E-20         0.00000E+00
    0.39691E-07         0.30035E-19         0.00000E+00
    0.39470E-07         0.25844E-19         0.00000E+00
    0.39241E-07         0.11874E-19         0.00000E+00
    0.39005E-07        -0.11642E-20         0.00000E+00
    0.38762E-07        -0.97789E-20         0.00000E+00
    0.38514E-07         0.79162E-20         0.00000E+00
    0.38261E-07         0.16298E-20         0.00000E+00
    0.38005E-07        -0.30268E-20         0.00000E+00
    0.37746E-07         0.24680E-19         0.00000E+00
    0.37484E-07         0.34692E-19         0.00000E+00
    0.37222E-07         0.27008E-19         0.00000E+00
    0.36959E-07         0.22817E-19         0.00000E+00
    0.36697E-07         0.37253E-20         0.00000E+00
    0.36435E-07        -0.29802E-19         0.00000E+00
    0.36176E-07        -0.17928E-19         0.00000E+00
    0.35919E-07         0.55879E-20         0.00000E+00
    0.35665E-07        -0.34925E-20         0.00000E+00
    0.35416E-07        -0.90804E-20         0.00000E+00
    0.35170E-07        -0.76834E-20         0.00000E+00
    0.34930E-07         0.20955E-20         0.00000E+00
    0.34696E-07        -0.25611E-20         0.00000E+00
    0.34467E-07         0.83819E-20         0.00000E+00
    0.34245E-07         0.13504E-19         0.00000E+00
    0.34031E-07        -0.93132E-21         0.00000E+00
    0.33823E-07         0.46566E-21         0.00000E+00
    0.33624E-07         0.65193E-20         0.00000E+00
    0.33433E-07         0.12573E-19         0.00000E+00
    0.33251E-07         0.14435E-19         0.00000E+00
    0.33077E-07         0.37253E-20         0.00000E+00
    0.32913E-07        -0.44238E-20         0.00000E+00
    0.32758E-07        -0.20955E-20         0.00000E+00
    0.32613E-07        -0.76834E-20         0.00000E+00
    0.32478E-07        -0.26077E-19         0.00000E+00
    0.32353E-07        -0.16298E-19         0.00000E+00
    0.32238E-07         0.15832E-19         0.00000E+00
    0.32133E-07         0.22585E-19         0.00000E+00
    0.32039E-07         0.16065E-19         0.00000E+00
    0.31955E-07         0.18161E-19         0.00000E+00
    0.31882E-07         0.15832E-19         0.00000E+00
    0.31819E-07         0.53551E-20         0.00000E+00
    0.31767E-07         0.23283E-20         0.00000E+00
    0.31724E-07         0.41910E-20         0.00000E+00
    0.31693E-07        -0.18626E-20         0.00000E+00
    0.31671E-07         0.65193E-20         0.00000E+00
    0.31659E-07         0.62864E-20         0.00000E+00
    0.31658E-07        -0.17229E-19         0.00000E+00
    0.31666E-07        -0.29104E-19         0.00000E+00
    0.31683E-07        -0.83819E-20         0.00000E+00
    0.31709E-07        -0.46566E-20         0.00000E+00
    0.31745E-07        -0.10245E-19         0.00000E+00
    0.31789E-07        -0.86147E-20         0.00000E+00
    0.31842E-07        -0.20955E-20         0.00000E+00
    0.31902E-07        -0.74506E-20         0.00000E+00
    0.31970E-07        -0.93132E-21         0.00000E+00
    0.32045E-07         0.60536E-20         0.00000E+00
    0.32127E-07        -0.37253E-20         0.00000E+00
    0.32216E-07        -0.32596E-20         0.00000E+00
    0.32310E-07         0.12107E-19         0.00000E+00
    0.32410E-07         0.88476E-20         0.00000E+00
    0.32514E-07         0.21653E-19         0.00000E+00
    0.32623E-07         0.37253E-19         0.00000E+00
    0.32735E-07         0.17928E-19         0.00000E+00
    0.32851E-07         0.17229E-19         0.00000E+00
    0.32969E-07         0.33062E-19         0.00000E+00
    0.33089E-07         0.28405E-19         0.00000E+00
    0.33210E-07         0.14435E-19         0.00000E+00
    0.33332E-07         0.22585E-19         0.00000E+00
    0.33454E-07         0.26543E-19         0.00000E+00
    0.33576E-07         0.17695E-19         0.00000E+00
    0.33695E-07         0.14435E-19         0.00000E+00
    0.33813E-07         0.20955E-19         0.00000E+00
    0.33928E-07         0.36787E-19         0.00000E+00
    0.34040E-07         0.36322E-19         0.00000E+00
    0.34147E-07         0.19092E-19         0.00000E+00
    0.34250E-07         0.12922E-19         0.00000E+00
    0.34346E-07         0.23982E-19         0.00000E+00
    0.34437E-07         0.37486E-19         0.00000E+00
    0.34521E-07         0.40396E-19         0.00000E+00
    0.34597E-07         0.36089E-19         0.00000E+00
    0.34666E-07         0.23516E-19         0.00000E+00
    0.34725E-07         0.87311E-20         0.00000E+00
    0.34776E-07         0.10710E-19         0.00000E+00
    0.34817E-07         0.13737E-19         0.00000E+00
    0.34848E-07         0.90804E-20         0.00000E+00
    0.34869E-07         0.23283E-21         0.00000E+00
    0.34880E-07        -0.38417E-20         0.00000E+00
    0.41429E-07        -0.10943E-19         0.00000E+00
    0.41410E-07        -0.37253E-20         0.00000E+00
    0.41373E-07         0.34925E-19         0.00000E+00
    0.41319E-07         0.45868E-19         0.00000E+00
    0.41246E-07         0.50990E-19         0.00000E+00
    0.41156E-07         0.57742E-19         0.00000E+00
    0.41050E-07         0.34226E-19         0.00000E+00
    0.40927E-07         0.37719E-19         0.00000E+00
    0.40790E-07         0.54017E-19         0.00000E+00
    0.40638E-07         0.16531E-19         0.00000E+00
    0.40472E-07         0.28405E-19         0.00000E+00
    0.40294E-07         0.42375E-19         0.00000E+00
    0.40103E-07         0.22352E-19         0.00000E+00
    0.39902E-07         0.28173E-19         0.00000E+00
    0.39691E-07         0.18394E-19         0.00000E+00
    0.39470E-07         0.17462E-19         0.00000E+00
    0.39241E-07         0.23749E-19         0.00000E+00
    0.39005E-07         0.51223E-20         0.00000E+00
    0.38762E-07         0.13271E-19         0.00000E+00
    0.38514E-07         0.31199E-19         0.00000E+00
    0.38261E-07         0.17462E-19         0.00000E+00
    0.38005E-07         0.22352E-19         0.00000E+00
    0.37746E-07         0.19325E-19         0.00000E+00
    0.37484E-07         0.15600E-19         0.00000E+00
    0.37222E-07         0.21886E-19         0.00000E+00
    0.36959E-07         0.17229E-19         0.00000E+00
    0.36697E-07         0.46566E-20         0.00000E+00
    0.36435E-07        -0.11176E-19         0.00000E+00
    0.36176E-07        -0.20955E-20         0.00000E+00
    0.35919E-07         0.58208E-20         0.00000E+00
    0.35665E-07         0.13970E-19         0.00000E+00
    0.35416E-07         0.16997E-19         0.00000E+00
    0.35170E-07         0.83819E-20         0.00000E+00
    0.34930E-07        -0.41910E-20         0.00000E+00
    0.34696E-07         0.15832E-19         0.00000E+00
    0.34467E-07         0.23982E-19         0.00000E+00
    0.34245E-07         0.19092E-19         0.00000E+00
    0.34031E-07         0.29104E-19         0.00000E+00
    0.33823E-07         0.27940E-19         0.00000E+00
    0.33624E-07         0.19791E-19         0.00000E+00
    0.33433E-07         0.20722E-19         0.00000E+00
    0.33251E-07         0.27241E-19         0.00000E+00
    0.33077E-07         0.19325E-19         0.00000E+00
    0.32913E-07         0.14668E-19         0.00000E+00
    0.32758E-07         0.69849E-20         0.00000E+00
    0.32613E-07         0.30268E-20         0.00000E+00
    0.32478E-07         0.97789E-20         0.00000E+00
    0.32353E-07        -0.69849E-21         0.00000E+00
    0.32238E-07         0.95461E-20         0.00000E+00
    0.32133E-07         0.23283E-19         0.00000E+00
    0.32039E-07         0.13737E-19         0.00000E+00
    0.31955E-07         0.83819E-20         0.00000E+00
    0.31882E-07         0.14435E-19         0.00000E+00
    0.31819E-07         0.15367E-19         0.00000E+00
    0.31767E-07         0.23749E-19         0.00000E+00
    0.31724E-07         0.35157E-19         0.00000E+00
    0.31693E-07         0.14203E-19         0.00000E+00
    0.31671E-07         0.37253E-20         0.00000E+00
    0.31659E-07         0.20955E-20         0.00000E+00
    0.31658E-07        -0.18626E-19         0.00000E+00
    0.31666E-07         0.37253E-20         0.00000E+00
    0.31683E-07         0.12340E-19         0.00000E+00
    0.31709E-07        -0.65193E-20         0.00000E+00
    0.31745E-07         0.46566E-21         0.00000E+00
    0.31789E-07         0.17462E-19         0.00000E+00
    0.31842E-07         0.72177E-20         0.00000E+00
    0.31902E-07        -0.11642E-19         0.00000E+00
    0.31970E-07         0.25611E-20         0.00000E+00
    0.32045E-07         0.25611E-19         0.00000E+00
    0.32127E-07         0.16298E-19         0.00000E+00
    0.32216E-07         0.10245E-19         0.00000E+00
    0.32310E-07         0.86147E-20         0.00000E+00
    0.32410E-07         0.23283E-19         0.00000E+00
    0.32514E-07         0.25146E-19         0.00000E+00
    0.32623E-07         0.13737E-19         0.00000E+00
    0.32735E-07         0.23050E-19         0.00000E+00
    0.32851E-07         0.39116E-19         0.00000E+00
    0.32969E-07         0.25611E-19         0.00000E+00
    0.33089E-07         0.14901E-19         0.00000E+00
    0.33210E-07         0.11409E-19         0.00000E+00
    0.33332E-07         0.65193E-20         0.00000E+00
    0.33454E-07         0.11409E-19         0.00000E+00
    0.33576E-07         0.10245E-19         0.00000E+00
    0.33695E-07         0.25611E-20         0.00000E+00
    0.33813E-07         0.27707E-19         0.00000E+00
    0.33928E-07         0.43074E-19         0.00000E+00
    0.34040E-07         0.27940E-19         0.00000E+00
    0.34147E-07         0.27707E-19         0.00000E+00
    0.34250E-07         0.22119E-19         0.00000E+00
    0.34346E-07         0.90804E-20         0.00000E+00
    0.34437E-07         0.10594E-19         0.00000E+00
    0.34521E-07         0.26892E-19         0.00000E+00
    0.34597E-07         0.28056E-19         0.00000E+00
    0.34666E-07         0.32946E-19         0.00000E+00
    0.34725E-07         0.19791E-19         0.00000E+00
    0.34776E-07         0.10245E-19         0.00000E+00
    0.34817E-07         0.24680E-19         0.00000E+00
    0.34848E-07         0.20023E-19         0.00000E+00
    0.34869E-07         0.59372E-20         0.00000E+00
    0.34880E-07         0.22119E-20         0.00000E+00
    0.41429E-07         0.18161E-19         0.00000E+00
    0.41410E-07         0.57509E-19         0.00000E+00
    0.41373E-07         0.46566E-19         0.00000E+00
    0.41319E-07         0.23283E-19         0.00000E+00
    0.41246E-07         0.32131E-19         0.00000E+00
    0.41156E-07         0.43074E-19         0.00000E+00
    0.41050E-07         0.51921E-19         0.00000E+00
    0.40927E-07         0.53318E-19         0.00000E+00
    0.40790E-07         0.57276E-19         0.00000E+00
    0.40638E-07         0.36554E-19         0.00000E+00
    0.40472E-07         0.24913E-19         0.00000E+00
    0.40294E-07         0.20722E-19         0.00000E+00
    0.40103E-07         0.17462E-19         0.00000E+00
    0.39902E-07         0.14901E-19         0.00000E+00
    0.39691E-07         0.18161E-19         0.00000E+00
    0.39470E-07         0.39581E-20         0.00000E+00
    0.39241E-07        -0.17462E-19         0.00000E+00
    0.39005E-07         0.41910E-20         0.00000E+00
    0.38762E-07         0.26543E-19         0.00000E+00
    0.38514E-07         0.19092E-19         0.00000E+00
    0.38261E-07         0.13271E-19         0.00000E+00
    0.38005E-07         0.23749E-19         0.00000E+00
    0.37746E-07         0.90804E-20         0.00000E+00
    0.37484E-07         0.39581E-20         0.00000E+00
    0.37222E-07         0.00000E+00         0.00000E+00
    0.36959E-07         0.65193E-20         0.00000E+00
    0.36697E-07         0.13039E-19         0.00000E+00
    0.36435E-07         0.11409E-19         0.00000E+00
    0.36176E-07        -0.69849E-21         0.00000E+00
    0.35919E-07        -0.51223E-20         0.00000E+00
    0.35665E-07         0.48894E-20         0.00000E+00
    0.35416E-07        -0.53551E-20         0.00000E+00
    0.35170E-07         0.13970E-20         0.00000E+00
    0.34930E-07         0.24214E-19         0.00000E+00
    0.34696E-07         0.22817E-19         0.00000E+00
    0.34467E-07         0.41910E-20         0.00000E+00
    0.34245E-07         0.18161E-19         0.00000E+00
    0.34031E-07         0.27707E-19         0.00000E+00
    0.33823E-07         0.22817E-19         0.00000E+00
    0.33624E-07         0.23982E-19         0.00000E+00
    0.33433E-07         0.19791E-19         0.00000E+00
    0.33251E-07         0.19092E-19         0.00000E+00
    0.33077E-07         0.14901E-19         0.00000E+00
    0.32913E-07         0.25611E-20         0.00000E+00
    0.32758E-07         0.23283E-21         0.00000E+00
    0.32613E-07         0.76834E-20         0.00000E+00
    0.32478E-07         0.11642E-19         0.00000E+00
    0.32353E-07         0.15134E-19         0.00000E+00
    0.32238E-07         0.44238E-20         0.00000E+00
    0.32133E-07         0.13271E-19         0.00000E+00
    0.32039E-07         0.11642E-19         0.00000E+00
    0.31955E-07         0.79162E-20         0.00000E+00
    0.31882E-07         0.19558E-19         0.00000E+00
    0.31819E-07         0.31665E-19         0.00000E+00
    0.31767E-07         0.19558E-19         0.00000E+00
    0.31724E-07         0.13970E-20         0.00000E+00
    0.31693E-07         0.16997E-19         0.00000E+00
    0.31671E-07         0.16997E-19         0.00000E+00
    0.31659E-07        -0.23283E-21         0.00000E+00
    0.31658E-07        -0.74506E-20         0.00000E+00
    0.31666E-07        -0.16997E-19         0.00000E+00
    0.31683E-07        -0.69849E-21         0.00000E+00
    0.31709E-07         0.27940E-20         0.00000E+00
    0.31745E-07         0.23283E-21         0.00000E+00
    0.31789E-07         0.93132E-21         0.00000E+00
    0.31842E-07        -0.23283E-21         0.00000E+00
    0.31902E-07         0.12573E-19         0.00000E+00
    0.31970E-07         0.13039E-19         0.00000E+00
    0.32045E-07         0.18394E-19         0.00000E+00
    0.32127E-07         0.13039E-19         0.00000E+00
    0.32216E-07        -0.51223E-20         0.00000E+00
    0.32310E-07         0.15600E-19         0.00000E+00
    0.32410E-07         0.34226E-19         0.00000E+00
    0.32514E-07         0.27008E-19         0.00000E+00
    0.32623E-07         0.21420E-19         0.00000E+00
    0.32735E-07         0.21188E-19         0.00000E+00
    0.32851E-07         0.37719E-19         0.00000E+00
    0.32969E-07         0.35623E-19         0.00000E+00
    0.33089E-07         0.86147E-20         0.00000E+00
    0.33210E-07         0.13504E-19         0.00000E+00
    0.33332E-07         0.29802E-19         0.00000E+00
    0.33454E-07         0.30734E-19         0.00000E+00
    0.33576E-07         0.22585E-19         0.00000E+00
    0.33695E-07         0.28871E-19         0.00000E+00
    0.33813E-07         0.32596E-19         0.00000E+00
    0.33928E-07         0.29337E-19         0.00000E+00
    0.34040E-07         0.17928E-19         0.00000E+00
    0.34147E-07         0.11059E-19         0.00000E+00
    0.34250E-07         0.20489E-19         0.00000E+00
    0.34346E-07         0.22235E-19         0.00000E+00
    0.34437E-07         0.25146E-19         0.00000E+00
    0.34521E-07         0.29220E-19         0.00000E+00
    0.34597E-07         0.25146E-19         0.00000E+00
    0.34666E-07         0.16997E-19         0.00000E+00
    0.34725E-07         0.98953E-20         0.00000E+00
    0.34776E-07         0.19325E-19         0.00000E+00
    0.34817E-07         0.24680E-19         0.00000E+00
    0.34848E-07         0.30268E-20         0.00000E+00
    0.34869E-07        -0.11642E-21         0.00000E+00
    0.34880E-07         0.41910E-20         0.00000E+00
    0.41429E-07         0.14435E-19         0.00000E+00
    0.41410E-07         0.28173E-19         0.00000E+00
    0.41373E-07         0.48894E-19         0.00000E+00
    0.41319E-07         0.46566E-19         0.00000E+00
    0.41246E-07         0.32131E-19         0.00000E+00
    0.41156E-07         0.45868E-19         0.00000E+00
    0.41050E-07         0.33295E-19         0.00000E+00
    0.40927E-07         0.18626E-19         0.00000E+00
    0.40790E-07         0.37020E-19         0.00000E+00
    0.40638E-07         0.32829E-19         0.00000E+00
    0.40472E-07         0.14668E-19         0.00000E+00
    0.40294E-07         0.37486E-19         0.00000E+00
    0.40103E-07         0.46799E-19         0.00000E+00
    0.39902E-07         0.14668E-19         0.00000E+00
    0.39691E-07         0.13271E-19         0.00000E+00
    0.39470E-07         0.34692E-19         0.00000E+00
    0.39241E-07         0.17462E-19         0.00000E+00
    0.39005E-07         0.37486E-19         0.00000E+00
    0.38762E-07         0.51688E-19         0.00000E+00
    0.38514E-07         0.10245E-19         0.00000E+00
    0.38261E-07         0.26776E-19         0.00000E+00
    0.38005E-07         0.35157E-19         0.00000E+00
    0.37746E-07         0.14901E-19         0.00000E+00
    0.37484E-07        -0.83819E-20         0.00000E+00
    0.37222E-07         0.44238E-20         0.00000E+00
    0.36959E-07         0.14901E-19         0.00000E+00
    0.36697E-07         0.69849E-20         0.00000E+00
    0.36435E-07        -0.16298E-20         0.00000E+00
    0.36176E-07         0.81491E-20         0.00000E+00
    0.35919E-07         0.83819E-20         0.00000E+00
    0.35665E-07         0.69849E-21         0.00000E+00
    0.35416E-07         0.11642E-20         0.00000E+00
    0.35170E-07         0.34925E-20         0.00000E+00
    0.34930E-07         0.69849E-20         0.00000E+00
    0.34696E-07         0.37253E-20         0.00000E+00
    0.34467E-07        -0.30268E-20         0.00000E+00
    0.34245E-07         0.46566E-21         0.00000E+00
    0.34031E-07         0.44238E-20         0.00000E+00
    0.33823E-07         0.15832E-19         0.00000E+00
    0.33624E-07         0.30501E-19         0.00000E+00
    0.33433E-07         0.20489E-19         0.00000E+00
    0.33251E-07         0.11409E-19         0.00000E+00
    0.33077E-07         0.10245E-19         0.00000E+00
    0.32913E-07         0.30268E-20         0.00000E+00
    0.32758E-07         0.11642E-20         0.00000E+00
    0.32613E-07        -0.11409E-19         0.00000E+00
    0.32478E-07        -0.37616E-36         0.00000E+00
    0.32353E-07         0.95461E-20         0.00000E+00
    0.32238E-07         0.81491E-20         0.00000E+00
    0.32133E-07         0.74506E-20         0.00000E+00
    0.32039E-07        -0.34925E-20         0.00000E+00
    0.31955E-07         0.46566E-20         0.00000E+00
    0.31882E-07         0.27940E-20         0.00000E+00
    0.31819E-07        -0.93132E-21         0.00000E+00
    0.31767E-07        -0.88476E-20         0.00000E+00
    0.31724E-07         0.20955E-20         0.00000E+00
    0.31693E-07         0.14668E-19         0.00000E+00
    0.31671E-07         0.60536E-20         0.00000E+00
    0.31659E-07        -0.24214E-19         0.00000E+00
    0.31658E-07        -0.14668E-19         0.00000E+00
    0.31666E-07        -0.23283E-20         0.00000E+00
    0.31683E-07        -0.32596E-20         0.00000E+00
    0.31709E-07        -0.11642E-19         0.00000E+00
    0.31745E-07        -0.20256E-19         0.00000E+00
    0.31789E-07        -0.79162E-20         0.00000E+00
    0.31842E-07        -0.95461E-20         0.00000E+00
    0.31902E-07         0.13970E-20         0.00000E+00
    0.31970E-07         0.20955E-19         0.00000E+00
    0.32045E-07         0.19325E-19         0.00000E+00
    0.32127E-07         0.21420E-19         0.00000E+00
    0.32216E-07         0.27241E-19         0.00000E+00
    0.32310E-07         0.29337E-19         0.00000E+00
    0.32410E-07         0.29802E-19         0.00000E+00
    0.32514E-07         0.33528E-19         0.00000E+00
    0.32623E-07         0.22352E-19         0.00000E+00
    0.32735E-07         0.20955E-19         0.00000E+00
    0.32851E-07         0.36322E-19         0.00000E+00
    0.32969E-07         0.30734E-19         0.00000E+00
    0.33089E-07         0.29569E-19         0.00000E+00
    0.33210E-07         0.36322E-19         0.00000E+00
    0.33332E-07         0.23982E-19         0.00000E+00
    0.33454E-07         0.76834E-20         0.00000E+00
    0.33576E-07         0.88476E-20         0.00000E+00
    0.33695E-07         0.26543E-19         0.00000E+00
    0.33813E-07         0.41910E-19         0.00000E+00
    0.33928E-07         0.32363E-19         0.00000E+00
    0.34040E-07         0.21653E-19         0.00000E+00
    0.34147E-07         0.20838E-19         0.00000E+00
    0.34250E-07         0.26426E-19         0.00000E+00
    0.34346E-07         0.12922E-19         0.00000E+00
    0.34437E-07         0.19325E-19         0.00000E+00
    0.34521E-07         0.23632E-19         0.00000E+00
    0.34597E-07         0.13970E-20         0.00000E+00
    0.34666E-07         0.14435E-19         0.00000E+00
    0.34725E-07         0.12922E-19         0.00000E+00
    0.34776E-07         0.98953E-20         0.00000E+00
    0.34817E-07         0.14086E-19         0.00000E+00
    0.34848E-07         0.86147E-20         0.00000E+00
    0.34869E-07         0.12806E-20         0.00000E+00
    0.34880E-07        -0.43074E-20         0.00000E+00
    0.41429E-07         0.14901E-19         0.00000E+00
    0.41410E-07         0.44471E-19         0.00000E+00
    0.41373E-07         0.59605E-19         0.00000E+00
    0.41319E-07         0.39581E-19         0.00000E+00
    0.41246E-07         0.39814E-19         0.00000E+00
    0.41156E-07         0.63097E-19         0.00000E+00
    0.41050E-07         0.29569E-19         0.00000E+00
    0.40927E-07         0.12573E-19         0.00000E+00
    0.40790E-07         0.31432E-19         0.00000E+00
    0.40638E-07         0.57044E-19         0.00000E+00
    0.40472E-07         0.30966E-19         0.00000E+00
    0.40294E-07         0.10710E-19         0.00000E+00
    0.40103E-07         0.28638E-19         0.00000E+00
    0.39902E-07         0.58208E-20         0.00000E+00
    0.39691E-07        -0.53551E-20         0.00000E+00
    0.39470E-07         0.51223E-20         0.00000E+00
    0.39241E-07        -0.37253E-20         0.00000E+00
    0.39005E-07         0.25611E-20         0.00000E+00
    0.38762E-07         0.11409E-19         0.00000E+00
    0.38514E-07         0.34459E-19         0.00000E+00
    0.38261E-07         0.21188E-19         0.00000E+00
    0.38005E-07         0.46566E-20         0.00000E+00
    0.37746E-07         0.81491E-20         0.00000E+00
    0.37484E-07         0.44238E-20         0.00000E+00
    0.37222E-07        -0.39581E-20         0.00000E+00
    0.36959E-07        -0.23982E-19         0.00000E+00
    0.36697E-07        -0.13970E-20         0.00000E+00
    0.36435E-07         0.60536E-20         0.00000E+00
    0.36176E-07        -0.14901E-19         0.00000E+00
    0.35919E-07        -0.60536E-20         0.00000E+00
    0.35665E-07        -0.44238E-20         0.00000E+00
    0.35416E-07         0.16298E-20         0.00000E+00
    0.35170E-07         0.18859E-19         0.00000E+00
    0.34930E-07         0.29104E-19         0.00000E+00
    0.34696E-07         0.15367E-19         0.00000E+00
    0.34467E-07         0.13504E-19         0.00000E+00
    0.34245E-07         0.83819E-20         0.00000E+00
    0.34031E-07         0.37253E-20         0.00000E+00
    0.33823E-07         0.23283E-19         0.00000E+00
    0.33624E-07         0.97789E-20         0.00000E+00
    0.33433E-07         0.21420E-19         0.00000E+00
    0.33251E-07         0.14668E-19         0.00000E+00
    0.33077E-07        -0.88476E-20         0.00000E+00
    0.32913E-07         0.67521E-20         0.00000E+00
    0.32758E-07         0.16531E-19         0.00000E+00
    0.32613E-07        -0.16298E-20         0.00000E+00
    0.32478E-07         0.81491E-20         0.00000E+00
    0.32353E-07         0.44238E-20         0.00000E+00
    0.32238E-07        -0.46566E-21         0.00000E+00
    0.32133E-07         0.93132E-20         0.00000E+00
    0.32039E-07         0.10012E-19         0.00000E+00
    0.31955E-07         0.53551E-20         0.00000E+00
    0.31882E-07         0.10710E-19         0.00000E+00
    0.31819E-07         0.19558E-19         0.00000E+00
    0.31767E-07         0.32596E-20         0.00000E+00
    0.31724E-07         0.93132E-21         0.00000E+00
    0.31693E-07        -0.93132E-20         0.00000E+00
    0.31671E-07        -0.32596E-20         0.00000E+00
    0.31659E-07         0.10477E-19         0.00000E+00
    0.31658E-07         0.48894E-20         0.00000E+00
    0.31666E-07         0.00000E+00         0.00000E+00
    0.31683E-07        -0.97789E-20         0.00000E+00
    0.31709E-07        -0.34925E-20         0.00000E+00
    0.31745E-07        -0.88476E-20         0.00000E+00
    0.31789E-07        -0.15134E-19         0.00000E+00
    0.31842E-07        -0.41910E-20         0.00000E+00
    0.31902E-07         0.41910E-20         0.00000E+00
    0.31970E-07         0.26077E-19         0.00000E+00
    0.32045E-07         0.19558E-19         0.00000E+00
    0.32127E-07         0.18626E-19         0.00000E+00
    0.32216E-07         0.40513E-19         0.00000E+00
    0.32310E-07         0.41910E-19         0.00000E+00
    0.32410E-07         0.38184E-19         0.00000E+00
    0.32514E-07         0.25844E-19         0.00000E+00
    0.32623E-07         0.16997E-19         0.00000E+00
    0.32735E-07         0.19325E-19         0.00000E+00
    0.32851E-07         0.29802E-19         0.00000E+00
    0.32969E-07         0.16997E-19         0.00000E+00
    0.33089E-07         0.18626E-19         0.00000E+00
    0.33210E-07         0.22585E-19         0.00000E+00
    0.33332E-07         0.27008E-19         0.00000E+00
    0.33454E-07         0.22585E-19         0.00000E+00
    0.33576E-07         0.32363E-19         0.00000E+00
    0.33695E-07         0.44471E-19         0.00000E+00
    0.33813E-07         0.40513E-19         0.00000E+00
    0.33928E-07         0.44703E-19         0.00000E+00
    0.34040E-07         0.32596E-19         0.00000E+00
    0.34147E-07         0.32247E-19         0.00000E+00
    0.34250E-07         0.27008E-19         0.00000E+00
    0.34346E-07         0.23167E-19         0.00000E+00
    0.34437E-07         0.22701E-19         0.00000E+00
    0.34521E-07         0.18976E-19         0.00000E+00
    0.34597E-07         0.24564E-19         0.00000E+00
    0.34666E-07         0.23632E-19         0.00000E+00
    0.34725E-07         0.23050E-19         0.00000E+00
    0.34776E-07         0.15018E-19         0.00000E+00
    0.34817E-07        -0.46566E-21         0.00000E+00
    0.34848E-07         0.11642E-20         0.00000E+00
    0.34869E-07        -0.25611E-20         0.00000E+00
    0.34880E-07        -0.73342E-20         0.00000E+00
    0.41429E-07         0.14435E-19         0.00000E+00
    0.41410E-07         0.16531E-19         0.00000E+00
    0.41373E-07         0.20955E-19         0.00000E+00
    0.41319E-07         0.32131E-19         0.00000E+00
    0.41246E-07         0.45169E-19         0.00000E+00
    0.41156E-07         0.46799E-19         0.00000E+00
    0.41050E-07         0.52387E-19         0.00000E+00
    0.40927E-07         0.30734E-19         0.00000E+00
    0.40790E-07         0.67521E-20         0.00000E+00
    0.40638E-07         0.28173E-19         0.00000E+00
    0.40472E-07         0.19791E-19         0.00000E+00
    0.40294E-07        -0.25611E-20         0.00000E+00
    0.40103E-07         0.46566E-20         0.00000E+00
    0.39902E-07         0.32596E-20         0.00000E+00
    0.39691E-07         0.25611E-20         0.00000E+00
    0.39470E-07        -0.23283E-21         0.00000E+00
    0.39241E-07        -0.14203E-19         0.00000E+00
    0.39005E-07        -0.23283E-20         0.00000E+00
    0.38762E-07         0.10245E-19         0.00000E+00
    0.38514E-07         0.51223E-20         0.00000E+00
    0.38261E-07         0.44238E-20         0.00000E+00
    0.38005E-07         0.26543E-19         0.00000E+00
    0.37746E-07         0.23283E-20         0.00000E+00
    0.37484E-07         0.69849E-21         0.00000E+00
    0.37222E-07         0.15832E-19         0.00000E+00
    0.36959E-07        -0.32596E-20         0.00000E+00
    0.36697E-07         0.18626E-20         0.00000E+00
    0.36435E-07        -0.18626E-20         0.00000E+00
    0.36176E-07         0.58208E-20         0.00000E+00
    0.35919E-07         0.48894E-20         0.00000E+00
    0.35665E-07         0.11642E-20         0.00000E+00
    0.35416E-07         0.83819E-20         0.00000E+00
    0.35170E-07         0.13970E-20         0.00000E+00
    0.34930E-07         0.11409E-19         0.00000E+00
    0.34696E-07         0.10012E-19         0.00000E+00
    0.34467E-07        -0.55879E-20         0.00000E+00
    0.34245E-07         0.13970E-20         0.00000E+00
    0.34031E-07         0.17229E-19         0.00000E+00
    0.33823E-07         0.37253E-20         0.00000E+00
    0.33624E-07         0.32596E-20         0.00000E+00
    0.33433E-07         0.60536E-20         0.00000E+00
    0.33251E-07         0.18626E-20         0.00000E+00
    0.33077E-07         0.11409E-19         0.00000E+00
    0.32913E-07         0.60536E-20         0.00000E+00
    0.32758E-07        -0.53551E-20         0.00000E+00
    0.32613E-07        -0.23283E-20         0.00000E+00
    0.32478E-07         0.30268E-20         0.00000E+00
    0.32353E-07         0.74506E-20         0.00000E+00
    0.32238E-07        -0.48894E-20         0.00000E+00
    0.32133E-07        -0.12107E-19         0.00000E+00
    0.32039E-07         0.18626E-20         0.00000E+00
    0.31955E-07         0.10710E-19         0.00000E+00
    0.31882E-07         0.37253E-20         0.00000E+00
    0.31819E-07         0.60536E-20         0.00000E+00
    0.31767E-07         0.41910E-20         0.00000E+00
    0.31724E-07         0.93132E-21         0.00000E+00
    0.31693E-07         0.53551E-20         0.00000E+00
    0.31671E-07        -0.10477E-19         0.00000E+00
    0.31659E-07        -0.10012E-19         0.00000E+00
    0.31658E-07        -0.16764E-19         0.00000E+00
    0.31666E-07        -0.26310E-19         0.00000E+00
    0.31683E-07        -0.79162E-20         0.00000E+00
    0.31709E-07        -0.19092E-19         0.00000E+00
    0.31745E-07        -0.25611E-19         0.00000E+00
    0.31789E-07        -0.12107E-19         0.00000E+00
    0.31842E-07         0.95461E-20         0.00000E+00
    0.31902E-07         0.90804E-20         0.00000E+00
    0.31970E-07         0.30268E-20         0.00000E+00
    0.32045E-07         0.16764E-19         0.00000E+00
    0.32127E-07         0.20489E-19         0.00000E+00
    0.32216E-07         0.28871E-19         0.00000E+00
    0.32310E-07         0.46566E-19         0.00000E+00
    0.32410E-07         0.29569E-19         0.00000E+00
    0.32514E-07         0.26077E-19         0.00000E+00
    0.32623E-07         0.24447E-19         0.00000E+00
    0.32735E-07         0.16531E-19         0.00000E+00
    0.32851E-07         0.13970E-19         0.00000E+00
    0.32969E-07         0.30966E-19         0.00000E+00
    0.33089E-07         0.36322E-19         0.00000E+00
    0.33210E-07         0.20722E-19         0.00000E+00
    0.33332E-07         0.18394E-19         0.00000E+00
    0.33454E-07         0.15134E-19         0.00000E+00
    0.33576E-07         0.17462E-19         0.00000E+00
    0.33695E-07         0.29104E-19         0.00000E+00
    0.33813E-07         0.38417E-19         0.00000E+00
    0.33928E-07         0.44936E-19         0.00000E+00
    0.34040E-07         0.32363E-19         0.00000E+00
    0.34147E-07         0.20489E-19         0.00000E+00
    0.34250E-07         0.19325E-19         0.00000E+00
    0.34346E-07         0.19092E-19         0.00000E+00
    0.34437E-07         0.14552E-19         0.00000E+00
    0.34521E-07         0.22468E-19         0.00000E+00
    0.34597E-07         0.27707E-19         0.00000E+00
    0.34666E-07         0.19791E-19         0.00000E+00
    0.34725E-07         0.18394E-19         0.00000E+00
    0.34776E-07         0.20489E-19         0.00000E+00
    0.34817E-07         0.96625E-20         0.00000E+00
    0.34848E-07         0.31432E-20         0.00000E+00
    0.34869E-07         0.66357E-20         0.00000E+00
    0.34880E-07        -0.20955E-20         0.00000E+00
    0.41429E-07         0.13039E-19         0.00000E+00
    0.41410E-07         0.19325E-19         0.00000E+00
    0.41373E-07         0.90804E-20         0.00000E+00
    0.41319E-07         0.35390E-19         0.00000E+00
    0.41246E-07         0.72177E-19         0.00000E+00
    0.41156E-07         0.25379E-19         0.00000E+00
    0.41050E-07         0.16764E-19         0.00000E+00
    0.40927E-07         0.35390E-19         0.00000E+00
    0.40790E-07         0.16531E-19         0.00000E+00
    0.40638E-07         0.10012E-19         0.00000E+00
    0.40472E-07         0.14668E-19         0.00000E+00
    0.40294E-07         0.34692E-19         0.00000E+00
    0.40103E-07         0.28173E-19         0.00000E+00
    0.39902E-07         0.20955E-19         0.00000E+00
    0.39691E-07        -0.24447E-19         0.00000E+00
    0.39470E-07        -0.27241E-19         0.00000E+00
    0.39241E-07         0.13504E-19         0.00000E+00
    0.39005E-07        -0.30268E-19         0.00000E+00
    0.38762E-07        -0.65193E-20         0.00000E+00
    0.38514E-07         0.10710E-19         0.00000E+00
    0.38261E-07         0.51223E-20         0.00000E+00
    0.38005E-07        -0.69849E-21         0.00000E+00
    0.37746E-07        -0.16298E-20         0.00000E+00
    0.37484E-07        -0.12573E-19         0.00000E+00
    0.37222E-07        -0.26776E-19         0.00000E+00
    0.36959E-07         0.25611E-20         0.00000E+00
    0.36697E-07        -0.13970E-20         0.00000E+00
    0.36435E-07         0.90804E-20         0.00000E+00
    0.36176E-07         0.20955E-19         0.00000E+00
    0.35919E-07        -0.13970E-19         0.00000E+00
    0.35665E-07        -0.44238E-20         0.00000E+00
    0.35416E-07        -0.10012E-19         0.00000E+00
    0.35170E-07         0.12107E-19         0.00000E+00
    0.34930E-07         0.19558E-19         0.00000E+00
    0.34696E-07        -0.58208E-20         0.00000E+00
    0.34467E-07         0.32596E-20         0.00000E+00
    0.34245E-07        -0.65193E-20         0.00000E+00
    0.34031E-07        -0.18626E-20         0.00000E+00
    0.33823E-07        -0.41910E-20         0.00000E+00
    0.33624E-07        -0.21653E-19         0.00000E+00
    0.33433E-07        -0.55879E-20         0.00000E+00
    0.33251E-07         0.32596E-20         0.00000E+00
    0.33077E-07         0.10477E-19         0.00000E+00
    0.32913E-07         0.23283E-20         0.00000E+00
    0.32758E-07        -0.16997E-19         0.00000E+00
    0.32613E-07        -0.81491E-20         0.00000E+00
    0.32478E-07         0.11642E-20         0.00000E+00
    0.32353E-07        -0.18626E-19         0.00000E+00
    0.32238E-07        -0.24913E-19         0.00000E+00
    0.32133E-07        -0.10710E-19         0.00000E+00
    0.32039E-07        -0.69849E-20         0.00000E+00
    0.31955E-07        -0.88476E-20         0.00000E+00
    0.31882E-07        -0.18859E-19         0.00000E+00
    0.31819E-07        -0.15600E-19         0.00000E+00
    0.31767E-07        -0.27474E-19         0.00000E+00
    0.31724E-07        -0.37253E-19         0.00000E+00
    0.31693E-07        -0.27474E-19         0.00000E+00
    0.31671E-07        -0.15367E-19         0.00000E+00
    0.31659E-07        -0.15600E-19         0.00000E+00
    0.31658E-07        -0.24214E-19         0.00000E+00
    0.31666E-07        -0.10012E-19         0.00000E+00
    0.31683E-07        -0.24214E-19         0.00000E+00
    0.31709E-07        -0.26543E-19         0.00000E+00
    0.31745E-07        -0.27707E-19         0.00000E+00
    0.31789E-07        -0.19092E-19         0.00000E+00
    0.31842E-07        -0.18626E-19         0.00000E+00
    0.31902E-07        -0.16531E-19         0.00000E+00
    0.31970E-07         0.83819E-20         0.00000E+00
    0.32045E-07        -0.88476E-20         0.00000E+00
    0.32127E-07        -0.51223E-20         0.00000E+00
    0.32216E-07         0.88476E-20         0.00000E+00
    0.32310E-07         0.18626E-19         0.00000E+00
    0.32410E-07         0.20256E-19         0.00000E+00
    0.32514E-07         0.18859E-19         0.00000E+00
    0.32623E-07         0.30734E-19         0.00000E+00
    0.32735E-07         0.28405E-19         0.00000E+00
    0.32851E-07         0.19558E-19         0.00000E+00
    0.32969E-07         0.20023E-19         0.00000E+00
    0.33089E-07         0.16531E-19         0.00000E+00
    0.33210E-07         0.21420E-19         0.00000E+00
    0.33332E-07         0.23283E-19         0.00000E+00
    0.33454E-07         0.15832E-19         0.00000E+00
    0.33576E-07         0.97789E-20         0.00000E+00
    0.33695E-07         0.20023E-19         0.00000E+00
    0.33813E-07         0.32131E-19         0.00000E+00
    0.33928E-07         0.22817E-19         0.00000E+00
    0.34040E-07         0.21653E-19         0.00000E+00
    0.34147E-07         0.11642E-19         0.00000E+00
    0.34250E-07         0.26776E-20         0.00000E+00
    0.34346E-07         0.22701E-19         0.00000E+00
    0.34437E-07         0.22002E-19         0.00000E+00
    0.34521E-07         0.26193E-19         0.00000E+00
    0.34597E-07         0.37253E-19         0.00000E+00
    0.34666E-07         0.11176E-19         0.00000E+00
    0.34725E-07         0.34925E-20         0.00000E+00
    0.34776E-07         0.29104E-19         0.00000E+00
    0.34817E-07         0.30501E-19         0.00000E+00
    0.34848E-07         0.16764E-19         0.00000E+00
    0.34869E-07        -0.23283E-21         0.00000E+00
    0.34880E-07         0.51223E-20         0.00000E+00
    0.41429E-07         0.93132E-20         0.00000E+00
    0.41410E-07         0.21188E-19         0.00000E+00
    0.41373E-07         0.44703E-19         0.00000E+00
    0.41319E-07         0.74971E-19         0.00000E+00
    0.41246E-07         0.55879E-19         0.00000E+00
    0.41156E-07         0.13737E-19         0.00000E+00
    0.41050E-07         0.22119E-19         0.00000E+00
    0.40927E-07         0.32131E-19         0.00000E+00
    0.40790E-07         0.16997E-19         0.00000E+00
    0.40638E-07         0.53551E-20         0.00000E+00
    0.40472E-07        -0.10943E-19         0.00000E+00
    0.40294E-07        -0.11642E-19         0.00000E+00
    0.40103E-07         0.20955E-20         0.00000E+00
    0.39902E-07         0.24680E-19         0.00000E+00
    0.39691E-07         0.11642E-20         0.00000E+00
    0.39470E-07        -0.42841E-19         0.00000E+00
    0.39241E-07        -0.19558E-19         0.00000E+00
    0.39005E-07         0.10710E-19         0.00000E+00
    0.38762E-07         0.15832E-19         0.00000E+00
    0.38514E-07        -0.55879E-20         0.00000E+00
    0.38261E-07         0.39581E-20         0.00000E+00
    0.38005E-07         0.19791E-19         0.00000E+00
    0.37746E-07        -0.13970E-19         0.00000E+00
    0.37484E-07        -0.34925E-19         0.00000E+00
    0.37222E-07        -0.25844E-19         0.00000E+00
    0.36959E-07        -0.19558E-19         0.00000E+00
    0.36697E-07        -0.37616E-36         0.00000E+00
    0.36435E-07         0.17695E-19         0.00000E+00
    0.36176E-07         0.93132E-21         0.00000E+00
    0.35919E-07        -0.32131E-19         0.00000E+00
    0.35665E-07        -0.25146E-19         0.00000E+00
    0.35416E-07        -0.46566E-20         0.00000E+00
    0.35170E-07         0.81491E-20         0.00000E+00
    0.34930E-07         0.19092E-19         0.00000E+00
    0.34696E-07         0.17695E-19         0.00000E+00
    0.34467E-07         0.27940E-20         0.00000E+00
    0.34245E-07        -0.88476E-20         0.00000E+00
    0.34031E-07        -0.65193E-20         0.00000E+00
    0.33823E-07        -0.13970E-19         0.00000E+00
    0.33624E-07        -0.26077E-19         0.00000E+00
    0.33433E-07        -0.20489E-19         0.00000E+00
    0.33251E-07        -0.12573E-19         0.00000E+00
    0.33077E-07        -0.28405E-19         0.00000E+00
    0.32913E-07        -0.10477E-19         0.00000E+00
    0.32758E-07        -0.30501E-19         0.00000E+00
    0.32613E-07        -0.41910E-19         0.00000E+00
    0.32478E-07        -0.18859E-19         0.00000E+00
    0.32353E-07        -0.34459E-19         0.00000E+00
    0.32238E-07        -0.22817E-19         0.00000E+00
    0.32133E-07        -0.10012E-19         0.00000E+00
    0.32039E-07        -0.18626E-19         0.00000E+00
    0.31955E-07        -0.16764E-19         0.00000E+00
    0.31882E-07        -0.19092E-19         0.00000E+00
    0.31819E-07        -0.36554E-19         0.00000E+00
    0.31767E-07        -0.28871E-19         0.00000E+00
    0.31724E-07        -0.14435E-19         0.00000E+00
    0.31693E-07        -0.28638E-19         0.00000E+00
    0.31671E-07        -0.32363E-19         0.00000E+00
    0.31659E-07        -0.31898E-19         0.00000E+00
    0.31658E-07        -0.33760E-19         0.00000E+00
    0.31666E-07        -0.28173E-19         0.00000E+00
    0.31683E-07        -0.33528E-19         0.00000E+00
    0.31709E-07        -0.33062E-19         0.00000E+00
    0.31745E-07        -0.24913E-19         0.00000E+00
    0.31789E-07        -0.19325E-19         0.00000E+00
    0.31842E-07        -0.20489E-19         0.00000E+00
    0.31902E-07        -0.21188E-19         0.00000E+00
    0.31970E-07        -0.69849E-20         0.00000E+00
    0.32045E-07         0.13970E-20         0.00000E+00
    0.32127E-07        -0.46566E-20         0.00000E+00
    0.32216E-07         0.13039E-19         0.00000E+00
    0.32310E-07         0.20489E-19         0.00000E+00
    0.32410E-07         0.25379E-19         0.00000E+00
    0.32514E-07         0.27940E-19         0.00000E+00
    0.32623E-07         0.27474E-19         0.00000E+00
    0.32735E-07         0.27707E-19         0.00000E+00
    0.32851E-07         0.26776E-19         0.00000E+00
    0.32969E-07         0.29104E-19         0.00000E+00
    0.33089E-07         0.27474E-19         0.00000E+00
    0.33210E-07         0.11642E-19         0.00000E+00
    0.33332E-07         0.37253E-20         0.00000E+00
    0.33454E-07         0.72177E-20         0.00000E+00
    0.33576E-07         0.83819E-20         0.00000E+00
    0.33695E-07         0.20489E-19         0.00000E+00
    0.33813E-07         0.20955E-19         0.00000E+00
    0.33928E-07         0.23050E-19         0.00000E+00
    0.34040E-07         0.23749E-19         0.00000E+00
    0.34147E-07         0.28056E-19         0.00000E+00
    0.34250E-07         0.27358E-19         0.00000E+00
    0.34346E-07         0.20606E-19         0.00000E+00
    0.34437E-07         0.15832E-19         0.00000E+00
    0.34521E-07         0.21304E-19         0.00000E+00
    0.34597E-07         0.14203E-19         0.00000E+00
    0.34666E-07         0.32829E-19         0.00000E+00
    0.34725E-07         0.34925E-19         0.00000E+00
    0.34776E-07         0.21886E-19         0.00000E+00
    0.34817E-07         0.23283E-20         0.00000E+00
    0.34848E-07         0.93132E-20         0.00000E+00
    0.34869E-07         0.14086E-19         0.00000E+00
    0.34880E-07        -0.58208E-20         0.00000E+00
    0.41429E-07         0.28871E-19         0.00000E+00
    0.41410E-07         0.16531E-19         0.00000E+00
    0.41373E-07         0.22817E-19         0.00000E+00
    0.41319E-07         0.69849E-19         0.00000E+00
    0.41246E-07         0.46566E-19         0.00000E+00
    0.41156E-07         0.37486E-19         0.00000E+00
    0.41050E-07         0.32363E-19         0.00000E+00
    0.40927E-07         0.27008E-19         0.00000E+00
    0.40790E-07         0.12806E-19         0.00000E+00
    0.40638E-07         0.39581E-20         0.00000E+00
    0.40472E-07         0.16997E-19         0.00000E+00
    0.40294E-07         0.97789E-20         0.00000E+00
    0.40103E-07         0.23516E-19         0.00000E+00
    0.39902E-07         0.22119E-19         0.00000E+00
    0.39691E-07         0.11874E-19         0.00000E+00
    0.39470E-07         0.17695E-19         0.00000E+00
    0.39241E-07         0.95461E-20         0.00000E+00
    0.39005E-07        -0.97789E-20         0.00000E+00
    0.38762E-07        -0.37253E-20         0.00000E+00
    0.38514E-07         0.14901E-19         0.00000E+00
    0.38261E-07         0.20955E-20         0.00000E+00
    0.38005E-07        -0.23283E-20         0.00000E+00
    0.37746E-07         0.93132E-21         0.00000E+00
    0.37484E-07        -0.55879E-20         0.00000E+00
    0.37222E-07         0.83819E-20         0.00000E+00
    0.36959E-07         0.10710E-19         0.00000E+00
    0.36697E-07         0.15832E-19         0.00000E+00
    0.36435E-07         0.11176E-19         0.00000E+00
    0.36176E-07        -0.18394E-19         0.00000E+00
    0.35919E-07         0.30268E-20         0.00000E+00
    0.35665E-07         0.24214E-19         0.00000E+00
    0.35416E-07         0.28871E-19         0.00000E+00
    0.35170E-07         0.30268E-19         0.00000E+00
    0.34930E-07         0.29569E-19         0.00000E+00
    0.34696E-07         0.13271E-19         0.00000E+00
    0.34467E-07         0.14668E-19         0.00000E+00
    0.34245E-07         0.41910E-20         0.00000E+00
    0.34031E-07        -0.21420E-19         0.00000E+00
    0.33823E-07        -0.79162E-20         0.00000E+00
    0.33624E-07        -0.32596E-20         0.00000E+00
    0.33433E-07        -0.10710E-19         0.00000E+00
    0.33251E-07         0.65193E-20         0.00000E+00
    0.33077E-07         0.51223E-20         0.00000E+00
    0.32913E-07        -0.22585E-19         0.00000E+00
    0.32758E-07        -0.27241E-19         0.00000E+00
    0.32613E-07        -0.20955E-19         0.00000E+00
    0.32478E-07        -0.18161E-19         0.00000E+00
    0.32353E-07        -0.13271E-19         0.00000E+00
    0.32238E-07        -0.12573E-19         0.00000E+00
    0.32133E-07        -0.11874E-19         0.00000E+00
    0.32039E-07         0.34925E-20         0.00000E+00
    0.31955E-07         0.27940E-20         0.00000E+00
    0.31882E-07         0.25611E-20         0.00000E+00
    0.31819E-07        -0.62864E-20         0.00000E+00
    0.31767E-07        -0.26077E-19         0.00000E+00
    0.31724E-07        -0.25611E-19         0.00000E+00
    0.31693E-07        -0.16531E-19         0.00000E+00
    0.31671E-07        -0.62864E-20         0.00000E+00
    0.31659E-07        -0.16764E-19         0.00000E+00
    0.31658E-07        -0.27474E-19         0.00000E+00
    0.31666E-07        -0.26310E-19         0.00000E+00
    0.31683E-07        -0.47963E-19         0.00000E+00
    0.31709E-07        -0.37253E-19         0.00000E+00
    0.31745E-07        -0.19092E-19         0.00000E+00
    0.31789E-07        -0.30501E-19         0.00000E+00
    0.31842E-07        -0.25379E-19         0.00000E+00
    0.31902E-07        -0.11176E-19         0.00000E+00
    0.31970E-07        -0.20955E-19         0.00000E+00
    0.32045E-07        -0.30734E-19         0.00000E+00
    0.32127E-07        -0.16764E-19         0.00000E+00
    0.32216E-07        -0.13504E-19         0.00000E+00
    0.32310E-07         0.79162E-20         0.00000E+00
    0.32410E-07         0.29569E-19         0.00000E+00
    0.32514E-07         0.10477E-19         0.00000E+00
    0.32623E-07         0.97789E-20         0.00000E+00
    0.32735E-07         0.25379E-19         0.00000E+00
    0.32851E-07         0.55879E-20         0.00000E+00
    0.32969E-07        -0.10710E-19         0.00000E+00
    0.33089E-07         0.37253E-20         0.00000E+00
    0.33210E-07        -0.79162E-20         0.00000E+00
    0.33332E-07        -0.11874E-19         0.00000E+00
    0.33454E-07         0.72177E-20         0.00000E+00
    0.33576E-07         0.14203E-19         0.00000E+00
    0.33695E-07         0.17695E-19         0.00000E+00
    0.33813E-07         0.10710E-19         0.00000E+00
    0.33928E-07         0.69849E-20         0.00000E+00
    0.34040E-07         0.16531E-19         0.00000E+00
    0.34147E-07         0.81491E-20         0.00000E+00
    0.34250E-07         0.52387E-20         0.00000E+00
    0.34346E-07         0.23399E-19         0.00000E+00
    0.34437E-07         0.14552E-19         0.00000E+00
    0.34521E-07         0.24913E-19         0.00000E+00
    0.34597E-07         0.30734E-19         0.00000E+00
    0.34666E-07         0.19092E-19         0.00000E+00
    0.34725E-07         0.25611E-19         0.00000E+00
    0.34776E-07         0.20722E-19         0.00000E+00
    0.34817E-07         0.15367E-19         0.00000E+00
    0.34848E-07         0.59372E-20         0.00000E+00
    0.34869E-07         0.52387E-20         0.00000E+00
    0.34880E-07         0.33760E-20         0.00000E+00
    0.41429E-07        -0.18626E-19         0.00000E+00
    0.41410E-07         0.48894E-20         0.00000E+00
    0.41373E-07         0.39581E-19         0.00000E+00
    0.41319E-07         0.27940E-19         0.00000E+00
    0.41246E-07         0.60769E-19         0.00000E+00
    0.41156E-07         0.33062E-19         0.00000E+00
    0.41050E-07         0.16764E-19         0.00000E+00
    0.40927E-07         0.26543E-19         0.00000E+00
    0.40790E-07         0.39581E-20         0.00000E+00
    0.40638E-07        -0.25611E-20         0.00000E+00
    0.40472E-07         0.32596E-20         0.00000E+00
    0.40294E-07         0.18394E-19         0.00000E+00
    0.40103E-07         0.27940E-19         0.00000E+00
    0.39902E-07         0.27940E-19         0.00000E+00
    0.39691E-07         0.58208E-20         0.00000E+00
    0.39470E-07         0.83819E-20         0.00000E+00
    0.39241E-07         0.28405E-19         0.00000E+00
    0.39005E-07         0.37253E-20         0.00000E+00
    0.38762E-07        -0.37253E-19         0.00000E+00
    0.38514E-07        -0.22817E-19         0.00000E+00
    0.38261E-07         0.11874E-19         0.00000E+00
    0.38005E-07         0.14435E-19         0.00000E+00
    0.37746E-07        -0.48894E-20         0.00000E+00
    0.37484E-07        -0.30734E-19         0.00000E+00
    0.37222E-07        -0.34226E-19         0.00000E+00
    0.36959E-07        -0.14668E-19         0.00000E+00
    0.36697E-07         0.69849E-20         0.00000E+00
    0.36435E-07         0.15600E-19         0.00000E+00
    0.36176E-07        -0.18626E-20         0.00000E+00
    0.35919E-07        -0.60536E-20         0.00000E+00
    0.35665E-07         0.51223E-20         0.00000E+00
    0.35416E-07         0.90804E-20         0.00000E+00
    0.35170E-07         0.31432E-19         0.00000E+00
    0.34930E-07         0.38883E-19         0.00000E+00
    0.34696E-07         0.20955E-19         0.00000E+00
    0.34467E-07         0.23283E-20         0.00000E+00
    0.34245E-07        -0.39581E-20         0.00000E+00
    0.34031E-07        -0.93132E-20         0.00000E+00
    0.33823E-07        -0.15832E-19         0.00000E+00
    0.33624E-07        -0.67521E-20         0.00000E+00
    0.33433E-07        -0.83819E-20         0.00000E+00
    0.33251E-07        -0.12806E-19         0.00000E+00
    0.33077E-07        -0.13970E-20         0.00000E+00
    0.32913E-07        -0.10012E-19         0.00000E+00
    0.32758E-07        -0.20256E-19         0.00000E+00
    0.32613E-07        -0.25844E-19         0.00000E+00
    0.32478E-07        -0.29337E-19         0.00000E+00
    0.32353E-07        -0.26543E-19         0.00000E+00
    0.32238E-07        -0.22352E-19         0.00000E+00
    0.32133E-07        -0.14203E-19         0.00000E+00
    0.32039E-07        -0.76834E-20         0.00000E+00
    0.31955E-07        -0.23749E-19         0.00000E+00
    0.31882E-07        -0.16764E-19         0.00000E+00
    0.31819E-07        -0.13271E-19         0.00000E+00
    0.31767E-07        -0.25611E-19         0.00000E+00
    0.31724E-07        -0.33528E-19         0.00000E+00
    0.31693E-07        -0.22585E-19         0.00000E+00
    0.31671E-07        -0.21653E-19         0.00000E+00
    0.31659E-07        -0.16531E-19         0.00000E+00
    0.31658E-07        -0.30734E-19         0.00000E+00
    0.31666E-07        -0.55414E-19         0.00000E+00
    0.31683E-07        -0.43306E-19         0.00000E+00
    0.31709E-07        -0.38184E-19         0.00000E+00
    0.31745E-07        -0.33993E-19         0.00000E+00
    0.31789E-07        -0.29337E-19         0.00000E+00
    0.31842E-07        -0.11409E-19         0.00000E+00
    0.31902E-07         0.79162E-20         0.00000E+00
    0.31970E-07        -0.97789E-20         0.00000E+00
    0.32045E-07        -0.12340E-19         0.00000E+00
    0.32127E-07        -0.16298E-19         0.00000E+00
    0.32216E-07         0.46566E-21         0.00000E+00
    0.32310E-07         0.15832E-19         0.00000E+00
    0.32410E-07         0.44238E-20         0.00000E+00
    0.32514E-07        -0.23283E-20         0.00000E+00
    0.32623E-07         0.15367E-19         0.00000E+00
    0.32735E-07         0.16764E-19         0.00000E+00
    0.32851E-07         0.15832E-19         0.00000E+00
    0.32969E-07         0.10710E-19         0.00000E+00
    0.33089E-07        -0.10710E-19         0.00000E+00
    0.33210E-07        -0.93132E-20         0.00000E+00
    0.33332E-07         0.27940E-20         0.00000E+00
    0.33454E-07         0.97789E-20         0.00000E+00
    0.33576E-07         0.18161E-19         0.00000E+00
    0.33695E-07         0.16764E-19         0.00000E+00
    0.33813E-07         0.88476E-20         0.00000E+00
    0.33928E-07         0.81491E-20         0.00000E+00
    0.34040E-07         0.16997E-19         0.00000E+00
    0.34147E-07         0.17928E-19         0.00000E+00
    0.34250E-07         0.32596E-20         0.00000E+00
    0.34346E-07         0.15018E-19         0.00000E+00
    0.34437E-07         0.25379E-19         0.00000E+00
    0.34521E-07         0.20606E-19         0.00000E+00
    0.34597E-07         0.33760E-19         0.00000E+00
    0.34666E-07         0.23982E-19         0.00000E+00
    0.34725E-07         0.22468E-19         0.00000E+00
    0.34776E-07         0.23749E-19         0.00000E+00
    0.34817E-07         0.88476E-20         0.00000E+00
    0.34848E-07        -0.16298E-20         0.00000E+00
    0.34869E-07         0.79162E-20         0.00000E+00
    0.34880E-07         0.83819E-20         0.00000E+00
    0.41429E-07        -0.55879E-20         0.00000E+00
    0.41410E-07         0.28638E-19         0.00000E+00
    0.41373E-07         0.49360E-19         0.00000E+00
    0.41319E-07         0.26543E-19         0.00000E+00
    0.41246E-07         0.16065E-19         0.00000E+00
    0.41156E-07         0.20256E-19         0.00000E+00
    0.41050E-07         0.19325E-19         0.00000E+00
    0.40927E-07         0.18626E-20         0.00000E+00
    0.40790E-07         0.14668E-19         0.00000E+00
    0.40638E-07         0.16531E-19         0.00000E+00
    0.40472E-07         0.46100E-19         0.00000E+00
    0.40294E-07         0.20023E-19         0.00000E+00
    0.40103E-07         0.11874E-19         0.00000E+00
    0.39902E-07         0.28871E-19         0.00000E+00
    0.39691E-07         0.11409E-19         0.00000E+00
    0.39470E-07         0.10012E-19         0.00000E+00
    0.39241E-07         0.69849E-20         0.00000E+00
    0.39005E-07         0.26543E-19         0.00000E+00
    0.38762E-07        -0.23283E-20         0.00000E+00
    0.38514E-07        -0.15367E-19         0.00000E+00
    0.38261E-07         0.12806E-19         0.00000E+00
    0.38005E-07        -0.93132E-21         0.00000E+00
    0.37746E-07         0.23283E-21         0.00000E+00
    0.37484E-07        -0.88476E-20         0.00000E+00
    0.37222E-07        -0.24447E-19         0.00000E+00
    0.36959E-07        -0.10943E-19         0.00000E+00
    0.36697E-07        -0.32596E-20         0.00000E+00
    0.36435E-07        -0.34925E-20         0.00000E+00
    0.36176E-07         0.00000E+00         0.00000E+00
    0.35919E-07         0.23283E-20         0.00000E+00
    0.35665E-07        -0.16298E-20         0.00000E+00
    0.35416E-07         0.86147E-20         0.00000E+00
    0.35170E-07         0.13271E-19         0.00000E+00
    0.34930E-07         0.18394E-19         0.00000E+00
    0.34696E-07         0.13737E-19         0.00000E+00
    0.34467E-07         0.10012E-19         0.00000E+00
    0.34245E-07         0.10245E-19         0.00000E+00
    0.34031E-07        -0.27940E-20         0.00000E+00
    0.33823E-07        -0.41910E-20         0.00000E+00
    0.33624E-07        -0.25146E-19         0.00000E+00
    0.33433E-07        -0.29337E-19         0.00000E+00
    0.33251E-07        -0.30035E-19         0.00000E+00
    0.33077E-07        -0.40978E-19         0.00000E+00
    0.32913E-07        -0.36554E-19         0.00000E+00
    0.32758E-07        -0.28405E-19         0.00000E+00
    0.32613E-07        -0.30035E-19         0.00000E+00
    0.32478E-07        -0.43539E-19         0.00000E+00
    0.32353E-07        -0.24447E-19         0.00000E+00
    0.32238E-07        -0.10943E-19         0.00000E+00
    0.32133E-07        -0.13271E-19         0.00000E+00
    0.32039E-07        -0.11409E-19         0.00000E+00
    0.31955E-07        -0.15367E-19         0.00000E+00
    0.31882E-07        -0.20955E-19         0.00000E+00
    0.31819E-07        -0.22817E-19         0.00000E+00
    0.31767E-07        -0.35856E-19         0.00000E+00
    0.31724E-07        -0.42608E-19         0.00000E+00
    0.31693E-07        -0.27707E-19         0.00000E+00
    0.31671E-07        -0.53551E-20         0.00000E+00
    0.31659E-07        -0.24447E-19         0.00000E+00
    0.31658E-07        -0.51688E-19         0.00000E+00
    0.31666E-07        -0.37719E-19         0.00000E+00
    0.31683E-07        -0.30966E-19         0.00000E+00
    0.31709E-07        -0.14435E-19         0.00000E+00
    0.31745E-07        -0.79162E-20         0.00000E+00
    0.31789E-07        -0.22352E-19         0.00000E+00
    0.31842E-07         0.58208E-20         0.00000E+00
    0.31902E-07         0.10012E-19         0.00000E+00
    0.31970E-07        -0.19558E-19         0.00000E+00
    0.32045E-07        -0.18626E-19         0.00000E+00
    0.32127E-07        -0.32596E-20         0.00000E+00
    0.32216E-07         0.13970E-20         0.00000E+00
    0.32310E-07        -0.93132E-21         0.00000E+00
    0.32410E-07         0.18626E-20         0.00000E+00
    0.32514E-07         0.67521E-20         0.00000E+00
    0.32623E-07         0.14435E-19         0.00000E+00
    0.32735E-07         0.18394E-19         0.00000E+00
    0.32851E-07         0.10245E-19         0.00000E+00
    0.32969E-07        -0.51223E-20         0.00000E+00
    0.33089E-07        -0.11642E-19         0.00000E+00
    0.33210E-07         0.23283E-20         0.00000E+00
    0.33332E-07         0.48894E-20         0.00000E+00
    0.33454E-07         0.51223E-20         0.00000E+00
    0.33576E-07         0.11176E-19         0.00000E+00
    0.33695E-07         0.23283E-20         0.00000E+00
    0.33813E-07         0.55879E-20         0.00000E+00
    0.33928E-07         0.20955E-19         0.00000E+00
    0.34040E-07         0.21886E-19         0.00000E+00
    0.34147E-07         0.20955E-19         0.00000E+00
    0.34250E-07         0.53551E-20         0.00000E+00
    0.34346E-07        -0.93132E-21         0.00000E+00
    0.34437E-07         0.19209E-19         0.00000E+00
    0.34521E-07         0.23167E-19         0.00000E+00
    0.34597E-07         0.22934E-19         0.00000E+00
    0.34666E-07         0.18277E-19         0.00000E+00
    0.34725E-07         0.38068E-19         0.00000E+00
    0.34776E-07         0.38301E-19         0.00000E+00
    0.34817E-07         0.18859E-19         0.00000E+00
    0.34848E-07         0.54715E-20         0.00000E+00
    0.34869E-07         0.11059E-19         0.00000E+00
    0.34880E-07         0.94296E-20         0.00000E+00
    0.41429E-07         0.11176E-19         0.00000E+00
    0.41410E-07         0.19092E-19         0.00000E+00
    0.41373E-07         0.17229E-19         0.00000E+00
    0.41319E-07         0.17462E-19         0.00000E+00
    0.41246E-07         0.23982E-19         0.00000E+00
    0.41156E-07         0.61234E-19         0.00000E+00
    0.41050E-07         0.89174E-19         0.00000E+00
    0.40927E-07         0.74040E-19         0.00000E+00
    0.40790E-07         0.41677E-19         0.00000E+00
    0.40638E-07         0.15600E-19         0.00000E+00
    0.40472E-07         0.18859E-19         0.00000E+00
    0.40294E-07         0.33062E-19         0.00000E+00
    0.40103E-07         0.31665E-19         0.00000E+00
    0.39902E-07         0.25611E-19         0.00000E+00
    0.39691E-07         0.34692E-19         0.00000E+00
    0.39470E-07         0.18161E-19         0.00000E+00
    0.39241E-07         0.53551E-20         0.00000E+00
    0.39005E-07         0.15367E-19         0.00000E+00
    0.38762E-07         0.55879E-20         0.00000E+00
    0.38514E-07         0.13970E-20         0.00000E+00
    0.38261E-07        -0.65193E-20         0.00000E+00
    0.38005E-07         0.13970E-20         0.00000E+00
    0.37746E-07        -0.16298E-20         0.00000E+00
    0.37484E-07        -0.75232E-36         0.00000E+00
    0.37222E-07        -0.74506E-20         0.00000E+00
    0.36959E-07        -0.13737E-19         0.00000E+00
    0.36697E-07         0.65193E-20         0.00000E+00
    0.36435E-07        -0.25611E-20         0.00000E+00
    0.36176E-07         0.10245E-19         0.00000E+00
    0.35919E-07        -0.53551E-20         0.00000E+00
    0.35665E-07        -0.21653E-19         0.00000E+00
    0.35416E-07        -0.62864E-20         0.00000E+00
    0.35170E-07        -0.18626E-20         0.00000E+00
    0.34930E-07        -0.72177E-20         0.00000E+00
    0.34696E-07         0.10012E-19         0.00000E+00
    0.34467E-07         0.16298E-20         0.00000E+00
    0.34245E-07        -0.65193E-20         0.00000E+00
    0.34031E-07        -0.10710E-19         0.00000E+00
    0.33823E-07        -0.19092E-19         0.00000E+00
    0.33624E-07        -0.15832E-19         0.00000E+00
    0.33433E-07        -0.22585E-19         0.00000E+00
    0.33251E-07        -0.30734E-19         0.00000E+00
    0.33077E-07        -0.32131E-19         0.00000E+00
    0.32913E-07        -0.30268E-19         0.00000E+00
    0.32758E-07        -0.42375E-19         0.00000E+00
    0.32613E-07        -0.33760E-19         0.00000E+00
    0.32478E-07        -0.41211E-19         0.00000E+00
    0.32353E-07        -0.55414E-19         0.00000E+00
    0.32238E-07        -0.38650E-19         0.00000E+00
    0.32133E-07        -0.29104E-19         0.00000E+00
    0.32039E-07        -0.29337E-19         0.00000E+00
    0.31955E-07        -0.23050E-19         0.00000E+00
    0.31882E-07        -0.31665E-19         0.00000E+00
    0.31819E-07        -0.42375E-19         0.00000E+00
    0.31767E-07        -0.45169E-19         0.00000E+00
    0.31724E-07        -0.34226E-19         0.00000E+00
    0.31693E-07        -0.32596E-19         0.00000E+00
    0.31671E-07        -0.26310E-19         0.00000E+00
    0.31659E-07        -0.30966E-19         0.00000E+00
    0.31658E-07        -0.40513E-19         0.00000E+00
    0.31666E-07        -0.30501E-19         0.00000E+00
    0.31683E-07        -0.21886E-19         0.00000E+00
    0.31709E-07        -0.29802E-19         0.00000E+00
    0.31745E-07        -0.20256E-19         0.00000E+00
    0.31789E-07        -0.11874E-19         0.00000E+00
    0.31842E-07         0.46566E-21         0.00000E+00
    0.31902E-07        -0.32596E-20         0.00000E+00
    0.31970E-07        -0.22119E-19         0.00000E+00
    0.32045E-07        -0.12340E-19         0.00000E+00
    0.32127E-07         0.69849E-20         0.00000E+00
    0.32216E-07         0.00000E+00         0.00000E+00
    0.32310E-07         0.48894E-20         0.00000E+00
    0.32410E-07        -0.46566E-20         0.00000E+00
    0.32514E-07        -0.10710E-19         0.00000E+00
    0.32623E-07         0.30268E-20         0.00000E+00
    0.32735E-07         0.81491E-20         0.00000E+00
    0.32851E-07         0.37253E-20         0.00000E+00
    0.32969E-07        -0.11642E-20         0.00000E+00
    0.33089E-07        -0.46566E-21         0.00000E+00
    0.33210E-07         0.93132E-20         0.00000E+00
    0.33332E-07         0.44238E-20         0.00000E+00
    0.33454E-07         0.74506E-20         0.00000E+00
    0.33576E-07         0.17229E-19         0.00000E+00
    0.33695E-07         0.17695E-19         0.00000E+00
    0.33813E-07         0.15832E-19         0.00000E+00
    0.33928E-07         0.22585E-19         0.00000E+00
    0.34040E-07         0.32829E-19         0.00000E+00
    0.34147E-07         0.25379E-19         0.00000E+00
    0.34250E-07         0.22468E-19         0.00000E+00
    0.34346E-07         0.12456E-19         0.00000E+00
    0.34437E-07         0.11758E-19         0.00000E+00
    0.34521E-07         0.16182E-19         0.00000E+00
    0.34597E-07         0.26543E-19         0.00000E+00
    0.34666E-07         0.36904E-19         0.00000E+00
    0.34725E-07         0.31781E-19         0.00000E+00
    0.34776E-07         0.25844E-19         0.00000E+00
    0.34817E-07         0.23749E-19         0.00000E+00
    0.34848E-07        -0.25611E-20         0.00000E+00
    0.34869E-07        -0.60536E-20         0.00000E+00
    0.34880E-07         0.38417E-20         0.00000E+00
    0.41429E-07         0.58208E-20         0.00000E+00
    0.41410E-07         0.14435E-19         0.00000E+00
    0.41373E-07         0.35856E-19         0.00000E+00
    0.41319E-07         0.26776E-19         0.00000E+00
    0.41246E-07         0.30734E-19         0.00000E+00
    0.41156E-07         0.34226E-19         0.00000E+00
    0.41050E-07         0.46799E-19         0.00000E+00
    0.40927E-07         0.61002E-19         0.00000E+00
    0.40790E-07         0.49127E-19         0.00000E+00
    0.40638E-07         0.90804E-20         0.00000E+00
    0.40472E-07         0.53551E-20         0.00000E+00
    0.40294E-07         0.37951E-19         0.00000E+00
    0.40103E-07         0.62864E-20         0.00000E+00
    0.39902E-07         0.67521E-20         0.00000E+00
    0.39691E-07         0.29569E-19         0.00000E+00
    0.39470E-07         0.37951E-19         0.00000E+00
    0.39241E-07         0.32596E-20         0.00000E+00
    0.39005E-07        -0.22817E-19         0.00000E+00
    0.38762E-07        -0.13970E-19         0.00000E+00
    0.38514E-07        -0.13970E-19         0.00000E+00
    0.38261E-07        -0.41910E-20         0.00000E+00
    0.38005E-07         0.19558E-19         0.00000E+00
    0.37746E-07         0.32596E-20         0.00000E+00
    0.37484E-07        -0.16531E-19         0.00000E+00
    0.37222E-07        -0.58208E-20         0.00000E+00
    0.36959E-07         0.69849E-20         0.00000E+00
    0.36697E-07        -0.74506E-20         0.00000E+00
    0.36435E-07        -0.46566E-20         0.00000E+00
    0.36176E-07         0.13271E-19         0.00000E+00
    0.35919E-07        -0.25611E-20         0.00000E+00
    0.35665E-07        -0.16298E-20         0.00000E+00
    0.35416E-07         0.20955E-20         0.00000E+00
    0.35170E-07         0.76834E-20         0.00000E+00
    0.34930E-07        -0.51223E-20         0.00000E+00
    0.34696E-07        -0.37253E-20         0.00000E+00
    0.34467E-07        -0.67521E-20         0.00000E+00
    0.34245E-07        -0.29569E-19         0.00000E+00
    0.34031E-07        -0.21886E-19         0.00000E+00
    0.33823E-07        -0.19092E-19         0.00000E+00
    0.33624E-07        -0.31199E-19         0.00000E+00
    0.33433E-07        -0.34925E-19         0.00000E+00
    0.33251E-07        -0.33528E-19         0.00000E+00
    0.33077E-07        -0.30734E-19         0.00000E+00
    0.32913E-07        -0.24913E-19         0.00000E+00
    0.32758E-07        -0.37486E-19         0.00000E+00
    0.32613E-07        -0.40513E-19         0.00000E+00
    0.32478E-07        -0.34692E-19         0.00000E+00
    0.32353E-07        -0.42142E-19         0.00000E+00
    0.32238E-07        -0.26776E-19         0.00000E+00
    0.32133E-07        -0.29337E-19         0.00000E+00
    0.32039E-07        -0.39581E-19         0.00000E+00
    0.31955E-07        -0.28871E-19         0.00000E+00
    0.31882E-07        -0.38184E-19         0.00000E+00
    0.31819E-07        -0.43306E-19         0.00000E+00
    0.31767E-07        -0.40978E-19         0.00000E+00
    0.31724E-07        -0.42841E-19         0.00000E+00
    0.31693E-07        -0.15832E-19         0.00000E+00
    0.31671E-07        -0.26543E-19         0.00000E+00
    0.31659E-07        -0.45169E-19         0.00000E+00
    0.31658E-07        -0.41211E-19         0.00000E+00
    0.31666E-07        -0.22585E-19         0.00000E+00
    0.31683E-07        -0.34692E-19         0.00000E+00
    0.31709E-07        -0.50059E-19         0.00000E+00
    0.31745E-07        -0.21653E-19         0.00000E+00
    0.31789E-07        -0.10012E-19         0.00000E+00
    0.31842E-07        -0.10012E-19         0.00000E+00
    0.31902E-07        -0.16298E-19         0.00000E+00
    0.31970E-07        -0.15367E-19         0.00000E+00
    0.32045E-07        -0.20955E-20         0.00000E+00
    0.32127E-07         0.93132E-20         0.00000E+00
    0.32216E-07         0.60536E-20         0.00000E+00
    0.32310E-07        -0.10477E-19         0.00000E+00
    0.32410E-07        -0.32596E-20         0.00000E+00
    0.32514E-07         0.32596E-20         0.00000E+00
    0.32623E-07        -0.60536E-20         0.00000E+00
    0.32735E-07        -0.16997E-19         0.00000E+00
    0.32851E-07        -0.60536E-20         0.00000E+00
    0.32969E-07         0.13970E-20         0.00000E+00
    0.33089E-07         0.65193E-20         0.00000E+00
    0.33210E-07         0.32596E-20         0.00000E+00
    0.33332E-07         0.44238E-20         0.00000E+00
    0.33454E-07         0.20023E-19         0.00000E+00
    0.33576E-07         0.10012E-19         0.00000E+00
    0.33695E-07         0.27707E-19         0.00000E+00
    0.33813E-07         0.33295E-19         0.00000E+00
    0.33928E-07         0.20023E-19         0.00000E+00
    0.34040E-07         0.33993E-19         0.00000E+00
    0.34147E-07         0.32829E-19         0.00000E+00
    0.34250E-07         0.28289E-19         0.00000E+00
    0.34346E-07         0.34459E-19         0.00000E+00
    0.34437E-07         0.28755E-19         0.00000E+00
    0.34521E-07         0.17462E-19         0.00000E+00
    0.34597E-07         0.16065E-19         0.00000E+00
    0.34666E-07         0.30268E-19         0.00000E+00
    0.34725E-07         0.27823E-19         0.00000E+00
    0.34776E-07         0.20256E-19         0.00000E+00
    0.34817E-07         0.14901E-19         0.00000E+00
    0.34848E-07         0.47730E-20         0.00000E+00
    0.34869E-07        -0.29104E-20         0.00000E+00
    0.34880E-07        -0.19791E-20         0.00000E+00
    0.41429E-07        -0.93132E-21         0.00000E+00
    0.41410E-07         0.44238E-20         0.00000E+00
    0.41373E-07         0.12806E-19         0.00000E+00
    0.41319E-07         0.48894E-20         0.00000E+00
    0.41246E-07         0.12340E-19         0.00000E+00
    0.41156E-07         0.69151E-19         0.00000E+00
    0.41050E-07         0.83586E-19         0.00000E+00
    0.40927E-07         0.62399E-19         0.00000E+00
    0.40790E-07         0.32363E-19         0.00000E+00
    0.40638E-07         0.33760E-19         0.00000E+00
    0.40472E-07         0.49127E-19         0.00000E+00
    0.40294E-07         0.30035E-19         0.00000E+00
    0.40103E-07         0.26310E-19         0.00000E+00
    0.39902E-07         0.25146E-19         0.00000E+00
    0.39691E-07         0.12340E-19         0.00000E+00
    0.39470E-07         0.95461E-20         0.00000E+00
    0.39241E-07        -0.23283E-21         0.00000E+00
    0.39005E-07         0.32596E-20         0.00000E+00
    0.38762E-07        -0.13737E-19         0.00000E+00
    0.38514E-07        -0.27474E-19         0.00000E+00
    0.38261E-07        -0.25611E-20         0.00000E+00
    0.38005E-07         0.14901E-19         0.00000E+00
    0.37746E-07         0.37253E-20         0.00000E+00
    0.37484E-07         0.88476E-20         0.00000E+00
    0.37222E-07         0.51223E-20         0.00000E+00
    0.36959E-07        -0.11642E-19         0.00000E+00
    0.36697E-07        -0.88476E-20         0.00000E+00
    0.36435E-07        -0.62864E-20         0.00000E+00
    0.36176E-07        -0.72177E-20         0.00000E+00
    0.35919E-07        -0.39581E-20         0.00000E+00
    0.35665E-07         0.30268E-20         0.00000E+00
    0.35416E-07         0.79162E-20         0.00000E+00
    0.35170E-07        -0.76834E-20         0.00000E+00
    0.34930E-07        -0.69849E-21         0.00000E+00
    0.34696E-07         0.22352E-19         0.00000E+00
    0.34467E-07         0.76834E-20         0.00000E+00
    0.34245E-07        -0.21886E-19         0.00000E+00
    0.34031E-07        -0.30734E-19         0.00000E+00
    0.33823E-07        -0.29337E-19         0.00000E+00
    0.33624E-07        -0.32829E-19         0.00000E+00
    0.33433E-07        -0.40280E-19         0.00000E+00
    0.33251E-07        -0.52154E-19         0.00000E+00
    0.33077E-07        -0.38650E-19         0.00000E+00
    0.32913E-07        -0.36554E-19         0.00000E+00
    0.32758E-07        -0.40047E-19         0.00000E+00
    0.32613E-07        -0.54482E-19         0.00000E+00
    0.32478E-07        -0.59372E-19         0.00000E+00
    0.32353E-07        -0.46566E-19         0.00000E+00
    0.32238E-07        -0.53085E-19         0.00000E+00
    0.32133E-07        -0.36554E-19         0.00000E+00
    0.32039E-07        -0.36322E-19         0.00000E+00
    0.31955E-07        -0.36554E-19         0.00000E+00
    0.31882E-07        -0.22352E-19         0.00000E+00
    0.31819E-07        -0.28405E-19         0.00000E+00
    0.31767E-07        -0.21420E-19         0.00000E+00
    0.31724E-07        -0.32363E-19         0.00000E+00
    0.31693E-07        -0.42142E-19         0.00000E+00
    0.31671E-07        -0.41211E-19         0.00000E+00
    0.31659E-07        -0.26077E-19         0.00000E+00
    0.31658E-07        -0.13271E-19         0.00000E+00
    0.31666E-07        -0.20955E-19         0.00000E+00
    0.31683E-07        -0.23982E-19         0.00000E+00
    0.31709E-07        -0.18626E-20         0.00000E+00
    0.31745E-07         0.15600E-19         0.00000E+00
    0.31789E-07         0.12340E-19         0.00000E+00
    0.31842E-07         0.13970E-20         0.00000E+00
    0.31902E-07        -0.97789E-20         0.00000E+00
    0.31970E-07        -0.83819E-20         0.00000E+00
    0.32045E-07        -0.20955E-20         0.00000E+00
    0.32127E-07         0.10710E-19         0.00000E+00
    0.32216E-07         0.65193E-20         0.00000E+00
    0.32310E-07         0.79162E-20         0.00000E+00
    0.32410E-07         0.10012E-19         0.00000E+00
    0.32514E-07        -0.11642E-20         0.00000E+00
    0.32623E-07         0.11642E-20         0.00000E+00
    0.32735E-07        -0.69849E-21         0.00000E+00
    0.32851E-07         0.69849E-20         0.00000E+00
    0.32969E-07         0.11176E-19         0.00000E+00
    0.33089E-07         0.69849E-20         0.00000E+00
    0.33210E-07         0.21886E-19         0.00000E+00
    0.33332E-07         0.21653E-19         0.00000E+00
    0.33454E-07         0.20023E-19         0.00000E+00
    0.33576E-07         0.21420E-19         0.00000E+00
    0.33695E-07         0.23516E-19         0.00000E+00
    0.33813E-07         0.21420E-19         0.00000E+00
    0.33928E-07         0.95461E-20         0.00000E+00
    0.34040E-07         0.34925E-20         0.00000E+00
    0.34147E-07         0.10245E-19         0.00000E+00
    0.34250E-07         0.36787E-19         0.00000E+00
    0.34346E-07         0.49011E-19         0.00000E+00
    0.34437E-07         0.27707E-19         0.00000E+00
    0.34521E-07         0.12806E-19         0.00000E+00
    0.34597E-07         0.48894E-20         0.00000E+00
    0.34666E-07         0.93132E-20         0.00000E+00
    0.34725E-07         0.25961E-19         0.00000E+00
    0.34776E-07         0.47032E-19         0.00000E+00
    0.34817E-07         0.37951E-19         0.00000E+00
    0.34848E-07         0.15600E-19         0.00000E+00
    0.34869E-07         0.13039E-19         0.00000E+00
    0.34880E-07         0.55879E-20         0.00000E+00
    0.41429E-07        -0.46566E-21         0.00000E+00
    0.41410E-07         0.19791E-19         0.00000E+00
    0.41373E-07         0.33528E-19         0.00000E+00
    0.41319E-07         0.58673E-19         0.00000E+00
    0.41246E-07         0.87079E-19         0.00000E+00
    0.41156E-07         0.59837E-19         0.00000E+00
    0.41050E-07         0.55647E-19         0.00000E+00
    0.40927E-07         0.59372E-19         0.00000E+00
    0.40790E-07         0.54948E-19         0.00000E+00
    0.40638E-07         0.27241E-19         0.00000E+00
    0.40472E-07        -0.69849E-21         0.00000E+00
    0.40294E-07        -0.20955E-20         0.00000E+00
    0.40103E-07         0.12340E-19         0.00000E+00
    0.39902E-07         0.20256E-19         0.00000E+00
    0.39691E-07        -0.14668E-19         0.00000E+00
    0.39470E-07        -0.24913E-19         0.00000E+00
    0.39241E-07         0.55879E-20         0.00000E+00
    0.39005E-07         0.25379E-19         0.00000E+00
    0.38762E-07        -0.55879E-20         0.00000E+00
    0.38514E-07        -0.23283E-19         0.00000E+00
    0.38261E-07        -0.72177E-20         0.00000E+00
    0.38005E-07         0.14435E-19         0.00000E+00
    0.37746E-07         0.95461E-20         0.00000E+00
    0.37484E-07        -0.14435E-19         0.00000E+00
    0.37222E-07        -0.10245E-19         0.00000E+00
    0.36959E-07         0.69849E-20         0.00000E+00
    0.36697E-07         0.41910E-20         0.00000E+00
    0.36435E-07        -0.14901E-19         0.00000E+00
    0.36176E-07        -0.81491E-20         0.00000E+00
    0.35919E-07         0.48894E-20         0.00000E+00
    0.35665E-07         0.25611E-20         0.00000E+00
    0.35416E-07         0.27940E-20         0.00000E+00
    0.35170E-07         0.67521E-20         0.00000E+00
    0.34930E-07         0.23050E-19         0.00000E+00
    0.34696E-07         0.20489E-19         0.00000E+00
    0.34467E-07         0.53551E-20         0.00000E+00
    0.34245E-07        -0.30268E-20         0.00000E+00
    0.34031E-07        -0.65193E-20         0.00000E+00
    0.33823E-07        -0.12573E-19         0.00000E+00
    0.33624E-07        -0.30268E-19         0.00000E+00
    0.33433E-07        -0.51223E-19         0.00000E+00
    0.33251E-07        -0.53551E-19         0.00000E+00
    0.33077E-07        -0.46100E-19         0.00000E+00
    0.32913E-07        -0.35390E-19         0.00000E+00
    0.32758E-07        -0.38184E-19         0.00000E+00
    0.32613E-07        -0.51223E-19         0.00000E+00
    0.32478E-07        -0.52620E-19         0.00000E+00
    0.32353E-07        -0.62631E-19         0.00000E+00
    0.32238E-07        -0.53318E-19         0.00000E+00
    0.32133E-07        -0.23982E-19         0.00000E+00
    0.32039E-07        -0.23516E-19         0.00000E+00
    0.31955E-07        -0.33993E-19         0.00000E+00
    0.31882E-07        -0.18161E-19         0.00000E+00
    0.31819E-07        -0.21420E-19         0.00000E+00
    0.31767E-07        -0.17229E-19         0.00000E+00
    0.31724E-07        -0.22119E-19         0.00000E+00
    0.31693E-07        -0.27940E-19         0.00000E+00
    0.31671E-07        -0.18394E-19         0.00000E+00
    0.31659E-07        -0.17462E-19         0.00000E+00
    0.31658E-07        -0.51223E-20         0.00000E+00
    0.31666E-07         0.48894E-20         0.00000E+00
    0.31683E-07        -0.46566E-20         0.00000E+00
    0.31709E-07         0.79162E-20         0.00000E+00
    0.31745E-07         0.21653E-19         0.00000E+00
    0.31789E-07         0.13271E-19         0.00000E+00
    0.31842E-07         0.13970E-20         0.00000E+00
    0.31902E-07         0.48894E-20         0.00000E+00
    0.31970E-07         0.48894E-20         0.00000E+00
    0.32045E-07         0.27940E-20         0.00000E+00
    0.32127E-07         0.74506E-20         0.00000E+00
    0.32216E-07         0.13039E-19         0.00000E+00
    0.32310E-07         0.51223E-20         0.00000E+00
    0.32410E-07         0.21886E-19         0.00000E+00
    0.32514E-07         0.25146E-19         0.00000E+00
    0.32623E-07         0.97789E-20         0.00000E+00
    0.32735E-07         0.14435E-19         0.00000E+00
    0.32851E-07         0.15367E-19         0.00000E+00
    0.32969E-07         0.39581E-20         0.00000E+00
    0.33089E-07         0.15832E-19         0.00000E+00
    0.33210E-07         0.20955E-19         0.00000E+00
    0.33332E-07         0.19325E-19         0.00000E+00
    0.33454E-07         0.41444E-19         0.00000E+00
    0.33576E-07         0.48429E-19         0.00000E+00
    0.33695E-07         0.12107E-19         0.00000E+00
    0.33813E-07        -0.18626E-20         0.00000E+00
    0.33928E-07         0.25146E-19         0.00000E+00
    0.34040E-07         0.22352E-19         0.00000E+00
    0.34147E-07         0.22119E-19         0.00000E+00
    0.34250E-07         0.36671E-19         0.00000E+00
    0.34346E-07         0.32480E-19         0.00000E+00
    0.34437E-07         0.32247E-19         0.00000E+00
    0.34521E-07         0.25146E-19         0.00000E+00
    0.34597E-07         0.11059E-19         0.00000E+00
    0.34666E-07         0.79162E-20         0.00000E+00
    0.34725E-07         0.15018E-19         0.00000E+00
    0.34776E-07         0.24214E-19         0.00000E+00
    0.34817E-07         0.21304E-19         0.00000E+00
    0.34848E-07         0.22002E-19         0.00000E+00
    0.34869E-07         0.12107E-19         0.00000E+00
    0.34880E-07        -0.43074E-20         0.00000E+00
    0.41429E-07        -0.17229E-19         0.00000E+00
    0.41410E-07         0.48894E-20         0.00000E+00
    0.41373E-07         0.27940E-19         0.00000E+00
    0.41319E-07         0.72177E-20         0.00000E+00
    0.41246E-07         0.20955E-19         0.00000E+00
    0.41156E-07         0.34692E-19         0.00000E+00
    0.41050E-07         0.28173E-19         0.00000E+00
    0.40927E-07         0.51223E-20         0.00000E+00
    0.40790E-07        -0.27940E-20         0.00000E+00
    0.40638E-07         0.14668E-19         0.00000E+00
    0.40472E-07         0.30268E-20         0.00000E+00
    0.40294E-07        -0.25844E-19         0.00000E+00
    0.40103E-07        -0.41910E-20         0.00000E+00
    0.39902E-07         0.11874E-19         0.00000E+00
    0.39691E-07         0.28173E-19         0.00000E+00
    0.39470E-07         0.28871E-19         0.00000E+00
    0.39241E-07         0.16065E-19         0.00000E+00
    0.39005E-07        -0.65193E-20         0.00000E+00
    0.38762E-07        -0.21886E-19         0.00000E+00
    0.38514E-07        -0.93132E-20         0.00000E+00
    0.38261E-07        -0.76834E-20         0.00000E+00
    0.38005E-07         0.46566E-20         0.00000E+00
    0.37746E-07         0.12573E-19         0.00000E+00
    0.37484E-07        -0.20955E-20         0.00000E+00
    0.37222E-07         0.18626E-20         0.00000E+00
    0.36959E-07        -0.23283E-21         0.00000E+00
    0.36697E-07        -0.13970E-19         0.00000E+00
    0.36435E-07        -0.23283E-20         0.00000E+00
    0.36176E-07        -0.41910E-20         0.00000E+00
    0.35919E-07        -0.16531E-19         0.00000E+00
    0.35665E-07         0.10943E-19         0.00000E+00
    0.35416E-07         0.30268E-19         0.00000E+00
    0.35170E-07         0.19092E-19         0.00000E+00
    0.34930E-07         0.31199E-19         0.00000E+00
    0.34696E-07         0.23516E-19         0.00000E+00
    0.34467E-07         0.13737E-19         0.00000E+00
    0.34245E-07         0.19791E-19         0.00000E+00
    0.34031E-07        -0.13970E-20         0.00000E+00
    0.33823E-07        -0.97789E-20         0.00000E+00
    0.33624E-07        -0.22352E-19         0.00000E+00
    0.33433E-07        -0.37253E-19         0.00000E+00
    0.33251E-07        -0.46333E-19         0.00000E+00
    0.33077E-07        -0.46566E-19         0.00000E+00
    0.32913E-07        -0.40047E-19         0.00000E+00
    0.32758E-07        -0.37020E-19         0.00000E+00
    0.32613E-07        -0.48429E-19         0.00000E+00
    0.32478E-07        -0.50059E-19         0.00000E+00
    0.32353E-07        -0.44005E-19         0.00000E+00
    0.32238E-07        -0.42841E-19         0.00000E+00
    0.32133E-07        -0.40047E-19         0.00000E+00
    0.32039E-07        -0.36787E-19         0.00000E+00
    0.31955E-07        -0.33993E-19         0.00000E+00
    0.31882E-07        -0.21420E-19         0.00000E+00
    0.31819E-07        -0.15367E-19         0.00000E+00
    0.31767E-07        -0.37253E-19         0.00000E+00
    0.31724E-07        -0.63330E-19         0.00000E+00
    0.31693E-07        -0.66357E-19         0.00000E+00
    0.31671E-07        -0.45402E-19         0.00000E+00
    0.31659E-07        -0.33295E-19         0.00000E+00
    0.31658E-07        -0.34226E-19         0.00000E+00
    0.31666E-07        -0.37253E-19         0.00000E+00
    0.31683E-07        -0.25611E-19         0.00000E+00
    0.31709E-07        -0.19092E-19         0.00000E+00
    0.31745E-07        -0.22585E-19         0.00000E+00
    0.31789E-07        -0.10012E-19         0.00000E+00
    0.31842E-07        -0.12806E-19         0.00000E+00
    0.31902E-07        -0.86147E-20         0.00000E+00
    0.31970E-07        -0.20023E-19         0.00000E+00
    0.32045E-07        -0.26543E-19         0.00000E+00
    0.32127E-07        -0.51223E-20         0.00000E+00
    0.32216E-07        -0.11642E-19         0.00000E+00
    0.32310E-07        -0.23283E-20         0.00000E+00
    0.32410E-07         0.14203E-19         0.00000E+00
    0.32514E-07         0.62864E-20         0.00000E+00
    0.32623E-07        -0.93132E-21         0.00000E+00
    0.32735E-07         0.69849E-21         0.00000E+00
    0.32851E-07         0.17229E-19         0.00000E+00
    0.32969E-07        -0.20955E-20         0.00000E+00
    0.33089E-07        -0.97789E-20         0.00000E+00
    0.33210E-07         0.00000E+00         0.00000E+00
    0.33332E-07        -0.30268E-20         0.00000E+00
    0.33454E-07         0.13271E-19         0.00000E+00
    0.33576E-07         0.79162E-20         0.00000E+00
    0.33695E-07        -0.67521E-20         0.00000E+00
    0.33813E-07         0.46566E-21         0.00000E+00
    0.33928E-07         0.16997E-19         0.00000E+00
    0.34040E-07         0.18626E-19         0.00000E+00
    0.34147E-07         0.22235E-19         0.00000E+00
    0.34250E-07         0.30501E-19         0.00000E+00
    0.34346E-07         0.44936E-19         0.00000E+00
    0.34437E-07         0.33877E-19         0.00000E+00
    0.34521E-07         0.18044E-19         0.00000E+00
    0.34597E-07         0.18859E-19         0.00000E+00
    0.34666E-07         0.12107E-19         0.00000E+00
    0.34725E-07         0.10594E-19         0.00000E+00
    0.34776E-07         0.96625E-20         0.00000E+00
    0.34817E-07         0.12107E-19         0.00000E+00
    0.34848E-07         0.17113E-19         0.00000E+00
    0.34869E-07         0.66357E-20         0.00000E+00
    0.34880E-07        -0.31432E-20         0.00000E+00
    0.41429E-07        -0.16764E-19         0.00000E+00
    0.41410E-07         0.39581E-20         0.00000E+00
    0.41373E-07         0.27474E-19         0.00000E+00
    0.41319E-07         0.32131E-19         0.00000E+00
    0.41246E-07         0.50291E-19         0.00000E+00
    0.41156E-07         0.69151E-19         0.00000E+00
    0.41050E-07         0.61234E-19         0.00000E+00
    0.40927E-07         0.30734E-19         0.00000E+00
    0.40790E-07         0.27707E-19         0.00000E+00
    0.40638E-07         0.22119E-19         0.00000E+00
    0.40472E-07         0.18859E-19         0.00000E+00
    0.40294E-07        -0.10477E-19         0.00000E+00
    0.40103E-07        -0.16065E-19         0.00000E+00
    0.39902E-07         0.69849E-21         0.00000E+00
    0.39691E-07        -0.25611E-20         0.00000E+00
    0.39470E-07         0.12573E-19         0.00000E+00
    0.39241E-07         0.34925E-19         0.00000E+00
    0.39005E-07         0.65193E-20         0.00000E+00
    0.38762E-07         0.11176E-19         0.00000E+00
    0.38514E-07         0.23749E-19         0.00000E+00
    0.38261E-07        -0.86147E-20         0.00000E+00
    0.38005E-07        -0.13504E-19         0.00000E+00
    0.37746E-07         0.81491E-20         0.00000E+00
    0.37484E-07         0.10245E-19         0.00000E+00
    0.37222E-07         0.55879E-20         0.00000E+00
    0.36959E-07         0.15367E-19         0.00000E+00
    0.36697E-07         0.10012E-19         0.00000E+00
    0.36435E-07         0.62864E-20         0.00000E+00
    0.36176E-07         0.25379E-19         0.00000E+00
    0.35919E-07         0.33528E-19         0.00000E+00
    0.35665E-07         0.28638E-19         0.00000E+00
    0.35416E-07         0.12573E-19         0.00000E+00
    0.35170E-07         0.16065E-19         0.00000E+00
    0.34930E-07         0.97789E-20         0.00000E+00
    0.34696E-07         0.67521E-20         0.00000E+00
    0.34467E-07         0.22817E-19         0.00000E+00
    0.34245E-07         0.23283E-20         0.00000E+00
    0.34031E-07        -0.60536E-20         0.00000E+00
    0.33823E-07         0.93132E-21         0.00000E+00
    0.33624E-07        -0.22352E-19         0.00000E+00
    0.33433E-07        -0.32363E-19         0.00000E+00
    0.33251E-07        -0.33062E-19         0.00000E+00
    0.33077E-07        -0.44238E-19         0.00000E+00
    0.32913E-07        -0.40745E-19         0.00000E+00
    0.32758E-07        -0.47730E-19         0.00000E+00
    0.32613E-07        -0.62631E-19         0.00000E+00
    0.32478E-07        -0.63330E-19         0.00000E+00
    0.32353E-07        -0.56112E-19         0.00000E+00
    0.32238E-07        -0.41677E-19         0.00000E+00
    0.32133E-07        -0.13970E-19         0.00000E+00
    0.32039E-07        -0.15600E-19         0.00000E+00
    0.31955E-07        -0.25146E-19         0.00000E+00
    0.31882E-07        -0.97789E-20         0.00000E+00
    0.31819E-07        -0.21188E-19         0.00000E+00
    0.31767E-07        -0.33993E-19         0.00000E+00
    0.31724E-07        -0.47963E-19         0.00000E+00
    0.31693E-07        -0.57509E-19         0.00000E+00
    0.31671E-07        -0.64727E-19         0.00000E+00
    0.31659E-07        -0.40978E-19         0.00000E+00
    0.31658E-07        -0.23283E-19         0.00000E+00
    0.31666E-07        -0.33993E-19         0.00000E+00
    0.31683E-07        -0.20955E-19         0.00000E+00
    0.31709E-07        -0.23283E-20         0.00000E+00
    0.31745E-07         0.16298E-20         0.00000E+00
    0.31789E-07         0.13737E-19         0.00000E+00
    0.31842E-07         0.67521E-20         0.00000E+00
    0.31902E-07        -0.29802E-19         0.00000E+00
    0.31970E-07        -0.19325E-19         0.00000E+00
    0.32045E-07         0.93132E-21         0.00000E+00
    0.32127E-07        -0.13504E-19         0.00000E+00
    0.32216E-07         0.93132E-21         0.00000E+00
    0.32310E-07         0.97789E-20         0.00000E+00
    0.32410E-07         0.16065E-19         0.00000E+00
    0.32514E-07         0.22352E-19         0.00000E+00
    0.32623E-07         0.14668E-19         0.00000E+00
    0.32735E-07         0.23283E-19         0.00000E+00
    0.32851E-07         0.29802E-19         0.00000E+00
    0.32969E-07         0.20955E-19         0.00000E+00
    0.33089E-07         0.18626E-19         0.00000E+00
    0.33210E-07         0.12107E-19         0.00000E+00
    0.33332E-07         0.13737E-19         0.00000E+00
    0.33454E-07         0.21420E-19         0.00000E+00
    0.33576E-07         0.93132E-20         0.00000E+00
    0.33695E-07         0.17462E-19         0.00000E+00
    0.33813E-07         0.13039E-19         0.00000E+00
    0.33928E-07         0.65193E-20         0.00000E+00
    0.34040E-07         0.13504E-19         0.00000E+00
    0.34147E-07         0.23982E-19         0.00000E+00
    0.34250E-07         0.22002E-19         0.00000E+00
    0.34346E-07         0.22934E-19         0.00000E+00
    0.34437E-07         0.32829E-19         0.00000E+00
    0.34521E-07         0.10594E-19         0.00000E+00
    0.34597E-07         0.18859E-19         0.00000E+00
    0.34666E-07         0.44703E-19         0.00000E+00
    0.34725E-07         0.32247E-19         0.00000E+00
    0.34776E-07         0.22585E-19         0.00000E+00
    0.34817E-07         0.24680E-19         0.00000E+00
    0.34848E-07         0.18161E-19         0.00000E+00
    0.34869E-07         0.81491E-20         0.00000E+00
    0.34880E-07         0.61700E-20         0.00000E+00
    0.41429E-07         0.25146E-19         0.00000E+00
    0.41410E-07         0.35623E-19         0.00000E+00
    0.41373E-07         0.51688E-19         0.00000E+00
    0.41319E-07         0.76368E-19         0.00000E+00
    0.41246E-07         0.25146E-19         0.00000E+00
    0.41156E-07         0.44005E-19         0.00000E+00
    0.41050E-07         0.41677E-19         0.00000E+00
    0.40927E-07         0.37253E-20         0.00000E+00
    0.40790E-07         0.93132E-21         0.00000E+00
    0.40638E-07        -0.19325E-19         0.00000E+00
    0.40472E-07         0.10012E-19         0.00000E+00
    0.40294E-07         0.20955E-20         0.00000E+00
    0.40103E-07        -0.18626E-19         0.00000E+00
    0.39902E-07        -0.32596E-20         0.00000E+00
    0.39691E-07         0.33993E-19         0.00000E+00
    0.39470E-07         0.50524E-19         0.00000E+00
    0.39241E-07         0.42841E-19         0.00000E+00
    0.39005E-07         0.27940E-19         0.00000E+00
    0.38762E-07         0.13970E-19         0.00000E+00
    0.38514E-07         0.15832E-19         0.00000E+00
    0.38261E-07         0.18626E-20         0.00000E+00
    0.38005E-07        -0.67521E-20         0.00000E+00
    0.37746E-07        -0.93132E-21         0.00000E+00
    0.37484E-07        -0.48894E-20         0.00000E+00
    0.37222E-07         0.69849E-21         0.00000E+00
    0.36959E-07         0.19558E-19         0.00000E+00
    0.36697E-07         0.81491E-20         0.00000E+00
    0.36435E-07         0.69849E-20         0.00000E+00
    0.36176E-07         0.35623E-19         0.00000E+00
    0.35919E-07         0.35157E-19         0.00000E+00
    0.35665E-07         0.81491E-20         0.00000E+00
    0.35416E-07         0.25146E-19         0.00000E+00
    0.35170E-07         0.36554E-19         0.00000E+00
    0.34930E-07         0.39581E-20         0.00000E+00
    0.34696E-07         0.60536E-20         0.00000E+00
    0.34467E-07         0.12340E-19         0.00000E+00
    0.34245E-07        -0.10245E-19         0.00000E+00
    0.34031E-07        -0.19558E-19         0.00000E+00
    0.33823E-07        -0.24214E-19         0.00000E+00
    0.33624E-07        -0.23283E-19         0.00000E+00
    0.33433E-07        -0.28638E-19         0.00000E+00
    0.33251E-07        -0.37486E-19         0.00000E+00
    0.33077E-07        -0.28405E-19         0.00000E+00
    0.32913E-07        -0.54250E-19         0.00000E+00
    0.32758E-07        -0.69849E-19         0.00000E+00
    0.32613E-07        -0.45635E-19         0.00000E+00
    0.32478E-07        -0.57975E-19         0.00000E+00
    0.32353E-07        -0.40047E-19         0.00000E+00
    0.32238E-07        -0.23982E-19         0.00000E+00
    0.32133E-07        -0.42608E-19         0.00000E+00
    0.32039E-07        -0.31898E-19         0.00000E+00
    0.31955E-07        -0.22817E-19         0.00000E+00
    0.31882E-07        -0.19558E-19         0.00000E+00
    0.31819E-07        -0.90804E-20         0.00000E+00
    0.31767E-07        -0.28871E-19         0.00000E+00
    0.31724E-07        -0.54482E-19         0.00000E+00
    0.31693E-07        -0.63330E-19         0.00000E+00
    0.31671E-07        -0.64727E-19         0.00000E+00
    0.31659E-07        -0.41211E-19         0.00000E+00
    0.31658E-07        -0.27474E-19         0.00000E+00
    0.31666E-07        -0.26310E-19         0.00000E+00
    0.31683E-07        -0.19092E-19         0.00000E+00
    0.31709E-07        -0.10245E-19         0.00000E+00
    0.31745E-07         0.93132E-20         0.00000E+00
    0.31789E-07         0.62864E-20         0.00000E+00
    0.31842E-07        -0.81491E-20         0.00000E+00
    0.31902E-07        -0.15832E-19         0.00000E+00
    0.31970E-07         0.32596E-20         0.00000E+00
    0.32045E-07         0.21886E-19         0.00000E+00
    0.32127E-07         0.60536E-20         0.00000E+00
    0.32216E-07         0.93132E-21         0.00000E+00
    0.32310E-07         0.17695E-19         0.00000E+00
    0.32410E-07         0.13271E-19         0.00000E+00
    0.32514E-07         0.28405E-19         0.00000E+00
    0.32623E-07         0.29104E-19         0.00000E+00
    0.32735E-07         0.15367E-19         0.00000E+00
    0.32851E-07         0.37253E-20         0.00000E+00
    0.32969E-07         0.15600E-19         0.00000E+00
    0.33089E-07         0.12573E-19         0.00000E+00
    0.33210E-07        -0.46566E-21         0.00000E+00
    0.33332E-07         0.34925E-20         0.00000E+00
    0.33454E-07        -0.62864E-20         0.00000E+00
    0.33576E-07        -0.23283E-20         0.00000E+00
    0.33695E-07         0.14203E-19         0.00000E+00
    0.33813E-07         0.12107E-19         0.00000E+00
    0.33928E-07         0.23283E-21         0.00000E+00
    0.34040E-07         0.15134E-19         0.00000E+00
    0.34147E-07         0.30501E-19         0.00000E+00
    0.34250E-07         0.32363E-19         0.00000E+00
    0.34346E-07         0.30966E-19         0.00000E+00
    0.34437E-07         0.14552E-19         0.00000E+00
    0.34521E-07         0.27358E-19         0.00000E+00
    0.34597E-07         0.32596E-19         0.00000E+00
    0.34666E-07         0.26426E-19         0.00000E+00
    0.34725E-07         0.21886E-19         0.00000E+00
    0.34776E-07         0.12806E-19         0.00000E+00
    0.34817E-07         0.88476E-20         0.00000E+00
    0.34848E-07         0.21653E-19         0.00000E+00
    0.34869E-07         0.14668E-19         0.00000E+00
    0.34880E-07        -0.64028E-20         0.00000E+00
    0.41429E-07         0.22352E-19         0.00000E+00
    0.41410E-07         0.18859E-19         0.00000E+00
    0.41373E-07         0.36787E-19         0.00000E+00
    0.41319E-07         0.38417E-19         0.00000E+00
    0.41246E-07         0.46100E-19         0.00000E+00
    0.41156E-07         0.21653E-19         0.00000E+00
    0.41050E-07        -0.86147E-20         0.00000E+00
    0.40927E-07         0.13504E-19         0.00000E+00
    0.40790E-07         0.12806E-19         0.00000E+00
    0.40638E-07         0.58208E-20         0.00000E+00
    0.40472E-07        -0.46566E-20         0.00000E+00
    0.40294E-07         0.10710E-19         0.00000E+00
    0.40103E-07         0.30268E-20         0.00000E+00
    0.39902E-07        -0.28173E-19         0.00000E+00
    0.39691E-07         0.86147E-20         0.00000E+00
    0.39470E-07         0.25146E-19         0.00000E+00
    0.39241E-07        -0.46566E-20         0.00000E+00
    0.39005E-07        -0.23283E-20         0.00000E+00
    0.38762E-07        -0.23283E-20         0.00000E+00
    0.38514E-07        -0.93132E-20         0.00000E+00
    0.38261E-07        -0.53551E-20         0.00000E+00
    0.38005E-07        -0.16531E-19         0.00000E+00
    0.37746E-07        -0.26543E-19         0.00000E+00
    0.37484E-07        -0.23283E-19         0.00000E+00
    0.37222E-07        -0.16298E-20         0.00000E+00
    0.36959E-07         0.00000E+00         0.00000E+00
    0.36697E-07         0.69849E-20         0.00000E+00
    0.36435E-07         0.12340E-19         0.00000E+00
    0.36176E-07         0.32596E-20         0.00000E+00
    0.35919E-07         0.11409E-19         0.00000E+00
    0.35665E-07        -0.95461E-20         0.00000E+00
    0.35416E-07        -0.21420E-19         0.00000E+00
    0.35170E-07         0.11409E-19         0.00000E+00
    0.34930E-07         0.23749E-19         0.00000E+00
    0.34696E-07         0.34925E-20         0.00000E+00
    0.34467E-07         0.60536E-20         0.00000E+00
    0.34245E-07         0.10245E-19         0.00000E+00
    0.34031E-07        -0.13970E-19         0.00000E+00
    0.33823E-07        -0.30268E-19         0.00000E+00
    0.33624E-07        -0.19092E-19         0.00000E+00
    0.33433E-07        -0.25844E-19         0.00000E+00
    0.33251E-07        -0.43306E-19         0.00000E+00
    0.33077E-07        -0.40047E-19         0.00000E+00
    0.32913E-07        -0.37486E-19         0.00000E+00
    0.32758E-07        -0.47032E-19         0.00000E+00
    0.32613E-07        -0.42142E-19         0.00000E+00
    0.32478E-07        -0.63330E-19         0.00000E+00
    0.32353E-07        -0.37253E-19         0.00000E+00
    0.32238E-07        -0.60536E-20         0.00000E+00
    0.32133E-07        -0.39348E-19         0.00000E+00
    0.32039E-07        -0.37951E-19         0.00000E+00
    0.31955E-07        -0.12107E-19         0.00000E+00
    0.31882E-07        -0.22585E-19         0.00000E+00
    0.31819E-07        -0.29569E-19         0.00000E+00
    0.31767E-07        -0.18626E-19         0.00000E+00
    0.31724E-07        -0.31665E-19         0.00000E+00
    0.31693E-07        -0.39814E-19         0.00000E+00
    0.31671E-07        -0.67987E-19         0.00000E+00
    0.31659E-07        -0.72177E-19         0.00000E+00
    0.31658E-07        -0.35856E-19         0.00000E+00
    0.31666E-07        -0.12806E-19         0.00000E+00
    0.31683E-07        -0.16298E-19         0.00000E+00
    0.31709E-07        -0.93132E-20         0.00000E+00
    0.31745E-07        -0.27940E-20         0.00000E+00
    0.31789E-07        -0.69849E-21         0.00000E+00
    0.31842E-07         0.39581E-20         0.00000E+00
    0.31902E-07         0.23283E-20         0.00000E+00
    0.31970E-07        -0.23283E-21         0.00000E+00
    0.32045E-07        -0.23283E-21         0.00000E+00
    0.32127E-07        -0.60536E-20         0.00000E+00
    0.32216E-07        -0.88476E-20         0.00000E+00
    0.32310E-07         0.48894E-20         0.00000E+00
    0.32410E-07        -0.39581E-20         0.00000E+00
    0.32514E-07         0.46566E-21         0.00000E+00
    0.32623E-07         0.69849E-20         0.00000E+00
    0.32735E-07        -0.67521E-20         0.00000E+00
    0.32851E-07        -0.13504E-19         0.00000E+00
    0.32969E-07         0.13970E-20         0.00000E+00
    0.33089E-07         0.11176E-19         0.00000E+00
    0.33210E-07         0.37253E-20         0.00000E+00
    0.33332E-07         0.88476E-20         0.00000E+00
    0.33454E-07         0.74506E-20         0.00000E+00
    0.33576E-07         0.27940E-20         0.00000E+00
    0.33695E-07         0.11176E-19         0.00000E+00
    0.33813E-07         0.93132E-20         0.00000E+00
    0.33928E-07         0.37253E-20         0.00000E+00
    0.34040E-07         0.97789E-20         0.00000E+00
    0.34147E-07         0.19092E-19         0.00000E+00
    0.34250E-07         0.23050E-19         0.00000E+00
    0.34346E-07         0.17113E-19         0.00000E+00
    0.34437E-07         0.15949E-19         0.00000E+00
    0.34521E-07         0.25495E-19         0.00000E+00
    0.34597E-07         0.33295E-19         0.00000E+00
    0.34666E-07         0.29919E-19         0.00000E+00
    0.34725E-07         0.10943E-19         0.00000E+00
    0.34776E-07         0.16298E-20         0.00000E+00
    0.34817E-07         0.19558E-19         0.00000E+00
    0.34848E-07         0.14668E-19         0.00000E+00
    0.34869E-07         0.81491E-21         0.00000E+00
    0.34880E-07         0.18626E-20         0.00000E+00
    0.41429E-07         0.11642E-19         0.00000E+00
    0.41410E-07         0.23749E-19         0.00000E+00
    0.41373E-07         0.25611E-19         0.00000E+00
    0.41319E-07         0.33528E-19         0.00000E+00
    0.41246E-07         0.50291E-19         0.00000E+00
    0.41156E-07         0.52853E-19         0.00000E+00
    0.41050E-07         0.79861E-19         0.00000E+00
    0.40927E-07         0.61933E-19         0.00000E+00
    0.40790E-07         0.56811E-19         0.00000E+00
    0.40638E-07         0.59837E-19         0.00000E+00
    0.40472E-07         0.23283E-21         0.00000E+00
    0.40294E-07        -0.23982E-19         0.00000E+00
    0.40103E-07        -0.67521E-20         0.00000E+00
    0.39902E-07         0.37253E-20         0.00000E+00
    0.39691E-07         0.23516E-19         0.00000E+00
    0.39470E-07         0.48196E-19         0.00000E+00
    0.39241E-07         0.29802E-19         0.00000E+00
    0.39005E-07         0.15600E-19         0.00000E+00
    0.38762E-07         0.10012E-19         0.00000E+00
    0.38514E-07         0.14901E-19         0.00000E+00
    0.38261E-07         0.72177E-20         0.00000E+00
    0.38005E-07        -0.18161E-19         0.00000E+00
    0.37746E-07        -0.51223E-20         0.00000E+00
    0.37484E-07         0.13271E-19         0.00000E+00
    0.37222E-07         0.15134E-19         0.00000E+00
    0.36959E-07         0.20023E-19         0.00000E+00
    0.36697E-07         0.24214E-19         0.00000E+00
    0.36435E-07         0.22585E-19         0.00000E+00
    0.36176E-07         0.16298E-19         0.00000E+00
    0.35919E-07         0.20256E-19         0.00000E+00
    0.35665E-07         0.18859E-19         0.00000E+00
    0.35416E-07         0.22585E-19         0.00000E+00
    0.35170E-07         0.41677E-19         0.00000E+00
    0.34930E-07         0.21886E-19         0.00000E+00
    0.34696E-07         0.65193E-20         0.00000E+00
    0.34467E-07         0.13271E-19         0.00000E+00
    0.34245E-07         0.14668E-19         0.00000E+00
    0.34031E-07         0.22817E-19         0.00000E+00
    0.33823E-07         0.60536E-20         0.00000E+00
    0.33624E-07        -0.17462E-19         0.00000E+00
    0.33433E-07        -0.38883E-19         0.00000E+00
    0.33251E-07        -0.47032E-19         0.00000E+00
    0.33077E-07        -0.51456E-19         0.00000E+00
    0.32913E-07        -0.56112E-19         0.00000E+00
    0.32758E-07        -0.46566E-19         0.00000E+00
    0.32613E-07        -0.43074E-19         0.00000E+00
    0.32478E-07        -0.27940E-19         0.00000E+00
    0.32353E-07        -0.28871E-19         0.00000E+00
    0.32238E-07        -0.52387E-19         0.00000E+00
    0.32133E-07        -0.55414E-19         0.00000E+00
    0.32039E-07        -0.19791E-19         0.00000E+00
    0.31955E-07         0.25611E-20         0.00000E+00
    0.31882E-07        -0.23283E-19         0.00000E+00
    0.31819E-07        -0.26077E-19         0.00000E+00
    0.31767E-07        -0.24214E-19         0.00000E+00
    0.31724E-07        -0.26310E-19         0.00000E+00
    0.31693E-07        -0.43306E-19         0.00000E+00
    0.31671E-07        -0.54715E-19         0.00000E+00
    0.31659E-07        -0.29337E-19         0.00000E+00
    0.31658E-07        -0.19558E-19         0.00000E+00
    0.31666E-07        -0.20023E-19         0.00000E+00
    0.31683E-07        -0.16531E-19         0.00000E+00
    0.31709E-07        -0.65193E-20         0.00000E+00
    0.31745E-07        -0.27940E-20         0.00000E+00
    0.31789E-07         0.15600E-19         0.00000E+00
    0.31842E-07         0.15600E-19         0.00000E+00
    0.31902E-07         0.14435E-19         0.00000E+00
    0.31970E-07         0.10943E-19         0.00000E+00
    0.32045E-07        -0.69849E-20         0.00000E+00
    0.32127E-07        -0.69849E-20         0.00000E+00
    0.32216E-07        -0.81491E-20         0.00000E+00
    0.32310E-07        -0.46566E-20         0.00000E+00
    0.32410E-07         0.48894E-20         0.00000E+00
    0.32514E-07         0.88476E-20         0.00000E+00
    0.32623E-07         0.48894E-20         0.00000E+00
    0.32735E-07        -0.15134E-19         0.00000E+00
    0.32851E-07        -0.41910E-20         0.00000E+00
    0.32969E-07         0.13039E-19         0.00000E+00
    0.33089E-07         0.18161E-19         0.00000E+00
    0.33210E-07         0.14901E-19         0.00000E+00
    0.33332E-07        -0.13970E-19         0.00000E+00
    0.33454E-07        -0.37253E-20         0.00000E+00
    0.33576E-07        -0.51223E-20         0.00000E+00
    0.33695E-07        -0.69849E-20         0.00000E+00
    0.33813E-07         0.13039E-19         0.00000E+00
    0.33928E-07         0.62864E-20         0.00000E+00
    0.34040E-07         0.10710E-19         0.00000E+00
    0.34147E-07         0.20955E-19         0.00000E+00
    0.34250E-07         0.18161E-19         0.00000E+00
    0.34346E-07         0.33877E-19         0.00000E+00
    0.34437E-07         0.36671E-19         0.00000E+00
    0.34521E-07         0.15949E-19         0.00000E+00
    0.34597E-07         0.20955E-19         0.00000E+00
    0.34666E-07         0.39348E-19         0.00000E+00
    0.34725E-07         0.22468E-19         0.00000E+00
    0.34776E-07         0.12107E-19         0.00000E+00
    0.34817E-07         0.74506E-20         0.00000E+00
    0.34848E-07         0.97789E-20         0.00000E+00
    0.34869E-07        -0.58208E-21         0.00000E+00
    0.34880E-07        -0.53551E-20         0.00000E+00
    0.41429E-07         0.13970E-20         0.00000E+00
    0.41410E-07         0.32363E-19         0.00000E+00
    0.41373E-07         0.35390E-19         0.00000E+00
    0.41319E-07         0.34925E-19         0.00000E+00
    0.41246E-07         0.48196E-19         0.00000E+00
    0.41156E-07         0.55647E-19         0.00000E+00
    0.41050E-07         0.71246E-19         0.00000E+00
    0.40927E-07         0.77765E-19         0.00000E+00
    0.40790E-07         0.63330E-19         0.00000E+00
    0.40638E-07         0.23749E-19         0.00000E+00
    0.40472E-07        -0.62864E-20         0.00000E+00
    0.40294E-07        -0.90804E-20         0.00000E+00
    0.40103E-07         0.45868E-19         0.00000E+00
    0.39902E-07         0.26776E-19         0.00000E+00
    0.39691E-07        -0.72177E-20         0.00000E+00
    0.39470E-07         0.21653E-19         0.00000E+00
    0.39241E-07        -0.69849E-20         0.00000E+00
    0.39005E-07        -0.38184E-19         0.00000E+00
    0.38762E-07        -0.55879E-20         0.00000E+00
    0.38514E-07        -0.46566E-21         0.00000E+00
    0.38261E-07        -0.11642E-19         0.00000E+00
    0.38005E-07        -0.20955E-19         0.00000E+00
    0.37746E-07        -0.17928E-19         0.00000E+00
    0.37484E-07         0.15367E-19         0.00000E+00
    0.37222E-07         0.25379E-19         0.00000E+00
    0.36959E-07         0.44238E-20         0.00000E+00
    0.36697E-07         0.12107E-19         0.00000E+00
    0.36435E-07         0.11874E-19         0.00000E+00
    0.36176E-07        -0.67521E-20         0.00000E+00
    0.35919E-07         0.11642E-20         0.00000E+00
    0.35665E-07        -0.39581E-20         0.00000E+00
    0.35416E-07        -0.51223E-20         0.00000E+00
    0.35170E-07         0.20955E-20         0.00000E+00
    0.34930E-07        -0.23283E-20         0.00000E+00
    0.34696E-07        -0.93132E-21         0.00000E+00
    0.34467E-07         0.20955E-20         0.00000E+00
    0.34245E-07        -0.12107E-19         0.00000E+00
    0.34031E-07        -0.16298E-19         0.00000E+00
    0.33823E-07        -0.10710E-19         0.00000E+00
    0.33624E-07        -0.15134E-19         0.00000E+00
    0.33433E-07        -0.30501E-19         0.00000E+00
    0.33251E-07        -0.45635E-19         0.00000E+00
    0.33077E-07        -0.46100E-19         0.00000E+00
    0.32913E-07        -0.48429E-19         0.00000E+00
    0.32758E-07        -0.45868E-19         0.00000E+00
    0.32613E-07        -0.53085E-19         0.00000E+00
    0.32478E-07        -0.45169E-19         0.00000E+00
    0.32353E-07        -0.41211E-19         0.00000E+00
    0.32238E-07        -0.40745E-19         0.00000E+00
    0.32133E-07        -0.21188E-19         0.00000E+00
    0.32039E-07        -0.13271E-19         0.00000E+00
    0.31955E-07        -0.21886E-19         0.00000E+00
    0.31882E-07        -0.16997E-19         0.00000E+00
    0.31819E-07        -0.86147E-20         0.00000E+00
    0.31767E-07        -0.14435E-19         0.00000E+00
    0.31724E-07        -0.21188E-19         0.00000E+00
    0.31693E-07        -0.52620E-19         0.00000E+00
    0.31671E-07        -0.45169E-19         0.00000E+00
    0.31659E-07        -0.16531E-19         0.00000E+00
    0.31658E-07        -0.31199E-19         0.00000E+00
    0.31666E-07        -0.28638E-19         0.00000E+00
    0.31683E-07        -0.27940E-20         0.00000E+00
    0.31709E-07         0.10245E-19         0.00000E+00
    0.31745E-07        -0.58208E-20         0.00000E+00
    0.31789E-07        -0.76834E-20         0.00000E+00
    0.31842E-07         0.46566E-21         0.00000E+00
    0.31902E-07        -0.14901E-19         0.00000E+00
    0.31970E-07        -0.32596E-20         0.00000E+00
    0.32045E-07         0.11409E-19         0.00000E+00
    0.32127E-07         0.81491E-20         0.00000E+00
    0.32216E-07         0.12340E-19         0.00000E+00
    0.32310E-07         0.34925E-20         0.00000E+00
    0.32410E-07         0.27940E-20         0.00000E+00
    0.32514E-07         0.12573E-19         0.00000E+00
    0.32623E-07         0.27008E-19         0.00000E+00
    0.32735E-07         0.12340E-19         0.00000E+00
    0.32851E-07        -0.18626E-20         0.00000E+00
    0.32969E-07         0.27940E-20         0.00000E+00
    0.33089E-07        -0.37253E-20         0.00000E+00
    0.33210E-07         0.93132E-21         0.00000E+00
    0.33332E-07        -0.81491E-20         0.00000E+00
    0.33454E-07        -0.26776E-19         0.00000E+00
    0.33576E-07        -0.62864E-20         0.00000E+00
    0.33695E-07         0.51223E-20         0.00000E+00
    0.33813E-07        -0.23283E-20         0.00000E+00
    0.33928E-07         0.90804E-20         0.00000E+00
    0.34040E-07         0.10477E-19         0.00000E+00
    0.34147E-07         0.16182E-19         0.00000E+00
    0.34250E-07         0.37835E-19         0.00000E+00
    0.34346E-07         0.36671E-19         0.00000E+00
    0.34437E-07         0.24564E-19         0.00000E+00
    0.34521E-07         0.21770E-19         0.00000E+00
    0.34597E-07         0.19558E-19         0.00000E+00
    0.34666E-07         0.21537E-19         0.00000E+00
    0.34725E-07         0.27940E-19         0.00000E+00
    0.34776E-07         0.11874E-19         0.00000E+00
    0.34817E-07        -0.34925E-20         0.00000E+00
    0.34848E-07         0.73342E-20         0.00000E+00
    0.34869E-07         0.12689E-19         0.00000E+00
    0.34880E-07         0.53551E-20         0.00000E+00
    0.41429E-07        -0.10245E-19         0.00000E+00
    0.41410E-07         0.15600E-19         0.00000E+00
    0.41373E-07         0.20489E-19         0.00000E+00
    0.41319E-07         0.33993E-19         0.00000E+00
    0.41246E-07         0.57742E-19         0.00000E+00
    0.41156E-07         0.16997E-19         0.00000E+00
    0.41050E-07         0.41211E-19         0.00000E+00
    0.40927E-07         0.62399E-19         0.00000E+00
    0.40790E-07         0.37486E-19         0.00000E+00
    0.40638E-07         0.31898E-19         0.00000E+00
    0.40472E-07         0.19325E-19         0.00000E+00
    0.40294E-07         0.27474E-19         0.00000E+00
    0.40103E-07         0.11642E-19         0.00000E+00
    0.39902E-07        -0.30268E-20         0.00000E+00
    0.39691E-07         0.21653E-19         0.00000E+00
    0.39470E-07         0.93132E-21         0.00000E+00
    0.39241E-07        -0.30268E-20         0.00000E+00
    0.39005E-07        -0.69849E-20         0.00000E+00
    0.38762E-07        -0.46566E-21         0.00000E+00
    0.38514E-07        -0.69849E-20         0.00000E+00
    0.38261E-07        -0.22585E-19         0.00000E+00
    0.38005E-07        -0.21886E-19         0.00000E+00
    0.37746E-07        -0.22352E-19         0.00000E+00
    0.37484E-07         0.23283E-19         0.00000E+00
    0.37222E-07         0.22817E-19         0.00000E+00
    0.36959E-07         0.12573E-19         0.00000E+00
    0.36697E-07         0.55879E-20         0.00000E+00
    0.36435E-07        -0.16298E-20         0.00000E+00
    0.36176E-07         0.22352E-19         0.00000E+00
    0.35919E-07         0.24913E-19         0.00000E+00
    0.35665E-07         0.18626E-20         0.00000E+00
    0.35416E-07        -0.46566E-20         0.00000E+00
    0.35170E-07        -0.21188E-19         0.00000E+00
    0.34930E-07        -0.14203E-19         0.00000E+00
    0.34696E-07         0.34925E-20         0.00000E+00
    0.34467E-07        -0.62864E-20         0.00000E+00
    0.34245E-07        -0.19558E-19         0.00000E+00
    0.34031E-07        -0.12573E-19         0.00000E+00
    0.33823E-07         0.13970E-20         0.00000E+00
    0.33624E-07         0.12573E-19         0.00000E+00
    0.33433E-07        -0.65193E-20         0.00000E+00
    0.33251E-07        -0.34459E-19         0.00000E+00
    0.33077E-07        -0.24214E-19         0.00000E+00
    0.32913E-07        -0.35856E-19         0.00000E+00
    0.32758E-07        -0.52154E-19         0.00000E+00
    0.32613E-07        -0.44238E-19         0.00000E+00
    0.32478E-07        -0.36322E-19         0.00000E+00
    0.32353E-07        -0.43539E-19         0.00000E+00
    0.32238E-07        -0.42142E-19         0.00000E+00
    0.32133E-07        -0.11176E-19         0.00000E+00
    0.32039E-07        -0.17462E-19         0.00000E+00
    0.31955E-07        -0.27008E-19         0.00000E+00
    0.31882E-07        -0.20955E-20         0.00000E+00
    0.31819E-07        -0.29337E-19         0.00000E+00
    0.31767E-07        -0.54482E-19         0.00000E+00
    0.31724E-07        -0.22817E-19         0.00000E+00
    0.31693E-07        -0.24447E-19         0.00000E+00
    0.31671E-07        -0.23749E-19         0.00000E+00
    0.31659E-07        -0.18859E-19         0.00000E+00
    0.31658E-07        -0.24913E-19         0.00000E+00
    0.31666E-07        -0.10710E-19         0.00000E+00
    0.31683E-07        -0.34925E-20         0.00000E+00
    0.31709E-07         0.23283E-20         0.00000E+00
    0.31745E-07        -0.12340E-19         0.00000E+00
    0.31789E-07        -0.11409E-19         0.00000E+00
    0.31842E-07        -0.20955E-20         0.00000E+00
    0.31902E-07         0.79162E-20         0.00000E+00
    0.31970E-07         0.67521E-20         0.00000E+00
    0.32045E-07        -0.23283E-20         0.00000E+00
    0.32127E-07        -0.79162E-20         0.00000E+00
    0.32216E-07         0.10710E-19         0.00000E+00
    0.32310E-07         0.81491E-20         0.00000E+00
    0.32410E-07         0.16298E-20         0.00000E+00
    0.32514E-07         0.81491E-20         0.00000E+00
    0.32623E-07         0.15600E-19         0.00000E+00
    0.32735E-07         0.13271E-19         0.00000E+00
    0.32851E-07         0.10710E-19         0.00000E+00
    0.32969E-07         0.13737E-19         0.00000E+00
    0.33089E-07         0.46566E-20         0.00000E+00
    0.33210E-07         0.69849E-20         0.00000E+00
    0.33332E-07         0.15134E-19         0.00000E+00
    0.33454E-07         0.14203E-19         0.00000E+00
    0.33576E-07         0.74506E-20         0.00000E+00
    0.33695E-07        -0.72177E-20         0.00000E+00
    0.33813E-07        -0.17695E-19         0.00000E+00
    0.33928E-07        -0.60536E-20         0.00000E+00
    0.34040E-07         0.65193E-20         0.00000E+00
    0.34147E-07         0.68685E-20         0.00000E+00
    0.34250E-07         0.22468E-19         0.00000E+00
    0.34346E-07         0.21886E-19         0.00000E+00
    0.34437E-07         0.19907E-19         0.00000E+00
    0.34521E-07         0.28056E-19         0.00000E+00
    0.34597E-07         0.67521E-20         0.00000E+00
    0.34666E-07         0.41910E-20         0.00000E+00
    0.34725E-07         0.57044E-20         0.00000E+00
    0.34776E-07        -0.20955E-20         0.00000E+00
    0.34817E-07         0.13853E-19         0.00000E+00
    0.34848E-07         0.13970E-20         0.00000E+00
    0.34869E-07        -0.21188E-19         0.00000E+00
    0.34880E-07        -0.11292E-19         0.00000E+00
    0.41429E-07         0.00000E+00         0.00000E+00
    0.41410E-07        -0.15134E-19         0.00000E+00
    0.41373E-07         0.88476E-20         0.00000E+00
    0.41319E-07         0.27940E-19         0.00000E+00
    0.41246E-07         0.33993E-19         0.00000E+00
    0.41156E-07         0.36554E-19         0.00000E+00
    0.41050E-07         0.33295E-19         0.00000E+00
    0.40927E-07         0.25146E-19         0.00000E+00
    0.40790E-07         0.28638E-19         0.00000E+00
    0.40638E-07         0.30035E-19         0.00000E+00
    0.40472E-07         0.20256E-19         0.00000E+00
    0.40294E-07         0.13970E-19         0.00000E+00
    0.40103E-07        -0.58208E-20         0.00000E+00
    0.39902E-07         0.41910E-19         0.00000E+00
    0.39691E-07         0.29569E-19         0.00000E+00
    0.39470E-07        -0.44238E-20         0.00000E+00
    0.39241E-07         0.24680E-19         0.00000E+00
    0.39005E-07         0.15832E-19         0.00000E+00
    0.38762E-07        -0.88476E-20         0.00000E+00
    0.38514E-07        -0.21420E-19         0.00000E+00
    0.38261E-07        -0.12340E-19         0.00000E+00
    0.38005E-07        -0.35390E-19         0.00000E+00
    0.37746E-07        -0.28871E-19         0.00000E+00
    0.37484E-07         0.13970E-20         0.00000E+00
    0.37222E-07        -0.11176E-19         0.00000E+00
    0.36959E-07         0.18161E-19         0.00000E+00
    0.36697E-07         0.30268E-19         0.00000E+00
    0.36435E-07         0.17462E-19         0.00000E+00
    0.36176E-07         0.29337E-19         0.00000E+00
    0.35919E-07         0.10943E-19         0.00000E+00
    0.35665E-07         0.72177E-20         0.00000E+00
    0.35416E-07         0.32596E-20         0.00000E+00
    0.35170E-07        -0.62864E-20         0.00000E+00
    0.34930E-07        -0.30268E-20         0.00000E+00
    0.34696E-07        -0.20023E-19         0.00000E+00
    0.34467E-07        -0.22817E-19         0.00000E+00
    0.34245E-07        -0.18161E-19         0.00000E+00
    0.34031E-07        -0.31199E-19         0.00000E+00
    0.33823E-07        -0.37253E-19         0.00000E+00
    0.33624E-07        -0.81491E-20         0.00000E+00
    0.33433E-07        -0.16298E-19         0.00000E+00
    0.33251E-07        -0.22352E-19         0.00000E+00
    0.33077E-07        -0.21420E-19         0.00000E+00
    0.32913E-07        -0.42608E-19         0.00000E+00
    0.32758E-07        -0.19791E-19         0.00000E+00
    0.32613E-07        -0.38184E-19         0.00000E+00
    0.32478E-07        -0.39814E-19         0.00000E+00
    0.32353E-07        -0.33295E-19         0.00000E+00
    0.32238E-07        -0.30501E-19         0.00000E+00
    0.32133E-07        -0.19558E-19         0.00000E+00
    0.32039E-07        -0.16531E-19         0.00000E+00
    0.31955E-07        -0.18626E-20         0.00000E+00
    0.31882E-07        -0.27940E-20         0.00000E+00
    0.31819E-07        -0.37253E-20         0.00000E+00
    0.31767E-07        -0.18626E-19         0.00000E+00
    0.31724E-07        -0.17695E-19         0.00000E+00
    0.31693E-07        -0.30268E-20         0.00000E+00
    0.31671E-07        -0.93132E-20         0.00000E+00
    0.31659E-07        -0.72177E-20         0.00000E+00
    0.31658E-07        -0.36089E-19         0.00000E+00
    0.31666E-07        -0.24447E-19         0.00000E+00
    0.31683E-07        -0.18626E-20         0.00000E+00
    0.31709E-07        -0.79162E-20         0.00000E+00
    0.31745E-07        -0.53551E-20         0.00000E+00
    0.31789E-07        -0.13039E-19         0.00000E+00
    0.31842E-07         0.30268E-20         0.00000E+00
    0.31902E-07         0.21886E-19         0.00000E+00
    0.31970E-07         0.65193E-20         0.00000E+00
    0.32045E-07        -0.19558E-19         0.00000E+00
    0.32127E-07        -0.23283E-19         0.00000E+00
    0.32216E-07         0.37253E-20         0.00000E+00
    0.32310E-07         0.12806E-19         0.00000E+00
    0.32410E-07         0.16997E-19         0.00000E+00
    0.32514E-07         0.83819E-20         0.00000E+00
    0.32623E-07         0.10477E-19         0.00000E+00
    0.32735E-07         0.17462E-19         0.00000E+00
    0.32851E-07         0.37253E-20         0.00000E+00
    0.32969E-07        -0.27940E-20         0.00000E+00
    0.33089E-07        -0.74506E-20         0.00000E+00
    0.33210E-07        -0.11176E-19         0.00000E+00
    0.33332E-07        -0.44238E-20         0.00000E+00
    0.33454E-07        -0.72177E-20         0.00000E+00
    0.33576E-07        -0.69849E-20         0.00000E+00
    0.33695E-07        -0.11409E-19         0.00000E+00
    0.33813E-07        -0.93132E-20         0.00000E+00
    0.33928E-07        -0.72177E-20         0.00000E+00
    0.34040E-07         0.69849E-20         0.00000E+00
    0.34147E-07         0.24098E-19         0.00000E+00
    0.34250E-07         0.11059E-19         0.00000E+00
    0.34346E-07         0.12806E-19         0.00000E+00
    0.34437E-07         0.26310E-19         0.00000E+00
    0.34521E-07         0.23865E-19         0.00000E+00
    0.34597E-07         0.60536E-20         0.00000E+00
    0.34666E-07        -0.50059E-20         0.00000E+00
    0.34725E-07         0.45402E-20         0.00000E+00
    0.34776E-07         0.21188E-19         0.00000E+00
    0.34817E-07         0.20955E-19         0.00000E+00
    0.34848E-07         0.86147E-20         0.00000E+00
    0.34869E-07        -0.66357E-20         0.00000E+00
    0.34880E-07        -0.11176E-19         0.00000E+00
    0.41429E-07         0.97789E-20         0.00000E+00
    0.41410E-07         0.58208E-20         0.00000E+00
    0.41373E-07         0.24680E-19         0.00000E+00
    0.41319E-07         0.34459E-19         0.00000E+00
    0.41246E-07         0.37951E-19         0.00000E+00
    0.41156E-07         0.43074E-19         0.00000E+00
    0.41050E-07         0.31898E-19         0.00000E+00
    0.40927E-07         0.35856E-19         0.00000E+00
    0.40790E-07         0.33760E-19         0.00000E+00
    0.40638E-07        -0.11874E-19         0.00000E+00
    0.40472E-07         0.16298E-20         0.00000E+00
    0.40294E-07         0.10012E-19         0.00000E+00
    0.40103E-07        -0.11409E-19         0.00000E+00
    0.39902E-07         0.23283E-19         0.00000E+00
    0.39691E-07         0.48662E-19         0.00000E+00
    0.39470E-07         0.23283E-19         0.00000E+00
    0.39241E-07        -0.13737E-19         0.00000E+00
    0.39005E-07        -0.20489E-19         0.00000E+00
    0.38762E-07        -0.13970E-19         0.00000E+00
    0.38514E-07        -0.17695E-19         0.00000E+00
    0.38261E-07        -0.10710E-19         0.00000E+00
    0.38005E-07        -0.19558E-19         0.00000E+00
    0.37746E-07        -0.20955E-19         0.00000E+00
    0.37484E-07        -0.95461E-20         0.00000E+00
    0.37222E-07        -0.67521E-20         0.00000E+00
    0.36959E-07        -0.32596E-20         0.00000E+00
    0.36697E-07         0.23516E-19         0.00000E+00
    0.36435E-07         0.24913E-19         0.00000E+00
    0.36176E-07         0.16997E-19         0.00000E+00
    0.35919E-07         0.39116E-19         0.00000E+00
    0.35665E-07         0.18394E-19         0.00000E+00
    0.35416E-07         0.65193E-20         0.00000E+00
    0.35170E-07        -0.18626E-20         0.00000E+00
    0.34930E-07        -0.48894E-20         0.00000E+00
    0.34696E-07         0.15367E-19         0.00000E+00
    0.34467E-07         0.93132E-21         0.00000E+00
    0.34245E-07        -0.12107E-19         0.00000E+00
    0.34031E-07        -0.93132E-20         0.00000E+00
    0.33823E-07        -0.17695E-19         0.00000E+00
    0.33624E-07        -0.37719E-19         0.00000E+00
    0.33433E-07        -0.31432E-19         0.00000E+00
    0.33251E-07        -0.40978E-19         0.00000E+00
    0.33077E-07        -0.64261E-19         0.00000E+00
    0.32913E-07        -0.43539E-19         0.00000E+00
    0.32758E-07        -0.45402E-19         0.00000E+00
    0.32613E-07        -0.50757E-19         0.00000E+00
    0.32478E-07        -0.45402E-19         0.00000E+00
    0.32353E-07        -0.31665E-19         0.00000E+00
    0.32238E-07        -0.20955E-19         0.00000E+00
    0.32133E-07        -0.90804E-20         0.00000E+00
    0.32039E-07         0.37253E-20         0.00000E+00
    0.31955E-07        -0.93132E-21         0.00000E+00
    0.31882E-07        -0.60536E-20         0.00000E+00
    0.31819E-07        -0.13737E-19         0.00000E+00
    0.31767E-07        -0.27940E-19         0.00000E+00
    0.31724E-07        -0.19791E-19         0.00000E+00
    0.31693E-07        -0.23283E-19         0.00000E+00
    0.31671E-07        -0.12573E-19         0.00000E+00
    0.31659E-07        -0.13271E-19         0.00000E+00
    0.31658E-07        -0.26543E-19         0.00000E+00
    0.31666E-07        -0.10477E-19         0.00000E+00
    0.31683E-07         0.51223E-20         0.00000E+00
    0.31709E-07        -0.83819E-20         0.00000E+00
    0.31745E-07        -0.21188E-19         0.00000E+00
    0.31789E-07        -0.27940E-20         0.00000E+00
    0.31842E-07         0.39581E-20         0.00000E+00
    0.31902E-07         0.21188E-19         0.00000E+00
    0.31970E-07         0.20256E-19         0.00000E+00
    0.32045E-07        -0.46566E-20         0.00000E+00
    0.32127E-07        -0.22817E-19         0.00000E+00
    0.32216E-07        -0.13504E-19         0.00000E+00
    0.32310E-07        -0.79162E-20         0.00000E+00
    0.32410E-07        -0.14668E-19         0.00000E+00
    0.32514E-07         0.69849E-21         0.00000E+00
    0.32623E-07         0.11642E-19         0.00000E+00
    0.32735E-07        -0.11409E-19         0.00000E+00
    0.32851E-07        -0.93132E-20         0.00000E+00
    0.32969E-07         0.53551E-20         0.00000E+00
    0.33089E-07         0.18626E-19         0.00000E+00
    0.33210E-07        -0.30268E-20         0.00000E+00
    0.33332E-07        -0.31898E-19         0.00000E+00
    0.33454E-07        -0.72177E-20         0.00000E+00
    0.33576E-07        -0.27940E-20         0.00000E+00
    0.33695E-07        -0.23283E-19         0.00000E+00
    0.33813E-07        -0.15832E-19         0.00000E+00
    0.33928E-07        -0.18161E-19         0.00000E+00
    0.34040E-07        -0.74506E-20         0.00000E+00
    0.34147E-07         0.20023E-19         0.00000E+00
    0.34250E-07         0.86147E-20         0.00000E+00
    0.34346E-07        -0.11642E-20         0.00000E+00
    0.34437E-07         0.11758E-19         0.00000E+00
    0.34521E-07         0.27008E-19         0.00000E+00
    0.34597E-07         0.25844E-19         0.00000E+00
    0.34666E-07         0.21537E-19         0.00000E+00
    0.34725E-07         0.22701E-19         0.00000E+00
    0.34776E-07         0.14203E-19         0.00000E+00
    0.34817E-07        -0.20955E-20         0.00000E+00
    0.34848E-07         0.41910E-20         0.00000E+00
    0.34869E-07         0.18859E-19         0.00000E+00
    0.34880E-07         0.80327E-20         0.00000E+00
    0.41429E-07         0.20489E-19         0.00000E+00
    0.41410E-07        -0.86147E-20         0.00000E+00
    0.41373E-07        -0.18859E-19         0.00000E+00
    0.41319E-07         0.56811E-19         0.00000E+00
    0.41246E-07         0.42375E-19         0.00000E+00
    0.41156E-07         0.27940E-19         0.00000E+00
    0.41050E-07         0.65425E-19         0.00000E+00
    0.40927E-07         0.16764E-19         0.00000E+00
    0.40790E-07        -0.21188E-19         0.00000E+00
    0.40638E-07        -0.46566E-21         0.00000E+00
    0.40472E-07         0.23283E-20         0.00000E+00
    0.40294E-07        -0.16298E-20         0.00000E+00
    0.40103E-07        -0.65193E-20         0.00000E+00
    0.39902E-07        -0.13970E-20         0.00000E+00
    0.39691E-07         0.17462E-19         0.00000E+00
    0.39470E-07         0.37253E-20         0.00000E+00
    0.39241E-07        -0.32596E-20         0.00000E+00
    0.39005E-07         0.65193E-20         0.00000E+00
    0.38762E-07        -0.95461E-20         0.00000E+00
    0.38514E-07        -0.53551E-20         0.00000E+00
    0.38261E-07        -0.79162E-20         0.00000E+00
    0.38005E-07        -0.31199E-19         0.00000E+00
    0.37746E-07        -0.25379E-19         0.00000E+00
    0.37484E-07        -0.48894E-20         0.00000E+00
    0.37222E-07         0.17695E-19         0.00000E+00
    0.36959E-07        -0.46566E-21         0.00000E+00
    0.36697E-07         0.74506E-20         0.00000E+00
    0.36435E-07         0.23982E-19         0.00000E+00
    0.36176E-07         0.19558E-19         0.00000E+00
    0.35919E-07         0.13271E-19         0.00000E+00
    0.35665E-07         0.17928E-19         0.00000E+00
    0.35416E-07        -0.27940E-20         0.00000E+00
    0.35170E-07        -0.22585E-19         0.00000E+00
    0.34930E-07         0.18626E-19         0.00000E+00
    0.34696E-07         0.17695E-19         0.00000E+00
    0.34467E-07        -0.14435E-19         0.00000E+00
    0.34245E-07        -0.13504E-19         0.00000E+00
    0.34031E-07        -0.58208E-20         0.00000E+00
    0.33823E-07        -0.51223E-20         0.00000E+00
    0.33624E-07        -0.20722E-19         0.00000E+00
    0.33433E-07        -0.55879E-20         0.00000E+00
    0.33251E-07        -0.97789E-20         0.00000E+00
    0.33077E-07        -0.59605E-19         0.00000E+00
    0.32913E-07        -0.55414E-19         0.00000E+00
    0.32758E-07        -0.26310E-19         0.00000E+00
    0.32613E-07        -0.14901E-19         0.00000E+00
    0.32478E-07        -0.40047E-19         0.00000E+00
    0.32353E-07        -0.46100E-19         0.00000E+00
    0.32238E-07        -0.27241E-19         0.00000E+00
    0.32133E-07        -0.30966E-19         0.00000E+00
    0.32039E-07        -0.25379E-19         0.00000E+00
    0.31955E-07        -0.46566E-21         0.00000E+00
    0.31882E-07        -0.34925E-20         0.00000E+00
    0.31819E-07        -0.74506E-20         0.00000E+00
    0.31767E-07        -0.18626E-20         0.00000E+00
    0.31724E-07        -0.11874E-19         0.00000E+00
    0.31693E-07        -0.10012E-19         0.00000E+00
    0.31671E-07        -0.30268E-20         0.00000E+00
    0.31659E-07        -0.30501E-19         0.00000E+00
    0.31658E-07        -0.27707E-19         0.00000E+00
    0.31666E-07        -0.11409E-19         0.00000E+00
    0.31683E-07        -0.20955E-19         0.00000E+00
    0.31709E-07        -0.27008E-19         0.00000E+00
    0.31745E-07        -0.24680E-19         0.00000E+00
    0.31789E-07        -0.11642E-19         0.00000E+00
    0.31842E-07         0.86147E-20         0.00000E+00
    0.31902E-07         0.19791E-19         0.00000E+00
    0.31970E-07         0.12573E-19         0.00000E+00
    0.32045E-07        -0.41910E-20         0.00000E+00
    0.32127E-07        -0.21188E-19         0.00000E+00
    0.32216E-07        -0.24680E-19         0.00000E+00
    0.32310E-07        -0.24214E-19         0.00000E+00
    0.32410E-07        -0.19325E-19         0.00000E+00
    0.32514E-07        -0.44238E-20         0.00000E+00
    0.32623E-07         0.83819E-20         0.00000E+00
    0.32735E-07         0.93132E-20         0.00000E+00
    0.32851E-07        -0.83819E-20         0.00000E+00
    0.32969E-07         0.95461E-20         0.00000E+00
    0.33089E-07         0.12573E-19         0.00000E+00
    0.33210E-07         0.20955E-20         0.00000E+00
    0.33332E-07         0.69849E-20         0.00000E+00
    0.33454E-07        -0.83819E-20         0.00000E+00
    0.33576E-07        -0.86147E-20         0.00000E+00
    0.33695E-07        -0.11642E-19         0.00000E+00
    0.33813E-07        -0.23283E-19         0.00000E+00
    0.33928E-07        -0.25611E-20         0.00000E+00
    0.34040E-07         0.28871E-19         0.00000E+00
    0.34147E-07         0.22817E-19         0.00000E+00
    0.34250E-07        -0.34925E-21         0.00000E+00
    0.34346E-07        -0.19791E-20         0.00000E+00
    0.34437E-07         0.22002E-19         0.00000E+00
    0.34521E-07         0.11758E-19         0.00000E+00
    0.34597E-07        -0.74506E-20         0.00000E+00
    0.34666E-07         0.95461E-20         0.00000E+00
    0.34725E-07         0.12922E-19         0.00000E+00
    0.34776E-07        -0.23283E-21         0.00000E+00
    0.34817E-07         0.79162E-20         0.00000E+00
    0.34848E-07         0.23283E-21         0.00000E+00
    0.34869E-07        -0.67521E-20         0.00000E+00
    0.34880E-07         0.36089E-20         0.00000E+00
    0.41429E-07         0.11642E-19         0.00000E+00
    0.41410E-07         0.21188E-19         0.00000E+00
    0.41373E-07         0.11176E-19         0.00000E+00
    0.41319E-07         0.16298E-19         0.00000E+00
    0.41246E-07         0.43539E-19         0.00000E+00
    0.41156E-07         0.40978E-19         0.00000E+00
    0.41050E-07         0.14435E-19         0.00000E+00
    0.40927E-07        -0.27940E-20         0.00000E+00
    0.40790E-07         0.67521E-20         0.00000E+00
    0.40638E-07         0.28173E-19         0.00000E+00
    0.40472E-07         0.18859E-19         0.00000E+00
    0.40294E-07        -0.44238E-20         0.00000E+00
    0.40103E-07         0.86147E-20         0.00000E+00
    0.39902E-07         0.36322E-19         0.00000E+00
    0.39691E-07         0.34226E-19         0.00000E+00
    0.39470E-07         0.23516E-19         0.00000E+00
    0.39241E-07         0.27940E-19         0.00000E+00
    0.39005E-07        -0.46566E-20         0.00000E+00
    0.38762E-07        -0.21886E-19         0.00000E+00
    0.38514E-07         0.55879E-20         0.00000E+00
    0.38261E-07         0.69849E-20         0.00000E+00
    0.38005E-07        -0.21420E-19         0.00000E+00
    0.37746E-07        -0.17462E-19         0.00000E+00
    0.37484E-07        -0.19558E-19         0.00000E+00
    0.37222E-07         0.72177E-20         0.00000E+00
    0.36959E-07         0.10245E-19         0.00000E+00
    0.36697E-07        -0.11176E-19         0.00000E+00
    0.36435E-07         0.30966E-19         0.00000E+00
    0.36176E-07         0.25611E-19         0.00000E+00
    0.35919E-07         0.15600E-19         0.00000E+00
    0.35665E-07         0.27241E-19         0.00000E+00
    0.35416E-07        -0.10710E-19         0.00000E+00
    0.35170E-07        -0.14203E-19         0.00000E+00
    0.34930E-07         0.16764E-19         0.00000E+00
    0.34696E-07         0.55879E-20         0.00000E+00
    0.34467E-07        -0.17695E-19         0.00000E+00
    0.34245E-07        -0.15832E-19         0.00000E+00
    0.34031E-07        -0.51223E-20         0.00000E+00
    0.33823E-07        -0.24680E-19         0.00000E+00
    0.33624E-07        -0.51223E-19         0.00000E+00
    0.33433E-07        -0.17695E-19         0.00000E+00
    0.33251E-07        -0.17229E-19         0.00000E+00
    0.33077E-07        -0.39581E-19         0.00000E+00
    0.32913E-07        -0.41677E-19         0.00000E+00
    0.32758E-07        -0.29337E-19         0.00000E+00
    0.32613E-07        -0.20722E-19         0.00000E+00
    0.32478E-07        -0.20489E-19         0.00000E+00
    0.32353E-07        -0.16997E-19         0.00000E+00
    0.32238E-07        -0.23050E-19         0.00000E+00
    0.32133E-07        -0.22817E-19         0.00000E+00
    0.32039E-07         0.83819E-20         0.00000E+00
    0.31955E-07        -0.74506E-20         0.00000E+00
    0.31882E-07        -0.41444E-19         0.00000E+00
    0.31819E-07        -0.35157E-19         0.00000E+00
    0.31767E-07        -0.22352E-19         0.00000E+00
    0.31724E-07        -0.16298E-19         0.00000E+00
    0.31693E-07         0.30268E-20         0.00000E+00
    0.31671E-07         0.13970E-19         0.00000E+00
    0.31659E-07        -0.11642E-20         0.00000E+00
    0.31658E-07        -0.21886E-19         0.00000E+00
    0.31666E-07        -0.23283E-19         0.00000E+00
    0.31683E-07        -0.79162E-20         0.00000E+00
    0.31709E-07        -0.12573E-19         0.00000E+00
    0.31745E-07        -0.29802E-19         0.00000E+00
    0.31789E-07        -0.22119E-19         0.00000E+00
    0.31842E-07         0.48894E-20         0.00000E+00
    0.31902E-07         0.83819E-20         0.00000E+00
    0.31970E-07        -0.41910E-20         0.00000E+00
    0.32045E-07        -0.13970E-20         0.00000E+00
    0.32127E-07         0.00000E+00         0.00000E+00
    0.32216E-07        -0.13970E-20         0.00000E+00
    0.32310E-07        -0.32596E-20         0.00000E+00
    0.32410E-07        -0.67521E-20         0.00000E+00
    0.32514E-07        -0.11409E-19         0.00000E+00
    0.32623E-07        -0.12806E-19         0.00000E+00
    0.32735E-07        -0.25611E-20         0.00000E+00
    0.32851E-07        -0.79162E-20         0.00000E+00
    0.32969E-07        -0.72177E-20         0.00000E+00
    0.33089E-07        -0.13970E-20         0.00000E+00
    0.33210E-07        -0.10012E-19         0.00000E+00
    0.33332E-07        -0.39581E-20         0.00000E+00
    0.33454E-07        -0.12573E-19         0.00000E+00
    0.33576E-07        -0.15134E-19         0.00000E+00
    0.33695E-07        -0.41910E-20         0.00000E+00
    0.33813E-07         0.10710E-19         0.00000E+00
    0.33928E-07         0.76834E-20         0.00000E+00
    0.34040E-07         0.76834E-20         0.00000E+00
    0.34147E-07         0.22235E-19         0.00000E+00
    0.34250E-07         0.11059E-19         0.00000E+00
    0.34346E-07         0.29104E-20         0.00000E+00
    0.34437E-07        -0.34925E-20         0.00000E+00
    0.34521E-07         0.21188E-19         0.00000E+00
    0.34597E-07         0.20256E-19         0.00000E+00
    0.34666E-07        -0.29104E-20         0.00000E+00
    0.34725E-07         0.82655E-20         0.00000E+00
    0.34776E-07         0.28405E-19         0.00000E+00
    0.34817E-07         0.20023E-19         0.00000E+00
    0.34848E-07         0.11642E-19         0.00000E+00
    0.34869E-07         0.21071E-19         0.00000E+00
    0.34880E-07         0.11874E-19         0.00000E+00
    0.41429E-07        -0.14901E-19         0.00000E+00
    0.41410E-07         0.21420E-19         0.00000E+00
    0.41373E-07         0.40513E-19         0.00000E+00
    0.41319E-07         0.26543E-19         0.00000E+00
    0.41246E-07         0.39581E-19         0.00000E+00
    0.41156E-07         0.22585E-19         0.00000E+00
    0.41050E-07        -0.69849E-21         0.00000E+00
    0.40927E-07        -0.11176E-19         0.00000E+00
    0.40790E-07         0.39581E-20         0.00000E+00
    0.40638E-07        -0.13970E-20         0.00000E+00
    0.40472E-07        -0.15600E-19         0.00000E+00
    0.40294E-07        -0.39116E-19         0.00000E+00
    0.40103E-07         0.16298E-20         0.00000E+00
    0.39902E-07         0.63563E-19         0.00000E+00
    0.39691E-07        -0.20955E-20         0.00000E+00
    0.39470E-07        -0.19558E-19         0.00000E+00
    0.39241E-07         0.60536E-20         0.00000E+00
    0.39005E-07        -0.12573E-19         0.00000E+00
    0.38762E-07         0.32596E-20         0.00000E+00
    0.38514E-07         0.93132E-21         0.00000E+00
    0.38261E-07        -0.16764E-19         0.00000E+00
    0.38005E-07        -0.93132E-21         0.00000E+00
    0.37746E-07         0.25611E-20         0.00000E+00
    0.37484E-07         0.20955E-20         0.00000E+00
    0.37222E-07         0.14901E-19         0.00000E+00
    0.36959E-07         0.83819E-20         0.00000E+00
    0.36697E-07         0.69849E-20         0.00000E+00
    0.36435E-07         0.16764E-19         0.00000E+00
    0.36176E-07         0.25844E-19         0.00000E+00
    0.35919E-07         0.16764E-19         0.00000E+00
    0.35665E-07         0.16531E-19         0.00000E+00
    0.35416E-07         0.15832E-19         0.00000E+00
    0.35170E-07         0.25611E-20         0.00000E+00
    0.34930E-07        -0.10943E-19         0.00000E+00
    0.34696E-07        -0.37253E-19         0.00000E+00
    0.34467E-07        -0.34226E-19         0.00000E+00
    0.34245E-07        -0.22817E-19         0.00000E+00
    0.34031E-07        -0.27940E-20         0.00000E+00
    0.33823E-07         0.27940E-20         0.00000E+00
    0.33624E-07        -0.55879E-20         0.00000E+00
    0.33433E-07        -0.14668E-19         0.00000E+00
    0.33251E-07        -0.18626E-19         0.00000E+00
    0.33077E-07        -0.27940E-19         0.00000E+00
    0.32913E-07        -0.46566E-19         0.00000E+00
    0.32758E-07        -0.40047E-19         0.00000E+00
    0.32613E-07        -0.28871E-19         0.00000E+00
    0.32478E-07        -0.20023E-19         0.00000E+00
    0.32353E-07        -0.81491E-20         0.00000E+00
    0.32238E-07        -0.53551E-20         0.00000E+00
    0.32133E-07        -0.14435E-19         0.00000E+00
    0.32039E-07        -0.69849E-20         0.00000E+00
    0.31955E-07         0.62864E-20         0.00000E+00
    0.31882E-07        -0.16764E-19         0.00000E+00
    0.31819E-07        -0.37719E-19         0.00000E+00
    0.31767E-07        -0.29337E-19         0.00000E+00
    0.31724E-07        -0.17462E-19         0.00000E+00
    0.31693E-07        -0.10012E-19         0.00000E+00
    0.31671E-07        -0.46566E-21         0.00000E+00
    0.31659E-07         0.62864E-20         0.00000E+00
    0.31658E-07        -0.19325E-19         0.00000E+00
    0.31666E-07        -0.52154E-19         0.00000E+00
    0.31683E-07        -0.60070E-19         0.00000E+00
    0.31709E-07        -0.38650E-19         0.00000E+00
    0.31745E-07         0.83819E-20         0.00000E+00
    0.31789E-07         0.10477E-19         0.00000E+00
    0.31842E-07        -0.13271E-19         0.00000E+00
    0.31902E-07        -0.46566E-21         0.00000E+00
    0.31970E-07         0.83819E-20         0.00000E+00
    0.32045E-07        -0.65193E-20         0.00000E+00
    0.32127E-07        -0.27940E-20         0.00000E+00
    0.32216E-07        -0.88476E-20         0.00000E+00
    0.32310E-07        -0.18859E-19         0.00000E+00
    0.32410E-07         0.58208E-20         0.00000E+00
    0.32514E-07         0.13271E-19         0.00000E+00
    0.32623E-07         0.13970E-19         0.00000E+00
    0.32735E-07         0.12573E-19         0.00000E+00
    0.32851E-07        -0.41910E-20         0.00000E+00
    0.32969E-07        -0.18859E-19         0.00000E+00
    0.33089E-07        -0.60536E-20         0.00000E+00
    0.33210E-07        -0.60536E-20         0.00000E+00
    0.33332E-07        -0.13970E-19         0.00000E+00
    0.33454E-07        -0.46566E-21         0.00000E+00
    0.33576E-07        -0.13504E-19         0.00000E+00
    0.33695E-07        -0.17695E-19         0.00000E+00
    0.33813E-07        -0.46566E-20         0.00000E+00
    0.33928E-07        -0.32596E-20         0.00000E+00
    0.34040E-07         0.60536E-20         0.00000E+00
    0.34147E-07         0.15832E-19         0.00000E+00
    0.34250E-07         0.19441E-19         0.00000E+00
    0.34346E-07         0.16415E-19         0.00000E+00
    0.34437E-07         0.60536E-20         0.00000E+00
    0.34521E-07         0.94296E-20         0.00000E+00
    0.34597E-07         0.11874E-19         0.00000E+00
    0.34666E-07         0.24913E-19         0.00000E+00
    0.34725E-07         0.17229E-19         0.00000E+00
    0.34776E-07         0.90804E-20         0.00000E+00
    0.34817E-07         0.26892E-19         0.00000E+00
    0.34848E-07         0.23516E-19         0.00000E+00
    0.34869E-07         0.36089E-20         0.00000E+00
    0.34880E-07        -0.24447E-20         0.00000E+00
    0.41429E-07         0.41910E-20         0.00000E+00
    0.41410E-07         0.36554E-19         0.00000E+00
    0.41373E-07         0.48894E-19         0.00000E+00
    0.41319E-07         0.43306E-19         0.00000E+00
    0.41246E-07         0.31199E-19         0.00000E+00
    0.41156E-07         0.21653E-19         0.00000E+00
    0.41050E-07         0.32596E-19         0.00000E+00
    0.40927E-07         0.27707E-19         0.00000E+00
    0.40790E-07         0.14435E-19         0.00000E+00
    0.40638E-07        -0.10012E-19         0.00000E+00
    0.40472E-07        -0.13970E-19         0.00000E+00
    0.40294E-07         0.17462E-19         0.00000E+00
    0.40103E-07         0.31432E-19         0.00000E+00
    0.39902E-07         0.16298E-19         0.00000E+00
    0.39691E-07         0.12806E-19         0.00000E+00
    0.39470E-07         0.36089E-19         0.00000E+00
    0.39241E-07         0.34925E-19         0.00000E+00
    0.39005E-07         0.58208E-20         0.00000E+00
    0.38762E-07         0.58208E-20         0.00000E+00
    0.38514E-07        -0.74506E-20         0.00000E+00
    0.38261E-07        -0.79162E-20         0.00000E+00
    0.38005E-07         0.65193E-20         0.00000E+00
    0.37746E-07        -0.18626E-20         0.00000E+00
    0.37484E-07        -0.26543E-19         0.00000E+00
    0.37222E-07        -0.16065E-19         0.00000E+00
    0.36959E-07         0.22119E-19         0.00000E+00
    0.36697E-07         0.18394E-19         0.00000E+00
    0.36435E-07         0.10245E-19         0.00000E+00
    0.36176E-07         0.13271E-19         0.00000E+00
    0.35919E-07        -0.13970E-20         0.00000E+00
    0.35665E-07        -0.46566E-20         0.00000E+00
    0.35416E-07        -0.32596E-20         0.00000E+00
    0.35170E-07        -0.14668E-19         0.00000E+00
    0.34930E-07        -0.23283E-19         0.00000E+00
    0.34696E-07        -0.42841E-19         0.00000E+00
    0.34467E-07        -0.31665E-19         0.00000E+00
    0.34245E-07        -0.20955E-20         0.00000E+00
    0.34031E-07        -0.13504E-19         0.00000E+00
    0.33823E-07        -0.17695E-19         0.00000E+00
    0.33624E-07        -0.88476E-20         0.00000E+00
    0.33433E-07        -0.95461E-20         0.00000E+00
    0.33251E-07        -0.11874E-19         0.00000E+00
    0.33077E-07        -0.24680E-19         0.00000E+00
    0.32913E-07        -0.27707E-19         0.00000E+00
    0.32758E-07        -0.37951E-19         0.00000E+00
    0.32613E-07        -0.35390E-19         0.00000E+00
    0.32478E-07        -0.19558E-19         0.00000E+00
    0.32353E-07        -0.19325E-19         0.00000E+00
    0.32238E-07        -0.76834E-20         0.00000E+00
    0.32133E-07        -0.93132E-20         0.00000E+00
    0.32039E-07        -0.21886E-19         0.00000E+00
    0.31955E-07        -0.31199E-19         0.00000E+00
    0.31882E-07        -0.11176E-19         0.00000E+00
    0.31819E-07        -0.22352E-19         0.00000E+00
    0.31767E-07        -0.29802E-19         0.00000E+00
    0.31724E-07        -0.20489E-19         0.00000E+00
    0.31693E-07         0.23283E-20         0.00000E+00
    0.31671E-07         0.11642E-20         0.00000E+00
    0.31659E-07        -0.13039E-19         0.00000E+00
    0.31658E-07         0.11642E-19         0.00000E+00
    0.31666E-07        -0.24447E-19         0.00000E+00
    0.31683E-07        -0.34459E-19         0.00000E+00
    0.31709E-07        -0.17695E-19         0.00000E+00
    0.31745E-07        -0.11409E-19         0.00000E+00
    0.31789E-07        -0.24447E-19         0.00000E+00
    0.31842E-07        -0.24913E-19         0.00000E+00
    0.31902E-07         0.48894E-20         0.00000E+00
    0.31970E-07         0.62864E-20         0.00000E+00
    0.32045E-07        -0.12573E-19         0.00000E+00
    0.32127E-07        -0.15367E-19         0.00000E+00
    0.32216E-07        -0.13737E-19         0.00000E+00
    0.32310E-07        -0.97789E-20         0.00000E+00
    0.32410E-07        -0.18859E-19         0.00000E+00
    0.32514E-07        -0.17928E-19         0.00000E+00
    0.32623E-07         0.60536E-20         0.00000E+00
    0.32735E-07         0.19325E-19         0.00000E+00
    0.32851E-07        -0.13970E-20         0.00000E+00
    0.32969E-07        -0.22119E-19         0.00000E+00
    0.33089E-07        -0.53551E-20         0.00000E+00
    0.33210E-07         0.23283E-20         0.00000E+00
    0.33332E-07         0.60536E-20         0.00000E+00
    0.33454E-07         0.13970E-20         0.00000E+00
    0.33576E-07        -0.16298E-20         0.00000E+00
    0.33695E-07         0.18626E-20         0.00000E+00
    0.33813E-07         0.53551E-20         0.00000E+00
    0.33928E-07         0.58208E-20         0.00000E+00
    0.34040E-07         0.00000E+00         0.00000E+00
    0.34147E-07         0.11176E-19         0.00000E+00
    0.34250E-07         0.15716E-19         0.00000E+00
    0.34346E-07         0.14203E-19         0.00000E+00
    0.34437E-07        -0.11642E-20         0.00000E+00
    0.34521E-07        -0.44238E-20         0.00000E+00
    0.34597E-07         0.16298E-19         0.00000E+00
    0.34666E-07         0.83819E-20         0.00000E+00
    0.34725E-07        -0.13970E-20         0.00000E+00
    0.34776E-07         0.54715E-20         0.00000E+00
    0.34817E-07         0.26892E-19         0.00000E+00
    0.34848E-07         0.32596E-19         0.00000E+00
    0.34869E-07         0.25611E-20         0.00000E+00
    0.34880E-07        -0.77998E-20         0.00000E+00
    0.41429E-07        -0.93132E-20         0.00000E+00
    0.41410E-07         0.46566E-20         0.00000E+00
    0.41373E-07         0.40047E-19         0.00000E+00
    0.41319E-07         0.55181E-19         0.00000E+00
    0.41246E-07         0.28871E-19         0.00000E+00
    0.41156E-07         0.28638E-19         0.00000E+00
    0.41050E-07         0.26543E-19         0.00000E+00
    0.40927E-07         0.19092E-19         0.00000E+00
    0.40790E-07         0.16065E-19         0.00000E+00
    0.40638E-07        -0.88476E-20         0.00000E+00
    0.40472E-07        -0.10012E-19         0.00000E+00
    0.40294E-07         0.14668E-19         0.00000E+00
    0.40103E-07         0.17462E-19         0.00000E+00
    0.39902E-07         0.19558E-19         0.00000E+00
    0.39691E-07         0.11409E-19         0.00000E+00
    0.39470E-07        -0.37253E-20         0.00000E+00
    0.39241E-07        -0.93132E-20         0.00000E+00
    0.39005E-07         0.58208E-20         0.00000E+00
    0.38762E-07         0.90804E-20         0.00000E+00
    0.38514E-07         0.23283E-20         0.00000E+00
    0.38261E-07        -0.51223E-20         0.00000E+00
    0.38005E-07        -0.13039E-19         0.00000E+00
    0.37746E-07        -0.48894E-20         0.00000E+00
    0.37484E-07        -0.17229E-19         0.00000E+00
    0.37222E-07        -0.19325E-19         0.00000E+00
    0.36959E-07         0.69849E-20         0.00000E+00
    0.36697E-07         0.24913E-19         0.00000E+00
    0.36435E-07         0.21420E-19         0.00000E+00
    0.36176E-07        -0.65193E-20         0.00000E+00
    0.35919E-07        -0.10710E-19         0.00000E+00
    0.35665E-07        -0.19791E-19         0.00000E+00
    0.35416E-07        -0.51223E-20         0.00000E+00
    0.35170E-07         0.46566E-21         0.00000E+00
    0.34930E-07        -0.31898E-19         0.00000E+00
    0.34696E-07        -0.39348E-19         0.00000E+00
    0.34467E-07        -0.28173E-19         0.00000E+00
    0.34245E-07         0.14435E-19         0.00000E+00
    0.34031E-07         0.19791E-19         0.00000E+00
    0.33823E-07        -0.12107E-19         0.00000E+00
    0.33624E-07        -0.18626E-20         0.00000E+00
    0.33433E-07         0.67521E-20         0.00000E+00
    0.33251E-07        -0.17928E-19         0.00000E+00
    0.33077E-07        -0.22817E-19         0.00000E+00
    0.32913E-07        -0.26776E-19         0.00000E+00
    0.32758E-07        -0.45868E-19         0.00000E+00
    0.32613E-07        -0.51223E-19         0.00000E+00
    0.32478E-07        -0.35390E-19         0.00000E+00
    0.32353E-07        -0.24214E-19         0.00000E+00
    0.32238E-07         0.46566E-21         0.00000E+00
    0.32133E-07         0.76834E-20         0.00000E+00
    0.32039E-07        -0.26776E-19         0.00000E+00
    0.31955E-07        -0.25611E-19         0.00000E+00
    0.31882E-07        -0.46566E-20         0.00000E+00
    0.31819E-07        -0.22352E-19         0.00000E+00
    0.31767E-07        -0.18161E-19         0.00000E+00
    0.31724E-07        -0.95461E-20         0.00000E+00
    0.31693E-07        -0.69849E-20         0.00000E+00
    0.31671E-07        -0.14901E-19         0.00000E+00
    0.31659E-07        -0.23283E-19         0.00000E+00
    0.31658E-07        -0.12340E-19         0.00000E+00
    0.31666E-07        -0.16531E-19         0.00000E+00
    0.31683E-07        -0.34925E-19         0.00000E+00
    0.31709E-07        -0.32131E-19         0.00000E+00
    0.31745E-07        -0.15134E-19         0.00000E+00
    0.31789E-07        -0.10012E-19         0.00000E+00
    0.31842E-07        -0.12107E-19         0.00000E+00
    0.31902E-07         0.55879E-20         0.00000E+00
    0.31970E-07         0.23283E-21         0.00000E+00
    0.32045E-07        -0.19092E-19         0.00000E+00
    0.32127E-07        -0.14668E-19         0.00000E+00
    0.32216E-07        -0.15600E-19         0.00000E+00
    0.32310E-07        -0.21420E-19         0.00000E+00
    0.32410E-07         0.23283E-20         0.00000E+00
    0.32514E-07         0.93132E-20         0.00000E+00
    0.32623E-07         0.93132E-21         0.00000E+00
    0.32735E-07        -0.44238E-20         0.00000E+00
    0.32851E-07        -0.18626E-20         0.00000E+00
    0.32969E-07        -0.14435E-19         0.00000E+00
    0.33089E-07        -0.13970E-19         0.00000E+00
    0.33210E-07        -0.32596E-20         0.00000E+00
    0.33332E-07        -0.93132E-21         0.00000E+00
    0.33454E-07         0.81491E-20         0.00000E+00
    0.33576E-07         0.13737E-19         0.00000E+00
    0.33695E-07         0.20489E-19         0.00000E+00
    0.33813E-07         0.12340E-19         0.00000E+00
    0.33928E-07         0.90804E-20         0.00000E+00
    0.34040E-07         0.18808E-36         0.00000E+00
    0.34147E-07         0.74506E-20         0.00000E+00
    0.34250E-07         0.12107E-19         0.00000E+00
    0.34346E-07         0.96625E-20         0.00000E+00
    0.34437E-07         0.71013E-20         0.00000E+00
    0.34521E-07         0.25495E-19         0.00000E+00
    0.34597E-07         0.41095E-19         0.00000E+00
    0.34666E-07         0.21653E-19         0.00000E+00
    0.34725E-07         0.18626E-20         0.00000E+00
    0.34776E-07        -0.18626E-20         0.00000E+00
    0.34817E-07         0.13970E-19         0.00000E+00
    0.34848E-07         0.97789E-20         0.00000E+00
    0.34869E-07         0.17462E-20         0.00000E+00
    0.34880E-07         0.38417E-20         0.00000E+00
    0.41429E-07         0.25611E-19         0.00000E+00
    0.41410E-07         0.16298E-19         0.00000E+00
    0.41373E-07        -0.46566E-20         0.00000E+00
    0.41319E-07         0.30268E-19         0.00000E+00
    0.41246E-07         0.54017E-19         0.00000E+00
    0.41156E-07         0.28638E-19         0.00000E+00
    0.41050E-07        -0.10943E-19         0.00000E+00
    0.40927E-07         0.27940E-20         0.00000E+00
    0.40790E-07        -0.10710E-19         0.00000E+00
    0.40638E-07        -0.20256E-19         0.00000E+00
    0.40472E-07         0.16065E-19         0.00000E+00
    0.40294E-07         0.36322E-19         0.00000E+00
    0.40103E-07         0.26543E-19         0.00000E+00
    0.39902E-07         0.10012E-19         0.00000E+00
    0.39691E-07         0.30966E-19         0.00000E+00
    0.39470E-07         0.19558E-19         0.00000E+00
    0.39241E-07        -0.83819E-20         0.00000E+00
    0.39005E-07        -0.31898E-19         0.00000E+00
    0.38762E-07        -0.25844E-19         0.00000E+00
    0.38514E-07        -0.14435E-19         0.00000E+00
    0.38261E-07        -0.44238E-19         0.00000E+00
    0.38005E-07        -0.34925E-19         0.00000E+00
    0.37746E-07        -0.16065E-19         0.00000E+00
    0.37484E-07        -0.11176E-19         0.00000E+00
    0.37222E-07        -0.18626E-19         0.00000E+00
    0.36959E-07        -0.12107E-19         0.00000E+00
    0.36697E-07         0.62864E-20         0.00000E+00
    0.36435E-07         0.27008E-19         0.00000E+00
    0.36176E-07         0.25611E-19         0.00000E+00
    0.35919E-07        -0.65193E-20         0.00000E+00
    0.35665E-07        -0.44005E-19         0.00000E+00
    0.35416E-07        -0.29337E-19         0.00000E+00
    0.35170E-07         0.39581E-20         0.00000E+00
    0.34930E-07        -0.37020E-19         0.00000E+00
    0.34696E-07        -0.52154E-19         0.00000E+00
    0.34467E-07        -0.14901E-19         0.00000E+00
    0.34245E-07         0.23283E-21         0.00000E+00
    0.34031E-07        -0.14668E-19         0.00000E+00
    0.33823E-07        -0.23749E-19         0.00000E+00
    0.33624E-07        -0.60536E-20         0.00000E+00
    0.33433E-07         0.44238E-20         0.00000E+00
    0.33251E-07        -0.88476E-20         0.00000E+00
    0.33077E-07        -0.19092E-19         0.00000E+00
    0.32913E-07        -0.11409E-19         0.00000E+00
    0.32758E-07        -0.21653E-19         0.00000E+00
    0.32613E-07        -0.18626E-19         0.00000E+00
    0.32478E-07         0.25611E-20         0.00000E+00
    0.32353E-07        -0.14203E-19         0.00000E+00
    0.32238E-07        -0.16997E-19         0.00000E+00
    0.32133E-07         0.34925E-20         0.00000E+00
    0.32039E-07        -0.90804E-20         0.00000E+00
    0.31955E-07        -0.21420E-19         0.00000E+00
    0.31882E-07        -0.21420E-19         0.00000E+00
    0.31819E-07        -0.65193E-20         0.00000E+00
    0.31767E-07        -0.69849E-20         0.00000E+00
    0.31724E-07        -0.26543E-19         0.00000E+00
    0.31693E-07        -0.23982E-19         0.00000E+00
    0.31671E-07        -0.12806E-19         0.00000E+00
    0.31659E-07         0.69849E-21         0.00000E+00
    0.31658E-07         0.79162E-20         0.00000E+00
    0.31666E-07        -0.69849E-20         0.00000E+00
    0.31683E-07        -0.29337E-19         0.00000E+00
    0.31709E-07        -0.28871E-19         0.00000E+00
    0.31745E-07        -0.23516E-19         0.00000E+00
    0.31789E-07        -0.33528E-19         0.00000E+00
    0.31842E-07        -0.24447E-19         0.00000E+00
    0.31902E-07        -0.76834E-20         0.00000E+00
    0.31970E-07        -0.46566E-20         0.00000E+00
    0.32045E-07         0.34925E-20         0.00000E+00
    0.32127E-07         0.55879E-20         0.00000E+00
    0.32216E-07        -0.13271E-19         0.00000E+00
    0.32310E-07        -0.27940E-19         0.00000E+00
    0.32410E-07        -0.12573E-19         0.00000E+00
    0.32514E-07         0.60536E-20         0.00000E+00
    0.32623E-07        -0.13737E-19         0.00000E+00
    0.32735E-07        -0.21653E-19         0.00000E+00
    0.32851E-07        -0.60536E-20         0.00000E+00
    0.32969E-07        -0.14668E-19         0.00000E+00
    0.33089E-07        -0.11409E-19         0.00000E+00
    0.33210E-07         0.53551E-20         0.00000E+00
    0.33332E-07         0.95461E-20         0.00000E+00
    0.33454E-07        -0.34925E-20         0.00000E+00
    0.33576E-07         0.69849E-21         0.00000E+00
    0.33695E-07         0.37253E-20         0.00000E+00
    0.33813E-07        -0.23050E-19         0.00000E+00
    0.33928E-07        -0.12806E-19         0.00000E+00
    0.34040E-07         0.86147E-20         0.00000E+00
    0.34147E-07         0.18626E-20         0.00000E+00
    0.34250E-07         0.11642E-19         0.00000E+00
    0.34346E-07         0.29802E-19         0.00000E+00
    0.34437E-07         0.24680E-19         0.00000E+00
    0.34521E-07         0.20140E-19         0.00000E+00
    0.34597E-07         0.22352E-19         0.00000E+00
    0.34666E-07         0.13737E-19         0.00000E+00
    0.34725E-07         0.13388E-19         0.00000E+00
    0.34776E-07         0.12107E-19         0.00000E+00
    0.34817E-07         0.23283E-20         0.00000E+00
    0.34848E-07         0.97789E-20         0.00000E+00
    0.34869E-07         0.17113E-19         0.00000E+00
    0.34880E-07         0.46566E-21         0.00000E+00
    0.41429E-07         0.10245E-19         0.00000E+00
    0.41410E-07         0.12806E-19         0.00000E+00
    0.41373E-07         0.15832E-19         0.00000E+00
    0.41319E-07         0.24214E-19         0.00000E+00
    0.41246E-07         0.18626E-20         0.00000E+00
    0.41156E-07        -0.14668E-19         0.00000E+00
    0.41050E-07        -0.67521E-20         0.00000E+00
    0.40927E-07        -0.13504E-19         0.00000E+00
    0.40790E-07         0.32596E-20         0.00000E+00
    0.40638E-07         0.21420E-19         0.00000E+00
    0.40472E-07         0.19092E-19         0.00000E+00
    0.40294E-07         0.27474E-19         0.00000E+00
    0.40103E-07         0.53551E-20         0.00000E+00
    0.39902E-07        -0.37253E-20         0.00000E+00
    0.39691E-07         0.10012E-19         0.00000E+00
    0.39470E-07         0.60536E-20         0.00000E+00
    0.39241E-07        -0.18626E-20         0.00000E+00
    0.39005E-07         0.11642E-20         0.00000E+00
    0.38762E-07        -0.12573E-19         0.00000E+00
    0.38514E-07        -0.31665E-19         0.00000E+00
    0.38261E-07        -0.23982E-19         0.00000E+00
    0.38005E-07        -0.22352E-19         0.00000E+00
    0.37746E-07        -0.22585E-19         0.00000E+00
    0.37484E-07        -0.90804E-20         0.00000E+00
    0.37222E-07        -0.53551E-20         0.00000E+00
    0.36959E-07        -0.11176E-19         0.00000E+00
    0.36697E-07         0.14901E-19         0.00000E+00
    0.36435E-07         0.20023E-19         0.00000E+00
    0.36176E-07        -0.15134E-19         0.00000E+00
    0.35919E-07        -0.28405E-19         0.00000E+00
    0.35665E-07        -0.37486E-19         0.00000E+00
    0.35416E-07        -0.16764E-19         0.00000E+00
    0.35170E-07        -0.14668E-19         0.00000E+00
    0.34930E-07        -0.35390E-19         0.00000E+00
    0.34696E-07        -0.30734E-19         0.00000E+00
    0.34467E-07         0.00000E+00         0.00000E+00
    0.34245E-07         0.97789E-20         0.00000E+00
    0.34031E-07         0.93132E-21         0.00000E+00
    0.33823E-07         0.23283E-20         0.00000E+00
    0.33624E-07         0.55879E-20         0.00000E+00
    0.33433E-07        -0.25611E-20         0.00000E+00
    0.33251E-07        -0.46566E-21         0.00000E+00
    0.33077E-07         0.44238E-20         0.00000E+00
    0.32913E-07        -0.28871E-19         0.00000E+00
    0.32758E-07        -0.24913E-19         0.00000E+00
    0.32613E-07         0.20722E-19         0.00000E+00
    0.32478E-07         0.30966E-19         0.00000E+00
    0.32353E-07         0.19092E-19         0.00000E+00
    0.32238E-07        -0.88476E-20         0.00000E+00
    0.32133E-07         0.13970E-20         0.00000E+00
    0.32039E-07        -0.65193E-20         0.00000E+00
    0.31955E-07        -0.20256E-19         0.00000E+00
    0.31882E-07        -0.16531E-19         0.00000E+00
    0.31819E-07        -0.27940E-19         0.00000E+00
    0.31767E-07        -0.27008E-19         0.00000E+00
    0.31724E-07        -0.11642E-19         0.00000E+00
    0.31693E-07        -0.97789E-20         0.00000E+00
    0.31671E-07        -0.27707E-19         0.00000E+00
    0.31659E-07        -0.24913E-19         0.00000E+00
    0.31658E-07        -0.23283E-21         0.00000E+00
    0.31666E-07        -0.16997E-19         0.00000E+00
    0.31683E-07        -0.27940E-19         0.00000E+00
    0.31709E-07        -0.22585E-19         0.00000E+00
    0.31745E-07        -0.31199E-19         0.00000E+00
    0.31789E-07        -0.17695E-19         0.00000E+00
    0.31842E-07        -0.20023E-19         0.00000E+00
    0.31902E-07        -0.29104E-19         0.00000E+00
    0.31970E-07        -0.17462E-19         0.00000E+00
    0.32045E-07        -0.11176E-19         0.00000E+00
    0.32127E-07        -0.24680E-19         0.00000E+00
    0.32216E-07        -0.35390E-19         0.00000E+00
    0.32310E-07        -0.13039E-19         0.00000E+00
    0.32410E-07        -0.81491E-20         0.00000E+00
    0.32514E-07        -0.81491E-20         0.00000E+00
    0.32623E-07         0.46566E-20         0.00000E+00
    0.32735E-07        -0.69849E-20         0.00000E+00
    0.32851E-07        -0.58208E-20         0.00000E+00
    0.32969E-07        -0.79162E-20         0.00000E+00
    0.33089E-07        -0.13039E-19         0.00000E+00
    0.33210E-07        -0.69849E-20         0.00000E+00
    0.33332E-07        -0.76834E-20         0.00000E+00
    0.33454E-07        -0.14901E-19         0.00000E+00
    0.33576E-07        -0.10710E-19         0.00000E+00
    0.33695E-07         0.48894E-20         0.00000E+00
    0.33813E-07         0.55879E-20         0.00000E+00
    0.33928E-07        -0.23283E-21         0.00000E+00
    0.34040E-07        -0.18626E-20         0.00000E+00
    0.34147E-07         0.17695E-19         0.00000E+00
    0.34250E-07         0.14203E-19         0.00000E+00
    0.34346E-07         0.68685E-20         0.00000E+00
    0.34437E-07         0.11292E-19         0.00000E+00
    0.34521E-07         0.54715E-20         0.00000E+00
    0.34597E-07         0.46566E-21         0.00000E+00
    0.34666E-07        -0.75670E-20         0.00000E+00
    0.34725E-07        -0.54715E-20         0.00000E+00
    0.34776E-07         0.46566E-20         0.00000E+00
    0.34817E-07         0.74506E-20         0.00000E+00
    0.34848E-07         0.47730E-20         0.00000E+00
    0.34869E-07         0.14086E-19         0.00000E+00
    0.34880E-07         0.10361E-19         0.00000E+00
    0.41429E-07         0.10710E-19         0.00000E+00
    0.41410E-07         0.11409E-19         0.00000E+00
    0.41373E-07         0.27940E-20         0.00000E+00
    0.41319E-07         0.62864E-20         0.00000E+00
    0.41246E-07         0.24214E-19         0.00000E+00
    0.41156E-07        -0.14203E-19         0.00000E+00
    0.41050E-07        -0.33760E-19         0.00000E+00
    0.40927E-07         0.69849E-20         0.00000E+00
    0.40790E-07         0.11642E-20         0.00000E+00
    0.40638E-07        -0.14668E-19         0.00000E+00
    0.40472E-07        -0.12340E-19         0.00000E+00
    0.40294E-07         0.12107E-19         0.00000E+00
    0.40103E-07         0.55181E-19         0.00000E+00
    0.39902E-07         0.50757E-19         0.00000E+00
    0.39691E-07         0.30501E-19         0.00000E+00
    0.39470E-07         0.11176E-19         0.00000E+00
    0.39241E-07        -0.18161E-19         0.00000E+00
    0.39005E-07         0.17462E-19         0.00000E+00
    0.38762E-07         0.22119E-19         0.00000E+00
    0.38514E-07        -0.25146E-19         0.00000E+00
    0.38261E-07        -0.28173E-19         0.00000E+00
    0.38005E-07        -0.25611E-19         0.00000E+00
    0.37746E-07        -0.21653E-19         0.00000E+00
    0.37484E-07        -0.97789E-20         0.00000E+00
    0.37222E-07        -0.74506E-20         0.00000E+00
    0.36959E-07        -0.11176E-19         0.00000E+00
    0.36697E-07        -0.10477E-19         0.00000E+00
    0.36435E-07         0.18394E-19         0.00000E+00
    0.36176E-07        -0.60536E-20         0.00000E+00
    0.35919E-07        -0.49360E-19         0.00000E+00
    0.35665E-07        -0.24447E-19         0.00000E+00
    0.35416E-07         0.10943E-19         0.00000E+00
    0.35170E-07        -0.11176E-19         0.00000E+00
    0.34930E-07        -0.25611E-19         0.00000E+00
    0.34696E-07        -0.93132E-21         0.00000E+00
    0.34467E-07         0.46566E-21         0.00000E+00
    0.34245E-07        -0.17928E-19         0.00000E+00
    0.34031E-07        -0.41910E-20         0.00000E+00
    0.33823E-07         0.18626E-19         0.00000E+00
    0.33624E-07         0.39581E-20         0.00000E+00
    0.33433E-07        -0.69849E-21         0.00000E+00
    0.33251E-07        -0.65193E-20         0.00000E+00
    0.33077E-07        -0.25844E-19         0.00000E+00
    0.32913E-07        -0.16531E-19         0.00000E+00
    0.32758E-07        -0.41910E-20         0.00000E+00
    0.32613E-07        -0.44238E-20         0.00000E+00
    0.32478E-07        -0.69849E-21         0.00000E+00
    0.32353E-07        -0.86147E-20         0.00000E+00
    0.32238E-07        -0.14901E-19         0.00000E+00
    0.32133E-07        -0.17928E-19         0.00000E+00
    0.32039E-07        -0.69849E-20         0.00000E+00
    0.31955E-07        -0.17695E-19         0.00000E+00
    0.31882E-07        -0.36554E-19         0.00000E+00
    0.31819E-07        -0.20722E-19         0.00000E+00
    0.31767E-07        -0.32363E-19         0.00000E+00
    0.31724E-07        -0.16298E-20         0.00000E+00
    0.31693E-07         0.14901E-19         0.00000E+00
    0.31671E-07         0.00000E+00         0.00000E+00
    0.31659E-07        -0.81491E-20         0.00000E+00
    0.31658E-07        -0.15367E-19         0.00000E+00
    0.31666E-07        -0.86147E-20         0.00000E+00
    0.31683E-07        -0.27241E-19         0.00000E+00
    0.31709E-07        -0.35390E-19         0.00000E+00
    0.31745E-07        -0.18626E-19         0.00000E+00
    0.31789E-07        -0.24913E-19         0.00000E+00
    0.31842E-07        -0.32363E-19         0.00000E+00
    0.31902E-07        -0.16298E-20         0.00000E+00
    0.31970E-07        -0.11642E-19         0.00000E+00
    0.32045E-07        -0.15367E-19         0.00000E+00
    0.32127E-07        -0.14435E-19         0.00000E+00
    0.32216E-07        -0.26543E-19         0.00000E+00
    0.32310E-07        -0.16531E-19         0.00000E+00
    0.32410E-07         0.46566E-21         0.00000E+00
    0.32514E-07         0.60536E-20         0.00000E+00
    0.32623E-07        -0.37253E-20         0.00000E+00
    0.32735E-07        -0.18626E-19         0.00000E+00
    0.32851E-07        -0.20489E-19         0.00000E+00
    0.32969E-07        -0.15134E-19         0.00000E+00
    0.33089E-07        -0.97789E-20         0.00000E+00
    0.33210E-07        -0.55879E-20         0.00000E+00
    0.33332E-07        -0.20955E-20         0.00000E+00
    0.33454E-07         0.13039E-19         0.00000E+00
    0.33576E-07         0.90804E-20         0.00000E+00
    0.33695E-07        -0.79162E-20         0.00000E+00
    0.33813E-07        -0.23283E-20         0.00000E+00
    0.33928E-07         0.12806E-19         0.00000E+00
    0.34040E-07         0.46566E-20         0.00000E+00
    0.34147E-07         0.23283E-20         0.00000E+00
    0.34250E-07         0.19791E-19         0.00000E+00
    0.34346E-07         0.18394E-19         0.00000E+00
    0.34437E-07         0.13039E-19         0.00000E+00
    0.34521E-07        -0.22119E-20         0.00000E+00
    0.34597E-07        -0.43074E-20         0.00000E+00
    0.34666E-07         0.13271E-19         0.00000E+00
    0.34725E-07         0.17928E-19         0.00000E+00
    0.34776E-07        -0.93132E-21         0.00000E+00
    0.34817E-07         0.88476E-20         0.00000E+00
    0.34848E-07         0.21653E-19         0.00000E+00
    0.34869E-07         0.13388E-19         0.00000E+00
    0.34880E-07         0.48894E-20         0.00000E+00
    0.41429E-07         0.28405E-19         0.00000E+00
    0.41410E-07         0.46100E-19         0.00000E+00
    0.41373E-07         0.45635E-19         0.00000E+00
    0.41319E-07         0.34925E-19         0.00000E+00
    0.41246E-07        -0.86147E-20         0.00000E+00
    0.41156E-07        -0.14435E-19         0.00000E+00
    0.41050E-07        -0.41677E-19         0.00000E+00
    0.40927E-07        -0.23749E-19         0.00000E+00
    0.40790E-07         0.22585E-19         0.00000E+00
    0.40638E-07         0.12573E-19         0.00000E+00
    0.40472E-07         0.86147E-20         0.00000E+00
    0.40294E-07        -0.37253E-20         0.00000E+00
    0.40103E-07         0.34925E-20         0.00000E+00
    0.39902E-07         0.69849E-20         0.00000E+00
    0.39691E-07        -0.24913E-19         0.00000E+00
    0.39470E-07         0.67521E-20         0.00000E+00
    0.39241E-07         0.42142E-19         0.00000E+00
    0.39005E-07         0.17928E-19         0.00000E+00
    0.38762E-07         0.26543E-19         0.00000E+00
    0.38514E-07         0.17462E-19         0.00000E+00
    0.38261E-07        -0.10477E-19         0.00000E+00
    0.38005E-07        -0.15832E-19         0.00000E+00
    0.37746E-07        -0.31432E-19         0.00000E+00
    0.37484E-07         0.18626E-20         0.00000E+00
    0.37222E-07         0.14435E-19         0.00000E+00
    0.36959E-07        -0.16298E-19         0.00000E+00
    0.36697E-07        -0.62864E-20         0.00000E+00
    0.36435E-07        -0.44238E-20         0.00000E+00
    0.36176E-07         0.60536E-20         0.00000E+00
    0.35919E-07        -0.17462E-19         0.00000E+00
    0.35665E-07        -0.29569E-19         0.00000E+00
    0.35416E-07        -0.79162E-20         0.00000E+00
    0.35170E-07        -0.10477E-19         0.00000E+00
    0.34930E-07        -0.10245E-19         0.00000E+00
    0.34696E-07        -0.20955E-19         0.00000E+00
    0.34467E-07        -0.16997E-19         0.00000E+00
    0.34245E-07        -0.60536E-20         0.00000E+00
    0.34031E-07         0.10245E-19         0.00000E+00
    0.33823E-07         0.19325E-19         0.00000E+00
    0.33624E-07        -0.11642E-20         0.00000E+00
    0.33433E-07         0.93132E-21         0.00000E+00
    0.33251E-07         0.11176E-19         0.00000E+00
    0.33077E-07        -0.21886E-19         0.00000E+00
    0.32913E-07        -0.16298E-19         0.00000E+00
    0.32758E-07         0.79162E-20         0.00000E+00
    0.32613E-07        -0.13039E-19         0.00000E+00
    0.32478E-07        -0.76834E-20         0.00000E+00
    0.32353E-07         0.10943E-19         0.00000E+00
    0.32238E-07         0.16298E-20         0.00000E+00
    0.32133E-07        -0.10710E-19         0.00000E+00
    0.32039E-07        -0.46566E-20         0.00000E+00
    0.31955E-07        -0.14435E-19         0.00000E+00
    0.31882E-07        -0.24680E-19         0.00000E+00
    0.31819E-07        -0.10245E-19         0.00000E+00
    0.31767E-07        -0.11642E-19         0.00000E+00
    0.31724E-07        -0.34925E-20         0.00000E+00
    0.31693E-07         0.10943E-19         0.00000E+00
    0.31671E-07         0.74506E-20         0.00000E+00
    0.31659E-07        -0.16997E-19         0.00000E+00
    0.31658E-07        -0.27940E-19         0.00000E+00
    0.31666E-07        -0.11874E-19         0.00000E+00
    0.31683E-07        -0.18859E-19         0.00000E+00
    0.31709E-07        -0.33062E-19         0.00000E+00
    0.31745E-07        -0.35623E-19         0.00000E+00
    0.31789E-07        -0.34459E-19         0.00000E+00
    0.31842E-07        -0.26310E-19         0.00000E+00
    0.31902E-07        -0.22119E-19         0.00000E+00
    0.31970E-07        -0.18161E-19         0.00000E+00
    0.32045E-07        -0.10477E-19         0.00000E+00
    0.32127E-07        -0.12107E-19         0.00000E+00
    0.32216E-07        -0.23516E-19         0.00000E+00
    0.32310E-07        -0.15134E-19         0.00000E+00
    0.32410E-07        -0.11874E-19         0.00000E+00
    0.32514E-07        -0.19092E-19         0.00000E+00
    0.32623E-07        -0.12107E-19         0.00000E+00
    0.32735E-07        -0.18859E-19         0.00000E+00
    0.32851E-07        -0.20489E-19         0.00000E+00
    0.32969E-07        -0.23283E-20         0.00000E+00
    0.33089E-07        -0.13504E-19         0.00000E+00
    0.33210E-07        -0.67521E-20         0.00000E+00
    0.33332E-07         0.11874E-19         0.00000E+00
    0.33454E-07         0.46566E-21         0.00000E+00
    0.33576E-07        -0.14203E-19         0.00000E+00
    0.33695E-07        -0.46566E-21         0.00000E+00
    0.33813E-07         0.32596E-20         0.00000E+00
    0.33928E-07        -0.69849E-20         0.00000E+00
    0.34040E-07        -0.10245E-19         0.00000E+00
    0.34147E-07        -0.13737E-19         0.00000E+00
    0.34250E-07         0.34925E-21         0.00000E+00
    0.34346E-07         0.00000E+00         0.00000E+00
    0.34437E-07         0.36089E-20         0.00000E+00
    0.34521E-07         0.18394E-19         0.00000E+00
    0.34597E-07         0.23516E-19         0.00000E+00
    0.34666E-07         0.24564E-19         0.00000E+00
    0.34725E-07         0.17928E-19         0.00000E+00
    0.34776E-07         0.26077E-19         0.00000E+00
    0.34817E-07         0.19325E-19         0.00000E+00
    0.34848E-07         0.66357E-20         0.00000E+00
    0.34869E-07         0.91968E-20         0.00000E+00
    0.34880E-07         0.44238E-20         0.00000E+00
    0.41429E-07         0.46566E-21         0.00000E+00
    0.41410E-07         0.28405E-19         0.00000E+00
    0.41373E-07         0.28405E-19         0.00000E+00
    0.41319E-07         0.13039E-19         0.00000E+00
    0.41246E-07         0.27241E-19         0.00000E+00
    0.41156E-07        -0.16298E-19         0.00000E+00
    0.41050E-07        -0.49127E-19         0.00000E+00
    0.40927E-07         0.60536E-20         0.00000E+00
    0.40790E-07         0.39814E-19         0.00000E+00
    0.40638E-07         0.32363E-19         0.00000E+00
    0.40472E-07         0.10943E-19         0.00000E+00
    0.40294E-07         0.16531E-19         0.00000E+00
    0.40103E-07         0.26776E-19         0.00000E+00
    0.39902E-07         0.26543E-19         0.00000E+00
    0.39691E-07         0.28638E-19         0.00000E+00
    0.39470E-07         0.12107E-19         0.00000E+00
    0.39241E-07         0.51223E-20         0.00000E+00
    0.39005E-07         0.41910E-20         0.00000E+00
    0.38762E-07        -0.83819E-20         0.00000E+00
    0.38514E-07        -0.27940E-20         0.00000E+00
    0.38261E-07         0.23283E-20         0.00000E+00
    0.38005E-07        -0.22817E-19         0.00000E+00
    0.37746E-07        -0.31199E-19         0.00000E+00
    0.37484E-07        -0.18161E-19         0.00000E+00
    0.37222E-07         0.46566E-21         0.00000E+00
    0.36959E-07        -0.55879E-20         0.00000E+00
    0.36697E-07        -0.19558E-19         0.00000E+00
    0.36435E-07        -0.16997E-19         0.00000E+00
    0.36176E-07         0.90804E-20         0.00000E+00
    0.35919E-07        -0.25611E-20         0.00000E+00
    0.35665E-07        -0.28173E-19         0.00000E+00
    0.35416E-07        -0.33528E-19         0.00000E+00
    0.35170E-07        -0.30734E-19         0.00000E+00
    0.34930E-07        -0.23283E-19         0.00000E+00
    0.34696E-07        -0.21886E-19         0.00000E+00
    0.34467E-07        -0.18394E-19         0.00000E+00
    0.34245E-07        -0.76834E-20         0.00000E+00
    0.34031E-07        -0.16298E-19         0.00000E+00
    0.33823E-07        -0.86147E-20         0.00000E+00
    0.33624E-07         0.18859E-19         0.00000E+00
    0.33433E-07         0.15367E-19         0.00000E+00
    0.33251E-07        -0.27940E-20         0.00000E+00
    0.33077E-07        -0.32596E-20         0.00000E+00
    0.32913E-07         0.81491E-20         0.00000E+00
    0.32758E-07        -0.10477E-19         0.00000E+00
    0.32613E-07        -0.21188E-19         0.00000E+00
    0.32478E-07         0.25611E-20         0.00000E+00
    0.32353E-07         0.10477E-19         0.00000E+00
    0.32238E-07         0.48894E-20         0.00000E+00
    0.32133E-07        -0.25844E-19         0.00000E+00
    0.32039E-07        -0.26077E-19         0.00000E+00
    0.31955E-07        -0.25611E-20         0.00000E+00
    0.31882E-07        -0.65193E-20         0.00000E+00
    0.31819E-07        -0.12573E-19         0.00000E+00
    0.31767E-07        -0.74506E-20         0.00000E+00
    0.31724E-07        -0.22817E-19         0.00000E+00
    0.31693E-07        -0.23283E-21         0.00000E+00
    0.31671E-07        -0.11176E-19         0.00000E+00
    0.31659E-07        -0.36089E-19         0.00000E+00
    0.31658E-07        -0.65193E-20         0.00000E+00
    0.31666E-07        -0.18626E-20         0.00000E+00
    0.31683E-07        -0.28871E-19         0.00000E+00
    0.31709E-07        -0.33062E-19         0.00000E+00
    0.31745E-07        -0.90804E-20         0.00000E+00
    0.31789E-07        -0.11642E-19         0.00000E+00
    0.31842E-07        -0.25379E-19         0.00000E+00
    0.31902E-07        -0.16997E-19         0.00000E+00
    0.31970E-07        -0.15367E-19         0.00000E+00
    0.32045E-07        -0.22352E-19         0.00000E+00
    0.32127E-07        -0.13504E-19         0.00000E+00
    0.32216E-07        -0.17695E-19         0.00000E+00
    0.32310E-07        -0.69849E-21         0.00000E+00
    0.32410E-07         0.00000E+00         0.00000E+00
    0.32514E-07         0.90804E-20         0.00000E+00
    0.32623E-07         0.25146E-19         0.00000E+00
    0.32735E-07        -0.10245E-19         0.00000E+00
    0.32851E-07         0.00000E+00         0.00000E+00
    0.32969E-07         0.13970E-20         0.00000E+00
    0.33089E-07        -0.29337E-19         0.00000E+00
    0.33210E-07        -0.13039E-19         0.00000E+00
    0.33332E-07        -0.11642E-20         0.00000E+00
    0.33454E-07         0.69849E-20         0.00000E+00
    0.33576E-07         0.13970E-19         0.00000E+00
    0.33695E-07         0.41910E-20         0.00000E+00
    0.33813E-07        -0.23283E-21         0.00000E+00
    0.33928E-07        -0.76834E-20         0.00000E+00
    0.34040E-07        -0.18626E-20         0.00000E+00
    0.34147E-07         0.16764E-19         0.00000E+00
    0.34250E-07         0.20373E-19         0.00000E+00
    0.34346E-07         0.17579E-19         0.00000E+00
    0.34437E-07         0.15250E-19         0.00000E+00
    0.34521E-07         0.30268E-20         0.00000E+00
    0.34597E-07         0.31898E-19         0.00000E+00
    0.34666E-07         0.36671E-19         0.00000E+00
    0.34725E-07         0.31432E-20         0.00000E+00
    0.34776E-07        -0.13970E-20         0.00000E+00
    0.34817E-07         0.17229E-19         0.00000E+00
    0.34848E-07         0.21886E-19         0.00000E+00
    0.34869E-07         0.12806E-19         0.00000E+00
    0.34880E-07         0.73342E-20         0.00000E+00
    0.41429E-07         0.11642E-20         0.00000E+00
    0.41410E-07         0.16531E-19         0.00000E+00
    0.41373E-07         0.16764E-19         0.00000E+00
    0.41319E-07        -0.22585E-19         0.00000E+00
    0.41246E-07        -0.27940E-19         0.00000E+00
    0.41156E-07        -0.23283E-21         0.00000E+00
    0.41050E-07         0.21886E-19         0.00000E+00
    0.40927E-07        -0.23516E-19         0.00000E+00
    0.40790E-07        -0.41444E-19         0.00000E+00
    0.40638E-07        -0.93132E-21         0.00000E+00
    0.40472E-07        -0.76834E-20         0.00000E+00
    0.40294E-07         0.27940E-20         0.00000E+00
    0.40103E-07        -0.13737E-19         0.00000E+00
    0.39902E-07        -0.16997E-19         0.00000E+00
    0.39691E-07        -0.10943E-19         0.00000E+00
    0.39470E-07        -0.14668E-19         0.00000E+00
    0.39241E-07         0.16298E-19         0.00000E+00
    0.39005E-07         0.46566E-21         0.00000E+00
    0.38762E-07        -0.25611E-20         0.00000E+00
    0.38514E-07         0.11409E-19         0.00000E+00
    0.38261E-07        -0.10012E-19         0.00000E+00
    0.38005E-07        -0.27940E-19         0.00000E+00
    0.37746E-07        -0.25611E-19         0.00000E+00
    0.37484E-07         0.74506E-20         0.00000E+00
    0.37222E-07         0.14668E-19         0.00000E+00
    0.36959E-07         0.27940E-20         0.00000E+00
    0.36697E-07        -0.79162E-20         0.00000E+00
    0.36435E-07        -0.25611E-19         0.00000E+00
    0.36176E-07        -0.62864E-20         0.00000E+00
    0.35919E-07         0.31432E-19         0.00000E+00
    0.35665E-07         0.10012E-19         0.00000E+00
    0.35416E-07        -0.12806E-19         0.00000E+00
    0.35170E-07        -0.76834E-20         0.00000E+00
    0.34930E-07         0.10245E-19         0.00000E+00
    0.34696E-07         0.13970E-19         0.00000E+00
    0.34467E-07         0.17462E-19         0.00000E+00
    0.34245E-07         0.18161E-19         0.00000E+00
    0.34031E-07        -0.20256E-19         0.00000E+00
    0.33823E-07         0.46566E-20         0.00000E+00
    0.33624E-07        -0.32596E-20         0.00000E+00
    0.33433E-07        -0.27707E-19         0.00000E+00
    0.33251E-07        -0.24680E-19         0.00000E+00
    0.33077E-07        -0.13039E-19         0.00000E+00
    0.32913E-07         0.21886E-19         0.00000E+00
    0.32758E-07         0.67521E-20         0.00000E+00
    0.32613E-07        -0.44238E-20         0.00000E+00
    0.32478E-07        -0.25611E-20         0.00000E+00
    0.32353E-07         0.16298E-20         0.00000E+00
    0.32238E-07        -0.12806E-19         0.00000E+00
    0.32133E-07        -0.24447E-19         0.00000E+00
    0.32039E-07        -0.21420E-19         0.00000E+00
    0.31955E-07        -0.11874E-19         0.00000E+00
    0.31882E-07         0.32596E-20         0.00000E+00
    0.31819E-07        -0.11642E-19         0.00000E+00
    0.31767E-07        -0.29104E-19         0.00000E+00
    0.31724E-07        -0.69849E-20         0.00000E+00
    0.31693E-07        -0.46566E-21         0.00000E+00
    0.31671E-07        -0.14901E-19         0.00000E+00
    0.31659E-07        -0.17229E-19         0.00000E+00
    0.31658E-07        -0.20489E-19         0.00000E+00
    0.31666E-07        -0.65193E-20         0.00000E+00
    0.31683E-07        -0.41910E-20         0.00000E+00
    0.31709E-07        -0.20023E-19         0.00000E+00
    0.31745E-07        -0.95461E-20         0.00000E+00
    0.31789E-07         0.69849E-21         0.00000E+00
    0.31842E-07        -0.23283E-21         0.00000E+00
    0.31902E-07        -0.20023E-19         0.00000E+00
    0.31970E-07        -0.26776E-19         0.00000E+00
    0.32045E-07        -0.14435E-19         0.00000E+00
    0.32127E-07        -0.19558E-19         0.00000E+00
    0.32216E-07        -0.26310E-19         0.00000E+00
    0.32310E-07        -0.65193E-20         0.00000E+00
    0.32410E-07         0.17229E-19         0.00000E+00
    0.32514E-07         0.18161E-19         0.00000E+00
    0.32623E-07         0.18626E-20         0.00000E+00
    0.32735E-07        -0.16298E-19         0.00000E+00
    0.32851E-07        -0.32596E-20         0.00000E+00
    0.32969E-07         0.32596E-20         0.00000E+00
    0.33089E-07        -0.16298E-20         0.00000E+00
    0.33210E-07         0.62864E-20         0.00000E+00
    0.33332E-07        -0.20955E-20         0.00000E+00
    0.33454E-07        -0.39581E-20         0.00000E+00
    0.33576E-07        -0.25611E-20         0.00000E+00
    0.33695E-07        -0.60536E-20         0.00000E+00
    0.33813E-07        -0.37253E-20         0.00000E+00
    0.33928E-07         0.18626E-20         0.00000E+00
    0.34040E-07        -0.74506E-20         0.00000E+00
    0.34147E-07         0.16298E-20         0.00000E+00
    0.34250E-07         0.15600E-19         0.00000E+00
    0.34346E-07         0.33760E-20         0.00000E+00
    0.34437E-07        -0.46566E-20         0.00000E+00
    0.34521E-07         0.17113E-19         0.00000E+00
    0.34597E-07         0.26310E-19         0.00000E+00
    0.34666E-07         0.23050E-19         0.00000E+00
    0.34725E-07         0.12107E-19         0.00000E+00
    0.34776E-07        -0.27940E-20         0.00000E+00
    0.34817E-07        -0.27940E-20         0.00000E+00
    0.34848E-07        -0.72177E-20         0.00000E+00
    0.34869E-07         0.47730E-20         0.00000E+00
    0.34880E-07         0.58208E-20         0.00000E+00
    0.41429E-07         0.27940E-20         0.00000E+00
    0.41410E-07         0.28173E-19         0.00000E+00
    0.41373E-07         0.11642E-19         0.00000E+00
    0.41319E-07        -0.28871E-19         0.00000E+00
    0.41246E-07        -0.17229E-19         0.00000E+00
    0.41156E-07        -0.23050E-19         0.00000E+00
    0.41050E-07        -0.16764E-19         0.00000E+00
    0.40927E-07        -0.13970E-19         0.00000E+00
    0.40790E-07        -0.34925E-20         0.00000E+00
    0.40638E-07         0.16065E-19         0.00000E+00
    0.40472E-07         0.25379E-19         0.00000E+00
    0.40294E-07        -0.48894E-20         0.00000E+00
    0.40103E-07        -0.20256E-19         0.00000E+00
    0.39902E-07         0.51223E-20         0.00000E+00
    0.39691E-07         0.32363E-19         0.00000E+00
    0.39470E-07         0.20722E-19         0.00000E+00
    0.39241E-07        -0.69849E-20         0.00000E+00
    0.39005E-07        -0.20955E-19         0.00000E+00
    0.38762E-07        -0.11642E-19         0.00000E+00
    0.38514E-07         0.11409E-19         0.00000E+00
    0.38261E-07        -0.69849E-21         0.00000E+00
    0.38005E-07        -0.16298E-19         0.00000E+00
    0.37746E-07        -0.15367E-19         0.00000E+00
    0.37484E-07         0.18161E-19         0.00000E+00
    0.37222E-07         0.21420E-19         0.00000E+00
    0.36959E-07         0.37253E-20         0.00000E+00
    0.36697E-07        -0.11176E-19         0.00000E+00
    0.36435E-07        -0.13271E-19         0.00000E+00
    0.36176E-07        -0.81491E-20         0.00000E+00
    0.35919E-07         0.16298E-19         0.00000E+00
    0.35665E-07         0.36322E-19         0.00000E+00
    0.35416E-07         0.93132E-20         0.00000E+00
    0.35170E-07        -0.11409E-19         0.00000E+00
    0.34930E-07        -0.20256E-19         0.00000E+00
    0.34696E-07         0.51223E-20         0.00000E+00
    0.34467E-07         0.14203E-19         0.00000E+00
    0.34245E-07        -0.27940E-20         0.00000E+00
    0.34031E-07        -0.55879E-20         0.00000E+00
    0.33823E-07        -0.44238E-20         0.00000E+00
    0.33624E-07         0.23283E-21         0.00000E+00
    0.33433E-07        -0.55879E-20         0.00000E+00
    0.33251E-07        -0.55879E-20         0.00000E+00
    0.33077E-07        -0.19558E-19         0.00000E+00
    0.32913E-07        -0.17928E-19         0.00000E+00
    0.32758E-07         0.51223E-20         0.00000E+00
    0.32613E-07         0.90804E-20         0.00000E+00
    0.32478E-07        -0.11409E-19         0.00000E+00
    0.32353E-07        -0.13271E-19         0.00000E+00
    0.32238E-07        -0.25146E-19         0.00000E+00
    0.32133E-07        -0.31432E-19         0.00000E+00
    0.32039E-07        -0.15832E-19         0.00000E+00
    0.31955E-07        -0.22352E-19         0.00000E+00
    0.31882E-07        -0.20023E-19         0.00000E+00
    0.31819E-07        -0.55879E-20         0.00000E+00
    0.31767E-07        -0.20955E-20         0.00000E+00
    0.31724E-07        -0.79162E-20         0.00000E+00
    0.31693E-07        -0.55879E-20         0.00000E+00
    0.31671E-07         0.16298E-20         0.00000E+00
    0.31659E-07        -0.27940E-20         0.00000E+00
    0.31658E-07        -0.37719E-19         0.00000E+00
    0.31666E-07        -0.10477E-19         0.00000E+00
    0.31683E-07        -0.13970E-19         0.00000E+00
    0.31709E-07        -0.46566E-20         0.00000E+00
    0.31745E-07         0.58208E-20         0.00000E+00
    0.31789E-07        -0.69849E-21         0.00000E+00
    0.31842E-07         0.32596E-20         0.00000E+00
    0.31902E-07        -0.34226E-19         0.00000E+00
    0.31970E-07        -0.18626E-19         0.00000E+00
    0.32045E-07        -0.11642E-19         0.00000E+00
    0.32127E-07        -0.18161E-19         0.00000E+00
    0.32216E-07        -0.23283E-21         0.00000E+00
    0.32310E-07        -0.48894E-20         0.00000E+00
    0.32410E-07         0.23283E-21         0.00000E+00
    0.32514E-07         0.10943E-19         0.00000E+00
    0.32623E-07        -0.60536E-20         0.00000E+00
    0.32735E-07        -0.20489E-19         0.00000E+00
    0.32851E-07        -0.15367E-19         0.00000E+00
    0.32969E-07         0.93132E-21         0.00000E+00
    0.33089E-07         0.46566E-20         0.00000E+00
    0.33210E-07        -0.23283E-21         0.00000E+00
    0.33332E-07        -0.20955E-20         0.00000E+00
    0.33454E-07        -0.11642E-20         0.00000E+00
    0.33576E-07         0.10710E-19         0.00000E+00
    0.33695E-07        -0.11176E-19         0.00000E+00
    0.33813E-07        -0.16764E-19         0.00000E+00
    0.33928E-07        -0.58208E-20         0.00000E+00
    0.34040E-07        -0.17229E-19         0.00000E+00
    0.34147E-07        -0.12689E-19         0.00000E+00
    0.34250E-07         0.13737E-19         0.00000E+00
    0.34346E-07         0.23516E-19         0.00000E+00
    0.34437E-07         0.45402E-20         0.00000E+00
    0.34521E-07         0.87311E-20         0.00000E+00
    0.34597E-07         0.26776E-19         0.00000E+00
    0.34666E-07         0.83819E-20         0.00000E+00
    0.34725E-07         0.13970E-20         0.00000E+00
    0.34776E-07         0.11409E-19         0.00000E+00
    0.34817E-07         0.74506E-20         0.00000E+00
    0.34848E-07         0.14901E-19         0.00000E+00
    0.34869E-07         0.84983E-20         0.00000E+00
    0.34880E-07        -0.34925E-20         0.00000E+00
    0.41429E-07        -0.20489E-19         0.00000E+00
    0.41410E-07         0.69849E-21         0.00000E+00
    0.41373E-07         0.23283E-20         0.00000E+00
    0.41319E-07        -0.31199E-19         0.00000E+00
    0.41246E-07        -0.65193E-20         0.00000E+00
    0.41156E-07         0.44238E-20         0.00000E+00
    0.41050E-07        -0.49127E-19         0.00000E+00
    0.40927E-07        -0.35856E-19         0.00000E+00
    0.40790E-07         0.19791E-19         0.00000E+00
    0.40638E-07         0.90804E-20         0.00000E+00
    0.40472E-07         0.19791E-19         0.00000E+00
    0.40294E-07         0.17695E-19         0.00000E+00
    0.40103E-07         0.11874E-19         0.00000E+00
    0.39902E-07         0.14203E-19         0.00000E+00
    0.39691E-07         0.27707E-19         0.00000E+00
    0.39470E-07         0.65193E-20         0.00000E+00
    0.39241E-07        -0.12107E-19         0.00000E+00
    0.39005E-07         0.55879E-20         0.00000E+00
    0.38762E-07        -0.88476E-20         0.00000E+00
    0.38514E-07         0.41910E-20         0.00000E+00
    0.38261E-07         0.11642E-20         0.00000E+00
    0.38005E-07        -0.13970E-19         0.00000E+00
    0.37746E-07        -0.65193E-20         0.00000E+00
    0.37484E-07        -0.27940E-20         0.00000E+00
    0.37222E-07         0.11642E-19         0.00000E+00
    0.36959E-07        -0.37253E-20         0.00000E+00
    0.36697E-07        -0.13970E-20         0.00000E+00
    0.36435E-07        -0.23283E-21         0.00000E+00
    0.36176E-07        -0.10012E-19         0.00000E+00
    0.35919E-07         0.20256E-19         0.00000E+00
    0.35665E-07         0.26543E-19         0.00000E+00
    0.35416E-07         0.15832E-19         0.00000E+00
    0.35170E-07        -0.79162E-20         0.00000E+00
    0.34930E-07        -0.69849E-20         0.00000E+00
    0.34696E-07         0.51223E-20         0.00000E+00
    0.34467E-07        -0.90804E-20         0.00000E+00
    0.34245E-07        -0.16531E-19         0.00000E+00
    0.34031E-07        -0.33760E-19         0.00000E+00
    0.33823E-07        -0.10245E-19         0.00000E+00
    0.33624E-07        -0.95461E-20         0.00000E+00
    0.33433E-07        -0.12806E-19         0.00000E+00
    0.33251E-07        -0.27940E-20         0.00000E+00
    0.33077E-07         0.18626E-20         0.00000E+00
    0.32913E-07        -0.10477E-19         0.00000E+00
    0.32758E-07         0.11642E-20         0.00000E+00
    0.32613E-07         0.65193E-20         0.00000E+00
    0.32478E-07        -0.10012E-19         0.00000E+00
    0.32353E-07        -0.25844E-19         0.00000E+00
    0.32238E-07        -0.30035E-19         0.00000E+00
    0.32133E-07        -0.35390E-19         0.00000E+00
    0.32039E-07        -0.15134E-19         0.00000E+00
    0.31955E-07        -0.19092E-19         0.00000E+00
    0.31882E-07        -0.26077E-19         0.00000E+00
    0.31819E-07        -0.72177E-20         0.00000E+00
    0.31767E-07        -0.10943E-19         0.00000E+00
    0.31724E-07        -0.18626E-20         0.00000E+00
    0.31693E-07         0.72177E-20         0.00000E+00
    0.31671E-07        -0.32596E-20         0.00000E+00
    0.31659E-07        -0.72177E-20         0.00000E+00
    0.31658E-07        -0.28871E-19         0.00000E+00
    0.31666E-07        -0.16065E-19         0.00000E+00
    0.31683E-07         0.37253E-20         0.00000E+00
    0.31709E-07         0.13970E-20         0.00000E+00
    0.31745E-07        -0.32596E-20         0.00000E+00
    0.31789E-07        -0.90804E-20         0.00000E+00
    0.31842E-07         0.72177E-20         0.00000E+00
    0.31902E-07        -0.18626E-19         0.00000E+00
    0.31970E-07        -0.24680E-19         0.00000E+00
    0.32045E-07        -0.81491E-20         0.00000E+00
    0.32127E-07        -0.20489E-19         0.00000E+00
    0.32216E-07        -0.15367E-19         0.00000E+00
    0.32310E-07        -0.17928E-19         0.00000E+00
    0.32410E-07        -0.48894E-20         0.00000E+00
    0.32514E-07         0.93132E-20         0.00000E+00
    0.32623E-07        -0.20489E-19         0.00000E+00
    0.32735E-07        -0.16531E-19         0.00000E+00
    0.32851E-07        -0.21420E-19         0.00000E+00
    0.32969E-07        -0.15600E-19         0.00000E+00
    0.33089E-07        -0.23283E-20         0.00000E+00
    0.33210E-07        -0.30268E-20         0.00000E+00
    0.33332E-07         0.11642E-19         0.00000E+00
    0.33454E-07         0.10012E-19         0.00000E+00
    0.33576E-07         0.69849E-20         0.00000E+00
    0.33695E-07         0.76834E-20         0.00000E+00
    0.33813E-07         0.48894E-20         0.00000E+00
    0.33928E-07         0.39581E-20         0.00000E+00
    0.34040E-07         0.48894E-20         0.00000E+00
    0.34147E-07        -0.95461E-20         0.00000E+00
    0.34250E-07        -0.29104E-20         0.00000E+00
    0.34346E-07        -0.53551E-20         0.00000E+00
    0.34437E-07         0.12806E-20         0.00000E+00
    0.34521E-07         0.82655E-20         0.00000E+00
    0.34597E-07         0.69849E-20         0.00000E+00
    0.34666E-07        -0.80327E-20         0.00000E+00
    0.34725E-07        -0.17812E-19         0.00000E+00
    0.34776E-07        -0.15134E-20         0.00000E+00
    0.34817E-07        -0.44238E-20         0.00000E+00
    0.34848E-07         0.20955E-20         0.00000E+00
    0.34869E-07         0.16298E-20         0.00000E+00
    0.34880E-07        -0.23283E-21         0.00000E+00
    0.41429E-07         0.16764E-19         0.00000E+00
    0.41410E-07        -0.34925E-20         0.00000E+00
    0.41373E-07        -0.33062E-19         0.00000E+00
    0.41319E-07        -0.13737E-19         0.00000E+00
    0.41246E-07        -0.16298E-20         0.00000E+00
    0.41156E-07         0.20955E-19         0.00000E+00
    0.41050E-07         0.90804E-20         0.00000E+00
    0.40927E-07        -0.46566E-21         0.00000E+00
    0.40790E-07         0.33760E-19         0.00000E+00
    0.40638E-07         0.21420E-19         0.00000E+00
    0.40472E-07         0.79162E-20         0.00000E+00
    0.40294E-07         0.48894E-20         0.00000E+00
    0.40103E-07         0.11642E-20         0.00000E+00
    0.39902E-07        -0.30268E-20         0.00000E+00
    0.39691E-07        -0.17462E-19         0.00000E+00
    0.39470E-07        -0.15367E-19         0.00000E+00
    0.39241E-07        -0.21886E-19         0.00000E+00
    0.39005E-07        -0.19325E-19         0.00000E+00
    0.38762E-07        -0.22119E-19         0.00000E+00
    0.38514E-07        -0.81491E-20         0.00000E+00
    0.38261E-07        -0.18626E-20         0.00000E+00
    0.38005E-07        -0.16764E-19         0.00000E+00
    0.37746E-07        -0.83819E-20         0.00000E+00
    0.37484E-07         0.23283E-20         0.00000E+00
    0.37222E-07         0.16298E-20         0.00000E+00
    0.36959E-07         0.20955E-20         0.00000E+00
    0.36697E-07        -0.12107E-19         0.00000E+00
    0.36435E-07        -0.95461E-20         0.00000E+00
    0.36176E-07         0.15367E-19         0.00000E+00
    0.35919E-07        -0.58208E-20         0.00000E+00
    0.35665E-07        -0.12340E-19         0.00000E+00
    0.35416E-07        -0.55879E-20         0.00000E+00
    0.35170E-07        -0.97789E-20         0.00000E+00
    0.34930E-07        -0.11874E-19         0.00000E+00
    0.34696E-07         0.16298E-20         0.00000E+00
    0.34467E-07         0.58208E-20         0.00000E+00
    0.34245E-07        -0.16531E-19         0.00000E+00
    0.34031E-07        -0.16065E-19         0.00000E+00
    0.33823E-07        -0.13970E-20         0.00000E+00
    0.33624E-07         0.20955E-20         0.00000E+00
    0.33433E-07        -0.23283E-21         0.00000E+00
    0.33251E-07        -0.69849E-20         0.00000E+00
    0.33077E-07        -0.65193E-20         0.00000E+00
    0.32913E-07        -0.20955E-20         0.00000E+00
    0.32758E-07        -0.58208E-20         0.00000E+00
    0.32613E-07         0.55879E-20         0.00000E+00
    0.32478E-07         0.86147E-20         0.00000E+00
    0.32353E-07        -0.13970E-20         0.00000E+00
    0.32238E-07        -0.11642E-20         0.00000E+00
    0.32133E-07         0.48894E-20         0.00000E+00
    0.32039E-07        -0.93132E-21         0.00000E+00
    0.31955E-07         0.13970E-20         0.00000E+00
    0.31882E-07         0.83819E-20         0.00000E+00
    0.31819E-07        -0.13970E-19         0.00000E+00
    0.31767E-07        -0.48894E-20         0.00000E+00
    0.31724E-07         0.15134E-19         0.00000E+00
    0.31693E-07         0.72177E-20         0.00000E+00
    0.31671E-07         0.93132E-21         0.00000E+00
    0.31659E-07        -0.12806E-19         0.00000E+00
    0.31658E-07        -0.30268E-20         0.00000E+00
    0.31666E-07        -0.16065E-19         0.00000E+00
    0.31683E-07        -0.93132E-20         0.00000E+00
    0.31709E-07         0.10012E-19         0.00000E+00
    0.31745E-07        -0.16298E-20         0.00000E+00
    0.31789E-07        -0.62864E-20         0.00000E+00
    0.31842E-07         0.25611E-20         0.00000E+00
    0.31902E-07        -0.46566E-20         0.00000E+00
    0.31970E-07        -0.46566E-21         0.00000E+00
    0.32045E-07         0.83819E-20         0.00000E+00
    0.32127E-07         0.55879E-20         0.00000E+00
    0.32216E-07         0.20955E-20         0.00000E+00
    0.32310E-07         0.90804E-20         0.00000E+00
    0.32410E-07         0.76834E-20         0.00000E+00
    0.32514E-07        -0.37253E-20         0.00000E+00
    0.32623E-07        -0.55879E-20         0.00000E+00
    0.32735E-07        -0.15600E-19         0.00000E+00
    0.32851E-07        -0.13970E-20         0.00000E+00
    0.32969E-07         0.37616E-36         0.00000E+00
    0.33089E-07        -0.69849E-21         0.00000E+00
    0.33210E-07         0.93132E-21         0.00000E+00
    0.33332E-07         0.67521E-20         0.00000E+00
    0.33454E-07         0.93132E-21         0.00000E+00
    0.33576E-07        -0.20256E-19         0.00000E+00
    0.33695E-07        -0.83819E-20         0.00000E+00
    0.33813E-07        -0.60536E-20         0.00000E+00
    0.33928E-07        -0.16298E-20         0.00000E+00
    0.34040E-07         0.93132E-21         0.00000E+00
    0.34147E-07        -0.88476E-20         0.00000E+00
    0.34250E-07        -0.11874E-19         0.00000E+00
    0.34346E-07        -0.82655E-20         0.00000E+00
    0.34437E-07        -0.46566E-21         0.00000E+00
    0.34521E-07         0.47730E-20         0.00000E+00
    0.34597E-07        -0.69849E-20         0.00000E+00
    0.34666E-07        -0.16298E-20         0.00000E+00
    0.34725E-07         0.17462E-20         0.00000E+00
    0.34776E-07        -0.81491E-20         0.00000E+00
    0.34817E-07        -0.46566E-20         0.00000E+00
    0.34848E-07         0.17462E-20         0.00000E+00
    0.34869E-07         0.51223E-20         0.00000E+00
    0.34880E-07        -0.22119E-20         0.00000E+00
POINT_DATA       5151
VECTORS vDarcyNodal double 
    0.41429E-07         0.00000E+00         0.00000E+00
    0.41419E-07        -0.74506E-20         0.00000E+00
    0.41392E-07         0.74506E-20         0.00000E+00
    0.41346E-07        -0.74506E-20         0.00000E+00
    0.41282E-07         0.14901E-19         0.00000E+00
    0.41201E-07        -0.74506E-20         0.00000E+00
    0.41103E-07         0.74506E-20         0.00000E+00
    0.40989E-07         0.37253E-20         0.00000E+00
    0.40859E-07        -0.22352E-19         0.00000E+00
    0.40714E-07         0.18626E-20         0.00000E+00
    0.40555E-07         0.74506E-20         0.00000E+00
    0.40383E-07        -0.11176E-19         0.00000E+00
    0.40199E-07        -0.74506E-20         0.00000E+00
    0.40003E-07        -0.74506E-20         0.00000E+00
    0.39796E-07         0.93132E-20         0.00000E+00
    0.39580E-07         0.37253E-20         0.00000E+00
    0.39356E-07         0.00000E+00         0.00000E+00
    0.39123E-07        -0.18626E-19         0.00000E+00
    0.38884E-07        -0.18626E-20         0.00000E+00
    0.38638E-07         0.37253E-20         0.00000E+00
    0.38388E-07         0.11176E-19         0.00000E+00
    0.38133E-07        -0.11176E-19         0.00000E+00
    0.37875E-07        -0.37253E-20         0.00000E+00
    0.37615E-07        -0.31665E-19         0.00000E+00
    0.37353E-07         0.22352E-19         0.00000E+00
    0.37090E-07        -0.11176E-19         0.00000E+00
    0.36828E-07        -0.74506E-20         0.00000E+00
    0.36566E-07        -0.37253E-20         0.00000E+00
    0.36306E-07         0.18626E-20         0.00000E+00
    0.36047E-07        -0.93132E-20         0.00000E+00
    0.35792E-07        -0.74506E-20         0.00000E+00
    0.35540E-07         0.14901E-19         0.00000E+00
    0.35293E-07        -0.22352E-19         0.00000E+00
    0.35050E-07         0.18626E-19         0.00000E+00
    0.34813E-07         0.11176E-19         0.00000E+00
    0.34581E-07        -0.37253E-20         0.00000E+00
    0.34356E-07        -0.74506E-20         0.00000E+00
    0.34138E-07        -0.11176E-19         0.00000E+00
    0.33927E-07         0.00000E+00         0.00000E+00
    0.33724E-07        -0.74506E-20         0.00000E+00
    0.33528E-07         0.37253E-20         0.00000E+00
    0.33342E-07        -0.37253E-20         0.00000E+00
    0.33164E-07        -0.14901E-19         0.00000E+00
    0.32995E-07         0.14901E-19         0.00000E+00
    0.32836E-07        -0.74506E-20         0.00000E+00
    0.32686E-07        -0.37253E-20         0.00000E+00
    0.32546E-07         0.74506E-20         0.00000E+00
    0.32415E-07         0.37253E-20         0.00000E+00
    0.32295E-07        -0.18626E-19         0.00000E+00
    0.32186E-07        -0.18626E-20         0.00000E+00
    0.32086E-07         0.00000E+00         0.00000E+00
    0.31997E-07        -0.74506E-20         0.00000E+00
    0.31919E-07        -0.37253E-20         0.00000E+00
    0.31850E-07         0.74506E-20         0.00000E+00
    0.31793E-07        -0.93132E-20         0.00000E+00
    0.31746E-07         0.74506E-20         0.00000E+00
    0.31709E-07        -0.37253E-20         0.00000E+00
    0.31682E-07        -0.55879E-20         0.00000E+00
    0.31665E-07         0.14901E-19         0.00000E+00
    0.31658E-07         0.00000E+00         0.00000E+00
    0.31662E-07        -0.37253E-20         0.00000E+00
    0.31674E-07        -0.37253E-20         0.00000E+00
    0.31696E-07        -0.37253E-20         0.00000E+00
    0.31727E-07        -0.37253E-20         0.00000E+00
    0.31767E-07         0.00000E+00         0.00000E+00
    0.31815E-07        -0.37253E-20         0.00000E+00
    0.31872E-07         0.37253E-20         0.00000E+00
    0.31936E-07        -0.37253E-20         0.00000E+00
    0.32008E-07         0.74506E-20         0.00000E+00
    0.32086E-07         0.55879E-20         0.00000E+00
    0.32172E-07         0.00000E+00         0.00000E+00
    0.32263E-07        -0.18626E-19         0.00000E+00
    0.32360E-07        -0.37253E-20         0.00000E+00
    0.32462E-07        -0.55879E-20         0.00000E+00
    0.32568E-07        -0.37253E-20         0.00000E+00
    0.32679E-07        -0.37253E-20         0.00000E+00
    0.32793E-07         0.00000E+00         0.00000E+00
    0.32910E-07         0.74506E-20         0.00000E+00
    0.33029E-07        -0.74506E-20         0.00000E+00
    0.33150E-07         0.13039E-19         0.00000E+00
    0.33271E-07         0.37253E-20         0.00000E+00
    0.33393E-07         0.93132E-20         0.00000E+00
    0.33515E-07        -0.55879E-20         0.00000E+00
    0.33635E-07         0.55879E-20         0.00000E+00
    0.33754E-07         0.00000E+00         0.00000E+00
    0.33871E-07         0.37253E-20         0.00000E+00
    0.33984E-07        -0.74506E-20         0.00000E+00
    0.34093E-07         0.37253E-20         0.00000E+00
    0.34198E-07         0.37253E-20         0.00000E+00
    0.34298E-07         0.37253E-20         0.00000E+00
    0.34392E-07         0.14901E-19         0.00000E+00
    0.34479E-07        -0.18626E-20         0.00000E+00
    0.34559E-07         0.11176E-19         0.00000E+00
    0.34631E-07        -0.74506E-20         0.00000E+00
    0.34695E-07         0.37253E-20         0.00000E+00
    0.34751E-07        -0.11176E-19         0.00000E+00
    0.34796E-07         0.00000E+00         0.00000E+00
    0.34833E-07         0.55879E-20         0.00000E+00
    0.34859E-07        -0.11176E-19         0.00000E+00
    0.34874E-07        -0.37253E-20         0.00000E+00
    0.34880E-07         0.00000E+00         0.00000E+00
    0.41429E-07         0.00000E+00         0.00000E+00
    0.41419E-07         0.14901E-19         0.00000E+00
    0.41392E-07         0.37253E-20         0.00000E+00
    0.41346E-07        -0.55879E-20         0.00000E+00
    0.41282E-07         0.18626E-19         0.00000E+00
    0.41201E-07         0.00000E+00         0.00000E+00
    0.41103E-07         0.11176E-19         0.00000E+00
    0.40989E-07         0.17808E-19         0.00000E+00
    0.40859E-07        -0.11176E-19         0.00000E+00
    0.40714E-07        -0.21214E-20         0.00000E+00
    0.40555E-07         0.18626E-20         0.00000E+00
    0.40383E-07        -0.37253E-20         0.00000E+00
    0.40199E-07         0.18626E-20         0.00000E+00
    0.40003E-07        -0.14901E-19         0.00000E+00
    0.39796E-07         0.30485E-21         0.00000E+00
    0.39580E-07         0.11176E-19         0.00000E+00
    0.39356E-07        -0.13039E-19         0.00000E+00
    0.39123E-07        -0.83819E-20         0.00000E+00
    0.38884E-07        -0.12974E-19         0.00000E+00
    0.38638E-07         0.11176E-19         0.00000E+00
    0.38388E-07         0.93132E-20         0.00000E+00
    0.38133E-07         0.10245E-19         0.00000E+00
    0.37875E-07        -0.93132E-20         0.00000E+00
    0.37615E-07        -0.90019E-20         0.00000E+00
    0.37353E-07         0.13970E-19         0.00000E+00
    0.37090E-07        -0.55879E-20         0.00000E+00
    0.36828E-07        -0.14901E-19         0.00000E+00
    0.36566E-07         0.23016E-20         0.00000E+00
    0.36306E-07        -0.23159E-21         0.00000E+00
    0.36047E-07        -0.11203E-19         0.00000E+00
    0.35792E-07        -0.55879E-20         0.00000E+00
    0.35540E-07        -0.37253E-20         0.00000E+00
    0.35293E-07        -0.22352E-19         0.00000E+00
    0.35050E-07         0.11289E-19         0.00000E+00
    0.34813E-07        -0.55879E-20         0.00000E+00
    0.34581E-07        -0.37253E-20         0.00000E+00
    0.34356E-07        -0.12965E-19         0.00000E+00
    0.34138E-07        -0.65193E-20         0.00000E+00
    0.33927E-07         0.00000E+00         0.00000E+00
    0.33724E-07        -0.74506E-20         0.00000E+00
    0.33528E-07         0.93132E-20         0.00000E+00
    0.33342E-07        -0.15832E-19         0.00000E+00
    0.33164E-07        -0.74506E-20         0.00000E+00
    0.32995E-07        -0.55879E-20         0.00000E+00
    0.32836E-07        -0.37253E-20         0.00000E+00
    0.32686E-07        -0.11176E-19         0.00000E+00
    0.32546E-07         0.51392E-20         0.00000E+00
    0.32415E-07         0.53370E-20         0.00000E+00
    0.32295E-07        -0.16764E-19         0.00000E+00
    0.32186E-07        -0.57977E-20         0.00000E+00
    0.32086E-07        -0.18626E-20         0.00000E+00
    0.31997E-07        -0.16764E-19         0.00000E+00
    0.31919E-07        -0.55879E-20         0.00000E+00
    0.31850E-07        -0.37253E-20         0.00000E+00
    0.31793E-07        -0.38225E-20         0.00000E+00
    0.31746E-07         0.74506E-20         0.00000E+00
    0.31709E-07        -0.19876E-20         0.00000E+00
    0.31682E-07         0.12572E-20         0.00000E+00
    0.31665E-07         0.20177E-20         0.00000E+00
    0.31658E-07        -0.93132E-21         0.00000E+00
    0.31662E-07        -0.37253E-20         0.00000E+00
    0.31674E-07        -0.93132E-21         0.00000E+00
    0.31696E-07        -0.14901E-19         0.00000E+00
    0.31727E-07        -0.93132E-20         0.00000E+00
    0.31767E-07        -0.55879E-20         0.00000E+00
    0.31815E-07         0.18626E-20         0.00000E+00
    0.31872E-07        -0.58647E-20         0.00000E+00
    0.31936E-07         0.00000E+00         0.00000E+00
    0.32008E-07         0.93132E-20         0.00000E+00
    0.32086E-07        -0.54358E-20         0.00000E+00
    0.32172E-07         0.40491E-20         0.00000E+00
    0.32263E-07        -0.14901E-19         0.00000E+00
    0.32360E-07        -0.37253E-20         0.00000E+00
    0.32462E-07        -0.16882E-19         0.00000E+00
    0.32568E-07        -0.18626E-20         0.00000E+00
    0.32679E-07        -0.16764E-19         0.00000E+00
    0.32793E-07        -0.55879E-20         0.00000E+00
    0.32910E-07        -0.37253E-20         0.00000E+00
    0.33029E-07         0.37253E-20         0.00000E+00
    0.33150E-07        -0.54768E-20         0.00000E+00
    0.33271E-07        -0.18626E-20         0.00000E+00
    0.33393E-07         0.12202E-21         0.00000E+00
    0.33515E-07        -0.68549E-20         0.00000E+00
    0.33635E-07         0.35855E-20         0.00000E+00
    0.33754E-07         0.37253E-20         0.00000E+00
    0.33871E-07        -0.27940E-20         0.00000E+00
    0.33984E-07        -0.74506E-20         0.00000E+00
    0.34093E-07         0.37253E-20         0.00000E+00
    0.34198E-07         0.00000E+00         0.00000E+00
    0.34298E-07         0.55879E-20         0.00000E+00
    0.34392E-07         0.55879E-20         0.00000E+00
    0.34479E-07         0.40022E-20         0.00000E+00
    0.34559E-07        -0.35603E-20         0.00000E+00
    0.34631E-07         0.18626E-20         0.00000E+00
    0.34695E-07        -0.11409E-21         0.00000E+00
    0.34751E-07        -0.74506E-20         0.00000E+00
    0.34796E-07        -0.93132E-20         0.00000E+00
    0.34833E-07         0.14278E-20         0.00000E+00
    0.34859E-07        -0.55863E-20         0.00000E+00
    0.34874E-07         0.93132E-21         0.00000E+00
    0.34880E-07         0.00000E+00         0.00000E+00
    0.41429E-07         0.00000E+00         0.00000E+00
    0.41419E-07         0.37253E-20         0.00000E+00
    0.41392E-07         0.11176E-19         0.00000E+00
    0.41346E-07         0.10522E-19         0.00000E+00
    0.41282E-07         0.22352E-19         0.00000E+00
    0.41201E-07         0.14901E-19         0.00000E+00
    0.41103E-07         0.15347E-19         0.00000E+00
    0.40989E-07         0.17582E-19         0.00000E+00
    0.40859E-07         0.13039E-19         0.00000E+00
    0.40714E-07        -0.16505E-19         0.00000E+00
    0.40555E-07         0.93132E-21         0.00000E+00
    0.40383E-07         0.37253E-20         0.00000E+00
    0.40199E-07         0.11632E-19         0.00000E+00
    0.40003E-07        -0.37253E-20         0.00000E+00
    0.39796E-07        -0.14275E-19         0.00000E+00
    0.39580E-07        -0.97598E-20         0.00000E+00
    0.39356E-07        -0.55879E-20         0.00000E+00
    0.39123E-07        -0.11379E-19         0.00000E+00
    0.38884E-07        -0.18691E-19         0.00000E+00
    0.38638E-07         0.16764E-19         0.00000E+00
    0.38388E-07         0.14901E-19         0.00000E+00
    0.38133E-07         0.11758E-19         0.00000E+00
    0.37875E-07         0.18626E-20         0.00000E+00
    0.37615E-07         0.14590E-19         0.00000E+00
    0.37353E-07        -0.91360E-20         0.00000E+00
    0.37090E-07         0.55439E-20         0.00000E+00
    0.36828E-07        -0.13039E-19         0.00000E+00
    0.36566E-07        -0.11615E-19         0.00000E+00
    0.36306E-07        -0.69973E-21         0.00000E+00
    0.36047E-07        -0.12080E-19         0.00000E+00
    0.35792E-07        -0.95976E-20         0.00000E+00
    0.35540E-07        -0.24214E-19         0.00000E+00
    0.35293E-07        -0.74506E-20         0.00000E+00
    0.35050E-07        -0.38386E-20         0.00000E+00
    0.34813E-07        -0.21989E-19         0.00000E+00
    0.34581E-07         0.83819E-20         0.00000E+00
    0.34356E-07        -0.16837E-19         0.00000E+00
    0.34138E-07        -0.13210E-19         0.00000E+00
    0.33927E-07         0.37253E-20         0.00000E+00
    0.33724E-07        -0.74506E-20         0.00000E+00
    0.33528E-07         0.13039E-19         0.00000E+00
    0.33342E-07        -0.16559E-19         0.00000E+00
    0.33164E-07         0.51458E-20         0.00000E+00
    0.32995E-07        -0.13039E-19         0.00000E+00
    0.32836E-07         0.00000E+00         0.00000E+00
    0.32686E-07        -0.15832E-19         0.00000E+00
    0.32546E-07         0.15350E-19         0.00000E+00
    0.32415E-07        -0.16117E-20         0.00000E+00
    0.32295E-07        -0.55678E-20         0.00000E+00
    0.32186E-07        -0.11897E-19         0.00000E+00
    0.32086E-07        -0.88744E-20         0.00000E+00
    0.31997E-07        -0.12107E-19         0.00000E+00
    0.31919E-07        -0.55879E-20         0.00000E+00
    0.31850E-07        -0.55879E-20         0.00000E+00
    0.31793E-07        -0.26968E-20         0.00000E+00
    0.31746E-07         0.18626E-20         0.00000E+00
    0.31709E-07         0.57129E-20         0.00000E+00
    0.31682E-07         0.00000E+00         0.00000E+00
    0.31665E-07        -0.20644E-19         0.00000E+00
    0.31658E-07         0.90182E-20         0.00000E+00
    0.31662E-07        -0.93132E-20         0.00000E+00
    0.31674E-07         0.66783E-21         0.00000E+00
    0.31696E-07        -0.20489E-19         0.00000E+00
    0.31727E-07        -0.74506E-20         0.00000E+00
    0.31767E-07        -0.74506E-20         0.00000E+00
    0.31815E-07        -0.46566E-20         0.00000E+00
    0.31872E-07        -0.12762E-19         0.00000E+00
    0.31936E-07         0.18626E-20         0.00000E+00
    0.32008E-07        -0.40275E-20         0.00000E+00
    0.32086E-07        -0.14122E-19         0.00000E+00
    0.32172E-07         0.37253E-20         0.00000E+00
    0.32263E-07        -0.27940E-20         0.00000E+00
    0.32360E-07        -0.93132E-20         0.00000E+00
    0.32462E-07        -0.11989E-19         0.00000E+00
    0.32568E-07         0.40777E-20         0.00000E+00
    0.32679E-07        -0.13039E-19         0.00000E+00
    0.32793E-07        -0.93132E-20         0.00000E+00
    0.32910E-07        -0.11176E-19         0.00000E+00
    0.33029E-07         0.74506E-20         0.00000E+00
    0.33150E-07        -0.15944E-19         0.00000E+00
    0.33271E-07        -0.46566E-20         0.00000E+00
    0.33393E-07        -0.66413E-20         0.00000E+00
    0.33515E-07        -0.74506E-20         0.00000E+00
    0.33635E-07        -0.45168E-20         0.00000E+00
    0.33754E-07        -0.15482E-20         0.00000E+00
    0.33871E-07        -0.20271E-20         0.00000E+00
    0.33984E-07        -0.93132E-21         0.00000E+00
    0.34093E-07        -0.37253E-20         0.00000E+00
    0.34198E-07         0.18626E-20         0.00000E+00
    0.34298E-07         0.11176E-19         0.00000E+00
    0.34392E-07         0.18626E-20         0.00000E+00
    0.34479E-07         0.13693E-19         0.00000E+00
    0.34559E-07        -0.11341E-19         0.00000E+00
    0.34631E-07         0.49822E-20         0.00000E+00
    0.34695E-07        -0.17486E-20         0.00000E+00
    0.34751E-07         0.22412E-20         0.00000E+00
    0.34796E-07        -0.92539E-20         0.00000E+00
    0.34833E-07        -0.49644E-21         0.00000E+00
    0.34859E-07         0.18610E-20         0.00000E+00
    0.34874E-07         0.97510E-20         0.00000E+00
    0.34880E-07         0.00000E+00         0.00000E+00
    0.41429E-07         0.00000E+00         0.00000E+00
    0.41419E-07        -0.14901E-19         0.00000E+00
    0.41392E-07         0.13039E-19         0.00000E+00
    0.41346E-07         0.21143E-19         0.00000E+00
    0.41282E-07         0.14901E-19         0.00000E+00
    0.41201E-07         0.25595E-19         0.00000E+00
    0.41103E-07         0.14456E-19         0.00000E+00
    0.40989E-07         0.00000E+00         0.00000E+00
    0.40859E-07         0.17695E-19         0.00000E+00
    0.40714E-07        -0.15160E-19         0.00000E+00
    0.40555E-07         0.12625E-20         0.00000E+00
    0.40383E-07        -0.74506E-20         0.00000E+00
    0.40199E-07        -0.45605E-21         0.00000E+00
    0.40003E-07         0.13039E-19         0.00000E+00
    0.39796E-07        -0.13039E-19         0.00000E+00
    0.39580E-07        -0.27493E-19         0.00000E+00
    0.39356E-07         0.93132E-21         0.00000E+00
    0.39123E-07        -0.30530E-19         0.00000E+00
    0.38884E-07        -0.36612E-20         0.00000E+00
    0.38638E-07         0.55879E-20         0.00000E+00
    0.38388E-07         0.20701E-19         0.00000E+00
    0.38133E-07         0.27940E-20         0.00000E+00
    0.37875E-07         0.14901E-19         0.00000E+00
    0.37615E-07         0.13350E-19         0.00000E+00
    0.37353E-07        -0.17872E-19         0.00000E+00
    0.37090E-07         0.56320E-20         0.00000E+00
    0.36828E-07        -0.93132E-20         0.00000E+00
    0.36566E-07        -0.18626E-19         0.00000E+00
    0.36306E-07        -0.18626E-19         0.00000E+00
    0.36047E-07        -0.14901E-19         0.00000E+00
    0.35792E-07        -0.12754E-19         0.00000E+00
    0.35540E-07        -0.27940E-19         0.00000E+00
    0.35293E-07         0.27940E-20         0.00000E+00
    0.35050E-07        -0.18626E-20         0.00000E+00
    0.34813E-07        -0.11539E-19         0.00000E+00
    0.34581E-07         0.61993E-20         0.00000E+00
    0.34356E-07        -0.11102E-19         0.00000E+00
    0.34138E-07        -0.23112E-19         0.00000E+00
    0.33927E-07         0.93132E-20         0.00000E+00
    0.33724E-07        -0.37253E-20         0.00000E+00
    0.33528E-07         0.36909E-20         0.00000E+00
    0.33342E-07         0.91087E-20         0.00000E+00
    0.33164E-07         0.18626E-20         0.00000E+00
    0.32995E-07         0.25296E-21         0.00000E+00
    0.32836E-07        -0.55879E-20         0.00000E+00
    0.32686E-07        -0.63033E-20         0.00000E+00
    0.32546E-07         0.12590E-19         0.00000E+00
    0.32415E-07        -0.37253E-20         0.00000E+00
    0.32295E-07        -0.20133E-22         0.00000E+00
    0.32186E-07        -0.17695E-19         0.00000E+00
    0.32086E-07        -0.11615E-19         0.00000E+00
    0.31997E-07         0.21268E-20         0.00000E+00
    0.31919E-07        -0.74506E-20         0.00000E+00
    0.31850E-07         0.37253E-20         0.00000E+00
    0.31793E-07        -0.13039E-19         0.00000E+00
    0.31746E-07        -0.55879E-20         0.00000E+00
    0.31709E-07         0.55879E-20         0.00000E+00
    0.31682E-07        -0.10245E-19         0.00000E+00
    0.31665E-07        -0.20489E-19         0.00000E+00
    0.31658E-07         0.10540E-19         0.00000E+00
    0.31662E-07        -0.91268E-20         0.00000E+00
    0.31674E-07        -0.15832E-19         0.00000E+00
    0.31696E-07        -0.37253E-20         0.00000E+00
    0.31727E-07        -0.55879E-20         0.00000E+00
    0.31767E-07        -0.37253E-20         0.00000E+00
    0.31815E-07        -0.11904E-19         0.00000E+00
    0.31872E-07        -0.11176E-19         0.00000E+00
    0.31936E-07        -0.16869E-20         0.00000E+00
    0.32008E-07        -0.16462E-19         0.00000E+00
    0.32086E-07         0.93132E-21         0.00000E+00
    0.32172E-07         0.52641E-20         0.00000E+00
    0.32263E-07         0.35926E-20         0.00000E+00
    0.32360E-07        -0.14901E-19         0.00000E+00
    0.32462E-07        -0.37253E-20         0.00000E+00
    0.32568E-07         0.89608E-20         0.00000E+00
    0.32679E-07        -0.26843E-20         0.00000E+00
    0.32793E-07         0.22207E-20         0.00000E+00
    0.32910E-07        -0.13039E-19         0.00000E+00
    0.33029E-07         0.00000E+00         0.00000E+00
    0.33150E-07         0.37253E-20         0.00000E+00
    0.33271E-07        -0.50065E-20         0.00000E+00
    0.33393E-07        -0.37253E-20         0.00000E+00
    0.33515E-07         0.55879E-20         0.00000E+00
    0.33635E-07        -0.93132E-21         0.00000E+00
    0.33754E-07        -0.55879E-20         0.00000E+00
    0.33871E-07        -0.76688E-21         0.00000E+00
    0.33984E-07         0.68056E-20         0.00000E+00
    0.34093E-07        -0.11176E-19         0.00000E+00
    0.34198E-07         0.37253E-20         0.00000E+00
    0.34298E-07         0.14901E-19         0.00000E+00
    0.34392E-07        -0.21115E-21         0.00000E+00
    0.34479E-07         0.12384E-19         0.00000E+00
    0.34559E-07        -0.16976E-20         0.00000E+00
    0.34631E-07         0.80563E-20         0.00000E+00
    0.34695E-07         0.00000E+00         0.00000E+00
    0.34751E-07         0.74506E-20         0.00000E+00
    0.34796E-07         0.18033E-20         0.00000E+00
    0.34833E-07        -0.22975E-20         0.00000E+00
    0.34859E-07         0.14901E-19         0.00000E+00
    0.34874E-07         0.60815E-20         0.00000E+00
    0.34880E-07         0.00000E+00         0.00000E+00
    0.41429E-07         0.00000E+00         0.00000E+00
    0.41419E-07         0.71422E-20         0.00000E+00
    0.41392E-07         0.30902E-20         0.00000E+00
    0.41346E-07         0.18626E-19         0.00000E+00
    0.41282E-07         0.79696E-20         0.00000E+00
    0.41201E-07         0.15383E-19         0.00000E+00
    0.41103E-07         0.26077E-19         0.00000E+00
    0.40989E-07         0.55879E-20         0.00000E+00
    0.40859E-07         0.22166E-19         0.00000E+00
    0.40714E-07        -0.34666E-20         0.00000E+00
    0.40555E-07         0.33941E-20         0.00000E+00
    0.40383E-07        -0.93132E-20         0.00000E+00
    0.40199E-07        -0.14901E-19         0.00000E+00
    0.40003E-07         0.93132E-20         0.00000E+00
    0.39796E-07        -0.27940E-20         0.00000E+00
    0.39580E-07        -0.11176E-19         0.00000E+00
    0.39356E-07        -0.52442E-20         0.00000E+00
    0.39123E-07        -0.31665E-19         0.00000E+00
    0.38884E-07         0.17631E-19         0.00000E+00
    0.38638E-07        -0.93132E-21         0.00000E+00
    0.38388E-07        -0.76628E-20         0.00000E+00
    0.38133E-07         0.11525E-19         0.00000E+00
    0.37875E-07        -0.46566E-20         0.00000E+00
    0.37615E-07         0.15513E-20         0.00000E+00
    0.37353E-07        -0.55879E-20         0.00000E+00
    0.37090E-07        -0.18186E-20         0.00000E+00
    0.36828E-07        -0.13039E-19         0.00000E+00
    0.36566E-07        -0.93132E-20         0.00000E+00
    0.36306E-07        -0.30734E-19         0.00000E+00
    0.36047E-07        -0.10272E-19         0.00000E+00
    0.35792E-07        -0.11176E-19         0.00000E+00
    0.35540E-07        -0.22352E-19         0.00000E+00
    0.35293E-07         0.13834E-21         0.00000E+00
    0.35050E-07         0.18626E-20         0.00000E+00
    0.34813E-07         0.37253E-20         0.00000E+00
    0.34581E-07        -0.93132E-21         0.00000E+00
    0.34356E-07        -0.73404E-22         0.00000E+00
    0.34138E-07        -0.10245E-19         0.00000E+00
    0.33927E-07        -0.11176E-19         0.00000E+00
    0.33724E-07         0.14901E-19         0.00000E+00
    0.33528E-07         0.55879E-20         0.00000E+00
    0.33342E-07         0.95178E-20         0.00000E+00
    0.33164E-07        -0.14205E-20         0.00000E+00
    0.32995E-07        -0.25296E-21         0.00000E+00
    0.32836E-07        -0.13039E-19         0.00000E+00
    0.32686E-07        -0.55879E-20         0.00000E+00
    0.32546E-07         0.78993E-20         0.00000E+00
    0.32415E-07         0.55879E-20         0.00000E+00
    0.32295E-07        -0.74506E-20         0.00000E+00
    0.32186E-07        -0.10454E-19         0.00000E+00
    0.32086E-07         0.00000E+00         0.00000E+00
    0.31997E-07        -0.58521E-20         0.00000E+00
    0.31919E-07        -0.37253E-20         0.00000E+00
    0.31850E-07         0.74506E-20         0.00000E+00
    0.31793E-07        -0.19558E-19         0.00000E+00
    0.31746E-07         0.27940E-20         0.00000E+00
    0.31709E-07        -0.46566E-20         0.00000E+00
    0.31682E-07        -0.15227E-19         0.00000E+00
    0.31665E-07        -0.14746E-19         0.00000E+00
    0.31658E-07        -0.74506E-20         0.00000E+00
    0.31662E-07        -0.94996E-20         0.00000E+00
    0.31674E-07        -0.17432E-19         0.00000E+00
    0.31696E-07         0.21784E-21         0.00000E+00
    0.31727E-07        -0.93132E-20         0.00000E+00
    0.31767E-07        -0.55879E-20         0.00000E+00
    0.31815E-07        -0.11176E-19         0.00000E+00
    0.31872E-07        -0.74506E-20         0.00000E+00
    0.31936E-07        -0.14901E-19         0.00000E+00
    0.32008E-07        -0.37253E-20         0.00000E+00
    0.32086E-07         0.14122E-19         0.00000E+00
    0.32172E-07        -0.18626E-20         0.00000E+00
    0.32263E-07         0.10377E-19         0.00000E+00
    0.32360E-07        -0.55879E-20         0.00000E+00
    0.32462E-07        -0.74506E-20         0.00000E+00
    0.32568E-07         0.78030E-20         0.00000E+00
    0.32679E-07        -0.75603E-20         0.00000E+00
    0.32793E-07         0.52299E-20         0.00000E+00
    0.32910E-07        -0.74506E-20         0.00000E+00
    0.33029E-07        -0.83819E-20         0.00000E+00
    0.33150E-07         0.82707E-20         0.00000E+00
    0.33271E-07        -0.18626E-20         0.00000E+00
    0.33393E-07        -0.65193E-20         0.00000E+00
    0.33515E-07         0.18626E-19         0.00000E+00
    0.33635E-07         0.17229E-20         0.00000E+00
    0.33754E-07         0.00000E+00         0.00000E+00
    0.33871E-07         0.00000E+00         0.00000E+00
    0.33984E-07        -0.28636E-21         0.00000E+00
    0.34093E-07        -0.55879E-20         0.00000E+00
    0.34198E-07         0.55879E-20         0.00000E+00
    0.34298E-07         0.93132E-21         0.00000E+00
    0.34392E-07         0.27940E-20         0.00000E+00
    0.34479E-07        -0.27694E-21         0.00000E+00
    0.34559E-07         0.72856E-20         0.00000E+00
    0.34631E-07         0.13039E-19         0.00000E+00
    0.34695E-07         0.93132E-20         0.00000E+00
    0.34751E-07         0.14901E-19         0.00000E+00
    0.34796E-07         0.37253E-20         0.00000E+00
    0.34833E-07        -0.49644E-21         0.00000E+00
    0.34859E-07         0.93149E-20         0.00000E+00
    0.34874E-07         0.74506E-20         0.00000E+00
    0.34880E-07         0.00000E+00         0.00000E+00
    0.41429E-07         0.00000E+00         0.00000E+00
    0.41419E-07         0.15209E-19         0.00000E+00
    0.41392E-07         0.11811E-19         0.00000E+00
    0.41346E-07         0.13039E-19         0.00000E+00
    0.41282E-07         0.14382E-19         0.00000E+00
    0.41201E-07         0.14901E-19         0.00000E+00
    0.41103E-07         0.29802E-19         0.00000E+00
    0.40989E-07         0.23396E-19         0.00000E+00
    0.40859E-07         0.45821E-19         0.00000E+00
    0.40714E-07         0.18368E-19         0.00000E+00
    0.40555E-07        -0.74506E-20         0.00000E+00
    0.40383E-07         0.22880E-19         0.00000E+00
    0.40199E-07        -0.93132E-20         0.00000E+00
    0.40003E-07        -0.55879E-20         0.00000E+00
    0.39796E-07         0.12362E-20         0.00000E+00
    0.39580E-07         0.12107E-19         0.00000E+00
    0.39356E-07        -0.22063E-20         0.00000E+00
    0.39123E-07        -0.11176E-19         0.00000E+00
    0.38884E-07         0.11240E-19         0.00000E+00
    0.38638E-07        -0.74507E-22         0.00000E+00
    0.38388E-07        -0.13039E-19         0.00000E+00
    0.38133E-07         0.11758E-19         0.00000E+00
    0.37875E-07        -0.88669E-20         0.00000E+00
    0.37615E-07        -0.43453E-20         0.00000E+00
    0.37353E-07         0.27940E-20         0.00000E+00
    0.37090E-07        -0.44051E-22         0.00000E+00
    0.36828E-07        -0.74506E-20         0.00000E+00
    0.36566E-07        -0.37253E-20         0.00000E+00
    0.36306E-07        -0.86135E-20         0.00000E+00
    0.36047E-07        -0.10217E-19         0.00000E+00
    0.35792E-07        -0.20489E-19         0.00000E+00
    0.35540E-07        -0.46566E-20         0.00000E+00
    0.35293E-07        -0.75889E-20         0.00000E+00
    0.35050E-07        -0.18626E-20         0.00000E+00
    0.34813E-07         0.13039E-19         0.00000E+00
    0.34581E-07         0.12513E-20         0.00000E+00
    0.34356E-07         0.75240E-20         0.00000E+00
    0.34138E-07         0.54164E-20         0.00000E+00
    0.33927E-07        -0.97281E-20         0.00000E+00
    0.33724E-07         0.11176E-19         0.00000E+00
    0.33528E-07         0.16798E-19         0.00000E+00
    0.33342E-07        -0.39298E-20         0.00000E+00
    0.33164E-07        -0.60300E-20         0.00000E+00
    0.32995E-07        -0.18626E-20         0.00000E+00
    0.32836E-07        -0.92953E-20         0.00000E+00
    0.32686E-07        -0.43186E-21         0.00000E+00
    0.32546E-07         0.11176E-19         0.00000E+00
    0.32415E-07         0.11176E-19         0.00000E+00
    0.32295E-07        -0.55678E-20         0.00000E+00
    0.32186E-07        -0.27940E-20         0.00000E+00
    0.32086E-07         0.32865E-20         0.00000E+00
    0.31997E-07         0.21268E-20         0.00000E+00
    0.31919E-07         0.37253E-20         0.00000E+00
    0.31850E-07         0.11176E-19         0.00000E+00
    0.31793E-07        -0.11273E-19         0.00000E+00
    0.31746E-07         0.78055E-20         0.00000E+00
    0.31709E-07        -0.29189E-20         0.00000E+00
    0.31682E-07        -0.12713E-19         0.00000E+00
    0.31665E-07        -0.57430E-20         0.00000E+00
    0.31658E-07        -0.11176E-19         0.00000E+00
    0.31662E-07        -0.16764E-19         0.00000E+00
    0.31674E-07        -0.65193E-20         0.00000E+00
    0.31696E-07        -0.76684E-20         0.00000E+00
    0.31727E-07        -0.74506E-20         0.00000E+00
    0.31767E-07        -0.76989E-20         0.00000E+00
    0.31815E-07        -0.14901E-19         0.00000E+00
    0.31872E-07         0.65458E-21         0.00000E+00
    0.31936E-07        -0.37253E-20         0.00000E+00
    0.32008E-07         0.34231E-20         0.00000E+00
    0.32086E-07         0.18626E-19         0.00000E+00
    0.32172E-07        -0.37253E-20         0.00000E+00
    0.32263E-07         0.74506E-20         0.00000E+00
    0.32360E-07         0.83819E-20         0.00000E+00
    0.32462E-07         0.37253E-20         0.00000E+00
    0.32568E-07         0.15103E-20         0.00000E+00
    0.32679E-07         0.13039E-19         0.00000E+00
    0.32793E-07         0.18626E-20         0.00000E+00
    0.32910E-07         0.74506E-20         0.00000E+00
    0.33029E-07        -0.35734E-21         0.00000E+00
    0.33150E-07         0.67416E-20         0.00000E+00
    0.33271E-07         0.12107E-19         0.00000E+00
    0.33393E-07         0.19847E-20         0.00000E+00
    0.33515E-07         0.10245E-19         0.00000E+00
    0.33635E-07         0.14110E-19         0.00000E+00
    0.33754E-07         0.89988E-20         0.00000E+00
    0.33871E-07         0.15832E-19         0.00000E+00
    0.33984E-07        -0.93132E-20         0.00000E+00
    0.34093E-07         0.11176E-19         0.00000E+00
    0.34198E-07         0.11428E-19         0.00000E+00
    0.34298E-07        -0.86154E-20         0.00000E+00
    0.34392E-07         0.14392E-19         0.00000E+00
    0.34479E-07        -0.77275E-20         0.00000E+00
    0.34559E-07         0.13039E-19         0.00000E+00
    0.34631E-07         0.37253E-20         0.00000E+00
    0.34695E-07         0.18626E-19         0.00000E+00
    0.34751E-07         0.18248E-19         0.00000E+00
    0.34796E-07         0.11235E-19         0.00000E+00
    0.34833E-07         0.12604E-19         0.00000E+00
    0.34859E-07        -0.55879E-20         0.00000E+00
    0.34874E-07         0.11614E-19         0.00000E+00
    0.34880E-07         0.00000E+00         0.00000E+00
    0.41429E-07         0.00000E+00         0.00000E+00
    0.41419E-07         0.40336E-20         0.00000E+00
    0.41392E-07         0.22987E-19         0.00000E+00
    0.41346E-07         0.16110E-19         0.00000E+00
    0.41282E-07         0.18107E-19         0.00000E+00
    0.41201E-07         0.26077E-19         0.00000E+00
    0.41103E-07         0.19072E-19         0.00000E+00
    0.40989E-07         0.35390E-19         0.00000E+00
    0.40859E-07         0.48615E-19         0.00000E+00
    0.40714E-07         0.28198E-19         0.00000E+00
    0.40555E-07        -0.14901E-19         0.00000E+00
    0.40383E-07         0.39922E-19         0.00000E+00
    0.40199E-07         0.13874E-20         0.00000E+00
    0.40003E-07         0.16764E-19         0.00000E+00
    0.39796E-07        -0.10245E-19         0.00000E+00
    0.39580E-07         0.24699E-19         0.00000E+00
    0.39356E-07        -0.96569E-20         0.00000E+00
    0.39123E-07        -0.13039E-19         0.00000E+00
    0.38884E-07        -0.65833E-20         0.00000E+00
    0.38638E-07        -0.12033E-19         0.00000E+00
    0.38388E-07         0.74506E-20         0.00000E+00
    0.38133E-07         0.22352E-19         0.00000E+00
    0.37875E-07        -0.89268E-21         0.00000E+00
    0.37615E-07        -0.62106E-20         0.00000E+00
    0.37353E-07         0.57652E-20         0.00000E+00
    0.37090E-07         0.37253E-20         0.00000E+00
    0.36828E-07        -0.18626E-20         0.00000E+00
    0.36566E-07         0.93132E-20         0.00000E+00
    0.36306E-07         0.10245E-19         0.00000E+00
    0.36047E-07        -0.14901E-19         0.00000E+00
    0.35792E-07        -0.24499E-19         0.00000E+00
    0.35540E-07         0.22544E-20         0.00000E+00
    0.35293E-07        -0.29323E-20         0.00000E+00
    0.35050E-07         0.18626E-20         0.00000E+00
    0.34813E-07         0.11176E-19         0.00000E+00
    0.34581E-07         0.15832E-19         0.00000E+00
    0.34356E-07         0.55145E-20         0.00000E+00
    0.34138E-07         0.17867E-19         0.00000E+00
    0.33927E-07         0.22775E-20         0.00000E+00
    0.33724E-07         0.00000E+00         0.00000E+00
    0.33528E-07         0.24214E-19         0.00000E+00
    0.33342E-07         0.48612E-20         0.00000E+00
    0.33164E-07        -0.14205E-20         0.00000E+00
    0.32995E-07         0.00000E+00         0.00000E+00
    0.32836E-07         0.37074E-20         0.00000E+00
    0.32686E-07         0.13970E-19         0.00000E+00
    0.32546E-07         0.13487E-19         0.00000E+00
    0.32415E-07         0.34744E-20         0.00000E+00
    0.32295E-07        -0.37253E-20         0.00000E+00
    0.32186E-07        -0.11897E-19         0.00000E+00
    0.32086E-07         0.11615E-19         0.00000E+00
    0.31997E-07         0.81177E-20         0.00000E+00
    0.31919E-07         0.55879E-20         0.00000E+00
    0.31850E-07         0.93132E-20         0.00000E+00
    0.31793E-07         0.10342E-19         0.00000E+00
    0.31746E-07         0.61643E-20         0.00000E+00
    0.31709E-07        -0.26690E-20         0.00000E+00
    0.31682E-07        -0.32590E-21         0.00000E+00
    0.31665E-07         0.55879E-20         0.00000E+00
    0.31658E-07        -0.37253E-20         0.00000E+00
    0.31662E-07        -0.13039E-19         0.00000E+00
    0.31674E-07         0.66783E-21         0.00000E+00
    0.31696E-07        -0.20489E-19         0.00000E+00
    0.31727E-07        -0.37253E-20         0.00000E+00
    0.31767E-07        -0.53396E-20         0.00000E+00
    0.31815E-07        -0.10245E-19         0.00000E+00
    0.31872E-07        -0.65458E-21         0.00000E+00
    0.31936E-07         0.82062E-20         0.00000E+00
    0.32008E-07         0.13039E-19         0.00000E+00
    0.32086E-07         0.83819E-20         0.00000E+00
    0.32172E-07         0.55879E-20         0.00000E+00
    0.32263E-07        -0.37253E-20         0.00000E+00
    0.32360E-07         0.87227E-20         0.00000E+00
    0.32462E-07         0.93132E-20         0.00000E+00
    0.32568E-07         0.18626E-20         0.00000E+00
    0.32679E-07         0.25146E-19         0.00000E+00
    0.32793E-07         0.37253E-20         0.00000E+00
    0.32910E-07         0.10245E-19         0.00000E+00
    0.33029E-07         0.14327E-19         0.00000E+00
    0.33150E-07         0.83819E-20         0.00000E+00
    0.33271E-07         0.16182E-19         0.00000E+00
    0.33393E-07         0.36033E-20         0.00000E+00
    0.33515E-07        -0.15270E-20         0.00000E+00
    0.33635E-07         0.30734E-19         0.00000E+00
    0.33754E-07         0.21420E-19         0.00000E+00
    0.33871E-07         0.19393E-19         0.00000E+00
    0.33984E-07        -0.74506E-20         0.00000E+00
    0.34093E-07         0.13039E-19         0.00000E+00
    0.34198E-07         0.90614E-20         0.00000E+00
    0.34298E-07         0.32609E-20         0.00000E+00
    0.34392E-07         0.14901E-19         0.00000E+00
    0.34479E-07         0.30709E-20         0.00000E+00
    0.34559E-07         0.54229E-20         0.00000E+00
    0.34631E-07         0.74506E-20         0.00000E+00
    0.34695E-07         0.14787E-19         0.00000E+00
    0.34751E-07         0.20868E-19         0.00000E+00
    0.34796E-07         0.14901E-19         0.00000E+00
    0.34833E-07         0.88168E-20         0.00000E+00
    0.34859E-07         0.11174E-19         0.00000E+00
    0.34874E-07         0.27940E-20         0.00000E+00
    0.34880E-07         0.00000E+00         0.00000E+00
    0.41429E-07         0.00000E+00         0.00000E+00
    0.41419E-07         0.22043E-19         0.00000E+00
    0.41392E-07         0.19854E-19         0.00000E+00
    0.41346E-07         0.28593E-19         0.00000E+00
    0.41282E-07         0.19145E-19         0.00000E+00
    0.41201E-07         0.29802E-19         0.00000E+00
    0.41103E-07         0.70049E-20         0.00000E+00
    0.40989E-07         0.51110E-19         0.00000E+00
    0.40859E-07         0.18440E-19         0.00000E+00
    0.40714E-07         0.13711E-19         0.00000E+00
    0.40555E-07         0.37253E-20         0.00000E+00
    0.40383E-07         0.25146E-19         0.00000E+00
    0.40199E-07         0.10720E-19         0.00000E+00
    0.40003E-07         0.24214E-19         0.00000E+00
    0.39796E-07        -0.14275E-19         0.00000E+00
    0.39580E-07        -0.18626E-20         0.00000E+00
    0.39356E-07         0.31377E-20         0.00000E+00
    0.39123E-07        -0.37253E-20         0.00000E+00
    0.38884E-07        -0.10180E-19         0.00000E+00
    0.38638E-07        -0.11176E-19         0.00000E+00
    0.38388E-07         0.74506E-20         0.00000E+00
    0.38133E-07         0.30734E-19         0.00000E+00
    0.37875E-07        -0.83819E-20         0.00000E+00
    0.37615E-07         0.40366E-20         0.00000E+00
    0.37353E-07         0.10999E-19         0.00000E+00
    0.37090E-07         0.14901E-19         0.00000E+00
    0.36828E-07         0.18626E-20         0.00000E+00
    0.36566E-07         0.93132E-20         0.00000E+00
    0.36306E-07         0.48882E-20         0.00000E+00
    0.36047E-07        -0.13066E-19         0.00000E+00
    0.35792E-07        -0.20489E-19         0.00000E+00
    0.35540E-07        -0.35775E-20         0.00000E+00
    0.35293E-07         0.13177E-19         0.00000E+00
    0.35050E-07         0.19759E-20         0.00000E+00
    0.34813E-07         0.00000E+00         0.00000E+00
    0.34581E-07         0.13650E-19         0.00000E+00
    0.34356E-07         0.13112E-19         0.00000E+00
    0.34138E-07         0.74506E-20         0.00000E+00
    0.33927E-07        -0.55879E-20         0.00000E+00
    0.33724E-07         0.74506E-20         0.00000E+00
    0.33528E-07         0.11176E-19         0.00000E+00
    0.33342E-07         0.12834E-19         0.00000E+00
    0.33164E-07         0.00000E+00         0.00000E+00
    0.32995E-07         0.18626E-20         0.00000E+00
    0.32836E-07         0.55879E-20         0.00000E+00
    0.32686E-07         0.10460E-19         0.00000E+00
    0.32546E-07         0.32766E-20         0.00000E+00
    0.32415E-07        -0.18626E-20         0.00000E+00
    0.32295E-07        -0.20133E-22         0.00000E+00
    0.32186E-07        -0.93132E-20         0.00000E+00
    0.32086E-07         0.18626E-19         0.00000E+00
    0.31997E-07         0.00000E+00         0.00000E+00
    0.31919E-07         0.18626E-20         0.00000E+00
    0.31850E-07         0.18626E-20         0.00000E+00
    0.31793E-07         0.18626E-19         0.00000E+00
    0.31746E-07         0.37253E-20         0.00000E+00
    0.31709E-07        -0.38502E-20         0.00000E+00
    0.31682E-07        -0.60542E-21         0.00000E+00
    0.31665E-07        -0.37253E-20         0.00000E+00
    0.31658E-07        -0.65193E-20         0.00000E+00
    0.31662E-07        -0.11176E-19         0.00000E+00
    0.31674E-07         0.27940E-20         0.00000E+00
    0.31696E-07        -0.21638E-19         0.00000E+00
    0.31727E-07         0.10245E-19         0.00000E+00
    0.31767E-07        -0.18626E-20         0.00000E+00
    0.31815E-07        -0.57908E-20         0.00000E+00
    0.31872E-07        -0.37253E-20         0.00000E+00
    0.31936E-07         0.39010E-20         0.00000E+00
    0.32008E-07         0.49588E-20         0.00000E+00
    0.32086E-07        -0.15211E-21         0.00000E+00
    0.32172E-07         0.49804E-20         0.00000E+00
    0.32263E-07         0.93132E-20         0.00000E+00
    0.32360E-07         0.80411E-20         0.00000E+00
    0.32462E-07         0.16764E-19         0.00000E+00
    0.32568E-07         0.11176E-19         0.00000E+00
    0.32679E-07         0.20379E-19         0.00000E+00
    0.32793E-07         0.93132E-20         0.00000E+00
    0.32910E-07         0.11283E-19         0.00000E+00
    0.33029E-07         0.15832E-19         0.00000E+00
    0.33150E-07         0.10133E-19         0.00000E+00
    0.33271E-07         0.93132E-20         0.00000E+00
    0.33393E-07        -0.73286E-20         0.00000E+00
    0.33515E-07         0.71150E-20         0.00000E+00
    0.33635E-07         0.26869E-19         0.00000E+00
    0.33754E-07         0.32911E-19         0.00000E+00
    0.33871E-07         0.23283E-19         0.00000E+00
    0.33984E-07         0.18626E-20         0.00000E+00
    0.34093E-07         0.12107E-19         0.00000E+00
    0.34198E-07         0.13039E-19         0.00000E+00
    0.34298E-07         0.65193E-20         0.00000E+00
    0.34392E-07         0.18415E-19         0.00000E+00
    0.34479E-07         0.55879E-20         0.00000E+00
    0.34559E-07         0.15066E-19         0.00000E+00
    0.34631E-07         0.15227E-19         0.00000E+00
    0.34695E-07         0.11176E-19         0.00000E+00
    0.34751E-07         0.23836E-19         0.00000E+00
    0.34796E-07         0.17636E-19         0.00000E+00
    0.34833E-07         0.98097E-20         0.00000E+00
    0.34859E-07         0.13039E-19         0.00000E+00
    0.34874E-07        -0.18068E-20         0.00000E+00
    0.34880E-07         0.00000E+00         0.00000E+00
    0.41429E-07         0.00000E+00         0.00000E+00
    0.41419E-07         0.37253E-19         0.00000E+00
    0.41392E-07         0.33528E-19         0.00000E+00
    0.41346E-07         0.40325E-19         0.00000E+00
    0.41282E-07         0.22352E-19         0.00000E+00
    0.41201E-07         0.52154E-19         0.00000E+00
    0.41103E-07         0.19072E-19         0.00000E+00
    0.40989E-07         0.29802E-19         0.00000E+00
    0.40859E-07         0.37253E-20         0.00000E+00
    0.40714E-07         0.93132E-20         0.00000E+00
    0.40555E-07         0.13039E-19         0.00000E+00
    0.40383E-07        -0.13347E-20         0.00000E+00
    0.40199E-07         0.19083E-19         0.00000E+00
    0.40003E-07        -0.14901E-19         0.00000E+00
    0.39796E-07         0.37253E-20         0.00000E+00
    0.39580E-07        -0.28871E-19         0.00000E+00
    0.39356E-07        -0.18626E-20         0.00000E+00
    0.39123E-07         0.18626E-20         0.00000E+00
    0.38884E-07        -0.11176E-19         0.00000E+00
    0.38638E-07        -0.74506E-20         0.00000E+00
    0.38388E-07         0.11176E-19         0.00000E+00
    0.38133E-07         0.68683E-20         0.00000E+00
    0.37875E-07        -0.23476E-20         0.00000E+00
    0.37615E-07         0.17384E-19         0.00000E+00
    0.37353E-07         0.11353E-19         0.00000E+00
    0.37090E-07         0.18626E-19         0.00000E+00
    0.36828E-07        -0.18626E-20         0.00000E+00
    0.36566E-07         0.41643E-20         0.00000E+00
    0.36306E-07         0.93132E-20         0.00000E+00
    0.36047E-07        -0.93132E-20         0.00000E+00
    0.35792E-07        -0.11176E-19         0.00000E+00
    0.35540E-07        -0.33335E-20         0.00000E+00
    0.35293E-07         0.16764E-19         0.00000E+00
    0.35050E-07        -0.18626E-20         0.00000E+00
    0.34813E-07        -0.18626E-20         0.00000E+00
    0.34581E-07         0.11176E-19         0.00000E+00
    0.34356E-07         0.24214E-19         0.00000E+00
    0.34138E-07        -0.18626E-20         0.00000E+00
    0.33927E-07         0.11176E-19         0.00000E+00
    0.33724E-07         0.27940E-20         0.00000E+00
    0.33528E-07        -0.37253E-20         0.00000E+00
    0.33342E-07         0.18831E-19         0.00000E+00
    0.33164E-07         0.37253E-20         0.00000E+00
    0.32995E-07         0.65193E-20         0.00000E+00
    0.32836E-07        -0.16746E-19         0.00000E+00
    0.32686E-07         0.00000E+00         0.00000E+00
    0.32546E-07        -0.88645E-20         0.00000E+00
    0.32415E-07        -0.62684E-20         0.00000E+00
    0.32295E-07         0.11196E-19         0.00000E+00
    0.32186E-07         0.74506E-20         0.00000E+00
    0.32086E-07         0.16764E-19         0.00000E+00
    0.31997E-07         0.46566E-20         0.00000E+00
    0.31919E-07         0.55879E-20         0.00000E+00
    0.31850E-07         0.37253E-20         0.00000E+00
    0.31793E-07         0.18626E-19         0.00000E+00
    0.31746E-07        -0.18626E-20         0.00000E+00
    0.31709E-07         0.12232E-19         0.00000E+00
    0.31682E-07        -0.93132E-21         0.00000E+00
    0.31665E-07        -0.65193E-20         0.00000E+00
    0.31658E-07         0.15676E-20         0.00000E+00
    0.31662E-07        -0.11176E-19         0.00000E+00
    0.31674E-07         0.11948E-20         0.00000E+00
    0.31696E-07        -0.11889E-19         0.00000E+00
    0.31727E-07         0.95456E-20         0.00000E+00
    0.31767E-07        -0.34770E-20         0.00000E+00
    0.31815E-07        -0.48594E-20         0.00000E+00
    0.31872E-07        -0.55879E-20         0.00000E+00
    0.31936E-07         0.19382E-19         0.00000E+00
    0.32008E-07        -0.12335E-20         0.00000E+00
    0.32086E-07         0.13191E-19         0.00000E+00
    0.32172E-07         0.11783E-19         0.00000E+00
    0.32263E-07         0.20489E-19         0.00000E+00
    0.32360E-07         0.18036E-19         0.00000E+00
    0.32462E-07         0.18626E-19         0.00000E+00
    0.32568E-07         0.14901E-19         0.00000E+00
    0.32679E-07         0.21530E-19         0.00000E+00
    0.32793E-07         0.10245E-19         0.00000E+00
    0.32910E-07         0.17588E-19         0.00000E+00
    0.33029E-07         0.19200E-19         0.00000E+00
    0.33150E-07         0.93132E-20         0.00000E+00
    0.33271E-07         0.14901E-19         0.00000E+00
    0.33393E-07         0.63972E-20         0.00000E+00
    0.33515E-07         0.23619E-19         0.00000E+00
    0.33635E-07         0.21420E-19         0.00000E+00
    0.33754E-07         0.33213E-19         0.00000E+00
    0.33871E-07         0.29035E-19         0.00000E+00
    0.33984E-07         0.17695E-19         0.00000E+00
    0.34093E-07         0.14705E-19         0.00000E+00
    0.34198E-07         0.16084E-19         0.00000E+00
    0.34298E-07         0.10011E-19         0.00000E+00
    0.34392E-07         0.20489E-19         0.00000E+00
    0.34479E-07         0.11453E-19         0.00000E+00
    0.34559E-07         0.13805E-19         0.00000E+00
    0.34631E-07         0.16764E-19         0.00000E+00
    0.34695E-07         0.22466E-19         0.00000E+00
    0.34751E-07         0.18626E-19         0.00000E+00
    0.34796E-07         0.32656E-19         0.00000E+00
    0.34833E-07         0.97481E-20         0.00000E+00
    0.34859E-07         0.55879E-20         0.00000E+00
    0.34874E-07         0.50944E-20         0.00000E+00
    0.34880E-07         0.00000E+00         0.00000E+00
    0.41429E-07         0.00000E+00         0.00000E+00
    0.41419E-07         0.00000E+00         0.00000E+00
    0.41392E-07         0.55879E-19         0.00000E+00
    0.41346E-07         0.43494E-19         0.00000E+00
    0.41282E-07         0.33528E-19         0.00000E+00
    0.41201E-07         0.44703E-19         0.00000E+00
    0.41103E-07         0.55434E-19         0.00000E+00
    0.40989E-07         0.18626E-19         0.00000E+00
    0.40859E-07         0.24214E-19         0.00000E+00
    0.40714E-07        -0.27940E-20         0.00000E+00
    0.40555E-07         0.24214E-19         0.00000E+00
    0.40383E-07         0.16764E-19         0.00000E+00
    0.40199E-07         0.12582E-19         0.00000E+00
    0.40003E-07        -0.74506E-20         0.00000E+00
    0.39796E-07         0.11176E-19         0.00000E+00
    0.39580E-07        -0.22836E-19         0.00000E+00
    0.39356E-07        -0.13039E-19         0.00000E+00
    0.39123E-07        -0.76541E-20         0.00000E+00
    0.38884E-07        -0.11176E-19         0.00000E+00
    0.38638E-07         0.00000E+00         0.00000E+00
    0.38388E-07         0.18626E-19         0.00000E+00
    0.38133E-07        -0.27940E-20         0.00000E+00
    0.37875E-07        -0.27940E-20         0.00000E+00
    0.37615E-07         0.33528E-19         0.00000E+00
    0.37353E-07         0.11930E-19         0.00000E+00
    0.37090E-07         0.65193E-20         0.00000E+00
    0.36828E-07         0.55879E-20         0.00000E+00
    0.36566E-07        -0.41643E-20         0.00000E+00
    0.36306E-07        -0.18626E-20         0.00000E+00
    0.36047E-07        -0.83546E-20         0.00000E+00
    0.35792E-07        -0.53036E-20         0.00000E+00
    0.35540E-07         0.33335E-20         0.00000E+00
    0.35293E-07         0.13039E-19         0.00000E+00
    0.35050E-07        -0.19759E-20         0.00000E+00
    0.34813E-07         0.96764E-20         0.00000E+00
    0.34581E-07         0.11176E-19         0.00000E+00
    0.34356E-07         0.20489E-19         0.00000E+00
    0.34138E-07         0.13039E-19         0.00000E+00
    0.33927E-07         0.20489E-19         0.00000E+00
    0.33724E-07         0.40000E-20         0.00000E+00
    0.33528E-07         0.18626E-20         0.00000E+00
    0.33342E-07         0.16559E-19         0.00000E+00
    0.33164E-07         0.20489E-19         0.00000E+00
    0.32995E-07         0.12360E-19         0.00000E+00
    0.32836E-07        -0.74685E-20         0.00000E+00
    0.32686E-07         0.55879E-20         0.00000E+00
    0.32546E-07        -0.13487E-19         0.00000E+00
    0.32415E-07         0.68042E-21         0.00000E+00
    0.32295E-07         0.26057E-19         0.00000E+00
    0.32186E-07        -0.72157E-21         0.00000E+00
    0.32086E-07         0.18626E-19         0.00000E+00
    0.31997E-07         0.67834E-20         0.00000E+00
    0.31919E-07         0.13039E-19         0.00000E+00
    0.31850E-07         0.46566E-20         0.00000E+00
    0.31793E-07         0.22352E-19         0.00000E+00
    0.31746E-07         0.37253E-20         0.00000E+00
    0.31709E-07         0.30609E-19         0.00000E+00
    0.31682E-07         0.13644E-19         0.00000E+00
    0.31665E-07         0.10864E-20         0.00000E+00
    0.31658E-07         0.29503E-21         0.00000E+00
    0.31662E-07        -0.14901E-19         0.00000E+00
    0.31674E-07        -0.93132E-20         0.00000E+00
    0.31696E-07         0.18626E-20         0.00000E+00
    0.31727E-07         0.53555E-20         0.00000E+00
    0.31767E-07        -0.49049E-20         0.00000E+00
    0.31815E-07         0.27940E-20         0.00000E+00
    0.31872E-07         0.10899E-19         0.00000E+00
    0.31936E-07         0.20489E-19         0.00000E+00
    0.32008E-07         0.11176E-19         0.00000E+00
    0.32086E-07         0.13818E-19         0.00000E+00
    0.32172E-07         0.24214E-19         0.00000E+00
    0.32263E-07         0.93132E-20         0.00000E+00
    0.32360E-07         0.16423E-19         0.00000E+00
    0.32462E-07         0.26077E-19         0.00000E+00
    0.32568E-07         0.14901E-19         0.00000E+00
    0.32679E-07         0.27940E-19         0.00000E+00
    0.32793E-07         0.21778E-19         0.00000E+00
    0.32910E-07         0.31665E-19         0.00000E+00
    0.33029E-07         0.18984E-19         0.00000E+00
    0.33150E-07         0.14901E-19         0.00000E+00
    0.33271E-07         0.93132E-20         0.00000E+00
    0.33393E-07         0.35390E-19         0.00000E+00
    0.33515E-07         0.22016E-19         0.00000E+00
    0.33635E-07         0.16904E-19         0.00000E+00
    0.33754E-07         0.20803E-19         0.00000E+00
    0.33871E-07         0.23283E-19         0.00000E+00
    0.33984E-07         0.14256E-19         0.00000E+00
    0.34093E-07         0.14166E-19         0.00000E+00
    0.34198E-07         0.17443E-19         0.00000E+00
    0.34298E-07         0.18626E-19         0.00000E+00
    0.34392E-07         0.11176E-19         0.00000E+00
    0.34479E-07         0.19935E-19         0.00000E+00
    0.34559E-07         0.38903E-20         0.00000E+00
    0.34631E-07         0.13039E-19         0.00000E+00
    0.34695E-07         0.22238E-19         0.00000E+00
    0.34751E-07         0.19558E-19         0.00000E+00
    0.34796E-07         0.18567E-19         0.00000E+00
    0.34833E-07        -0.13662E-20         0.00000E+00
    0.34859E-07        -0.93298E-21         0.00000E+00
    0.34874E-07         0.16764E-19         0.00000E+00
    0.34880E-07         0.18626E-20         0.00000E+00
    0.41429E-07         0.00000E+00         0.00000E+00
    0.41419E-07         0.74506E-20         0.00000E+00
    0.41392E-07         0.55879E-19         0.00000E+00
    0.41346E-07         0.40325E-19         0.00000E+00
    0.41282E-07         0.59605E-19         0.00000E+00
    0.41201E-07         0.18626E-19         0.00000E+00
    0.41103E-07         0.56325E-19         0.00000E+00
    0.40989E-07         0.22352E-19         0.00000E+00
    0.40859E-07         0.24214E-19         0.00000E+00
    0.40714E-07         0.49153E-20         0.00000E+00
    0.40555E-07         0.22352E-19         0.00000E+00
    0.40383E-07         0.39519E-19         0.00000E+00
    0.40199E-07         0.12563E-19         0.00000E+00
    0.40003E-07         0.20489E-19         0.00000E+00
    0.39796E-07         0.22352E-19         0.00000E+00
    0.39580E-07        -0.27940E-20         0.00000E+00
    0.39356E-07        -0.18626E-20         0.00000E+00
    0.39123E-07         0.39288E-20         0.00000E+00
    0.38884E-07        -0.11240E-19         0.00000E+00
    0.38638E-07         0.22352E-19         0.00000E+00
    0.38388E-07         0.19558E-19         0.00000E+00
    0.38133E-07         0.14552E-19         0.00000E+00
    0.37875E-07         0.88669E-20         0.00000E+00
    0.37615E-07         0.33528E-19         0.00000E+00
    0.37353E-07         0.24392E-19         0.00000E+00
    0.37090E-07         0.11220E-19         0.00000E+00
    0.36828E-07         0.20489E-19         0.00000E+00
    0.36566E-07         0.00000E+00         0.00000E+00
    0.36306E-07        -0.13039E-19         0.00000E+00
    0.36047E-07         0.27667E-20         0.00000E+00
    0.35792E-07         0.55879E-20         0.00000E+00
    0.35540E-07         0.13231E-20         0.00000E+00
    0.35293E-07         0.13039E-19         0.00000E+00
    0.35050E-07         0.13039E-19         0.00000E+00
    0.34813E-07         0.14538E-19         0.00000E+00
    0.34581E-07         0.13358E-19         0.00000E+00
    0.34356E-07         0.12965E-19         0.00000E+00
    0.34138E-07         0.29802E-19         0.00000E+00
    0.33927E-07         0.18626E-19         0.00000E+00
    0.33724E-07         0.81072E-20         0.00000E+00
    0.33528E-07         0.20489E-19         0.00000E+00
    0.33342E-07         0.24214E-19         0.00000E+00
    0.33164E-07         0.33528E-19         0.00000E+00
    0.32995E-07         0.13970E-19         0.00000E+00
    0.32836E-07         0.55879E-20         0.00000E+00
    0.32686E-07         0.95292E-20         0.00000E+00
    0.32546E-07        -0.51392E-20         0.00000E+00
    0.32415E-07         0.16764E-19         0.00000E+00
    0.32295E-07         0.27940E-19         0.00000E+00
    0.32186E-07         0.13760E-19         0.00000E+00
    0.32086E-07         0.22352E-19         0.00000E+00
    0.31997E-07         0.20225E-19         0.00000E+00
    0.31919E-07         0.22352E-19         0.00000E+00
    0.31850E-07         0.78316E-20         0.00000E+00
    0.31793E-07         0.29802E-19         0.00000E+00
    0.31746E-07         0.93132E-20         0.00000E+00
    0.31709E-07         0.28996E-19         0.00000E+00
    0.31682E-07         0.14901E-19         0.00000E+00
    0.31665E-07         0.37253E-20         0.00000E+00
    0.31658E-07        -0.86769E-20         0.00000E+00
    0.31662E-07        -0.46566E-20         0.00000E+00
    0.31674E-07        -0.13039E-19         0.00000E+00
    0.31696E-07         0.13039E-19         0.00000E+00
    0.31727E-07         0.62869E-20         0.00000E+00
    0.31767E-07        -0.68302E-21         0.00000E+00
    0.31815E-07         0.85847E-20         0.00000E+00
    0.31872E-07         0.25422E-19         0.00000E+00
    0.31936E-07         0.13039E-19         0.00000E+00
    0.32008E-07         0.49588E-20         0.00000E+00
    0.32086E-07         0.20489E-19         0.00000E+00
    0.32172E-07         0.77744E-20         0.00000E+00
    0.32263E-07         0.16764E-19         0.00000E+00
    0.32360E-07         0.13039E-19         0.00000E+00
    0.32462E-07         0.35390E-19         0.00000E+00
    0.32568E-07         0.27940E-19         0.00000E+00
    0.32679E-07         0.44703E-19         0.00000E+00
    0.32793E-07         0.33170E-19         0.00000E+00
    0.32910E-07         0.42841E-19         0.00000E+00
    0.33029E-07         0.22352E-19         0.00000E+00
    0.33150E-07         0.14901E-19         0.00000E+00
    0.33271E-07         0.18626E-19         0.00000E+00
    0.33393E-07         0.30734E-19         0.00000E+00
    0.33515E-07         0.25481E-19         0.00000E+00
    0.33635E-07         0.23143E-19         0.00000E+00
    0.33754E-07         0.13970E-19         0.00000E+00
    0.33871E-07         0.26844E-19         0.00000E+00
    0.33984E-07         0.17695E-19         0.00000E+00
    0.34093E-07         0.19558E-19         0.00000E+00
    0.34198E-07         0.27940E-19         0.00000E+00
    0.34298E-07         0.18626E-19         0.00000E+00
    0.34392E-07         0.16553E-19         0.00000E+00
    0.34479E-07         0.23837E-19         0.00000E+00
    0.34559E-07         0.12874E-19         0.00000E+00
    0.34631E-07         0.13039E-19         0.00000E+00
    0.34695E-07         0.26077E-19         0.00000E+00
    0.34751E-07         0.19936E-19         0.00000E+00
    0.34796E-07         0.18626E-20         0.00000E+00
    0.34833E-07        -0.32904E-20         0.00000E+00
    0.34859E-07         0.10246E-19         0.00000E+00
    0.34874E-07         0.74506E-20         0.00000E+00
    0.34880E-07         0.17471E-20         0.00000E+00
    0.41429E-07         0.00000E+00         0.00000E+00
    0.41419E-07         0.33528E-19         0.00000E+00
    0.41392E-07         0.27940E-19         0.00000E+00
    0.41346E-07         0.39116E-19         0.00000E+00
    0.41282E-07         0.78231E-19         0.00000E+00
    0.41201E-07         0.69683E-20         0.00000E+00
    0.41103E-07         0.48429E-19         0.00000E+00
    0.40989E-07         0.18626E-19         0.00000E+00
    0.40859E-07         0.10245E-19         0.00000E+00
    0.40714E-07         0.44703E-19         0.00000E+00
    0.40555E-07         0.35721E-19         0.00000E+00
    0.40383E-07         0.20086E-19         0.00000E+00
    0.40199E-07         0.21420E-19         0.00000E+00
    0.40003E-07         0.26077E-19         0.00000E+00
    0.39796E-07         0.33528E-19         0.00000E+00
    0.39580E-07         0.10729E-19         0.00000E+00
    0.39356E-07         0.16764E-19         0.00000E+00
    0.39123E-07         0.13039E-19         0.00000E+00
    0.38884E-07        -0.37253E-20         0.00000E+00
    0.38638E-07         0.20415E-19         0.00000E+00
    0.38388E-07         0.13251E-19         0.00000E+00
    0.38133E-07         0.12456E-19         0.00000E+00
    0.37875E-07         0.23729E-19         0.00000E+00
    0.37615E-07         0.24526E-19         0.00000E+00
    0.37353E-07         0.14901E-19         0.00000E+00
    0.37090E-07         0.21376E-19         0.00000E+00
    0.36828E-07         0.14901E-19         0.00000E+00
    0.36566E-07         0.55879E-20         0.00000E+00
    0.36306E-07        -0.93132E-20         0.00000E+00
    0.36047E-07         0.95862E-21         0.00000E+00
    0.35792E-07         0.10892E-19         0.00000E+00
    0.35540E-07         0.14901E-19         0.00000E+00
    0.35293E-07         0.46566E-20         0.00000E+00
    0.35050E-07         0.19671E-19         0.00000E+00
    0.34813E-07         0.55879E-20         0.00000E+00
    0.34581E-07         0.23894E-19         0.00000E+00
    0.34356E-07         0.24214E-19         0.00000E+00
    0.34138E-07         0.31665E-19         0.00000E+00
    0.33927E-07         0.16349E-19         0.00000E+00
    0.33724E-07         0.18626E-19         0.00000E+00
    0.33528E-07         0.24180E-19         0.00000E+00
    0.33342E-07         0.14901E-19         0.00000E+00
    0.33164E-07         0.37253E-19         0.00000E+00
    0.32995E-07         0.71976E-20         0.00000E+00
    0.32836E-07        -0.27760E-20         0.00000E+00
    0.32686E-07         0.55879E-20         0.00000E+00
    0.32546E-07        -0.44869E-21         0.00000E+00
    0.32415E-07         0.25090E-21         0.00000E+00
    0.32295E-07         0.74506E-20         0.00000E+00
    0.32186E-07         0.24214E-19         0.00000E+00
    0.32086E-07         0.93132E-20         0.00000E+00
    0.31997E-07         0.40047E-19         0.00000E+00
    0.31919E-07         0.27940E-19         0.00000E+00
    0.31850E-07         0.24765E-19         0.00000E+00
    0.31793E-07         0.29802E-19         0.00000E+00
    0.31746E-07         0.93132E-20         0.00000E+00
    0.31709E-07         0.73256E-20         0.00000E+00
    0.31682E-07         0.21420E-19         0.00000E+00
    0.31665E-07        -0.14125E-19         0.00000E+00
    0.31658E-07         0.74506E-20         0.00000E+00
    0.31662E-07         0.85683E-20         0.00000E+00
    0.31674E-07         0.18626E-20         0.00000E+00
    0.31696E-07         0.11176E-19         0.00000E+00
    0.31727E-07         0.93132E-21         0.00000E+00
    0.31767E-07         0.10928E-19         0.00000E+00
    0.31815E-07         0.13039E-19         0.00000E+00
    0.31872E-07         0.16487E-19         0.00000E+00
    0.31936E-07         0.24214E-19         0.00000E+00
    0.32008E-07         0.24918E-20         0.00000E+00
    0.32086E-07         0.17695E-19         0.00000E+00
    0.32172E-07         0.55879E-20         0.00000E+00
    0.32263E-07         0.23283E-19         0.00000E+00
    0.32360E-07        -0.37253E-20         0.00000E+00
    0.32462E-07         0.29802E-19         0.00000E+00
    0.32568E-07         0.38184E-19         0.00000E+00
    0.32679E-07         0.54017E-19         0.00000E+00
    0.32793E-07         0.30734E-19         0.00000E+00
    0.32910E-07         0.35390E-19         0.00000E+00
    0.33029E-07         0.31665E-19         0.00000E+00
    0.33150E-07         0.22352E-19         0.00000E+00
    0.33271E-07         0.31665E-19         0.00000E+00
    0.33393E-07         0.27130E-19         0.00000E+00
    0.33515E-07         0.26673E-19         0.00000E+00
    0.33635E-07         0.34459E-19         0.00000E+00
    0.33754E-07         0.22969E-19         0.00000E+00
    0.33871E-07         0.27008E-19         0.00000E+00
    0.33984E-07         0.40692E-19         0.00000E+00
    0.34093E-07         0.29998E-19         0.00000E+00
    0.34198E-07         0.30054E-19         0.00000E+00
    0.34298E-07         0.23283E-19         0.00000E+00
    0.34392E-07         0.15832E-19         0.00000E+00
    0.34479E-07         0.30457E-19         0.00000E+00
    0.34559E-07         0.21585E-19         0.00000E+00
    0.34631E-07         0.18626E-19         0.00000E+00
    0.34695E-07         0.24328E-19         0.00000E+00
    0.34751E-07         0.18626E-19         0.00000E+00
    0.34796E-07        -0.93132E-21         0.00000E+00
    0.34833E-07         0.70157E-20         0.00000E+00
    0.34859E-07         0.13039E-19         0.00000E+00
    0.34874E-07         0.00000E+00         0.00000E+00
    0.34880E-07        -0.17471E-20         0.00000E+00
    0.41429E-07         0.00000E+00         0.00000E+00
    0.41419E-07         0.22043E-19         0.00000E+00
    0.41392E-07         0.68155E-20         0.00000E+00
    0.41346E-07         0.36044E-19         0.00000E+00
    0.41282E-07         0.56398E-19         0.00000E+00
    0.41201E-07         0.22834E-19         0.00000E+00
    0.41103E-07         0.31219E-19         0.00000E+00
    0.40989E-07         0.52154E-19         0.00000E+00
    0.40859E-07         0.31479E-19         0.00000E+00
    0.40714E-07         0.42841E-19         0.00000E+00
    0.40555E-07         0.53686E-19         0.00000E+00
    0.40383E-07         0.93132E-20         0.00000E+00
    0.40199E-07         0.41453E-19         0.00000E+00
    0.40003E-07         0.11176E-19         0.00000E+00
    0.39796E-07         0.20489E-19         0.00000E+00
    0.39580E-07         0.29318E-19         0.00000E+00
    0.39356E-07         0.20833E-19         0.00000E+00
    0.39123E-07         0.20489E-19         0.00000E+00
    0.38884E-07        -0.11176E-19         0.00000E+00
    0.38638E-07         0.37998E-20         0.00000E+00
    0.38388E-07         0.13758E-19         0.00000E+00
    0.38133E-07        -0.37253E-20         0.00000E+00
    0.37875E-07         0.14901E-19         0.00000E+00
    0.37615E-07         0.27940E-19         0.00000E+00
    0.37353E-07         0.17518E-19         0.00000E+00
    0.37090E-07         0.22352E-19         0.00000E+00
    0.36828E-07         0.14901E-19         0.00000E+00
    0.36566E-07        -0.74506E-20         0.00000E+00
    0.36306E-07        -0.29802E-19         0.00000E+00
    0.36047E-07         0.46293E-20         0.00000E+00
    0.35792E-07         0.28434E-21         0.00000E+00
    0.35540E-07         0.11176E-19         0.00000E+00
    0.35293E-07        -0.82436E-20         0.00000E+00
    0.35050E-07         0.82686E-20         0.00000E+00
    0.34813E-07         0.18626E-20         0.00000E+00
    0.34581E-07         0.11176E-19         0.00000E+00
    0.34356E-07         0.24214E-19         0.00000E+00
    0.34138E-07         0.14901E-19         0.00000E+00
    0.33927E-07         0.22775E-20         0.00000E+00
    0.33724E-07         0.19558E-19         0.00000E+00
    0.33528E-07         0.14901E-19         0.00000E+00
    0.33342E-07         0.55879E-20         0.00000E+00
    0.33164E-07         0.22352E-19         0.00000E+00
    0.32995E-07         0.21156E-20         0.00000E+00
    0.32836E-07        -0.46925E-20         0.00000E+00
    0.32686E-07        -0.21593E-21         0.00000E+00
    0.32546E-07        -0.13039E-19         0.00000E+00
    0.32415E-07        -0.15832E-19         0.00000E+00
    0.32295E-07        -0.37052E-20         0.00000E+00
    0.32186E-07         0.22352E-19         0.00000E+00
    0.32086E-07         0.00000E+00         0.00000E+00
    0.31997E-07         0.32332E-19         0.00000E+00
    0.31919E-07         0.16764E-19         0.00000E+00
    0.31850E-07         0.27008E-19         0.00000E+00
    0.31793E-07         0.74506E-20         0.00000E+00
    0.31746E-07         0.11176E-19         0.00000E+00
    0.31709E-07        -0.54630E-20         0.00000E+00
    0.31682E-07         0.17090E-19         0.00000E+00
    0.31665E-07        -0.72955E-20         0.00000E+00
    0.31658E-07         0.74506E-20         0.00000E+00
    0.31662E-07        -0.16950E-19         0.00000E+00
    0.31674E-07        -0.93132E-20         0.00000E+00
    0.31696E-07         0.18626E-20         0.00000E+00
    0.31727E-07        -0.25616E-20         0.00000E+00
    0.31767E-07        -0.18626E-20         0.00000E+00
    0.31815E-07         0.11176E-19         0.00000E+00
    0.31872E-07         0.30707E-20         0.00000E+00
    0.31936E-07         0.13039E-19         0.00000E+00
    0.32008E-07         0.46566E-20         0.00000E+00
    0.32086E-07         0.29461E-20         0.00000E+00
    0.32172E-07         0.74506E-20         0.00000E+00
    0.32263E-07         0.63865E-20         0.00000E+00
    0.32360E-07         0.37253E-20         0.00000E+00
    0.32462E-07         0.13039E-19         0.00000E+00
    0.32568E-07         0.43193E-19         0.00000E+00
    0.32679E-07         0.33528E-19         0.00000E+00
    0.32793E-07         0.24788E-19         0.00000E+00
    0.32910E-07         0.20489E-19         0.00000E+00
    0.33029E-07         0.40978E-19         0.00000E+00
    0.33150E-07         0.20489E-19         0.00000E+00
    0.33271E-07         0.21420E-19         0.00000E+00
    0.33393E-07         0.34459E-19         0.00000E+00
    0.33515E-07         0.22687E-19         0.00000E+00
    0.33635E-07         0.24354E-19         0.00000E+00
    0.33754E-07         0.30117E-19         0.00000E+00
    0.33871E-07         0.21585E-19         0.00000E+00
    0.33984E-07         0.48715E-19         0.00000E+00
    0.34093E-07         0.31469E-19         0.00000E+00
    0.34198E-07         0.21848E-19         0.00000E+00
    0.34298E-07         0.19324E-19         0.00000E+00
    0.34392E-07         0.23494E-19         0.00000E+00
    0.34479E-07         0.33528E-19         0.00000E+00
    0.34559E-07         0.31665E-19         0.00000E+00
    0.34631E-07         0.26357E-19         0.00000E+00
    0.34695E-07         0.18626E-19         0.00000E+00
    0.34751E-07         0.14901E-19         0.00000E+00
    0.34796E-07         0.84412E-20         0.00000E+00
    0.34833E-07         0.19061E-19         0.00000E+00
    0.34859E-07         0.74506E-20         0.00000E+00
    0.34874E-07        -0.37253E-20         0.00000E+00
    0.34880E-07         0.00000E+00         0.00000E+00
    0.41429E-07         0.00000E+00         0.00000E+00
    0.41419E-07        -0.34170E-20         0.00000E+00
    0.41392E-07         0.13674E-19         0.00000E+00
    0.41346E-07         0.45259E-19         0.00000E+00
    0.41282E-07         0.33009E-19         0.00000E+00
    0.41201E-07         0.55879E-19         0.00000E+00
    0.41103E-07         0.28831E-19         0.00000E+00
    0.40989E-07         0.48429E-19         0.00000E+00
    0.40859E-07         0.56997E-19         0.00000E+00
    0.40714E-07         0.31665E-19         0.00000E+00
    0.40555E-07         0.20489E-19         0.00000E+00
    0.40383E-07         0.37253E-19         0.00000E+00
    0.40199E-07         0.25126E-19         0.00000E+00
    0.40003E-07         0.14901E-19         0.00000E+00
    0.39796E-07         0.18626E-19         0.00000E+00
    0.39580E-07         0.28871E-19         0.00000E+00
    0.39356E-07         0.14557E-19         0.00000E+00
    0.39123E-07         0.21217E-19         0.00000E+00
    0.38884E-07        -0.14901E-19         0.00000E+00
    0.38638E-07         0.18626E-19         0.00000E+00
    0.38388E-07         0.18626E-19         0.00000E+00
    0.38133E-07         0.93132E-21         0.00000E+00
    0.37875E-07         0.22352E-19         0.00000E+00
    0.37615E-07         0.22352E-19         0.00000E+00
    0.37353E-07         0.28294E-19         0.00000E+00
    0.37090E-07         0.20489E-19         0.00000E+00
    0.36828E-07         0.18626E-19         0.00000E+00
    0.36566E-07        -0.11176E-19         0.00000E+00
    0.36306E-07        -0.29802E-19         0.00000E+00
    0.36047E-07         0.84092E-20         0.00000E+00
    0.35792E-07         0.37253E-20         0.00000E+00
    0.35540E-07         0.74506E-20         0.00000E+00
    0.35293E-07         0.79298E-21         0.00000E+00
    0.35050E-07         0.93132E-21         0.00000E+00
    0.34813E-07        -0.24308E-20         0.00000E+00
    0.34581E-07         0.17695E-19         0.00000E+00
    0.34356E-07         0.14901E-19         0.00000E+00
    0.34138E-07         0.16764E-19         0.00000E+00
    0.33927E-07         0.11176E-19         0.00000E+00
    0.33724E-07         0.14626E-19         0.00000E+00
    0.33528E-07         0.12107E-19         0.00000E+00
    0.33342E-07         0.20489E-19         0.00000E+00
    0.33164E-07         0.20489E-19         0.00000E+00
    0.32995E-07         0.53350E-20         0.00000E+00
    0.32836E-07         0.37432E-20         0.00000E+00
    0.32686E-07         0.00000E+00         0.00000E+00
    0.32546E-07        -0.18626E-20         0.00000E+00
    0.32415E-07        -0.13289E-19         0.00000E+00
    0.32295E-07        -0.37253E-20         0.00000E+00
    0.32186E-07         0.29802E-19         0.00000E+00
    0.32086E-07         0.16764E-19         0.00000E+00
    0.31997E-07         0.13303E-19         0.00000E+00
    0.31919E-07         0.11176E-19         0.00000E+00
    0.31850E-07         0.19939E-19         0.00000E+00
    0.31793E-07         0.18626E-20         0.00000E+00
    0.31746E-07         0.24214E-19         0.00000E+00
    0.31709E-07         0.13039E-19         0.00000E+00
    0.31682E-07        -0.31199E-20         0.00000E+00
    0.31665E-07         0.16609E-19         0.00000E+00
    0.31658E-07        -0.93132E-20         0.00000E+00
    0.31662E-07        -0.23283E-19         0.00000E+00
    0.31674E-07        -0.18626E-20         0.00000E+00
    0.31696E-07         0.93132E-21         0.00000E+00
    0.31727E-07        -0.13039E-19         0.00000E+00
    0.31767E-07         0.18626E-20         0.00000E+00
    0.31815E-07         0.83819E-20         0.00000E+00
    0.31872E-07        -0.18626E-20         0.00000E+00
    0.31936E-07        -0.14901E-19         0.00000E+00
    0.32008E-07         0.16135E-19         0.00000E+00
    0.32086E-07         0.10245E-19         0.00000E+00
    0.32172E-07         0.34015E-20         0.00000E+00
    0.32263E-07         0.37253E-20         0.00000E+00
    0.32360E-07         0.16764E-19         0.00000E+00
    0.32462E-07         0.14901E-19         0.00000E+00
    0.32568E-07         0.35617E-19         0.00000E+00
    0.32679E-07         0.12107E-19         0.00000E+00
    0.32793E-07         0.30160E-19         0.00000E+00
    0.32910E-07         0.25146E-19         0.00000E+00
    0.33029E-07         0.31665E-19         0.00000E+00
    0.33150E-07         0.11176E-19         0.00000E+00
    0.33271E-07         0.12689E-19         0.00000E+00
    0.33393E-07         0.17573E-19         0.00000E+00
    0.33515E-07         0.20489E-19         0.00000E+00
    0.33635E-07         0.10105E-19         0.00000E+00
    0.33754E-07         0.11176E-19         0.00000E+00
    0.33871E-07         0.40978E-19         0.00000E+00
    0.33984E-07         0.36035E-19         0.00000E+00
    0.34093E-07         0.27204E-19         0.00000E+00
    0.34198E-07         0.19810E-19         0.00000E+00
    0.34298E-07         0.14901E-19         0.00000E+00
    0.34392E-07         0.18626E-19         0.00000E+00
    0.34479E-07         0.30734E-19         0.00000E+00
    0.34559E-07         0.34459E-19         0.00000E+00
    0.34631E-07         0.31385E-19         0.00000E+00
    0.34695E-07         0.23169E-19         0.00000E+00
    0.34751E-07         0.37253E-20         0.00000E+00
    0.34796E-07         0.15832E-19         0.00000E+00
    0.34833E-07         0.25642E-19         0.00000E+00
    0.34859E-07         0.74506E-20         0.00000E+00
    0.34874E-07         0.18626E-20         0.00000E+00
    0.34880E-07         0.00000E+00         0.00000E+00
    0.41429E-07         0.00000E+00         0.00000E+00
    0.41419E-07         0.71422E-20         0.00000E+00
    0.41392E-07         0.44068E-19         0.00000E+00
    0.41346E-07         0.37906E-19         0.00000E+00
    0.41282E-07         0.34047E-19         0.00000E+00
    0.41201E-07         0.52154E-19         0.00000E+00
    0.41103E-07         0.47983E-19         0.00000E+00
    0.40989E-07         0.33528E-19         0.00000E+00
    0.40859E-07         0.57556E-19         0.00000E+00
    0.40714E-07         0.54017E-19         0.00000E+00
    0.40555E-07         0.37253E-20         0.00000E+00
    0.40383E-07         0.50291E-19         0.00000E+00
    0.40199E-07         0.14445E-19         0.00000E+00
    0.40003E-07         0.24214E-19         0.00000E+00
    0.39796E-07         0.18626E-19         0.00000E+00
    0.39580E-07         0.18180E-19         0.00000E+00
    0.39356E-07         0.31377E-20         0.00000E+00
    0.39123E-07         0.29974E-20         0.00000E+00
    0.38884E-07         0.74506E-20         0.00000E+00
    0.38638E-07         0.37178E-19         0.00000E+00
    0.38388E-07         0.11176E-19         0.00000E+00
    0.38133E-07         0.20140E-19         0.00000E+00
    0.37875E-07         0.26077E-19         0.00000E+00
    0.37615E-07         0.49679E-20         0.00000E+00
    0.37353E-07         0.15655E-19         0.00000E+00
    0.37090E-07         0.37253E-20         0.00000E+00
    0.36828E-07         0.18626E-19         0.00000E+00
    0.36566E-07        -0.18626E-20         0.00000E+00
    0.36306E-07         0.37253E-20         0.00000E+00
    0.36047E-07        -0.65466E-20         0.00000E+00
    0.35792E-07         0.90289E-20         0.00000E+00
    0.35540E-07         0.93132E-20         0.00000E+00
    0.35293E-07         0.57263E-20         0.00000E+00
    0.35050E-07         0.73373E-20         0.00000E+00
    0.34813E-07         0.15469E-19         0.00000E+00
    0.34581E-07         0.22672E-19         0.00000E+00
    0.34356E-07         0.93132E-20         0.00000E+00
    0.34138E-07         0.27940E-19         0.00000E+00
    0.33927E-07         0.27525E-19         0.00000E+00
    0.33724E-07         0.19832E-19         0.00000E+00
    0.33528E-07         0.17729E-19         0.00000E+00
    0.33342E-07         0.18626E-19         0.00000E+00
    0.33164E-07         0.27498E-19         0.00000E+00
    0.32995E-07         0.86349E-20         0.00000E+00
    0.32836E-07         0.56059E-20         0.00000E+00
    0.32686E-07         0.37253E-20         0.00000E+00
    0.32546E-07         0.88645E-20         0.00000E+00
    0.32415E-07         0.11427E-19         0.00000E+00
    0.32295E-07         0.27738E-20         0.00000E+00
    0.32186E-07         0.11176E-19         0.00000E+00
    0.32086E-07         0.20050E-19         0.00000E+00
    0.31997E-07         0.18626E-20         0.00000E+00
    0.31919E-07         0.13039E-19         0.00000E+00
    0.31850E-07         0.23452E-19         0.00000E+00
    0.31793E-07         0.22352E-19         0.00000E+00
    0.31746E-07         0.18626E-19         0.00000E+00
    0.31709E-07         0.16764E-19         0.00000E+00
    0.31682E-07         0.13039E-19         0.00000E+00
    0.31665E-07         0.10400E-19         0.00000E+00
    0.31658E-07        -0.10245E-19         0.00000E+00
    0.31662E-07        -0.14715E-19         0.00000E+00
    0.31674E-07         0.18626E-20         0.00000E+00
    0.31696E-07         0.67371E-20         0.00000E+00
    0.31727E-07        -0.13039E-19         0.00000E+00
    0.31767E-07         0.93132E-20         0.00000E+00
    0.31815E-07         0.72478E-20         0.00000E+00
    0.31872E-07         0.37253E-20         0.00000E+00
    0.31936E-07         0.00000E+00         0.00000E+00
    0.32008E-07         0.16764E-19         0.00000E+00
    0.32086E-07         0.23131E-19         0.00000E+00
    0.32172E-07         0.87057E-20         0.00000E+00
    0.32263E-07        -0.93132E-21         0.00000E+00
    0.32360E-07         0.27349E-19         0.00000E+00
    0.32462E-07         0.31665E-19         0.00000E+00
    0.32568E-07         0.23635E-19         0.00000E+00
    0.32679E-07         0.73409E-20         0.00000E+00
    0.32793E-07         0.33528E-19         0.00000E+00
    0.32910E-07         0.43665E-19         0.00000E+00
    0.33029E-07         0.18626E-19         0.00000E+00
    0.33150E-07         0.46566E-20         0.00000E+00
    0.33271E-07         0.18976E-19         0.00000E+00
    0.33393E-07         0.16764E-19         0.00000E+00
    0.33515E-07         0.26077E-19         0.00000E+00
    0.33635E-07         0.13039E-19         0.00000E+00
    0.33754E-07         0.20803E-19         0.00000E+00
    0.33871E-07         0.40047E-19         0.00000E+00
    0.33984E-07         0.28226E-19         0.00000E+00
    0.34093E-07         0.16372E-19         0.00000E+00
    0.34198E-07         0.20741E-19         0.00000E+00
    0.34298E-07         0.20489E-19         0.00000E+00
    0.34392E-07         0.11176E-19         0.00000E+00
    0.34479E-07         0.29148E-19         0.00000E+00
    0.34559E-07         0.25311E-19         0.00000E+00
    0.34631E-07         0.28871E-19         0.00000E+00
    0.34695E-07         0.17809E-19         0.00000E+00
    0.34751E-07         0.11350E-19         0.00000E+00
    0.34796E-07         0.21361E-19         0.00000E+00
    0.34833E-07         0.27940E-19         0.00000E+00
    0.34859E-07        -0.37253E-20         0.00000E+00
    0.34874E-07         0.88197E-20         0.00000E+00
    0.34880E-07         0.00000E+00         0.00000E+00
    0.41429E-07         0.00000E+00         0.00000E+00
    0.41419E-07         0.33836E-19         0.00000E+00
    0.41392E-07         0.52789E-19         0.00000E+00
    0.41346E-07         0.41632E-19         0.00000E+00
    0.41282E-07         0.25558E-19         0.00000E+00
    0.41201E-07         0.37253E-19         0.00000E+00
    0.41103E-07         0.55434E-19         0.00000E+00
    0.40989E-07         0.33528E-19         0.00000E+00
    0.40859E-07         0.41164E-19         0.00000E+00
    0.40714E-07         0.54017E-19         0.00000E+00
    0.40555E-07         0.20489E-19         0.00000E+00
    0.40383E-07         0.16764E-19         0.00000E+00
    0.40199E-07         0.41453E-19         0.00000E+00
    0.40003E-07         0.22352E-19         0.00000E+00
    0.39796E-07         0.74506E-20         0.00000E+00
    0.39580E-07         0.24661E-19         0.00000E+00
    0.39356E-07         0.15489E-19         0.00000E+00
    0.39123E-07        -0.14901E-19         0.00000E+00
    0.38884E-07         0.57742E-19         0.00000E+00
    0.38638E-07         0.24289E-19         0.00000E+00
    0.38388E-07         0.74506E-20         0.00000E+00
    0.38133E-07         0.33877E-19         0.00000E+00
    0.37875E-07         0.27940E-19         0.00000E+00
    0.37615E-07        -0.80732E-20         0.00000E+00
    0.37353E-07         0.16854E-20         0.00000E+00
    0.37090E-07         0.46566E-20         0.00000E+00
    0.36828E-07         0.16764E-19         0.00000E+00
    0.36566E-07         0.37253E-20         0.00000E+00
    0.36306E-07         0.74506E-20         0.00000E+00
    0.36047E-07        -0.46566E-20         0.00000E+00
    0.35792E-07         0.77349E-20         0.00000E+00
    0.35540E-07        -0.93132E-21         0.00000E+00
    0.35293E-07         0.79298E-21         0.00000E+00
    0.35050E-07         0.29073E-20         0.00000E+00
    0.34813E-07         0.26077E-19         0.00000E+00
    0.34581E-07         0.15427E-20         0.00000E+00
    0.34356E-07         0.18626E-20         0.00000E+00
    0.34138E-07         0.18626E-19         0.00000E+00
    0.33927E-07         0.13453E-19         0.00000E+00
    0.33724E-07         0.22352E-19         0.00000E+00
    0.33528E-07         0.29837E-19         0.00000E+00
    0.33342E-07         0.76551E-20         0.00000E+00
    0.33164E-07         0.20931E-19         0.00000E+00
    0.32995E-07         0.37253E-20         0.00000E+00
    0.32836E-07        -0.93132E-21         0.00000E+00
    0.32686E-07         0.35094E-20         0.00000E+00
    0.32546E-07        -0.55879E-20         0.00000E+00
    0.32415E-07         0.19809E-19         0.00000E+00
    0.32295E-07         0.56282E-20         0.00000E+00
    0.32186E-07         0.55879E-20         0.00000E+00
    0.32086E-07         0.11615E-19         0.00000E+00
    0.31997E-07        -0.18626E-20         0.00000E+00
    0.31919E-07         0.11176E-19         0.00000E+00
    0.31850E-07         0.16214E-19         0.00000E+00
    0.31793E-07         0.13039E-19         0.00000E+00
    0.31746E-07         0.00000E+00         0.00000E+00
    0.31709E-07         0.18626E-20         0.00000E+00
    0.31682E-07         0.27008E-19         0.00000E+00
    0.31665E-07        -0.37253E-20         0.00000E+00
    0.31658E-07        -0.20194E-19         0.00000E+00
    0.31662E-07        -0.39117E-20         0.00000E+00
    0.31674E-07        -0.14901E-19         0.00000E+00
    0.31696E-07         0.10958E-19         0.00000E+00
    0.31727E-07        -0.16764E-19         0.00000E+00
    0.31767E-07        -0.55879E-20         0.00000E+00
    0.31815E-07        -0.72850E-21         0.00000E+00
    0.31872E-07        -0.37253E-20         0.00000E+00
    0.31936E-07         0.18626E-19         0.00000E+00
    0.32008E-07         0.17695E-19         0.00000E+00
    0.32086E-07         0.19558E-19         0.00000E+00
    0.32172E-07         0.15509E-19         0.00000E+00
    0.32263E-07         0.66520E-20         0.00000E+00
    0.32360E-07         0.37843E-19         0.00000E+00
    0.32462E-07         0.27940E-19         0.00000E+00
    0.32568E-07         0.35390E-19         0.00000E+00
    0.32679E-07         0.38350E-20         0.00000E+00
    0.32793E-07         0.35390E-19         0.00000E+00
    0.32910E-07         0.37360E-19         0.00000E+00
    0.33029E-07         0.26077E-19         0.00000E+00
    0.33150E-07         0.11065E-19         0.00000E+00
    0.33271E-07         0.37603E-19         0.00000E+00
    0.33393E-07         0.16764E-19         0.00000E+00
    0.33515E-07         0.26077E-19         0.00000E+00
    0.33635E-07         0.93132E-20         0.00000E+00
    0.33754E-07         0.42526E-19         0.00000E+00
    0.33871E-07         0.26844E-19         0.00000E+00
    0.33984E-07         0.31665E-19         0.00000E+00
    0.34093E-07         0.65193E-20         0.00000E+00
    0.34198E-07         0.22352E-19         0.00000E+00
    0.34298E-07         0.24214E-19         0.00000E+00
    0.34392E-07         0.76617E-20         0.00000E+00
    0.34479E-07         0.37630E-19         0.00000E+00
    0.34559E-07         0.13970E-19         0.00000E+00
    0.34631E-07         0.16113E-19         0.00000E+00
    0.34695E-07         0.15015E-19         0.00000E+00
    0.34751E-07         0.74506E-20         0.00000E+00
    0.34796E-07         0.22470E-19         0.00000E+00
    0.34833E-07         0.13039E-19         0.00000E+00
    0.34859E-07         0.00000E+00         0.00000E+00
    0.34874E-07         0.49356E-21         0.00000E+00
    0.34880E-07         0.00000E+00         0.00000E+00
    0.41429E-07         0.00000E+00         0.00000E+00
    0.41419E-07         0.29802E-19         0.00000E+00
    0.41392E-07         0.40978E-19         0.00000E+00
    0.41346E-07         0.67055E-19         0.00000E+00
    0.41282E-07         0.18626E-19         0.00000E+00
    0.41201E-07         0.52154E-19         0.00000E+00
    0.41103E-07         0.59605E-19         0.00000E+00
    0.40989E-07         0.74506E-20         0.00000E+00
    0.40859E-07         0.26077E-19         0.00000E+00
    0.40714E-07         0.42841E-19         0.00000E+00
    0.40555E-07         0.50291E-19         0.00000E+00
    0.40383E-07        -0.61159E-20         0.00000E+00
    0.40199E-07         0.52154E-19         0.00000E+00
    0.40003E-07         0.26077E-19         0.00000E+00
    0.39796E-07        -0.55879E-20         0.00000E+00
    0.39580E-07         0.15386E-19         0.00000E+00
    0.39356E-07         0.26077E-19         0.00000E+00
    0.39123E-07        -0.11379E-19         0.00000E+00
    0.38884E-07         0.54017E-19         0.00000E+00
    0.38638E-07         0.93877E-20         0.00000E+00
    0.38388E-07         0.39116E-19         0.00000E+00
    0.38133E-07         0.98955E-20         0.00000E+00
    0.37875E-07         0.32150E-19         0.00000E+00
    0.37615E-07        -0.10865E-19         0.00000E+00
    0.37353E-07         0.74506E-20         0.00000E+00
    0.37090E-07        -0.46126E-20         0.00000E+00
    0.36828E-07        -0.55879E-20         0.00000E+00
    0.36566E-07         0.11615E-19         0.00000E+00
    0.36306E-07        -0.55879E-20         0.00000E+00
    0.36047E-07        -0.64920E-20         0.00000E+00
    0.35792E-07         0.71662E-20         0.00000E+00
    0.35540E-07        -0.98528E-20         0.00000E+00
    0.35293E-07         0.13039E-19         0.00000E+00
    0.35050E-07         0.11176E-19         0.00000E+00
    0.34813E-07         0.24578E-19         0.00000E+00
    0.34581E-07        -0.15427E-20         0.00000E+00
    0.34356E-07         0.13039E-19         0.00000E+00
    0.34138E-07        -0.18626E-20         0.00000E+00
    0.33927E-07         0.12522E-19         0.00000E+00
    0.33724E-07         0.24214E-19         0.00000E+00
    0.33528E-07         0.14867E-19         0.00000E+00
    0.33342E-07         0.24214E-19         0.00000E+00
    0.33164E-07         0.37253E-20         0.00000E+00
    0.32995E-07         0.00000E+00         0.00000E+00
    0.32836E-07         0.12071E-19         0.00000E+00
    0.32686E-07         0.20786E-20         0.00000E+00
    0.32546E-07        -0.10727E-19         0.00000E+00
    0.32415E-07         0.21420E-19         0.00000E+00
    0.32295E-07        -0.28342E-20         0.00000E+00
    0.32186E-07         0.93132E-20         0.00000E+00
    0.32086E-07         0.55879E-20         0.00000E+00
    0.31997E-07         0.66713E-21         0.00000E+00
    0.31919E-07         0.55879E-20         0.00000E+00
    0.31850E-07         0.13039E-19         0.00000E+00
    0.31793E-07         0.37253E-20         0.00000E+00
    0.31746E-07        -0.37253E-20         0.00000E+00
    0.31709E-07         0.37253E-20         0.00000E+00
    0.31682E-07        -0.60542E-21         0.00000E+00
    0.31665E-07         0.37253E-20         0.00000E+00
    0.31658E-07        -0.17059E-19         0.00000E+00
    0.31662E-07         0.85683E-20         0.00000E+00
    0.31674E-07        -0.11176E-19         0.00000E+00
    0.31696E-07        -0.37253E-20         0.00000E+00
    0.31727E-07        -0.11176E-19         0.00000E+00
    0.31767E-07        -0.20737E-19         0.00000E+00
    0.31815E-07        -0.55879E-20         0.00000E+00
    0.31872E-07        -0.74506E-20         0.00000E+00
    0.31936E-07         0.13039E-19         0.00000E+00
    0.32008E-07         0.34157E-19         0.00000E+00
    0.32086E-07         0.66714E-20         0.00000E+00
    0.32172E-07         0.34459E-19         0.00000E+00
    0.32263E-07         0.33528E-19         0.00000E+00
    0.32360E-07         0.39116E-19         0.00000E+00
    0.32462E-07         0.31665E-19         0.00000E+00
    0.32568E-07         0.29802E-19         0.00000E+00
    0.32679E-07         0.54783E-20         0.00000E+00
    0.32793E-07         0.35390E-19         0.00000E+00
    0.32910E-07         0.27940E-19         0.00000E+00
    0.33029E-07         0.16764E-19         0.00000E+00
    0.33150E-07         0.32819E-19         0.00000E+00
    0.33271E-07         0.28521E-19         0.00000E+00
    0.33393E-07         0.24214E-19         0.00000E+00
    0.33515E-07         0.99089E-20         0.00000E+00
    0.33635E-07         0.32736E-19         0.00000E+00
    0.33754E-07         0.38801E-19         0.00000E+00
    0.33871E-07         0.40978E-19         0.00000E+00
    0.33984E-07         0.34459E-19         0.00000E+00
    0.34093E-07         0.20685E-19         0.00000E+00
    0.34198E-07         0.32093E-19         0.00000E+00
    0.34298E-07         0.21420E-19         0.00000E+00
    0.34392E-07         0.15621E-19         0.00000E+00
    0.34479E-07         0.27008E-19         0.00000E+00
    0.34559E-07         0.16599E-19         0.00000E+00
    0.34631E-07         0.99644E-20         0.00000E+00
    0.34695E-07         0.26077E-19         0.00000E+00
    0.34751E-07         0.11002E-19         0.00000E+00
    0.34796E-07         0.12920E-19         0.00000E+00
    0.34833E-07         0.22975E-20         0.00000E+00
    0.34859E-07         0.11176E-19         0.00000E+00
    0.34874E-07        -0.11176E-19         0.00000E+00
    0.34880E-07         0.00000E+00         0.00000E+00
    0.41429E-07         0.00000E+00         0.00000E+00
    0.41419E-07         0.29802E-19         0.00000E+00
    0.41392E-07         0.29802E-19         0.00000E+00
    0.41346E-07         0.48429E-19         0.00000E+00
    0.41282E-07         0.26077E-19         0.00000E+00
    0.41201E-07         0.59605E-19         0.00000E+00
    0.41103E-07         0.48429E-19         0.00000E+00
    0.40989E-07         0.33528E-19         0.00000E+00
    0.40859E-07         0.11176E-19         0.00000E+00
    0.40714E-07         0.27940E-19         0.00000E+00
    0.40555E-07         0.59605E-19         0.00000E+00
    0.40383E-07        -0.82573E-20         0.00000E+00
    0.40199E-07         0.15832E-19         0.00000E+00
    0.40003E-07         0.20489E-19         0.00000E+00
    0.39796E-07        -0.13039E-19         0.00000E+00
    0.39580E-07         0.11176E-19         0.00000E+00
    0.39356E-07        -0.93132E-20         0.00000E+00
    0.39123E-07        -0.81784E-20         0.00000E+00
    0.38884E-07         0.13039E-19         0.00000E+00
    0.38638E-07         0.55134E-20         0.00000E+00
    0.38388E-07         0.33528E-19         0.00000E+00
    0.38133E-07        -0.37253E-20         0.00000E+00
    0.37875E-07         0.30695E-19         0.00000E+00
    0.37615E-07        -0.20800E-19         0.00000E+00
    0.37353E-07         0.26077E-19         0.00000E+00
    0.37090E-07        -0.13970E-19         0.00000E+00
    0.36828E-07        -0.14901E-19         0.00000E+00
    0.36566E-07         0.12600E-19         0.00000E+00
    0.36306E-07        -0.74506E-20         0.00000E+00
    0.36047E-07        -0.37253E-20         0.00000E+00
    0.35792E-07         0.37253E-20         0.00000E+00
    0.35540E-07        -0.37253E-20         0.00000E+00
    0.35293E-07         0.13039E-19         0.00000E+00
    0.35050E-07         0.12107E-19         0.00000E+00
    0.34813E-07         0.29439E-19         0.00000E+00
    0.34581E-07        -0.68392E-20         0.00000E+00
    0.34356E-07         0.13039E-19         0.00000E+00
    0.34138E-07        -0.18626E-20         0.00000E+00
    0.33927E-07         0.26594E-19         0.00000E+00
    0.33724E-07         0.93132E-21         0.00000E+00
    0.33528E-07         0.13039E-19         0.00000E+00
    0.33342E-07         0.14901E-19         0.00000E+00
    0.33164E-07        -0.23047E-20         0.00000E+00
    0.32995E-07         0.16097E-20         0.00000E+00
    0.32836E-07         0.13074E-19         0.00000E+00
    0.32686E-07        -0.16467E-20         0.00000E+00
    0.32546E-07        -0.13800E-20         0.00000E+00
    0.32415E-07         0.90623E-20         0.00000E+00
    0.32295E-07         0.37253E-20         0.00000E+00
    0.32186E-07        -0.74506E-20         0.00000E+00
    0.32086E-07         0.37253E-20         0.00000E+00
    0.31997E-07         0.86461E-20         0.00000E+00
    0.31919E-07         0.55879E-20         0.00000E+00
    0.31850E-07         0.93132E-20         0.00000E+00
    0.31793E-07         0.13970E-19         0.00000E+00
    0.31746E-07        -0.18626E-20         0.00000E+00
    0.31709E-07         0.37253E-20         0.00000E+00
    0.31682E-07        -0.59138E-20         0.00000E+00
    0.31665E-07        -0.46566E-20         0.00000E+00
    0.31658E-07         0.30890E-20         0.00000E+00
    0.31662E-07        -0.13970E-19         0.00000E+00
    0.31674E-07        -0.11176E-19         0.00000E+00
    0.31696E-07        -0.11176E-19         0.00000E+00
    0.31727E-07        -0.13039E-19         0.00000E+00
    0.31767E-07        -0.20241E-19         0.00000E+00
    0.31815E-07        -0.46566E-20         0.00000E+00
    0.31872E-07         0.93132E-20         0.00000E+00
    0.31936E-07         0.46566E-20         0.00000E+00
    0.32008E-07         0.20489E-19         0.00000E+00
    0.32086E-07         0.14901E-19         0.00000E+00
    0.32172E-07         0.21744E-19         0.00000E+00
    0.32263E-07         0.50291E-19         0.00000E+00
    0.32360E-07         0.38525E-19         0.00000E+00
    0.32462E-07         0.27940E-19         0.00000E+00
    0.32568E-07         0.24214E-19         0.00000E+00
    0.32679E-07         0.10354E-19         0.00000E+00
    0.32793E-07         0.24214E-19         0.00000E+00
    0.32910E-07         0.18626E-19         0.00000E+00
    0.33029E-07         0.26077E-19         0.00000E+00
    0.33150E-07         0.29802E-19         0.00000E+00
    0.33271E-07         0.16764E-19         0.00000E+00
    0.33393E-07         0.31665E-19         0.00000E+00
    0.33515E-07         0.10580E-19         0.00000E+00
    0.33635E-07         0.41770E-19         0.00000E+00
    0.33754E-07         0.31665E-19         0.00000E+00
    0.33871E-07         0.43772E-19         0.00000E+00
    0.33984E-07         0.44417E-19         0.00000E+00
    0.34093E-07         0.19362E-19         0.00000E+00
    0.34198E-07         0.29375E-19         0.00000E+00
    0.34298E-07         0.16997E-19         0.00000E+00
    0.34392E-07         0.26797E-19         0.00000E+00
    0.34479E-07         0.10798E-19         0.00000E+00
    0.34559E-07         0.34624E-19         0.00000E+00
    0.34631E-07         0.16438E-19         0.00000E+00
    0.34695E-07         0.25032E-19         0.00000E+00
    0.34751E-07         0.16764E-19         0.00000E+00
    0.34796E-07         0.18626E-19         0.00000E+00
    0.34833E-07        -0.60228E-20         0.00000E+00
    0.34859E-07         0.13039E-19         0.00000E+00
    0.34874E-07        -0.74506E-20         0.00000E+00
    0.34880E-07        -0.18626E-20         0.00000E+00
    0.41429E-07         0.00000E+00         0.00000E+00
    0.41419E-07         0.29802E-19         0.00000E+00
    0.41392E-07         0.11176E-19         0.00000E+00
    0.41346E-07         0.13692E-19         0.00000E+00
    0.41282E-07         0.55879E-19         0.00000E+00
    0.41201E-07         0.59605E-19         0.00000E+00
    0.41103E-07         0.10730E-19         0.00000E+00
    0.40989E-07         0.59605E-19         0.00000E+00
    0.40859E-07         0.74506E-20         0.00000E+00
    0.40714E-07         0.16764E-19         0.00000E+00
    0.40555E-07         0.24214E-19         0.00000E+00
    0.40383E-07         0.97166E-20         0.00000E+00
    0.40199E-07         0.20964E-19         0.00000E+00
    0.40003E-07         0.11176E-19         0.00000E+00
    0.39796E-07         0.11176E-19         0.00000E+00
    0.39580E-07        -0.31218E-19         0.00000E+00
    0.39356E-07         0.37253E-20         0.00000E+00
    0.39123E-07        -0.85854E-20         0.00000E+00
    0.38884E-07        -0.22352E-19         0.00000E+00
    0.38638E-07         0.22352E-19         0.00000E+00
    0.38388E-07        -0.93132E-20         0.00000E+00
    0.38133E-07         0.23283E-19         0.00000E+00
    0.37875E-07         0.14163E-20         0.00000E+00
    0.37615E-07        -0.37253E-20         0.00000E+00
    0.37353E-07        -0.66965E-20         0.00000E+00
    0.37090E-07        -0.28380E-20         0.00000E+00
    0.36828E-07         0.37253E-20         0.00000E+00
    0.36566E-07        -0.55879E-20         0.00000E+00
    0.36306E-07         0.14901E-19         0.00000E+00
    0.36047E-07         0.93132E-20         0.00000E+00
    0.35792E-07        -0.18342E-19         0.00000E+00
    0.35540E-07         0.13578E-19         0.00000E+00
    0.35293E-07        -0.13039E-19         0.00000E+00
    0.35050E-07         0.25259E-19         0.00000E+00
    0.34813E-07         0.59511E-20         0.00000E+00
    0.34581E-07        -0.55879E-20         0.00000E+00
    0.34356E-07         0.00000E+00         0.00000E+00
    0.34138E-07        -0.37253E-20         0.00000E+00
    0.33927E-07         0.20489E-19         0.00000E+00
    0.33724E-07        -0.20764E-19         0.00000E+00
    0.33528E-07         0.36909E-20         0.00000E+00
    0.33342E-07        -0.18626E-20         0.00000E+00
    0.33164E-07         0.37253E-20         0.00000E+00
    0.32995E-07         0.16085E-19         0.00000E+00
    0.32836E-07        -0.74864E-20         0.00000E+00
    0.32686E-07        -0.11176E-19         0.00000E+00
    0.32546E-07         0.89738E-21         0.00000E+00
    0.32415E-07         0.68042E-21         0.00000E+00
    0.32295E-07        -0.13039E-19         0.00000E+00
    0.32186E-07        -0.16764E-19         0.00000E+00
    0.32086E-07        -0.55879E-20         0.00000E+00
    0.31997E-07         0.15985E-20         0.00000E+00
    0.31919E-07        -0.55879E-20         0.00000E+00
    0.31850E-07        -0.12107E-19         0.00000E+00
    0.31793E-07         0.83411E-21         0.00000E+00
    0.31746E-07        -0.20489E-19         0.00000E+00
    0.31709E-07        -0.13970E-19         0.00000E+00
    0.31682E-07        -0.89873E-20         0.00000E+00
    0.31665E-07        -0.15988E-19         0.00000E+00
    0.31658E-07        -0.14901E-19         0.00000E+00
    0.31662E-07        -0.27195E-19         0.00000E+00
    0.31674E-07        -0.10245E-19         0.00000E+00
    0.31696E-07        -0.22352E-19         0.00000E+00
    0.31727E-07        -0.22352E-19         0.00000E+00
    0.31767E-07        -0.31913E-19         0.00000E+00
    0.31815E-07         0.20282E-21         0.00000E+00
    0.31872E-07        -0.83819E-20         0.00000E+00
    0.31936E-07        -0.75557E-21         0.00000E+00
    0.32008E-07         0.93132E-20         0.00000E+00
    0.32086E-07        -0.18626E-20         0.00000E+00
    0.32172E-07         0.14577E-19         0.00000E+00
    0.32263E-07         0.27940E-19         0.00000E+00
    0.32360E-07         0.35981E-19         0.00000E+00
    0.32462E-07         0.14901E-19         0.00000E+00
    0.32568E-07         0.29802E-19         0.00000E+00
    0.32679E-07         0.20489E-19         0.00000E+00
    0.32793E-07         0.22352E-19         0.00000E+00
    0.32910E-07         0.13039E-19         0.00000E+00
    0.33029E-07         0.33528E-19         0.00000E+00
    0.33150E-07         0.21420E-19         0.00000E+00
    0.33271E-07         0.21420E-19         0.00000E+00
    0.33393E-07         0.25146E-19         0.00000E+00
    0.33515E-07         0.12703E-19         0.00000E+00
    0.33635E-07         0.16904E-19         0.00000E+00
    0.33754E-07         0.31665E-19         0.00000E+00
    0.33871E-07         0.38349E-19         0.00000E+00
    0.33984E-07         0.28226E-19         0.00000E+00
    0.34093E-07         0.27400E-19         0.00000E+00
    0.34198E-07         0.41530E-20         0.00000E+00
    0.34298E-07         0.19791E-19         0.00000E+00
    0.34392E-07         0.22352E-19         0.00000E+00
    0.34479E-07         0.12762E-19         0.00000E+00
    0.34559E-07         0.33198E-19         0.00000E+00
    0.34631E-07         0.29197E-19         0.00000E+00
    0.34695E-07         0.26799E-20         0.00000E+00
    0.34751E-07         0.20489E-19         0.00000E+00
    0.34796E-07         0.27940E-19         0.00000E+00
    0.34833E-07         0.15336E-19         0.00000E+00
    0.34859E-07         0.74506E-20         0.00000E+00
    0.34874E-07         0.00000E+00         0.00000E+00
    0.34880E-07         0.19782E-20         0.00000E+00
    0.41429E-07         0.00000E+00         0.00000E+00
    0.41419E-07         0.22352E-19         0.00000E+00
    0.41392E-07         0.22352E-19         0.00000E+00
    0.41346E-07         0.31012E-19         0.00000E+00
    0.41282E-07         0.81956E-19         0.00000E+00
    0.41201E-07         0.48429E-19         0.00000E+00
    0.41103E-07        -0.32796E-20         0.00000E+00
    0.40989E-07         0.44703E-19         0.00000E+00
    0.40859E-07         0.22352E-19         0.00000E+00
    0.40714E-07         0.11176E-19         0.00000E+00
    0.40555E-07         0.74506E-20         0.00000E+00
    0.40383E-07        -0.52794E-21         0.00000E+00
    0.40199E-07         0.26533E-19         0.00000E+00
    0.40003E-07         0.38877E-20         0.00000E+00
    0.39796E-07         0.40978E-19         0.00000E+00
    0.39580E-07        -0.65193E-19         0.00000E+00
    0.39356E-07        -0.74506E-20         0.00000E+00
    0.39123E-07        -0.27940E-20         0.00000E+00
    0.38884E-07        -0.14901E-19         0.00000E+00
    0.38638E-07         0.24214E-19         0.00000E+00
    0.38388E-07        -0.20489E-19         0.00000E+00
    0.38133E-07         0.27706E-19         0.00000E+00
    0.37875E-07        -0.60343E-20         0.00000E+00
    0.37615E-07        -0.90019E-20         0.00000E+00
    0.37353E-07        -0.39870E-19         0.00000E+00
    0.37090E-07        -0.14901E-19         0.00000E+00
    0.36828E-07         0.17638E-21         0.00000E+00
    0.36566E-07         0.00000E+00         0.00000E+00
    0.36306E-07         0.26077E-19         0.00000E+00
    0.36047E-07        -0.46566E-20         0.00000E+00
    0.35792E-07        -0.39116E-19         0.00000E+00
    0.35540E-07         0.89215E-20         0.00000E+00
    0.35293E-07        -0.22352E-19         0.00000E+00
    0.35050E-07         0.42841E-19         0.00000E+00
    0.34813E-07         0.18626E-20         0.00000E+00
    0.34581E-07         0.11176E-19         0.00000E+00
    0.34356E-07        -0.93132E-20         0.00000E+00
    0.34138E-07        -0.37253E-20         0.00000E+00
    0.33927E-07        -0.55879E-20         0.00000E+00
    0.33724E-07        -0.13695E-19         0.00000E+00
    0.33528E-07        -0.33528E-19         0.00000E+00
    0.33342E-07         0.37253E-20         0.00000E+00
    0.33164E-07        -0.16322E-19         0.00000E+00
    0.32995E-07        -0.32999E-20         0.00000E+00
    0.32836E-07        -0.55879E-20         0.00000E+00
    0.32686E-07        -0.43057E-19         0.00000E+00
    0.32546E-07        -0.74506E-20         0.00000E+00
    0.32415E-07        -0.11176E-19         0.00000E+00
    0.32295E-07        -0.40978E-19         0.00000E+00
    0.32186E-07        -0.93132E-20         0.00000E+00
    0.32086E-07        -0.10737E-19         0.00000E+00
    0.31997E-07        -0.12774E-19         0.00000E+00
    0.31919E-07        -0.14901E-19         0.00000E+00
    0.31850E-07        -0.24765E-19         0.00000E+00
    0.31793E-07        -0.25146E-19         0.00000E+00
    0.31746E-07        -0.29802E-19         0.00000E+00
    0.31709E-07        -0.20614E-19         0.00000E+00
    0.31682E-07        -0.34459E-19         0.00000E+00
    0.31665E-07        -0.14901E-19         0.00000E+00
    0.31658E-07        -0.37253E-19         0.00000E+00
    0.31662E-07        -0.22352E-19         0.00000E+00
    0.31674E-07        -0.18363E-19         0.00000E+00
    0.31696E-07        -0.37253E-19         0.00000E+00
    0.31727E-07        -0.20489E-19         0.00000E+00
    0.31767E-07        -0.31417E-19         0.00000E+00
    0.31815E-07        -0.48594E-20         0.00000E+00
    0.31872E-07        -0.31942E-19         0.00000E+00
    0.31936E-07        -0.10245E-19         0.00000E+00
    0.32008E-07         0.83819E-20         0.00000E+00
    0.32086E-07        -0.18626E-19         0.00000E+00
    0.32172E-07         0.74506E-20         0.00000E+00
    0.32263E-07         0.13039E-19         0.00000E+00
    0.32360E-07         0.24214E-19         0.00000E+00
    0.32462E-07         0.26077E-19         0.00000E+00
    0.32568E-07         0.18626E-19         0.00000E+00
    0.32679E-07         0.37253E-19         0.00000E+00
    0.32793E-07         0.18626E-19         0.00000E+00
    0.32910E-07         0.26077E-19         0.00000E+00
    0.33029E-07         0.18626E-19         0.00000E+00
    0.33150E-07         0.26897E-19         0.00000E+00
    0.33271E-07         0.52380E-20         0.00000E+00
    0.33393E-07         0.24336E-19         0.00000E+00
    0.33515E-07         0.21983E-20         0.00000E+00
    0.33635E-07         0.20349E-19         0.00000E+00
    0.33754E-07         0.17381E-19         0.00000E+00
    0.33871E-07         0.32596E-19         0.00000E+00
    0.33984E-07         0.11534E-19         0.00000E+00
    0.34093E-07         0.35194E-19         0.00000E+00
    0.34198E-07         0.18626E-20         0.00000E+00
    0.34298E-07         0.27940E-19         0.00000E+00
    0.34392E-07         0.15112E-19         0.00000E+00
    0.34479E-07         0.25423E-19         0.00000E+00
    0.34559E-07         0.18626E-19         0.00000E+00
    0.34631E-07         0.29802E-19         0.00000E+00
    0.34695E-07         0.13039E-19         0.00000E+00
    0.34751E-07         0.26077E-19         0.00000E+00
    0.34796E-07         0.24214E-19         0.00000E+00
    0.34833E-07         0.93132E-20         0.00000E+00
    0.34859E-07         0.20489E-19         0.00000E+00
    0.34874E-07        -0.55879E-20         0.00000E+00
    0.34880E-07        -0.11552E-21         0.00000E+00
    0.41429E-07         0.00000E+00         0.00000E+00
    0.41419E-07         0.37253E-19         0.00000E+00
    0.41392E-07         0.00000E+00         0.00000E+00
    0.41346E-07         0.67055E-19         0.00000E+00
    0.41282E-07         0.78231E-19         0.00000E+00
    0.41201E-07         0.26077E-19         0.00000E+00
    0.41103E-07         0.29802E-19         0.00000E+00
    0.40989E-07         0.22352E-19         0.00000E+00
    0.40859E-07         0.33528E-19         0.00000E+00
    0.40714E-07        -0.37253E-20         0.00000E+00
    0.40555E-07         0.16764E-19         0.00000E+00
    0.40383E-07        -0.13845E-19         0.00000E+00
    0.40199E-07         0.83819E-20         0.00000E+00
    0.40003E-07         0.18464E-19         0.00000E+00
    0.39796E-07         0.26077E-19         0.00000E+00
    0.39580E-07        -0.14901E-19         0.00000E+00
    0.39356E-07        -0.11176E-19         0.00000E+00
    0.39123E-07         0.20661E-20         0.00000E+00
    0.38884E-07         0.00000E+00         0.00000E+00
    0.38638E-07         0.13039E-19         0.00000E+00
    0.38388E-07        -0.37253E-20         0.00000E+00
    0.38133E-07         0.67525E-20         0.00000E+00
    0.37875E-07         0.74119E-20         0.00000E+00
    0.37615E-07        -0.18626E-19         0.00000E+00
    0.37353E-07        -0.20489E-19         0.00000E+00
    0.37090E-07         0.00000E+00         0.00000E+00
    0.36828E-07        -0.11352E-19         0.00000E+00
    0.36566E-07         0.27940E-19         0.00000E+00
    0.36306E-07         0.00000E+00         0.00000E+00
    0.36047E-07        -0.15860E-19         0.00000E+00
    0.35792E-07        -0.93132E-20         0.00000E+00
    0.35540E-07         0.10636E-19         0.00000E+00
    0.35293E-07         0.11176E-19         0.00000E+00
    0.35050E-07         0.25964E-19         0.00000E+00
    0.34813E-07         0.23851E-19         0.00000E+00
    0.34581E-07         0.55879E-20         0.00000E+00
    0.34356E-07         0.55879E-20         0.00000E+00
    0.34138E-07        -0.55879E-20         0.00000E+00
    0.33927E-07        -0.22352E-19         0.00000E+00
    0.33724E-07         0.00000E+00         0.00000E+00
    0.33528E-07        -0.31665E-19         0.00000E+00
    0.33342E-07        -0.37253E-20         0.00000E+00
    0.33164E-07        -0.41674E-20         0.00000E+00
    0.32995E-07        -0.19983E-19         0.00000E+00
    0.32836E-07        -0.16746E-19         0.00000E+00
    0.32686E-07        -0.44488E-19         0.00000E+00
    0.32546E-07        -0.18626E-19         0.00000E+00
    0.32415E-07        -0.20489E-19         0.00000E+00
    0.32295E-07        -0.26077E-19         0.00000E+00
    0.32186E-07        -0.11176E-19         0.00000E+00
    0.32086E-07        -0.13477E-19         0.00000E+00
    0.31997E-07        -0.18626E-20         0.00000E+00
    0.31919E-07        -0.11176E-19         0.00000E+00
    0.31850E-07        -0.65193E-20         0.00000E+00
    0.31793E-07        -0.36224E-19         0.00000E+00
    0.31746E-07        -0.20489E-19         0.00000E+00
    0.31709E-07        -0.19433E-19         0.00000E+00
    0.31682E-07        -0.27334E-19         0.00000E+00
    0.31665E-07        -0.13970E-19         0.00000E+00
    0.31658E-07        -0.38184E-19         0.00000E+00
    0.31662E-07        -0.24214E-19         0.00000E+00
    0.31674E-07        -0.30997E-19         0.00000E+00
    0.31696E-07        -0.52154E-19         0.00000E+00
    0.31727E-07        -0.18626E-19         0.00000E+00
    0.31767E-07        -0.27940E-19         0.00000E+00
    0.31815E-07        -0.20489E-19         0.00000E+00
    0.31872E-07        -0.21144E-19         0.00000E+00
    0.31936E-07        -0.94890E-20         0.00000E+00
    0.32008E-07        -0.20187E-19         0.00000E+00
    0.32086E-07        -0.13039E-19         0.00000E+00
    0.32172E-07        -0.93132E-20         0.00000E+00
    0.32263E-07         0.55879E-20         0.00000E+00
    0.32360E-07         0.20489E-19         0.00000E+00
    0.32462E-07         0.37253E-19         0.00000E+00
    0.32568E-07         0.00000E+00         0.00000E+00
    0.32679E-07         0.33528E-19         0.00000E+00
    0.32793E-07         0.18626E-19         0.00000E+00
    0.32910E-07         0.93132E-20         0.00000E+00
    0.33029E-07         0.74506E-20         0.00000E+00
    0.33150E-07         0.24214E-19         0.00000E+00
    0.33271E-07        -0.19208E-19         0.00000E+00
    0.33393E-07         0.11985E-19         0.00000E+00
    0.33515E-07         0.18626E-20         0.00000E+00
    0.33635E-07         0.26077E-19         0.00000E+00
    0.33754E-07         0.11805E-19         0.00000E+00
    0.33871E-07         0.16599E-19         0.00000E+00
    0.33984E-07         0.11749E-19         0.00000E+00
    0.34093E-07         0.26813E-19         0.00000E+00
    0.34198E-07         0.58397E-20         0.00000E+00
    0.34298E-07         0.24214E-19         0.00000E+00
    0.34392E-07         0.14690E-19         0.00000E+00
    0.34479E-07         0.13970E-19         0.00000E+00
    0.34559E-07         0.30734E-19         0.00000E+00
    0.34631E-07         0.12107E-19         0.00000E+00
    0.34695E-07         0.37253E-19         0.00000E+00
    0.34751E-07         0.24214E-19         0.00000E+00
    0.34796E-07         0.20489E-19         0.00000E+00
    0.34833E-07        -0.18626E-20         0.00000E+00
    0.34859E-07         0.22352E-19         0.00000E+00
    0.34874E-07        -0.18626E-20         0.00000E+00
    0.34880E-07         0.00000E+00         0.00000E+00
    0.41429E-07         0.00000E+00         0.00000E+00
    0.41419E-07         0.11176E-19         0.00000E+00
    0.41392E-07         0.74506E-20         0.00000E+00
    0.41346E-07         0.55226E-19         0.00000E+00
    0.41282E-07         0.44703E-19         0.00000E+00
    0.41201E-07         0.55879E-19         0.00000E+00
    0.41103E-07         0.19072E-19         0.00000E+00
    0.40989E-07         0.33528E-19         0.00000E+00
    0.40859E-07         0.20489E-19         0.00000E+00
    0.40714E-07        -0.18626E-20         0.00000E+00
    0.40555E-07         0.74506E-20         0.00000E+00
    0.40383E-07         0.97166E-20         0.00000E+00
    0.40199E-07         0.18151E-19         0.00000E+00
    0.40003E-07         0.33528E-19         0.00000E+00
    0.39796E-07         0.13039E-19         0.00000E+00
    0.39580E-07         0.88666E-20         0.00000E+00
    0.39356E-07         0.18626E-19         0.00000E+00
    0.39123E-07         0.18423E-19         0.00000E+00
    0.38884E-07        -0.26077E-19         0.00000E+00
    0.38638E-07        -0.14901E-19         0.00000E+00
    0.38388E-07         0.74506E-20         0.00000E+00
    0.38133E-07         0.74506E-20         0.00000E+00
    0.37875E-07         0.14163E-20         0.00000E+00
    0.37615E-07        -0.52766E-20         0.00000E+00
    0.37353E-07        -0.29625E-19         0.00000E+00
    0.37090E-07         0.18626E-20         0.00000E+00
    0.36828E-07        -0.74506E-20         0.00000E+00
    0.36566E-07         0.29802E-19         0.00000E+00
    0.36306E-07        -0.55879E-20         0.00000E+00
    0.36047E-07        -0.18626E-19         0.00000E+00
    0.35792E-07         0.16479E-19         0.00000E+00
    0.35540E-07         0.13970E-19         0.00000E+00
    0.35293E-07         0.24214E-19         0.00000E+00
    0.35050E-07         0.39116E-19         0.00000E+00
    0.34813E-07         0.30166E-19         0.00000E+00
    0.34581E-07         0.18626E-20         0.00000E+00
    0.34356E-07         0.93132E-20         0.00000E+00
    0.34138E-07        -0.37253E-20         0.00000E+00
    0.33927E-07        -0.22352E-19         0.00000E+00
    0.33724E-07        -0.18626E-20         0.00000E+00
    0.33528E-07        -0.74162E-20         0.00000E+00
    0.33342E-07        -0.14901E-19         0.00000E+00
    0.33164E-07         0.78927E-20         0.00000E+00
    0.32995E-07        -0.55879E-20         0.00000E+00
    0.32836E-07        -0.27940E-19         0.00000E+00
    0.32686E-07        -0.20489E-19         0.00000E+00
    0.32546E-07        -0.28388E-19         0.00000E+00
    0.32415E-07        -0.24214E-19         0.00000E+00
    0.32295E-07        -0.14881E-19         0.00000E+00
    0.32186E-07        -0.20489E-19         0.00000E+00
    0.32086E-07        -0.55879E-20         0.00000E+00
    0.31997E-07         0.18626E-20         0.00000E+00
    0.31919E-07        -0.20489E-19         0.00000E+00
    0.31850E-07         0.61382E-20         0.00000E+00
    0.31793E-07        -0.27940E-19         0.00000E+00
    0.31746E-07        -0.27940E-19         0.00000E+00
    0.31709E-07        -0.31665E-19         0.00000E+00
    0.31682E-07        -0.11176E-19         0.00000E+00
    0.31665E-07        -0.15677E-19         0.00000E+00
    0.31658E-07        -0.21715E-19         0.00000E+00
    0.31662E-07        -0.34459E-19         0.00000E+00
    0.31674E-07        -0.46566E-19         0.00000E+00
    0.31696E-07        -0.45635E-19         0.00000E+00
    0.31727E-07        -0.33528E-19         0.00000E+00
    0.31767E-07        -0.20489E-19         0.00000E+00
    0.31815E-07        -0.37253E-19         0.00000E+00
    0.31872E-07         0.18626E-20         0.00000E+00
    0.31936E-07        -0.44809E-20         0.00000E+00
    0.32008E-07        -0.23585E-19         0.00000E+00
    0.32086E-07        -0.18626E-19         0.00000E+00
    0.32172E-07        -0.14901E-19         0.00000E+00
    0.32263E-07         0.00000E+00         0.00000E+00
    0.32360E-07         0.22352E-19         0.00000E+00
    0.32462E-07         0.11176E-19         0.00000E+00
    0.32568E-07        -0.18626E-20         0.00000E+00
    0.32679E-07         0.22352E-19         0.00000E+00
    0.32793E-07         0.16764E-19         0.00000E+00
    0.32910E-07         0.00000E+00         0.00000E+00
    0.33029E-07        -0.18626E-20         0.00000E+00
    0.33150E-07        -0.55879E-20         0.00000E+00
    0.33271E-07        -0.11176E-19         0.00000E+00
    0.33393E-07         0.37253E-20         0.00000E+00
    0.33515E-07         0.13039E-19         0.00000E+00
    0.33635E-07         0.24214E-19         0.00000E+00
    0.33754E-07         0.11793E-19         0.00000E+00
    0.33871E-07         0.48211E-20         0.00000E+00
    0.33984E-07         0.74506E-20         0.00000E+00
    0.34093E-07         0.25146E-19         0.00000E+00
    0.34198E-07         0.00000E+00         0.00000E+00
    0.34298E-07         0.69837E-20         0.00000E+00
    0.34392E-07         0.31665E-19         0.00000E+00
    0.34479E-07         0.43797E-20         0.00000E+00
    0.34559E-07         0.40212E-19         0.00000E+00
    0.34631E-07         0.24820E-19         0.00000E+00
    0.34695E-07         0.14901E-19         0.00000E+00
    0.34751E-07         0.31665E-19         0.00000E+00
    0.34796E-07         0.11235E-19         0.00000E+00
    0.34833E-07         0.11176E-19         0.00000E+00
    0.34859E-07         0.00000E+00         0.00000E+00
    0.34874E-07         0.13039E-19         0.00000E+00
    0.34880E-07         0.00000E+00         0.00000E+00
    0.41429E-07         0.00000E+00         0.00000E+00
    0.41419E-07        -0.22352E-19         0.00000E+00
    0.41392E-07         0.55879E-19         0.00000E+00
    0.41346E-07         0.29802E-19         0.00000E+00
    0.41282E-07         0.26077E-19         0.00000E+00
    0.41201E-07         0.44703E-19         0.00000E+00
    0.41103E-07         0.14901E-19         0.00000E+00
    0.40989E-07         0.26077E-19         0.00000E+00
    0.40859E-07         0.55879E-20         0.00000E+00
    0.40714E-07         0.16764E-19         0.00000E+00
    0.40555E-07         0.18626E-20         0.00000E+00
    0.40383E-07         0.42841E-19         0.00000E+00
    0.40199E-07        -0.55879E-20         0.00000E+00
    0.40003E-07         0.42841E-19         0.00000E+00
    0.39796E-07         0.11176E-19         0.00000E+00
    0.39580E-07         0.93132E-20         0.00000E+00
    0.39356E-07         0.74506E-20         0.00000E+00
    0.39123E-07         0.31868E-19         0.00000E+00
    0.38884E-07         0.18626E-20         0.00000E+00
    0.38638E-07        -0.42841E-19         0.00000E+00
    0.38388E-07         0.37253E-20         0.00000E+00
    0.38133E-07         0.21420E-19         0.00000E+00
    0.37875E-07        -0.93132E-20         0.00000E+00
    0.37615E-07         0.37253E-20         0.00000E+00
    0.37353E-07        -0.46566E-19         0.00000E+00
    0.37090E-07        -0.12994E-19         0.00000E+00
    0.36828E-07        -0.11176E-19         0.00000E+00
    0.36566E-07         0.13039E-19         0.00000E+00
    0.36306E-07        -0.55879E-20         0.00000E+00
    0.36047E-07        -0.18626E-20         0.00000E+00
    0.35792E-07        -0.18626E-20         0.00000E+00
    0.35540E-07         0.31857E-20         0.00000E+00
    0.35293E-07         0.18626E-19         0.00000E+00
    0.35050E-07         0.29802E-19         0.00000E+00
    0.34813E-07         0.23851E-19         0.00000E+00
    0.34581E-07         0.74506E-20         0.00000E+00
    0.34356E-07         0.18626E-20         0.00000E+00
    0.34138E-07         0.55879E-20         0.00000E+00
    0.33927E-07        -0.16764E-19         0.00000E+00
    0.33724E-07        -0.55879E-20         0.00000E+00
    0.33528E-07        -0.24214E-19         0.00000E+00
    0.33342E-07        -0.14901E-19         0.00000E+00
    0.33164E-07        -0.27940E-19         0.00000E+00
    0.32995E-07        -0.13970E-19         0.00000E+00
    0.32836E-07        -0.31665E-19         0.00000E+00
    0.32686E-07        -0.16764E-19         0.00000E+00
    0.32546E-07        -0.39116E-19         0.00000E+00
    0.32415E-07        -0.34459E-19         0.00000E+00
    0.32295E-07        -0.14901E-19         0.00000E+00
    0.32186E-07        -0.18626E-19         0.00000E+00
    0.32086E-07        -0.97520E-20         0.00000E+00
    0.31997E-07        -0.13039E-19         0.00000E+00
    0.31919E-07        -0.22352E-19         0.00000E+00
    0.31850E-07        -0.14901E-19         0.00000E+00
    0.31793E-07        -0.22352E-19         0.00000E+00
    0.31746E-07        -0.42841E-19         0.00000E+00
    0.31709E-07        -0.33528E-19         0.00000E+00
    0.31682E-07        -0.18626E-19         0.00000E+00
    0.31665E-07        -0.93132E-20         0.00000E+00
    0.31658E-07        -0.33528E-19         0.00000E+00
    0.31662E-07        -0.47311E-19         0.00000E+00
    0.31674E-07        -0.44703E-19         0.00000E+00
    0.31696E-07        -0.30516E-19         0.00000E+00
    0.31727E-07        -0.26077E-19         0.00000E+00
    0.31767E-07        -0.16764E-19         0.00000E+00
    0.31815E-07        -0.30734E-19         0.00000E+00
    0.31872E-07         0.24214E-19         0.00000E+00
    0.31936E-07        -0.93132E-20         0.00000E+00
    0.32008E-07        -0.19256E-19         0.00000E+00
    0.32086E-07        -0.11176E-19         0.00000E+00
    0.32172E-07        -0.55879E-20         0.00000E+00
    0.32263E-07         0.93132E-20         0.00000E+00
    0.32360E-07         0.93132E-20         0.00000E+00
    0.32462E-07        -0.37253E-20         0.00000E+00
    0.32568E-07         0.74506E-20         0.00000E+00
    0.32679E-07         0.14901E-19         0.00000E+00
    0.32793E-07         0.18626E-19         0.00000E+00
    0.32910E-07         0.55879E-20         0.00000E+00
    0.33029E-07        -0.37253E-20         0.00000E+00
    0.33150E-07        -0.18626E-19         0.00000E+00
    0.33271E-07         0.13039E-19         0.00000E+00
    0.33393E-07        -0.37253E-20         0.00000E+00
    0.33515E-07         0.18626E-19         0.00000E+00
    0.33635E-07         0.14901E-19         0.00000E+00
    0.33754E-07         0.49710E-20         0.00000E+00
    0.33871E-07         0.65193E-20         0.00000E+00
    0.33984E-07         0.19558E-19         0.00000E+00
    0.34093E-07         0.21616E-19         0.00000E+00
    0.34198E-07         0.16764E-19         0.00000E+00
    0.34298E-07        -0.11874E-19         0.00000E+00
    0.34392E-07         0.27008E-19         0.00000E+00
    0.34479E-07         0.13039E-19         0.00000E+00
    0.34559E-07         0.29802E-19         0.00000E+00
    0.34631E-07         0.28871E-19         0.00000E+00
    0.34695E-07         0.13970E-19         0.00000E+00
    0.34751E-07         0.44325E-19         0.00000E+00
    0.34796E-07         0.17695E-19         0.00000E+00
    0.34833E-07         0.93132E-20         0.00000E+00
    0.34859E-07         0.18626E-20         0.00000E+00
    0.34874E-07         0.18626E-19         0.00000E+00
    0.34880E-07         0.00000E+00         0.00000E+00
    0.41429E-07         0.00000E+00         0.00000E+00
    0.41419E-07         0.74506E-20         0.00000E+00
    0.41392E-07         0.42841E-19         0.00000E+00
    0.41346E-07         0.19280E-19         0.00000E+00
    0.41282E-07         0.26077E-19         0.00000E+00
    0.41201E-07         0.14901E-19         0.00000E+00
    0.41103E-07         0.70335E-19         0.00000E+00
    0.40989E-07         0.37253E-19         0.00000E+00
    0.40859E-07         0.39116E-19         0.00000E+00
    0.40714E-07         0.16764E-19         0.00000E+00
    0.40555E-07         0.18626E-19         0.00000E+00
    0.40383E-07         0.48025E-19         0.00000E+00
    0.40199E-07         0.51319E-20         0.00000E+00
    0.40003E-07         0.35390E-19         0.00000E+00
    0.39796E-07         0.16764E-19         0.00000E+00
    0.39580E-07         0.31665E-19         0.00000E+00
    0.39356E-07        -0.37253E-20         0.00000E+00
    0.39123E-07         0.15629E-19         0.00000E+00
    0.38884E-07         0.26077E-19         0.00000E+00
    0.38638E-07        -0.24214E-19         0.00000E+00
    0.38388E-07         0.93132E-20         0.00000E+00
    0.38133E-07         0.34905E-21         0.00000E+00
    0.37875E-07         0.41716E-20         0.00000E+00
    0.37615E-07        -0.58993E-20         0.00000E+00
    0.37353E-07        -0.57652E-20         0.00000E+00
    0.37090E-07        -0.26077E-19         0.00000E+00
    0.36828E-07         0.18626E-20         0.00000E+00
    0.36566E-07        -0.18626E-20         0.00000E+00
    0.36306E-07        -0.37253E-20         0.00000E+00
    0.36047E-07         0.11176E-19         0.00000E+00
    0.35792E-07        -0.14901E-19         0.00000E+00
    0.35540E-07        -0.93132E-20         0.00000E+00
    0.35293E-07         0.14901E-19         0.00000E+00
    0.35050E-07         0.00000E+00         0.00000E+00
    0.34813E-07         0.11539E-19         0.00000E+00
    0.34581E-07         0.10245E-19         0.00000E+00
    0.34356E-07         0.18626E-20         0.00000E+00
    0.34138E-07         0.18626E-20         0.00000E+00
    0.33927E-07        -0.14901E-19         0.00000E+00
    0.33724E-07        -0.11176E-19         0.00000E+00
    0.33528E-07        -0.32631E-19         0.00000E+00
    0.33342E-07        -0.16764E-19         0.00000E+00
    0.33164E-07        -0.40978E-19         0.00000E+00
    0.32995E-07        -0.30055E-19         0.00000E+00
    0.32836E-07        -0.37235E-19         0.00000E+00
    0.32686E-07        -0.33744E-19         0.00000E+00
    0.32546E-07        -0.29802E-19         0.00000E+00
    0.32415E-07        -0.52834E-19         0.00000E+00
    0.32295E-07        -0.27960E-19         0.00000E+00
    0.32186E-07        -0.20489E-19         0.00000E+00
    0.32086E-07        -0.23776E-19         0.00000E+00
    0.31997E-07        -0.14901E-19         0.00000E+00
    0.31919E-07        -0.20489E-19         0.00000E+00
    0.31850E-07        -0.31665E-19         0.00000E+00
    0.31793E-07        -0.35390E-19         0.00000E+00
    0.31746E-07        -0.44703E-19         0.00000E+00
    0.31709E-07        -0.31665E-19         0.00000E+00
    0.31682E-07        -0.27940E-19         0.00000E+00
    0.31665E-07        -0.55879E-20         0.00000E+00
    0.31658E-07        -0.48429E-19         0.00000E+00
    0.31662E-07        -0.42841E-19         0.00000E+00
    0.31674E-07        -0.23283E-19         0.00000E+00
    0.31696E-07        -0.26295E-19         0.00000E+00
    0.31727E-07        -0.16764E-19         0.00000E+00
    0.31767E-07        -0.14901E-19         0.00000E+00
    0.31815E-07        -0.14698E-19         0.00000E+00
    0.31872E-07         0.20489E-19         0.00000E+00
    0.31936E-07        -0.15832E-19         0.00000E+00
    0.32008E-07        -0.27311E-19         0.00000E+00
    0.32086E-07        -0.93132E-21         0.00000E+00
    0.32172E-07         0.55879E-20         0.00000E+00
    0.32263E-07        -0.18626E-20         0.00000E+00
    0.32360E-07         0.93132E-20         0.00000E+00
    0.32462E-07        -0.12107E-19         0.00000E+00
    0.32568E-07         0.65193E-20         0.00000E+00
    0.32679E-07         0.55879E-20         0.00000E+00
    0.32793E-07         0.20489E-19         0.00000E+00
    0.32910E-07        -0.55879E-20         0.00000E+00
    0.33029E-07        -0.18626E-20         0.00000E+00
    0.33150E-07        -0.93132E-20         0.00000E+00
    0.33271E-07         0.22352E-19         0.00000E+00
    0.33393E-07        -0.11176E-19         0.00000E+00
    0.33515E-07         0.24214E-19         0.00000E+00
    0.33635E-07         0.93132E-20         0.00000E+00
    0.33754E-07         0.10861E-19         0.00000E+00
    0.33871E-07         0.82175E-20         0.00000E+00
    0.33984E-07         0.33241E-19         0.00000E+00
    0.34093E-07         0.20489E-19         0.00000E+00
    0.34198E-07         0.28191E-19         0.00000E+00
    0.34298E-07        -0.93132E-21         0.00000E+00
    0.34392E-07         0.14181E-19         0.00000E+00
    0.34479E-07         0.15832E-19         0.00000E+00
    0.34559E-07         0.23283E-19         0.00000E+00
    0.34631E-07         0.26403E-19         0.00000E+00
    0.34695E-07         0.30848E-19         0.00000E+00
    0.34751E-07         0.37253E-19         0.00000E+00
    0.34796E-07         0.26949E-19         0.00000E+00
    0.34833E-07         0.16764E-19         0.00000E+00
    0.34859E-07        -0.74506E-20         0.00000E+00
    0.34874E-07         0.14901E-19         0.00000E+00
    0.34880E-07         0.00000E+00         0.00000E+00
    0.41429E-07         0.00000E+00         0.00000E+00
    0.41419E-07         0.16455E-19         0.00000E+00
    0.41392E-07         0.14266E-19         0.00000E+00
    0.41346E-07         0.31012E-19         0.00000E+00
    0.41282E-07         0.79696E-20         0.00000E+00
    0.41201E-07         0.44703E-19         0.00000E+00
    0.41103E-07         0.56325E-19         0.00000E+00
    0.40989E-07         0.81956E-19         0.00000E+00
    0.40859E-07         0.53831E-19         0.00000E+00
    0.40714E-07         0.33528E-19         0.00000E+00
    0.40555E-07        -0.93132E-20         0.00000E+00
    0.40383E-07         0.36322E-19         0.00000E+00
    0.40199E-07         0.33984E-19         0.00000E+00
    0.40003E-07         0.37253E-20         0.00000E+00
    0.39796E-07         0.26077E-19         0.00000E+00
    0.39580E-07         0.40978E-19         0.00000E+00
    0.39356E-07         0.15245E-19         0.00000E+00
    0.39123E-07        -0.74506E-20         0.00000E+00
    0.38884E-07         0.18626E-20         0.00000E+00
    0.38638E-07        -0.11176E-19         0.00000E+00
    0.38388E-07        -0.18626E-20         0.00000E+00
    0.38133E-07        -0.31430E-20         0.00000E+00
    0.37875E-07         0.27008E-19         0.00000E+00
    0.37615E-07        -0.25766E-19         0.00000E+00
    0.37353E-07         0.12284E-19         0.00000E+00
    0.37090E-07        -0.23283E-19         0.00000E+00
    0.36828E-07         0.18626E-19         0.00000E+00
    0.36566E-07        -0.22352E-19         0.00000E+00
    0.36306E-07         0.18626E-19         0.00000E+00
    0.36047E-07         0.00000E+00         0.00000E+00
    0.35792E-07        -0.74506E-20         0.00000E+00
    0.35540E-07        -0.13430E-19         0.00000E+00
    0.35293E-07         0.38636E-20         0.00000E+00
    0.35050E-07        -0.29073E-20         0.00000E+00
    0.34813E-07        -0.74506E-20         0.00000E+00
    0.34581E-07         0.12427E-19         0.00000E+00
    0.34356E-07        -0.14901E-19         0.00000E+00
    0.34138E-07        -0.22523E-19         0.00000E+00
    0.33927E-07        -0.13039E-19         0.00000E+00
    0.33724E-07        -0.27940E-19         0.00000E+00
    0.33528E-07        -0.25111E-19         0.00000E+00
    0.33342E-07        -0.33732E-19         0.00000E+00
    0.33164E-07        -0.30244E-19         0.00000E+00
    0.32995E-07        -0.31412E-19         0.00000E+00
    0.32836E-07        -0.24214E-19         0.00000E+00
    0.32686E-07        -0.57958E-19         0.00000E+00
    0.32546E-07        -0.20006E-19         0.00000E+00
    0.32415E-07        -0.54948E-19         0.00000E+00
    0.32295E-07        -0.40027E-19         0.00000E+00
    0.32186E-07        -0.22352E-19         0.00000E+00
    0.32086E-07        -0.37692E-19         0.00000E+00
    0.31997E-07        -0.31401E-19         0.00000E+00
    0.31919E-07        -0.20489E-19         0.00000E+00
    0.31850E-07        -0.50291E-19         0.00000E+00
    0.31793E-07        -0.35390E-19         0.00000E+00
    0.31746E-07        -0.48429E-19         0.00000E+00
    0.31709E-07        -0.27940E-19         0.00000E+00
    0.31682E-07        -0.20489E-19         0.00000E+00
    0.31665E-07        -0.32596E-19         0.00000E+00
    0.31658E-07        -0.43772E-19         0.00000E+00
    0.31662E-07        -0.36322E-19         0.00000E+00
    0.31674E-07        -0.13302E-19         0.00000E+00
    0.31696E-07        -0.42623E-19         0.00000E+00
    0.31727E-07        -0.36322E-19         0.00000E+00
    0.31767E-07        -0.74506E-20         0.00000E+00
    0.31815E-07        -0.11379E-19         0.00000E+00
    0.31872E-07         0.12081E-20         0.00000E+00
    0.31936E-07        -0.24566E-19         0.00000E+00
    0.32008E-07        -0.14901E-19         0.00000E+00
    0.32086E-07        -0.15211E-21         0.00000E+00
    0.32172E-07         0.17088E-19         0.00000E+00
    0.32263E-07        -0.74506E-20         0.00000E+00
    0.32360E-07         0.37253E-20         0.00000E+00
    0.32462E-07        -0.11294E-19         0.00000E+00
    0.32568E-07         0.40777E-20         0.00000E+00
    0.32679E-07        -0.93132E-20         0.00000E+00
    0.32793E-07        -0.18626E-20         0.00000E+00
    0.32910E-07        -0.18626E-20         0.00000E+00
    0.33029E-07         0.00000E+00         0.00000E+00
    0.33150E-07         0.74506E-20         0.00000E+00
    0.33271E-07         0.55879E-20         0.00000E+00
    0.33393E-07         0.55879E-20         0.00000E+00
    0.33515E-07         0.26077E-19         0.00000E+00
    0.33635E-07         0.65193E-20         0.00000E+00
    0.33754E-07         0.37567E-19         0.00000E+00
    0.33871E-07         0.10245E-19         0.00000E+00
    0.33984E-07         0.31951E-19         0.00000E+00
    0.34093E-07         0.35390E-19         0.00000E+00
    0.34198E-07         0.22352E-19         0.00000E+00
    0.34298E-07         0.28638E-19         0.00000E+00
    0.34392E-07         0.18838E-19         0.00000E+00
    0.34479E-07         0.20212E-19         0.00000E+00
    0.34559E-07         0.12272E-19         0.00000E+00
    0.34631E-07         0.29477E-19         0.00000E+00
    0.34695E-07         0.37253E-19         0.00000E+00
    0.34751E-07         0.23283E-19         0.00000E+00
    0.34796E-07         0.22411E-19         0.00000E+00
    0.34833E-07         0.18626E-19         0.00000E+00
    0.34859E-07        -0.11176E-19         0.00000E+00
    0.34874E-07         0.37253E-20         0.00000E+00
    0.34880E-07         0.00000E+00         0.00000E+00
    0.41429E-07         0.00000E+00         0.00000E+00
    0.41419E-07         0.24793E-20         0.00000E+00
    0.41392E-07         0.18034E-19         0.00000E+00
    0.41346E-07         0.36044E-19         0.00000E+00
    0.41282E-07        -0.10380E-20         0.00000E+00
    0.41201E-07         0.48429E-19         0.00000E+00
    0.41103E-07         0.59159E-19         0.00000E+00
    0.40989E-07         0.74506E-19         0.00000E+00
    0.40859E-07         0.48801E-19         0.00000E+00
    0.40714E-07         0.33528E-19         0.00000E+00
    0.40555E-07         0.74506E-20         0.00000E+00
    0.40383E-07         0.50167E-19         0.00000E+00
    0.40199E-07         0.21896E-19         0.00000E+00
    0.40003E-07         0.13039E-19         0.00000E+00
    0.39796E-07         0.16764E-19         0.00000E+00
    0.39580E-07         0.23730E-19         0.00000E+00
    0.39356E-07         0.22596E-19         0.00000E+00
    0.39123E-07        -0.20489E-19         0.00000E+00
    0.38884E-07         0.18626E-20         0.00000E+00
    0.38638E-07        -0.27940E-19         0.00000E+00
    0.38388E-07        -0.14901E-19         0.00000E+00
    0.38133E-07         0.11176E-19         0.00000E+00
    0.37875E-07         0.24253E-19         0.00000E+00
    0.37615E-07        -0.14592E-19         0.00000E+00
    0.37353E-07         0.54107E-20         0.00000E+00
    0.37090E-07        -0.10289E-19         0.00000E+00
    0.36828E-07         0.74506E-20         0.00000E+00
    0.36566E-07        -0.27940E-19         0.00000E+00
    0.36306E-07         0.16764E-19         0.00000E+00
    0.36047E-07        -0.16764E-19         0.00000E+00
    0.35792E-07         0.95976E-20         0.00000E+00
    0.35540E-07        -0.74506E-20         0.00000E+00
    0.35293E-07         0.16487E-19         0.00000E+00
    0.35050E-07        -0.14675E-19         0.00000E+00
    0.34813E-07         0.93132E-20         0.00000E+00
    0.34581E-07         0.10856E-19         0.00000E+00
    0.34356E-07        -0.83819E-20         0.00000E+00
    0.34138E-07        -0.41738E-19         0.00000E+00
    0.33927E-07        -0.13039E-19         0.00000E+00
    0.33724E-07        -0.35390E-19         0.00000E+00
    0.33528E-07        -0.30768E-19         0.00000E+00
    0.33342E-07        -0.46362E-19         0.00000E+00
    0.33164E-07        -0.40536E-19         0.00000E+00
    0.32995E-07        -0.30055E-19         0.00000E+00
    0.32836E-07        -0.31701E-19         0.00000E+00
    0.32686E-07        -0.42409E-19         0.00000E+00
    0.32546E-07        -0.50325E-19         0.00000E+00
    0.32415E-07        -0.41229E-19         0.00000E+00
    0.32295E-07        -0.47518E-19         0.00000E+00
    0.32186E-07        -0.33528E-19         0.00000E+00
    0.32086E-07        -0.33089E-19         0.00000E+00
    0.31997E-07        -0.44968E-19         0.00000E+00
    0.31919E-07        -0.16764E-19         0.00000E+00
    0.31850E-07        -0.42841E-19         0.00000E+00
    0.31793E-07        -0.27940E-19         0.00000E+00
    0.31746E-07        -0.35390E-19         0.00000E+00
    0.31709E-07        -0.40978E-19         0.00000E+00
    0.31682E-07        -0.18626E-19         0.00000E+00
    0.31665E-07        -0.50446E-19         0.00000E+00
    0.31658E-07        -0.23919E-19         0.00000E+00
    0.31662E-07        -0.29057E-19         0.00000E+00
    0.31674E-07        -0.11844E-19         0.00000E+00
    0.31696E-07        -0.46784E-19         0.00000E+00
    0.31727E-07        -0.90808E-20         0.00000E+00
    0.31767E-07         0.68302E-21         0.00000E+00
    0.31815E-07         0.20282E-21         0.00000E+00
    0.31872E-07        -0.70728E-20         0.00000E+00
    0.31936E-07        -0.18275E-19         0.00000E+00
    0.32008E-07        -0.74506E-20         0.00000E+00
    0.32086E-07         0.15211E-21         0.00000E+00
    0.32172E-07         0.14577E-19         0.00000E+00
    0.32263E-07        -0.37253E-20         0.00000E+00
    0.32360E-07         0.18626E-20         0.00000E+00
    0.32462E-07         0.57063E-20         0.00000E+00
    0.32568E-07        -0.40777E-20         0.00000E+00
    0.32679E-07        -0.37253E-20         0.00000E+00
    0.32793E-07        -0.14901E-19         0.00000E+00
    0.32910E-07         0.11176E-19         0.00000E+00
    0.33029E-07         0.00000E+00         0.00000E+00
    0.33150E-07         0.13039E-19         0.00000E+00
    0.33271E-07         0.11176E-19         0.00000E+00
    0.33393E-07         0.18626E-19         0.00000E+00
    0.33515E-07         0.22352E-19         0.00000E+00
    0.33635E-07         0.14110E-19         0.00000E+00
    0.33754E-07         0.38801E-19         0.00000E+00
    0.33871E-07         0.15066E-19         0.00000E+00
    0.33984E-07         0.14615E-19         0.00000E+00
    0.34093E-07         0.23283E-19         0.00000E+00
    0.34198E-07         0.21848E-19         0.00000E+00
    0.34298E-07         0.45170E-19         0.00000E+00
    0.34392E-07         0.35899E-19         0.00000E+00
    0.34479E-07         0.21043E-19         0.00000E+00
    0.34559E-07         0.89832E-20         0.00000E+00
    0.34631E-07         0.11501E-19         0.00000E+00
    0.34695E-07         0.25963E-19         0.00000E+00
    0.34751E-07         0.26456E-19         0.00000E+00
    0.34796E-07         0.39056E-19         0.00000E+00
    0.34833E-07         0.15832E-19         0.00000E+00
    0.34859E-07         0.74506E-20         0.00000E+00
    0.34874E-07         0.37253E-20         0.00000E+00
    0.34880E-07         0.00000E+00         0.00000E+00
    0.41429E-07         0.00000E+00         0.00000E+00
    0.41419E-07        -0.61667E-21         0.00000E+00
    0.41392E-07         0.22944E-19         0.00000E+00
    0.41346E-07         0.27286E-19         0.00000E+00
    0.41282E-07         0.34566E-19         0.00000E+00
    0.41201E-07         0.63330E-19         0.00000E+00
    0.41103E-07         0.71226E-19         0.00000E+00
    0.40989E-07         0.70781E-19         0.00000E+00
    0.40859E-07         0.54576E-19         0.00000E+00
    0.40714E-07         0.36063E-19         0.00000E+00
    0.40555E-07         0.26077E-19         0.00000E+00
    0.40383E-07         0.17820E-19         0.00000E+00
    0.40199E-07         0.88380E-20         0.00000E+00
    0.40003E-07         0.35390E-19         0.00000E+00
    0.39796E-07         0.93132E-20         0.00000E+00
    0.39580E-07        -0.10691E-19         0.00000E+00
    0.39356E-07        -0.67632E-20         0.00000E+00
    0.39123E-07         0.13039E-19         0.00000E+00
    0.38884E-07         0.16828E-19         0.00000E+00
    0.38638E-07        -0.35390E-19         0.00000E+00
    0.38388E-07        -0.16764E-19         0.00000E+00
    0.38133E-07         0.93132E-20         0.00000E+00
    0.37875E-07         0.15794E-19         0.00000E+00
    0.37615E-07        -0.40340E-20         0.00000E+00
    0.37353E-07        -0.75410E-21         0.00000E+00
    0.37090E-07        -0.46566E-20         0.00000E+00
    0.36828E-07         0.37253E-20         0.00000E+00
    0.36566E-07        -0.93132E-20         0.00000E+00
    0.36306E-07        -0.13039E-19         0.00000E+00
    0.36047E-07        -0.55879E-20         0.00000E+00
    0.35792E-07         0.90289E-20         0.00000E+00
    0.35540E-07        -0.33335E-20         0.00000E+00
    0.35293E-07         0.12384E-19         0.00000E+00
    0.35050E-07        -0.10471E-19         0.00000E+00
    0.34813E-07         0.33528E-19         0.00000E+00
    0.34581E-07         0.14901E-19         0.00000E+00
    0.34356E-07         0.10047E-20         0.00000E+00
    0.34138E-07        -0.23455E-19         0.00000E+00
    0.33927E-07        -0.14901E-19         0.00000E+00
    0.33724E-07        -0.26077E-19         0.00000E+00
    0.33528E-07        -0.35322E-19         0.00000E+00
    0.33342E-07        -0.55879E-19         0.00000E+00
    0.33164E-07        -0.50291E-19         0.00000E+00
    0.32995E-07        -0.33275E-19         0.00000E+00
    0.32836E-07        -0.40942E-19         0.00000E+00
    0.32686E-07        -0.40479E-19         0.00000E+00
    0.32546E-07        -0.67021E-19         0.00000E+00
    0.32415E-07        -0.41659E-19         0.00000E+00
    0.32295E-07        -0.67055E-19         0.00000E+00
    0.32186E-07        -0.40978E-19         0.00000E+00
    0.32086E-07        -0.22352E-19         0.00000E+00
    0.31997E-07        -0.42841E-19         0.00000E+00
    0.31919E-07        -0.24214E-19         0.00000E+00
    0.31850E-07        -0.16764E-19         0.00000E+00
    0.31793E-07        -0.31665E-19         0.00000E+00
    0.31746E-07        -0.93132E-20         0.00000E+00
    0.31709E-07        -0.48429E-19         0.00000E+00
    0.31682E-07        -0.24214E-19         0.00000E+00
    0.31665E-07        -0.36167E-19         0.00000E+00
    0.31658E-07        -0.86769E-20         0.00000E+00
    0.31662E-07        -0.72642E-20         0.00000E+00
    0.31674E-07        -0.13039E-19         0.00000E+00
    0.31696E-07        -0.10958E-19         0.00000E+00
    0.31727E-07         0.13737E-19         0.00000E+00
    0.31767E-07         0.22848E-19         0.00000E+00
    0.31815E-07         0.14570E-20         0.00000E+00
    0.31872E-07         0.52101E-20         0.00000E+00
    0.31936E-07        -0.76263E-20         0.00000E+00
    0.32008E-07         0.18626E-20         0.00000E+00
    0.32086E-07        -0.20148E-20         0.00000E+00
    0.32172E-07         0.18626E-19         0.00000E+00
    0.32263E-07         0.18626E-20         0.00000E+00
    0.32360E-07         0.10585E-19         0.00000E+00
    0.32462E-07         0.20371E-19         0.00000E+00
    0.32568E-07         0.40777E-20         0.00000E+00
    0.32679E-07         0.74506E-20         0.00000E+00
    0.32793E-07         0.74506E-20         0.00000E+00
    0.32910E-07         0.11176E-19         0.00000E+00
    0.33029E-07         0.18626E-20         0.00000E+00
    0.33150E-07         0.18626E-19         0.00000E+00
    0.33271E-07         0.20489E-19         0.00000E+00
    0.33393E-07         0.22352E-19         0.00000E+00
    0.33515E-07         0.39116E-19         0.00000E+00
    0.33635E-07         0.33388E-19         0.00000E+00
    0.33754E-07         0.31440E-21         0.00000E+00
    0.33871E-07         0.13805E-19         0.00000E+00
    0.33984E-07         0.20775E-19         0.00000E+00
    0.34093E-07         0.35295E-20         0.00000E+00
    0.34198E-07         0.30306E-19         0.00000E+00
    0.34298E-07         0.45401E-19         0.00000E+00
    0.34392E-07         0.35813E-19         0.00000E+00
    0.34479E-07         0.27386E-19         0.00000E+00
    0.34559E-07         0.13369E-19         0.00000E+00
    0.34631E-07         0.24684E-20         0.00000E+00
    0.34695E-07         0.15015E-19         0.00000E+00
    0.34751E-07         0.25698E-19         0.00000E+00
    0.34796E-07         0.44703E-19         0.00000E+00
    0.34833E-07         0.14466E-19         0.00000E+00
    0.34859E-07         0.24214E-19         0.00000E+00
    0.34874E-07         0.18626E-20         0.00000E+00
    0.34880E-07         0.00000E+00         0.00000E+00
    0.41429E-07         0.00000E+00         0.00000E+00
    0.41419E-07        -0.18318E-19         0.00000E+00
    0.41392E-07         0.39751E-19         0.00000E+00
    0.41346E-07         0.24868E-19         0.00000E+00
    0.41282E-07         0.36734E-19         0.00000E+00
    0.41201E-07         0.63330E-19         0.00000E+00
    0.41103E-07         0.33082E-19         0.00000E+00
    0.40989E-07         0.44703E-19         0.00000E+00
    0.40859E-07         0.21606E-19         0.00000E+00
    0.40714E-07         0.27267E-19         0.00000E+00
    0.40555E-07         0.14901E-19         0.00000E+00
    0.40383E-07        -0.14498E-19         0.00000E+00
    0.40199E-07        -0.13495E-19         0.00000E+00
    0.40003E-07         0.24214E-19         0.00000E+00
    0.39796E-07         0.74506E-20         0.00000E+00
    0.39580E-07         0.93132E-20         0.00000E+00
    0.39356E-07        -0.50003E-20         0.00000E+00
    0.39123E-07         0.30006E-19         0.00000E+00
    0.38884E-07        -0.11240E-19         0.00000E+00
    0.38638E-07        -0.16764E-19         0.00000E+00
    0.38388E-07        -0.16764E-19         0.00000E+00
    0.38133E-07         0.37253E-20         0.00000E+00
    0.37875E-07         0.14455E-19         0.00000E+00
    0.37615E-07         0.52766E-20         0.00000E+00
    0.37353E-07        -0.20666E-19         0.00000E+00
    0.37090E-07         0.10289E-19         0.00000E+00
    0.36828E-07        -0.18626E-20         0.00000E+00
    0.36566E-07        -0.74506E-20         0.00000E+00
    0.36306E-07        -0.11176E-19         0.00000E+00
    0.36047E-07        -0.37253E-20         0.00000E+00
    0.35792E-07        -0.93132E-20         0.00000E+00
    0.35540E-07         0.19558E-19         0.00000E+00
    0.35293E-07         0.11969E-19         0.00000E+00
    0.35050E-07         0.15014E-19         0.00000E+00
    0.34813E-07         0.36890E-19         0.00000E+00
    0.34581E-07         0.74506E-20         0.00000E+00
    0.34356E-07         0.12965E-19         0.00000E+00
    0.34138E-07         0.38968E-20         0.00000E+00
    0.33927E-07        -0.13039E-19         0.00000E+00
    0.33724E-07        -0.93132E-20         0.00000E+00
    0.33528E-07        -0.41978E-19         0.00000E+00
    0.33342E-07        -0.46566E-19         0.00000E+00
    0.33164E-07        -0.52154E-19         0.00000E+00
    0.32995E-07        -0.42162E-19         0.00000E+00
    0.32836E-07        -0.33546E-19         0.00000E+00
    0.32686E-07        -0.39615E-19         0.00000E+00
    0.32546E-07        -0.57776E-19         0.00000E+00
    0.32415E-07        -0.41910E-19         0.00000E+00
    0.32295E-07        -0.61467E-19         0.00000E+00
    0.32186E-07        -0.35390E-19         0.00000E+00
    0.32086E-07        -0.29802E-19         0.00000E+00
    0.31997E-07        -0.33528E-19         0.00000E+00
    0.31919E-07        -0.31665E-19         0.00000E+00
    0.31850E-07        -0.93132E-20         0.00000E+00
    0.31793E-07        -0.29802E-19         0.00000E+00
    0.31746E-07        -0.27940E-19         0.00000E+00
    0.31709E-07        -0.61467E-19         0.00000E+00
    0.31682E-07        -0.37253E-19         0.00000E+00
    0.31665E-07        -0.27940E-19         0.00000E+00
    0.31658E-07        -0.23283E-19         0.00000E+00
    0.31662E-07        -0.11176E-19         0.00000E+00
    0.31674E-07        -0.26077E-19         0.00000E+00
    0.31696E-07        -0.27940E-20         0.00000E+00
    0.31727E-07        -0.11176E-19         0.00000E+00
    0.31767E-07         0.90649E-20         0.00000E+00
    0.31815E-07        -0.72478E-20         0.00000E+00
    0.31872E-07        -0.12081E-20         0.00000E+00
    0.31936E-07        -0.75557E-21         0.00000E+00
    0.32008E-07        -0.14901E-19         0.00000E+00
    0.32086E-07        -0.10092E-19         0.00000E+00
    0.32172E-07         0.14901E-19         0.00000E+00
    0.32263E-07        -0.11176E-19         0.00000E+00
    0.32360E-07         0.13629E-19         0.00000E+00
    0.32462E-07         0.23401E-19         0.00000E+00
    0.32568E-07         0.80295E-20         0.00000E+00
    0.32679E-07         0.00000E+00         0.00000E+00
    0.32793E-07         0.14901E-19         0.00000E+00
    0.32910E-07         0.14901E-19         0.00000E+00
    0.33029E-07        -0.14901E-19         0.00000E+00
    0.33150E-07         0.20489E-19         0.00000E+00
    0.33271E-07        -0.18626E-20         0.00000E+00
    0.33393E-07         0.20489E-19         0.00000E+00
    0.33515E-07         0.35390E-19         0.00000E+00
    0.33635E-07         0.24214E-19         0.00000E+00
    0.33754E-07        -0.16764E-19         0.00000E+00
    0.33871E-07         0.11176E-19         0.00000E+00
    0.33984E-07         0.30447E-19         0.00000E+00
    0.34093E-07         0.11372E-19         0.00000E+00
    0.34198E-07         0.29551E-19         0.00000E+00
    0.34298E-07         0.39116E-19         0.00000E+00
    0.34392E-07         0.39625E-19         0.00000E+00
    0.34479E-07         0.27285E-19         0.00000E+00
    0.34559E-07         0.16434E-19         0.00000E+00
    0.34631E-07         0.13970E-19         0.00000E+00
    0.34695E-07         0.65193E-20         0.00000E+00
    0.34751E-07         0.19005E-19         0.00000E+00
    0.34796E-07         0.15832E-19         0.00000E+00
    0.34833E-07         0.16267E-19         0.00000E+00
    0.34859E-07         0.26077E-19         0.00000E+00
    0.34874E-07        -0.55879E-20         0.00000E+00
    0.34880E-07         0.00000E+00         0.00000E+00
    0.41429E-07         0.00000E+00         0.00000E+00
    0.41419E-07        -0.33528E-19         0.00000E+00
    0.41392E-07         0.40978E-19         0.00000E+00
    0.41346E-07         0.17973E-19         0.00000E+00
    0.41282E-07         0.22352E-19         0.00000E+00
    0.41201E-07         0.44703E-19         0.00000E+00
    0.41103E-07         0.60050E-19         0.00000E+00
    0.40989E-07         0.22352E-19         0.00000E+00
    0.40859E-07         0.13039E-19         0.00000E+00
    0.40714E-07         0.93132E-20         0.00000E+00
    0.40555E-07         0.29802E-19         0.00000E+00
    0.40383E-07        -0.11176E-19         0.00000E+00
    0.40199E-07        -0.22827E-19         0.00000E+00
    0.40003E-07         0.37253E-20         0.00000E+00
    0.39796E-07         0.74506E-20         0.00000E+00
    0.39580E-07         0.20489E-19         0.00000E+00
    0.39356E-07         0.22352E-19         0.00000E+00
    0.39123E-07         0.27736E-19         0.00000E+00
    0.38884E-07        -0.27940E-19         0.00000E+00
    0.38638E-07         0.16764E-19         0.00000E+00
    0.38388E-07        -0.37253E-20         0.00000E+00
    0.38133E-07        -0.13039E-19         0.00000E+00
    0.37875E-07         0.55879E-20         0.00000E+00
    0.37615E-07         0.14590E-19         0.00000E+00
    0.37353E-07        -0.72734E-20         0.00000E+00
    0.37090E-07         0.16764E-19         0.00000E+00
    0.36828E-07         0.00000E+00         0.00000E+00
    0.36566E-07        -0.55879E-20         0.00000E+00
    0.36306E-07         0.55879E-20         0.00000E+00
    0.36047E-07         0.13039E-19         0.00000E+00
    0.35792E-07         0.37253E-20         0.00000E+00
    0.35540E-07         0.32205E-19         0.00000E+00
    0.35293E-07         0.93132E-20         0.00000E+00
    0.35050E-07         0.27940E-19         0.00000E+00
    0.34813E-07         0.11539E-19         0.00000E+00
    0.34581E-07         0.16764E-19         0.00000E+00
    0.34356E-07         0.16764E-19         0.00000E+00
    0.34138E-07         0.55879E-20         0.00000E+00
    0.33927E-07        -0.93132E-20         0.00000E+00
    0.33724E-07         0.18626E-20         0.00000E+00
    0.33528E-07        -0.44703E-19         0.00000E+00
    0.33342E-07        -0.26077E-19         0.00000E+00
    0.33164E-07        -0.52154E-19         0.00000E+00
    0.32995E-07        -0.39116E-19         0.00000E+00
    0.32836E-07        -0.39116E-19         0.00000E+00
    0.32686E-07        -0.46782E-19         0.00000E+00
    0.32546E-07        -0.62365E-19         0.00000E+00
    0.32415E-07        -0.49611E-19         0.00000E+00
    0.32295E-07        -0.48409E-19         0.00000E+00
    0.32186E-07        -0.35390E-19         0.00000E+00
    0.32086E-07        -0.20928E-19         0.00000E+00
    0.31997E-07        -0.33528E-19         0.00000E+00
    0.31919E-07        -0.24214E-19         0.00000E+00
    0.31850E-07        -0.93132E-20         0.00000E+00
    0.31793E-07        -0.29802E-19         0.00000E+00
    0.31746E-07        -0.42841E-19         0.00000E+00
    0.31709E-07        -0.70781E-19         0.00000E+00
    0.31682E-07        -0.56811E-19         0.00000E+00
    0.31665E-07        -0.52154E-19         0.00000E+00
    0.31658E-07        -0.23919E-19         0.00000E+00
    0.31662E-07        -0.33528E-19         0.00000E+00
    0.31674E-07        -0.40978E-19         0.00000E+00
    0.31696E-07        -0.48744E-20         0.00000E+00
    0.31727E-07        -0.18626E-19         0.00000E+00
    0.31767E-07        -0.74506E-20         0.00000E+00
    0.31815E-07         0.13241E-19         0.00000E+00
    0.31872E-07        -0.18626E-19         0.00000E+00
    0.31936E-07        -0.21420E-19         0.00000E+00
    0.32008E-07        -0.18626E-19         0.00000E+00
    0.32086E-07        -0.11176E-19         0.00000E+00
    0.32172E-07        -0.11176E-19         0.00000E+00
    0.32263E-07         0.18626E-20         0.00000E+00
    0.32360E-07         0.93132E-20         0.00000E+00
    0.32462E-07         0.22352E-19         0.00000E+00
    0.32568E-07         0.37253E-20         0.00000E+00
    0.32679E-07         0.74506E-20         0.00000E+00
    0.32793E-07         0.14901E-19         0.00000E+00
    0.32910E-07         0.26077E-19         0.00000E+00
    0.33029E-07        -0.93132E-20         0.00000E+00
    0.33150E-07         0.18626E-19         0.00000E+00
    0.33271E-07        -0.55879E-20         0.00000E+00
    0.33393E-07         0.20489E-19         0.00000E+00
    0.33515E-07         0.14901E-19         0.00000E+00
    0.33635E-07         0.55879E-20         0.00000E+00
    0.33754E-07         0.55879E-20         0.00000E+00
    0.33871E-07         0.65193E-20         0.00000E+00
    0.33984E-07         0.16764E-19         0.00000E+00
    0.34093E-07         0.17499E-19         0.00000E+00
    0.34198E-07         0.27940E-19         0.00000E+00
    0.34298E-07         0.27008E-19         0.00000E+00
    0.34392E-07         0.43052E-19         0.00000E+00
    0.34479E-07         0.25146E-19         0.00000E+00
    0.34559E-07         0.31240E-20         0.00000E+00
    0.34631E-07         0.36647E-19         0.00000E+00
    0.34695E-07         0.21306E-19         0.00000E+00
    0.34751E-07         0.22905E-19         0.00000E+00
    0.34796E-07         0.10304E-19         0.00000E+00
    0.34833E-07         0.27940E-19         0.00000E+00
    0.34859E-07         0.11176E-19         0.00000E+00
    0.34874E-07         0.55879E-20         0.00000E+00
    0.34880E-07         0.00000E+00         0.00000E+00
    0.41429E-07         0.00000E+00         0.00000E+00
    0.41419E-07         0.74506E-20         0.00000E+00
    0.41392E-07         0.29802E-19         0.00000E+00
    0.41346E-07         0.52154E-19         0.00000E+00
    0.41282E-07         0.55879E-19         0.00000E+00
    0.41201E-07         0.14901E-19         0.00000E+00
    0.41103E-07         0.10058E-18         0.00000E+00
    0.40989E-07         0.00000E+00         0.00000E+00
    0.40859E-07         0.35390E-19         0.00000E+00
    0.40714E-07        -0.55879E-20         0.00000E+00
    0.40555E-07         0.11176E-19         0.00000E+00
    0.40383E-07         0.14901E-19         0.00000E+00
    0.40199E-07        -0.26077E-19         0.00000E+00
    0.40003E-07        -0.74506E-20         0.00000E+00
    0.39796E-07         0.18626E-20         0.00000E+00
    0.39580E-07         0.27940E-19         0.00000E+00
    0.39356E-07         0.35390E-19         0.00000E+00
    0.39123E-07         0.40047E-19         0.00000E+00
    0.38884E-07        -0.18626E-20         0.00000E+00
    0.38638E-07         0.24214E-19         0.00000E+00
    0.38388E-07         0.14901E-19         0.00000E+00
    0.38133E-07        -0.21420E-19         0.00000E+00
    0.37875E-07         0.18626E-20         0.00000E+00
    0.37615E-07         0.77619E-20         0.00000E+00
    0.37353E-07        -0.37253E-20         0.00000E+00
    0.37090E-07         0.12994E-19         0.00000E+00
    0.36828E-07         0.20489E-19         0.00000E+00
    0.36566E-07        -0.37253E-20         0.00000E+00
    0.36306E-07         0.13039E-19         0.00000E+00
    0.36047E-07         0.45662E-19         0.00000E+00
    0.35792E-07         0.24214E-19         0.00000E+00
    0.35540E-07         0.13039E-19         0.00000E+00
    0.35293E-07         0.26077E-19         0.00000E+00
    0.35050E-07         0.27940E-19         0.00000E+00
    0.34813E-07        -0.13039E-19         0.00000E+00
    0.34581E-07         0.30734E-19         0.00000E+00
    0.34356E-07         0.37253E-20         0.00000E+00
    0.34138E-07        -0.13039E-19         0.00000E+00
    0.33927E-07        -0.93132E-20         0.00000E+00
    0.33724E-07        -0.14901E-19         0.00000E+00
    0.33528E-07        -0.27905E-19         0.00000E+00
    0.33342E-07        -0.33528E-19         0.00000E+00
    0.33164E-07        -0.37253E-19         0.00000E+00
    0.32995E-07        -0.36322E-19         0.00000E+00
    0.32836E-07        -0.58691E-19         0.00000E+00
    0.32686E-07        -0.61683E-19         0.00000E+00
    0.32546E-07        -0.47980E-19         0.00000E+00
    0.32415E-07        -0.71712E-19         0.00000E+00
    0.32295E-07        -0.24235E-19         0.00000E+00
    0.32186E-07        -0.39116E-19         0.00000E+00
    0.32086E-07        -0.21913E-19         0.00000E+00
    0.31997E-07        -0.29802E-19         0.00000E+00
    0.31919E-07        -0.19558E-19         0.00000E+00
    0.31850E-07        -0.15832E-19         0.00000E+00
    0.31793E-07        -0.14901E-19         0.00000E+00
    0.31746E-07        -0.46566E-19         0.00000E+00
    0.31709E-07        -0.55879E-19         0.00000E+00
    0.31682E-07        -0.65798E-19         0.00000E+00
    0.31665E-07        -0.61467E-19         0.00000E+00
    0.31658E-07        -0.22647E-19         0.00000E+00
    0.31662E-07        -0.30734E-19         0.00000E+00
    0.31674E-07        -0.29802E-19         0.00000E+00
    0.31696E-07        -0.93132E-20         0.00000E+00
    0.31727E-07        -0.55879E-20         0.00000E+00
    0.31767E-07         0.11176E-19         0.00000E+00
    0.31815E-07         0.10042E-19         0.00000E+00
    0.31872E-07        -0.11176E-19         0.00000E+00
    0.31936E-07        -0.34635E-19         0.00000E+00
    0.32008E-07         0.18626E-19         0.00000E+00
    0.32086E-07         0.27940E-20         0.00000E+00
    0.32172E-07        -0.14901E-19         0.00000E+00
    0.32263E-07         0.18626E-19         0.00000E+00
    0.32360E-07         0.13039E-19         0.00000E+00
    0.32462E-07         0.20489E-19         0.00000E+00
    0.32568E-07         0.24214E-19         0.00000E+00
    0.32679E-07         0.14901E-19         0.00000E+00
    0.32793E-07         0.24214E-19         0.00000E+00
    0.32910E-07         0.55879E-20         0.00000E+00
    0.33029E-07         0.26077E-19         0.00000E+00
    0.33150E-07         0.55879E-20         0.00000E+00
    0.33271E-07         0.74506E-20         0.00000E+00
    0.33393E-07         0.13039E-19         0.00000E+00
    0.33515E-07         0.37253E-20         0.00000E+00
    0.33635E-07         0.74506E-20         0.00000E+00
    0.33754E-07         0.24214E-19         0.00000E+00
    0.33871E-07         0.20271E-20         0.00000E+00
    0.33984E-07         0.46566E-20         0.00000E+00
    0.34093E-07         0.24214E-19         0.00000E+00
    0.34198E-07         0.29551E-19         0.00000E+00
    0.34298E-07         0.23050E-19         0.00000E+00
    0.34392E-07         0.28151E-19         0.00000E+00
    0.34479E-07         0.19835E-19         0.00000E+00
    0.34559E-07         0.18461E-19         0.00000E+00
    0.34631E-07         0.34459E-19         0.00000E+00
    0.34695E-07         0.35390E-19         0.00000E+00
    0.34751E-07         0.18248E-19         0.00000E+00
    0.34796E-07         0.14842E-19         0.00000E+00
    0.34833E-07         0.22352E-19         0.00000E+00
    0.34859E-07         0.22352E-19         0.00000E+00
    0.34874E-07         0.18626E-20         0.00000E+00
    0.34880E-07         0.00000E+00         0.00000E+00
    0.41429E-07         0.00000E+00         0.00000E+00
    0.41419E-07         0.44703E-19         0.00000E+00
    0.41392E-07         0.74506E-20         0.00000E+00
    0.41346E-07         0.78885E-19         0.00000E+00
    0.41282E-07         0.33528E-19         0.00000E+00
    0.41201E-07         0.33528E-19         0.00000E+00
    0.41103E-07         0.36807E-19         0.00000E+00
    0.40989E-07        -0.37253E-20         0.00000E+00
    0.40859E-07         0.20489E-19         0.00000E+00
    0.40714E-07        -0.55879E-20         0.00000E+00
    0.40555E-07        -0.55879E-20         0.00000E+00
    0.40383E-07         0.87853E-20         0.00000E+00
    0.40199E-07        -0.45605E-21         0.00000E+00
    0.40003E-07        -0.14901E-19         0.00000E+00
    0.39796E-07        -0.18626E-19         0.00000E+00
    0.39580E-07         0.60983E-19         0.00000E+00
    0.39356E-07         0.18626E-19         0.00000E+00
    0.39123E-07         0.15105E-19         0.00000E+00
    0.38884E-07         0.11176E-19         0.00000E+00
    0.38638E-07         0.18626E-20         0.00000E+00
    0.38388E-07         0.55879E-20         0.00000E+00
    0.38133E-07        -0.71015E-20         0.00000E+00
    0.37875E-07        -0.14416E-19         0.00000E+00
    0.37615E-07        -0.96245E-20         0.00000E+00
    0.37353E-07        -0.18804E-19         0.00000E+00
    0.37090E-07         0.18626E-19         0.00000E+00
    0.36828E-07         0.37253E-20         0.00000E+00
    0.36566E-07         0.74506E-20         0.00000E+00
    0.36306E-07         0.11176E-19         0.00000E+00
    0.36047E-07         0.26981E-19         0.00000E+00
    0.35792E-07         0.18911E-19         0.00000E+00
    0.35540E-07        -0.18626E-19         0.00000E+00
    0.35293E-07         0.22352E-19         0.00000E+00
    0.35050E-07         0.27940E-19         0.00000E+00
    0.34813E-07        -0.22258E-20         0.00000E+00
    0.34581E-07         0.17084E-19         0.00000E+00
    0.34356E-07         0.37253E-20         0.00000E+00
    0.34138E-07        -0.37253E-20         0.00000E+00
    0.33927E-07        -0.27940E-19         0.00000E+00
    0.33724E-07        -0.31665E-19         0.00000E+00
    0.33528E-07        -0.10245E-19         0.00000E+00
    0.33342E-07        -0.42841E-19         0.00000E+00
    0.33164E-07        -0.35390E-19         0.00000E+00
    0.32995E-07        -0.36069E-19         0.00000E+00
    0.32836E-07        -0.60500E-19         0.00000E+00
    0.32686E-07        -0.54017E-19         0.00000E+00
    0.32546E-07        -0.33976E-19         0.00000E+00
    0.32415E-07        -0.87974E-19         0.00000E+00
    0.32295E-07         0.93132E-20         0.00000E+00
    0.32186E-07        -0.37253E-19         0.00000E+00
    0.32086E-07        -0.46566E-19         0.00000E+00
    0.31997E-07        -0.26077E-19         0.00000E+00
    0.31919E-07        -0.10318E-19         0.00000E+00
    0.31850E-07        -0.35941E-19         0.00000E+00
    0.31793E-07        -0.18626E-20         0.00000E+00
    0.31746E-07        -0.44703E-19         0.00000E+00
    0.31709E-07        -0.40978E-19         0.00000E+00
    0.31682E-07        -0.66450E-19         0.00000E+00
    0.31665E-07        -0.67055E-19         0.00000E+00
    0.31658E-07        -0.48134E-19         0.00000E+00
    0.31662E-07        -0.14156E-19         0.00000E+00
    0.31674E-07        -0.22352E-19         0.00000E+00
    0.31696E-07        -0.14901E-19         0.00000E+00
    0.31727E-07        -0.55879E-20         0.00000E+00
    0.31767E-07         0.93132E-20         0.00000E+00
    0.31815E-07        -0.37253E-20         0.00000E+00
    0.31872E-07         0.00000E+00         0.00000E+00
    0.31936E-07        -0.11176E-19         0.00000E+00
    0.32008E-07         0.12409E-19         0.00000E+00
    0.32086E-07         0.91611E-20         0.00000E+00
    0.32172E-07        -0.93132E-20         0.00000E+00
    0.32263E-07         0.18626E-20         0.00000E+00
    0.32360E-07         0.20489E-19         0.00000E+00
    0.32462E-07        -0.74506E-20         0.00000E+00
    0.32568E-07         0.29802E-19         0.00000E+00
    0.32679E-07         0.18626E-20         0.00000E+00
    0.32793E-07         0.74506E-20         0.00000E+00
    0.32910E-07        -0.18626E-19         0.00000E+00
    0.33029E-07         0.31665E-19         0.00000E+00
    0.33150E-07        -0.74506E-20         0.00000E+00
    0.33271E-07         0.11176E-19         0.00000E+00
    0.33393E-07         0.46566E-20         0.00000E+00
    0.33515E-07        -0.18626E-20         0.00000E+00
    0.33635E-07         0.74506E-20         0.00000E+00
    0.33754E-07         0.21420E-19         0.00000E+00
    0.33871E-07         0.76688E-21         0.00000E+00
    0.33984E-07         0.21490E-20         0.00000E+00
    0.34093E-07         0.21420E-19         0.00000E+00
    0.34198E-07         0.29375E-19         0.00000E+00
    0.34298E-07         0.27940E-19         0.00000E+00
    0.34392E-07         0.16764E-19         0.00000E+00
    0.34479E-07         0.12485E-19         0.00000E+00
    0.34559E-07         0.39281E-19         0.00000E+00
    0.34631E-07         0.31014E-19         0.00000E+00
    0.34695E-07         0.27237E-19         0.00000E+00
    0.34751E-07         0.54137E-20         0.00000E+00
    0.34796E-07         0.93132E-20         0.00000E+00
    0.34833E-07         0.22352E-19         0.00000E+00
    0.34859E-07         0.18626E-19         0.00000E+00
    0.34874E-07        -0.18626E-20         0.00000E+00
    0.34880E-07         0.00000E+00         0.00000E+00
    0.41429E-07         0.00000E+00         0.00000E+00
    0.41419E-07         0.33528E-19         0.00000E+00
    0.41392E-07         0.11176E-19         0.00000E+00
    0.41346E-07         0.48429E-19         0.00000E+00
    0.41282E-07         0.22352E-19         0.00000E+00
    0.41201E-07         0.70781E-19         0.00000E+00
    0.41103E-07         0.11176E-19         0.00000E+00
    0.40989E-07         0.59605E-19         0.00000E+00
    0.40859E-07         0.14901E-19         0.00000E+00
    0.40714E-07         0.53085E-19         0.00000E+00
    0.40555E-07         0.11176E-19         0.00000E+00
    0.40383E-07        -0.19433E-19         0.00000E+00
    0.40199E-07         0.55879E-20         0.00000E+00
    0.40003E-07        -0.93132E-20         0.00000E+00
    0.39796E-07        -0.14901E-19         0.00000E+00
    0.39580E-07         0.48913E-19         0.00000E+00
    0.39356E-07         0.26077E-19         0.00000E+00
    0.39123E-07        -0.20348E-21         0.00000E+00
    0.38884E-07         0.16764E-19         0.00000E+00
    0.38638E-07        -0.37253E-20         0.00000E+00
    0.38388E-07         0.93132E-20         0.00000E+00
    0.38133E-07        -0.68683E-20         0.00000E+00
    0.37875E-07        -0.32635E-19         0.00000E+00
    0.37615E-07        -0.15513E-20         0.00000E+00
    0.37353E-07        -0.74506E-20         0.00000E+00
    0.37090E-07         0.20489E-19         0.00000E+00
    0.36828E-07         0.18626E-20         0.00000E+00
    0.36566E-07         0.26077E-19         0.00000E+00
    0.36306E-07         0.93132E-20         0.00000E+00
    0.36047E-07         0.74506E-20         0.00000E+00
    0.35792E-07         0.22067E-19         0.00000E+00
    0.35540E-07        -0.12107E-19         0.00000E+00
    0.35293E-07         0.13039E-19         0.00000E+00
    0.35050E-07         0.40978E-19         0.00000E+00
    0.34813E-07         0.40885E-20         0.00000E+00
    0.34581E-07         0.99246E-20         0.00000E+00
    0.34356E-07         0.74506E-20         0.00000E+00
    0.34138E-07         0.16764E-19         0.00000E+00
    0.33927E-07        -0.55879E-20         0.00000E+00
    0.33724E-07        -0.20489E-19         0.00000E+00
    0.33528E-07        -0.18661E-19         0.00000E+00
    0.33342E-07        -0.48633E-19         0.00000E+00
    0.33164E-07        -0.42841E-19         0.00000E+00
    0.32995E-07        -0.46141E-19         0.00000E+00
    0.32836E-07        -0.46566E-19         0.00000E+00
    0.32686E-07        -0.46350E-19         0.00000E+00
    0.32546E-07        -0.42392E-19         0.00000E+00
    0.32415E-07        -0.52405E-19         0.00000E+00
    0.32295E-07        -0.16764E-19         0.00000E+00
    0.32186E-07        -0.39116E-19         0.00000E+00
    0.32086E-07        -0.55879E-19         0.00000E+00
    0.31997E-07        -0.37253E-20         0.00000E+00
    0.31919E-07        -0.37253E-20         0.00000E+00
    0.31850E-07        -0.42841E-19         0.00000E+00
    0.31793E-07        -0.13039E-19         0.00000E+00
    0.31746E-07        -0.31665E-19         0.00000E+00
    0.31709E-07        -0.24214E-19         0.00000E+00
    0.31682E-07        -0.60210E-19         0.00000E+00
    0.31665E-07        -0.57742E-19         0.00000E+00
    0.31658E-07        -0.45930E-19         0.00000E+00
    0.31662E-07        -0.46566E-20         0.00000E+00
    0.31674E-07        -0.26077E-19         0.00000E+00
    0.31696E-07        -0.74506E-20         0.00000E+00
    0.31727E-07        -0.83819E-20         0.00000E+00
    0.31767E-07         0.00000E+00         0.00000E+00
    0.31815E-07         0.16764E-19         0.00000E+00
    0.31872E-07         0.37253E-20         0.00000E+00
    0.31936E-07         0.13039E-19         0.00000E+00
    0.32008E-07        -0.68215E-20         0.00000E+00
    0.32086E-07        -0.17105E-20         0.00000E+00
    0.32172E-07        -0.10245E-19         0.00000E+00
    0.32263E-07        -0.65193E-20         0.00000E+00
    0.32360E-07         0.74506E-20         0.00000E+00
    0.32462E-07        -0.65193E-20         0.00000E+00
    0.32568E-07         0.13039E-19         0.00000E+00
    0.32679E-07        -0.37253E-20         0.00000E+00
    0.32793E-07        -0.20489E-19         0.00000E+00
    0.32910E-07         0.00000E+00         0.00000E+00
    0.33029E-07         0.11176E-19         0.00000E+00
    0.33150E-07         0.18626E-19         0.00000E+00
    0.33271E-07         0.00000E+00         0.00000E+00
    0.33393E-07        -0.26719E-20         0.00000E+00
    0.33515E-07         0.74506E-20         0.00000E+00
    0.33635E-07        -0.37253E-20         0.00000E+00
    0.33754E-07         0.99302E-20         0.00000E+00
    0.33871E-07         0.13039E-19         0.00000E+00
    0.33984E-07        -0.15040E-20         0.00000E+00
    0.34093E-07         0.22548E-19         0.00000E+00
    0.34198E-07         0.16764E-19         0.00000E+00
    0.34298E-07         0.26077E-19         0.00000E+00
    0.34392E-07         0.24003E-19         0.00000E+00
    0.34479E-07         0.28494E-19         0.00000E+00
    0.34559E-07         0.11942E-19         0.00000E+00
    0.34631E-07         0.43492E-19         0.00000E+00
    0.34695E-07         0.24100E-19         0.00000E+00
    0.34751E-07         0.65193E-20         0.00000E+00
    0.34796E-07         0.55879E-20         0.00000E+00
    0.34833E-07         0.23780E-19         0.00000E+00
    0.34859E-07         0.27940E-20         0.00000E+00
    0.34874E-07        -0.27940E-20         0.00000E+00
    0.34880E-07         0.00000E+00         0.00000E+00
    0.41429E-07         0.00000E+00         0.00000E+00
    0.41419E-07         0.14901E-19         0.00000E+00
    0.41392E-07         0.44703E-19         0.00000E+00
    0.41346E-07         0.17973E-19         0.00000E+00
    0.41282E-07         0.52154E-19         0.00000E+00
    0.41201E-07         0.44703E-19         0.00000E+00
    0.41103E-07         0.67501E-19         0.00000E+00
    0.40989E-07         0.81956E-19         0.00000E+00
    0.40859E-07         0.57742E-19         0.00000E+00
    0.40714E-07         0.59346E-19         0.00000E+00
    0.40555E-07         0.22352E-19         0.00000E+00
    0.40383E-07        -0.31665E-19         0.00000E+00
    0.40199E-07        -0.32692E-20         0.00000E+00
    0.40003E-07         0.44703E-19         0.00000E+00
    0.39796E-07        -0.14901E-19         0.00000E+00
    0.39580E-07         0.32596E-19         0.00000E+00
    0.39356E-07         0.37253E-19         0.00000E+00
    0.39123E-07        -0.17492E-19         0.00000E+00
    0.38884E-07        -0.17986E-20         0.00000E+00
    0.38638E-07         0.93132E-20         0.00000E+00
    0.38388E-07         0.37253E-20         0.00000E+00
    0.38133E-07        -0.93132E-20         0.00000E+00
    0.37875E-07        -0.31665E-19         0.00000E+00
    0.37615E-07         0.77619E-20         0.00000E+00
    0.37353E-07         0.18804E-19         0.00000E+00
    0.37090E-07         0.22352E-19         0.00000E+00
    0.36828E-07         0.18626E-20         0.00000E+00
    0.36566E-07         0.31665E-19         0.00000E+00
    0.36306E-07         0.18626E-20         0.00000E+00
    0.36047E-07         0.55879E-20         0.00000E+00
    0.35792E-07         0.14901E-19         0.00000E+00
    0.35540E-07         0.39176E-21         0.00000E+00
    0.35293E-07         0.16764E-19         0.00000E+00
    0.35050E-07         0.27826E-19         0.00000E+00
    0.34813E-07        -0.78138E-20         0.00000E+00
    0.34581E-07         0.13039E-19         0.00000E+00
    0.34356E-07         0.73404E-22         0.00000E+00
    0.34138E-07         0.00000E+00         0.00000E+00
    0.33927E-07         0.74506E-20         0.00000E+00
    0.33724E-07        -0.13039E-19         0.00000E+00
    0.33528E-07        -0.22317E-19         0.00000E+00
    0.33342E-07        -0.49360E-19         0.00000E+00
    0.33164E-07        -0.42794E-19         0.00000E+00
    0.32995E-07        -0.56305E-19         0.00000E+00
    0.32836E-07        -0.49360E-19         0.00000E+00
    0.32686E-07        -0.38400E-19         0.00000E+00
    0.32546E-07        -0.55879E-19         0.00000E+00
    0.32415E-07        -0.18376E-19         0.00000E+00
    0.32295E-07        -0.54017E-19         0.00000E+00
    0.32186E-07        -0.37463E-19         0.00000E+00
    0.32086E-07        -0.40978E-19         0.00000E+00
    0.31997E-07         0.55879E-20         0.00000E+00
    0.31919E-07        -0.23137E-19         0.00000E+00
    0.31850E-07        -0.16595E-19         0.00000E+00
    0.31793E-07        -0.22352E-19         0.00000E+00
    0.31746E-07        -0.20489E-19         0.00000E+00
    0.31709E-07        -0.26077E-19         0.00000E+00
    0.31682E-07        -0.70175E-19         0.00000E+00
    0.31665E-07        -0.29802E-19         0.00000E+00
    0.31658E-07        -0.15832E-19         0.00000E+00
    0.31662E-07        -0.31479E-19         0.00000E+00
    0.31674E-07        -0.16764E-19         0.00000E+00
    0.31696E-07         0.21784E-21         0.00000E+00
    0.31727E-07         0.16302E-20         0.00000E+00
    0.31767E-07        -0.11176E-19         0.00000E+00
    0.31815E-07         0.22352E-19         0.00000E+00
    0.31872E-07        -0.37253E-20         0.00000E+00
    0.31936E-07         0.18626E-20         0.00000E+00
    0.32008E-07         0.77528E-20         0.00000E+00
    0.32086E-07        -0.15211E-21         0.00000E+00
    0.32172E-07         0.21865E-20         0.00000E+00
    0.32263E-07         0.35926E-20         0.00000E+00
    0.32360E-07        -0.18626E-20         0.00000E+00
    0.32462E-07         0.91948E-20         0.00000E+00
    0.32568E-07         0.13039E-19         0.00000E+00
    0.32679E-07         0.14901E-19         0.00000E+00
    0.32793E-07        -0.20489E-19         0.00000E+00
    0.32910E-07         0.13039E-19         0.00000E+00
    0.33029E-07         0.18626E-20         0.00000E+00
    0.33150E-07         0.13039E-19         0.00000E+00
    0.33271E-07         0.37253E-20         0.00000E+00
    0.33393E-07        -0.22474E-19         0.00000E+00
    0.33515E-07        -0.46566E-20         0.00000E+00
    0.33635E-07        -0.27940E-20         0.00000E+00
    0.33754E-07        -0.15482E-20         0.00000E+00
    0.33871E-07         0.93132E-20         0.00000E+00
    0.33984E-07         0.61607E-20         0.00000E+00
    0.34093E-07         0.14705E-19         0.00000E+00
    0.34198E-07         0.18626E-19         0.00000E+00
    0.34298E-07         0.37253E-19         0.00000E+00
    0.34392E-07         0.33739E-19         0.00000E+00
    0.34479E-07         0.29248E-19         0.00000E+00
    0.34559E-07         0.93132E-20         0.00000E+00
    0.34631E-07         0.33202E-19         0.00000E+00
    0.34695E-07         0.26191E-19         0.00000E+00
    0.34751E-07         0.23836E-19         0.00000E+00
    0.34796E-07         0.00000E+00         0.00000E+00
    0.34833E-07         0.55879E-20         0.00000E+00
    0.34859E-07         0.13040E-19         0.00000E+00
    0.34874E-07        -0.55804E-22         0.00000E+00
    0.34880E-07         0.00000E+00         0.00000E+00
    0.41429E-07         0.00000E+00         0.00000E+00
    0.41419E-07        -0.37253E-20         0.00000E+00
    0.41392E-07         0.52154E-19         0.00000E+00
    0.41346E-07         0.43787E-20         0.00000E+00
    0.41282E-07         0.70781E-19         0.00000E+00
    0.41201E-07         0.33528E-19         0.00000E+00
    0.41103E-07         0.40533E-19         0.00000E+00
    0.40989E-07         0.70781E-19         0.00000E+00
    0.40859E-07         0.70781E-19         0.00000E+00
    0.40714E-07         0.30992E-19         0.00000E+00
    0.40555E-07         0.27940E-19         0.00000E+00
    0.40383E-07        -0.14498E-19         0.00000E+00
    0.40199E-07         0.31209E-19         0.00000E+00
    0.40003E-07         0.27940E-19         0.00000E+00
    0.39796E-07        -0.55879E-20         0.00000E+00
    0.39580E-07         0.18142E-19         0.00000E+00
    0.39356E-07         0.55879E-20         0.00000E+00
    0.39123E-07        -0.18626E-19         0.00000E+00
    0.38884E-07        -0.24278E-19         0.00000E+00
    0.38638E-07         0.16764E-19         0.00000E+00
    0.38388E-07        -0.26077E-19         0.00000E+00
    0.38133E-07        -0.74506E-20         0.00000E+00
    0.37875E-07        -0.35837E-19         0.00000E+00
    0.37615E-07        -0.18626E-20         0.00000E+00
    0.37353E-07         0.37076E-19         0.00000E+00
    0.37090E-07         0.13083E-19         0.00000E+00
    0.36828E-07         0.37253E-20         0.00000E+00
    0.36566E-07         0.11176E-19         0.00000E+00
    0.36306E-07        -0.18626E-20         0.00000E+00
    0.36047E-07         0.14901E-19         0.00000E+00
    0.35792E-07         0.77349E-20         0.00000E+00
    0.35540E-07        -0.12499E-19         0.00000E+00
    0.35293E-07         0.00000E+00         0.00000E+00
    0.35050E-07        -0.18513E-19         0.00000E+00
    0.34813E-07        -0.27940E-20         0.00000E+00
    0.34581E-07         0.46566E-20         0.00000E+00
    0.34356E-07        -0.75240E-20         0.00000E+00
    0.34138E-07        -0.26077E-19         0.00000E+00
    0.33927E-07        -0.18626E-20         0.00000E+00
    0.33724E-07        -0.83819E-20         0.00000E+00
    0.33528E-07         0.84163E-20         0.00000E+00
    0.33342E-07        -0.45430E-19         0.00000E+00
    0.33164E-07        -0.37300E-19         0.00000E+00
    0.32995E-07        -0.34459E-19         0.00000E+00
    0.32836E-07        -0.48465E-19         0.00000E+00
    0.32686E-07        -0.47066E-19         0.00000E+00
    0.32546E-07        -0.48429E-19         0.00000E+00
    0.32415E-07        -0.34710E-19         0.00000E+00
    0.32295E-07        -0.50291E-19         0.00000E+00
    0.32186E-07        -0.31455E-19         0.00000E+00
    0.32086E-07        -0.18626E-20         0.00000E+00
    0.31997E-07        -0.31665E-19         0.00000E+00
    0.31919E-07        -0.15906E-19         0.00000E+00
    0.31850E-07        -0.29632E-20         0.00000E+00
    0.31793E-07        -0.39116E-19         0.00000E+00
    0.31746E-07        -0.31665E-19         0.00000E+00
    0.31709E-07        -0.13039E-19         0.00000E+00
    0.31682E-07        -0.61141E-19         0.00000E+00
    0.31665E-07        -0.83819E-20         0.00000E+00
    0.31658E-07        -0.25782E-19         0.00000E+00
    0.31662E-07        -0.31851E-19         0.00000E+00
    0.31674E-07        -0.93132E-20         0.00000E+00
    0.31696E-07         0.65193E-20         0.00000E+00
    0.31727E-07         0.67517E-20         0.00000E+00
    0.31767E-07        -0.24214E-19         0.00000E+00
    0.31815E-07         0.74506E-20         0.00000E+00
    0.31872E-07        -0.74506E-20         0.00000E+00
    0.31936E-07         0.00000E+00         0.00000E+00
    0.32008E-07         0.34231E-20         0.00000E+00
    0.32086E-07         0.48087E-20         0.00000E+00
    0.32172E-07        -0.21865E-20         0.00000E+00
    0.32263E-07         0.23416E-19         0.00000E+00
    0.32360E-07        -0.74506E-20         0.00000E+00
    0.32462E-07         0.12226E-19         0.00000E+00
    0.32568E-07         0.93132E-20         0.00000E+00
    0.32679E-07         0.27940E-19         0.00000E+00
    0.32793E-07        -0.37253E-20         0.00000E+00
    0.32910E-07         0.11176E-19         0.00000E+00
    0.33029E-07         0.55879E-20         0.00000E+00
    0.33150E-07        -0.37253E-20         0.00000E+00
    0.33271E-07         0.11176E-19         0.00000E+00
    0.33393E-07        -0.18626E-20         0.00000E+00
    0.33515E-07        -0.59236E-20         0.00000E+00
    0.33635E-07         0.75904E-20         0.00000E+00
    0.33754E-07        -0.93132E-20         0.00000E+00
    0.33871E-07        -0.12107E-19         0.00000E+00
    0.33984E-07         0.13970E-19         0.00000E+00
    0.34093E-07         0.39211E-20         0.00000E+00
    0.34198E-07         0.19985E-19         0.00000E+00
    0.34298E-07         0.41910E-19         0.00000E+00
    0.34392E-07         0.16342E-19         0.00000E+00
    0.34479E-07         0.26354E-19         0.00000E+00
    0.34559E-07         0.25146E-19         0.00000E+00
    0.34631E-07         0.21882E-20         0.00000E+00
    0.34695E-07         0.23169E-19         0.00000E+00
    0.34751E-07         0.12486E-19         0.00000E+00
    0.34796E-07         0.00000E+00         0.00000E+00
    0.34833E-07         0.83819E-20         0.00000E+00
    0.34859E-07        -0.16581E-23         0.00000E+00
    0.34874E-07        -0.46008E-20         0.00000E+00
    0.34880E-07         0.00000E+00         0.00000E+00
    0.41429E-07         0.00000E+00         0.00000E+00
    0.41419E-07        -0.74506E-20         0.00000E+00
    0.41392E-07         0.11176E-19         0.00000E+00
    0.41346E-07         0.14901E-19         0.00000E+00
    0.41282E-07         0.48429E-19         0.00000E+00
    0.41201E-07         0.40978E-19         0.00000E+00
    0.41103E-07         0.14901E-19         0.00000E+00
    0.40989E-07         0.59605E-19         0.00000E+00
    0.40859E-07         0.31665E-19         0.00000E+00
    0.40714E-07         0.37253E-19         0.00000E+00
    0.40555E-07         0.26077E-19         0.00000E+00
    0.40383E-07         0.13039E-19         0.00000E+00
    0.40199E-07         0.27940E-19         0.00000E+00
    0.40003E-07        -0.20489E-19         0.00000E+00
    0.39796E-07         0.57742E-19         0.00000E+00
    0.39580E-07        -0.93132E-20         0.00000E+00
    0.39356E-07         0.55879E-20         0.00000E+00
    0.39123E-07         0.13766E-19         0.00000E+00
    0.38884E-07        -0.74506E-20         0.00000E+00
    0.38638E-07        -0.37253E-20         0.00000E+00
    0.38388E-07        -0.26077E-19         0.00000E+00
    0.38133E-07        -0.74506E-20         0.00000E+00
    0.37875E-07        -0.50291E-19         0.00000E+00
    0.37615E-07         0.15513E-20         0.00000E+00
    0.37353E-07         0.22352E-19         0.00000E+00
    0.37090E-07        -0.83819E-20         0.00000E+00
    0.36828E-07         0.37253E-19         0.00000E+00
    0.36566E-07        -0.37253E-20         0.00000E+00
    0.36306E-07         0.20489E-19         0.00000E+00
    0.36047E-07         0.27940E-19         0.00000E+00
    0.35792E-07         0.93132E-20         0.00000E+00
    0.35540E-07         0.00000E+00         0.00000E+00
    0.35293E-07        -0.37253E-20         0.00000E+00
    0.35050E-07        -0.20489E-19         0.00000E+00
    0.34813E-07         0.22258E-20         0.00000E+00
    0.34581E-07        -0.19238E-19         0.00000E+00
    0.34356E-07        -0.11176E-19         0.00000E+00
    0.34138E-07        -0.27940E-19         0.00000E+00
    0.33927E-07        -0.14901E-19         0.00000E+00
    0.33724E-07        -0.20764E-19         0.00000E+00
    0.33528E-07         0.25146E-19         0.00000E+00
    0.33342E-07        -0.48429E-19         0.00000E+00
    0.33164E-07        -0.93132E-20         0.00000E+00
    0.32995E-07        -0.38437E-19         0.00000E+00
    0.32836E-07        -0.38148E-19         0.00000E+00
    0.32686E-07        -0.35390E-19         0.00000E+00
    0.32546E-07        -0.45186E-19         0.00000E+00
    0.32415E-07        -0.33528E-19         0.00000E+00
    0.32295E-07        -0.42841E-19         0.00000E+00
    0.32186E-07        -0.31875E-19         0.00000E+00
    0.32086E-07        -0.37253E-20         0.00000E+00
    0.31997E-07        -0.34723E-19         0.00000E+00
    0.31919E-07         0.55879E-20         0.00000E+00
    0.31850E-07        -0.10626E-19         0.00000E+00
    0.31793E-07        -0.24214E-19         0.00000E+00
    0.31746E-07        -0.50291E-19         0.00000E+00
    0.31709E-07         0.11176E-19         0.00000E+00
    0.31682E-07        -0.38510E-19         0.00000E+00
    0.31665E-07         0.17076E-20         0.00000E+00
    0.31658E-07        -0.29166E-19         0.00000E+00
    0.31662E-07        -0.33341E-19         0.00000E+00
    0.31674E-07        -0.18626E-20         0.00000E+00
    0.31696E-07        -0.48744E-20         0.00000E+00
    0.31727E-07         0.00000E+00         0.00000E+00
    0.31767E-07        -0.22600E-19         0.00000E+00
    0.31815E-07        -0.55879E-20         0.00000E+00
    0.31872E-07         0.93132E-20         0.00000E+00
    0.31936E-07         0.20489E-19         0.00000E+00
    0.32008E-07        -0.10245E-19         0.00000E+00
    0.32086E-07        -0.14901E-19         0.00000E+00
    0.32172E-07        -0.14577E-19         0.00000E+00
    0.32263E-07         0.26077E-19         0.00000E+00
    0.32360E-07        -0.18626E-20         0.00000E+00
    0.32462E-07         0.22352E-19         0.00000E+00
    0.32568E-07        -0.55879E-20         0.00000E+00
    0.32679E-07         0.26077E-19         0.00000E+00
    0.32793E-07         0.61612E-20         0.00000E+00
    0.32910E-07         0.55879E-20         0.00000E+00
    0.33029E-07         0.18626E-20         0.00000E+00
    0.33150E-07        -0.55879E-20         0.00000E+00
    0.33271E-07         0.18626E-20         0.00000E+00
    0.33393E-07         0.85039E-20         0.00000E+00
    0.33515E-07         0.12669E-20         0.00000E+00
    0.33635E-07         0.17229E-20         0.00000E+00
    0.33754E-07        -0.18626E-19         0.00000E+00
    0.33871E-07        -0.63548E-20         0.00000E+00
    0.33984E-07        -0.68056E-20         0.00000E+00
    0.34093E-07         0.20293E-19         0.00000E+00
    0.34198E-07         0.10748E-19         0.00000E+00
    0.34298E-07         0.25379E-19         0.00000E+00
    0.34392E-07         0.13039E-19         0.00000E+00
    0.34479E-07         0.35113E-19         0.00000E+00
    0.34559E-07         0.18461E-19         0.00000E+00
    0.34631E-07        -0.87075E-20         0.00000E+00
    0.34695E-07         0.55879E-20         0.00000E+00
    0.34751E-07         0.18626E-20         0.00000E+00
    0.34796E-07         0.18626E-19         0.00000E+00
    0.34833E-07         0.18130E-19         0.00000E+00
    0.34859E-07        -0.55863E-20         0.00000E+00
    0.34874E-07        -0.20489E-19         0.00000E+00
    0.34880E-07         0.00000E+00         0.00000E+00
    0.41429E-07         0.00000E+00         0.00000E+00
    0.41419E-07         0.74506E-20         0.00000E+00
    0.41392E-07        -0.11176E-19         0.00000E+00
    0.41346E-07         0.40978E-19         0.00000E+00
    0.41282E-07         0.18626E-19         0.00000E+00
    0.41201E-07         0.52154E-19         0.00000E+00
    0.41103E-07         0.29802E-19         0.00000E+00
    0.40989E-07         0.33528E-19         0.00000E+00
    0.40859E-07         0.29802E-19         0.00000E+00
    0.40714E-07         0.33528E-19         0.00000E+00
    0.40555E-07        -0.13039E-19         0.00000E+00
    0.40383E-07         0.34987E-19         0.00000E+00
    0.40199E-07        -0.93132E-20         0.00000E+00
    0.40003E-07        -0.55879E-20         0.00000E+00
    0.39796E-07         0.67055E-19         0.00000E+00
    0.39580E-07         0.74506E-20         0.00000E+00
    0.39356E-07         0.11176E-19         0.00000E+00
    0.39123E-07         0.20661E-20         0.00000E+00
    0.38884E-07        -0.55879E-20         0.00000E+00
    0.38638E-07        -0.19558E-19         0.00000E+00
    0.38388E-07        -0.20489E-19         0.00000E+00
    0.38133E-07        -0.37253E-20         0.00000E+00
    0.37875E-07        -0.47982E-19         0.00000E+00
    0.37615E-07         0.12426E-20         0.00000E+00
    0.37353E-07        -0.93132E-20         0.00000E+00
    0.37090E-07        -0.84260E-20         0.00000E+00
    0.36828E-07         0.24214E-19         0.00000E+00
    0.36566E-07         0.26077E-19         0.00000E+00
    0.36306E-07         0.18626E-19         0.00000E+00
    0.36047E-07         0.26077E-19         0.00000E+00
    0.35792E-07         0.26077E-19         0.00000E+00
    0.35540E-07         0.18626E-20         0.00000E+00
    0.35293E-07         0.55879E-20         0.00000E+00
    0.35050E-07        -0.11176E-19         0.00000E+00
    0.34813E-07         0.42934E-20         0.00000E+00
    0.34581E-07        -0.96332E-20         0.00000E+00
    0.34356E-07        -0.14901E-19         0.00000E+00
    0.34138E-07        -0.13039E-19         0.00000E+00
    0.33927E-07        -0.26077E-19         0.00000E+00
    0.33724E-07        -0.25802E-19         0.00000E+00
    0.33528E-07        -0.17764E-19         0.00000E+00
    0.33342E-07        -0.28871E-19         0.00000E+00
    0.33164E-07        -0.35390E-19         0.00000E+00
    0.32995E-07        -0.52154E-19         0.00000E+00
    0.32836E-07        -0.31683E-19         0.00000E+00
    0.32686E-07        -0.31881E-19         0.00000E+00
    0.32546E-07        -0.55397E-19         0.00000E+00
    0.32415E-07        -0.29802E-19         0.00000E+00
    0.32295E-07        -0.35390E-19         0.00000E+00
    0.32186E-07        -0.16554E-19         0.00000E+00
    0.32086E-07        -0.13039E-19         0.00000E+00
    0.31997E-07         0.26419E-21         0.00000E+00
    0.31919E-07        -0.18626E-20         0.00000E+00
    0.31850E-07        -0.65193E-20         0.00000E+00
    0.31793E-07        -0.11176E-19         0.00000E+00
    0.31746E-07        -0.37253E-19         0.00000E+00
    0.31709E-07         0.18626E-20         0.00000E+00
    0.31682E-07        -0.28871E-19         0.00000E+00
    0.31665E-07         0.48117E-20         0.00000E+00
    0.31658E-07        -0.27008E-19         0.00000E+00
    0.31662E-07        -0.36508E-19         0.00000E+00
    0.31674E-07         0.93132E-21         0.00000E+00
    0.31696E-07         0.18626E-20         0.00000E+00
    0.31727E-07        -0.16764E-19         0.00000E+00
    0.31767E-07        -0.12790E-19         0.00000E+00
    0.31815E-07        -0.18626E-20         0.00000E+00
    0.31872E-07         0.13970E-19         0.00000E+00
    0.31936E-07         0.28871E-19         0.00000E+00
    0.32008E-07        -0.15604E-20         0.00000E+00
    0.32086E-07        -0.24214E-19         0.00000E+00
    0.32172E-07        -0.23607E-19         0.00000E+00
    0.32263E-07         0.13039E-19         0.00000E+00
    0.32360E-07        -0.18626E-20         0.00000E+00
    0.32462E-07         0.74506E-20         0.00000E+00
    0.32568E-07         0.46566E-20         0.00000E+00
    0.32679E-07         0.11176E-19         0.00000E+00
    0.32793E-07        -0.24359E-20         0.00000E+00
    0.32910E-07        -0.55879E-20         0.00000E+00
    0.33029E-07         0.46566E-20         0.00000E+00
    0.33150E-07         0.65193E-20         0.00000E+00
    0.33271E-07        -0.16764E-19         0.00000E+00
    0.33393E-07        -0.18748E-19         0.00000E+00
    0.33515E-07         0.55879E-20         0.00000E+00
    0.33635E-07        -0.12899E-19         0.00000E+00
    0.33754E-07        -0.22666E-19         0.00000E+00
    0.33871E-07        -0.55879E-20         0.00000E+00
    0.33984E-07        -0.22352E-19         0.00000E+00
    0.34093E-07         0.23479E-19         0.00000E+00
    0.34198E-07         0.21169E-19         0.00000E+00
    0.34298E-07         0.27940E-20         0.00000E+00
    0.34392E-07         0.95244E-20         0.00000E+00
    0.34479E-07         0.30079E-19         0.00000E+00
    0.34559E-07         0.22517E-19         0.00000E+00
    0.34631E-07         0.10245E-19         0.00000E+00
    0.34695E-07         0.37253E-20         0.00000E+00
    0.34751E-07         0.19558E-19         0.00000E+00
    0.34796E-07         0.14901E-19         0.00000E+00
    0.34833E-07         0.55879E-20         0.00000E+00
    0.34859E-07         0.12106E-19         0.00000E+00
    0.34874E-07         0.00000E+00         0.00000E+00
    0.34880E-07         0.00000E+00         0.00000E+00
    0.41429E-07         0.00000E+00         0.00000E+00
    0.41419E-07         0.29802E-19         0.00000E+00
    0.41392E-07        -0.33528E-19         0.00000E+00
    0.41346E-07         0.37253E-19         0.00000E+00
    0.41282E-07         0.55879E-19         0.00000E+00
    0.41201E-07         0.22352E-19         0.00000E+00
    0.41103E-07         0.52154E-19         0.00000E+00
    0.40989E-07         0.40978E-19         0.00000E+00
    0.40859E-07         0.11176E-19         0.00000E+00
    0.40714E-07         0.18626E-20         0.00000E+00
    0.40555E-07        -0.13039E-19         0.00000E+00
    0.40383E-07         0.18099E-19         0.00000E+00
    0.40199E-07        -0.83819E-20         0.00000E+00
    0.40003E-07        -0.11176E-19         0.00000E+00
    0.39796E-07         0.29802E-19         0.00000E+00
    0.39580E-07         0.31665E-19         0.00000E+00
    0.39356E-07        -0.37253E-20         0.00000E+00
    0.39123E-07        -0.14173E-19         0.00000E+00
    0.38884E-07         0.00000E+00         0.00000E+00
    0.38638E-07        -0.23209E-19         0.00000E+00
    0.38388E-07         0.27940E-20         0.00000E+00
    0.38133E-07        -0.24214E-19         0.00000E+00
    0.37875E-07        -0.23729E-19         0.00000E+00
    0.37615E-07        -0.19249E-19         0.00000E+00
    0.37353E-07         0.46566E-20         0.00000E+00
    0.37090E-07         0.18626E-20         0.00000E+00
    0.36828E-07        -0.55879E-20         0.00000E+00
    0.36566E-07         0.35390E-19         0.00000E+00
    0.36306E-07         0.13039E-19         0.00000E+00
    0.36047E-07         0.22379E-19         0.00000E+00
    0.35792E-07         0.27940E-19         0.00000E+00
    0.35540E-07         0.93132E-20         0.00000E+00
    0.35293E-07        -0.93132E-20         0.00000E+00
    0.35050E-07        -0.14788E-19         0.00000E+00
    0.34813E-07         0.26440E-19         0.00000E+00
    0.34581E-07         0.18626E-20         0.00000E+00
    0.34356E-07        -0.18626E-19         0.00000E+00
    0.34138E-07        -0.46566E-20         0.00000E+00
    0.33927E-07        -0.98297E-20         0.00000E+00
    0.33724E-07        -0.15176E-19         0.00000E+00
    0.33528E-07        -0.42841E-19         0.00000E+00
    0.33342E-07         0.81774E-20         0.00000E+00
    0.33164E-07        -0.59605E-19         0.00000E+00
    0.32995E-07        -0.65193E-19         0.00000E+00
    0.32836E-07        -0.37271E-19         0.00000E+00
    0.32686E-07        -0.31449E-19         0.00000E+00
    0.32546E-07        -0.37736E-19         0.00000E+00
    0.32415E-07        -0.46817E-19         0.00000E+00
    0.32295E-07        -0.29802E-19         0.00000E+00
    0.32186E-07        -0.20489E-19         0.00000E+00
    0.32086E-07        -0.22352E-19         0.00000E+00
    0.31997E-07         0.40294E-21         0.00000E+00
    0.31919E-07        -0.18626E-20         0.00000E+00
    0.31850E-07        -0.33443E-20         0.00000E+00
    0.31793E-07        -0.18626E-19         0.00000E+00
    0.31746E-07        -0.93132E-20         0.00000E+00
    0.31709E-07        -0.22352E-19         0.00000E+00
    0.31682E-07        -0.13644E-19         0.00000E+00
    0.31665E-07         0.00000E+00         0.00000E+00
    0.31658E-07        -0.44408E-19         0.00000E+00
    0.31662E-07        -0.11176E-19         0.00000E+00
    0.31674E-07        -0.12775E-19         0.00000E+00
    0.31696E-07        -0.18626E-20         0.00000E+00
    0.31727E-07        -0.29802E-19         0.00000E+00
    0.31767E-07        -0.18626E-19         0.00000E+00
    0.31815E-07         0.74506E-20         0.00000E+00
    0.31872E-07         0.11830E-19         0.00000E+00
    0.31936E-07         0.29978E-19         0.00000E+00
    0.32008E-07         0.43544E-20         0.00000E+00
    0.32086E-07        -0.14901E-19         0.00000E+00
    0.32172E-07        -0.30734E-19         0.00000E+00
    0.32263E-07        -0.74506E-20         0.00000E+00
    0.32360E-07        -0.20489E-19         0.00000E+00
    0.32462E-07        -0.93132E-20         0.00000E+00
    0.32568E-07         0.80295E-20         0.00000E+00
    0.32679E-07         0.74506E-20         0.00000E+00
    0.32793E-07        -0.55879E-20         0.00000E+00
    0.32910E-07        -0.11176E-19         0.00000E+00
    0.33029E-07         0.24788E-19         0.00000E+00
    0.33150E-07         0.66304E-20         0.00000E+00
    0.33271E-07        -0.55879E-20         0.00000E+00
    0.33393E-07        -0.19436E-19         0.00000E+00
    0.33515E-07         0.37253E-20         0.00000E+00
    0.33635E-07        -0.16624E-19         0.00000E+00
    0.33754E-07        -0.20489E-19         0.00000E+00
    0.33871E-07        -0.25146E-19         0.00000E+00
    0.33984E-07         0.00000E+00         0.00000E+00
    0.34093E-07         0.24214E-19         0.00000E+00
    0.34198E-07         0.19306E-19         0.00000E+00
    0.34298E-07        -0.72171E-20         0.00000E+00
    0.34392E-07         0.63081E-20         0.00000E+00
    0.34479E-07         0.26354E-19         0.00000E+00
    0.34559E-07         0.91482E-20         0.00000E+00
    0.34631E-07         0.10570E-19         0.00000E+00
    0.34695E-07         0.20375E-19         0.00000E+00
    0.34751E-07         0.14523E-19         0.00000E+00
    0.34796E-07        -0.18626E-20         0.00000E+00
    0.34833E-07         0.93132E-20         0.00000E+00
    0.34859E-07         0.00000E+00         0.00000E+00
    0.34874E-07         0.13039E-19         0.00000E+00
    0.34880E-07         0.00000E+00         0.00000E+00
    0.41429E-07         0.00000E+00         0.00000E+00
    0.41419E-07         0.33528E-19         0.00000E+00
    0.41392E-07        -0.22352E-19         0.00000E+00
    0.41346E-07         0.10522E-19         0.00000E+00
    0.41282E-07         0.63330E-19         0.00000E+00
    0.41201E-07         0.21869E-19         0.00000E+00
    0.41103E-07         0.48874E-19         0.00000E+00
    0.40989E-07         0.29802E-19         0.00000E+00
    0.40859E-07        -0.16764E-19         0.00000E+00
    0.40714E-07         0.55879E-20         0.00000E+00
    0.40555E-07         0.24546E-19         0.00000E+00
    0.40383E-07        -0.31973E-20         0.00000E+00
    0.40199E-07        -0.14066E-20         0.00000E+00
    0.40003E-07         0.18626E-20         0.00000E+00
    0.39796E-07         0.29802E-19         0.00000E+00
    0.39580E-07         0.21420E-19         0.00000E+00
    0.39356E-07         0.74506E-20         0.00000E+00
    0.39123E-07         0.16764E-19         0.00000E+00
    0.38884E-07        -0.11176E-19         0.00000E+00
    0.38638E-07        -0.24289E-19         0.00000E+00
    0.38388E-07         0.27221E-19         0.00000E+00
    0.38133E-07        -0.29802E-19         0.00000E+00
    0.37875E-07        -0.25631E-19         0.00000E+00
    0.37615E-07        -0.20489E-19         0.00000E+00
    0.37353E-07        -0.16854E-20         0.00000E+00
    0.37090E-07         0.27940E-19         0.00000E+00
    0.36828E-07        -0.16764E-19         0.00000E+00
    0.36566E-07         0.11176E-19         0.00000E+00
    0.36306E-07         0.40978E-19         0.00000E+00
    0.36047E-07         0.55606E-20         0.00000E+00
    0.35792E-07         0.24214E-19         0.00000E+00
    0.35540E-07         0.20489E-19         0.00000E+00
    0.35293E-07        -0.37253E-19         0.00000E+00
    0.35050E-07         0.17493E-20         0.00000E+00
    0.34813E-07         0.37253E-19         0.00000E+00
    0.34581E-07        -0.16764E-19         0.00000E+00
    0.34356E-07        -0.18626E-19         0.00000E+00
    0.34138E-07        -0.12279E-19         0.00000E+00
    0.33927E-07         0.23791E-20         0.00000E+00
    0.33724E-07        -0.32322E-19         0.00000E+00
    0.33528E-07        -0.37253E-19         0.00000E+00
    0.33342E-07         0.16764E-19         0.00000E+00
    0.33164E-07        -0.44703E-19         0.00000E+00
    0.32995E-07        -0.53085E-19         0.00000E+00
    0.32836E-07        -0.44686E-19         0.00000E+00
    0.32686E-07        -0.97451E-20         0.00000E+00
    0.32546E-07        -0.25594E-19         0.00000E+00
    0.32415E-07        -0.33528E-19         0.00000E+00
    0.32295E-07        -0.27940E-19         0.00000E+00
    0.32186E-07        -0.24214E-19         0.00000E+00
    0.32086E-07        -0.29802E-19         0.00000E+00
    0.31997E-07         0.98416E-20         0.00000E+00
    0.31919E-07        -0.18626E-19         0.00000E+00
    0.31850E-07        -0.25527E-19         0.00000E+00
    0.31793E-07        -0.16764E-19         0.00000E+00
    0.31746E-07        -0.18626E-20         0.00000E+00
    0.31709E-07        -0.27940E-19         0.00000E+00
    0.31682E-07         0.16764E-19         0.00000E+00
    0.31665E-07        -0.38803E-20         0.00000E+00
    0.31658E-07        -0.26372E-19         0.00000E+00
    0.31662E-07        -0.22352E-19         0.00000E+00
    0.31674E-07        -0.14233E-19         0.00000E+00
    0.31696E-07        -0.16764E-19         0.00000E+00
    0.31727E-07        -0.20489E-19         0.00000E+00
    0.31767E-07        -0.33528E-19         0.00000E+00
    0.31815E-07         0.37253E-20         0.00000E+00
    0.31872E-07         0.15178E-19         0.00000E+00
    0.31936E-07         0.11931E-19         0.00000E+00
    0.32008E-07        -0.34231E-20         0.00000E+00
    0.32086E-07        -0.37253E-20         0.00000E+00
    0.32172E-07        -0.19234E-19         0.00000E+00
    0.32263E-07        -0.74506E-20         0.00000E+00
    0.32360E-07        -0.18626E-19         0.00000E+00
    0.32462E-07        -0.18626E-20         0.00000E+00
    0.32568E-07        -0.12686E-19         0.00000E+00
    0.32679E-07         0.54783E-20         0.00000E+00
    0.32793E-07        -0.18626E-20         0.00000E+00
    0.32910E-07        -0.16764E-19         0.00000E+00
    0.33029E-07         0.18984E-19         0.00000E+00
    0.33150E-07        -0.74506E-20         0.00000E+00
    0.33271E-07         0.18626E-20         0.00000E+00
    0.33393E-07         0.36033E-20         0.00000E+00
    0.33515E-07        -0.21420E-19         0.00000E+00
    0.33635E-07        -0.21422E-20         0.00000E+00
    0.33754E-07        -0.11793E-19         0.00000E+00
    0.33871E-07        -0.29584E-20         0.00000E+00
    0.33984E-07         0.46566E-20         0.00000E+00
    0.34093E-07         0.32596E-19         0.00000E+00
    0.34198E-07         0.12359E-19         0.00000E+00
    0.34298E-07         0.69787E-21         0.00000E+00
    0.34392E-07         0.32163E-20         0.00000E+00
    0.34479E-07         0.16487E-19         0.00000E+00
    0.34559E-07         0.13204E-19         0.00000E+00
    0.34631E-07        -0.93132E-21         0.00000E+00
    0.34695E-07         0.65193E-20         0.00000E+00
    0.34751E-07         0.12486E-19         0.00000E+00
    0.34796E-07         0.18626E-19         0.00000E+00
    0.34833E-07         0.13039E-19         0.00000E+00
    0.34859E-07         0.93132E-21         0.00000E+00
    0.34874E-07         0.14901E-19         0.00000E+00
    0.34880E-07         0.00000E+00         0.00000E+00
    0.41429E-07         0.00000E+00         0.00000E+00
    0.41419E-07        -0.74506E-20         0.00000E+00
    0.41392E-07         0.52154E-19         0.00000E+00
    0.41346E-07        -0.30718E-20         0.00000E+00
    0.41282E-07         0.44703E-19         0.00000E+00
    0.41201E-07         0.37253E-19         0.00000E+00
    0.41103E-07         0.25631E-19         0.00000E+00
    0.40989E-07        -0.11176E-19         0.00000E+00
    0.40859E-07        -0.37253E-20         0.00000E+00
    0.40714E-07         0.16764E-19         0.00000E+00
    0.40555E-07         0.74506E-20         0.00000E+00
    0.40383E-07        -0.33219E-20         0.00000E+00
    0.40199E-07        -0.35846E-19         0.00000E+00
    0.40003E-07         0.42841E-19         0.00000E+00
    0.39796E-07         0.52154E-19         0.00000E+00
    0.39580E-07        -0.16279E-19         0.00000E+00
    0.39356E-07         0.22352E-19         0.00000E+00
    0.39123E-07         0.93132E-20         0.00000E+00
    0.38884E-07        -0.24214E-19         0.00000E+00
    0.38638E-07         0.00000E+00         0.00000E+00
    0.38388E-07         0.10245E-19         0.00000E+00
    0.38133E-07        -0.19558E-19         0.00000E+00
    0.37875E-07        -0.32403E-20         0.00000E+00
    0.37615E-07        -0.14590E-19         0.00000E+00
    0.37353E-07        -0.39025E-20         0.00000E+00
    0.37090E-07         0.29802E-19         0.00000E+00
    0.36828E-07        -0.11176E-19         0.00000E+00
    0.36566E-07         0.55879E-20         0.00000E+00
    0.36306E-07         0.40978E-19         0.00000E+00
    0.36047E-07         0.74506E-20         0.00000E+00
    0.35792E-07         0.20205E-19         0.00000E+00
    0.35540E-07         0.22352E-19         0.00000E+00
    0.35293E-07        -0.20489E-19         0.00000E+00
    0.35050E-07         0.11176E-19         0.00000E+00
    0.34813E-07        -0.18626E-20         0.00000E+00
    0.34581E-07        -0.27940E-19         0.00000E+00
    0.34356E-07        -0.27940E-19         0.00000E+00
    0.34138E-07        -0.13039E-19         0.00000E+00
    0.33927E-07         0.55879E-20         0.00000E+00
    0.33724E-07        -0.27940E-19         0.00000E+00
    0.33528E-07        -0.28871E-19         0.00000E+00
    0.33342E-07        -0.18626E-20         0.00000E+00
    0.33164E-07        -0.33528E-19         0.00000E+00
    0.32995E-07        -0.33275E-19         0.00000E+00
    0.32836E-07        -0.55879E-19         0.00000E+00
    0.32686E-07        -0.14901E-19         0.00000E+00
    0.32546E-07        -0.33079E-19         0.00000E+00
    0.32415E-07        -0.71997E-20         0.00000E+00
    0.32295E-07        -0.15832E-19         0.00000E+00
    0.32186E-07        -0.15111E-19         0.00000E+00
    0.32086E-07        -0.20489E-19         0.00000E+00
    0.31997E-07         0.21420E-19         0.00000E+00
    0.31919E-07        -0.24214E-19         0.00000E+00
    0.31850E-07        -0.33528E-19         0.00000E+00
    0.31793E-07        -0.37253E-19         0.00000E+00
    0.31746E-07        -0.14901E-19         0.00000E+00
    0.31709E-07        -0.22352E-19         0.00000E+00
    0.31682E-07         0.13970E-19         0.00000E+00
    0.31665E-07        -0.17076E-20         0.00000E+00
    0.31658E-07         0.10540E-19         0.00000E+00
    0.31662E-07        -0.48242E-19         0.00000E+00
    0.31674E-07        -0.27940E-19         0.00000E+00
    0.31696E-07        -0.40978E-19         0.00000E+00
    0.31727E-07        -0.11176E-19         0.00000E+00
    0.31767E-07        -0.11176E-19         0.00000E+00
    0.31815E-07         0.18626E-20         0.00000E+00
    0.31872E-07        -0.74506E-20         0.00000E+00
    0.31936E-07         0.11176E-19         0.00000E+00
    0.32008E-07        -0.77528E-20         0.00000E+00
    0.32086E-07        -0.93132E-21         0.00000E+00
    0.32172E-07        -0.55879E-20         0.00000E+00
    0.32263E-07        -0.55879E-20         0.00000E+00
    0.32360E-07        -0.14901E-19         0.00000E+00
    0.32462E-07         0.14901E-19         0.00000E+00
    0.32568E-07        -0.14901E-19         0.00000E+00
    0.32679E-07         0.10245E-19         0.00000E+00
    0.32793E-07        -0.18626E-20         0.00000E+00
    0.32910E-07        -0.16764E-19         0.00000E+00
    0.33029E-07        -0.12107E-19         0.00000E+00
    0.33150E-07         0.46566E-20         0.00000E+00
    0.33271E-07        -0.20489E-19         0.00000E+00
    0.33393E-07         0.55879E-20         0.00000E+00
    0.33515E-07        -0.13374E-19         0.00000E+00
    0.33635E-07        -0.13830E-19         0.00000E+00
    0.33754E-07        -0.86963E-20         0.00000E+00
    0.33871E-07         0.13039E-19         0.00000E+00
    0.33984E-07        -0.90269E-20         0.00000E+00
    0.34093E-07         0.24410E-19         0.00000E+00
    0.34198E-07         0.14901E-19         0.00000E+00
    0.34298E-07         0.19558E-19         0.00000E+00
    0.34392E-07         0.27940E-20         0.00000E+00
    0.34479E-07         0.40022E-20         0.00000E+00
    0.34559E-07         0.24049E-19         0.00000E+00
    0.34631E-07         0.61937E-20         0.00000E+00
    0.34695E-07         0.14084E-19         0.00000E+00
    0.34751E-07         0.93132E-20         0.00000E+00
    0.34796E-07         0.28871E-19         0.00000E+00
    0.34833E-07         0.21420E-19         0.00000E+00
    0.34859E-07         0.16765E-19         0.00000E+00
    0.34874E-07         0.93132E-20         0.00000E+00
    0.34880E-07         0.00000E+00         0.00000E+00
    0.41429E-07         0.00000E+00         0.00000E+00
    0.41419E-07        -0.14901E-19         0.00000E+00
    0.41392E-07         0.70781E-19         0.00000E+00
    0.41346E-07         0.17973E-19         0.00000E+00
    0.41282E-07         0.48429E-19         0.00000E+00
    0.41201E-07         0.19109E-19         0.00000E+00
    0.41103E-07         0.30248E-19         0.00000E+00
    0.40989E-07         0.18626E-20         0.00000E+00
    0.40859E-07         0.14901E-19         0.00000E+00
    0.40714E-07         0.27940E-20         0.00000E+00
    0.40555E-07        -0.17095E-19         0.00000E+00
    0.40383E-07        -0.97166E-20         0.00000E+00
    0.40199E-07        -0.97885E-20         0.00000E+00
    0.40003E-07         0.44703E-19         0.00000E+00
    0.39796E-07         0.32596E-19         0.00000E+00
    0.39580E-07        -0.23283E-19         0.00000E+00
    0.39356E-07         0.42841E-19         0.00000E+00
    0.39123E-07        -0.53845E-20         0.00000E+00
    0.38884E-07        -0.27940E-20         0.00000E+00
    0.38638E-07         0.13039E-19         0.00000E+00
    0.38388E-07        -0.17907E-19         0.00000E+00
    0.38133E-07        -0.71015E-20         0.00000E+00
    0.37875E-07         0.13485E-19         0.00000E+00
    0.37615E-07        -0.15212E-19         0.00000E+00
    0.37353E-07        -0.13793E-19         0.00000E+00
    0.37090E-07         0.14901E-19         0.00000E+00
    0.36828E-07         0.14901E-19         0.00000E+00
    0.36566E-07         0.11176E-19         0.00000E+00
    0.36306E-07         0.16764E-19         0.00000E+00
    0.36047E-07         0.22379E-19         0.00000E+00
    0.35792E-07        -0.74506E-20         0.00000E+00
    0.35540E-07         0.20489E-19         0.00000E+00
    0.35293E-07        -0.93132E-20         0.00000E+00
    0.35050E-07        -0.17493E-20         0.00000E+00
    0.34813E-07        -0.32028E-19         0.00000E+00
    0.34581E-07        -0.48429E-19         0.00000E+00
    0.34356E-07        -0.22352E-19         0.00000E+00
    0.34138E-07        -0.72791E-20         0.00000E+00
    0.33927E-07        -0.11176E-19         0.00000E+00
    0.33724E-07        -0.55879E-20         0.00000E+00
    0.33528E-07        -0.10210E-19         0.00000E+00
    0.33342E-07        -0.14697E-19         0.00000E+00
    0.33164E-07        -0.13039E-19         0.00000E+00
    0.32995E-07        -0.38437E-19         0.00000E+00
    0.32836E-07        -0.39116E-19         0.00000E+00
    0.32686E-07        -0.38900E-19         0.00000E+00
    0.32546E-07        -0.26526E-19         0.00000E+00
    0.32415E-07        -0.13289E-19         0.00000E+00
    0.32295E-07        -0.12998E-19         0.00000E+00
    0.32186E-07        -0.16529E-20         0.00000E+00
    0.32086E-07        -0.22352E-19         0.00000E+00
    0.31997E-07        -0.81177E-20         0.00000E+00
    0.31919E-07        -0.18626E-19         0.00000E+00
    0.31850E-07        -0.74506E-20         0.00000E+00
    0.31793E-07        -0.54017E-19         0.00000E+00
    0.31746E-07        -0.11176E-19         0.00000E+00
    0.31709E-07        -0.29802E-19         0.00000E+00
    0.31682E-07         0.19232E-19         0.00000E+00
    0.31665E-07        -0.23438E-19         0.00000E+00
    0.31658E-07         0.15832E-19         0.00000E+00
    0.31662E-07        -0.23283E-19         0.00000E+00
    0.31674E-07        -0.54017E-19         0.00000E+00
    0.31696E-07        -0.39116E-19         0.00000E+00
    0.31727E-07        -0.16764E-19         0.00000E+00
    0.31767E-07         0.11176E-19         0.00000E+00
    0.31815E-07        -0.22352E-19         0.00000E+00
    0.31872E-07        -0.11453E-19         0.00000E+00
    0.31936E-07         0.14901E-19         0.00000E+00
    0.32008E-07        -0.55879E-20         0.00000E+00
    0.32086E-07        -0.15985E-19         0.00000E+00
    0.32172E-07        -0.74506E-20         0.00000E+00
    0.32263E-07        -0.13970E-19         0.00000E+00
    0.32360E-07        -0.16764E-19         0.00000E+00
    0.32462E-07         0.37253E-20         0.00000E+00
    0.32568E-07        -0.74506E-20         0.00000E+00
    0.32679E-07         0.21530E-19         0.00000E+00
    0.32793E-07         0.11176E-19         0.00000E+00
    0.32910E-07        -0.22352E-19         0.00000E+00
    0.33029E-07        -0.18984E-19         0.00000E+00
    0.33150E-07         0.54768E-20         0.00000E+00
    0.33271E-07        -0.10245E-19         0.00000E+00
    0.33393E-07         0.65193E-20         0.00000E+00
    0.33515E-07        -0.15270E-20         0.00000E+00
    0.33635E-07        -0.11176E-19         0.00000E+00
    0.33754E-07        -0.55879E-20         0.00000E+00
    0.33871E-07         0.65193E-20         0.00000E+00
    0.33984E-07        -0.49430E-20         0.00000E+00
    0.34093E-07         0.11911E-19         0.00000E+00
    0.34198E-07         0.14901E-19         0.00000E+00
    0.34298E-07         0.21654E-19         0.00000E+00
    0.34392E-07         0.10965E-19         0.00000E+00
    0.34479E-07        -0.40022E-20         0.00000E+00
    0.34559E-07         0.76156E-20         0.00000E+00
    0.34631E-07         0.21420E-19         0.00000E+00
    0.34695E-07         0.14787E-19         0.00000E+00
    0.34751E-07         0.18626E-20         0.00000E+00
    0.34796E-07         0.14088E-19         0.00000E+00
    0.34833E-07         0.39612E-19         0.00000E+00
    0.34859E-07         0.17693E-19         0.00000E+00
    0.34874E-07        -0.93132E-20         0.00000E+00
    0.34880E-07         0.18626E-20         0.00000E+00
    0.41429E-07         0.00000E+00         0.00000E+00
    0.41419E-07        -0.74506E-20         0.00000E+00
    0.41392E-07         0.40978E-19         0.00000E+00
    0.41346E-07         0.52154E-19         0.00000E+00
    0.41282E-07         0.44703E-19         0.00000E+00
    0.41201E-07         0.18626E-19         0.00000E+00
    0.41103E-07         0.37253E-19         0.00000E+00
    0.40989E-07         0.21534E-19         0.00000E+00
    0.40859E-07         0.27008E-19         0.00000E+00
    0.40714E-07         0.53292E-20         0.00000E+00
    0.40555E-07        -0.22352E-19         0.00000E+00
    0.40383E-07        -0.74506E-20         0.00000E+00
    0.40199E-07         0.35390E-19         0.00000E+00
    0.40003E-07         0.20489E-19         0.00000E+00
    0.39796E-07         0.13343E-19         0.00000E+00
    0.39580E-07         0.88285E-20         0.00000E+00
    0.39356E-07         0.28871E-19         0.00000E+00
    0.39123E-07        -0.93132E-21         0.00000E+00
    0.38884E-07         0.10309E-19         0.00000E+00
    0.38638E-07         0.37253E-20         0.00000E+00
    0.38388E-07        -0.74506E-20         0.00000E+00
    0.38133E-07        -0.68683E-20         0.00000E+00
    0.37875E-07         0.00000E+00         0.00000E+00
    0.37615E-07        -0.71393E-20         0.00000E+00
    0.37353E-07        -0.40047E-19         0.00000E+00
    0.37090E-07         0.56320E-20         0.00000E+00
    0.36828E-07         0.24214E-19         0.00000E+00
    0.36566E-07         0.18134E-19         0.00000E+00
    0.36306E-07         0.13738E-19         0.00000E+00
    0.36047E-07        -0.55879E-20         0.00000E+00
    0.35792E-07        -0.53036E-20         0.00000E+00
    0.35540E-07        -0.18626E-19         0.00000E+00
    0.35293E-07         0.13970E-19         0.00000E+00
    0.35050E-07        -0.29916E-19         0.00000E+00
    0.34813E-07        -0.24214E-19         0.00000E+00
    0.34581E-07        -0.59285E-19         0.00000E+00
    0.34356E-07        -0.17892E-20         0.00000E+00
    0.34138E-07         0.13039E-19         0.00000E+00
    0.33927E-07        -0.55879E-20         0.00000E+00
    0.33724E-07        -0.24214E-19         0.00000E+00
    0.33528E-07         0.13039E-19         0.00000E+00
    0.33342E-07        -0.19762E-19         0.00000E+00
    0.33164E-07        -0.11618E-19         0.00000E+00
    0.32995E-07        -0.35390E-19         0.00000E+00
    0.32836E-07        -0.20507E-19         0.00000E+00
    0.32686E-07        -0.63114E-19         0.00000E+00
    0.32546E-07        -0.26560E-19         0.00000E+00
    0.32415E-07        -0.27940E-19         0.00000E+00
    0.32295E-07        -0.14010E-19         0.00000E+00
    0.32186E-07         0.37253E-20         0.00000E+00
    0.32086E-07        -0.74506E-20         0.00000E+00
    0.31997E-07        -0.43105E-19         0.00000E+00
    0.31919E-07        -0.13039E-19         0.00000E+00
    0.31850E-07        -0.18626E-20         0.00000E+00
    0.31793E-07        -0.44703E-19         0.00000E+00
    0.31746E-07        -0.74506E-20         0.00000E+00
    0.31709E-07        -0.22352E-19         0.00000E+00
    0.31682E-07         0.14901E-19         0.00000E+00
    0.31665E-07        -0.28716E-19         0.00000E+00
    0.31658E-07        -0.77456E-20         0.00000E+00
    0.31662E-07         0.81955E-20         0.00000E+00
    0.31674E-07        -0.49360E-19         0.00000E+00
    0.31696E-07        -0.16764E-19         0.00000E+00
    0.31727E-07        -0.29802E-19         0.00000E+00
    0.31767E-07         0.18626E-20         0.00000E+00
    0.31815E-07        -0.33528E-19         0.00000E+00
    0.31872E-07        -0.34485E-20         0.00000E+00
    0.31936E-07         0.93132E-20         0.00000E+00
    0.32008E-07        -0.34231E-20         0.00000E+00
    0.32086E-07        -0.27940E-19         0.00000E+00
    0.32172E-07        -0.27940E-20         0.00000E+00
    0.32263E-07        -0.26210E-19         0.00000E+00
    0.32360E-07        -0.74506E-20         0.00000E+00
    0.32462E-07        -0.93132E-20         0.00000E+00
    0.32568E-07         0.93132E-21         0.00000E+00
    0.32679E-07         0.37253E-20         0.00000E+00
    0.32793E-07         0.93132E-20         0.00000E+00
    0.32910E-07        -0.16764E-19         0.00000E+00
    0.33029E-07        -0.21063E-19         0.00000E+00
    0.33150E-07         0.11117E-21         0.00000E+00
    0.33271E-07        -0.31439E-20         0.00000E+00
    0.33393E-07         0.12229E-19         0.00000E+00
    0.33515E-07        -0.21983E-20         0.00000E+00
    0.33635E-07         0.16764E-19         0.00000E+00
    0.33754E-07         0.37253E-20         0.00000E+00
    0.33871E-07         0.13203E-19         0.00000E+00
    0.33984E-07         0.00000E+00         0.00000E+00
    0.34093E-07        -0.93132E-21         0.00000E+00
    0.34198E-07         0.20237E-19         0.00000E+00
    0.34298E-07         0.10245E-19         0.00000E+00
    0.34392E-07         0.11896E-19         0.00000E+00
    0.34479E-07        -0.90363E-20         0.00000E+00
    0.34559E-07         0.29637E-19         0.00000E+00
    0.34631E-07         0.28265E-19         0.00000E+00
    0.34695E-07         0.18626E-20         0.00000E+00
    0.34751E-07        -0.37253E-20         0.00000E+00
    0.34796E-07         0.73320E-20         0.00000E+00
    0.34833E-07         0.33962E-19         0.00000E+00
    0.34859E-07         0.12107E-19         0.00000E+00
    0.34874E-07        -0.55879E-20         0.00000E+00
    0.34880E-07         0.17471E-20         0.00000E+00
    0.41429E-07         0.00000E+00         0.00000E+00
    0.41419E-07         0.15209E-19         0.00000E+00
    0.41392E-07         0.63506E-21         0.00000E+00
    0.41346E-07         0.41632E-19         0.00000E+00
    0.41282E-07         0.44184E-19         0.00000E+00
    0.41201E-07         0.40978E-19         0.00000E+00
    0.41103E-07         0.18181E-19         0.00000E+00
    0.40989E-07        -0.47697E-20         0.00000E+00
    0.40859E-07         0.30920E-19         0.00000E+00
    0.40714E-07        -0.22093E-19         0.00000E+00
    0.40555E-07        -0.74506E-20         0.00000E+00
    0.40383E-07         0.11579E-19         0.00000E+00
    0.40199E-07         0.38659E-19         0.00000E+00
    0.40003E-07         0.11176E-19         0.00000E+00
    0.39796E-07         0.15528E-19         0.00000E+00
    0.39580E-07         0.26077E-19         0.00000E+00
    0.39356E-07        -0.11520E-19         0.00000E+00
    0.39123E-07        -0.85854E-20         0.00000E+00
    0.38884E-07        -0.16828E-19         0.00000E+00
    0.38638E-07        -0.28685E-20         0.00000E+00
    0.38388E-07        -0.93132E-20         0.00000E+00
    0.38133E-07        -0.40047E-19         0.00000E+00
    0.37875E-07        -0.97596E-20         0.00000E+00
    0.37615E-07        -0.11487E-19         0.00000E+00
    0.37353E-07        -0.21598E-19         0.00000E+00
    0.37090E-07        -0.14945E-19         0.00000E+00
    0.36828E-07         0.74506E-20         0.00000E+00
    0.36566E-07         0.22844E-19         0.00000E+00
    0.36306E-07         0.23515E-19         0.00000E+00
    0.36047E-07        -0.18626E-20         0.00000E+00
    0.35792E-07        -0.11176E-19         0.00000E+00
    0.35540E-07        -0.50291E-19         0.00000E+00
    0.35293E-07         0.18488E-19         0.00000E+00
    0.35050E-07        -0.13039E-19         0.00000E+00
    0.34813E-07        -0.55516E-19         0.00000E+00
    0.34581E-07        -0.36322E-19         0.00000E+00
    0.34356E-07        -0.75240E-20         0.00000E+00
    0.34138E-07         0.20489E-19         0.00000E+00
    0.33927E-07        -0.18110E-19         0.00000E+00
    0.33724E-07        -0.20489E-19         0.00000E+00
    0.33528E-07         0.13970E-19         0.00000E+00
    0.33342E-07        -0.25894E-20         0.00000E+00
    0.33164E-07        -0.20489E-19         0.00000E+00
    0.32995E-07        -0.19558E-19         0.00000E+00
    0.32836E-07        -0.18609E-19         0.00000E+00
    0.32686E-07        -0.52154E-19         0.00000E+00
    0.32546E-07        -0.16281E-19         0.00000E+00
    0.32415E-07        -0.14901E-19         0.00000E+00
    0.32295E-07        -0.22352E-19         0.00000E+00
    0.32186E-07         0.53782E-20         0.00000E+00
    0.32086E-07         0.74506E-20         0.00000E+00
    0.31997E-07        -0.46566E-19         0.00000E+00
    0.31919E-07        -0.18626E-20         0.00000E+00
    0.31850E-07        -0.23283E-19         0.00000E+00
    0.31793E-07        -0.65193E-20         0.00000E+00
    0.31746E-07        -0.20489E-19         0.00000E+00
    0.31709E-07        -0.14901E-19         0.00000E+00
    0.31682E-07        -0.16764E-19         0.00000E+00
    0.31665E-07        -0.12262E-19         0.00000E+00
    0.31658E-07        -0.99495E-20         0.00000E+00
    0.31662E-07         0.10245E-19         0.00000E+00
    0.31674E-07        -0.35127E-19         0.00000E+00
    0.31696E-07        -0.27940E-19         0.00000E+00
    0.31727E-07        -0.28871E-19         0.00000E+00
    0.31767E-07        -0.13039E-19         0.00000E+00
    0.31815E-07        -0.28871E-19         0.00000E+00
    0.31872E-07        -0.67960E-20         0.00000E+00
    0.31936E-07         0.18626E-20         0.00000E+00
    0.32008E-07        -0.77528E-20         0.00000E+00
    0.32086E-07        -0.13970E-19         0.00000E+00
    0.32172E-07         0.61954E-20         0.00000E+00
    0.32263E-07        -0.35258E-19         0.00000E+00
    0.32360E-07        -0.10835E-19         0.00000E+00
    0.32462E-07        -0.18626E-20         0.00000E+00
    0.32568E-07         0.18048E-19         0.00000E+00
    0.32679E-07        -0.29802E-19         0.00000E+00
    0.32793E-07         0.18626E-20         0.00000E+00
    0.32910E-07        -0.13039E-19         0.00000E+00
    0.33029E-07        -0.21420E-19         0.00000E+00
    0.33150E-07        -0.10425E-20         0.00000E+00
    0.33271E-07         0.93132E-21         0.00000E+00
    0.33393E-07         0.55879E-20         0.00000E+00
    0.33515E-07        -0.24583E-20         0.00000E+00
    0.33635E-07         0.18626E-19         0.00000E+00
    0.33754E-07         0.77650E-20         0.00000E+00
    0.33871E-07        -0.16928E-19         0.00000E+00
    0.33984E-07         0.12107E-19         0.00000E+00
    0.34093E-07        -0.57837E-20         0.00000E+00
    0.34198E-07         0.13290E-19         0.00000E+00
    0.34298E-07         0.10942E-19         0.00000E+00
    0.34392E-07         0.26077E-19         0.00000E+00
    0.34479E-07         0.65438E-21         0.00000E+00
    0.34559E-07         0.44868E-19         0.00000E+00
    0.34631E-07         0.18301E-19         0.00000E+00
    0.34695E-07         0.14901E-19         0.00000E+00
    0.34751E-07        -0.93132E-21         0.00000E+00
    0.34796E-07         0.10245E-19         0.00000E+00
    0.34833E-07         0.23591E-20         0.00000E+00
    0.34859E-07         0.18628E-19         0.00000E+00
    0.34874E-07         0.18626E-20         0.00000E+00
    0.34880E-07        -0.18626E-20         0.00000E+00
    0.41429E-07         0.00000E+00         0.00000E+00
    0.41419E-07         0.33219E-19         0.00000E+00
    0.41392E-07        -0.80856E-20         0.00000E+00
    0.41346E-07         0.18626E-19         0.00000E+00
    0.41282E-07         0.34047E-19         0.00000E+00
    0.41201E-07         0.22352E-19         0.00000E+00
    0.41103E-07        -0.74506E-20         0.00000E+00
    0.40989E-07        -0.14901E-19         0.00000E+00
    0.40859E-07         0.35393E-20         0.00000E+00
    0.40714E-07        -0.13297E-19         0.00000E+00
    0.40555E-07         0.11176E-19         0.00000E+00
    0.40383E-07         0.22352E-19         0.00000E+00
    0.40199E-07         0.39116E-19         0.00000E+00
    0.40003E-07        -0.37253E-20         0.00000E+00
    0.39796E-07         0.93132E-20         0.00000E+00
    0.39580E-07         0.30734E-19         0.00000E+00
    0.39356E-07        -0.24503E-20         0.00000E+00
    0.39123E-07        -0.72471E-20         0.00000E+00
    0.38884E-07        -0.20425E-19         0.00000E+00
    0.38638E-07        -0.19483E-19         0.00000E+00
    0.38388E-07        -0.26077E-19         0.00000E+00
    0.38133E-07        -0.38766E-19         0.00000E+00
    0.37875E-07        -0.20489E-19         0.00000E+00
    0.37615E-07        -0.16452E-19         0.00000E+00
    0.37353E-07        -0.74506E-20         0.00000E+00
    0.37090E-07        -0.14901E-19         0.00000E+00
    0.36828E-07        -0.11176E-19         0.00000E+00
    0.36566E-07         0.31665E-19         0.00000E+00
    0.36306E-07         0.11176E-19         0.00000E+00
    0.36047E-07        -0.28213E-20         0.00000E+00
    0.35792E-07        -0.31665E-19         0.00000E+00
    0.35540E-07        -0.46566E-19         0.00000E+00
    0.35293E-07        -0.79298E-21         0.00000E+00
    0.35050E-07        -0.91999E-20         0.00000E+00
    0.34813E-07        -0.67418E-19         0.00000E+00
    0.34581E-07        -0.17084E-19         0.00000E+00
    0.34356E-07         0.28674E-20         0.00000E+00
    0.34138E-07         0.55879E-20         0.00000E+00
    0.33927E-07        -0.21006E-19         0.00000E+00
    0.33724E-07        -0.18626E-20         0.00000E+00
    0.33528E-07         0.27596E-20         0.00000E+00
    0.33342E-07        -0.11359E-20         0.00000E+00
    0.33164E-07        -0.88711E-20         0.00000E+00
    0.32995E-07        -0.44037E-20         0.00000E+00
    0.32836E-07        -0.35390E-19         0.00000E+00
    0.32686E-07        -0.11176E-19         0.00000E+00
    0.32546E-07         0.13487E-19         0.00000E+00
    0.32415E-07         0.18626E-19         0.00000E+00
    0.32295E-07        -0.13018E-19         0.00000E+00
    0.32186E-07        -0.14691E-19         0.00000E+00
    0.32086E-07         0.18626E-19         0.00000E+00
    0.31997E-07        -0.38184E-19         0.00000E+00
    0.31919E-07        -0.55879E-20         0.00000E+00
    0.31850E-07        -0.31284E-19         0.00000E+00
    0.31793E-07        -0.38225E-20         0.00000E+00
    0.31746E-07        -0.27940E-19         0.00000E+00
    0.31709E-07        -0.13039E-19         0.00000E+00
    0.31682E-07        -0.22352E-19         0.00000E+00
    0.31665E-07        -0.15677E-19         0.00000E+00
    0.31658E-07        -0.37253E-20         0.00000E+00
    0.31662E-07         0.16019E-19         0.00000E+00
    0.31674E-07        -0.39379E-19         0.00000E+00
    0.31696E-07        -0.17695E-19         0.00000E+00
    0.31727E-07        -0.33295E-19         0.00000E+00
    0.31767E-07        -0.26077E-19         0.00000E+00
    0.31815E-07        -0.26280E-19         0.00000E+00
    0.31872E-07        -0.15556E-19         0.00000E+00
    0.31936E-07        -0.19558E-19         0.00000E+00
    0.32008E-07        -0.46566E-20         0.00000E+00
    0.32086E-07        -0.91611E-20         0.00000E+00
    0.32172E-07        -0.13039E-19         0.00000E+00
    0.32263E-07        -0.30866E-19         0.00000E+00
    0.32360E-07        -0.10245E-19         0.00000E+00
    0.32462E-07        -0.13039E-19         0.00000E+00
    0.32568E-07         0.10823E-19         0.00000E+00
    0.32679E-07        -0.24214E-19         0.00000E+00
    0.32793E-07        -0.83819E-20         0.00000E+00
    0.32910E-07        -0.65193E-20         0.00000E+00
    0.33029E-07        -0.19915E-19         0.00000E+00
    0.33150E-07        -0.18626E-20         0.00000E+00
    0.33271E-07         0.31439E-20         0.00000E+00
    0.33393E-07        -0.12202E-21         0.00000E+00
    0.33515E-07        -0.14305E-19         0.00000E+00
    0.33635E-07         0.74506E-20         0.00000E+00
    0.33754E-07        -0.12457E-20         0.00000E+00
    0.33871E-07        -0.17531E-19         0.00000E+00
    0.33984E-07         0.30803E-20         0.00000E+00
    0.34093E-07         0.20584E-20         0.00000E+00
    0.34198E-07         0.16764E-19         0.00000E+00
    0.34298E-07         0.10942E-19         0.00000E+00
    0.34392E-07         0.26077E-19         0.00000E+00
    0.34479E-07         0.55879E-20         0.00000E+00
    0.34559E-07         0.21255E-19         0.00000E+00
    0.34631E-07         0.31195E-20         0.00000E+00
    0.34695E-07         0.37253E-20         0.00000E+00
    0.34751E-07         0.42781E-20         0.00000E+00
    0.34796E-07         0.11235E-19         0.00000E+00
    0.34833E-07        -0.23591E-20         0.00000E+00
    0.34859E-07         0.21419E-19         0.00000E+00
    0.34874E-07         0.11176E-19         0.00000E+00
    0.34880E-07        -0.17471E-20         0.00000E+00
    0.41429E-07         0.00000E+00         0.00000E+00
    0.41419E-07         0.18626E-19         0.00000E+00
    0.41392E-07         0.37253E-20         0.00000E+00
    0.41346E-07         0.18626E-19         0.00000E+00
    0.41282E-07         0.11176E-19         0.00000E+00
    0.41201E-07         0.18626E-19         0.00000E+00
    0.41103E-07        -0.44703E-19         0.00000E+00
    0.40989E-07         0.37253E-20         0.00000E+00
    0.40859E-07        -0.11176E-19         0.00000E+00
    0.40714E-07         0.16091E-19         0.00000E+00
    0.40555E-07        -0.74506E-20         0.00000E+00
    0.40383E-07         0.10772E-19         0.00000E+00
    0.40199E-07         0.29802E-19         0.00000E+00
    0.40003E-07         0.33528E-19         0.00000E+00
    0.39796E-07         0.11176E-19         0.00000E+00
    0.39580E-07         0.30287E-19         0.00000E+00
    0.39356E-07        -0.10245E-19         0.00000E+00
    0.39123E-07        -0.11176E-19         0.00000E+00
    0.38884E-07         0.27876E-19         0.00000E+00
    0.38638E-07        -0.18626E-19         0.00000E+00
    0.38388E-07        -0.39116E-19         0.00000E+00
    0.38133E-07        -0.10594E-19         0.00000E+00
    0.37875E-07        -0.39601E-19         0.00000E+00
    0.37615E-07        -0.31053E-20         0.00000E+00
    0.37353E-07        -0.18626E-19         0.00000E+00
    0.37090E-07         0.37253E-20         0.00000E+00
    0.36828E-07        -0.26077E-19         0.00000E+00
    0.36566E-07         0.29802E-19         0.00000E+00
    0.36306E-07         0.37253E-20         0.00000E+00
    0.36047E-07        -0.28844E-19         0.00000E+00
    0.35792E-07        -0.46850E-19         0.00000E+00
    0.35540E-07        -0.14901E-19         0.00000E+00
    0.35293E-07         0.83819E-20         0.00000E+00
    0.35050E-07        -0.31665E-19         0.00000E+00
    0.34813E-07        -0.29802E-19         0.00000E+00
    0.34581E-07        -0.43367E-20         0.00000E+00
    0.34356E-07         0.17892E-20         0.00000E+00
    0.34138E-07        -0.13039E-19         0.00000E+00
    0.33927E-07         0.93132E-20         0.00000E+00
    0.33724E-07         0.11176E-19         0.00000E+00
    0.33528E-07        -0.36909E-20         0.00000E+00
    0.33342E-07         0.20455E-21         0.00000E+00
    0.33164E-07        -0.11618E-19         0.00000E+00
    0.32995E-07        -0.10245E-19         0.00000E+00
    0.32836E-07        -0.33546E-19         0.00000E+00
    0.32686E-07         0.72347E-20         0.00000E+00
    0.32546E-07         0.93132E-20         0.00000E+00
    0.32415E-07         0.20740E-19         0.00000E+00
    0.32295E-07        -0.93334E-20         0.00000E+00
    0.32186E-07        -0.14901E-19         0.00000E+00
    0.32086E-07        -0.37253E-20         0.00000E+00
    0.31997E-07        -0.12774E-19         0.00000E+00
    0.31919E-07        -0.27008E-19         0.00000E+00
    0.31850E-07        -0.23664E-19         0.00000E+00
    0.31793E-07        -0.25048E-19         0.00000E+00
    0.31746E-07        -0.33528E-19         0.00000E+00
    0.31709E-07         0.17570E-19         0.00000E+00
    0.31682E-07        -0.13039E-19         0.00000E+00
    0.31665E-07        -0.12107E-19         0.00000E+00
    0.31658E-07        -0.15832E-19         0.00000E+00
    0.31662E-07         0.00000E+00         0.00000E+00
    0.31674E-07        -0.26341E-19         0.00000E+00
    0.31696E-07        -0.29089E-19         0.00000E+00
    0.31727E-07        -0.34691E-19         0.00000E+00
    0.31767E-07        -0.17695E-19         0.00000E+00
    0.31815E-07        -0.26806E-19         0.00000E+00
    0.31872E-07        -0.20489E-19         0.00000E+00
    0.31936E-07        -0.11000E-19         0.00000E+00
    0.32008E-07        -0.19256E-19         0.00000E+00
    0.32086E-07        -0.10397E-19         0.00000E+00
    0.32172E-07        -0.31665E-19         0.00000E+00
    0.32263E-07        -0.24214E-19         0.00000E+00
    0.32360E-07        -0.40661E-20         0.00000E+00
    0.32462E-07        -0.55879E-20         0.00000E+00
    0.32568E-07         0.27940E-20         0.00000E+00
    0.32679E-07        -0.55879E-20         0.00000E+00
    0.32793E-07        -0.21994E-19         0.00000E+00
    0.32910E-07        -0.36181E-20         0.00000E+00
    0.33029E-07        -0.19558E-19         0.00000E+00
    0.33150E-07        -0.37253E-20         0.00000E+00
    0.33271E-07        -0.83819E-20         0.00000E+00
    0.33393E-07         0.18626E-20         0.00000E+00
    0.33515E-07         0.33562E-21         0.00000E+00
    0.33635E-07         0.00000E+00         0.00000E+00
    0.33754E-07        -0.43422E-20         0.00000E+00
    0.33871E-07         0.74506E-20         0.00000E+00
    0.33984E-07         0.93132E-21         0.00000E+00
    0.34093E-07         0.16669E-20         0.00000E+00
    0.34198E-07         0.19306E-19         0.00000E+00
    0.34298E-07         0.16066E-19         0.00000E+00
    0.34392E-07         0.15112E-19         0.00000E+00
    0.34479E-07         0.93132E-20         0.00000E+00
    0.34559E-07        -0.55879E-20         0.00000E+00
    0.34631E-07         0.18626E-20         0.00000E+00
    0.34695E-07         0.19767E-20         0.00000E+00
    0.34751E-07         0.83819E-20         0.00000E+00
    0.34796E-07        -0.37846E-20         0.00000E+00
    0.34833E-07         0.20489E-19         0.00000E+00
    0.34859E-07         0.93132E-20         0.00000E+00
    0.34874E-07         0.19558E-19         0.00000E+00
    0.34880E-07         0.00000E+00         0.00000E+00
    0.41429E-07         0.00000E+00         0.00000E+00
    0.41419E-07         0.39424E-19         0.00000E+00
    0.41392E-07         0.15536E-19         0.00000E+00
    0.41346E-07         0.37253E-19         0.00000E+00
    0.41282E-07         0.32063E-20         0.00000E+00
    0.41201E-07         0.11176E-19         0.00000E+00
    0.41103E-07        -0.40978E-19         0.00000E+00
    0.40989E-07        -0.37253E-19         0.00000E+00
    0.40859E-07         0.19744E-19         0.00000E+00
    0.40714E-07         0.62605E-20         0.00000E+00
    0.40555E-07        -0.11176E-19         0.00000E+00
    0.40383E-07         0.59913E-20         0.00000E+00
    0.40199E-07         0.37253E-20         0.00000E+00
    0.40003E-07         0.54017E-19         0.00000E+00
    0.39796E-07         0.00000E+00         0.00000E+00
    0.39580E-07         0.55879E-20         0.00000E+00
    0.39356E-07         0.13626E-19         0.00000E+00
    0.39123E-07         0.11176E-19         0.00000E+00
    0.38884E-07         0.24278E-19         0.00000E+00
    0.38638E-07         0.22352E-19         0.00000E+00
    0.38388E-07        -0.34459E-19         0.00000E+00
    0.38133E-07        -0.46566E-20         0.00000E+00
    0.37875E-07        -0.36768E-19         0.00000E+00
    0.37615E-07        -0.16141E-19         0.00000E+00
    0.37353E-07         0.55879E-20         0.00000E+00
    0.37090E-07         0.00000E+00         0.00000E+00
    0.36828E-07        -0.27940E-19         0.00000E+00
    0.36566E-07         0.93132E-20         0.00000E+00
    0.36306E-07         0.55879E-20         0.00000E+00
    0.36047E-07        -0.65193E-20         0.00000E+00
    0.35792E-07        -0.57742E-19         0.00000E+00
    0.35540E-07         0.22544E-20         0.00000E+00
    0.35293E-07         0.17243E-20         0.00000E+00
    0.35050E-07        -0.28053E-19         0.00000E+00
    0.34813E-07        -0.93132E-20         0.00000E+00
    0.34581E-07        -0.14901E-19         0.00000E+00
    0.34356E-07         0.73404E-22         0.00000E+00
    0.34138E-07        -0.22352E-19         0.00000E+00
    0.33927E-07         0.26077E-19         0.00000E+00
    0.33724E-07         0.13039E-19         0.00000E+00
    0.33528E-07        -0.12107E-19         0.00000E+00
    0.33342E-07         0.12834E-19         0.00000E+00
    0.33164E-07        -0.11176E-19         0.00000E+00
    0.32995E-07        -0.36828E-19         0.00000E+00
    0.32836E-07         0.56059E-20         0.00000E+00
    0.32686E-07        -0.18626E-20         0.00000E+00
    0.32546E-07        -0.13970E-19         0.00000E+00
    0.32415E-07         0.10245E-19         0.00000E+00
    0.32295E-07        -0.55678E-20         0.00000E+00
    0.32186E-07        -0.74506E-20         0.00000E+00
    0.32086E-07        -0.22352E-19         0.00000E+00
    0.31997E-07         0.10912E-19         0.00000E+00
    0.31919E-07        -0.42914E-19         0.00000E+00
    0.31850E-07        -0.16764E-19         0.00000E+00
    0.31793E-07        -0.13970E-19         0.00000E+00
    0.31746E-07        -0.24791E-19         0.00000E+00
    0.31709E-07         0.17820E-19         0.00000E+00
    0.31682E-07         0.37253E-20         0.00000E+00
    0.31665E-07         0.54329E-20         0.00000E+00
    0.31658E-07        -0.29166E-19         0.00000E+00
    0.31662E-07        -0.16764E-19         0.00000E+00
    0.31674E-07        -0.62558E-20         0.00000E+00
    0.31696E-07        -0.37749E-19         0.00000E+00
    0.31727E-07        -0.31665E-19         0.00000E+00
    0.31767E-07        -0.24463E-19         0.00000E+00
    0.31815E-07        -0.36322E-19         0.00000E+00
    0.31872E-07        -0.24214E-19         0.00000E+00
    0.31936E-07        -0.57637E-20         0.00000E+00
    0.32008E-07        -0.23283E-19         0.00000E+00
    0.32086E-07        -0.27940E-20         0.00000E+00
    0.32172E-07        -0.27940E-19         0.00000E+00
    0.32263E-07        -0.21420E-19         0.00000E+00
    0.32360E-07        -0.71098E-20         0.00000E+00
    0.32462E-07        -0.55879E-20         0.00000E+00
    0.32568E-07        -0.10823E-19         0.00000E+00
    0.32679E-07        -0.74506E-20         0.00000E+00
    0.32793E-07        -0.29229E-19         0.00000E+00
    0.32910E-07        -0.10352E-19         0.00000E+00
    0.33029E-07        -0.80246E-20         0.00000E+00
    0.33150E-07        -0.15832E-19         0.00000E+00
    0.33271E-07         0.43067E-20         0.00000E+00
    0.33393E-07         0.55879E-20         0.00000E+00
    0.33515E-07         0.99089E-20         0.00000E+00
    0.33635E-07        -0.14901E-19         0.00000E+00
    0.33754E-07         0.83819E-20         0.00000E+00
    0.33871E-07        -0.55879E-20         0.00000E+00
    0.33984E-07         0.11534E-19         0.00000E+00
    0.34093E-07        -0.13774E-19         0.00000E+00
    0.34198E-07         0.30458E-20         0.00000E+00
    0.34298E-07         0.16764E-19         0.00000E+00
    0.34392E-07         0.37253E-20         0.00000E+00
    0.34479E-07         0.12107E-19         0.00000E+00
    0.34559E-07         0.37253E-20         0.00000E+00
    0.34631E-07         0.16764E-19         0.00000E+00
    0.34695E-07         0.21420E-19         0.00000E+00
    0.34751E-07         0.16211E-19         0.00000E+00
    0.34796E-07         0.93725E-20         0.00000E+00
    0.34833E-07         0.20489E-19         0.00000E+00
    0.34859E-07         0.11176E-19         0.00000E+00
    0.34874E-07         0.11614E-19         0.00000E+00
    0.34880E-07         0.00000E+00         0.00000E+00
    0.41429E-07         0.00000E+00         0.00000E+00
    0.41419E-07         0.31048E-19         0.00000E+00
    0.41392E-07         0.45296E-19         0.00000E+00
    0.41346E-07         0.26077E-19         0.00000E+00
    0.41282E-07         0.25252E-19         0.00000E+00
    0.41201E-07        -0.79329E-20         0.00000E+00
    0.41103E-07        -0.26077E-19         0.00000E+00
    0.40989E-07        -0.67055E-19         0.00000E+00
    0.40859E-07         0.48988E-19         0.00000E+00
    0.40714E-07         0.16091E-19         0.00000E+00
    0.40555E-07         0.30134E-19         0.00000E+00
    0.40383E-07        -0.93132E-20         0.00000E+00
    0.40199E-07         0.20489E-19         0.00000E+00
    0.40003E-07         0.93132E-20         0.00000E+00
    0.39796E-07         0.20489E-19         0.00000E+00
    0.39580E-07        -0.16764E-19         0.00000E+00
    0.39356E-07         0.31421E-19         0.00000E+00
    0.39123E-07         0.14901E-19         0.00000E+00
    0.38884E-07         0.11112E-19         0.00000E+00
    0.38638E-07         0.18626E-20         0.00000E+00
    0.38388E-07         0.85941E-20         0.00000E+00
    0.38133E-07        -0.17346E-19         0.00000E+00
    0.37875E-07        -0.18626E-19         0.00000E+00
    0.37615E-07        -0.45015E-19         0.00000E+00
    0.37353E-07         0.25146E-19         0.00000E+00
    0.37090E-07        -0.93132E-20         0.00000E+00
    0.36828E-07        -0.13039E-19         0.00000E+00
    0.36566E-07        -0.13039E-19         0.00000E+00
    0.36306E-07        -0.74506E-20         0.00000E+00
    0.36047E-07         0.21393E-19         0.00000E+00
    0.35792E-07        -0.42841E-19         0.00000E+00
    0.35540E-07        -0.14901E-19         0.00000E+00
    0.35293E-07        -0.24869E-19         0.00000E+00
    0.35050E-07        -0.16764E-19         0.00000E+00
    0.34813E-07        -0.18626E-19         0.00000E+00
    0.34581E-07        -0.24534E-19         0.00000E+00
    0.34356E-07        -0.10318E-19         0.00000E+00
    0.34138E-07        -0.37253E-20         0.00000E+00
    0.33927E-07        -0.18626E-20         0.00000E+00
    0.33724E-07         0.14901E-19         0.00000E+00
    0.33528E-07         0.89696E-21         0.00000E+00
    0.33342E-07         0.16037E-19         0.00000E+00
    0.33164E-07        -0.10734E-19         0.00000E+00
    0.32995E-07        -0.17442E-19         0.00000E+00
    0.32836E-07         0.93132E-20         0.00000E+00
    0.32686E-07        -0.11176E-19         0.00000E+00
    0.32546E-07        -0.17661E-19         0.00000E+00
    0.32415E-07         0.12788E-19         0.00000E+00
    0.32295E-07         0.92931E-20         0.00000E+00
    0.32186E-07        -0.18626E-20         0.00000E+00
    0.32086E-07        -0.31665E-19         0.00000E+00
    0.31997E-07         0.21268E-20         0.00000E+00
    0.31919E-07        -0.15759E-19         0.00000E+00
    0.31850E-07        -0.18626E-19         0.00000E+00
    0.31793E-07        -0.38225E-20         0.00000E+00
    0.31746E-07        -0.12462E-19         0.00000E+00
    0.31709E-07        -0.14901E-19         0.00000E+00
    0.31682E-07         0.21420E-19         0.00000E+00
    0.31665E-07        -0.26853E-19         0.00000E+00
    0.31658E-07        -0.27940E-19         0.00000E+00
    0.31662E-07        -0.39117E-20         0.00000E+00
    0.31674E-07        -0.11176E-19         0.00000E+00
    0.31696E-07        -0.36539E-19         0.00000E+00
    0.31727E-07        -0.26077E-19         0.00000E+00
    0.31767E-07        -0.18378E-19         0.00000E+00
    0.31815E-07        -0.28668E-19         0.00000E+00
    0.31872E-07        -0.24491E-19         0.00000E+00
    0.31936E-07        -0.13794E-19         0.00000E+00
    0.32008E-07        -0.20791E-19         0.00000E+00
    0.32086E-07        -0.13818E-19         0.00000E+00
    0.32172E-07        -0.18626E-19         0.00000E+00
    0.32263E-07        -0.23150E-19         0.00000E+00
    0.32360E-07         0.89725E-20         0.00000E+00
    0.32462E-07        -0.21420E-19         0.00000E+00
    0.32568E-07         0.80295E-20         0.00000E+00
    0.32679E-07         0.18626E-20         0.00000E+00
    0.32793E-07        -0.33528E-19         0.00000E+00
    0.32910E-07         0.10245E-19         0.00000E+00
    0.33029E-07        -0.12107E-19         0.00000E+00
    0.33150E-07        -0.29691E-19         0.00000E+00
    0.33271E-07         0.11176E-19         0.00000E+00
    0.33393E-07        -0.80930E-21         0.00000E+00
    0.33515E-07         0.12107E-19         0.00000E+00
    0.33635E-07        -0.93132E-20         0.00000E+00
    0.33754E-07         0.13655E-19         0.00000E+00
    0.33871E-07        -0.10245E-19         0.00000E+00
    0.33984E-07        -0.43703E-20         0.00000E+00
    0.34093E-07        -0.74506E-20         0.00000E+00
    0.34198E-07         0.10245E-19         0.00000E+00
    0.34298E-07         0.13039E-19         0.00000E+00
    0.34392E-07         0.65193E-20         0.00000E+00
    0.34479E-07         0.10899E-19         0.00000E+00
    0.34559E-07         0.87119E-20         0.00000E+00
    0.34631E-07         0.46566E-19         0.00000E+00
    0.34695E-07         0.16650E-19         0.00000E+00
    0.34751E-07         0.46566E-20         0.00000E+00
    0.34796E-07         0.17636E-19         0.00000E+00
    0.34833E-07         0.20489E-19         0.00000E+00
    0.34859E-07         0.12107E-19         0.00000E+00
    0.34874E-07         0.98068E-20         0.00000E+00
    0.34880E-07         0.00000E+00         0.00000E+00
    0.41429E-07         0.00000E+00         0.00000E+00
    0.41419E-07         0.37253E-20         0.00000E+00
    0.41392E-07         0.44703E-19         0.00000E+00
    0.41346E-07        -0.43787E-20         0.00000E+00
    0.41282E-07        -0.74506E-20         0.00000E+00
    0.41201E-07         0.37253E-20         0.00000E+00
    0.41103E-07        -0.18181E-19         0.00000E+00
    0.40989E-07        -0.13039E-19         0.00000E+00
    0.40859E-07        -0.10245E-19         0.00000E+00
    0.40714E-07         0.55879E-20         0.00000E+00
    0.40555E-07         0.26077E-19         0.00000E+00
    0.40383E-07        -0.22352E-19         0.00000E+00
    0.40199E-07         0.43297E-19         0.00000E+00
    0.40003E-07        -0.27940E-19         0.00000E+00
    0.39796E-07         0.36322E-19         0.00000E+00
    0.39580E-07        -0.19558E-19         0.00000E+00
    0.39356E-07         0.17695E-19         0.00000E+00
    0.39123E-07         0.55879E-20         0.00000E+00
    0.38884E-07        -0.18626E-20         0.00000E+00
    0.38638E-07        -0.11176E-19         0.00000E+00
    0.38388E-07         0.19558E-19         0.00000E+00
    0.38133E-07        -0.24214E-19         0.00000E+00
    0.37875E-07        -0.24214E-19         0.00000E+00
    0.37615E-07        -0.33528E-19         0.00000E+00
    0.37353E-07         0.19735E-19         0.00000E+00
    0.37090E-07        -0.55439E-20         0.00000E+00
    0.36828E-07         0.18626E-20         0.00000E+00
    0.36566E-07        -0.27940E-19         0.00000E+00
    0.36306E-07        -0.15832E-19         0.00000E+00
    0.36047E-07         0.19558E-19         0.00000E+00
    0.35792E-07         0.74506E-20         0.00000E+00
    0.35540E-07        -0.23675E-19         0.00000E+00
    0.35293E-07        -0.19558E-19         0.00000E+00
    0.35050E-07        -0.14901E-19         0.00000E+00
    0.34813E-07         0.18626E-20         0.00000E+00
    0.34581E-07        -0.93132E-20         0.00000E+00
    0.34356E-07         0.74506E-20         0.00000E+00
    0.34138E-07         0.18626E-20         0.00000E+00
    0.33927E-07        -0.35390E-19         0.00000E+00
    0.33724E-07         0.33528E-19         0.00000E+00
    0.33528E-07        -0.18626E-19         0.00000E+00
    0.33342E-07         0.53834E-20         0.00000E+00
    0.33164E-07        -0.35390E-19         0.00000E+00
    0.32995E-07         0.18626E-19         0.00000E+00
    0.32836E-07         0.13021E-19         0.00000E+00
    0.32686E-07        -0.18842E-19         0.00000E+00
    0.32546E-07        -0.88645E-20         0.00000E+00
    0.32415E-07         0.49075E-20         0.00000E+00
    0.32295E-07         0.74506E-20         0.00000E+00
    0.32186E-07        -0.15111E-19         0.00000E+00
    0.32086E-07        -0.31665E-19         0.00000E+00
    0.31997E-07        -0.15165E-19         0.00000E+00
    0.31919E-07         0.37253E-20         0.00000E+00
    0.31850E-07        -0.93132E-20         0.00000E+00
    0.31793E-07        -0.15735E-19         0.00000E+00
    0.31746E-07        -0.21420E-19         0.00000E+00
    0.31709E-07        -0.65193E-20         0.00000E+00
    0.31682E-07         0.59138E-20         0.00000E+00
    0.31665E-07        -0.34459E-19         0.00000E+00
    0.31658E-07        -0.21420E-19         0.00000E+00
    0.31662E-07        -0.18626E-20         0.00000E+00
    0.31674E-07        -0.65193E-20         0.00000E+00
    0.31696E-07        -0.28871E-19         0.00000E+00
    0.31727E-07        -0.22352E-19         0.00000E+00
    0.31767E-07         0.39736E-20         0.00000E+00
    0.31815E-07        -0.13039E-19         0.00000E+00
    0.31872E-07        -0.14624E-19         0.00000E+00
    0.31936E-07        -0.22352E-19         0.00000E+00
    0.32008E-07        -0.22981E-19         0.00000E+00
    0.32086E-07        -0.17695E-19         0.00000E+00
    0.32172E-07        -0.22352E-19         0.00000E+00
    0.32263E-07        -0.19558E-19         0.00000E+00
    0.32360E-07         0.15242E-19         0.00000E+00
    0.32462E-07         0.36069E-20         0.00000E+00
    0.32568E-07         0.24214E-19         0.00000E+00
    0.32679E-07        -0.18626E-20         0.00000E+00
    0.32793E-07        -0.30734E-19         0.00000E+00
    0.32910E-07         0.24107E-19         0.00000E+00
    0.33029E-07        -0.18984E-19         0.00000E+00
    0.33150E-07        -0.13150E-19         0.00000E+00
    0.33271E-07         0.65193E-20         0.00000E+00
    0.33393E-07        -0.11298E-19         0.00000E+00
    0.33515E-07         0.17099E-19         0.00000E+00
    0.33635E-07        -0.37253E-20         0.00000E+00
    0.33754E-07         0.00000E+00         0.00000E+00
    0.33871E-07        -0.48211E-20         0.00000E+00
    0.33984E-07        -0.37253E-20         0.00000E+00
    0.34093E-07        -0.37253E-20         0.00000E+00
    0.34198E-07         0.23031E-19         0.00000E+00
    0.34298E-07         0.13039E-19         0.00000E+00
    0.34392E-07         0.11387E-19         0.00000E+00
    0.34479E-07         0.33479E-20         0.00000E+00
    0.34559E-07         0.15667E-19         0.00000E+00
    0.34631E-07         0.40047E-19         0.00000E+00
    0.34695E-07         0.19672E-19         0.00000E+00
    0.34751E-07        -0.59665E-20         0.00000E+00
    0.34796E-07         0.00000E+00         0.00000E+00
    0.34833E-07         0.14901E-19         0.00000E+00
    0.34859E-07         0.37269E-20         0.00000E+00
    0.34874E-07         0.15832E-19         0.00000E+00
    0.34880E-07         0.00000E+00         0.00000E+00
    0.41429E-07         0.00000E+00         0.00000E+00
    0.41419E-07         0.40336E-20         0.00000E+00
    0.41392E-07         0.45339E-19         0.00000E+00
    0.41346E-07        -0.14248E-19         0.00000E+00
    0.41282E-07        -0.41497E-19         0.00000E+00
    0.41201E-07        -0.10694E-19         0.00000E+00
    0.41103E-07        -0.78962E-20         0.00000E+00
    0.40989E-07         0.10358E-19         0.00000E+00
    0.40859E-07        -0.45449E-19         0.00000E+00
    0.40714E-07         0.37253E-20         0.00000E+00
    0.40555E-07         0.14570E-19         0.00000E+00
    0.40383E-07         0.55879E-20         0.00000E+00
    0.40199E-07        -0.79066E-20         0.00000E+00
    0.40003E-07        -0.26077E-19         0.00000E+00
    0.39796E-07         0.17069E-19         0.00000E+00
    0.39580E-07         0.32406E-20         0.00000E+00
    0.39356E-07         0.24503E-20         0.00000E+00
    0.39123E-07         0.55879E-20         0.00000E+00
    0.38884E-07        -0.29802E-19         0.00000E+00
    0.38638E-07         0.14827E-19         0.00000E+00
    0.38388E-07         0.81697E-20         0.00000E+00
    0.38133E-07        -0.13039E-19         0.00000E+00
    0.37875E-07        -0.29802E-19         0.00000E+00
    0.37615E-07        -0.11176E-19         0.00000E+00
    0.37353E-07         0.35213E-19         0.00000E+00
    0.37090E-07        -0.44051E-22         0.00000E+00
    0.36828E-07         0.55879E-20         0.00000E+00
    0.36566E-07        -0.22352E-19         0.00000E+00
    0.36306E-07        -0.16995E-19         0.00000E+00
    0.36047E-07         0.56152E-20         0.00000E+00
    0.35792E-07         0.41263E-19         0.00000E+00
    0.35540E-07         0.41171E-20         0.00000E+00
    0.35293E-07        -0.29323E-20         0.00000E+00
    0.35050E-07        -0.16651E-19         0.00000E+00
    0.34813E-07         0.74506E-20         0.00000E+00
    0.34581E-07         0.12107E-19         0.00000E+00
    0.34356E-07         0.20489E-19         0.00000E+00
    0.34138E-07        -0.37253E-20         0.00000E+00
    0.33927E-07        -0.22767E-19         0.00000E+00
    0.33724E-07         0.22352E-19         0.00000E+00
    0.33528E-07        -0.26043E-19         0.00000E+00
    0.33342E-07        -0.91087E-20         0.00000E+00
    0.33164E-07        -0.22352E-19         0.00000E+00
    0.32995E-07        -0.74506E-20         0.00000E+00
    0.32836E-07         0.12107E-19         0.00000E+00
    0.32686E-07        -0.35094E-20         0.00000E+00
    0.32546E-07         0.37253E-20         0.00000E+00
    0.32415E-07        -0.13970E-19         0.00000E+00
    0.32295E-07         0.55879E-20         0.00000E+00
    0.32186E-07        -0.46356E-19         0.00000E+00
    0.32086E-07        -0.11176E-19         0.00000E+00
    0.31997E-07        -0.25813E-19         0.00000E+00
    0.31919E-07        -0.55879E-20         0.00000E+00
    0.31850E-07        -0.13039E-19         0.00000E+00
    0.31793E-07        -0.74506E-20         0.00000E+00
    0.31746E-07        -0.22928E-19         0.00000E+00
    0.31709E-07         0.91883E-20         0.00000E+00
    0.31682E-07        -0.17090E-19         0.00000E+00
    0.31665E-07         0.54329E-20         0.00000E+00
    0.31658E-07        -0.25782E-19         0.00000E+00
    0.31662E-07        -0.27940E-19         0.00000E+00
    0.31674E-07         0.10912E-19         0.00000E+00
    0.31696E-07        -0.29584E-19         0.00000E+00
    0.31727E-07         0.37253E-20         0.00000E+00
    0.31767E-07        -0.10493E-19         0.00000E+00
    0.31815E-07         0.15832E-19         0.00000E+00
    0.31872E-07        -0.13039E-19         0.00000E+00
    0.31936E-07        -0.41910E-19         0.00000E+00
    0.32008E-07        -0.37253E-20         0.00000E+00
    0.32086E-07        -0.21573E-19         0.00000E+00
    0.32172E-07        -0.19558E-19         0.00000E+00
    0.32263E-07        -0.75833E-20         0.00000E+00
    0.32360E-07        -0.31347E-20         0.00000E+00
    0.32462E-07         0.23401E-19         0.00000E+00
    0.32568E-07         0.80295E-20         0.00000E+00
    0.32679E-07        -0.18626E-19         0.00000E+00
    0.32793E-07        -0.20131E-19         0.00000E+00
    0.32910E-07        -0.82418E-21         0.00000E+00
    0.33029E-07         0.50140E-20         0.00000E+00
    0.33150E-07        -0.45454E-20         0.00000E+00
    0.33271E-07         0.12457E-19         0.00000E+00
    0.33393E-07        -0.13848E-19         0.00000E+00
    0.33515E-07         0.12703E-19         0.00000E+00
    0.33635E-07        -0.37253E-20         0.00000E+00
    0.33754E-07        -0.14587E-19         0.00000E+00
    0.33871E-07        -0.74506E-20         0.00000E+00
    0.33984E-07         0.00000E+00         0.00000E+00
    0.34093E-07        -0.22352E-19         0.00000E+00
    0.34198E-07         0.10245E-19         0.00000E+00
    0.34298E-07         0.18626E-19         0.00000E+00
    0.34392E-07         0.81708E-20         0.00000E+00
    0.34479E-07        -0.67962E-20         0.00000E+00
    0.34559E-07         0.29802E-19         0.00000E+00
    0.34631E-07         0.22957E-19         0.00000E+00
    0.34695E-07         0.65193E-20         0.00000E+00
    0.34751E-07         0.87604E-20         0.00000E+00
    0.34796E-07         0.93132E-21         0.00000E+00
    0.34833E-07         0.37253E-20         0.00000E+00
    0.34859E-07         0.83802E-20         0.00000E+00
    0.34874E-07         0.50944E-20         0.00000E+00
    0.34880E-07        -0.18626E-20         0.00000E+00
    0.41429E-07         0.00000E+00         0.00000E+00
    0.41419E-07        -0.18626E-19         0.00000E+00
    0.41392E-07         0.48429E-19         0.00000E+00
    0.41346E-07        -0.34181E-19         0.00000E+00
    0.41282E-07        -0.26077E-19         0.00000E+00
    0.41201E-07        -0.37253E-20         0.00000E+00
    0.41103E-07        -0.10730E-19         0.00000E+00
    0.40989E-07        -0.49473E-19         0.00000E+00
    0.40859E-07         0.74506E-20         0.00000E+00
    0.40714E-07         0.11176E-19         0.00000E+00
    0.40555E-07         0.16764E-19         0.00000E+00
    0.40383E-07         0.27940E-19         0.00000E+00
    0.40199E-07        -0.15376E-19         0.00000E+00
    0.40003E-07         0.93132E-20         0.00000E+00
    0.39796E-07         0.99397E-20         0.00000E+00
    0.39580E-07         0.46566E-19         0.00000E+00
    0.39356E-07        -0.20489E-19         0.00000E+00
    0.39123E-07         0.16592E-20         0.00000E+00
    0.38884E-07        -0.18626E-19         0.00000E+00
    0.38638E-07        -0.17881E-20         0.00000E+00
    0.38388E-07         0.18626E-19         0.00000E+00
    0.38133E-07        -0.16764E-19         0.00000E+00
    0.37875E-07        -0.12107E-19         0.00000E+00
    0.37615E-07        -0.11176E-19         0.00000E+00
    0.37353E-07         0.26254E-19         0.00000E+00
    0.37090E-07         0.37253E-20         0.00000E+00
    0.36828E-07        -0.37253E-20         0.00000E+00
    0.36566E-07        -0.70116E-20         0.00000E+00
    0.36306E-07        -0.62877E-20         0.00000E+00
    0.36047E-07        -0.12134E-19         0.00000E+00
    0.35792E-07         0.50291E-19         0.00000E+00
    0.35540E-07         0.13578E-19         0.00000E+00
    0.35293E-07         0.13039E-19         0.00000E+00
    0.35050E-07        -0.33641E-19         0.00000E+00
    0.34813E-07         0.59511E-20         0.00000E+00
    0.34581E-07         0.49765E-20         0.00000E+00
    0.34356E-07         0.00000E+00         0.00000E+00
    0.34138E-07        -0.18798E-19         0.00000E+00
    0.33927E-07        -0.20074E-19         0.00000E+00
    0.33724E-07         0.46566E-20         0.00000E+00
    0.33528E-07        -0.11176E-19         0.00000E+00
    0.33342E-07        -0.74506E-20         0.00000E+00
    0.33164E-07        -0.18626E-20         0.00000E+00
    0.32995E-07        -0.13970E-19         0.00000E+00
    0.32836E-07        -0.13934E-19         0.00000E+00
    0.32686E-07         0.16764E-19         0.00000E+00
    0.32546E-07         0.00000E+00         0.00000E+00
    0.32415E-07        -0.23534E-19         0.00000E+00
    0.32295E-07        -0.14881E-19         0.00000E+00
    0.32186E-07        -0.40978E-19         0.00000E+00
    0.32086E-07        -0.26077E-19         0.00000E+00
    0.31997E-07        -0.86461E-20         0.00000E+00
    0.31919E-07        -0.31665E-19         0.00000E+00
    0.31850E-07        -0.18626E-19         0.00000E+00
    0.31793E-07         0.27940E-20         0.00000E+00
    0.31746E-07        -0.16764E-19         0.00000E+00
    0.31709E-07         0.10369E-19         0.00000E+00
    0.31682E-07        -0.11781E-19         0.00000E+00
    0.31665E-07         0.10400E-19         0.00000E+00
    0.31658E-07        -0.18921E-19         0.00000E+00
    0.31662E-07        -0.44703E-19         0.00000E+00
    0.31674E-07         0.19821E-19         0.00000E+00
    0.31696E-07        -0.27226E-19         0.00000E+00
    0.31727E-07         0.26077E-19         0.00000E+00
    0.31767E-07        -0.26077E-19         0.00000E+00
    0.31815E-07         0.19355E-19         0.00000E+00
    0.31872E-07        -0.37253E-20         0.00000E+00
    0.31936E-07        -0.49536E-19         0.00000E+00
    0.32008E-07         0.15604E-20         0.00000E+00
    0.32086E-07        -0.25146E-19         0.00000E+00
    0.32172E-07        -0.11783E-19         0.00000E+00
    0.32263E-07        -0.26612E-20         0.00000E+00
    0.32360E-07        -0.18626E-19         0.00000E+00
    0.32462E-07         0.18626E-19         0.00000E+00
    0.32568E-07         0.25674E-20         0.00000E+00
    0.32679E-07        -0.31665E-19         0.00000E+00
    0.32793E-07        -0.50147E-20         0.00000E+00
    0.32910E-07        -0.37253E-19         0.00000E+00
    0.33029E-07         0.21420E-19         0.00000E+00
    0.33150E-07        -0.19558E-19         0.00000E+00
    0.33271E-07         0.14901E-19         0.00000E+00
    0.33393E-07        -0.38473E-20         0.00000E+00
    0.33515E-07         0.14305E-19         0.00000E+00
    0.33635E-07         0.55879E-20         0.00000E+00
    0.33754E-07        -0.77650E-20         0.00000E+00
    0.33871E-07        -0.46566E-20         0.00000E+00
    0.33984E-07         0.27940E-20         0.00000E+00
    0.34093E-07        -0.16764E-19         0.00000E+00
    0.34198E-07        -0.78783E-20         0.00000E+00
    0.34298E-07         0.20489E-19         0.00000E+00
    0.34392E-07         0.00000E+00         0.00000E+00
    0.34479E-07         0.37253E-20         0.00000E+00
    0.34559E-07         0.11176E-19         0.00000E+00
    0.34631E-07         0.24214E-19         0.00000E+00
    0.34695E-07        -0.25260E-19         0.00000E+00
    0.34751E-07         0.12107E-19         0.00000E+00
    0.34796E-07        -0.87201E-21         0.00000E+00
    0.34833E-07         0.37253E-20         0.00000E+00
    0.34859E-07         0.15832E-19         0.00000E+00
    0.34874E-07        -0.55879E-20         0.00000E+00
    0.34880E-07         0.11552E-21         0.00000E+00
    0.41429E-07         0.00000E+00         0.00000E+00
    0.41419E-07        -0.37253E-20         0.00000E+00
    0.41392E-07        -0.37253E-20         0.00000E+00
    0.41346E-07        -0.25424E-19         0.00000E+00
    0.41282E-07        -0.14901E-19         0.00000E+00
    0.41201E-07         0.74506E-20         0.00000E+00
    0.41103E-07         0.18181E-19         0.00000E+00
    0.40989E-07        -0.59605E-19         0.00000E+00
    0.40859E-07         0.22352E-19         0.00000E+00
    0.40714E-07         0.28871E-19         0.00000E+00
    0.40555E-07        -0.93132E-21         0.00000E+00
    0.40383E-07         0.24742E-19         0.00000E+00
    0.40199E-07         0.47527E-21         0.00000E+00
    0.40003E-07         0.18626E-19         0.00000E+00
    0.39796E-07        -0.93132E-20         0.00000E+00
    0.39580E-07         0.14901E-19         0.00000E+00
    0.39356E-07        -0.25146E-19         0.00000E+00
    0.39123E-07        -0.81784E-20         0.00000E+00
    0.38884E-07        -0.74506E-20         0.00000E+00
    0.38638E-07        -0.25146E-19         0.00000E+00
    0.38388E-07         0.21420E-19         0.00000E+00
    0.38133E-07        -0.24214E-19         0.00000E+00
    0.37875E-07        -0.23476E-20         0.00000E+00
    0.37615E-07        -0.11176E-19         0.00000E+00
    0.37353E-07         0.10999E-19         0.00000E+00
    0.37090E-07        -0.93132E-21         0.00000E+00
    0.36828E-07        -0.18626E-20         0.00000E+00
    0.36566E-07        -0.13478E-19         0.00000E+00
    0.36306E-07         0.37253E-20         0.00000E+00
    0.36047E-07        -0.18626E-20         0.00000E+00
    0.35792E-07         0.14901E-19         0.00000E+00
    0.35540E-07         0.37253E-20         0.00000E+00
    0.35293E-07         0.74506E-20         0.00000E+00
    0.35050E-07        -0.27826E-19         0.00000E+00
    0.34813E-07         0.52247E-20         0.00000E+00
    0.34581E-07         0.18626E-20         0.00000E+00
    0.34356E-07        -0.37253E-20         0.00000E+00
    0.34138E-07        -0.31665E-19         0.00000E+00
    0.33927E-07        -0.14901E-19         0.00000E+00
    0.33724E-07         0.25193E-20         0.00000E+00
    0.33528E-07        -0.11176E-19         0.00000E+00
    0.33342E-07        -0.39298E-20         0.00000E+00
    0.33164E-07        -0.74506E-20         0.00000E+00
    0.32995E-07         0.21156E-20         0.00000E+00
    0.32836E-07        -0.14919E-19         0.00000E+00
    0.32686E-07         0.76665E-20         0.00000E+00
    0.32546E-07         0.46566E-20         0.00000E+00
    0.32415E-07        -0.93132E-20         0.00000E+00
    0.32295E-07        -0.18647E-19         0.00000E+00
    0.32186E-07        -0.12317E-19         0.00000E+00
    0.32086E-07        -0.17695E-19         0.00000E+00
    0.31997E-07         0.93132E-21         0.00000E+00
    0.31919E-07        -0.18626E-19         0.00000E+00
    0.31850E-07        -0.18626E-20         0.00000E+00
    0.31793E-07        -0.18724E-19         0.00000E+00
    0.31746E-07         0.18626E-20         0.00000E+00
    0.31709E-07         0.13039E-19         0.00000E+00
    0.31682E-07        -0.93132E-21         0.00000E+00
    0.31665E-07        -0.83819E-20         0.00000E+00
    0.31658E-07        -0.99495E-20         0.00000E+00
    0.31662E-07        -0.22352E-19         0.00000E+00
    0.31674E-07        -0.74506E-20         0.00000E+00
    0.31696E-07         0.37253E-20         0.00000E+00
    0.31727E-07         0.10245E-19         0.00000E+00
    0.31767E-07        -0.13039E-19         0.00000E+00
    0.31815E-07         0.93132E-21         0.00000E+00
    0.31872E-07         0.71738E-20         0.00000E+00
    0.31936E-07        -0.32596E-19         0.00000E+00
    0.32008E-07         0.58902E-20         0.00000E+00
    0.32086E-07        -0.82298E-20         0.00000E+00
    0.32172E-07        -0.83819E-20         0.00000E+00
    0.32263E-07        -0.93132E-21         0.00000E+00
    0.32360E-07        -0.55879E-20         0.00000E+00
    0.32462E-07         0.12107E-19         0.00000E+00
    0.32568E-07        -0.65193E-20         0.00000E+00
    0.32679E-07        -0.21420E-19         0.00000E+00
    0.32793E-07        -0.11176E-19         0.00000E+00
    0.32910E-07        -0.15832E-19         0.00000E+00
    0.33029E-07         0.57398E-21         0.00000E+00
    0.33150E-07        -0.39476E-20         0.00000E+00
    0.33271E-07         0.18626E-20         0.00000E+00
    0.33393E-07         0.19558E-19         0.00000E+00
    0.33515E-07        -0.55879E-20         0.00000E+00
    0.33635E-07        -0.74506E-20         0.00000E+00
    0.33754E-07         0.55879E-20         0.00000E+00
    0.33871E-07        -0.54235E-20         0.00000E+00
    0.33984E-07         0.95996E-20         0.00000E+00
    0.34093E-07        -0.55879E-20         0.00000E+00
    0.34198E-07        -0.12359E-19         0.00000E+00
    0.34298E-07         0.27940E-20         0.00000E+00
    0.34392E-07        -0.13250E-19         0.00000E+00
    0.34479E-07         0.83819E-20         0.00000E+00
    0.34559E-07         0.27940E-20         0.00000E+00
    0.34631E-07        -0.93132E-21         0.00000E+00
    0.34695E-07        -0.93132E-20         0.00000E+00
    0.34751E-07        -0.59665E-20         0.00000E+00
    0.34796E-07        -0.56472E-20         0.00000E+00
    0.34833E-07        -0.55879E-20         0.00000E+00
    0.34859E-07         0.93149E-20         0.00000E+00
    0.34874E-07        -0.23004E-20         0.00000E+00
    0.34880E-07        -0.11552E-21         0.00000E+00
    0.41429E-07         0.00000E+00         0.00000E+00
    0.41419E-07         0.30419E-19         0.00000E+00
    0.41392E-07        -0.43433E-19         0.00000E+00
    0.41346E-07        -0.14901E-19         0.00000E+00
    0.41282E-07        -0.84886E-20         0.00000E+00
    0.41201E-07         0.64860E-20         0.00000E+00
    0.41103E-07         0.37253E-19         0.00000E+00
    0.40989E-07        -0.22352E-19         0.00000E+00
    0.40859E-07         0.18999E-19         0.00000E+00
    0.40714E-07         0.50809E-19         0.00000E+00
    0.40555E-07        -0.86508E-20         0.00000E+00
    0.40383E-07         0.20240E-19         0.00000E+00
    0.40199E-07        -0.74506E-20         0.00000E+00
    0.40003E-07         0.14901E-19         0.00000E+00
    0.39796E-07        -0.22352E-19         0.00000E+00
    0.39580E-07        -0.14901E-19         0.00000E+00
    0.39356E-07        -0.13726E-19         0.00000E+00
    0.39123E-07        -0.24621E-19         0.00000E+00
    0.38884E-07        -0.15029E-19         0.00000E+00
    0.38638E-07        -0.27791E-19         0.00000E+00
    0.38388E-07         0.13463E-19         0.00000E+00
    0.38133E-07        -0.18626E-19         0.00000E+00
    0.37875E-07        -0.14824E-19         0.00000E+00
    0.37615E-07        -0.43479E-20         0.00000E+00
    0.37353E-07         0.74506E-20         0.00000E+00
    0.37090E-07        -0.19507E-20         0.00000E+00
    0.36828E-07         0.74506E-20         0.00000E+00
    0.36566E-07        -0.33528E-19         0.00000E+00
    0.36306E-07         0.14901E-19         0.00000E+00
    0.36047E-07         0.11176E-19         0.00000E+00
    0.35792E-07        -0.26077E-19         0.00000E+00
    0.35540E-07         0.74506E-20         0.00000E+00
    0.35293E-07        -0.15178E-19         0.00000E+00
    0.35050E-07        -0.74506E-20         0.00000E+00
    0.34813E-07        -0.14175E-19         0.00000E+00
    0.34581E-07         0.21712E-19         0.00000E+00
    0.34356E-07        -0.75974E-20         0.00000E+00
    0.34138E-07        -0.25391E-19         0.00000E+00
    0.33927E-07        -0.28956E-20         0.00000E+00
    0.33724E-07         0.00000E+00         0.00000E+00
    0.33528E-07        -0.68732E-22         0.00000E+00
    0.33342E-07        -0.33162E-20         0.00000E+00
    0.33164E-07        -0.14017E-19         0.00000E+00
    0.32995E-07        -0.23686E-20         0.00000E+00
    0.32836E-07        -0.37612E-20         0.00000E+00
    0.32686E-07        -0.74506E-20         0.00000E+00
    0.32546E-07         0.17661E-19         0.00000E+00
    0.32415E-07         0.00000E+00         0.00000E+00
    0.32295E-07        -0.74506E-20         0.00000E+00
    0.32186E-07         0.64269E-20         0.00000E+00
    0.32086E-07         0.64656E-20         0.00000E+00
    0.31997E-07        -0.98416E-20         0.00000E+00
    0.31919E-07         0.74506E-20         0.00000E+00
    0.31850E-07         0.74506E-20         0.00000E+00
    0.31793E-07        -0.31471E-19         0.00000E+00
    0.31746E-07         0.17917E-19         0.00000E+00
    0.31709E-07         0.74506E-20         0.00000E+00
    0.31682E-07         0.49361E-20         0.00000E+00
    0.31665E-07        -0.13349E-19         0.00000E+00
    0.31658E-07        -0.11176E-19         0.00000E+00
    0.31662E-07         0.37253E-20         0.00000E+00
    0.31674E-07        -0.37253E-19         0.00000E+00
    0.31696E-07         0.18626E-19         0.00000E+00
    0.31727E-07         0.23275E-20         0.00000E+00
    0.31767E-07        -0.42219E-20         0.00000E+00
    0.31815E-07        -0.51823E-20         0.00000E+00
    0.31872E-07         0.37253E-20         0.00000E+00
    0.31936E-07        -0.12687E-19         0.00000E+00
    0.32008E-07         0.14297E-19         0.00000E+00
    0.32086E-07         0.37253E-20         0.00000E+00
    0.32172E-07         0.12150E-20         0.00000E+00
    0.32263E-07         0.58534E-20         0.00000E+00
    0.32360E-07         0.10494E-19         0.00000E+00
    0.32462E-07         0.20994E-20         0.00000E+00
    0.32568E-07        -0.51348E-20         0.00000E+00
    0.32679E-07        -0.53686E-20         0.00000E+00
    0.32793E-07        -0.23068E-19         0.00000E+00
    0.32910E-07         0.20703E-19         0.00000E+00
    0.33029E-07        -0.18626E-19         0.00000E+00
    0.33150E-07         0.17208E-19         0.00000E+00
    0.33271E-07        -0.15601E-19         0.00000E+00
    0.33393E-07         0.28184E-19         0.00000E+00
    0.33515E-07        -0.26748E-19         0.00000E+00
    0.33635E-07        -0.18626E-19         0.00000E+00
    0.33754E-07        -0.62879E-21         0.00000E+00
    0.33871E-07        -0.89843E-20         0.00000E+00
    0.33984E-07         0.50152E-20         0.00000E+00
    0.34093E-07        -0.37253E-20         0.00000E+00
    0.34198E-07        -0.15405E-19         0.00000E+00
    0.34298E-07        -0.51210E-20         0.00000E+00
    0.34392E-07        -0.74506E-20         0.00000E+00
    0.34479E-07         0.24165E-20         0.00000E+00
    0.34559E-07         0.52579E-20         0.00000E+00
    0.34631E-07        -0.16113E-19         0.00000E+00
    0.34695E-07         0.14901E-19         0.00000E+00
    0.34751E-07        -0.12281E-19         0.00000E+00
    0.34796E-07        -0.37253E-20         0.00000E+00
    0.34833E-07        -0.65808E-20         0.00000E+00
    0.34859E-07         0.13032E-19         0.00000E+00
    0.34874E-07        -0.87552E-21         0.00000E+00
    0.34880E-07         0.23104E-21         0.00000E+00
CELL_DATA       5000
TENSORS stressef double 
   -0.85504E+07         0.29389E+06         0.00000E+00
    0.29389E+06        -0.27221E+08         0.00000E+00
    0.00000E+00         0.00000E+00        -0.86701E+07
 
   -0.85968E+07         0.77000E+06         0.00000E+00
    0.77000E+06        -0.27394E+08         0.00000E+00
    0.00000E+00         0.00000E+00        -0.86701E+07
 
   -0.86115E+07         0.10969E+07         0.00000E+00
    0.10969E+07        -0.27660E+08         0.00000E+00
    0.00000E+00         0.00000E+00        -0.86701E+07
 
   -0.86216E+07         0.13617E+07         0.00000E+00
    0.13617E+07        -0.27982E+08         0.00000E+00
    0.00000E+00         0.00000E+00        -0.86701E+07
 
   -0.86282E+07         0.15853E+07         0.00000E+00
    0.15853E+07        -0.28356E+08         0.00000E+00
    0.00000E+00         0.00000E+00        -0.86701E+07
 
   -0.86333E+07         0.17800E+07         0.00000E+00
    0.17800E+07        -0.28769E+08         0.00000E+00
    0.00000E+00         0.00000E+00        -0.86701E+07
 
   -0.86374E+07         0.19524E+07         0.00000E+00
    0.19524E+07        -0.29213E+08         0.00000E+00
    0.00000E+00         0.00000E+00        -0.86701E+07
 
   -0.86411E+07         0.21056E+07         0.00000E+00
    0.21056E+07        -0.29679E+08         0.00000E+00
    0.00000E+00         0.00000E+00        -0.86701E+07
 
   -0.86445E+07         0.22415E+07         0.00000E+00
    0.22415E+07        -0.30162E+08         0.00000E+00
    0.00000E+00         0.00000E+00        -0.86701E+07
 
   -0.86478E+07         0.23607E+07         0.00000E+00
    0.23607E+07        -0.30657E+08         0.00000E+00
    0.00000E+00         0.00000E+00        -0.86701E+07
 
   -0.86512E+07         0.24632E+07         0.00000E+00
    0.24632E+07        -0.31160E+08         0.00000E+00
    0.00000E+00         0.00000E+00        -0.86701E+07
 
   -0.86547E+07         0.25485E+07         0.00000E+00
    0.25485E+07        -0.31670E+08         0.00000E+00
    0.00000E+00         0.00000E+00        -0.86701E+07
 
   -0.86585E+07         0.26154E+07         0.00000E+00
    0.26154E+07        -0.32186E+08         0.00000E+00
    0.00000E+00         0.00000E+00        -0.86701E+07
 
   -0.86629E+07         0.26617E+07         0.00000E+00
    0.26617E+07        -0.32711E+08         0.00000E+00
    0.00000E+00         0.00000E+00        -0.86701E+07
 
   -0.86703E+07         0.26785E+07         0.00000E+00
    0.26785E+07        -0.33249E+08         0.00000E+00
    0.00000E+00         0.00000E+00        -0.86701E+07
 
   -0.87092E+07         0.26454E+07         0.00000E+00
    0.26454E+07        -0.33808E+08         0.00000E+00
    0.00000E+00         0.00000E+00        -0.87005E+07
 
   -0.88358E+07         0.25893E+07         0.00000E+00
    0.25893E+07        -0.34281E+08         0.00000E+00
    0.00000E+00         0.00000E+00        -0.88324E+07
 
   -0.89932E+07         0.25531E+07         0.00000E+00
    0.25531E+07        -0.34679E+08         0.00000E+00
    0.00000E+00         0.00000E+00        -0.89957E+07
 
   -0.91446E+07         0.25388E+07         0.00000E+00
    0.25388E+07        -0.35066E+08         0.00000E+00
    0.00000E+00         0.00000E+00        -0.91488E+07
 
   -0.92875E+07         0.25336E+07         0.00000E+00
    0.25336E+07        -0.35449E+08         0.00000E+00
    0.00000E+00         0.00000E+00        -0.92924E+07
 
   -0.94220E+07         0.25332E+07         0.00000E+00
    0.25332E+07        -0.35832E+08         0.00000E+00
    0.00000E+00         0.00000E+00        -0.94271E+07
 
   -0.95485E+07         0.25357E+07         0.00000E+00
    0.25357E+07        -0.36214E+08         0.00000E+00
    0.00000E+00         0.00000E+00        -0.95536E+07
 
   -0.96677E+07         0.25397E+07         0.00000E+00
    0.25397E+07        -0.36596E+08         0.00000E+00
    0.00000E+00         0.00000E+00        -0.96724E+07
 
   -0.97799E+07         0.25441E+07         0.00000E+00
    0.25441E+07        -0.36977E+08         0.00000E+00
    0.00000E+00         0.00000E+00        -0.97843E+07
 
   -0.98859E+07         0.25482E+07         0.00000E+00
    0.25482E+07        -0.37356E+08         0.00000E+00
    0.00000E+00         0.00000E+00        -0.98898E+07
 
   -0.99860E+07         0.25515E+07         0.00000E+00
    0.25515E+07        -0.37734E+08         0.00000E+00
    0.00000E+00         0.00000E+00        -0.99894E+07
 
   -0.10081E+08         0.25535E+07         0.00000E+00
    0.25535E+07        -0.38110E+08         0.00000E+00
    0.00000E+00         0.00000E+00        -0.10084E+08
 
   -0.10171E+08         0.25539E+07         0.00000E+00
    0.25539E+07        -0.38485E+08         0.00000E+00
    0.00000E+00         0.00000E+00        -0.10173E+08
 
   -0.10256E+08         0.25523E+07         0.00000E+00
    0.25523E+07        -0.38857E+08         0.00000E+00
    0.00000E+00         0.00000E+00        -0.10258E+08
 
   -0.10338E+08         0.25485E+07         0.00000E+00
    0.25485E+07        -0.39229E+08         0.00000E+00
    0.00000E+00         0.00000E+00        -0.10339E+08
 
   -0.10416E+08         0.25421E+07         0.00000E+00
    0.25421E+07        -0.39599E+08         0.00000E+00
    0.00000E+00         0.00000E+00        -0.10416E+08
 
   -0.10490E+08         0.25329E+07         0.00000E+00
    0.25329E+07        -0.39969E+08         0.00000E+00
    0.00000E+00         0.00000E+00        -0.10490E+08
 
   -0.10562E+08         0.25206E+07         0.00000E+00
    0.25206E+07        -0.40339E+08         0.00000E+00
    0.00000E+00         0.00000E+00        -0.10560E+08
 
   -0.10630E+08         0.25047E+07         0.00000E+00
    0.25047E+07        -0.40709E+08         0.00000E+00
    0.00000E+00         0.00000E+00        -0.10628E+08
 
   -0.10696E+08         0.24846E+07         0.00000E+00
    0.24846E+07        -0.41079E+08         0.00000E+00
    0.00000E+00         0.00000E+00        -0.10693E+08
 
   -0.10761E+08         0.24593E+07         0.00000E+00
    0.24593E+07        -0.41451E+08         0.00000E+00
    0.00000E+00         0.00000E+00        -0.10756E+08
 
   -0.10824E+08         0.24233E+07         0.00000E+00
    0.24233E+07        -0.41824E+08         0.00000E+00
    0.00000E+00         0.00000E+00        -0.10817E+08
 
   -0.10909E+08         0.23765E+07         0.00000E+00
    0.23765E+07        -0.42169E+08         0.00000E+00
    0.00000E+00         0.00000E+00        -0.10902E+08
 
   -0.11018E+08         0.23345E+07         0.00000E+00
    0.23345E+07        -0.42484E+08         0.00000E+00
    0.00000E+00         0.00000E+00        -0.11014E+08
 
   -0.11127E+08         0.23035E+07         0.00000E+00
    0.23035E+07        -0.42799E+08         0.00000E+00
    0.00000E+00         0.00000E+00        -0.11124E+08
 
   -0.11235E+08         0.22776E+07         0.00000E+00
    0.22776E+07        -0.43117E+08         0.00000E+00
    0.00000E+00         0.00000E+00        -0.11233E+08
 
   -0.11342E+08         0.22554E+07         0.00000E+00
    0.22554E+07        -0.43436E+08         0.00000E+00
    0.00000E+00         0.00000E+00        -0.11340E+08
 
   -0.11447E+08         0.22360E+07         0.00000E+00
    0.22360E+07        -0.43756E+08         0.00000E+00
    0.00000E+00         0.00000E+00        -0.11446E+08
 
   -0.11552E+08         0.22190E+07         0.00000E+00
    0.22190E+07        -0.44076E+08         0.00000E+00
    0.00000E+00         0.00000E+00        -0.11551E+08
 
   -0.11655E+08         0.22039E+07         0.00000E+00
    0.22039E+07        -0.44396E+08         0.00000E+00
    0.00000E+00         0.00000E+00        -0.11655E+08
 
   -0.11758E+08         0.21903E+07         0.00000E+00
    0.21903E+07        -0.44717E+08         0.00000E+00
    0.00000E+00         0.00000E+00        -0.11757E+08
 
   -0.11860E+08         0.21780E+07         0.00000E+00
    0.21780E+07        -0.45037E+08         0.00000E+00
    0.00000E+00         0.00000E+00        -0.11859E+08
 
   -0.11963E+08         0.21666E+07         0.00000E+00
    0.21666E+07        -0.45355E+08         0.00000E+00
    0.00000E+00         0.00000E+00        -0.11963E+08
 
   -0.12085E+08         0.21536E+07         0.00000E+00
    0.21536E+07        -0.45655E+08         0.00000E+00
    0.00000E+00         0.00000E+00        -0.12084E+08
 
   -0.12217E+08         0.21401E+07         0.00000E+00
    0.21401E+07        -0.45944E+08         0.00000E+00
    0.00000E+00         0.00000E+00        -0.12217E+08
 
   -0.12349E+08         0.21273E+07         0.00000E+00
    0.21273E+07        -0.46233E+08         0.00000E+00
    0.00000E+00         0.00000E+00        -0.12349E+08
 
   -0.12481E+08         0.21149E+07         0.00000E+00
    0.21149E+07        -0.46521E+08         0.00000E+00
    0.00000E+00         0.00000E+00        -0.12481E+08
 
   -0.12612E+08         0.21030E+07         0.00000E+00
    0.21030E+07        -0.46809E+08         0.00000E+00
    0.00000E+00         0.00000E+00        -0.12613E+08
 
   -0.12744E+08         0.20915E+07         0.00000E+00
    0.20915E+07        -0.47097E+08         0.00000E+00
    0.00000E+00         0.00000E+00        -0.12744E+08
 
   -0.12876E+08         0.20802E+07         0.00000E+00
    0.20802E+07        -0.47384E+08         0.00000E+00
    0.00000E+00         0.00000E+00        -0.12876E+08
 
   -0.13007E+08         0.20692E+07         0.00000E+00
    0.20692E+07        -0.47671E+08         0.00000E+00
    0.00000E+00         0.00000E+00        -0.13008E+08
 
   -0.13139E+08         0.20584E+07         0.00000E+00
    0.20584E+07        -0.47959E+08         0.00000E+00
    0.00000E+00         0.00000E+00        -0.13140E+08
 
   -0.13271E+08         0.20476E+07         0.00000E+00
    0.20476E+07        -0.48246E+08         0.00000E+00
    0.00000E+00         0.00000E+00        -0.13271E+08
 
   -0.13404E+08         0.20370E+07         0.00000E+00
    0.20370E+07        -0.48534E+08         0.00000E+00
    0.00000E+00         0.00000E+00        -0.13404E+08
 
   -0.13536E+08         0.20264E+07         0.00000E+00
    0.20264E+07        -0.48823E+08         0.00000E+00
    0.00000E+00         0.00000E+00        -0.13536E+08
 
   -0.13669E+08         0.20158E+07         0.00000E+00
    0.20158E+07        -0.49112E+08         0.00000E+00
    0.00000E+00         0.00000E+00        -0.13669E+08
 
   -0.13802E+08         0.20050E+07         0.00000E+00
    0.20050E+07        -0.49403E+08         0.00000E+00
    0.00000E+00         0.00000E+00        -0.13802E+08
 
   -0.13936E+08         0.19942E+07         0.00000E+00
    0.19942E+07        -0.49694E+08         0.00000E+00
    0.00000E+00         0.00000E+00        -0.13936E+08
 
   -0.14070E+08         0.19832E+07         0.00000E+00
    0.19832E+07        -0.49986E+08         0.00000E+00
    0.00000E+00         0.00000E+00        -0.14070E+08
 
   -0.14205E+08         0.19720E+07         0.00000E+00
    0.19720E+07        -0.50280E+08         0.00000E+00
    0.00000E+00         0.00000E+00        -0.14205E+08
 
   -0.14341E+08         0.19605E+07         0.00000E+00
    0.19605E+07        -0.50575E+08         0.00000E+00
    0.00000E+00         0.00000E+00        -0.14341E+08
 
   -0.14477E+08         0.19486E+07         0.00000E+00
    0.19486E+07        -0.50872E+08         0.00000E+00
    0.00000E+00         0.00000E+00        -0.14477E+08
 
   -0.14614E+08         0.19362E+07         0.00000E+00
    0.19362E+07        -0.51171E+08         0.00000E+00
    0.00000E+00         0.00000E+00        -0.14614E+08
 
   -0.14753E+08         0.19233E+07         0.00000E+00
    0.19233E+07        -0.51472E+08         0.00000E+00
    0.00000E+00         0.00000E+00        -0.14752E+08
 
   -0.14892E+08         0.19098E+07         0.00000E+00
    0.19098E+07        -0.51775E+08         0.00000E+00
    0.00000E+00         0.00000E+00        -0.14891E+08
 
   -0.15032E+08         0.18955E+07         0.00000E+00
    0.18955E+07        -0.52081E+08         0.00000E+00
    0.00000E+00         0.00000E+00        -0.15031E+08
 
   -0.15174E+08         0.18804E+07         0.00000E+00
    0.18804E+07        -0.52389E+08         0.00000E+00
    0.00000E+00         0.00000E+00        -0.15173E+08
 
   -0.15316E+08         0.18642E+07         0.00000E+00
    0.18642E+07        -0.52700E+08         0.00000E+00
    0.00000E+00         0.00000E+00        -0.15315E+08
 
   -0.15461E+08         0.18468E+07         0.00000E+00
    0.18468E+07        -0.53014E+08         0.00000E+00
    0.00000E+00         0.00000E+00        -0.15459E+08
 
   -0.15606E+08         0.18280E+07         0.00000E+00
    0.18280E+07        -0.53332E+08         0.00000E+00
    0.00000E+00         0.00000E+00        -0.15604E+08
 
   -0.15754E+08         0.18077E+07         0.00000E+00
    0.18077E+07        -0.53654E+08         0.00000E+00
    0.00000E+00         0.00000E+00        -0.15751E+08
 
   -0.15903E+08         0.17855E+07         0.00000E+00
    0.17855E+07        -0.53979E+08         0.00000E+00
    0.00000E+00         0.00000E+00        -0.15900E+08
 
   -0.16054E+08         0.17613E+07         0.00000E+00
    0.17613E+07        -0.54309E+08         0.00000E+00
    0.00000E+00         0.00000E+00        -0.16051E+08
 
   -0.16207E+08         0.17348E+07         0.00000E+00
    0.17348E+07        -0.54643E+08         0.00000E+00
    0.00000E+00         0.00000E+00        -0.16203E+08
 
   -0.16362E+08         0.17057E+07         0.00000E+00
    0.17057E+07        -0.54983E+08         0.00000E+00
    0.00000E+00         0.00000E+00        -0.16358E+08
 
   -0.16519E+08         0.16738E+07         0.00000E+00
    0.16738E+07        -0.55327E+08         0.00000E+00
    0.00000E+00         0.00000E+00        -0.16515E+08
 
   -0.16679E+08         0.16388E+07         0.00000E+00
    0.16388E+07        -0.55678E+08         0.00000E+00
    0.00000E+00         0.00000E+00        -0.16674E+08
 
   -0.16842E+08         0.16006E+07         0.00000E+00
    0.16006E+07        -0.56034E+08         0.00000E+00
    0.00000E+00         0.00000E+00        -0.16836E+08
 
   -0.17007E+08         0.15590E+07         0.00000E+00
    0.15590E+07        -0.56396E+08         0.00000E+00
    0.00000E+00         0.00000E+00        -0.17000E+08
 
   -0.17174E+08         0.15138E+07         0.00000E+00
    0.15138E+07        -0.56763E+08         0.00000E+00
    0.00000E+00         0.00000E+00        -0.17167E+08
 
   -0.17345E+08         0.14652E+07         0.00000E+00
    0.14652E+07        -0.57137E+08         0.00000E+00
    0.00000E+00         0.00000E+00        -0.17337E+08
 
   -0.17517E+08         0.14133E+07         0.00000E+00
    0.14133E+07        -0.57516E+08         0.00000E+00
    0.00000E+00         0.00000E+00        -0.17509E+08
 
   -0.17692E+08         0.13583E+07         0.00000E+00
    0.13583E+07        -0.57900E+08         0.00000E+00
    0.00000E+00         0.00000E+00        -0.17683E+08
 
   -0.17868E+08         0.13006E+07         0.00000E+00
    0.13006E+07        -0.58287E+08         0.00000E+00
    0.00000E+00         0.00000E+00        -0.17858E+08
 
   -0.18046E+08         0.12409E+07         0.00000E+00
    0.12409E+07        -0.58676E+08         0.00000E+00
    0.00000E+00         0.00000E+00        -0.18035E+08
 
   -0.18223E+08         0.11796E+07         0.00000E+00
    0.11796E+07        -0.59065E+08         0.00000E+00
    0.00000E+00         0.00000E+00        -0.18212E+08
 
   -0.18399E+08         0.11171E+07         0.00000E+00
    0.11171E+07        -0.59452E+08         0.00000E+00
    0.00000E+00         0.00000E+00        -0.18388E+08
 
   -0.18574E+08         0.10534E+07         0.00000E+00
    0.10534E+07        -0.59833E+08         0.00000E+00
    0.00000E+00         0.00000E+00        -0.18562E+08
 
   -0.18744E+08         0.98778E+06         0.00000E+00
    0.98778E+06        -0.60207E+08         0.00000E+00
    0.00000E+00         0.00000E+00        -0.18732E+08
 
   -0.18910E+08         0.91797E+06         0.00000E+00
    0.91797E+06        -0.60569E+08         0.00000E+00
    0.00000E+00         0.00000E+00        -0.18897E+08
 
   -0.19071E+08         0.84004E+06         0.00000E+00
    0.84004E+06        -0.60919E+08         0.00000E+00
    0.00000E+00         0.00000E+00        -0.19055E+08
 
   -0.19225E+08         0.74687E+06         0.00000E+00
    0.74687E+06        -0.61255E+08         0.00000E+00
    0.00000E+00         0.00000E+00        -0.19206E+08
 
   -0.19373E+08         0.62728E+06         0.00000E+00
    0.62728E+06        -0.61573E+08         0.00000E+00
    0.00000E+00         0.00000E+00        -0.19346E+08
 
   -0.19518E+08         0.46343E+06         0.00000E+00
    0.46343E+06        -0.61883E+08         0.00000E+00
    0.00000E+00         0.00000E+00        -0.19481E+08
 
   -0.19657E+08         0.18395E+06         0.00000E+00
    0.18395E+06        -0.62147E+08         0.00000E+00
    0.00000E+00         0.00000E+00        -0.19580E+08
 
   -0.83233E+07         0.25345E+06         0.00000E+00
    0.25345E+06        -0.27327E+08         0.00000E+00
    0.00000E+00         0.00000E+00        -0.86701E+07
 
   -0.84476E+07         0.69204E+06         0.00000E+00
    0.69204E+06        -0.27471E+08         0.00000E+00
    0.00000E+00         0.00000E+00        -0.86701E+07
 
   -0.84939E+07         0.10197E+07         0.00000E+00
    0.10197E+07        -0.27717E+08         0.00000E+00
    0.00000E+00         0.00000E+00        -0.86701E+07
 
   -0.85237E+07         0.12820E+07         0.00000E+00
    0.12820E+07        -0.28031E+08         0.00000E+00
    0.00000E+00         0.00000E+00        -0.86701E+07
 
   -0.85439E+07         0.15050E+07         0.00000E+00
    0.15050E+07        -0.28397E+08         0.00000E+00
    0.00000E+00         0.00000E+00        -0.86701E+07
 
   -0.85591E+07         0.16995E+07         0.00000E+00
    0.16995E+07        -0.28805E+08         0.00000E+00
    0.00000E+00         0.00000E+00        -0.86701E+07
 
   -0.85716E+07         0.18717E+07         0.00000E+00
    0.18717E+07        -0.29245E+08         0.00000E+00
    0.00000E+00         0.00000E+00        -0.86701E+07
 
   -0.85826E+07         0.20251E+07         0.00000E+00
    0.20251E+07        -0.29708E+08         0.00000E+00
    0.00000E+00         0.00000E+00        -0.86701E+07
 
   -0.85930E+07         0.21613E+07         0.00000E+00
    0.21613E+07        -0.30188E+08         0.00000E+00
    0.00000E+00         0.00000E+00        -0.86701E+07
 
   -0.86031E+07         0.22808E+07         0.00000E+00
    0.22808E+07        -0.30679E+08         0.00000E+00
    0.00000E+00         0.00000E+00        -0.86701E+07
 
   -0.86132E+07         0.23836E+07         0.00000E+00
    0.23836E+07        -0.31179E+08         0.00000E+00
    0.00000E+00         0.00000E+00        -0.86701E+07
 
   -0.86238E+07         0.24694E+07         0.00000E+00
    0.24694E+07        -0.31685E+08         0.00000E+00
    0.00000E+00         0.00000E+00        -0.86701E+07
 
   -0.86352E+07         0.25369E+07         0.00000E+00
    0.25369E+07        -0.32198E+08         0.00000E+00
    0.00000E+00         0.00000E+00        -0.86701E+07
 
   -0.86482E+07         0.25836E+07         0.00000E+00
    0.25836E+07        -0.32717E+08         0.00000E+00
    0.00000E+00         0.00000E+00        -0.86701E+07
 
   -0.86686E+07         0.26046E+07         0.00000E+00
    0.26046E+07        -0.33250E+08         0.00000E+00
    0.00000E+00         0.00000E+00        -0.86701E+07
 
   -0.87153E+07         0.25804E+07         0.00000E+00
    0.25804E+07        -0.33799E+08         0.00000E+00
    0.00000E+00         0.00000E+00        -0.86929E+07
 
   -0.88265E+07         0.25403E+07         0.00000E+00
    0.25403E+07        -0.34270E+08         0.00000E+00
    0.00000E+00         0.00000E+00        -0.88161E+07
 
   -0.89716E+07         0.25057E+07         0.00000E+00
    0.25057E+07        -0.34675E+08         0.00000E+00
    0.00000E+00         0.00000E+00        -0.89783E+07
 
   -0.91187E+07         0.24905E+07         0.00000E+00
    0.24905E+07        -0.35064E+08         0.00000E+00
    0.00000E+00         0.00000E+00        -0.91307E+07
 
   -0.92595E+07         0.24841E+07         0.00000E+00
    0.24841E+07        -0.35449E+08         0.00000E+00
    0.00000E+00         0.00000E+00        -0.92737E+07
 
   -0.93931E+07         0.24827E+07         0.00000E+00
    0.24827E+07        -0.35832E+08         0.00000E+00
    0.00000E+00         0.00000E+00        -0.94079E+07
 
   -0.95195E+07         0.24843E+07         0.00000E+00
    0.24843E+07        -0.36215E+08         0.00000E+00
    0.00000E+00         0.00000E+00        -0.95341E+07
 
   -0.96390E+07         0.24874E+07         0.00000E+00
    0.24874E+07        -0.36597E+08         0.00000E+00
    0.00000E+00         0.00000E+00        -0.96529E+07
 
   -0.97520E+07         0.24910E+07         0.00000E+00
    0.24910E+07        -0.36978E+08         0.00000E+00
    0.00000E+00         0.00000E+00        -0.97648E+07
 
   -0.98589E+07         0.24945E+07         0.00000E+00
    0.24945E+07        -0.37357E+08         0.00000E+00
    0.00000E+00         0.00000E+00        -0.98704E+07
 
   -0.99603E+07         0.24972E+07         0.00000E+00
    0.24972E+07        -0.37735E+08         0.00000E+00
    0.00000E+00         0.00000E+00        -0.99703E+07
 
   -0.10057E+08         0.24987E+07         0.00000E+00
    0.24987E+07        -0.38111E+08         0.00000E+00
    0.00000E+00         0.00000E+00        -0.10065E+08
 
   -0.10148E+08         0.24987E+07         0.00000E+00
    0.24987E+07        -0.38485E+08         0.00000E+00
    0.00000E+00         0.00000E+00        -0.10155E+08
 
   -0.10235E+08         0.24968E+07         0.00000E+00
    0.24968E+07        -0.38857E+08         0.00000E+00
    0.00000E+00         0.00000E+00        -0.10240E+08
 
   -0.10319E+08         0.24927E+07         0.00000E+00
    0.24927E+07        -0.39228E+08         0.00000E+00
    0.00000E+00         0.00000E+00        -0.10321E+08
 
   -0.10398E+08         0.24862E+07         0.00000E+00
    0.24862E+07        -0.39598E+08         0.00000E+00
    0.00000E+00         0.00000E+00        -0.10399E+08
 
   -0.10475E+08         0.24769E+07         0.00000E+00
    0.24769E+07        -0.39967E+08         0.00000E+00
    0.00000E+00         0.00000E+00        -0.10473E+08
 
   -0.10548E+08         0.24645E+07         0.00000E+00
    0.24645E+07        -0.40336E+08         0.00000E+00
    0.00000E+00         0.00000E+00        -0.10545E+08
 
   -0.10619E+08         0.24486E+07         0.00000E+00
    0.24486E+07        -0.40705E+08         0.00000E+00
    0.00000E+00         0.00000E+00        -0.10613E+08
 
   -0.10688E+08         0.24286E+07         0.00000E+00
    0.24286E+07        -0.41075E+08         0.00000E+00
    0.00000E+00         0.00000E+00        -0.10679E+08
 
   -0.10756E+08         0.24032E+07         0.00000E+00
    0.24032E+07        -0.41446E+08         0.00000E+00
    0.00000E+00         0.00000E+00        -0.10743E+08
 
   -0.10826E+08         0.23695E+07         0.00000E+00
    0.23695E+07        -0.41816E+08         0.00000E+00
    0.00000E+00         0.00000E+00        -0.10804E+08
 
   -0.10912E+08         0.23281E+07         0.00000E+00
    0.23281E+07        -0.42159E+08         0.00000E+00
    0.00000E+00         0.00000E+00        -0.10891E+08
 
   -0.11016E+08         0.22888E+07         0.00000E+00
    0.22888E+07        -0.42476E+08         0.00000E+00
    0.00000E+00         0.00000E+00        -0.11003E+08
 
   -0.11123E+08         0.22578E+07         0.00000E+00
    0.22578E+07        -0.42794E+08         0.00000E+00
    0.00000E+00         0.00000E+00        -0.11114E+08
 
   -0.11230E+08         0.22321E+07         0.00000E+00
    0.22321E+07        -0.43112E+08         0.00000E+00
    0.00000E+00         0.00000E+00        -0.11223E+08
 
   -0.11336E+08         0.22100E+07         0.00000E+00
    0.22100E+07        -0.43432E+08         0.00000E+00
    0.00000E+00         0.00000E+00        -0.11330E+08
 
   -0.11441E+08         0.21908E+07         0.00000E+00
    0.21908E+07        -0.43752E+08         0.00000E+00
    0.00000E+00         0.00000E+00        -0.11437E+08
 
   -0.11545E+08         0.21740E+07         0.00000E+00
    0.21740E+07        -0.44073E+08         0.00000E+00
    0.00000E+00         0.00000E+00        -0.11542E+08
 
   -0.11649E+08         0.21590E+07         0.00000E+00
    0.21590E+07        -0.44394E+08         0.00000E+00
    0.00000E+00         0.00000E+00        -0.11646E+08
 
   -0.11751E+08         0.21455E+07         0.00000E+00
    0.21455E+07        -0.44714E+08         0.00000E+00
    0.00000E+00         0.00000E+00        -0.11749E+08
 
   -0.11853E+08         0.21334E+07         0.00000E+00
    0.21334E+07        -0.45035E+08         0.00000E+00
    0.00000E+00         0.00000E+00        -0.11852E+08
 
   -0.11956E+08         0.21221E+07         0.00000E+00
    0.21221E+07        -0.45353E+08         0.00000E+00
    0.00000E+00         0.00000E+00        -0.11956E+08
 
   -0.12078E+08         0.21093E+07         0.00000E+00
    0.21093E+07        -0.45653E+08         0.00000E+00
    0.00000E+00         0.00000E+00        -0.12078E+08
 
   -0.12211E+08         0.20960E+07         0.00000E+00
    0.20960E+07        -0.45943E+08         0.00000E+00
    0.00000E+00         0.00000E+00        -0.12210E+08
 
   -0.12343E+08         0.20834E+07         0.00000E+00
    0.20834E+07        -0.46232E+08         0.00000E+00
    0.00000E+00         0.00000E+00        -0.12343E+08
 
   -0.12475E+08         0.20713E+07         0.00000E+00
    0.20713E+07        -0.46520E+08         0.00000E+00
    0.00000E+00         0.00000E+00        -0.12475E+08
 
   -0.12607E+08         0.20596E+07         0.00000E+00
    0.20596E+07        -0.46808E+08         0.00000E+00
    0.00000E+00         0.00000E+00        -0.12607E+08
 
   -0.12738E+08         0.20483E+07         0.00000E+00
    0.20483E+07        -0.47096E+08         0.00000E+00
    0.00000E+00         0.00000E+00        -0.12739E+08
 
   -0.12870E+08         0.20373E+07         0.00000E+00
    0.20373E+07        -0.47383E+08         0.00000E+00
    0.00000E+00         0.00000E+00        -0.12871E+08
 
   -0.13002E+08         0.20265E+07         0.00000E+00
    0.20265E+07        -0.47671E+08         0.00000E+00
    0.00000E+00         0.00000E+00        -0.13003E+08
 
   -0.13134E+08         0.20159E+07         0.00000E+00
    0.20159E+07        -0.47958E+08         0.00000E+00
    0.00000E+00         0.00000E+00        -0.13135E+08
 
   -0.13266E+08         0.20054E+07         0.00000E+00
    0.20054E+07        -0.48246E+08         0.00000E+00
    0.00000E+00         0.00000E+00        -0.13267E+08
 
   -0.13399E+08         0.19950E+07         0.00000E+00
    0.19950E+07        -0.48534E+08         0.00000E+00
    0.00000E+00         0.00000E+00        -0.13399E+08
 
   -0.13531E+08         0.19846E+07         0.00000E+00
    0.19846E+07        -0.48823E+08         0.00000E+00
    0.00000E+00         0.00000E+00        -0.13532E+08
 
   -0.13664E+08         0.19742E+07         0.00000E+00
    0.19742E+07        -0.49113E+08         0.00000E+00
    0.00000E+00         0.00000E+00        -0.13665E+08
 
   -0.13798E+08         0.19637E+07         0.00000E+00
    0.19637E+07        -0.49403E+08         0.00000E+00
    0.00000E+00         0.00000E+00        -0.13798E+08
 
   -0.13932E+08         0.19531E+07         0.00000E+00
    0.19531E+07        -0.49694E+08         0.00000E+00
    0.00000E+00         0.00000E+00        -0.13932E+08
 
   -0.14066E+08         0.19424E+07         0.00000E+00
    0.19424E+07        -0.49987E+08         0.00000E+00
    0.00000E+00         0.00000E+00        -0.14066E+08
 
   -0.14201E+08         0.19314E+07         0.00000E+00
    0.19314E+07        -0.50280E+08         0.00000E+00
    0.00000E+00         0.00000E+00        -0.14201E+08
 
   -0.14337E+08         0.19201E+07         0.00000E+00
    0.19201E+07        -0.50576E+08         0.00000E+00
    0.00000E+00         0.00000E+00        -0.14336E+08
 
   -0.14474E+08         0.19085E+07         0.00000E+00
    0.19085E+07        -0.50873E+08         0.00000E+00
    0.00000E+00         0.00000E+00        -0.14473E+08
 
   -0.14611E+08         0.18964E+07         0.00000E+00
    0.18964E+07        -0.51171E+08         0.00000E+00
    0.00000E+00         0.00000E+00        -0.14610E+08
 
   -0.14749E+08         0.18838E+07         0.00000E+00
    0.18838E+07        -0.51472E+08         0.00000E+00
    0.00000E+00         0.00000E+00        -0.14748E+08
 
   -0.14889E+08         0.18705E+07         0.00000E+00
    0.18705E+07        -0.51775E+08         0.00000E+00
    0.00000E+00         0.00000E+00        -0.14887E+08
 
   -0.15029E+08         0.18566E+07         0.00000E+00
    0.18566E+07        -0.52081E+08         0.00000E+00
    0.00000E+00         0.00000E+00        -0.15027E+08
 
   -0.15171E+08         0.18417E+07         0.00000E+00
    0.18417E+07        -0.52389E+08         0.00000E+00
    0.00000E+00         0.00000E+00        -0.15168E+08
 
   -0.15314E+08         0.18259E+07         0.00000E+00
    0.18259E+07        -0.52700E+08         0.00000E+00
    0.00000E+00         0.00000E+00        -0.15310E+08
 
   -0.15458E+08         0.18088E+07         0.00000E+00
    0.18088E+07        -0.53014E+08         0.00000E+00
    0.00000E+00         0.00000E+00        -0.15454E+08
 
   -0.15604E+08         0.17904E+07         0.00000E+00
    0.17904E+07        -0.53331E+08         0.00000E+00
    0.00000E+00         0.00000E+00        -0.15599E+08
 
   -0.15752E+08         0.17705E+07         0.00000E+00
    0.17705E+07        -0.53652E+08         0.00000E+00
    0.00000E+00         0.00000E+00        -0.15745E+08
 
   -0.15901E+08         0.17487E+07         0.00000E+00
    0.17487E+07        -0.53977E+08         0.00000E+00
    0.00000E+00         0.00000E+00        -0.15893E+08
 
   -0.16052E+08         0.17250E+07         0.00000E+00
    0.17250E+07        -0.54306E+08         0.00000E+00
    0.00000E+00         0.00000E+00        -0.16043E+08
 
   -0.16206E+08         0.16989E+07         0.00000E+00
    0.16989E+07        -0.54640E+08         0.00000E+00
    0.00000E+00         0.00000E+00        -0.16195E+08
 
   -0.16361E+08         0.16704E+07         0.00000E+00
    0.16704E+07        -0.54979E+08         0.00000E+00
    0.00000E+00         0.00000E+00        -0.16349E+08
 
   -0.16519E+08         0.16390E+07         0.00000E+00
    0.16390E+07        -0.55323E+08         0.00000E+00
    0.00000E+00         0.00000E+00        -0.16505E+08
 
   -0.16679E+08         0.16046E+07         0.00000E+00
    0.16046E+07        -0.55672E+08         0.00000E+00
    0.00000E+00         0.00000E+00        -0.16663E+08
 
   -0.16842E+08         0.15670E+07         0.00000E+00
    0.15670E+07        -0.56027E+08         0.00000E+00
    0.00000E+00         0.00000E+00        -0.16824E+08
 
   -0.17008E+08         0.15260E+07         0.00000E+00
    0.15260E+07        -0.56388E+08         0.00000E+00
    0.00000E+00         0.00000E+00        -0.16988E+08
 
   -0.17176E+08         0.14814E+07         0.00000E+00
    0.14814E+07        -0.56755E+08         0.00000E+00
    0.00000E+00         0.00000E+00        -0.17153E+08
 
   -0.17346E+08         0.14334E+07         0.00000E+00
    0.14334E+07        -0.57128E+08         0.00000E+00
    0.00000E+00         0.00000E+00        -0.17322E+08
 
   -0.17519E+08         0.13820E+07         0.00000E+00
    0.13820E+07        -0.57506E+08         0.00000E+00
    0.00000E+00         0.00000E+00        -0.17493E+08
 
   -0.17695E+08         0.13274E+07         0.00000E+00
    0.13274E+07        -0.57889E+08         0.00000E+00
    0.00000E+00         0.00000E+00        -0.17666E+08
 
   -0.17871E+08         0.12701E+07         0.00000E+00
    0.12701E+07        -0.58275E+08         0.00000E+00
    0.00000E+00         0.00000E+00        -0.17841E+08
 
   -0.18049E+08         0.12104E+07         0.00000E+00
    0.12104E+07        -0.58664E+08         0.00000E+00
    0.00000E+00         0.00000E+00        -0.18017E+08
 
   -0.18226E+08         0.11490E+07         0.00000E+00
    0.11490E+07        -0.59052E+08         0.00000E+00
    0.00000E+00         0.00000E+00        -0.18193E+08
 
   -0.18403E+08         0.10862E+07         0.00000E+00
    0.10862E+07        -0.59438E+08         0.00000E+00
    0.00000E+00         0.00000E+00        -0.18369E+08
 
   -0.18577E+08         0.10218E+07         0.00000E+00
    0.10218E+07        -0.59819E+08         0.00000E+00
    0.00000E+00         0.00000E+00        -0.18542E+08
 
   -0.18748E+08         0.95521E+06         0.00000E+00
    0.95521E+06        -0.60191E+08         0.00000E+00
    0.00000E+00         0.00000E+00        -0.18711E+08
 
   -0.18915E+08         0.88406E+06         0.00000E+00
    0.88406E+06        -0.60552E+08         0.00000E+00
    0.00000E+00         0.00000E+00        -0.18874E+08
 
   -0.19077E+08         0.80472E+06         0.00000E+00
    0.80472E+06        -0.60900E+08         0.00000E+00
    0.00000E+00         0.00000E+00        -0.19028E+08
 
   -0.19233E+08         0.70932E+06         0.00000E+00
    0.70932E+06        -0.61230E+08         0.00000E+00
    0.00000E+00         0.00000E+00        -0.19173E+08
 
   -0.19385E+08         0.58969E+06         0.00000E+00
    0.58969E+06        -0.61543E+08         0.00000E+00
    0.00000E+00         0.00000E+00        -0.19304E+08
 
   -0.19533E+08         0.41869E+06         0.00000E+00
    0.41869E+06        -0.61834E+08         0.00000E+00
    0.00000E+00         0.00000E+00        -0.19419E+08
 
   -0.19698E+08         0.15736E+06         0.00000E+00
    0.15736E+06        -0.62075E+08         0.00000E+00
    0.00000E+00         0.00000E+00        -0.19471E+08
 
   -0.81181E+07         0.22286E+06         0.00000E+00
    0.22286E+06        -0.27421E+08         0.00000E+00
    0.00000E+00         0.00000E+00        -0.86701E+07
 
   -0.82959E+07         0.62557E+06         0.00000E+00
    0.62557E+06        -0.27545E+08         0.00000E+00
    0.00000E+00         0.00000E+00        -0.86701E+07
 
   -0.83754E+07         0.94630E+06         0.00000E+00
    0.94630E+06        -0.27774E+08         0.00000E+00
    0.00000E+00         0.00000E+00        -0.86701E+07
 
   -0.84242E+07         0.12057E+07         0.00000E+00
    0.12057E+07        -0.28078E+08         0.00000E+00
    0.00000E+00         0.00000E+00        -0.86701E+07
 
   -0.84582E+07         0.14270E+07         0.00000E+00
    0.14270E+07        -0.28438E+08         0.00000E+00
    0.00000E+00         0.00000E+00        -0.86701E+07
 
   -0.84839E+07         0.16207E+07         0.00000E+00
    0.16207E+07        -0.28842E+08         0.00000E+00
    0.00000E+00         0.00000E+00        -0.86701E+07
 
   -0.85049E+07         0.17927E+07         0.00000E+00
    0.17927E+07        -0.29277E+08         0.00000E+00
    0.00000E+00         0.00000E+00        -0.86701E+07
 
   -0.85235E+07         0.19461E+07         0.00000E+00
    0.19461E+07        -0.29737E+08         0.00000E+00
    0.00000E+00         0.00000E+00        -0.86701E+07
 
   -0.85409E+07         0.20824E+07         0.00000E+00
    0.20824E+07        -0.30213E+08         0.00000E+00
    0.00000E+00         0.00000E+00        -0.86701E+07
 
   -0.85578E+07         0.22022E+07         0.00000E+00
    0.22022E+07        -0.30701E+08         0.00000E+00
    0.00000E+00         0.00000E+00        -0.86701E+07
 
   -0.85748E+07         0.23054E+07         0.00000E+00
    0.23054E+07        -0.31198E+08         0.00000E+00
    0.00000E+00         0.00000E+00        -0.86701E+07
 
   -0.85924E+07         0.23917E+07         0.00000E+00
    0.23917E+07        -0.31700E+08         0.00000E+00
    0.00000E+00         0.00000E+00        -0.86701E+07
 
   -0.86113E+07         0.24598E+07         0.00000E+00
    0.24598E+07        -0.32209E+08         0.00000E+00
    0.00000E+00         0.00000E+00        -0.86701E+07
 
   -0.86328E+07         0.25077E+07         0.00000E+00
    0.25077E+07        -0.32725E+08         0.00000E+00
    0.00000E+00         0.00000E+00        -0.86701E+07
 
   -0.86630E+07         0.25325E+07         0.00000E+00
    0.25325E+07        -0.33251E+08         0.00000E+00
    0.00000E+00         0.00000E+00        -0.86701E+07
 
   -0.87156E+07         0.25158E+07         0.00000E+00
    0.25158E+07        -0.33792E+08         0.00000E+00
    0.00000E+00         0.00000E+00        -0.86857E+07
 
   -0.88177E+07         0.24875E+07         0.00000E+00
    0.24875E+07        -0.34261E+08         0.00000E+00
    0.00000E+00         0.00000E+00        -0.88005E+07
 
   -0.89520E+07         0.24570E+07         0.00000E+00
    0.24570E+07        -0.34670E+08         0.00000E+00
    0.00000E+00         0.00000E+00        -0.89617E+07
 
   -0.90945E+07         0.24416E+07         0.00000E+00
    0.24416E+07        -0.35062E+08         0.00000E+00
    0.00000E+00         0.00000E+00        -0.91132E+07
 
   -0.92331E+07         0.24344E+07         0.00000E+00
    0.24344E+07        -0.35448E+08         0.00000E+00
    0.00000E+00         0.00000E+00        -0.92555E+07
 
   -0.93657E+07         0.24322E+07         0.00000E+00
    0.24322E+07        -0.35832E+08         0.00000E+00
    0.00000E+00         0.00000E+00        -0.93893E+07
 
   -0.94918E+07         0.24329E+07         0.00000E+00
    0.24329E+07        -0.36215E+08         0.00000E+00
    0.00000E+00         0.00000E+00        -0.95152E+07
 
   -0.96115E+07         0.24352E+07         0.00000E+00
    0.24352E+07        -0.36598E+08         0.00000E+00
    0.00000E+00         0.00000E+00        -0.96338E+07
 
   -0.97251E+07         0.24381E+07         0.00000E+00
    0.24381E+07        -0.36978E+08         0.00000E+00
    0.00000E+00         0.00000E+00        -0.97456E+07
 
   -0.98329E+07         0.24410E+07         0.00000E+00
    0.24410E+07        -0.37358E+08         0.00000E+00
    0.00000E+00         0.00000E+00        -0.98514E+07
 
   -0.99354E+07         0.24432E+07         0.00000E+00
    0.24432E+07        -0.37735E+08         0.00000E+00
    0.00000E+00         0.00000E+00        -0.99514E+07
 
   -0.10033E+08         0.24443E+07         0.00000E+00
    0.24443E+07        -0.38111E+08         0.00000E+00
    0.00000E+00         0.00000E+00        -0.10046E+08
 
   -0.10126E+08         0.24439E+07         0.00000E+00
    0.24439E+07        -0.38484E+08         0.00000E+00
    0.00000E+00         0.00000E+00        -0.10137E+08
 
   -0.10215E+08         0.24417E+07         0.00000E+00
    0.24417E+07        -0.38856E+08         0.00000E+00
    0.00000E+00         0.00000E+00        -0.10222E+08
 
   -0.10300E+08         0.24374E+07         0.00000E+00
    0.24374E+07        -0.39227E+08         0.00000E+00
    0.00000E+00         0.00000E+00        -0.10304E+08
 
   -0.10381E+08         0.24307E+07         0.00000E+00
    0.24307E+07        -0.39596E+08         0.00000E+00
    0.00000E+00         0.00000E+00        -0.10382E+08
 
   -0.10460E+08         0.24213E+07         0.00000E+00
    0.24213E+07        -0.39965E+08         0.00000E+00
    0.00000E+00         0.00000E+00        -0.10457E+08
 
   -0.10536E+08         0.24088E+07         0.00000E+00
    0.24088E+07        -0.40333E+08         0.00000E+00
    0.00000E+00         0.00000E+00        -0.10529E+08
 
   -0.10609E+08         0.23929E+07         0.00000E+00
    0.23929E+07        -0.40701E+08         0.00000E+00
    0.00000E+00         0.00000E+00        -0.10598E+08
 
   -0.10680E+08         0.23731E+07         0.00000E+00
    0.23731E+07        -0.41071E+08         0.00000E+00
    0.00000E+00         0.00000E+00        -0.10665E+08
 
   -0.10751E+08         0.23481E+07         0.00000E+00
    0.23481E+07        -0.41440E+08         0.00000E+00
    0.00000E+00         0.00000E+00        -0.10729E+08
 
   -0.10826E+08         0.23167E+07         0.00000E+00
    0.23167E+07        -0.41809E+08         0.00000E+00
    0.00000E+00         0.00000E+00        -0.10791E+08
 
   -0.10913E+08         0.22791E+07         0.00000E+00
    0.22791E+07        -0.42151E+08         0.00000E+00
    0.00000E+00         0.00000E+00        -0.10879E+08
 
   -0.11013E+08         0.22423E+07         0.00000E+00
    0.22423E+07        -0.42470E+08         0.00000E+00
    0.00000E+00         0.00000E+00        -0.10992E+08
 
   -0.11119E+08         0.22119E+07         0.00000E+00
    0.22119E+07        -0.42788E+08         0.00000E+00
    0.00000E+00         0.00000E+00        -0.11103E+08
 
   -0.11225E+08         0.21865E+07         0.00000E+00
    0.21865E+07        -0.43107E+08         0.00000E+00
    0.00000E+00         0.00000E+00        -0.11213E+08
 
   -0.11330E+08         0.21646E+07         0.00000E+00
    0.21646E+07        -0.43428E+08         0.00000E+00
    0.00000E+00         0.00000E+00        -0.11321E+08
 
   -0.11435E+08         0.21456E+07         0.00000E+00
    0.21456E+07        -0.43748E+08         0.00000E+00
    0.00000E+00         0.00000E+00        -0.11428E+08
 
   -0.11539E+08         0.21289E+07         0.00000E+00
    0.21289E+07        -0.44070E+08         0.00000E+00
    0.00000E+00         0.00000E+00        -0.11533E+08
 
   -0.11642E+08         0.21140E+07         0.00000E+00
    0.21140E+07        -0.44391E+08         0.00000E+00
    0.00000E+00         0.00000E+00        -0.11638E+08
 
   -0.11744E+08         0.21007E+07         0.00000E+00
    0.21007E+07        -0.44712E+08         0.00000E+00
    0.00000E+00         0.00000E+00        -0.11742E+08
 
   -0.11846E+08         0.20887E+07         0.00000E+00
    0.20887E+07        -0.45033E+08         0.00000E+00
    0.00000E+00         0.00000E+00        -0.11844E+08
 
   -0.11950E+08         0.20776E+07         0.00000E+00
    0.20776E+07        -0.45351E+08         0.00000E+00
    0.00000E+00         0.00000E+00        -0.11949E+08
 
   -0.12072E+08         0.20650E+07         0.00000E+00
    0.20650E+07        -0.45651E+08         0.00000E+00
    0.00000E+00         0.00000E+00        -0.12072E+08
 
   -0.12205E+08         0.20519E+07         0.00000E+00
    0.20519E+07        -0.45941E+08         0.00000E+00
    0.00000E+00         0.00000E+00        -0.12204E+08
 
   -0.12337E+08         0.20395E+07         0.00000E+00
    0.20395E+07        -0.46230E+08         0.00000E+00
    0.00000E+00         0.00000E+00        -0.12337E+08
 
   -0.12469E+08         0.20276E+07         0.00000E+00
    0.20276E+07        -0.46519E+08         0.00000E+00
    0.00000E+00         0.00000E+00        -0.12469E+08
 
   -0.12601E+08         0.20162E+07         0.00000E+00
    0.20162E+07        -0.46807E+08         0.00000E+00
    0.00000E+00         0.00000E+00        -0.12602E+08
 
   -0.12733E+08         0.20051E+07         0.00000E+00
    0.20051E+07        -0.47095E+08         0.00000E+00
    0.00000E+00         0.00000E+00        -0.12734E+08
 
   -0.12865E+08         0.19943E+07         0.00000E+00
    0.19943E+07        -0.47382E+08         0.00000E+00
    0.00000E+00         0.00000E+00        -0.12866E+08
 
   -0.12997E+08         0.19838E+07         0.00000E+00
    0.19838E+07        -0.47670E+08         0.00000E+00
    0.00000E+00         0.00000E+00        -0.12998E+08
 
   -0.13129E+08         0.19734E+07         0.00000E+00
    0.19734E+07        -0.47958E+08         0.00000E+00
    0.00000E+00         0.00000E+00        -0.13130E+08
 
   -0.13261E+08         0.19631E+07         0.00000E+00
    0.19631E+07        -0.48246E+08         0.00000E+00
    0.00000E+00         0.00000E+00        -0.13262E+08
 
   -0.13394E+08         0.19530E+07         0.00000E+00
    0.19530E+07        -0.48534E+08         0.00000E+00
    0.00000E+00         0.00000E+00        -0.13395E+08
 
   -0.13527E+08         0.19428E+07         0.00000E+00
    0.19428E+07        -0.48823E+08         0.00000E+00
    0.00000E+00         0.00000E+00        -0.13527E+08
 
   -0.13660E+08         0.19326E+07         0.00000E+00
    0.19326E+07        -0.49113E+08         0.00000E+00
    0.00000E+00         0.00000E+00        -0.13660E+08
 
   -0.13793E+08         0.19224E+07         0.00000E+00
    0.19224E+07        -0.49403E+08         0.00000E+00
    0.00000E+00         0.00000E+00        -0.13794E+08
 
   -0.13928E+08         0.19121E+07         0.00000E+00
    0.19121E+07        -0.49695E+08         0.00000E+00
    0.00000E+00         0.00000E+00        -0.13928E+08
 
   -0.14062E+08         0.19015E+07         0.00000E+00
    0.19015E+07        -0.49987E+08         0.00000E+00
    0.00000E+00         0.00000E+00        -0.14062E+08
 
   -0.14197E+08         0.18908E+07         0.00000E+00
    0.18908E+07        -0.50281E+08         0.00000E+00
    0.00000E+00         0.00000E+00        -0.14197E+08
 
   -0.14333E+08         0.18798E+07         0.00000E+00
    0.18798E+07        -0.50576E+08         0.00000E+00
    0.00000E+00         0.00000E+00        -0.14332E+08
 
   -0.14470E+08         0.18684E+07         0.00000E+00
    0.18684E+07        -0.50873E+08         0.00000E+00
    0.00000E+00         0.00000E+00        -0.14469E+08
 
   -0.14608E+08         0.18566E+07         0.00000E+00
    0.18566E+07        -0.51172E+08         0.00000E+00
    0.00000E+00         0.00000E+00        -0.14606E+08
 
   -0.14746E+08         0.18442E+07         0.00000E+00
    0.18442E+07        -0.51473E+08         0.00000E+00
    0.00000E+00         0.00000E+00        -0.14744E+08
 
   -0.14886E+08         0.18313E+07         0.00000E+00
    0.18313E+07        -0.51776E+08         0.00000E+00
    0.00000E+00         0.00000E+00        -0.14882E+08
 
   -0.15026E+08         0.18176E+07         0.00000E+00
    0.18176E+07        -0.52081E+08         0.00000E+00
    0.00000E+00         0.00000E+00        -0.15022E+08
 
   -0.15168E+08         0.18031E+07         0.00000E+00
    0.18031E+07        -0.52389E+08         0.00000E+00
    0.00000E+00         0.00000E+00        -0.15163E+08
 
   -0.15311E+08         0.17876E+07         0.00000E+00
    0.17876E+07        -0.52699E+08         0.00000E+00
    0.00000E+00         0.00000E+00        -0.15305E+08
 
   -0.15456E+08         0.17709E+07         0.00000E+00
    0.17709E+07        -0.53013E+08         0.00000E+00
    0.00000E+00         0.00000E+00        -0.15448E+08
 
   -0.15602E+08         0.17528E+07         0.00000E+00
    0.17528E+07        -0.53330E+08         0.00000E+00
    0.00000E+00         0.00000E+00        -0.15593E+08
 
   -0.15750E+08         0.17333E+07         0.00000E+00
    0.17333E+07        -0.53651E+08         0.00000E+00
    0.00000E+00         0.00000E+00        -0.15739E+08
 
   -0.15899E+08         0.17120E+07         0.00000E+00
    0.17120E+07        -0.53975E+08         0.00000E+00
    0.00000E+00         0.00000E+00        -0.15887E+08
 
   -0.16051E+08         0.16887E+07         0.00000E+00
    0.16887E+07        -0.54304E+08         0.00000E+00
    0.00000E+00         0.00000E+00        -0.16036E+08
 
   -0.16205E+08         0.16631E+07         0.00000E+00
    0.16631E+07        -0.54637E+08         0.00000E+00
    0.00000E+00         0.00000E+00        -0.16187E+08
 
   -0.16360E+08         0.16351E+07         0.00000E+00
    0.16351E+07        -0.54975E+08         0.00000E+00
    0.00000E+00         0.00000E+00        -0.16340E+08
 
   -0.16519E+08         0.16043E+07         0.00000E+00
    0.16043E+07        -0.55318E+08         0.00000E+00
    0.00000E+00         0.00000E+00        -0.16496E+08
 
   -0.16679E+08         0.15705E+07         0.00000E+00
    0.15705E+07        -0.55667E+08         0.00000E+00
    0.00000E+00         0.00000E+00        -0.16653E+08
 
   -0.16843E+08         0.15335E+07         0.00000E+00
    0.15335E+07        -0.56021E+08         0.00000E+00
    0.00000E+00         0.00000E+00        -0.16813E+08
 
   -0.17008E+08         0.14930E+07         0.00000E+00
    0.14930E+07        -0.56381E+08         0.00000E+00
    0.00000E+00         0.00000E+00        -0.16975E+08
 
   -0.17177E+08         0.14491E+07         0.00000E+00
    0.14491E+07        -0.56747E+08         0.00000E+00
    0.00000E+00         0.00000E+00        -0.17140E+08
 
   -0.17348E+08         0.14016E+07         0.00000E+00
    0.14016E+07        -0.57119E+08         0.00000E+00
    0.00000E+00         0.00000E+00        -0.17308E+08
 
   -0.17522E+08         0.13507E+07         0.00000E+00
    0.13507E+07        -0.57496E+08         0.00000E+00
    0.00000E+00         0.00000E+00        -0.17477E+08
 
   -0.17697E+08         0.12965E+07         0.00000E+00
    0.12965E+07        -0.57878E+08         0.00000E+00
    0.00000E+00         0.00000E+00        -0.17650E+08
 
   -0.17874E+08         0.12395E+07         0.00000E+00
    0.12395E+07        -0.58264E+08         0.00000E+00
    0.00000E+00         0.00000E+00        -0.17824E+08
 
   -0.18052E+08         0.11800E+07         0.00000E+00
    0.11800E+07        -0.58651E+08         0.00000E+00
    0.00000E+00         0.00000E+00        -0.17999E+08
 
   -0.18230E+08         0.11184E+07         0.00000E+00
    0.11184E+07        -0.59039E+08         0.00000E+00
    0.00000E+00         0.00000E+00        -0.18175E+08
 
   -0.18407E+08         0.10552E+07         0.00000E+00
    0.10552E+07        -0.59424E+08         0.00000E+00
    0.00000E+00         0.00000E+00        -0.18349E+08
 
   -0.18581E+08         0.99024E+06         0.00000E+00
    0.99024E+06        -0.59804E+08         0.00000E+00
    0.00000E+00         0.00000E+00        -0.18521E+08
 
   -0.18753E+08         0.92263E+06         0.00000E+00
    0.92263E+06        -0.60176E+08         0.00000E+00
    0.00000E+00         0.00000E+00        -0.18689E+08
 
   -0.18920E+08         0.85036E+06         0.00000E+00
    0.85036E+06        -0.60535E+08         0.00000E+00
    0.00000E+00         0.00000E+00        -0.18850E+08
 
   -0.19083E+08         0.76940E+06         0.00000E+00
    0.76940E+06        -0.60880E+08         0.00000E+00
    0.00000E+00         0.00000E+00        -0.19001E+08
 
   -0.19242E+08         0.67288E+06         0.00000E+00
    0.67288E+06        -0.61206E+08         0.00000E+00
    0.00000E+00         0.00000E+00        -0.19139E+08
 
   -0.19398E+08         0.55137E+06         0.00000E+00
    0.55137E+06        -0.61512E+08         0.00000E+00
    0.00000E+00         0.00000E+00        -0.19261E+08
 
   -0.19552E+08         0.37785E+06         0.00000E+00
    0.37785E+06        -0.61785E+08         0.00000E+00
    0.00000E+00         0.00000E+00        -0.19354E+08
 
   -0.19741E+08         0.13650E+06         0.00000E+00
    0.13650E+06        -0.62013E+08         0.00000E+00
    0.00000E+00         0.00000E+00        -0.19372E+08
 
   -0.79295E+07         0.19863E+06         0.00000E+00
    0.19863E+06        -0.27504E+08         0.00000E+00
    0.00000E+00         0.00000E+00        -0.86701E+07
 
   -0.81455E+07         0.56822E+06         0.00000E+00
    0.56822E+06        -0.27615E+08         0.00000E+00
    0.00000E+00         0.00000E+00        -0.86701E+07
 
   -0.82558E+07         0.87747E+06         0.00000E+00
    0.87747E+06        -0.27830E+08         0.00000E+00
    0.00000E+00         0.00000E+00        -0.86701E+07
 
   -0.83237E+07         0.11326E+07         0.00000E+00
    0.11326E+07        -0.28125E+08         0.00000E+00
    0.00000E+00         0.00000E+00        -0.86701E+07
 
   -0.83714E+07         0.13514E+07         0.00000E+00
    0.13514E+07        -0.28479E+08         0.00000E+00
    0.00000E+00         0.00000E+00        -0.86701E+07
 
   -0.84076E+07         0.15439E+07         0.00000E+00
    0.15439E+07        -0.28878E+08         0.00000E+00
    0.00000E+00         0.00000E+00        -0.86701E+07
 
   -0.84374E+07         0.17152E+07         0.00000E+00
    0.17152E+07        -0.29310E+08         0.00000E+00
    0.00000E+00         0.00000E+00        -0.86701E+07
 
   -0.84637E+07         0.18685E+07         0.00000E+00
    0.18685E+07        -0.29766E+08         0.00000E+00
    0.00000E+00         0.00000E+00        -0.86701E+07
 
   -0.84883E+07         0.20049E+07         0.00000E+00
    0.20049E+07        -0.30239E+08         0.00000E+00
    0.00000E+00         0.00000E+00        -0.86701E+07
 
   -0.85122E+07         0.21249E+07         0.00000E+00
    0.21249E+07        -0.30723E+08         0.00000E+00
    0.00000E+00         0.00000E+00        -0.86701E+07
 
   -0.85360E+07         0.22286E+07         0.00000E+00
    0.22286E+07        -0.31217E+08         0.00000E+00
    0.00000E+00         0.00000E+00        -0.86701E+07
 
   -0.85606E+07         0.23154E+07         0.00000E+00
    0.23154E+07        -0.31716E+08         0.00000E+00
    0.00000E+00         0.00000E+00        -0.86701E+07
 
   -0.85867E+07         0.23844E+07         0.00000E+00
    0.23844E+07        -0.32221E+08         0.00000E+00
    0.00000E+00         0.00000E+00        -0.86701E+07
 
   -0.86164E+07         0.24337E+07         0.00000E+00
    0.24337E+07        -0.32732E+08         0.00000E+00
    0.00000E+00         0.00000E+00        -0.86701E+07
 
   -0.86545E+07         0.24617E+07         0.00000E+00
    0.24617E+07        -0.33254E+08         0.00000E+00
    0.00000E+00         0.00000E+00        -0.86701E+07
 
   -0.87116E+07         0.24518E+07         0.00000E+00
    0.24518E+07        -0.33787E+08         0.00000E+00
    0.00000E+00         0.00000E+00        -0.86789E+07
 
   -0.88084E+07         0.24320E+07         0.00000E+00
    0.24320E+07        -0.34254E+08         0.00000E+00
    0.00000E+00         0.00000E+00        -0.87857E+07
 
   -0.89339E+07         0.24069E+07         0.00000E+00
    0.24069E+07        -0.34666E+08         0.00000E+00
    0.00000E+00         0.00000E+00        -0.89457E+07
 
   -0.90718E+07         0.23921E+07         0.00000E+00
    0.23921E+07        -0.35060E+08         0.00000E+00
    0.00000E+00         0.00000E+00        -0.90963E+07
 
   -0.92082E+07         0.23844E+07         0.00000E+00
    0.23844E+07        -0.35447E+08         0.00000E+00
    0.00000E+00         0.00000E+00        -0.92379E+07
 
   -0.93396E+07         0.23814E+07         0.00000E+00
    0.23814E+07        -0.35832E+08         0.00000E+00
    0.00000E+00         0.00000E+00        -0.93711E+07
 
   -0.94652E+07         0.23814E+07         0.00000E+00
    0.23814E+07        -0.36216E+08         0.00000E+00
    0.00000E+00         0.00000E+00        -0.94967E+07
 
   -0.95851E+07         0.23830E+07         0.00000E+00
    0.23830E+07        -0.36598E+08         0.00000E+00
    0.00000E+00         0.00000E+00        -0.96151E+07
 
   -0.96992E+07         0.23853E+07         0.00000E+00
    0.23853E+07        -0.36979E+08         0.00000E+00
    0.00000E+00         0.00000E+00        -0.97269E+07
 
   -0.98079E+07         0.23876E+07         0.00000E+00
    0.23876E+07        -0.37358E+08         0.00000E+00
    0.00000E+00         0.00000E+00        -0.98327E+07
 
   -0.99114E+07         0.23893E+07         0.00000E+00
    0.23893E+07        -0.37735E+08         0.00000E+00
    0.00000E+00         0.00000E+00        -0.99329E+07
 
   -0.10010E+08         0.23900E+07         0.00000E+00
    0.23900E+07        -0.38111E+08         0.00000E+00
    0.00000E+00         0.00000E+00        -0.10028E+08
 
   -0.10105E+08         0.23893E+07         0.00000E+00
    0.23893E+07        -0.38484E+08         0.00000E+00
    0.00000E+00         0.00000E+00        -0.10119E+08
 
   -0.10195E+08         0.23869E+07         0.00000E+00
    0.23869E+07        -0.38856E+08         0.00000E+00
    0.00000E+00         0.00000E+00        -0.10205E+08
 
   -0.10282E+08         0.23824E+07         0.00000E+00
    0.23824E+07        -0.39226E+08         0.00000E+00
    0.00000E+00         0.00000E+00        -0.10287E+08
 
   -0.10365E+08         0.23755E+07         0.00000E+00
    0.23755E+07        -0.39594E+08         0.00000E+00
    0.00000E+00         0.00000E+00        -0.10366E+08
 
   -0.10445E+08         0.23660E+07         0.00000E+00
    0.23660E+07        -0.39962E+08         0.00000E+00
    0.00000E+00         0.00000E+00        -0.10442E+08
 
   -0.10523E+08         0.23536E+07         0.00000E+00
    0.23536E+07        -0.40330E+08         0.00000E+00
    0.00000E+00         0.00000E+00        -0.10514E+08
 
   -0.10599E+08         0.23378E+07         0.00000E+00
    0.23378E+07        -0.40698E+08         0.00000E+00
    0.00000E+00         0.00000E+00        -0.10584E+08
 
   -0.10673E+08         0.23181E+07         0.00000E+00
    0.23181E+07        -0.41066E+08         0.00000E+00
    0.00000E+00         0.00000E+00        -0.10651E+08
 
   -0.10746E+08         0.22938E+07         0.00000E+00
    0.22938E+07        -0.41434E+08         0.00000E+00
    0.00000E+00         0.00000E+00        -0.10716E+08
 
   -0.10825E+08         0.22644E+07         0.00000E+00
    0.22644E+07        -0.41802E+08         0.00000E+00
    0.00000E+00         0.00000E+00        -0.10779E+08
 
   -0.10912E+08         0.22298E+07         0.00000E+00
    0.22298E+07        -0.42143E+08         0.00000E+00
    0.00000E+00         0.00000E+00        -0.10869E+08
 
   -0.11011E+08         0.21953E+07         0.00000E+00
    0.21953E+07        -0.42463E+08         0.00000E+00
    0.00000E+00         0.00000E+00        -0.10982E+08
 
   -0.11115E+08         0.21657E+07         0.00000E+00
    0.21657E+07        -0.42783E+08         0.00000E+00
    0.00000E+00         0.00000E+00        -0.11093E+08
 
   -0.11220E+08         0.21406E+07         0.00000E+00
    0.21406E+07        -0.43103E+08         0.00000E+00
    0.00000E+00         0.00000E+00        -0.11203E+08
 
   -0.11324E+08         0.21191E+07         0.00000E+00
    0.21191E+07        -0.43424E+08         0.00000E+00
    0.00000E+00         0.00000E+00        -0.11312E+08
 
   -0.11429E+08         0.21003E+07         0.00000E+00
    0.21003E+07        -0.43745E+08         0.00000E+00
    0.00000E+00         0.00000E+00        -0.11419E+08
 
   -0.11532E+08         0.20837E+07         0.00000E+00
    0.20837E+07        -0.44066E+08         0.00000E+00
    0.00000E+00         0.00000E+00        -0.11525E+08
 
   -0.11635E+08         0.20691E+07         0.00000E+00
    0.20691E+07        -0.44388E+08         0.00000E+00
    0.00000E+00         0.00000E+00        -0.11630E+08
 
   -0.11738E+08         0.20560E+07         0.00000E+00
    0.20560E+07        -0.44709E+08         0.00000E+00
    0.00000E+00         0.00000E+00        -0.11734E+08
 
   -0.11840E+08         0.20441E+07         0.00000E+00
    0.20441E+07        -0.45030E+08         0.00000E+00
    0.00000E+00         0.00000E+00        -0.11837E+08
 
   -0.11944E+08         0.20331E+07         0.00000E+00
    0.20331E+07        -0.45349E+08         0.00000E+00
    0.00000E+00         0.00000E+00        -0.11942E+08
 
   -0.12066E+08         0.20207E+07         0.00000E+00
    0.20207E+07        -0.45649E+08         0.00000E+00
    0.00000E+00         0.00000E+00        -0.12065E+08
 
   -0.12199E+08         0.20079E+07         0.00000E+00
    0.20079E+07        -0.45939E+08         0.00000E+00
    0.00000E+00         0.00000E+00        -0.12198E+08
 
   -0.12331E+08         0.19957E+07         0.00000E+00
    0.19957E+07        -0.46228E+08         0.00000E+00
    0.00000E+00         0.00000E+00        -0.12331E+08
 
   -0.12463E+08         0.19841E+07         0.00000E+00
    0.19841E+07        -0.46517E+08         0.00000E+00
    0.00000E+00         0.00000E+00        -0.12464E+08
 
   -0.12595E+08         0.19729E+07         0.00000E+00
    0.19729E+07        -0.46806E+08         0.00000E+00
    0.00000E+00         0.00000E+00        -0.12596E+08
 
   -0.12728E+08         0.19621E+07         0.00000E+00
    0.19621E+07        -0.47094E+08         0.00000E+00
    0.00000E+00         0.00000E+00        -0.12729E+08
 
   -0.12860E+08         0.19515E+07         0.00000E+00
    0.19515E+07        -0.47382E+08         0.00000E+00
    0.00000E+00         0.00000E+00        -0.12861E+08
 
   -0.12992E+08         0.19412E+07         0.00000E+00
    0.19412E+07        -0.47670E+08         0.00000E+00
    0.00000E+00         0.00000E+00        -0.12993E+08
 
   -0.13124E+08         0.19310E+07         0.00000E+00
    0.19310E+07        -0.47957E+08         0.00000E+00
    0.00000E+00         0.00000E+00        -0.13125E+08
 
   -0.13257E+08         0.19210E+07         0.00000E+00
    0.19210E+07        -0.48246E+08         0.00000E+00
    0.00000E+00         0.00000E+00        -0.13258E+08
 
   -0.13389E+08         0.19110E+07         0.00000E+00
    0.19110E+07        -0.48534E+08         0.00000E+00
    0.00000E+00         0.00000E+00        -0.13390E+08
 
   -0.13522E+08         0.19011E+07         0.00000E+00
    0.19011E+07        -0.48823E+08         0.00000E+00
    0.00000E+00         0.00000E+00        -0.13523E+08
 
   -0.13656E+08         0.18912E+07         0.00000E+00
    0.18912E+07        -0.49113E+08         0.00000E+00
    0.00000E+00         0.00000E+00        -0.13656E+08
 
   -0.13789E+08         0.18812E+07         0.00000E+00
    0.18812E+07        -0.49403E+08         0.00000E+00
    0.00000E+00         0.00000E+00        -0.13790E+08
 
   -0.13923E+08         0.18710E+07         0.00000E+00
    0.18710E+07        -0.49695E+08         0.00000E+00
    0.00000E+00         0.00000E+00        -0.13924E+08
 
   -0.14058E+08         0.18608E+07         0.00000E+00
    0.18608E+07        -0.49987E+08         0.00000E+00
    0.00000E+00         0.00000E+00        -0.14058E+08
 
   -0.14194E+08         0.18503E+07         0.00000E+00
    0.18503E+07        -0.50281E+08         0.00000E+00
    0.00000E+00         0.00000E+00        -0.14193E+08
 
   -0.14330E+08         0.18395E+07         0.00000E+00
    0.18395E+07        -0.50577E+08         0.00000E+00
    0.00000E+00         0.00000E+00        -0.14328E+08
 
   -0.14467E+08         0.18284E+07         0.00000E+00
    0.18284E+07        -0.50874E+08         0.00000E+00
    0.00000E+00         0.00000E+00        -0.14465E+08
 
   -0.14604E+08         0.18168E+07         0.00000E+00
    0.18168E+07        -0.51172E+08         0.00000E+00
    0.00000E+00         0.00000E+00        -0.14602E+08
 
   -0.14743E+08         0.18047E+07         0.00000E+00
    0.18047E+07        -0.51473E+08         0.00000E+00
    0.00000E+00         0.00000E+00        -0.14739E+08
 
   -0.14883E+08         0.17921E+07         0.00000E+00
    0.17921E+07        -0.51776E+08         0.00000E+00
    0.00000E+00         0.00000E+00        -0.14878E+08
 
   -0.15023E+08         0.17787E+07         0.00000E+00
    0.17787E+07        -0.52081E+08         0.00000E+00
    0.00000E+00         0.00000E+00        -0.15018E+08
 
   -0.15165E+08         0.17645E+07         0.00000E+00
    0.17645E+07        -0.52389E+08         0.00000E+00
    0.00000E+00         0.00000E+00        -0.15158E+08
 
   -0.15309E+08         0.17493E+07         0.00000E+00
    0.17493E+07        -0.52699E+08         0.00000E+00
    0.00000E+00         0.00000E+00        -0.15300E+08
 
   -0.15454E+08         0.17329E+07         0.00000E+00
    0.17329E+07        -0.53012E+08         0.00000E+00
    0.00000E+00         0.00000E+00        -0.15443E+08
 
   -0.15600E+08         0.17153E+07         0.00000E+00
    0.17153E+07        -0.53329E+08         0.00000E+00
    0.00000E+00         0.00000E+00        -0.15587E+08
 
   -0.15748E+08         0.16961E+07         0.00000E+00
    0.16961E+07        -0.53649E+08         0.00000E+00
    0.00000E+00         0.00000E+00        -0.15733E+08
 
   -0.15898E+08         0.16753E+07         0.00000E+00
    0.16753E+07        -0.53973E+08         0.00000E+00
    0.00000E+00         0.00000E+00        -0.15880E+08
 
   -0.16050E+08         0.16524E+07         0.00000E+00
    0.16524E+07        -0.54302E+08         0.00000E+00
    0.00000E+00         0.00000E+00        -0.16029E+08
 
   -0.16204E+08         0.16274E+07         0.00000E+00
    0.16274E+07        -0.54634E+08         0.00000E+00
    0.00000E+00         0.00000E+00        -0.16180E+08
 
   -0.16360E+08         0.15999E+07         0.00000E+00
    0.15999E+07        -0.54971E+08         0.00000E+00
    0.00000E+00         0.00000E+00        -0.16332E+08
 
   -0.16518E+08         0.15696E+07         0.00000E+00
    0.15696E+07        -0.55314E+08         0.00000E+00
    0.00000E+00         0.00000E+00        -0.16486E+08
 
   -0.16679E+08         0.15364E+07         0.00000E+00
    0.15364E+07        -0.55662E+08         0.00000E+00
    0.00000E+00         0.00000E+00        -0.16643E+08
 
   -0.16843E+08         0.15000E+07         0.00000E+00
    0.15000E+07        -0.56015E+08         0.00000E+00
    0.00000E+00         0.00000E+00        -0.16802E+08
 
   -0.17009E+08         0.14601E+07         0.00000E+00
    0.14601E+07        -0.56374E+08         0.00000E+00
    0.00000E+00         0.00000E+00        -0.16963E+08
 
   -0.17178E+08         0.14168E+07         0.00000E+00
    0.14168E+07        -0.56739E+08         0.00000E+00
    0.00000E+00         0.00000E+00        -0.17127E+08
 
   -0.17350E+08         0.13699E+07         0.00000E+00
    0.13699E+07        -0.57110E+08         0.00000E+00
    0.00000E+00         0.00000E+00        -0.17293E+08
 
   -0.17524E+08         0.13194E+07         0.00000E+00
    0.13194E+07        -0.57486E+08         0.00000E+00
    0.00000E+00         0.00000E+00        -0.17462E+08
 
   -0.17700E+08         0.12657E+07         0.00000E+00
    0.12657E+07        -0.57867E+08         0.00000E+00
    0.00000E+00         0.00000E+00        -0.17633E+08
 
   -0.17877E+08         0.12089E+07         0.00000E+00
    0.12089E+07        -0.58252E+08         0.00000E+00
    0.00000E+00         0.00000E+00        -0.17806E+08
 
   -0.18055E+08         0.11495E+07         0.00000E+00
    0.11495E+07        -0.58639E+08         0.00000E+00
    0.00000E+00         0.00000E+00        -0.17981E+08
 
   -0.18234E+08         0.10878E+07         0.00000E+00
    0.10878E+07        -0.59026E+08         0.00000E+00
    0.00000E+00         0.00000E+00        -0.18155E+08
 
   -0.18411E+08         0.10242E+07         0.00000E+00
    0.10242E+07        -0.59410E+08         0.00000E+00
    0.00000E+00         0.00000E+00        -0.18329E+08
 
   -0.18586E+08         0.95863E+06         0.00000E+00
    0.95863E+06        -0.59790E+08         0.00000E+00
    0.00000E+00         0.00000E+00        -0.18500E+08
 
   -0.18758E+08         0.89012E+06         0.00000E+00
    0.89012E+06        -0.60160E+08         0.00000E+00
    0.00000E+00         0.00000E+00        -0.18667E+08
 
   -0.18926E+08         0.81674E+06         0.00000E+00
    0.81674E+06        -0.60518E+08         0.00000E+00
    0.00000E+00         0.00000E+00        -0.18825E+08
 
   -0.19090E+08         0.73440E+06         0.00000E+00
    0.73440E+06        -0.60860E+08         0.00000E+00
    0.00000E+00         0.00000E+00        -0.18973E+08
 
   -0.19251E+08         0.63696E+06         0.00000E+00
    0.63696E+06        -0.61182E+08         0.00000E+00
    0.00000E+00         0.00000E+00        -0.19105E+08
 
   -0.19411E+08         0.51332E+06         0.00000E+00
    0.51332E+06        -0.61480E+08         0.00000E+00
    0.00000E+00         0.00000E+00        -0.19217E+08
 
   -0.19574E+08         0.34120E+06         0.00000E+00
    0.34120E+06        -0.61740E+08         0.00000E+00
    0.00000E+00         0.00000E+00        -0.19289E+08
 
   -0.19784E+08         0.11979E+06         0.00000E+00
    0.11979E+06        -0.61960E+08         0.00000E+00
    0.00000E+00         0.00000E+00        -0.19281E+08
 
   -0.77541E+07         0.17870E+06         0.00000E+00
    0.17870E+06        -0.27579E+08         0.00000E+00
    0.00000E+00         0.00000E+00        -0.86701E+07
 
   -0.79982E+07         0.51807E+06         0.00000E+00
    0.51807E+06        -0.27681E+08         0.00000E+00
    0.00000E+00         0.00000E+00        -0.86701E+07
 
   -0.81359E+07         0.81327E+06         0.00000E+00
    0.81327E+06        -0.27885E+08         0.00000E+00
    0.00000E+00         0.00000E+00        -0.86701E+07
 
   -0.82224E+07         0.10626E+07         0.00000E+00
    0.10626E+07        -0.28172E+08         0.00000E+00
    0.00000E+00         0.00000E+00        -0.86701E+07
 
   -0.82835E+07         0.12782E+07         0.00000E+00
    0.12782E+07        -0.28520E+08         0.00000E+00
    0.00000E+00         0.00000E+00        -0.86701E+07
 
   -0.83304E+07         0.14689E+07         0.00000E+00
    0.14689E+07        -0.28914E+08         0.00000E+00
    0.00000E+00         0.00000E+00        -0.86701E+07
 
   -0.83691E+07         0.16395E+07         0.00000E+00
    0.16395E+07        -0.29342E+08         0.00000E+00
    0.00000E+00         0.00000E+00        -0.86701E+07
 
   -0.84033E+07         0.17924E+07         0.00000E+00
    0.17924E+07        -0.29795E+08         0.00000E+00
    0.00000E+00         0.00000E+00        -0.86701E+07
 
   -0.84352E+07         0.19288E+07         0.00000E+00
    0.19288E+07        -0.30264E+08         0.00000E+00
    0.00000E+00         0.00000E+00        -0.86701E+07
 
   -0.84660E+07         0.20491E+07         0.00000E+00
    0.20491E+07        -0.30746E+08         0.00000E+00
    0.00000E+00         0.00000E+00        -0.86701E+07
 
   -0.84968E+07         0.21532E+07         0.00000E+00
    0.21532E+07        -0.31236E+08         0.00000E+00
    0.00000E+00         0.00000E+00        -0.86701E+07
 
   -0.85282E+07         0.22406E+07         0.00000E+00
    0.22406E+07        -0.31732E+08         0.00000E+00
    0.00000E+00         0.00000E+00        -0.86701E+07
 
   -0.85616E+07         0.23104E+07         0.00000E+00
    0.23104E+07        -0.32233E+08         0.00000E+00
    0.00000E+00         0.00000E+00        -0.86701E+07
 
   -0.85989E+07         0.23613E+07         0.00000E+00
    0.23613E+07        -0.32740E+08         0.00000E+00
    0.00000E+00         0.00000E+00        -0.86701E+07
 
   -0.86437E+07         0.23917E+07         0.00000E+00
    0.23917E+07        -0.33258E+08         0.00000E+00
    0.00000E+00         0.00000E+00        -0.86701E+07
 
   -0.87040E+07         0.23886E+07         0.00000E+00
    0.23886E+07        -0.33784E+08         0.00000E+00
    0.00000E+00         0.00000E+00        -0.86725E+07
 
   -0.87983E+07         0.23745E+07         0.00000E+00
    0.23745E+07        -0.34249E+08         0.00000E+00
    0.00000E+00         0.00000E+00        -0.87715E+07
 
   -0.89170E+07         0.23557E+07         0.00000E+00
    0.23557E+07        -0.34663E+08         0.00000E+00
    0.00000E+00         0.00000E+00        -0.89304E+07
 
   -0.90507E+07         0.23419E+07         0.00000E+00
    0.23419E+07        -0.35058E+08         0.00000E+00
    0.00000E+00         0.00000E+00        -0.90799E+07
 
   -0.91845E+07         0.23340E+07         0.00000E+00
    0.23340E+07        -0.35446E+08         0.00000E+00
    0.00000E+00         0.00000E+00        -0.92207E+07
 
   -0.93147E+07         0.23306E+07         0.00000E+00
    0.23306E+07        -0.35832E+08         0.00000E+00
    0.00000E+00         0.00000E+00        -0.93534E+07
 
   -0.94399E+07         0.23299E+07         0.00000E+00
    0.23299E+07        -0.36216E+08         0.00000E+00
    0.00000E+00         0.00000E+00        -0.94786E+07
 
   -0.95598E+07         0.23310E+07         0.00000E+00
    0.23310E+07        -0.36598E+08         0.00000E+00
    0.00000E+00         0.00000E+00        -0.95967E+07
 
   -0.96743E+07         0.23327E+07         0.00000E+00
    0.23327E+07        -0.36979E+08         0.00000E+00
    0.00000E+00         0.00000E+00        -0.97085E+07
 
   -0.97837E+07         0.23345E+07         0.00000E+00
    0.23345E+07        -0.37358E+08         0.00000E+00
    0.00000E+00         0.00000E+00        -0.98143E+07
 
   -0.98882E+07         0.23358E+07         0.00000E+00
    0.23358E+07        -0.37736E+08         0.00000E+00
    0.00000E+00         0.00000E+00        -0.99147E+07
 
   -0.99881E+07         0.23361E+07         0.00000E+00
    0.23361E+07        -0.38111E+08         0.00000E+00
    0.00000E+00         0.00000E+00        -0.10010E+08
 
   -0.10084E+08         0.23351E+07         0.00000E+00
    0.23351E+07        -0.38484E+08         0.00000E+00
    0.00000E+00         0.00000E+00        -0.10101E+08
 
   -0.10176E+08         0.23324E+07         0.00000E+00
    0.23324E+07        -0.38855E+08         0.00000E+00
    0.00000E+00         0.00000E+00        -0.10188E+08
 
   -0.10264E+08         0.23277E+07         0.00000E+00
    0.23277E+07        -0.39224E+08         0.00000E+00
    0.00000E+00         0.00000E+00        -0.10271E+08
 
   -0.10349E+08         0.23207E+07         0.00000E+00
    0.23207E+07        -0.39593E+08         0.00000E+00
    0.00000E+00         0.00000E+00        -0.10350E+08
 
   -0.10431E+08         0.23112E+07         0.00000E+00
    0.23112E+07        -0.39960E+08         0.00000E+00
    0.00000E+00         0.00000E+00        -0.10426E+08
 
   -0.10511E+08         0.22988E+07         0.00000E+00
    0.22988E+07        -0.40327E+08         0.00000E+00
    0.00000E+00         0.00000E+00        -0.10499E+08
 
   -0.10589E+08         0.22831E+07         0.00000E+00
    0.22831E+07        -0.40694E+08         0.00000E+00
    0.00000E+00         0.00000E+00        -0.10569E+08
 
   -0.10665E+08         0.22637E+07         0.00000E+00
    0.22637E+07        -0.41062E+08         0.00000E+00
    0.00000E+00         0.00000E+00        -0.10637E+08
 
   -0.10742E+08         0.22402E+07         0.00000E+00
    0.22402E+07        -0.41429E+08         0.00000E+00
    0.00000E+00         0.00000E+00        -0.10703E+08
 
   -0.10822E+08         0.22127E+07         0.00000E+00
    0.22127E+07        -0.41796E+08         0.00000E+00
    0.00000E+00         0.00000E+00        -0.10766E+08
 
   -0.10911E+08         0.21804E+07         0.00000E+00
    0.21804E+07        -0.42136E+08         0.00000E+00
    0.00000E+00         0.00000E+00        -0.10858E+08
 
   -0.11008E+08         0.21479E+07         0.00000E+00
    0.21479E+07        -0.42457E+08         0.00000E+00
    0.00000E+00         0.00000E+00        -0.10971E+08
 
   -0.11111E+08         0.21193E+07         0.00000E+00
    0.21193E+07        -0.42777E+08         0.00000E+00
    0.00000E+00         0.00000E+00        -0.11083E+08
 
   -0.11215E+08         0.20947E+07         0.00000E+00
    0.20947E+07        -0.43098E+08         0.00000E+00
    0.00000E+00         0.00000E+00        -0.11193E+08
 
   -0.11319E+08         0.20734E+07         0.00000E+00
    0.20734E+07        -0.43420E+08         0.00000E+00
    0.00000E+00         0.00000E+00        -0.11302E+08
 
   -0.11423E+08         0.20549E+07         0.00000E+00
    0.20549E+07        -0.43741E+08         0.00000E+00
    0.00000E+00         0.00000E+00        -0.11410E+08
 
   -0.11526E+08         0.20386E+07         0.00000E+00
    0.20386E+07        -0.44063E+08         0.00000E+00
    0.00000E+00         0.00000E+00        -0.11517E+08
 
   -0.11629E+08         0.20241E+07         0.00000E+00
    0.20241E+07        -0.44385E+08         0.00000E+00
    0.00000E+00         0.00000E+00        -0.11622E+08
 
   -0.11732E+08         0.20112E+07         0.00000E+00
    0.20112E+07        -0.44707E+08         0.00000E+00
    0.00000E+00         0.00000E+00        -0.11727E+08
 
   -0.11834E+08         0.19995E+07         0.00000E+00
    0.19995E+07        -0.45028E+08         0.00000E+00
    0.00000E+00         0.00000E+00        -0.11830E+08
 
   -0.11938E+08         0.19886E+07         0.00000E+00
    0.19886E+07        -0.45347E+08         0.00000E+00
    0.00000E+00         0.00000E+00        -0.11936E+08
 
   -0.12060E+08         0.19765E+07         0.00000E+00
    0.19765E+07        -0.45647E+08         0.00000E+00
    0.00000E+00         0.00000E+00        -0.12059E+08
 
   -0.12193E+08         0.19639E+07         0.00000E+00
    0.19639E+07        -0.45937E+08         0.00000E+00
    0.00000E+00         0.00000E+00        -0.12193E+08
 
   -0.12325E+08         0.19520E+07         0.00000E+00
    0.19520E+07        -0.46227E+08         0.00000E+00
    0.00000E+00         0.00000E+00        -0.12326E+08
 
   -0.12458E+08         0.19406E+07         0.00000E+00
    0.19406E+07        -0.46516E+08         0.00000E+00
    0.00000E+00         0.00000E+00        -0.12459E+08
 
   -0.12590E+08         0.19296E+07         0.00000E+00
    0.19296E+07        -0.46805E+08         0.00000E+00
    0.00000E+00         0.00000E+00        -0.12591E+08
 
   -0.12722E+08         0.19190E+07         0.00000E+00
    0.19190E+07        -0.47093E+08         0.00000E+00
    0.00000E+00         0.00000E+00        -0.12724E+08
 
   -0.12855E+08         0.19087E+07         0.00000E+00
    0.19087E+07        -0.47381E+08         0.00000E+00
    0.00000E+00         0.00000E+00        -0.12856E+08
 
   -0.12987E+08         0.18986E+07         0.00000E+00
    0.18986E+07        -0.47669E+08         0.00000E+00
    0.00000E+00         0.00000E+00        -0.12989E+08
 
   -0.13119E+08         0.18887E+07         0.00000E+00
    0.18887E+07        -0.47957E+08         0.00000E+00
    0.00000E+00         0.00000E+00        -0.13121E+08
 
   -0.13252E+08         0.18789E+07         0.00000E+00
    0.18789E+07        -0.48245E+08         0.00000E+00
    0.00000E+00         0.00000E+00        -0.13254E+08
 
   -0.13385E+08         0.18691E+07         0.00000E+00
    0.18691E+07        -0.48534E+08         0.00000E+00
    0.00000E+00         0.00000E+00        -0.13386E+08
 
   -0.13518E+08         0.18594E+07         0.00000E+00
    0.18594E+07        -0.48823E+08         0.00000E+00
    0.00000E+00         0.00000E+00        -0.13519E+08
 
   -0.13651E+08         0.18497E+07         0.00000E+00
    0.18497E+07        -0.49113E+08         0.00000E+00
    0.00000E+00         0.00000E+00        -0.13652E+08
 
   -0.13785E+08         0.18399E+07         0.00000E+00
    0.18399E+07        -0.49404E+08         0.00000E+00
    0.00000E+00         0.00000E+00        -0.13786E+08
 
   -0.13919E+08         0.18301E+07         0.00000E+00
    0.18301E+07        -0.49695E+08         0.00000E+00
    0.00000E+00         0.00000E+00        -0.13920E+08
 
   -0.14054E+08         0.18200E+07         0.00000E+00
    0.18200E+07        -0.49988E+08         0.00000E+00
    0.00000E+00         0.00000E+00        -0.14054E+08
 
   -0.14190E+08         0.18098E+07         0.00000E+00
    0.18098E+07        -0.50282E+08         0.00000E+00
    0.00000E+00         0.00000E+00        -0.14189E+08
 
   -0.14326E+08         0.17992E+07         0.00000E+00
    0.17992E+07        -0.50577E+08         0.00000E+00
    0.00000E+00         0.00000E+00        -0.14325E+08
 
   -0.14463E+08         0.17883E+07         0.00000E+00
    0.17883E+07        -0.50874E+08         0.00000E+00
    0.00000E+00         0.00000E+00        -0.14461E+08
 
   -0.14601E+08         0.17771E+07         0.00000E+00
    0.17771E+07        -0.51173E+08         0.00000E+00
    0.00000E+00         0.00000E+00        -0.14598E+08
 
   -0.14740E+08         0.17653E+07         0.00000E+00
    0.17653E+07        -0.51473E+08         0.00000E+00
    0.00000E+00         0.00000E+00        -0.14735E+08
 
   -0.14880E+08         0.17529E+07         0.00000E+00
    0.17529E+07        -0.51776E+08         0.00000E+00
    0.00000E+00         0.00000E+00        -0.14874E+08
 
   -0.15021E+08         0.17398E+07         0.00000E+00
    0.17398E+07        -0.52081E+08         0.00000E+00
    0.00000E+00         0.00000E+00        -0.15014E+08
 
   -0.15163E+08         0.17259E+07         0.00000E+00
    0.17259E+07        -0.52388E+08         0.00000E+00
    0.00000E+00         0.00000E+00        -0.15154E+08
 
   -0.15306E+08         0.17110E+07         0.00000E+00
    0.17110E+07        -0.52699E+08         0.00000E+00
    0.00000E+00         0.00000E+00        -0.15296E+08
 
   -0.15451E+08         0.16950E+07         0.00000E+00
    0.16950E+07        -0.53012E+08         0.00000E+00
    0.00000E+00         0.00000E+00        -0.15438E+08
 
   -0.15598E+08         0.16778E+07         0.00000E+00
    0.16778E+07        -0.53328E+08         0.00000E+00
    0.00000E+00         0.00000E+00        -0.15582E+08
 
   -0.15746E+08         0.16590E+07         0.00000E+00
    0.16590E+07        -0.53648E+08         0.00000E+00
    0.00000E+00         0.00000E+00        -0.15727E+08
 
   -0.15896E+08         0.16386E+07         0.00000E+00
    0.16386E+07        -0.53972E+08         0.00000E+00
    0.00000E+00         0.00000E+00        -0.15874E+08
 
   -0.16048E+08         0.16162E+07         0.00000E+00
    0.16162E+07        -0.54299E+08         0.00000E+00
    0.00000E+00         0.00000E+00        -0.16022E+08
 
   -0.16203E+08         0.15917E+07         0.00000E+00
    0.15917E+07        -0.54631E+08         0.00000E+00
    0.00000E+00         0.00000E+00        -0.16172E+08
 
   -0.16359E+08         0.15647E+07         0.00000E+00
    0.15647E+07        -0.54968E+08         0.00000E+00
    0.00000E+00         0.00000E+00        -0.16324E+08
 
   -0.16518E+08         0.15350E+07         0.00000E+00
    0.15350E+07        -0.55310E+08         0.00000E+00
    0.00000E+00         0.00000E+00        -0.16477E+08
 
   -0.16679E+08         0.15024E+07         0.00000E+00
    0.15024E+07        -0.55657E+08         0.00000E+00
    0.00000E+00         0.00000E+00        -0.16633E+08
 
   -0.16843E+08         0.14665E+07         0.00000E+00
    0.14665E+07        -0.56009E+08         0.00000E+00
    0.00000E+00         0.00000E+00        -0.16791E+08
 
   -0.17010E+08         0.14273E+07         0.00000E+00
    0.14273E+07        -0.56367E+08         0.00000E+00
    0.00000E+00         0.00000E+00        -0.16951E+08
 
   -0.17180E+08         0.13845E+07         0.00000E+00
    0.13845E+07        -0.56732E+08         0.00000E+00
    0.00000E+00         0.00000E+00        -0.17114E+08
 
   -0.17352E+08         0.13381E+07         0.00000E+00
    0.13381E+07        -0.57101E+08         0.00000E+00
    0.00000E+00         0.00000E+00        -0.17279E+08
 
   -0.17526E+08         0.12882E+07         0.00000E+00
    0.12882E+07        -0.57477E+08         0.00000E+00
    0.00000E+00         0.00000E+00        -0.17447E+08
 
   -0.17703E+08         0.12349E+07         0.00000E+00
    0.12349E+07        -0.57857E+08         0.00000E+00
    0.00000E+00         0.00000E+00        -0.17617E+08
 
   -0.17880E+08         0.11783E+07         0.00000E+00
    0.11783E+07        -0.58240E+08         0.00000E+00
    0.00000E+00         0.00000E+00        -0.17789E+08
 
   -0.18059E+08         0.11190E+07         0.00000E+00
    0.11190E+07        -0.58626E+08         0.00000E+00
    0.00000E+00         0.00000E+00        -0.17962E+08
 
   -0.18238E+08         0.10572E+07         0.00000E+00
    0.10572E+07        -0.59013E+08         0.00000E+00
    0.00000E+00         0.00000E+00        -0.18136E+08
 
   -0.18415E+08         0.99327E+06         0.00000E+00
    0.99327E+06        -0.59396E+08         0.00000E+00
    0.00000E+00         0.00000E+00        -0.18309E+08
 
   -0.18591E+08         0.92702E+06         0.00000E+00
    0.92702E+06        -0.59775E+08         0.00000E+00
    0.00000E+00         0.00000E+00        -0.18479E+08
 
   -0.18763E+08         0.85767E+06         0.00000E+00
    0.85767E+06        -0.60144E+08         0.00000E+00
    0.00000E+00         0.00000E+00        -0.18644E+08
 
   -0.18932E+08         0.78323E+06         0.00000E+00
    0.78323E+06        -0.60500E+08         0.00000E+00
    0.00000E+00         0.00000E+00        -0.18800E+08
 
   -0.19098E+08         0.69977E+06         0.00000E+00
    0.69977E+06        -0.60839E+08         0.00000E+00
    0.00000E+00         0.00000E+00        -0.18944E+08
 
   -0.19262E+08         0.60142E+06         0.00000E+00
    0.60142E+06        -0.61157E+08         0.00000E+00
    0.00000E+00         0.00000E+00        -0.19070E+08
 
   -0.19425E+08         0.47632E+06         0.00000E+00
    0.47632E+06        -0.61448E+08         0.00000E+00
    0.00000E+00         0.00000E+00        -0.19171E+08
 
   -0.19599E+08         0.30856E+06         0.00000E+00
    0.30856E+06        -0.61697E+08         0.00000E+00
    0.00000E+00         0.00000E+00        -0.19224E+08
 
   -0.19825E+08         0.10611E+06         0.00000E+00
    0.10611E+06        -0.61914E+08         0.00000E+00
    0.00000E+00         0.00000E+00        -0.19198E+08
 
   -0.75895E+07         0.16180E+06         0.00000E+00
    0.16180E+06        -0.27647E+08         0.00000E+00
    0.00000E+00         0.00000E+00        -0.86701E+07
 
   -0.78548E+07         0.47364E+06         0.00000E+00
    0.47364E+06        -0.27743E+08         0.00000E+00
    0.00000E+00         0.00000E+00        -0.86701E+07
 
   -0.80161E+07         0.75348E+06         0.00000E+00
    0.75348E+06        -0.27938E+08         0.00000E+00
    0.00000E+00         0.00000E+00        -0.86701E+07
 
   -0.81205E+07         0.99556E+06         0.00000E+00
    0.99556E+06        -0.28217E+08         0.00000E+00
    0.00000E+00         0.00000E+00        -0.86701E+07
 
   -0.81949E+07         0.12073E+07         0.00000E+00
    0.12073E+07        -0.28560E+08         0.00000E+00
    0.00000E+00         0.00000E+00        -0.86701E+07
 
   -0.82524E+07         0.13959E+07         0.00000E+00
    0.13959E+07        -0.28950E+08         0.00000E+00
    0.00000E+00         0.00000E+00        -0.86701E+07
 
   -0.83001E+07         0.15653E+07         0.00000E+00
    0.15653E+07        -0.29374E+08         0.00000E+00
    0.00000E+00         0.00000E+00        -0.86701E+07
 
   -0.83423E+07         0.17178E+07         0.00000E+00
    0.17178E+07        -0.29824E+08         0.00000E+00
    0.00000E+00         0.00000E+00        -0.86701E+07
 
   -0.83816E+07         0.18541E+07         0.00000E+00
    0.18541E+07        -0.30290E+08         0.00000E+00
    0.00000E+00         0.00000E+00        -0.86701E+07
 
   -0.84194E+07         0.19746E+07         0.00000E+00
    0.19746E+07        -0.30768E+08         0.00000E+00
    0.00000E+00         0.00000E+00        -0.86701E+07
 
   -0.84571E+07         0.20791E+07         0.00000E+00
    0.20791E+07        -0.31255E+08         0.00000E+00
    0.00000E+00         0.00000E+00        -0.86701E+07
 
   -0.84954E+07         0.21671E+07         0.00000E+00
    0.21671E+07        -0.31748E+08         0.00000E+00
    0.00000E+00         0.00000E+00        -0.86701E+07
 
   -0.85358E+07         0.22379E+07         0.00000E+00
    0.22379E+07        -0.32245E+08         0.00000E+00
    0.00000E+00         0.00000E+00        -0.86701E+07
 
   -0.85802E+07         0.22904E+07         0.00000E+00
    0.22904E+07        -0.32749E+08         0.00000E+00
    0.00000E+00         0.00000E+00        -0.86701E+07
 
   -0.86313E+07         0.23227E+07         0.00000E+00
    0.23227E+07        -0.33262E+08         0.00000E+00
    0.00000E+00         0.00000E+00        -0.86701E+07
 
   -0.86965E+07         0.23257E+07         0.00000E+00
    0.23257E+07        -0.33781E+08         0.00000E+00
    0.00000E+00         0.00000E+00        -0.86701E+07
 
   -0.87871E+07         0.23160E+07         0.00000E+00
    0.23160E+07        -0.34247E+08         0.00000E+00
    0.00000E+00         0.00000E+00        -0.87581E+07
 
   -0.89012E+07         0.23034E+07         0.00000E+00
    0.23034E+07        -0.34659E+08         0.00000E+00
    0.00000E+00         0.00000E+00        -0.89156E+07
 
   -0.90308E+07         0.22911E+07         0.00000E+00
    0.22911E+07        -0.35056E+08         0.00000E+00
    0.00000E+00         0.00000E+00        -0.90641E+07
 
   -0.91622E+07         0.22833E+07         0.00000E+00
    0.22833E+07        -0.35445E+08         0.00000E+00
    0.00000E+00         0.00000E+00        -0.92041E+07
 
   -0.92910E+07         0.22795E+07         0.00000E+00
    0.22795E+07        -0.35831E+08         0.00000E+00
    0.00000E+00         0.00000E+00        -0.93362E+07
 
   -0.94157E+07         0.22784E+07         0.00000E+00
    0.22784E+07        -0.36216E+08         0.00000E+00
    0.00000E+00         0.00000E+00        -0.94609E+07
 
   -0.95355E+07         0.22789E+07         0.00000E+00
    0.22789E+07        -0.36599E+08         0.00000E+00
    0.00000E+00         0.00000E+00        -0.95788E+07
 
   -0.96504E+07         0.22802E+07         0.00000E+00
    0.22802E+07        -0.36980E+08         0.00000E+00
    0.00000E+00         0.00000E+00        -0.96904E+07
 
   -0.97604E+07         0.22815E+07         0.00000E+00
    0.22815E+07        -0.37359E+08         0.00000E+00
    0.00000E+00         0.00000E+00        -0.97963E+07
 
   -0.98658E+07         0.22824E+07         0.00000E+00
    0.22824E+07        -0.37736E+08         0.00000E+00
    0.00000E+00         0.00000E+00        -0.98969E+07
 
   -0.99668E+07         0.22823E+07         0.00000E+00
    0.22823E+07        -0.38111E+08         0.00000E+00
    0.00000E+00         0.00000E+00        -0.99925E+07
 
   -0.10064E+08         0.22811E+07         0.00000E+00
    0.22811E+07        -0.38483E+08         0.00000E+00
    0.00000E+00         0.00000E+00        -0.10084E+08
 
   -0.10157E+08         0.22782E+07         0.00000E+00
    0.22782E+07        -0.38854E+08         0.00000E+00
    0.00000E+00         0.00000E+00        -0.10171E+08
 
   -0.10247E+08         0.22733E+07         0.00000E+00
    0.22733E+07        -0.39223E+08         0.00000E+00
    0.00000E+00         0.00000E+00        -0.10254E+08
 
   -0.10333E+08         0.22663E+07         0.00000E+00
    0.22663E+07        -0.39591E+08         0.00000E+00
    0.00000E+00         0.00000E+00        -0.10334E+08
 
   -0.10417E+08         0.22567E+07         0.00000E+00
    0.22567E+07        -0.39958E+08         0.00000E+00
    0.00000E+00         0.00000E+00        -0.10411E+08
 
   -0.10499E+08         0.22443E+07         0.00000E+00
    0.22443E+07        -0.40325E+08         0.00000E+00
    0.00000E+00         0.00000E+00        -0.10484E+08
 
   -0.10579E+08         0.22288E+07         0.00000E+00
    0.22288E+07        -0.40691E+08         0.00000E+00
    0.00000E+00         0.00000E+00        -0.10555E+08
 
   -0.10657E+08         0.22097E+07         0.00000E+00
    0.22097E+07        -0.41058E+08         0.00000E+00
    0.00000E+00         0.00000E+00        -0.10624E+08
 
   -0.10737E+08         0.21871E+07         0.00000E+00
    0.21871E+07        -0.41424E+08         0.00000E+00
    0.00000E+00         0.00000E+00        -0.10690E+08
 
   -0.10819E+08         0.21613E+07         0.00000E+00
    0.21613E+07        -0.41790E+08         0.00000E+00
    0.00000E+00         0.00000E+00        -0.10754E+08
 
   -0.10909E+08         0.21309E+07         0.00000E+00
    0.21309E+07        -0.42130E+08         0.00000E+00
    0.00000E+00         0.00000E+00        -0.10847E+08
 
   -0.11006E+08         0.21003E+07         0.00000E+00
    0.21003E+07        -0.42451E+08         0.00000E+00
    0.00000E+00         0.00000E+00        -0.10961E+08
 
   -0.11107E+08         0.20727E+07         0.00000E+00
    0.20727E+07        -0.42772E+08         0.00000E+00
    0.00000E+00         0.00000E+00        -0.11073E+08
 
   -0.11210E+08         0.20486E+07         0.00000E+00
    0.20486E+07        -0.43094E+08         0.00000E+00
    0.00000E+00         0.00000E+00        -0.11184E+08
 
   -0.11313E+08         0.20277E+07         0.00000E+00
    0.20277E+07        -0.43416E+08         0.00000E+00
    0.00000E+00         0.00000E+00        -0.11293E+08
 
   -0.11417E+08         0.20094E+07         0.00000E+00
    0.20094E+07        -0.43738E+08         0.00000E+00
    0.00000E+00         0.00000E+00        -0.11402E+08
 
   -0.11520E+08         0.19934E+07         0.00000E+00
    0.19934E+07        -0.44060E+08         0.00000E+00
    0.00000E+00         0.00000E+00        -0.11508E+08
 
   -0.11623E+08         0.19791E+07         0.00000E+00
    0.19791E+07        -0.44383E+08         0.00000E+00
    0.00000E+00         0.00000E+00        -0.11614E+08
 
   -0.11726E+08         0.19664E+07         0.00000E+00
    0.19664E+07        -0.44704E+08         0.00000E+00
    0.00000E+00         0.00000E+00        -0.11719E+08
 
   -0.11828E+08         0.19549E+07         0.00000E+00
    0.19549E+07        -0.45026E+08         0.00000E+00
    0.00000E+00         0.00000E+00        -0.11823E+08
 
   -0.11932E+08         0.19442E+07         0.00000E+00
    0.19442E+07        -0.45344E+08         0.00000E+00
    0.00000E+00         0.00000E+00        -0.11929E+08
 
   -0.12055E+08         0.19323E+07         0.00000E+00
    0.19323E+07        -0.45645E+08         0.00000E+00
    0.00000E+00         0.00000E+00        -0.12053E+08
 
   -0.12187E+08         0.19200E+07         0.00000E+00
    0.19200E+07        -0.45936E+08         0.00000E+00
    0.00000E+00         0.00000E+00        -0.12187E+08
 
   -0.12320E+08         0.19083E+07         0.00000E+00
    0.19083E+07        -0.46225E+08         0.00000E+00
    0.00000E+00         0.00000E+00        -0.12320E+08
 
   -0.12452E+08         0.18972E+07         0.00000E+00
    0.18972E+07        -0.46515E+08         0.00000E+00
    0.00000E+00         0.00000E+00        -0.12453E+08
 
   -0.12585E+08         0.18864E+07         0.00000E+00
    0.18864E+07        -0.46803E+08         0.00000E+00
    0.00000E+00         0.00000E+00        -0.12586E+08
 
   -0.12717E+08         0.18761E+07         0.00000E+00
    0.18761E+07        -0.47092E+08         0.00000E+00
    0.00000E+00         0.00000E+00        -0.12719E+08
 
   -0.12850E+08         0.18660E+07         0.00000E+00
    0.18660E+07        -0.47380E+08         0.00000E+00
    0.00000E+00         0.00000E+00        -0.12851E+08
 
   -0.12982E+08         0.18561E+07         0.00000E+00
    0.18561E+07        -0.47668E+08         0.00000E+00
    0.00000E+00         0.00000E+00        -0.12984E+08
 
   -0.13115E+08         0.18464E+07         0.00000E+00
    0.18464E+07        -0.47957E+08         0.00000E+00
    0.00000E+00         0.00000E+00        -0.13117E+08
 
   -0.13247E+08         0.18368E+07         0.00000E+00
    0.18368E+07        -0.48245E+08         0.00000E+00
    0.00000E+00         0.00000E+00        -0.13249E+08
 
   -0.13380E+08         0.18273E+07         0.00000E+00
    0.18273E+07        -0.48534E+08         0.00000E+00
    0.00000E+00         0.00000E+00        -0.13382E+08
 
   -0.13513E+08         0.18178E+07         0.00000E+00
    0.18178E+07        -0.48823E+08         0.00000E+00
    0.00000E+00         0.00000E+00        -0.13515E+08
 
   -0.13647E+08         0.18083E+07         0.00000E+00
    0.18083E+07        -0.49113E+08         0.00000E+00
    0.00000E+00         0.00000E+00        -0.13648E+08
 
   -0.13781E+08         0.17988E+07         0.00000E+00
    0.17988E+07        -0.49404E+08         0.00000E+00
    0.00000E+00         0.00000E+00        -0.13782E+08
 
   -0.13915E+08         0.17891E+07         0.00000E+00
    0.17891E+07        -0.49695E+08         0.00000E+00
    0.00000E+00         0.00000E+00        -0.13916E+08
 
   -0.14051E+08         0.17793E+07         0.00000E+00
    0.17793E+07        -0.49988E+08         0.00000E+00
    0.00000E+00         0.00000E+00        -0.14050E+08
 
   -0.14186E+08         0.17693E+07         0.00000E+00
    0.17693E+07        -0.50282E+08         0.00000E+00
    0.00000E+00         0.00000E+00        -0.14185E+08
 
   -0.14323E+08         0.17590E+07         0.00000E+00
    0.17590E+07        -0.50578E+08         0.00000E+00
    0.00000E+00         0.00000E+00        -0.14321E+08
 
   -0.14460E+08         0.17484E+07         0.00000E+00
    0.17484E+07        -0.50874E+08         0.00000E+00
    0.00000E+00         0.00000E+00        -0.14457E+08
 
   -0.14598E+08         0.17373E+07         0.00000E+00
    0.17373E+07        -0.51173E+08         0.00000E+00
    0.00000E+00         0.00000E+00        -0.14594E+08
 
   -0.14737E+08         0.17258E+07         0.00000E+00
    0.17258E+07        -0.51474E+08         0.00000E+00
    0.00000E+00         0.00000E+00        -0.14732E+08
 
   -0.14877E+08         0.17137E+07         0.00000E+00
    0.17137E+07        -0.51776E+08         0.00000E+00
    0.00000E+00         0.00000E+00        -0.14870E+08
 
   -0.15018E+08         0.17009E+07         0.00000E+00
    0.17009E+07        -0.52081E+08         0.00000E+00
    0.00000E+00         0.00000E+00        -0.15009E+08
 
   -0.15160E+08         0.16873E+07         0.00000E+00
    0.16873E+07        -0.52388E+08         0.00000E+00
    0.00000E+00         0.00000E+00        -0.15150E+08
 
   -0.15304E+08         0.16728E+07         0.00000E+00
    0.16728E+07        -0.52698E+08         0.00000E+00
    0.00000E+00         0.00000E+00        -0.15291E+08
 
   -0.15449E+08         0.16572E+07         0.00000E+00
    0.16572E+07        -0.53011E+08         0.00000E+00
    0.00000E+00         0.00000E+00        -0.15433E+08
 
   -0.15596E+08         0.16403E+07         0.00000E+00
    0.16403E+07        -0.53327E+08         0.00000E+00
    0.00000E+00         0.00000E+00        -0.15577E+08
 
   -0.15744E+08         0.16219E+07         0.00000E+00
    0.16219E+07        -0.53647E+08         0.00000E+00
    0.00000E+00         0.00000E+00        -0.15722E+08
 
   -0.15895E+08         0.16019E+07         0.00000E+00
    0.16019E+07        -0.53970E+08         0.00000E+00
    0.00000E+00         0.00000E+00        -0.15868E+08
 
   -0.16047E+08         0.15800E+07         0.00000E+00
    0.15800E+07        -0.54297E+08         0.00000E+00
    0.00000E+00         0.00000E+00        -0.16016E+08
 
   -0.16202E+08         0.15560E+07         0.00000E+00
    0.15560E+07        -0.54628E+08         0.00000E+00
    0.00000E+00         0.00000E+00        -0.16165E+08
 
   -0.16358E+08         0.15295E+07         0.00000E+00
    0.15295E+07        -0.54964E+08         0.00000E+00
    0.00000E+00         0.00000E+00        -0.16316E+08
 
   -0.16518E+08         0.15004E+07         0.00000E+00
    0.15004E+07        -0.55305E+08         0.00000E+00
    0.00000E+00         0.00000E+00        -0.16469E+08
 
   -0.16679E+08         0.14683E+07         0.00000E+00
    0.14683E+07        -0.55652E+08         0.00000E+00
    0.00000E+00         0.00000E+00        -0.16623E+08
 
   -0.16844E+08         0.14331E+07         0.00000E+00
    0.14331E+07        -0.56003E+08         0.00000E+00
    0.00000E+00         0.00000E+00        -0.16780E+08
 
   -0.17011E+08         0.13945E+07         0.00000E+00
    0.13945E+07        -0.56361E+08         0.00000E+00
    0.00000E+00         0.00000E+00        -0.16940E+08
 
   -0.17181E+08         0.13523E+07         0.00000E+00
    0.13523E+07        -0.56724E+08         0.00000E+00
    0.00000E+00         0.00000E+00        -0.17101E+08
 
   -0.17354E+08         0.13065E+07         0.00000E+00
    0.13065E+07        -0.57093E+08         0.00000E+00
    0.00000E+00         0.00000E+00        -0.17265E+08
 
   -0.17529E+08         0.12570E+07         0.00000E+00
    0.12570E+07        -0.57467E+08         0.00000E+00
    0.00000E+00         0.00000E+00        -0.17432E+08
 
   -0.17705E+08         0.12041E+07         0.00000E+00
    0.12041E+07        -0.57846E+08         0.00000E+00
    0.00000E+00         0.00000E+00        -0.17601E+08
 
   -0.17884E+08         0.11478E+07         0.00000E+00
    0.11478E+07        -0.58229E+08         0.00000E+00
    0.00000E+00         0.00000E+00        -0.17771E+08
 
   -0.18063E+08         0.10886E+07         0.00000E+00
    0.10886E+07        -0.58614E+08         0.00000E+00
    0.00000E+00         0.00000E+00        -0.17944E+08
 
   -0.18242E+08         0.10267E+07         0.00000E+00
    0.10267E+07        -0.58999E+08         0.00000E+00
    0.00000E+00         0.00000E+00        -0.18116E+08
 
   -0.18420E+08         0.96232E+06         0.00000E+00
    0.96232E+06        -0.59382E+08         0.00000E+00
    0.00000E+00         0.00000E+00        -0.18288E+08
 
   -0.18596E+08         0.89545E+06         0.00000E+00
    0.89545E+06        -0.59760E+08         0.00000E+00
    0.00000E+00         0.00000E+00        -0.18457E+08
 
   -0.18769E+08         0.82529E+06         0.00000E+00
    0.82529E+06        -0.60128E+08         0.00000E+00
    0.00000E+00         0.00000E+00        -0.18620E+08
 
   -0.18940E+08         0.74988E+06         0.00000E+00
    0.74988E+06        -0.60482E+08         0.00000E+00
    0.00000E+00         0.00000E+00        -0.18774E+08
 
   -0.19107E+08         0.66552E+06         0.00000E+00
    0.66552E+06        -0.60819E+08         0.00000E+00
    0.00000E+00         0.00000E+00        -0.18914E+08
 
   -0.19273E+08         0.56632E+06         0.00000E+00
    0.56632E+06        -0.61133E+08         0.00000E+00
    0.00000E+00         0.00000E+00        -0.19034E+08
 
   -0.19441E+08         0.44087E+06         0.00000E+00
    0.44087E+06        -0.61416E+08         0.00000E+00
    0.00000E+00         0.00000E+00        -0.19124E+08
 
   -0.19625E+08         0.27952E+06         0.00000E+00
    0.27952E+06        -0.61658E+08         0.00000E+00
    0.00000E+00         0.00000E+00        -0.19161E+08
 
   -0.19866E+08         0.94702E+05         0.00000E+00
    0.94702E+05        -0.61873E+08         0.00000E+00
    0.00000E+00         0.00000E+00        -0.19120E+08
 
   -0.74338E+07         0.14711E+06         0.00000E+00
    0.14711E+06        -0.27708E+08         0.00000E+00
    0.00000E+00         0.00000E+00        -0.86701E+07
 
   -0.77154E+07         0.43380E+06         0.00000E+00
    0.43380E+06        -0.27801E+08         0.00000E+00
    0.00000E+00         0.00000E+00        -0.86701E+07
 
   -0.78971E+07         0.69775E+06         0.00000E+00
    0.69775E+06        -0.27989E+08         0.00000E+00
    0.00000E+00         0.00000E+00        -0.86701E+07
 
   -0.80183E+07         0.93152E+06         0.00000E+00
    0.93152E+06        -0.28262E+08         0.00000E+00
    0.00000E+00         0.00000E+00        -0.86701E+07
 
   -0.81056E+07         0.11387E+07         0.00000E+00
    0.11387E+07        -0.28600E+08         0.00000E+00
    0.00000E+00         0.00000E+00        -0.86701E+07
 
   -0.81737E+07         0.13248E+07         0.00000E+00
    0.13248E+07        -0.28986E+08         0.00000E+00
    0.00000E+00         0.00000E+00        -0.86701E+07
 
   -0.82304E+07         0.14929E+07         0.00000E+00
    0.14929E+07        -0.29406E+08         0.00000E+00
    0.00000E+00         0.00000E+00        -0.86701E+07
 
   -0.82807E+07         0.16447E+07         0.00000E+00
    0.16447E+07        -0.29852E+08         0.00000E+00
    0.00000E+00         0.00000E+00        -0.86701E+07
 
   -0.83275E+07         0.17809E+07         0.00000E+00
    0.17809E+07        -0.30316E+08         0.00000E+00
    0.00000E+00         0.00000E+00        -0.86701E+07
 
   -0.83725E+07         0.19015E+07         0.00000E+00
    0.19015E+07        -0.30791E+08         0.00000E+00
    0.00000E+00         0.00000E+00        -0.86701E+07
 
   -0.84170E+07         0.20064E+07         0.00000E+00
    0.20064E+07        -0.31274E+08         0.00000E+00
    0.00000E+00         0.00000E+00        -0.86701E+07
 
   -0.84621E+07         0.20950E+07         0.00000E+00
    0.20950E+07        -0.31764E+08         0.00000E+00
    0.00000E+00         0.00000E+00        -0.86701E+07
 
   -0.85093E+07         0.21668E+07         0.00000E+00
    0.21668E+07        -0.32258E+08         0.00000E+00
    0.00000E+00         0.00000E+00        -0.86701E+07
 
   -0.85604E+07         0.22208E+07         0.00000E+00
    0.22208E+07        -0.32757E+08         0.00000E+00
    0.00000E+00         0.00000E+00        -0.86701E+07
 
   -0.86176E+07         0.22548E+07         0.00000E+00
    0.22548E+07        -0.33266E+08         0.00000E+00
    0.00000E+00         0.00000E+00        -0.86701E+07
 
   -0.86883E+07         0.22630E+07         0.00000E+00
    0.22630E+07        -0.33778E+08         0.00000E+00
    0.00000E+00         0.00000E+00        -0.86701E+07
 
   -0.87748E+07         0.22567E+07         0.00000E+00
    0.22567E+07        -0.34246E+08         0.00000E+00
    0.00000E+00         0.00000E+00        -0.87453E+07
 
   -0.88861E+07         0.22503E+07         0.00000E+00
    0.22503E+07        -0.34657E+08         0.00000E+00
    0.00000E+00         0.00000E+00        -0.89014E+07
 
   -0.90120E+07         0.22396E+07         0.00000E+00
    0.22396E+07        -0.35054E+08         0.00000E+00
    0.00000E+00         0.00000E+00        -0.90488E+07
 
   -0.91410E+07         0.22322E+07         0.00000E+00
    0.22322E+07        -0.35444E+08         0.00000E+00
    0.00000E+00         0.00000E+00        -0.91879E+07
 
   -0.92685E+07         0.22283E+07         0.00000E+00
    0.22283E+07        -0.35831E+08         0.00000E+00
    0.00000E+00         0.00000E+00        -0.93194E+07
 
   -0.93925E+07         0.22268E+07         0.00000E+00
    0.22268E+07        -0.36216E+08         0.00000E+00
    0.00000E+00         0.00000E+00        -0.94436E+07
 
   -0.95122E+07         0.22269E+07         0.00000E+00
    0.22269E+07        -0.36599E+08         0.00000E+00
    0.00000E+00         0.00000E+00        -0.95612E+07
 
   -0.96274E+07         0.22277E+07         0.00000E+00
    0.22277E+07        -0.36980E+08         0.00000E+00
    0.00000E+00         0.00000E+00        -0.96727E+07
 
   -0.97380E+07         0.22287E+07         0.00000E+00
    0.22287E+07        -0.37359E+08         0.00000E+00
    0.00000E+00         0.00000E+00        -0.97786E+07
 
   -0.98441E+07         0.22292E+07         0.00000E+00
    0.22292E+07        -0.37736E+08         0.00000E+00
    0.00000E+00         0.00000E+00        -0.98793E+07
 
   -0.99461E+07         0.22288E+07         0.00000E+00
    0.22288E+07        -0.38110E+08         0.00000E+00
    0.00000E+00         0.00000E+00        -0.99752E+07
 
   -0.10044E+08         0.22273E+07         0.00000E+00
    0.22273E+07        -0.38483E+08         0.00000E+00
    0.00000E+00         0.00000E+00        -0.10067E+08
 
   -0.10139E+08         0.22242E+07         0.00000E+00
    0.22242E+07        -0.38853E+08         0.00000E+00
    0.00000E+00         0.00000E+00        -0.10154E+08
 
   -0.10230E+08         0.22193E+07         0.00000E+00
    0.22193E+07        -0.39222E+08         0.00000E+00
    0.00000E+00         0.00000E+00        -0.10238E+08
 
   -0.10318E+08         0.22122E+07         0.00000E+00
    0.22122E+07        -0.39589E+08         0.00000E+00
    0.00000E+00         0.00000E+00        -0.10318E+08
 
   -0.10404E+08         0.22026E+07         0.00000E+00
    0.22026E+07        -0.39956E+08         0.00000E+00
    0.00000E+00         0.00000E+00        -0.10395E+08
 
   -0.10487E+08         0.21903E+07         0.00000E+00
    0.21903E+07        -0.40322E+08         0.00000E+00
    0.00000E+00         0.00000E+00        -0.10470E+08
 
   -0.10569E+08         0.21750E+07         0.00000E+00
    0.21750E+07        -0.40688E+08         0.00000E+00
    0.00000E+00         0.00000E+00        -0.10541E+08
 
   -0.10650E+08         0.21563E+07         0.00000E+00
    0.21563E+07        -0.41053E+08         0.00000E+00
    0.00000E+00         0.00000E+00        -0.10610E+08
 
   -0.10731E+08         0.21344E+07         0.00000E+00
    0.21344E+07        -0.41419E+08         0.00000E+00
    0.00000E+00         0.00000E+00        -0.10677E+08
 
   -0.10816E+08         0.21103E+07         0.00000E+00
    0.21103E+07        -0.41785E+08         0.00000E+00
    0.00000E+00         0.00000E+00        -0.10742E+08
 
   -0.10907E+08         0.20814E+07         0.00000E+00
    0.20814E+07        -0.42124E+08         0.00000E+00
    0.00000E+00         0.00000E+00        -0.10837E+08
 
   -0.11002E+08         0.20524E+07         0.00000E+00
    0.20524E+07        -0.42445E+08         0.00000E+00
    0.00000E+00         0.00000E+00        -0.10951E+08
 
   -0.11103E+08         0.20258E+07         0.00000E+00
    0.20258E+07        -0.42767E+08         0.00000E+00
    0.00000E+00         0.00000E+00        -0.11064E+08
 
   -0.11205E+08         0.20024E+07         0.00000E+00
    0.20024E+07        -0.43089E+08         0.00000E+00
    0.00000E+00         0.00000E+00        -0.11175E+08
 
   -0.11308E+08         0.19819E+07         0.00000E+00
    0.19819E+07        -0.43412E+08         0.00000E+00
    0.00000E+00         0.00000E+00        -0.11285E+08
 
   -0.11411E+08         0.19639E+07         0.00000E+00
    0.19639E+07        -0.43735E+08         0.00000E+00
    0.00000E+00         0.00000E+00        -0.11393E+08
 
   -0.11514E+08         0.19481E+07         0.00000E+00
    0.19481E+07        -0.44057E+08         0.00000E+00
    0.00000E+00         0.00000E+00        -0.11500E+08
 
   -0.11617E+08         0.19341E+07         0.00000E+00
    0.19341E+07        -0.44380E+08         0.00000E+00
    0.00000E+00         0.00000E+00        -0.11607E+08
 
   -0.11720E+08         0.19216E+07         0.00000E+00
    0.19216E+07        -0.44702E+08         0.00000E+00
    0.00000E+00         0.00000E+00        -0.11712E+08
 
   -0.11822E+08         0.19104E+07         0.00000E+00
    0.19104E+07        -0.45024E+08         0.00000E+00
    0.00000E+00         0.00000E+00        -0.11816E+08
 
   -0.11926E+08         0.18999E+07         0.00000E+00
    0.18999E+07        -0.45342E+08         0.00000E+00
    0.00000E+00         0.00000E+00        -0.11923E+08
 
   -0.12049E+08         0.18882E+07         0.00000E+00
    0.18882E+07        -0.45643E+08         0.00000E+00
    0.00000E+00         0.00000E+00        -0.12047E+08
 
   -0.12182E+08         0.18761E+07         0.00000E+00
    0.18761E+07        -0.45934E+08         0.00000E+00
    0.00000E+00         0.00000E+00        -0.12181E+08
 
   -0.12315E+08         0.18647E+07         0.00000E+00
    0.18647E+07        -0.46224E+08         0.00000E+00
    0.00000E+00         0.00000E+00        -0.12315E+08
 
   -0.12447E+08         0.18538E+07         0.00000E+00
    0.18538E+07        -0.46513E+08         0.00000E+00
    0.00000E+00         0.00000E+00        -0.12448E+08
 
   -0.12580E+08         0.18433E+07         0.00000E+00
    0.18433E+07        -0.46802E+08         0.00000E+00
    0.00000E+00         0.00000E+00        -0.12581E+08
 
   -0.12712E+08         0.18331E+07         0.00000E+00
    0.18331E+07        -0.47091E+08         0.00000E+00
    0.00000E+00         0.00000E+00        -0.12714E+08
 
   -0.12845E+08         0.18233E+07         0.00000E+00
    0.18233E+07        -0.47380E+08         0.00000E+00
    0.00000E+00         0.00000E+00        -0.12847E+08
 
   -0.12977E+08         0.18136E+07         0.00000E+00
    0.18136E+07        -0.47668E+08         0.00000E+00
    0.00000E+00         0.00000E+00        -0.12980E+08
 
   -0.13110E+08         0.18041E+07         0.00000E+00
    0.18041E+07        -0.47956E+08         0.00000E+00
    0.00000E+00         0.00000E+00        -0.13112E+08
 
   -0.13243E+08         0.17948E+07         0.00000E+00
    0.17948E+07        -0.48245E+08         0.00000E+00
    0.00000E+00         0.00000E+00        -0.13245E+08
 
   -0.13376E+08         0.17855E+07         0.00000E+00
    0.17855E+07        -0.48534E+08         0.00000E+00
    0.00000E+00         0.00000E+00        -0.13378E+08
 
   -0.13509E+08         0.17763E+07         0.00000E+00
    0.17763E+07        -0.48823E+08         0.00000E+00
    0.00000E+00         0.00000E+00        -0.13511E+08
 
   -0.13643E+08         0.17670E+07         0.00000E+00
    0.17670E+07        -0.49113E+08         0.00000E+00
    0.00000E+00         0.00000E+00        -0.13645E+08
 
   -0.13777E+08         0.17577E+07         0.00000E+00
    0.17577E+07        -0.49404E+08         0.00000E+00
    0.00000E+00         0.00000E+00        -0.13778E+08
 
   -0.13912E+08         0.17482E+07         0.00000E+00
    0.17482E+07        -0.49696E+08         0.00000E+00
    0.00000E+00         0.00000E+00        -0.13912E+08
 
   -0.14047E+08         0.17387E+07         0.00000E+00
    0.17387E+07        -0.49989E+08         0.00000E+00
    0.00000E+00         0.00000E+00        -0.14047E+08
 
   -0.14183E+08         0.17289E+07         0.00000E+00
    0.17289E+07        -0.50283E+08         0.00000E+00
    0.00000E+00         0.00000E+00        -0.14182E+08
 
   -0.14319E+08         0.17188E+07         0.00000E+00
    0.17188E+07        -0.50578E+08         0.00000E+00
    0.00000E+00         0.00000E+00        -0.14317E+08
 
   -0.14456E+08         0.17084E+07         0.00000E+00
    0.17084E+07        -0.50875E+08         0.00000E+00
    0.00000E+00         0.00000E+00        -0.14454E+08
 
   -0.14595E+08         0.16977E+07         0.00000E+00
    0.16977E+07        -0.51173E+08         0.00000E+00
    0.00000E+00         0.00000E+00        -0.14590E+08
 
   -0.14734E+08         0.16864E+07         0.00000E+00
    0.16864E+07        -0.51474E+08         0.00000E+00
    0.00000E+00         0.00000E+00        -0.14728E+08
 
   -0.14874E+08         0.16746E+07         0.00000E+00
    0.16746E+07        -0.51776E+08         0.00000E+00
    0.00000E+00         0.00000E+00        -0.14866E+08
 
   -0.15015E+08         0.16621E+07         0.00000E+00
    0.16621E+07        -0.52081E+08         0.00000E+00
    0.00000E+00         0.00000E+00        -0.15005E+08
 
   -0.15158E+08         0.16488E+07         0.00000E+00
    0.16488E+07        -0.52388E+08         0.00000E+00
    0.00000E+00         0.00000E+00        -0.15146E+08
 
   -0.15302E+08         0.16346E+07         0.00000E+00
    0.16346E+07        -0.52698E+08         0.00000E+00
    0.00000E+00         0.00000E+00        -0.15287E+08
 
   -0.15447E+08         0.16193E+07         0.00000E+00
    0.16193E+07        -0.53011E+08         0.00000E+00
    0.00000E+00         0.00000E+00        -0.15429E+08
 
   -0.15594E+08         0.16028E+07         0.00000E+00
    0.16028E+07        -0.53326E+08         0.00000E+00
    0.00000E+00         0.00000E+00        -0.15572E+08
 
   -0.15743E+08         0.15849E+07         0.00000E+00
    0.15849E+07        -0.53645E+08         0.00000E+00
    0.00000E+00         0.00000E+00        -0.15716E+08
 
   -0.15893E+08         0.15653E+07         0.00000E+00
    0.15653E+07        -0.53968E+08         0.00000E+00
    0.00000E+00         0.00000E+00        -0.15862E+08
 
   -0.16046E+08         0.15439E+07         0.00000E+00
    0.15439E+07        -0.54295E+08         0.00000E+00
    0.00000E+00         0.00000E+00        -0.16009E+08
 
   -0.16201E+08         0.15203E+07         0.00000E+00
    0.15203E+07        -0.54626E+08         0.00000E+00
    0.00000E+00         0.00000E+00        -0.16158E+08
 
   -0.16358E+08         0.14944E+07         0.00000E+00
    0.14944E+07        -0.54961E+08         0.00000E+00
    0.00000E+00         0.00000E+00        -0.16308E+08
 
   -0.16517E+08         0.14658E+07         0.00000E+00
    0.14658E+07        -0.55301E+08         0.00000E+00
    0.00000E+00         0.00000E+00        -0.16460E+08
 
   -0.16679E+08         0.14344E+07         0.00000E+00
    0.14344E+07        -0.55647E+08         0.00000E+00
    0.00000E+00         0.00000E+00        -0.16614E+08
 
   -0.16844E+08         0.13997E+07         0.00000E+00
    0.13997E+07        -0.55998E+08         0.00000E+00
    0.00000E+00         0.00000E+00        -0.16770E+08
 
   -0.17012E+08         0.13617E+07         0.00000E+00
    0.13617E+07        -0.56354E+08         0.00000E+00
    0.00000E+00         0.00000E+00        -0.16928E+08
 
   -0.17182E+08         0.13201E+07         0.00000E+00
    0.13201E+07        -0.56716E+08         0.00000E+00
    0.00000E+00         0.00000E+00        -0.17089E+08
 
   -0.17355E+08         0.12749E+07         0.00000E+00
    0.12749E+07        -0.57084E+08         0.00000E+00
    0.00000E+00         0.00000E+00        -0.17251E+08
 
   -0.17531E+08         0.12259E+07         0.00000E+00
    0.12259E+07        -0.57457E+08         0.00000E+00
    0.00000E+00         0.00000E+00        -0.17417E+08
 
   -0.17708E+08         0.11734E+07         0.00000E+00
    0.11734E+07        -0.57836E+08         0.00000E+00
    0.00000E+00         0.00000E+00        -0.17584E+08
 
   -0.17887E+08         0.11173E+07         0.00000E+00
    0.11173E+07        -0.58217E+08         0.00000E+00
    0.00000E+00         0.00000E+00        -0.17754E+08
 
   -0.18067E+08         0.10582E+07         0.00000E+00
    0.10582E+07        -0.58602E+08         0.00000E+00
    0.00000E+00         0.00000E+00        -0.17925E+08
 
   -0.18247E+08         0.99611E+06         0.00000E+00
    0.99611E+06        -0.58986E+08         0.00000E+00
    0.00000E+00         0.00000E+00        -0.18097E+08
 
   -0.18425E+08         0.93140E+06         0.00000E+00
    0.93140E+06        -0.59368E+08         0.00000E+00
    0.00000E+00         0.00000E+00        -0.18267E+08
 
   -0.18602E+08         0.86395E+06         0.00000E+00
    0.86395E+06        -0.59745E+08         0.00000E+00
    0.00000E+00         0.00000E+00        -0.18435E+08
 
   -0.18776E+08         0.79302E+06         0.00000E+00
    0.79302E+06        -0.60112E+08         0.00000E+00
    0.00000E+00         0.00000E+00        -0.18596E+08
 
   -0.18947E+08         0.71674E+06         0.00000E+00
    0.71674E+06        -0.60464E+08         0.00000E+00
    0.00000E+00         0.00000E+00        -0.18747E+08
 
   -0.19117E+08         0.63165E+06         0.00000E+00
    0.63165E+06        -0.60798E+08         0.00000E+00
    0.00000E+00         0.00000E+00        -0.18883E+08
 
   -0.19286E+08         0.53183E+06         0.00000E+00
    0.53183E+06        -0.61108E+08         0.00000E+00
    0.00000E+00         0.00000E+00        -0.18997E+08
 
   -0.19459E+08         0.40728E+06         0.00000E+00
    0.40728E+06        -0.61385E+08         0.00000E+00
    0.00000E+00         0.00000E+00        -0.19077E+08
 
   -0.19654E+08         0.25364E+06         0.00000E+00
    0.25364E+06        -0.61622E+08         0.00000E+00
    0.00000E+00         0.00000E+00        -0.19099E+08
 
   -0.19907E+08         0.85003E+05         0.00000E+00
    0.85003E+05        -0.61837E+08         0.00000E+00
    0.00000E+00         0.00000E+00        -0.19048E+08
 
   -0.72856E+07         0.13408E+06         0.00000E+00
    0.13408E+06        -0.27764E+08         0.00000E+00
    0.00000E+00         0.00000E+00        -0.86701E+07
 
   -0.75801E+07         0.39767E+06         0.00000E+00
    0.39767E+06        -0.27854E+08         0.00000E+00
    0.00000E+00         0.00000E+00        -0.86701E+07
 
   -0.77793E+07         0.64567E+06         0.00000E+00
    0.64567E+06        -0.28038E+08         0.00000E+00
    0.00000E+00         0.00000E+00        -0.86701E+07
 
   -0.79159E+07         0.87033E+06         0.00000E+00
    0.87033E+06        -0.28305E+08         0.00000E+00
    0.00000E+00         0.00000E+00        -0.86701E+07
 
   -0.80159E+07         0.10724E+07         0.00000E+00
    0.10724E+07        -0.28638E+08         0.00000E+00
    0.00000E+00         0.00000E+00        -0.86701E+07
 
   -0.80944E+07         0.12556E+07         0.00000E+00
    0.12556E+07        -0.29021E+08         0.00000E+00
    0.00000E+00         0.00000E+00        -0.86701E+07
 
   -0.81602E+07         0.14222E+07         0.00000E+00
    0.14222E+07        -0.29438E+08         0.00000E+00
    0.00000E+00         0.00000E+00        -0.86701E+07
 
   -0.82186E+07         0.15732E+07         0.00000E+00
    0.15732E+07        -0.29881E+08         0.00000E+00
    0.00000E+00         0.00000E+00        -0.86701E+07
 
   -0.82729E+07         0.17091E+07         0.00000E+00
    0.17091E+07        -0.30341E+08         0.00000E+00
    0.00000E+00         0.00000E+00        -0.86701E+07
 
   -0.83250E+07         0.18298E+07         0.00000E+00
    0.18298E+07        -0.30813E+08         0.00000E+00
    0.00000E+00         0.00000E+00        -0.86701E+07
 
   -0.83764E+07         0.19350E+07         0.00000E+00
    0.19350E+07        -0.31294E+08         0.00000E+00
    0.00000E+00         0.00000E+00        -0.86701E+07
 
   -0.84283E+07         0.20243E+07         0.00000E+00
    0.20243E+07        -0.31780E+08         0.00000E+00
    0.00000E+00         0.00000E+00        -0.86701E+07
 
   -0.84821E+07         0.20970E+07         0.00000E+00
    0.20970E+07        -0.32270E+08         0.00000E+00
    0.00000E+00         0.00000E+00        -0.86701E+07
 
   -0.85396E+07         0.21524E+07         0.00000E+00
    0.21524E+07        -0.32767E+08         0.00000E+00
    0.00000E+00         0.00000E+00        -0.86701E+07
 
   -0.86027E+07         0.21882E+07         0.00000E+00
    0.21882E+07        -0.33271E+08         0.00000E+00
    0.00000E+00         0.00000E+00        -0.86701E+07
 
   -0.86778E+07         0.22006E+07         0.00000E+00
    0.22006E+07        -0.33777E+08         0.00000E+00
    0.00000E+00         0.00000E+00        -0.86701E+07
 
   -0.87629E+07         0.21967E+07         0.00000E+00
    0.21967E+07        -0.34247E+08         0.00000E+00
    0.00000E+00         0.00000E+00        -0.87353E+07
 
   -0.88719E+07         0.21964E+07         0.00000E+00
    0.21964E+07        -0.34654E+08         0.00000E+00
    0.00000E+00         0.00000E+00        -0.88878E+07
 
   -0.89942E+07         0.21875E+07         0.00000E+00
    0.21875E+07        -0.35052E+08         0.00000E+00
    0.00000E+00         0.00000E+00        -0.90340E+07
 
   -0.91209E+07         0.21808E+07         0.00000E+00
    0.21808E+07        -0.35443E+08         0.00000E+00
    0.00000E+00         0.00000E+00        -0.91722E+07
 
   -0.92470E+07         0.21769E+07         0.00000E+00
    0.21769E+07        -0.35830E+08         0.00000E+00
    0.00000E+00         0.00000E+00        -0.93030E+07
 
   -0.93703E+07         0.21752E+07         0.00000E+00
    0.21752E+07        -0.36216E+08         0.00000E+00
    0.00000E+00         0.00000E+00        -0.94267E+07
 
   -0.94899E+07         0.21749E+07         0.00000E+00
    0.21749E+07        -0.36599E+08         0.00000E+00
    0.00000E+00         0.00000E+00        -0.95440E+07
 
   -0.96053E+07         0.21754E+07         0.00000E+00
    0.21754E+07        -0.36980E+08         0.00000E+00
    0.00000E+00         0.00000E+00        -0.96554E+07
 
   -0.97164E+07         0.21759E+07         0.00000E+00
    0.21759E+07        -0.37359E+08         0.00000E+00
    0.00000E+00         0.00000E+00        -0.97612E+07
 
   -0.98233E+07         0.21761E+07         0.00000E+00
    0.21761E+07        -0.37736E+08         0.00000E+00
    0.00000E+00         0.00000E+00        -0.98620E+07
 
   -0.99262E+07         0.21756E+07         0.00000E+00
    0.21756E+07        -0.38110E+08         0.00000E+00
    0.00000E+00         0.00000E+00        -0.99581E+07
 
   -0.10025E+08         0.21738E+07         0.00000E+00
    0.21738E+07        -0.38482E+08         0.00000E+00
    0.00000E+00         0.00000E+00        -0.10050E+08
 
   -0.10121E+08         0.21706E+07         0.00000E+00
    0.21706E+07        -0.38853E+08         0.00000E+00
    0.00000E+00         0.00000E+00        -0.10138E+08
 
   -0.10214E+08         0.21655E+07         0.00000E+00
    0.21655E+07        -0.39221E+08         0.00000E+00
    0.00000E+00         0.00000E+00        -0.10222E+08
 
   -0.10303E+08         0.21584E+07         0.00000E+00
    0.21584E+07        -0.39588E+08         0.00000E+00
    0.00000E+00         0.00000E+00        -0.10303E+08
 
   -0.10391E+08         0.21489E+07         0.00000E+00
    0.21489E+07        -0.39954E+08         0.00000E+00
    0.00000E+00         0.00000E+00        -0.10380E+08
 
   -0.10476E+08         0.21367E+07         0.00000E+00
    0.21367E+07        -0.40319E+08         0.00000E+00
    0.00000E+00         0.00000E+00        -0.10455E+08
 
   -0.10559E+08         0.21215E+07         0.00000E+00
    0.21215E+07        -0.40684E+08         0.00000E+00
    0.00000E+00         0.00000E+00        -0.10527E+08
 
   -0.10642E+08         0.21033E+07         0.00000E+00
    0.21033E+07        -0.41049E+08         0.00000E+00
    0.00000E+00         0.00000E+00        -0.10597E+08
 
   -0.10726E+08         0.20822E+07         0.00000E+00
    0.20822E+07        -0.41415E+08         0.00000E+00
    0.00000E+00         0.00000E+00        -0.10664E+08
 
   -0.10813E+08         0.20594E+07         0.00000E+00
    0.20594E+07        -0.41779E+08         0.00000E+00
    0.00000E+00         0.00000E+00        -0.10731E+08
 
   -0.10904E+08         0.20319E+07         0.00000E+00
    0.20319E+07        -0.42118E+08         0.00000E+00
    0.00000E+00         0.00000E+00        -0.10826E+08
 
   -0.10999E+08         0.20044E+07         0.00000E+00
    0.20044E+07        -0.42440E+08         0.00000E+00
    0.00000E+00         0.00000E+00        -0.10941E+08
 
   -0.11099E+08         0.19788E+07         0.00000E+00
    0.19788E+07        -0.42762E+08         0.00000E+00
    0.00000E+00         0.00000E+00        -0.11054E+08
 
   -0.11200E+08         0.19560E+07         0.00000E+00
    0.19560E+07        -0.43085E+08         0.00000E+00
    0.00000E+00         0.00000E+00        -0.11166E+08
 
   -0.11303E+08         0.19360E+07         0.00000E+00
    0.19360E+07        -0.43408E+08         0.00000E+00
    0.00000E+00         0.00000E+00        -0.11276E+08
 
   -0.11406E+08         0.19184E+07         0.00000E+00
    0.19184E+07        -0.43731E+08         0.00000E+00
    0.00000E+00         0.00000E+00        -0.11385E+08
 
   -0.11509E+08         0.19029E+07         0.00000E+00
    0.19029E+07        -0.44054E+08         0.00000E+00
    0.00000E+00         0.00000E+00        -0.11493E+08
 
   -0.11611E+08         0.18891E+07         0.00000E+00
    0.18891E+07        -0.44377E+08         0.00000E+00
    0.00000E+00         0.00000E+00        -0.11599E+08
 
   -0.11714E+08         0.18769E+07         0.00000E+00
    0.18769E+07        -0.44700E+08         0.00000E+00
    0.00000E+00         0.00000E+00        -0.11705E+08
 
   -0.11816E+08         0.18658E+07         0.00000E+00
    0.18658E+07        -0.45022E+08         0.00000E+00
    0.00000E+00         0.00000E+00        -0.11810E+08
 
   -0.11921E+08         0.18555E+07         0.00000E+00
    0.18555E+07        -0.45340E+08         0.00000E+00
    0.00000E+00         0.00000E+00        -0.11917E+08
 
   -0.12044E+08         0.18441E+07         0.00000E+00
    0.18441E+07        -0.45641E+08         0.00000E+00
    0.00000E+00         0.00000E+00        -0.12041E+08
 
   -0.12177E+08         0.18323E+07         0.00000E+00
    0.18323E+07        -0.45932E+08         0.00000E+00
    0.00000E+00         0.00000E+00        -0.12176E+08
 
   -0.12309E+08         0.18211E+07         0.00000E+00
    0.18211E+07        -0.46222E+08         0.00000E+00
    0.00000E+00         0.00000E+00        -0.12310E+08
 
   -0.12442E+08         0.18104E+07         0.00000E+00
    0.18104E+07        -0.46512E+08         0.00000E+00
    0.00000E+00         0.00000E+00        -0.12443E+08
 
   -0.12575E+08         0.18002E+07         0.00000E+00
    0.18002E+07        -0.46801E+08         0.00000E+00
    0.00000E+00         0.00000E+00        -0.12576E+08
 
   -0.12707E+08         0.17903E+07         0.00000E+00
    0.17903E+07        -0.47090E+08         0.00000E+00
    0.00000E+00         0.00000E+00        -0.12710E+08
 
   -0.12840E+08         0.17806E+07         0.00000E+00
    0.17806E+07        -0.47379E+08         0.00000E+00
    0.00000E+00         0.00000E+00        -0.12842E+08
 
   -0.12973E+08         0.17712E+07         0.00000E+00
    0.17712E+07        -0.47667E+08         0.00000E+00
    0.00000E+00         0.00000E+00        -0.12975E+08
 
   -0.13105E+08         0.17620E+07         0.00000E+00
    0.17620E+07        -0.47956E+08         0.00000E+00
    0.00000E+00         0.00000E+00        -0.13108E+08
 
   -0.13238E+08         0.17528E+07         0.00000E+00
    0.17528E+07        -0.48245E+08         0.00000E+00
    0.00000E+00         0.00000E+00        -0.13241E+08
 
   -0.13372E+08         0.17438E+07         0.00000E+00
    0.17438E+07        -0.48534E+08         0.00000E+00
    0.00000E+00         0.00000E+00        -0.13374E+08
 
   -0.13505E+08         0.17347E+07         0.00000E+00
    0.17347E+07        -0.48823E+08         0.00000E+00
    0.00000E+00         0.00000E+00        -0.13508E+08
 
   -0.13639E+08         0.17257E+07         0.00000E+00
    0.17257E+07        -0.49113E+08         0.00000E+00
    0.00000E+00         0.00000E+00        -0.13641E+08
 
   -0.13773E+08         0.17166E+07         0.00000E+00
    0.17166E+07        -0.49404E+08         0.00000E+00
    0.00000E+00         0.00000E+00        -0.13775E+08
 
   -0.13908E+08         0.17074E+07         0.00000E+00
    0.17074E+07        -0.49696E+08         0.00000E+00
    0.00000E+00         0.00000E+00        -0.13909E+08
 
   -0.14043E+08         0.16980E+07         0.00000E+00
    0.16980E+07        -0.49989E+08         0.00000E+00
    0.00000E+00         0.00000E+00        -0.14043E+08
 
   -0.14179E+08         0.16885E+07         0.00000E+00
    0.16885E+07        -0.50283E+08         0.00000E+00
    0.00000E+00         0.00000E+00        -0.14178E+08
 
   -0.14316E+08         0.16787E+07         0.00000E+00
    0.16787E+07        -0.50578E+08         0.00000E+00
    0.00000E+00         0.00000E+00        -0.14314E+08
 
   -0.14453E+08         0.16685E+07         0.00000E+00
    0.16685E+07        -0.50875E+08         0.00000E+00
    0.00000E+00         0.00000E+00        -0.14450E+08
 
   -0.14591E+08         0.16580E+07         0.00000E+00
    0.16580E+07        -0.51174E+08         0.00000E+00
    0.00000E+00         0.00000E+00        -0.14587E+08
 
   -0.14731E+08         0.16470E+07         0.00000E+00
    0.16470E+07        -0.51474E+08         0.00000E+00
    0.00000E+00         0.00000E+00        -0.14724E+08
 
   -0.14871E+08         0.16355E+07         0.00000E+00
    0.16355E+07        -0.51777E+08         0.00000E+00
    0.00000E+00         0.00000E+00        -0.14863E+08
 
   -0.15013E+08         0.16233E+07         0.00000E+00
    0.16233E+07        -0.52081E+08         0.00000E+00
    0.00000E+00         0.00000E+00        -0.15002E+08
 
   -0.15155E+08         0.16103E+07         0.00000E+00
    0.16103E+07        -0.52388E+08         0.00000E+00
    0.00000E+00         0.00000E+00        -0.15142E+08
 
   -0.15299E+08         0.15964E+07         0.00000E+00
    0.15964E+07        -0.52698E+08         0.00000E+00
    0.00000E+00         0.00000E+00        -0.15282E+08
 
   -0.15445E+08         0.15815E+07         0.00000E+00
    0.15815E+07        -0.53010E+08         0.00000E+00
    0.00000E+00         0.00000E+00        -0.15424E+08
 
   -0.15592E+08         0.15654E+07         0.00000E+00
    0.15654E+07        -0.53326E+08         0.00000E+00
    0.00000E+00         0.00000E+00        -0.15567E+08
 
   -0.15741E+08         0.15479E+07         0.00000E+00
    0.15479E+07        -0.53644E+08         0.00000E+00
    0.00000E+00         0.00000E+00        -0.15711E+08
 
   -0.15892E+08         0.15287E+07         0.00000E+00
    0.15287E+07        -0.53967E+08         0.00000E+00
    0.00000E+00         0.00000E+00        -0.15856E+08
 
   -0.16045E+08         0.15078E+07         0.00000E+00
    0.15078E+07        -0.54293E+08         0.00000E+00
    0.00000E+00         0.00000E+00        -0.16003E+08
 
   -0.16200E+08         0.14847E+07         0.00000E+00
    0.14847E+07        -0.54623E+08         0.00000E+00
    0.00000E+00         0.00000E+00        -0.16151E+08
 
   -0.16357E+08         0.14593E+07         0.00000E+00
    0.14593E+07        -0.54958E+08         0.00000E+00
    0.00000E+00         0.00000E+00        -0.16300E+08
 
   -0.16517E+08         0.14313E+07         0.00000E+00
    0.14313E+07        -0.55297E+08         0.00000E+00
    0.00000E+00         0.00000E+00        -0.16452E+08
 
   -0.16680E+08         0.14004E+07         0.00000E+00
    0.14004E+07        -0.55642E+08         0.00000E+00
    0.00000E+00         0.00000E+00        -0.16605E+08
 
   -0.16845E+08         0.13664E+07         0.00000E+00
    0.13664E+07        -0.55992E+08         0.00000E+00
    0.00000E+00         0.00000E+00        -0.16760E+08
 
   -0.17013E+08         0.13290E+07         0.00000E+00
    0.13290E+07        -0.56347E+08         0.00000E+00
    0.00000E+00         0.00000E+00        -0.16917E+08
 
   -0.17184E+08         0.12880E+07         0.00000E+00
    0.12880E+07        -0.56709E+08         0.00000E+00
    0.00000E+00         0.00000E+00        -0.17076E+08
 
   -0.17357E+08         0.12433E+07         0.00000E+00
    0.12433E+07        -0.57076E+08         0.00000E+00
    0.00000E+00         0.00000E+00        -0.17238E+08
 
   -0.17533E+08         0.11949E+07         0.00000E+00
    0.11949E+07        -0.57448E+08         0.00000E+00
    0.00000E+00         0.00000E+00        -0.17402E+08
 
   -0.17711E+08         0.11427E+07         0.00000E+00
    0.11427E+07        -0.57825E+08         0.00000E+00
    0.00000E+00         0.00000E+00        -0.17568E+08
 
   -0.17891E+08         0.10869E+07         0.00000E+00
    0.10869E+07        -0.58206E+08         0.00000E+00
    0.00000E+00         0.00000E+00        -0.17737E+08
 
   -0.18071E+08         0.10278E+07         0.00000E+00
    0.10278E+07        -0.58589E+08         0.00000E+00
    0.00000E+00         0.00000E+00        -0.17906E+08
 
   -0.18252E+08         0.96562E+06         0.00000E+00
    0.96562E+06        -0.58973E+08         0.00000E+00
    0.00000E+00         0.00000E+00        -0.18077E+08
 
   -0.18431E+08         0.90056E+06         0.00000E+00
    0.90056E+06        -0.59354E+08         0.00000E+00
    0.00000E+00         0.00000E+00        -0.18246E+08
 
   -0.18608E+08         0.83253E+06         0.00000E+00
    0.83253E+06        -0.59730E+08         0.00000E+00
    0.00000E+00         0.00000E+00        -0.18412E+08
 
   -0.18784E+08         0.76088E+06         0.00000E+00
    0.76088E+06        -0.60095E+08         0.00000E+00
    0.00000E+00         0.00000E+00        -0.18571E+08
 
   -0.18956E+08         0.68385E+06         0.00000E+00
    0.68385E+06        -0.60446E+08         0.00000E+00
    0.00000E+00         0.00000E+00        -0.18720E+08
 
   -0.19127E+08         0.59819E+06         0.00000E+00
    0.59819E+06        -0.60778E+08         0.00000E+00
    0.00000E+00         0.00000E+00        -0.18852E+08
 
   -0.19299E+08         0.49814E+06         0.00000E+00
    0.49814E+06        -0.61084E+08         0.00000E+00
    0.00000E+00         0.00000E+00        -0.18959E+08
 
   -0.19479E+08         0.37564E+06         0.00000E+00
    0.37564E+06        -0.61356E+08         0.00000E+00
    0.00000E+00         0.00000E+00        -0.19029E+08
 
   -0.19684E+08         0.23048E+06         0.00000E+00
    0.23048E+06        -0.61590E+08         0.00000E+00
    0.00000E+00         0.00000E+00        -0.19040E+08
 
   -0.19946E+08         0.76622E+05         0.00000E+00
    0.76622E+05        -0.61804E+08         0.00000E+00
    0.00000E+00         0.00000E+00        -0.18981E+08
 
   -0.71438E+07         0.12233E+06         0.00000E+00
    0.12233E+06        -0.27815E+08         0.00000E+00
    0.00000E+00         0.00000E+00        -0.86701E+07
 
   -0.74487E+07         0.36457E+06         0.00000E+00
    0.36457E+06        -0.27904E+08         0.00000E+00
    0.00000E+00         0.00000E+00        -0.86701E+07
 
   -0.76628E+07         0.59684E+06         0.00000E+00
    0.59684E+06        -0.28084E+08         0.00000E+00
    0.00000E+00         0.00000E+00        -0.86701E+07
 
   -0.78137E+07         0.81185E+06         0.00000E+00
    0.81185E+06        -0.28347E+08         0.00000E+00
    0.00000E+00         0.00000E+00        -0.86701E+07
 
   -0.79258E+07         0.10084E+07         0.00000E+00
    0.10084E+07        -0.28676E+08         0.00000E+00
    0.00000E+00         0.00000E+00        -0.86701E+07
 
   -0.80146E+07         0.11883E+07         0.00000E+00
    0.11883E+07        -0.29055E+08         0.00000E+00
    0.00000E+00         0.00000E+00        -0.86701E+07
 
   -0.80894E+07         0.13531E+07         0.00000E+00
    0.13531E+07        -0.29470E+08         0.00000E+00
    0.00000E+00         0.00000E+00        -0.86701E+07
 
   -0.81561E+07         0.15033E+07         0.00000E+00
    0.15033E+07        -0.29910E+08         0.00000E+00
    0.00000E+00         0.00000E+00        -0.86701E+07
 
   -0.82179E+07         0.16388E+07         0.00000E+00
    0.16388E+07        -0.30367E+08         0.00000E+00
    0.00000E+00         0.00000E+00        -0.86701E+07
 
   -0.82773E+07         0.17595E+07         0.00000E+00
    0.17595E+07        -0.30836E+08         0.00000E+00
    0.00000E+00         0.00000E+00        -0.86701E+07
 
   -0.83355E+07         0.18650E+07         0.00000E+00
    0.18650E+07        -0.31313E+08         0.00000E+00
    0.00000E+00         0.00000E+00        -0.86701E+07
 
   -0.83941E+07         0.19548E+07         0.00000E+00
    0.19548E+07        -0.31796E+08         0.00000E+00
    0.00000E+00         0.00000E+00        -0.86701E+07
 
   -0.84543E+07         0.20285E+07         0.00000E+00
    0.20285E+07        -0.32283E+08         0.00000E+00
    0.00000E+00         0.00000E+00        -0.86701E+07
 
   -0.85178E+07         0.20852E+07         0.00000E+00
    0.20852E+07        -0.32776E+08         0.00000E+00
    0.00000E+00         0.00000E+00        -0.86701E+07
 
   -0.85866E+07         0.21227E+07         0.00000E+00
    0.21227E+07        -0.33276E+08         0.00000E+00
    0.00000E+00         0.00000E+00        -0.86701E+07
 
   -0.86657E+07         0.21389E+07         0.00000E+00
    0.21389E+07        -0.33779E+08         0.00000E+00
    0.00000E+00         0.00000E+00        -0.86701E+07
 
   -0.87528E+07         0.21365E+07         0.00000E+00
    0.21365E+07        -0.34246E+08         0.00000E+00
    0.00000E+00         0.00000E+00        -0.87294E+07
 
   -0.88584E+07         0.21416E+07         0.00000E+00
    0.21416E+07        -0.34653E+08         0.00000E+00
    0.00000E+00         0.00000E+00        -0.88748E+07
 
   -0.89773E+07         0.21349E+07         0.00000E+00
    0.21349E+07        -0.35050E+08         0.00000E+00
    0.00000E+00         0.00000E+00        -0.90198E+07
 
   -0.91018E+07         0.21290E+07         0.00000E+00
    0.21290E+07        -0.35442E+08         0.00000E+00
    0.00000E+00         0.00000E+00        -0.91570E+07
 
   -0.92265E+07         0.21252E+07         0.00000E+00
    0.21252E+07        -0.35830E+08         0.00000E+00
    0.00000E+00         0.00000E+00        -0.92870E+07
 
   -0.93492E+07         0.21235E+07         0.00000E+00
    0.21235E+07        -0.36215E+08         0.00000E+00
    0.00000E+00         0.00000E+00        -0.94102E+07
 
   -0.94686E+07         0.21229E+07         0.00000E+00
    0.21229E+07        -0.36599E+08         0.00000E+00
    0.00000E+00         0.00000E+00        -0.95272E+07
 
   -0.95841E+07         0.21231E+07         0.00000E+00
    0.21231E+07        -0.36980E+08         0.00000E+00
    0.00000E+00         0.00000E+00        -0.96383E+07
 
   -0.96956E+07         0.21233E+07         0.00000E+00
    0.21233E+07        -0.37359E+08         0.00000E+00
    0.00000E+00         0.00000E+00        -0.97441E+07
 
   -0.98032E+07         0.21233E+07         0.00000E+00
    0.21233E+07        -0.37736E+08         0.00000E+00
    0.00000E+00         0.00000E+00        -0.98450E+07
 
   -0.99069E+07         0.21225E+07         0.00000E+00
    0.21225E+07        -0.38110E+08         0.00000E+00
    0.00000E+00         0.00000E+00        -0.99413E+07
 
   -0.10007E+08         0.21205E+07         0.00000E+00
    0.21205E+07        -0.38482E+08         0.00000E+00
    0.00000E+00         0.00000E+00        -0.10033E+08
 
   -0.10104E+08         0.21172E+07         0.00000E+00
    0.21172E+07        -0.38852E+08         0.00000E+00
    0.00000E+00         0.00000E+00        -0.10122E+08
 
   -0.10198E+08         0.21121E+07         0.00000E+00
    0.21121E+07        -0.39220E+08         0.00000E+00
    0.00000E+00         0.00000E+00        -0.10206E+08
 
   -0.10289E+08         0.21049E+07         0.00000E+00
    0.21049E+07        -0.39586E+08         0.00000E+00
    0.00000E+00         0.00000E+00        -0.10287E+08
 
   -0.10378E+08         0.20954E+07         0.00000E+00
    0.20954E+07        -0.39952E+08         0.00000E+00
    0.00000E+00         0.00000E+00        -0.10366E+08
 
   -0.10465E+08         0.20834E+07         0.00000E+00
    0.20834E+07        -0.40316E+08         0.00000E+00
    0.00000E+00         0.00000E+00        -0.10441E+08
 
   -0.10550E+08         0.20685E+07         0.00000E+00
    0.20685E+07        -0.40681E+08         0.00000E+00
    0.00000E+00         0.00000E+00        -0.10514E+08
 
   -0.10635E+08         0.20507E+07         0.00000E+00
    0.20507E+07        -0.41046E+08         0.00000E+00
    0.00000E+00         0.00000E+00        -0.10584E+08
 
   -0.10721E+08         0.20305E+07         0.00000E+00
    0.20305E+07        -0.41410E+08         0.00000E+00
    0.00000E+00         0.00000E+00        -0.10652E+08
 
   -0.10809E+08         0.20088E+07         0.00000E+00
    0.20088E+07        -0.41774E+08         0.00000E+00
    0.00000E+00         0.00000E+00        -0.10720E+08
 
   -0.10900E+08         0.19824E+07         0.00000E+00
    0.19824E+07        -0.42112E+08         0.00000E+00
    0.00000E+00         0.00000E+00        -0.10816E+08
 
   -0.10996E+08         0.19563E+07         0.00000E+00
    0.19563E+07        -0.42434E+08         0.00000E+00
    0.00000E+00         0.00000E+00        -0.10931E+08
 
   -0.11095E+08         0.19317E+07         0.00000E+00
    0.19317E+07        -0.42757E+08         0.00000E+00
    0.00000E+00         0.00000E+00        -0.11045E+08
 
   -0.11196E+08         0.19095E+07         0.00000E+00
    0.19095E+07        -0.43081E+08         0.00000E+00
    0.00000E+00         0.00000E+00        -0.11157E+08
 
   -0.11298E+08         0.18900E+07         0.00000E+00
    0.18900E+07        -0.43404E+08         0.00000E+00
    0.00000E+00         0.00000E+00        -0.11267E+08
 
   -0.11400E+08         0.18728E+07         0.00000E+00
    0.18728E+07        -0.43728E+08         0.00000E+00
    0.00000E+00         0.00000E+00        -0.11377E+08
 
   -0.11503E+08         0.18576E+07         0.00000E+00
    0.18576E+07        -0.44052E+08         0.00000E+00
    0.00000E+00         0.00000E+00        -0.11485E+08
 
   -0.11606E+08         0.18441E+07         0.00000E+00
    0.18441E+07        -0.44375E+08         0.00000E+00
    0.00000E+00         0.00000E+00        -0.11592E+08
 
   -0.11708E+08         0.18321E+07         0.00000E+00
    0.18321E+07        -0.44697E+08         0.00000E+00
    0.00000E+00         0.00000E+00        -0.11698E+08
 
   -0.11810E+08         0.18213E+07         0.00000E+00
    0.18213E+07        -0.45020E+08         0.00000E+00
    0.00000E+00         0.00000E+00        -0.11803E+08
 
   -0.11915E+08         0.18112E+07         0.00000E+00
    0.18112E+07        -0.45338E+08         0.00000E+00
    0.00000E+00         0.00000E+00        -0.11911E+08
 
   -0.12038E+08         0.18000E+07         0.00000E+00
    0.18000E+07        -0.45639E+08         0.00000E+00
    0.00000E+00         0.00000E+00        -0.12036E+08
 
   -0.12171E+08         0.17885E+07         0.00000E+00
    0.17885E+07        -0.45931E+08         0.00000E+00
    0.00000E+00         0.00000E+00        -0.12170E+08
 
   -0.12304E+08         0.17775E+07         0.00000E+00
    0.17775E+07        -0.46221E+08         0.00000E+00
    0.00000E+00         0.00000E+00        -0.12304E+08
 
   -0.12437E+08         0.17671E+07         0.00000E+00
    0.17671E+07        -0.46511E+08         0.00000E+00
    0.00000E+00         0.00000E+00        -0.12438E+08
 
   -0.12570E+08         0.17571E+07         0.00000E+00
    0.17571E+07        -0.46800E+08         0.00000E+00
    0.00000E+00         0.00000E+00        -0.12572E+08
 
   -0.12703E+08         0.17474E+07         0.00000E+00
    0.17474E+07        -0.47089E+08         0.00000E+00
    0.00000E+00         0.00000E+00        -0.12705E+08
 
   -0.12835E+08         0.17380E+07         0.00000E+00
    0.17380E+07        -0.47378E+08         0.00000E+00
    0.00000E+00         0.00000E+00        -0.12838E+08
 
   -0.12968E+08         0.17289E+07         0.00000E+00
    0.17289E+07        -0.47667E+08         0.00000E+00
    0.00000E+00         0.00000E+00        -0.12971E+08
 
   -0.13101E+08         0.17198E+07         0.00000E+00
    0.17198E+07        -0.47956E+08         0.00000E+00
    0.00000E+00         0.00000E+00        -0.13104E+08
 
   -0.13234E+08         0.17109E+07         0.00000E+00
    0.17109E+07        -0.48245E+08         0.00000E+00
    0.00000E+00         0.00000E+00        -0.13237E+08
 
   -0.13367E+08         0.17021E+07         0.00000E+00
    0.17021E+07        -0.48534E+08         0.00000E+00
    0.00000E+00         0.00000E+00        -0.13371E+08
 
   -0.13501E+08         0.16933E+07         0.00000E+00
    0.16933E+07        -0.48823E+08         0.00000E+00
    0.00000E+00         0.00000E+00        -0.13504E+08
 
   -0.13635E+08         0.16844E+07         0.00000E+00
    0.16844E+07        -0.49114E+08         0.00000E+00
    0.00000E+00         0.00000E+00        -0.13637E+08
 
   -0.13769E+08         0.16756E+07         0.00000E+00
    0.16756E+07        -0.49405E+08         0.00000E+00
    0.00000E+00         0.00000E+00        -0.13771E+08
 
   -0.13904E+08         0.16666E+07         0.00000E+00
    0.16666E+07        -0.49696E+08         0.00000E+00
    0.00000E+00         0.00000E+00        -0.13905E+08
 
   -0.14040E+08         0.16574E+07         0.00000E+00
    0.16574E+07        -0.49989E+08         0.00000E+00
    0.00000E+00         0.00000E+00        -0.14040E+08
 
   -0.14176E+08         0.16481E+07         0.00000E+00
    0.16481E+07        -0.50283E+08         0.00000E+00
    0.00000E+00         0.00000E+00        -0.14175E+08
 
   -0.14312E+08         0.16385E+07         0.00000E+00
    0.16385E+07        -0.50579E+08         0.00000E+00
    0.00000E+00         0.00000E+00        -0.14311E+08
 
   -0.14450E+08         0.16286E+07         0.00000E+00
    0.16286E+07        -0.50876E+08         0.00000E+00
    0.00000E+00         0.00000E+00        -0.14447E+08
 
   -0.14588E+08         0.16184E+07         0.00000E+00
    0.16184E+07        -0.51174E+08         0.00000E+00
    0.00000E+00         0.00000E+00        -0.14583E+08
 
   -0.14728E+08         0.16077E+07         0.00000E+00
    0.16077E+07        -0.51475E+08         0.00000E+00
    0.00000E+00         0.00000E+00        -0.14721E+08
 
   -0.14868E+08         0.15964E+07         0.00000E+00
    0.15964E+07        -0.51777E+08         0.00000E+00
    0.00000E+00         0.00000E+00        -0.14859E+08
 
   -0.15010E+08         0.15845E+07         0.00000E+00
    0.15845E+07        -0.52081E+08         0.00000E+00
    0.00000E+00         0.00000E+00        -0.14998E+08
 
   -0.15153E+08         0.15718E+07         0.00000E+00
    0.15718E+07        -0.52388E+08         0.00000E+00
    0.00000E+00         0.00000E+00        -0.15138E+08
 
   -0.15297E+08         0.15583E+07         0.00000E+00
    0.15583E+07        -0.52698E+08         0.00000E+00
    0.00000E+00         0.00000E+00        -0.15278E+08
 
   -0.15443E+08         0.15437E+07         0.00000E+00
    0.15437E+07        -0.53010E+08         0.00000E+00
    0.00000E+00         0.00000E+00        -0.15420E+08
 
   -0.15590E+08         0.15280E+07         0.00000E+00
    0.15280E+07        -0.53325E+08         0.00000E+00
    0.00000E+00         0.00000E+00        -0.15562E+08
 
   -0.15739E+08         0.15108E+07         0.00000E+00
    0.15108E+07        -0.53643E+08         0.00000E+00
    0.00000E+00         0.00000E+00        -0.15706E+08
 
   -0.15890E+08         0.14921E+07         0.00000E+00
    0.14921E+07        -0.53965E+08         0.00000E+00
    0.00000E+00         0.00000E+00        -0.15851E+08
 
   -0.16043E+08         0.14717E+07         0.00000E+00
    0.14717E+07        -0.54291E+08         0.00000E+00
    0.00000E+00         0.00000E+00        -0.15997E+08
 
   -0.16199E+08         0.14491E+07         0.00000E+00
    0.14491E+07        -0.54620E+08         0.00000E+00
    0.00000E+00         0.00000E+00        -0.16144E+08
 
   -0.16356E+08         0.14243E+07         0.00000E+00
    0.14243E+07        -0.54954E+08         0.00000E+00
    0.00000E+00         0.00000E+00        -0.16293E+08
 
   -0.16517E+08         0.13969E+07         0.00000E+00
    0.13969E+07        -0.55293E+08         0.00000E+00
    0.00000E+00         0.00000E+00        -0.16443E+08
 
   -0.16680E+08         0.13666E+07         0.00000E+00
    0.13666E+07        -0.55637E+08         0.00000E+00
    0.00000E+00         0.00000E+00        -0.16596E+08
 
   -0.16845E+08         0.13332E+07         0.00000E+00
    0.13332E+07        -0.55986E+08         0.00000E+00
    0.00000E+00         0.00000E+00        -0.16750E+08
 
   -0.17014E+08         0.12964E+07         0.00000E+00
    0.12964E+07        -0.56341E+08         0.00000E+00
    0.00000E+00         0.00000E+00        -0.16906E+08
 
   -0.17185E+08         0.12560E+07         0.00000E+00
    0.12560E+07        -0.56701E+08         0.00000E+00
    0.00000E+00         0.00000E+00        -0.17064E+08
 
   -0.17359E+08         0.12118E+07         0.00000E+00
    0.12118E+07        -0.57067E+08         0.00000E+00
    0.00000E+00         0.00000E+00        -0.17224E+08
 
   -0.17536E+08         0.11639E+07         0.00000E+00
    0.11639E+07        -0.57439E+08         0.00000E+00
    0.00000E+00         0.00000E+00        -0.17387E+08
 
   -0.17714E+08         0.11121E+07         0.00000E+00
    0.11121E+07        -0.57815E+08         0.00000E+00
    0.00000E+00         0.00000E+00        -0.17552E+08
 
   -0.17895E+08         0.10566E+07         0.00000E+00
    0.10566E+07        -0.58195E+08         0.00000E+00
    0.00000E+00         0.00000E+00        -0.17719E+08
 
   -0.18076E+08         0.99754E+06         0.00000E+00
    0.99754E+06        -0.58577E+08         0.00000E+00
    0.00000E+00         0.00000E+00        -0.17888E+08
 
   -0.18257E+08         0.93522E+06         0.00000E+00
    0.93522E+06        -0.58960E+08         0.00000E+00
    0.00000E+00         0.00000E+00        -0.18057E+08
 
   -0.18437E+08         0.86980E+06         0.00000E+00
    0.86980E+06        -0.59340E+08         0.00000E+00
    0.00000E+00         0.00000E+00        -0.18224E+08
 
   -0.18615E+08         0.80124E+06         0.00000E+00
    0.80124E+06        -0.59714E+08         0.00000E+00
    0.00000E+00         0.00000E+00        -0.18389E+08
 
   -0.18792E+08         0.72892E+06         0.00000E+00
    0.72892E+06        -0.60079E+08         0.00000E+00
    0.00000E+00         0.00000E+00        -0.18546E+08
 
   -0.18966E+08         0.65126E+06         0.00000E+00
    0.65126E+06        -0.60429E+08         0.00000E+00
    0.00000E+00         0.00000E+00        -0.18692E+08
 
   -0.19139E+08         0.56519E+06         0.00000E+00
    0.56519E+06        -0.60758E+08         0.00000E+00
    0.00000E+00         0.00000E+00        -0.18820E+08
 
   -0.19314E+08         0.46541E+06         0.00000E+00
    0.46541E+06        -0.61060E+08         0.00000E+00
    0.00000E+00         0.00000E+00        -0.18921E+08
 
   -0.19500E+08         0.34598E+06         0.00000E+00
    0.34598E+06        -0.61328E+08         0.00000E+00
    0.00000E+00         0.00000E+00        -0.18982E+08
 
   -0.19714E+08         0.20964E+06         0.00000E+00
    0.20964E+06        -0.61560E+08         0.00000E+00
    0.00000E+00         0.00000E+00        -0.18983E+08
 
   -0.19985E+08         0.69274E+05         0.00000E+00
    0.69274E+05        -0.61775E+08         0.00000E+00
    0.00000E+00         0.00000E+00        -0.18918E+08
 
   -0.70076E+07         0.11159E+06         0.00000E+00
    0.11159E+06        -0.27862E+08         0.00000E+00
    0.00000E+00         0.00000E+00        -0.86701E+07
 
   -0.73208E+07         0.33398E+06         0.00000E+00
    0.33398E+06        -0.27950E+08         0.00000E+00
    0.00000E+00         0.00000E+00        -0.86701E+07
 
   -0.75478E+07         0.55091E+06         0.00000E+00
    0.55091E+06        -0.28127E+08         0.00000E+00
    0.00000E+00         0.00000E+00        -0.86701E+07
 
   -0.77118E+07         0.75595E+06         0.00000E+00
    0.75595E+06        -0.28387E+08         0.00000E+00
    0.00000E+00         0.00000E+00        -0.86701E+07
 
   -0.78354E+07         0.94653E+06         0.00000E+00
    0.94653E+06        -0.28714E+08         0.00000E+00
    0.00000E+00         0.00000E+00        -0.86701E+07
 
   -0.79343E+07         0.11230E+07         0.00000E+00
    0.11230E+07        -0.29090E+08         0.00000E+00
    0.00000E+00         0.00000E+00        -0.86701E+07
 
   -0.80182E+07         0.12858E+07         0.00000E+00
    0.12858E+07        -0.29501E+08         0.00000E+00
    0.00000E+00         0.00000E+00        -0.86701E+07
 
   -0.80931E+07         0.14349E+07         0.00000E+00
    0.14349E+07        -0.29938E+08         0.00000E+00
    0.00000E+00         0.00000E+00        -0.86701E+07
 
   -0.81626E+07         0.15700E+07         0.00000E+00
    0.15700E+07        -0.30393E+08         0.00000E+00
    0.00000E+00         0.00000E+00        -0.86701E+07
 
   -0.82291E+07         0.16906E+07         0.00000E+00
    0.16906E+07        -0.30859E+08         0.00000E+00
    0.00000E+00         0.00000E+00        -0.86701E+07
 
   -0.82942E+07         0.17964E+07         0.00000E+00
    0.17964E+07        -0.31333E+08         0.00000E+00
    0.00000E+00         0.00000E+00        -0.86701E+07
 
   -0.83593E+07         0.18867E+07         0.00000E+00
    0.18867E+07        -0.31812E+08         0.00000E+00
    0.00000E+00         0.00000E+00        -0.86701E+07
 
   -0.84258E+07         0.19612E+07         0.00000E+00
    0.19612E+07        -0.32297E+08         0.00000E+00
    0.00000E+00         0.00000E+00        -0.86701E+07
 
   -0.84952E+07         0.20191E+07         0.00000E+00
    0.20191E+07        -0.32786E+08         0.00000E+00
    0.00000E+00         0.00000E+00        -0.86701E+07
 
   -0.85693E+07         0.20583E+07         0.00000E+00
    0.20583E+07        -0.33281E+08         0.00000E+00
    0.00000E+00         0.00000E+00        -0.86701E+07
 
   -0.86521E+07         0.20774E+07         0.00000E+00
    0.20774E+07        -0.33781E+08         0.00000E+00
    0.00000E+00         0.00000E+00        -0.86701E+07
 
   -0.87413E+07         0.20766E+07         0.00000E+00
    0.20766E+07        -0.34247E+08         0.00000E+00
    0.00000E+00         0.00000E+00        -0.87238E+07
 
   -0.88451E+07         0.20859E+07         0.00000E+00
    0.20859E+07        -0.34652E+08         0.00000E+00
    0.00000E+00         0.00000E+00        -0.88622E+07
 
   -0.89611E+07         0.20818E+07         0.00000E+00
    0.20818E+07        -0.35049E+08         0.00000E+00
    0.00000E+00         0.00000E+00        -0.90059E+07
 
   -0.90835E+07         0.20768E+07         0.00000E+00
    0.20768E+07        -0.35441E+08         0.00000E+00
    0.00000E+00         0.00000E+00        -0.91422E+07
 
   -0.92069E+07         0.20734E+07         0.00000E+00
    0.20734E+07        -0.35829E+08         0.00000E+00
    0.00000E+00         0.00000E+00        -0.92714E+07
 
   -0.93289E+07         0.20716E+07         0.00000E+00
    0.20716E+07        -0.36215E+08         0.00000E+00
    0.00000E+00         0.00000E+00        -0.93940E+07
 
   -0.94481E+07         0.20710E+07         0.00000E+00
    0.20710E+07        -0.36599E+08         0.00000E+00
    0.00000E+00         0.00000E+00        -0.95106E+07
 
   -0.95637E+07         0.20709E+07         0.00000E+00
    0.20709E+07        -0.36980E+08         0.00000E+00
    0.00000E+00         0.00000E+00        -0.96216E+07
 
   -0.96756E+07         0.20709E+07         0.00000E+00
    0.20709E+07        -0.37359E+08         0.00000E+00
    0.00000E+00         0.00000E+00        -0.97273E+07
 
   -0.97838E+07         0.20706E+07         0.00000E+00
    0.20706E+07        -0.37736E+08         0.00000E+00
    0.00000E+00         0.00000E+00        -0.98283E+07
 
   -0.98883E+07         0.20695E+07         0.00000E+00
    0.20695E+07        -0.38110E+08         0.00000E+00
    0.00000E+00         0.00000E+00        -0.99247E+07
 
   -0.99894E+07         0.20675E+07         0.00000E+00
    0.20675E+07        -0.38481E+08         0.00000E+00
    0.00000E+00         0.00000E+00        -0.10017E+08
 
   -0.10087E+08         0.20640E+07         0.00000E+00
    0.20640E+07        -0.38851E+08         0.00000E+00
    0.00000E+00         0.00000E+00        -0.10106E+08
 
   -0.10182E+08         0.20588E+07         0.00000E+00
    0.20588E+07        -0.39218E+08         0.00000E+00
    0.00000E+00         0.00000E+00        -0.10191E+08
 
   -0.10275E+08         0.20517E+07         0.00000E+00
    0.20517E+07        -0.39585E+08         0.00000E+00
    0.00000E+00         0.00000E+00        -0.10272E+08
 
   -0.10365E+08         0.20423E+07         0.00000E+00
    0.20423E+07        -0.39949E+08         0.00000E+00
    0.00000E+00         0.00000E+00        -0.10351E+08
 
   -0.10454E+08         0.20304E+07         0.00000E+00
    0.20304E+07        -0.40314E+08         0.00000E+00
    0.00000E+00         0.00000E+00        -0.10427E+08
 
   -0.10541E+08         0.20158E+07         0.00000E+00
    0.20158E+07        -0.40678E+08         0.00000E+00
    0.00000E+00         0.00000E+00        -0.10500E+08
 
   -0.10627E+08         0.19985E+07         0.00000E+00
    0.19985E+07        -0.41042E+08         0.00000E+00
    0.00000E+00         0.00000E+00        -0.10571E+08
 
   -0.10715E+08         0.19790E+07         0.00000E+00
    0.19790E+07        -0.41406E+08         0.00000E+00
    0.00000E+00         0.00000E+00        -0.10640E+08
 
   -0.10804E+08         0.19584E+07         0.00000E+00
    0.19584E+07        -0.41770E+08         0.00000E+00
    0.00000E+00         0.00000E+00        -0.10709E+08
 
   -0.10896E+08         0.19331E+07         0.00000E+00
    0.19331E+07        -0.42107E+08         0.00000E+00
    0.00000E+00         0.00000E+00        -0.10806E+08
 
   -0.10992E+08         0.19081E+07         0.00000E+00
    0.19081E+07        -0.42429E+08         0.00000E+00
    0.00000E+00         0.00000E+00        -0.10922E+08
 
   -0.11090E+08         0.18844E+07         0.00000E+00
    0.18844E+07        -0.42753E+08         0.00000E+00
    0.00000E+00         0.00000E+00        -0.11035E+08
 
   -0.11191E+08         0.18630E+07         0.00000E+00
    0.18630E+07        -0.43077E+08         0.00000E+00
    0.00000E+00         0.00000E+00        -0.11148E+08
 
   -0.11293E+08         0.18439E+07         0.00000E+00
    0.18439E+07        -0.43401E+08         0.00000E+00
    0.00000E+00         0.00000E+00        -0.11259E+08
 
   -0.11395E+08         0.18271E+07         0.00000E+00
    0.18271E+07        -0.43725E+08         0.00000E+00
    0.00000E+00         0.00000E+00        -0.11369E+08
 
   -0.11498E+08         0.18123E+07         0.00000E+00
    0.18123E+07        -0.44049E+08         0.00000E+00
    0.00000E+00         0.00000E+00        -0.11477E+08
 
   -0.11600E+08         0.17991E+07         0.00000E+00
    0.17991E+07        -0.44372E+08         0.00000E+00
    0.00000E+00         0.00000E+00        -0.11585E+08
 
   -0.11703E+08         0.17874E+07         0.00000E+00
    0.17874E+07        -0.44695E+08         0.00000E+00
    0.00000E+00         0.00000E+00        -0.11691E+08
 
   -0.11805E+08         0.17768E+07         0.00000E+00
    0.17768E+07        -0.45017E+08         0.00000E+00
    0.00000E+00         0.00000E+00        -0.11797E+08
 
   -0.11910E+08         0.17669E+07         0.00000E+00
    0.17669E+07        -0.45336E+08         0.00000E+00
    0.00000E+00         0.00000E+00        -0.11905E+08
 
   -0.12033E+08         0.17559E+07         0.00000E+00
    0.17559E+07        -0.45638E+08         0.00000E+00
    0.00000E+00         0.00000E+00        -0.12030E+08
 
   -0.12166E+08         0.17447E+07         0.00000E+00
    0.17447E+07        -0.45929E+08         0.00000E+00
    0.00000E+00         0.00000E+00        -0.12165E+08
 
   -0.12299E+08         0.17340E+07         0.00000E+00
    0.17340E+07        -0.46220E+08         0.00000E+00
    0.00000E+00         0.00000E+00        -0.12299E+08
 
   -0.12432E+08         0.17239E+07         0.00000E+00
    0.17239E+07        -0.46510E+08         0.00000E+00
    0.00000E+00         0.00000E+00        -0.12433E+08
 
   -0.12565E+08         0.17141E+07         0.00000E+00
    0.17141E+07        -0.46799E+08         0.00000E+00
    0.00000E+00         0.00000E+00        -0.12567E+08
 
   -0.12698E+08         0.17047E+07         0.00000E+00
    0.17047E+07        -0.47089E+08         0.00000E+00
    0.00000E+00         0.00000E+00        -0.12701E+08
 
   -0.12831E+08         0.16955E+07         0.00000E+00
    0.16955E+07        -0.47378E+08         0.00000E+00
    0.00000E+00         0.00000E+00        -0.12834E+08
 
   -0.12964E+08         0.16865E+07         0.00000E+00
    0.16865E+07        -0.47666E+08         0.00000E+00
    0.00000E+00         0.00000E+00        -0.12967E+08
 
   -0.13097E+08         0.16777E+07         0.00000E+00
    0.16777E+07        -0.47955E+08         0.00000E+00
    0.00000E+00         0.00000E+00        -0.13100E+08
 
   -0.13230E+08         0.16690E+07         0.00000E+00
    0.16690E+07        -0.48244E+08         0.00000E+00
    0.00000E+00         0.00000E+00        -0.13234E+08
 
   -0.13363E+08         0.16604E+07         0.00000E+00
    0.16604E+07        -0.48534E+08         0.00000E+00
    0.00000E+00         0.00000E+00        -0.13367E+08
 
   -0.13497E+08         0.16518E+07         0.00000E+00
    0.16518E+07        -0.48823E+08         0.00000E+00
    0.00000E+00         0.00000E+00        -0.13500E+08
 
   -0.13631E+08         0.16432E+07         0.00000E+00
    0.16432E+07        -0.49114E+08         0.00000E+00
    0.00000E+00         0.00000E+00        -0.13634E+08
 
   -0.13766E+08         0.16346E+07         0.00000E+00
    0.16346E+07        -0.49405E+08         0.00000E+00
    0.00000E+00         0.00000E+00        -0.13768E+08
 
   -0.13901E+08         0.16258E+07         0.00000E+00
    0.16258E+07        -0.49697E+08         0.00000E+00
    0.00000E+00         0.00000E+00        -0.13902E+08
 
   -0.14036E+08         0.16169E+07         0.00000E+00
    0.16169E+07        -0.49990E+08         0.00000E+00
    0.00000E+00         0.00000E+00        -0.14037E+08
 
   -0.14172E+08         0.16078E+07         0.00000E+00
    0.16078E+07        -0.50284E+08         0.00000E+00
    0.00000E+00         0.00000E+00        -0.14172E+08
 
   -0.14309E+08         0.15985E+07         0.00000E+00
    0.15985E+07        -0.50579E+08         0.00000E+00
    0.00000E+00         0.00000E+00        -0.14307E+08
 
   -0.14447E+08         0.15888E+07         0.00000E+00
    0.15888E+07        -0.50876E+08         0.00000E+00
    0.00000E+00         0.00000E+00        -0.14444E+08
 
   -0.14585E+08         0.15788E+07         0.00000E+00
    0.15788E+07        -0.51175E+08         0.00000E+00
    0.00000E+00         0.00000E+00        -0.14580E+08
 
   -0.14725E+08         0.15683E+07         0.00000E+00
    0.15683E+07        -0.51475E+08         0.00000E+00
    0.00000E+00         0.00000E+00        -0.14718E+08
 
   -0.14866E+08         0.15573E+07         0.00000E+00
    0.15573E+07        -0.51777E+08         0.00000E+00
    0.00000E+00         0.00000E+00        -0.14856E+08
 
   -0.15007E+08         0.15457E+07         0.00000E+00
    0.15457E+07        -0.52082E+08         0.00000E+00
    0.00000E+00         0.00000E+00        -0.14994E+08
 
   -0.15150E+08         0.15334E+07         0.00000E+00
    0.15334E+07        -0.52388E+08         0.00000E+00
    0.00000E+00         0.00000E+00        -0.15134E+08
 
   -0.15295E+08         0.15201E+07         0.00000E+00
    0.15201E+07        -0.52698E+08         0.00000E+00
    0.00000E+00         0.00000E+00        -0.15274E+08
 
   -0.15441E+08         0.15059E+07         0.00000E+00
    0.15059E+07        -0.53009E+08         0.00000E+00
    0.00000E+00         0.00000E+00        -0.15416E+08
 
   -0.15588E+08         0.14906E+07         0.00000E+00
    0.14906E+07        -0.53324E+08         0.00000E+00
    0.00000E+00         0.00000E+00        -0.15558E+08
 
   -0.15738E+08         0.14739E+07         0.00000E+00
    0.14739E+07        -0.53642E+08         0.00000E+00
    0.00000E+00         0.00000E+00        -0.15701E+08
 
   -0.15889E+08         0.14556E+07         0.00000E+00
    0.14556E+07        -0.53964E+08         0.00000E+00
    0.00000E+00         0.00000E+00        -0.15845E+08
 
   -0.16042E+08         0.14356E+07         0.00000E+00
    0.14356E+07        -0.54289E+08         0.00000E+00
    0.00000E+00         0.00000E+00        -0.15991E+08
 
   -0.16198E+08         0.14136E+07         0.00000E+00
    0.14136E+07        -0.54618E+08         0.00000E+00
    0.00000E+00         0.00000E+00        -0.16138E+08
 
   -0.16356E+08         0.13893E+07         0.00000E+00
    0.13893E+07        -0.54951E+08         0.00000E+00
    0.00000E+00         0.00000E+00        -0.16286E+08
 
   -0.16516E+08         0.13624E+07         0.00000E+00
    0.13624E+07        -0.55289E+08         0.00000E+00
    0.00000E+00         0.00000E+00        -0.16436E+08
 
   -0.16680E+08         0.13327E+07         0.00000E+00
    0.13327E+07        -0.55633E+08         0.00000E+00
    0.00000E+00         0.00000E+00        -0.16587E+08
 
   -0.16846E+08         0.12999E+07         0.00000E+00
    0.12999E+07        -0.55981E+08         0.00000E+00
    0.00000E+00         0.00000E+00        -0.16740E+08
 
   -0.17015E+08         0.12638E+07         0.00000E+00
    0.12638E+07        -0.56335E+08         0.00000E+00
    0.00000E+00         0.00000E+00        -0.16895E+08
 
   -0.17187E+08         0.12240E+07         0.00000E+00
    0.12240E+07        -0.56694E+08         0.00000E+00
    0.00000E+00         0.00000E+00        -0.17052E+08
 
   -0.17361E+08         0.11804E+07         0.00000E+00
    0.11804E+07        -0.57059E+08         0.00000E+00
    0.00000E+00         0.00000E+00        -0.17211E+08
 
   -0.17538E+08         0.11330E+07         0.00000E+00
    0.11330E+07        -0.57429E+08         0.00000E+00
    0.00000E+00         0.00000E+00        -0.17373E+08
 
   -0.17718E+08         0.10816E+07         0.00000E+00
    0.10816E+07        -0.57804E+08         0.00000E+00
    0.00000E+00         0.00000E+00        -0.17536E+08
 
   -0.17899E+08         0.10263E+07         0.00000E+00
    0.10263E+07        -0.58183E+08         0.00000E+00
    0.00000E+00         0.00000E+00        -0.17702E+08
 
   -0.18080E+08         0.96736E+06         0.00000E+00
    0.96736E+06        -0.58565E+08         0.00000E+00
    0.00000E+00         0.00000E+00        -0.17869E+08
 
   -0.18262E+08         0.90492E+06         0.00000E+00
    0.90492E+06        -0.58946E+08         0.00000E+00
    0.00000E+00         0.00000E+00        -0.18036E+08
 
   -0.18443E+08         0.83917E+06         0.00000E+00
    0.83917E+06        -0.59326E+08         0.00000E+00
    0.00000E+00         0.00000E+00        -0.18202E+08
 
   -0.18623E+08         0.77010E+06         0.00000E+00
    0.77010E+06        -0.59699E+08         0.00000E+00
    0.00000E+00         0.00000E+00        -0.18365E+08
 
   -0.18800E+08         0.69718E+06         0.00000E+00
    0.69718E+06        -0.60063E+08         0.00000E+00
    0.00000E+00         0.00000E+00        -0.18520E+08
 
   -0.18976E+08         0.61900E+06         0.00000E+00
    0.61900E+06        -0.60411E+08         0.00000E+00
    0.00000E+00         0.00000E+00        -0.18663E+08
 
   -0.19152E+08         0.53274E+06         0.00000E+00
    0.53274E+06        -0.60738E+08         0.00000E+00
    0.00000E+00         0.00000E+00        -0.18787E+08
 
   -0.19331E+08         0.43376E+06         0.00000E+00
    0.43376E+06        -0.61037E+08         0.00000E+00
    0.00000E+00         0.00000E+00        -0.18883E+08
 
   -0.19523E+08         0.31821E+06         0.00000E+00
    0.31821E+06        -0.61302E+08         0.00000E+00
    0.00000E+00         0.00000E+00        -0.18935E+08
 
   -0.19746E+08         0.19078E+06         0.00000E+00
    0.19078E+06        -0.61533E+08         0.00000E+00
    0.00000E+00         0.00000E+00        -0.18928E+08
 
   -0.20023E+08         0.62749E+05         0.00000E+00
    0.62749E+05        -0.61749E+08         0.00000E+00
    0.00000E+00         0.00000E+00        -0.18858E+08
 
   -0.68762E+07         0.10166E+06         0.00000E+00
    0.10166E+06        -0.27905E+08         0.00000E+00
    0.00000E+00         0.00000E+00        -0.86701E+07
 
   -0.71964E+07         0.30548E+06         0.00000E+00
    0.30548E+06        -0.27992E+08         0.00000E+00
    0.00000E+00         0.00000E+00        -0.86701E+07
 
   -0.74343E+07         0.50753E+06         0.00000E+00
    0.50753E+06        -0.28169E+08         0.00000E+00
    0.00000E+00         0.00000E+00        -0.86701E+07
 
   -0.76103E+07         0.70245E+06         0.00000E+00
    0.70245E+06        -0.28426E+08         0.00000E+00
    0.00000E+00         0.00000E+00        -0.86701E+07
 
   -0.77450E+07         0.88680E+06         0.00000E+00
    0.88680E+06        -0.28750E+08         0.00000E+00
    0.00000E+00         0.00000E+00        -0.86701E+07
 
   -0.78537E+07         0.10596E+07         0.00000E+00
    0.10596E+07        -0.29123E+08         0.00000E+00
    0.00000E+00         0.00000E+00        -0.86701E+07
 
   -0.79466E+07         0.12202E+07         0.00000E+00
    0.12202E+07        -0.29532E+08         0.00000E+00
    0.00000E+00         0.00000E+00        -0.86701E+07
 
   -0.80297E+07         0.13682E+07         0.00000E+00
    0.13682E+07        -0.29967E+08         0.00000E+00
    0.00000E+00         0.00000E+00        -0.86701E+07
 
   -0.81069E+07         0.15027E+07         0.00000E+00
    0.15027E+07        -0.30418E+08         0.00000E+00
    0.00000E+00         0.00000E+00        -0.86701E+07
 
   -0.81806E+07         0.16232E+07         0.00000E+00
    0.16232E+07        -0.30881E+08         0.00000E+00
    0.00000E+00         0.00000E+00        -0.86701E+07
 
   -0.82526E+07         0.17291E+07         0.00000E+00
    0.17291E+07        -0.31352E+08         0.00000E+00
    0.00000E+00         0.00000E+00        -0.86701E+07
 
   -0.83242E+07         0.18199E+07         0.00000E+00
    0.18199E+07        -0.31829E+08         0.00000E+00
    0.00000E+00         0.00000E+00        -0.86701E+07
 
   -0.83968E+07         0.18952E+07         0.00000E+00
    0.18952E+07        -0.32310E+08         0.00000E+00
    0.00000E+00         0.00000E+00        -0.86701E+07
 
   -0.84718E+07         0.19541E+07         0.00000E+00
    0.19541E+07        -0.32796E+08         0.00000E+00
    0.00000E+00         0.00000E+00        -0.86701E+07
 
   -0.85510E+07         0.19950E+07         0.00000E+00
    0.19950E+07        -0.33287E+08         0.00000E+00
    0.00000E+00         0.00000E+00        -0.86701E+07
 
   -0.86372E+07         0.20163E+07         0.00000E+00
    0.20163E+07        -0.33783E+08         0.00000E+00
    0.00000E+00         0.00000E+00        -0.86701E+07
 
   -0.87286E+07         0.20171E+07         0.00000E+00
    0.20171E+07        -0.34248E+08         0.00000E+00
    0.00000E+00         0.00000E+00        -0.87185E+07
 
   -0.88319E+07         0.20295E+07         0.00000E+00
    0.20295E+07        -0.34653E+08         0.00000E+00
    0.00000E+00         0.00000E+00        -0.88502E+07
 
   -0.89455E+07         0.20282E+07         0.00000E+00
    0.20282E+07        -0.35048E+08         0.00000E+00
    0.00000E+00         0.00000E+00        -0.89926E+07
 
   -0.90660E+07         0.20243E+07         0.00000E+00
    0.20243E+07        -0.35440E+08         0.00000E+00
    0.00000E+00         0.00000E+00        -0.91277E+07
 
   -0.91882E+07         0.20214E+07         0.00000E+00
    0.20214E+07        -0.35829E+08         0.00000E+00
    0.00000E+00         0.00000E+00        -0.92561E+07
 
   -0.93096E+07         0.20197E+07         0.00000E+00
    0.20197E+07        -0.36215E+08         0.00000E+00
    0.00000E+00         0.00000E+00        -0.93782E+07
 
   -0.94284E+07         0.20189E+07         0.00000E+00
    0.20189E+07        -0.36599E+08         0.00000E+00
    0.00000E+00         0.00000E+00        -0.94944E+07
 
   -0.95441E+07         0.20187E+07         0.00000E+00
    0.20187E+07        -0.36980E+08         0.00000E+00
    0.00000E+00         0.00000E+00        -0.96052E+07
 
   -0.96563E+07         0.20185E+07         0.00000E+00
    0.20185E+07        -0.37359E+08         0.00000E+00
    0.00000E+00         0.00000E+00        -0.97108E+07
 
   -0.97651E+07         0.20180E+07         0.00000E+00
    0.20180E+07        -0.37736E+08         0.00000E+00
    0.00000E+00         0.00000E+00        -0.98118E+07
 
   -0.98703E+07         0.20168E+07         0.00000E+00
    0.20168E+07        -0.38109E+08         0.00000E+00
    0.00000E+00         0.00000E+00        -0.99085E+07
 
   -0.99724E+07         0.20146E+07         0.00000E+00
    0.20146E+07        -0.38481E+08         0.00000E+00
    0.00000E+00         0.00000E+00        -0.10001E+08
 
   -0.10071E+08         0.20111E+07         0.00000E+00
    0.20111E+07        -0.38850E+08         0.00000E+00
    0.00000E+00         0.00000E+00        -0.10090E+08
 
   -0.10168E+08         0.20059E+07         0.00000E+00
    0.20059E+07        -0.39217E+08         0.00000E+00
    0.00000E+00         0.00000E+00        -0.10175E+08
 
   -0.10261E+08         0.19988E+07         0.00000E+00
    0.19988E+07        -0.39583E+08         0.00000E+00
    0.00000E+00         0.00000E+00        -0.10258E+08
 
   -0.10353E+08         0.19895E+07         0.00000E+00
    0.19895E+07        -0.39947E+08         0.00000E+00
    0.00000E+00         0.00000E+00        -0.10337E+08
 
   -0.10443E+08         0.19777E+07         0.00000E+00
    0.19777E+07        -0.40311E+08         0.00000E+00
    0.00000E+00         0.00000E+00        -0.10413E+08
 
   -0.10532E+08         0.19634E+07         0.00000E+00
    0.19634E+07        -0.40674E+08         0.00000E+00
    0.00000E+00         0.00000E+00        -0.10487E+08
 
   -0.10620E+08         0.19466E+07         0.00000E+00
    0.19466E+07        -0.41038E+08         0.00000E+00
    0.00000E+00         0.00000E+00        -0.10558E+08
 
   -0.10709E+08         0.19279E+07         0.00000E+00
    0.19279E+07        -0.41402E+08         0.00000E+00
    0.00000E+00         0.00000E+00        -0.10628E+08
 
   -0.10800E+08         0.19082E+07         0.00000E+00
    0.19082E+07        -0.41765E+08         0.00000E+00
    0.00000E+00         0.00000E+00        -0.10698E+08
 
   -0.10892E+08         0.18838E+07         0.00000E+00
    0.18838E+07        -0.42102E+08         0.00000E+00
    0.00000E+00         0.00000E+00        -0.10796E+08
 
   -0.10988E+08         0.18598E+07         0.00000E+00
    0.18598E+07        -0.42425E+08         0.00000E+00
    0.00000E+00         0.00000E+00        -0.10912E+08
 
   -0.11086E+08         0.18371E+07         0.00000E+00
    0.18371E+07        -0.42748E+08         0.00000E+00
    0.00000E+00         0.00000E+00        -0.11026E+08
 
   -0.11186E+08         0.18163E+07         0.00000E+00
    0.18163E+07        -0.43073E+08         0.00000E+00
    0.00000E+00         0.00000E+00        -0.11139E+08
 
   -0.11288E+08         0.17978E+07         0.00000E+00
    0.17978E+07        -0.43397E+08         0.00000E+00
    0.00000E+00         0.00000E+00        -0.11251E+08
 
   -0.11390E+08         0.17814E+07         0.00000E+00
    0.17814E+07        -0.43722E+08         0.00000E+00
    0.00000E+00         0.00000E+00        -0.11361E+08
 
   -0.11492E+08         0.17669E+07         0.00000E+00
    0.17669E+07        -0.44046E+08         0.00000E+00
    0.00000E+00         0.00000E+00        -0.11470E+08
 
   -0.11595E+08         0.17541E+07         0.00000E+00
    0.17541E+07        -0.44370E+08         0.00000E+00
    0.00000E+00         0.00000E+00        -0.11578E+08
 
   -0.11697E+08         0.17426E+07         0.00000E+00
    0.17426E+07        -0.44693E+08         0.00000E+00
    0.00000E+00         0.00000E+00        -0.11684E+08
 
   -0.11800E+08         0.17323E+07         0.00000E+00
    0.17323E+07        -0.45015E+08         0.00000E+00
    0.00000E+00         0.00000E+00        -0.11790E+08
 
   -0.11905E+08         0.17226E+07         0.00000E+00
    0.17226E+07        -0.45335E+08         0.00000E+00
    0.00000E+00         0.00000E+00        -0.11899E+08
 
   -0.12028E+08         0.17119E+07         0.00000E+00
    0.17119E+07        -0.45636E+08         0.00000E+00
    0.00000E+00         0.00000E+00        -0.12025E+08
 
   -0.12161E+08         0.17010E+07         0.00000E+00
    0.17010E+07        -0.45927E+08         0.00000E+00
    0.00000E+00         0.00000E+00        -0.12160E+08
 
   -0.12295E+08         0.16906E+07         0.00000E+00
    0.16906E+07        -0.46218E+08         0.00000E+00
    0.00000E+00         0.00000E+00        -0.12294E+08
 
   -0.12428E+08         0.16807E+07         0.00000E+00
    0.16807E+07        -0.46509E+08         0.00000E+00
    0.00000E+00         0.00000E+00        -0.12429E+08
 
   -0.12560E+08         0.16711E+07         0.00000E+00
    0.16711E+07        -0.46798E+08         0.00000E+00
    0.00000E+00         0.00000E+00        -0.12563E+08
 
   -0.12693E+08         0.16619E+07         0.00000E+00
    0.16619E+07        -0.47088E+08         0.00000E+00
    0.00000E+00         0.00000E+00        -0.12696E+08
 
   -0.12826E+08         0.16530E+07         0.00000E+00
    0.16530E+07        -0.47377E+08         0.00000E+00
    0.00000E+00         0.00000E+00        -0.12830E+08
 
   -0.12959E+08         0.16443E+07         0.00000E+00
    0.16443E+07        -0.47666E+08         0.00000E+00
    0.00000E+00         0.00000E+00        -0.12963E+08
 
   -0.13092E+08         0.16357E+07         0.00000E+00
    0.16357E+07        -0.47955E+08         0.00000E+00
    0.00000E+00         0.00000E+00        -0.13097E+08
 
   -0.13226E+08         0.16272E+07         0.00000E+00
    0.16272E+07        -0.48244E+08         0.00000E+00
    0.00000E+00         0.00000E+00        -0.13230E+08
 
   -0.13359E+08         0.16188E+07         0.00000E+00
    0.16188E+07        -0.48534E+08         0.00000E+00
    0.00000E+00         0.00000E+00        -0.13363E+08
 
   -0.13493E+08         0.16104E+07         0.00000E+00
    0.16104E+07        -0.48824E+08         0.00000E+00
    0.00000E+00         0.00000E+00        -0.13497E+08
 
   -0.13627E+08         0.16020E+07         0.00000E+00
    0.16020E+07        -0.49114E+08         0.00000E+00
    0.00000E+00         0.00000E+00        -0.13631E+08
 
   -0.13762E+08         0.15936E+07         0.00000E+00
    0.15936E+07        -0.49405E+08         0.00000E+00
    0.00000E+00         0.00000E+00        -0.13765E+08
 
   -0.13897E+08         0.15851E+07         0.00000E+00
    0.15851E+07        -0.49697E+08         0.00000E+00
    0.00000E+00         0.00000E+00        -0.13899E+08
 
   -0.14033E+08         0.15764E+07         0.00000E+00
    0.15764E+07        -0.49990E+08         0.00000E+00
    0.00000E+00         0.00000E+00        -0.14034E+08
 
   -0.14169E+08         0.15675E+07         0.00000E+00
    0.15675E+07        -0.50284E+08         0.00000E+00
    0.00000E+00         0.00000E+00        -0.14169E+08
 
   -0.14306E+08         0.15584E+07         0.00000E+00
    0.15584E+07        -0.50580E+08         0.00000E+00
    0.00000E+00         0.00000E+00        -0.14304E+08
 
   -0.14444E+08         0.15490E+07         0.00000E+00
    0.15490E+07        -0.50877E+08         0.00000E+00
    0.00000E+00         0.00000E+00        -0.14440E+08
 
   -0.14583E+08         0.15392E+07         0.00000E+00
    0.15392E+07        -0.51175E+08         0.00000E+00
    0.00000E+00         0.00000E+00        -0.14577E+08
 
   -0.14722E+08         0.15290E+07         0.00000E+00
    0.15290E+07        -0.51476E+08         0.00000E+00
    0.00000E+00         0.00000E+00        -0.14714E+08
 
   -0.14863E+08         0.15183E+07         0.00000E+00
    0.15183E+07        -0.51778E+08         0.00000E+00
    0.00000E+00         0.00000E+00        -0.14852E+08
 
   -0.15005E+08         0.15070E+07         0.00000E+00
    0.15070E+07        -0.52082E+08         0.00000E+00
    0.00000E+00         0.00000E+00        -0.14991E+08
 
   -0.15148E+08         0.14949E+07         0.00000E+00
    0.14949E+07        -0.52388E+08         0.00000E+00
    0.00000E+00         0.00000E+00        -0.15130E+08
 
   -0.15293E+08         0.14820E+07         0.00000E+00
    0.14820E+07        -0.52697E+08         0.00000E+00
    0.00000E+00         0.00000E+00        -0.15270E+08
 
   -0.15439E+08         0.14682E+07         0.00000E+00
    0.14682E+07        -0.53009E+08         0.00000E+00
    0.00000E+00         0.00000E+00        -0.15411E+08
 
   -0.15586E+08         0.14532E+07         0.00000E+00
    0.14532E+07        -0.53324E+08         0.00000E+00
    0.00000E+00         0.00000E+00        -0.15553E+08
 
   -0.15736E+08         0.14369E+07         0.00000E+00
    0.14369E+07        -0.53641E+08         0.00000E+00
    0.00000E+00         0.00000E+00        -0.15696E+08
 
   -0.15887E+08         0.14191E+07         0.00000E+00
    0.14191E+07        -0.53962E+08         0.00000E+00
    0.00000E+00         0.00000E+00        -0.15840E+08
 
   -0.16041E+08         0.13995E+07         0.00000E+00
    0.13995E+07        -0.54287E+08         0.00000E+00
    0.00000E+00         0.00000E+00        -0.15985E+08
 
   -0.16197E+08         0.13780E+07         0.00000E+00
    0.13780E+07        -0.54615E+08         0.00000E+00
    0.00000E+00         0.00000E+00        -0.16131E+08
 
   -0.16355E+08         0.13543E+07         0.00000E+00
    0.13543E+07        -0.54948E+08         0.00000E+00
    0.00000E+00         0.00000E+00        -0.16279E+08
 
   -0.16516E+08         0.13280E+07         0.00000E+00
    0.13280E+07        -0.55286E+08         0.00000E+00
    0.00000E+00         0.00000E+00        -0.16428E+08
 
   -0.16680E+08         0.12989E+07         0.00000E+00
    0.12989E+07        -0.55628E+08         0.00000E+00
    0.00000E+00         0.00000E+00        -0.16578E+08
 
   -0.16846E+08         0.12668E+07         0.00000E+00
    0.12668E+07        -0.55976E+08         0.00000E+00
    0.00000E+00         0.00000E+00        -0.16730E+08
 
   -0.17016E+08         0.12312E+07         0.00000E+00
    0.12312E+07        -0.56329E+08         0.00000E+00
    0.00000E+00         0.00000E+00        -0.16884E+08
 
   -0.17188E+08         0.11921E+07         0.00000E+00
    0.11921E+07        -0.56687E+08         0.00000E+00
    0.00000E+00         0.00000E+00        -0.17040E+08
 
   -0.17363E+08         0.11491E+07         0.00000E+00
    0.11491E+07        -0.57051E+08         0.00000E+00
    0.00000E+00         0.00000E+00        -0.17198E+08
 
   -0.17541E+08         0.11021E+07         0.00000E+00
    0.11021E+07        -0.57420E+08         0.00000E+00
    0.00000E+00         0.00000E+00        -0.17358E+08
 
   -0.17721E+08         0.10511E+07         0.00000E+00
    0.10511E+07        -0.57794E+08         0.00000E+00
    0.00000E+00         0.00000E+00        -0.17521E+08
 
   -0.17903E+08         0.99616E+06         0.00000E+00
    0.99616E+06        -0.58172E+08         0.00000E+00
    0.00000E+00         0.00000E+00        -0.17685E+08
 
   -0.18085E+08         0.93730E+06         0.00000E+00
    0.93730E+06        -0.58552E+08         0.00000E+00
    0.00000E+00         0.00000E+00        -0.17850E+08
 
   -0.18268E+08         0.87475E+06         0.00000E+00
    0.87475E+06        -0.58933E+08         0.00000E+00
    0.00000E+00         0.00000E+00        -0.18016E+08
 
   -0.18450E+08         0.80870E+06         0.00000E+00
    0.80870E+06        -0.59311E+08         0.00000E+00
    0.00000E+00         0.00000E+00        -0.18180E+08
 
   -0.18631E+08         0.73915E+06         0.00000E+00
    0.73915E+06        -0.59684E+08         0.00000E+00
    0.00000E+00         0.00000E+00        -0.18341E+08
 
   -0.18810E+08         0.66570E+06         0.00000E+00
    0.66570E+06        -0.60046E+08         0.00000E+00
    0.00000E+00         0.00000E+00        -0.18494E+08
 
   -0.18987E+08         0.58712E+06         0.00000E+00
    0.58712E+06        -0.60393E+08         0.00000E+00
    0.00000E+00         0.00000E+00        -0.18634E+08
 
   -0.19166E+08         0.50092E+06         0.00000E+00
    0.50092E+06        -0.60718E+08         0.00000E+00
    0.00000E+00         0.00000E+00        -0.18754E+08
 
   -0.19349E+08         0.40326E+06         0.00000E+00
    0.40326E+06        -0.61014E+08         0.00000E+00
    0.00000E+00         0.00000E+00        -0.18843E+08
 
   -0.19547E+08         0.29222E+06         0.00000E+00
    0.29222E+06        -0.61277E+08         0.00000E+00
    0.00000E+00         0.00000E+00        -0.18888E+08
 
   -0.19777E+08         0.17360E+06         0.00000E+00
    0.17360E+06        -0.61509E+08         0.00000E+00
    0.00000E+00         0.00000E+00        -0.18875E+08
 
   -0.20060E+08         0.56889E+05         0.00000E+00
    0.56889E+05        -0.61726E+08         0.00000E+00
    0.00000E+00         0.00000E+00        -0.18802E+08
 
   -0.67491E+07         0.92394E+05         0.00000E+00
    0.92394E+05        -0.27944E+08         0.00000E+00
    0.00000E+00         0.00000E+00        -0.86701E+07
 
   -0.70750E+07         0.27872E+06         0.00000E+00
    0.27872E+06        -0.28032E+08         0.00000E+00
    0.00000E+00         0.00000E+00        -0.86701E+07
 
   -0.73225E+07         0.46641E+06         0.00000E+00
    0.46641E+06        -0.28207E+08         0.00000E+00
    0.00000E+00         0.00000E+00        -0.86701E+07
 
   -0.75094E+07         0.65120E+06         0.00000E+00
    0.65120E+06        -0.28463E+08         0.00000E+00
    0.00000E+00         0.00000E+00        -0.86701E+07
 
   -0.76545E+07         0.82912E+06         0.00000E+00
    0.82912E+06        -0.28785E+08         0.00000E+00
    0.00000E+00         0.00000E+00        -0.86701E+07
 
   -0.77729E+07         0.99798E+06         0.00000E+00
    0.99798E+06        -0.29156E+08         0.00000E+00
    0.00000E+00         0.00000E+00        -0.86701E+07
 
   -0.78747E+07         0.11564E+07         0.00000E+00
    0.11564E+07        -0.29563E+08         0.00000E+00
    0.00000E+00         0.00000E+00        -0.86701E+07
 
   -0.79660E+07         0.13030E+07         0.00000E+00
    0.13030E+07        -0.29995E+08         0.00000E+00
    0.00000E+00         0.00000E+00        -0.86701E+07
 
   -0.80509E+07         0.14368E+07         0.00000E+00
    0.14368E+07        -0.30444E+08         0.00000E+00
    0.00000E+00         0.00000E+00        -0.86701E+07
 
   -0.81319E+07         0.15571E+07         0.00000E+00
    0.15571E+07        -0.30904E+08         0.00000E+00
    0.00000E+00         0.00000E+00        -0.86701E+07
 
   -0.82106E+07         0.16631E+07         0.00000E+00
    0.16631E+07        -0.31372E+08         0.00000E+00
    0.00000E+00         0.00000E+00        -0.86701E+07
 
   -0.82887E+07         0.17543E+07         0.00000E+00
    0.17543E+07        -0.31846E+08         0.00000E+00
    0.00000E+00         0.00000E+00        -0.86701E+07
 
   -0.83673E+07         0.18303E+07         0.00000E+00
    0.18303E+07        -0.32324E+08         0.00000E+00
    0.00000E+00         0.00000E+00        -0.86701E+07
 
   -0.84477E+07         0.18902E+07         0.00000E+00
    0.18902E+07        -0.32806E+08         0.00000E+00
    0.00000E+00         0.00000E+00        -0.86701E+07
 
   -0.85317E+07         0.19325E+07         0.00000E+00
    0.19325E+07        -0.33293E+08         0.00000E+00
    0.00000E+00         0.00000E+00        -0.86701E+07
 
   -0.86214E+07         0.19557E+07         0.00000E+00
    0.19557E+07        -0.33786E+08         0.00000E+00
    0.00000E+00         0.00000E+00        -0.86701E+07
 
   -0.87151E+07         0.19580E+07         0.00000E+00
    0.19580E+07        -0.34249E+08         0.00000E+00
    0.00000E+00         0.00000E+00        -0.87135E+07
 
   -0.88185E+07         0.19729E+07         0.00000E+00
    0.19729E+07        -0.34654E+08         0.00000E+00
    0.00000E+00         0.00000E+00        -0.88386E+07
 
   -0.89304E+07         0.19741E+07         0.00000E+00
    0.19741E+07        -0.35047E+08         0.00000E+00
    0.00000E+00         0.00000E+00        -0.89796E+07
 
   -0.90492E+07         0.19715E+07         0.00000E+00
    0.19715E+07        -0.35439E+08         0.00000E+00
    0.00000E+00         0.00000E+00        -0.91137E+07
 
   -0.91703E+07         0.19693E+07         0.00000E+00
    0.19693E+07        -0.35828E+08         0.00000E+00
    0.00000E+00         0.00000E+00        -0.92412E+07
 
   -0.92910E+07         0.19677E+07         0.00000E+00
    0.19677E+07        -0.36215E+08         0.00000E+00
    0.00000E+00         0.00000E+00        -0.93627E+07
 
   -0.94096E+07         0.19669E+07         0.00000E+00
    0.19669E+07        -0.36599E+08         0.00000E+00
    0.00000E+00         0.00000E+00        -0.94785E+07
 
   -0.95253E+07         0.19665E+07         0.00000E+00
    0.19665E+07        -0.36980E+08         0.00000E+00
    0.00000E+00         0.00000E+00        -0.95890E+07
 
   -0.96378E+07         0.19662E+07         0.00000E+00
    0.19662E+07        -0.37359E+08         0.00000E+00
    0.00000E+00         0.00000E+00        -0.96946E+07
 
   -0.97470E+07         0.19655E+07         0.00000E+00
    0.19655E+07        -0.37735E+08         0.00000E+00
    0.00000E+00         0.00000E+00        -0.97956E+07
 
   -0.98530E+07         0.19642E+07         0.00000E+00
    0.19642E+07        -0.38109E+08         0.00000E+00
    0.00000E+00         0.00000E+00        -0.98924E+07
 
   -0.99559E+07         0.19619E+07         0.00000E+00
    0.19619E+07        -0.38480E+08         0.00000E+00
    0.00000E+00         0.00000E+00        -0.99853E+07
 
   -0.10056E+08         0.19583E+07         0.00000E+00
    0.19583E+07        -0.38849E+08         0.00000E+00
    0.00000E+00         0.00000E+00        -0.10074E+08
 
   -0.10153E+08         0.19531E+07         0.00000E+00
    0.19531E+07        -0.39216E+08         0.00000E+00
    0.00000E+00         0.00000E+00        -0.10160E+08
 
   -0.10248E+08         0.19461E+07         0.00000E+00
    0.19461E+07        -0.39581E+08         0.00000E+00
    0.00000E+00         0.00000E+00        -0.10243E+08
 
   -0.10341E+08         0.19369E+07         0.00000E+00
    0.19369E+07        -0.39945E+08         0.00000E+00
    0.00000E+00         0.00000E+00        -0.10323E+08
 
   -0.10433E+08         0.19254E+07         0.00000E+00
    0.19254E+07        -0.40308E+08         0.00000E+00
    0.00000E+00         0.00000E+00        -0.10400E+08
 
   -0.10523E+08         0.19114E+07         0.00000E+00
    0.19114E+07        -0.40671E+08         0.00000E+00
    0.00000E+00         0.00000E+00        -0.10474E+08
 
   -0.10613E+08         0.18951E+07         0.00000E+00
    0.18951E+07        -0.41035E+08         0.00000E+00
    0.00000E+00         0.00000E+00        -0.10546E+08
 
   -0.10703E+08         0.18770E+07         0.00000E+00
    0.18770E+07        -0.41399E+08         0.00000E+00
    0.00000E+00         0.00000E+00        -0.10616E+08
 
   -0.10795E+08         0.18581E+07         0.00000E+00
    0.18581E+07        -0.41761E+08         0.00000E+00
    0.00000E+00         0.00000E+00        -0.10687E+08
 
   -0.10888E+08         0.18346E+07         0.00000E+00
    0.18346E+07        -0.42098E+08         0.00000E+00
    0.00000E+00         0.00000E+00        -0.10787E+08
 
   -0.10984E+08         0.18115E+07         0.00000E+00
    0.18115E+07        -0.42420E+08         0.00000E+00
    0.00000E+00         0.00000E+00        -0.10903E+08
 
   -0.11082E+08         0.17897E+07         0.00000E+00
    0.17897E+07        -0.42744E+08         0.00000E+00
    0.00000E+00         0.00000E+00        -0.11017E+08
 
   -0.11182E+08         0.17696E+07         0.00000E+00
    0.17696E+07        -0.43069E+08         0.00000E+00
    0.00000E+00         0.00000E+00        -0.11131E+08
 
   -0.11283E+08         0.17516E+07         0.00000E+00
    0.17516E+07        -0.43394E+08         0.00000E+00
    0.00000E+00         0.00000E+00        -0.11242E+08
 
   -0.11385E+08         0.17357E+07         0.00000E+00
    0.17357E+07        -0.43719E+08         0.00000E+00
    0.00000E+00         0.00000E+00        -0.11353E+08
 
   -0.11487E+08         0.17216E+07         0.00000E+00
    0.17216E+07        -0.44043E+08         0.00000E+00
    0.00000E+00         0.00000E+00        -0.11462E+08
 
   -0.11589E+08         0.17091E+07         0.00000E+00
    0.17091E+07        -0.44367E+08         0.00000E+00
    0.00000E+00         0.00000E+00        -0.11571E+08
 
   -0.11692E+08         0.16979E+07         0.00000E+00
    0.16979E+07        -0.44691E+08         0.00000E+00
    0.00000E+00         0.00000E+00        -0.11678E+08
 
   -0.11794E+08         0.16878E+07         0.00000E+00
    0.16878E+07        -0.45014E+08         0.00000E+00
    0.00000E+00         0.00000E+00        -0.11784E+08
 
   -0.11900E+08         0.16784E+07         0.00000E+00
    0.16784E+07        -0.45333E+08         0.00000E+00
    0.00000E+00         0.00000E+00        -0.11893E+08
 
   -0.12024E+08         0.16680E+07         0.00000E+00
    0.16680E+07        -0.45634E+08         0.00000E+00
    0.00000E+00         0.00000E+00        -0.12019E+08
 
   -0.12157E+08         0.16573E+07         0.00000E+00
    0.16573E+07        -0.45926E+08         0.00000E+00
    0.00000E+00         0.00000E+00        -0.12155E+08
 
   -0.12290E+08         0.16472E+07         0.00000E+00
    0.16472E+07        -0.46217E+08         0.00000E+00
    0.00000E+00         0.00000E+00        -0.12290E+08
 
   -0.12423E+08         0.16375E+07         0.00000E+00
    0.16375E+07        -0.46507E+08         0.00000E+00
    0.00000E+00         0.00000E+00        -0.12424E+08
 
   -0.12556E+08         0.16282E+07         0.00000E+00
    0.16282E+07        -0.46797E+08         0.00000E+00
    0.00000E+00         0.00000E+00        -0.12558E+08
 
   -0.12689E+08         0.16193E+07         0.00000E+00
    0.16193E+07        -0.47087E+08         0.00000E+00
    0.00000E+00         0.00000E+00        -0.12692E+08
 
   -0.12822E+08         0.16106E+07         0.00000E+00
    0.16106E+07        -0.47376E+08         0.00000E+00
    0.00000E+00         0.00000E+00        -0.12826E+08
 
   -0.12955E+08         0.16020E+07         0.00000E+00
    0.16020E+07        -0.47665E+08         0.00000E+00
    0.00000E+00         0.00000E+00        -0.12959E+08
 
   -0.13088E+08         0.15937E+07         0.00000E+00
    0.15937E+07        -0.47955E+08         0.00000E+00
    0.00000E+00         0.00000E+00        -0.13093E+08
 
   -0.13222E+08         0.15854E+07         0.00000E+00
    0.15854E+07        -0.48244E+08         0.00000E+00
    0.00000E+00         0.00000E+00        -0.13226E+08
 
   -0.13355E+08         0.15772E+07         0.00000E+00
    0.15772E+07        -0.48534E+08         0.00000E+00
    0.00000E+00         0.00000E+00        -0.13360E+08
 
   -0.13489E+08         0.15691E+07         0.00000E+00
    0.15691E+07        -0.48824E+08         0.00000E+00
    0.00000E+00         0.00000E+00        -0.13494E+08
 
   -0.13624E+08         0.15609E+07         0.00000E+00
    0.15609E+07        -0.49114E+08         0.00000E+00
    0.00000E+00         0.00000E+00        -0.13627E+08
 
   -0.13758E+08         0.15527E+07         0.00000E+00
    0.15527E+07        -0.49405E+08         0.00000E+00
    0.00000E+00         0.00000E+00        -0.13761E+08
 
   -0.13894E+08         0.15444E+07         0.00000E+00
    0.15444E+07        -0.49698E+08         0.00000E+00
    0.00000E+00         0.00000E+00        -0.13896E+08
 
   -0.14029E+08         0.15359E+07         0.00000E+00
    0.15359E+07        -0.49991E+08         0.00000E+00
    0.00000E+00         0.00000E+00        -0.14031E+08
 
   -0.14166E+08         0.15273E+07         0.00000E+00
    0.15273E+07        -0.50285E+08         0.00000E+00
    0.00000E+00         0.00000E+00        -0.14166E+08
 
   -0.14303E+08         0.15184E+07         0.00000E+00
    0.15184E+07        -0.50580E+08         0.00000E+00
    0.00000E+00         0.00000E+00        -0.14301E+08
 
   -0.14441E+08         0.15092E+07         0.00000E+00
    0.15092E+07        -0.50877E+08         0.00000E+00
    0.00000E+00         0.00000E+00        -0.14437E+08
 
   -0.14580E+08         0.14997E+07         0.00000E+00
    0.14997E+07        -0.51176E+08         0.00000E+00
    0.00000E+00         0.00000E+00        -0.14574E+08
 
   -0.14720E+08         0.14897E+07         0.00000E+00
    0.14897E+07        -0.51476E+08         0.00000E+00
    0.00000E+00         0.00000E+00        -0.14711E+08
 
   -0.14860E+08         0.14793E+07         0.00000E+00
    0.14793E+07        -0.51778E+08         0.00000E+00
    0.00000E+00         0.00000E+00        -0.14849E+08
 
   -0.15002E+08         0.14683E+07         0.00000E+00
    0.14683E+07        -0.52082E+08         0.00000E+00
    0.00000E+00         0.00000E+00        -0.14988E+08
 
   -0.15146E+08         0.14565E+07         0.00000E+00
    0.14565E+07        -0.52389E+08         0.00000E+00
    0.00000E+00         0.00000E+00        -0.15127E+08
 
   -0.15290E+08         0.14440E+07         0.00000E+00
    0.14440E+07        -0.52697E+08         0.00000E+00
    0.00000E+00         0.00000E+00        -0.15267E+08
 
   -0.15437E+08         0.14305E+07         0.00000E+00
    0.14305E+07        -0.53009E+08         0.00000E+00
    0.00000E+00         0.00000E+00        -0.15408E+08
 
   -0.15585E+08         0.14158E+07         0.00000E+00
    0.14158E+07        -0.53323E+08         0.00000E+00
    0.00000E+00         0.00000E+00        -0.15549E+08
 
   -0.15734E+08         0.14000E+07         0.00000E+00
    0.14000E+07        -0.53640E+08         0.00000E+00
    0.00000E+00         0.00000E+00        -0.15692E+08
 
   -0.15886E+08         0.13826E+07         0.00000E+00
    0.13826E+07        -0.53961E+08         0.00000E+00
    0.00000E+00         0.00000E+00        -0.15835E+08
 
   -0.16040E+08         0.13635E+07         0.00000E+00
    0.13635E+07        -0.54285E+08         0.00000E+00
    0.00000E+00         0.00000E+00        -0.15980E+08
 
   -0.16196E+08         0.13425E+07         0.00000E+00
    0.13425E+07        -0.54613E+08         0.00000E+00
    0.00000E+00         0.00000E+00        -0.16125E+08
 
   -0.16355E+08         0.13193E+07         0.00000E+00
    0.13193E+07        -0.54945E+08         0.00000E+00
    0.00000E+00         0.00000E+00        -0.16272E+08
 
   -0.16516E+08         0.12937E+07         0.00000E+00
    0.12937E+07        -0.55282E+08         0.00000E+00
    0.00000E+00         0.00000E+00        -0.16420E+08
 
   -0.16680E+08         0.12652E+07         0.00000E+00
    0.12652E+07        -0.55624E+08         0.00000E+00
    0.00000E+00         0.00000E+00        -0.16570E+08
 
   -0.16847E+08         0.12336E+07         0.00000E+00
    0.12336E+07        -0.55970E+08         0.00000E+00
    0.00000E+00         0.00000E+00        -0.16721E+08
 
   -0.17017E+08         0.11987E+07         0.00000E+00
    0.11987E+07        -0.56322E+08         0.00000E+00
    0.00000E+00         0.00000E+00        -0.16874E+08
 
   -0.17190E+08         0.11602E+07         0.00000E+00
    0.11602E+07        -0.56680E+08         0.00000E+00
    0.00000E+00         0.00000E+00        -0.17029E+08
 
   -0.17365E+08         0.11178E+07         0.00000E+00
    0.11178E+07        -0.57043E+08         0.00000E+00
    0.00000E+00         0.00000E+00        -0.17185E+08
 
   -0.17544E+08         0.10714E+07         0.00000E+00
    0.10714E+07        -0.57411E+08         0.00000E+00
    0.00000E+00         0.00000E+00        -0.17344E+08
 
   -0.17724E+08         0.10208E+07         0.00000E+00
    0.10208E+07        -0.57784E+08         0.00000E+00
    0.00000E+00         0.00000E+00        -0.17505E+08
 
   -0.17907E+08         0.96611E+06         0.00000E+00
    0.96611E+06        -0.58161E+08         0.00000E+00
    0.00000E+00         0.00000E+00        -0.17667E+08
 
   -0.18090E+08         0.90737E+06         0.00000E+00
    0.90737E+06        -0.58540E+08         0.00000E+00
    0.00000E+00         0.00000E+00        -0.17831E+08
 
   -0.18274E+08         0.84474E+06         0.00000E+00
    0.84474E+06        -0.58920E+08         0.00000E+00
    0.00000E+00         0.00000E+00        -0.17995E+08
 
   -0.18457E+08         0.77841E+06         0.00000E+00
    0.77841E+06        -0.59297E+08         0.00000E+00
    0.00000E+00         0.00000E+00        -0.18157E+08
 
   -0.18639E+08         0.70844E+06         0.00000E+00
    0.70844E+06        -0.59669E+08         0.00000E+00
    0.00000E+00         0.00000E+00        -0.18316E+08
 
   -0.18820E+08         0.63453E+06         0.00000E+00
    0.63453E+06        -0.60030E+08         0.00000E+00
    0.00000E+00         0.00000E+00        -0.18467E+08
 
   -0.19000E+08         0.55568E+06         0.00000E+00
    0.55568E+06        -0.60375E+08         0.00000E+00
    0.00000E+00         0.00000E+00        -0.18604E+08
 
   -0.19181E+08         0.46979E+06         0.00000E+00
    0.46979E+06        -0.60698E+08         0.00000E+00
    0.00000E+00         0.00000E+00        -0.18720E+08
 
   -0.19368E+08         0.37396E+06         0.00000E+00
    0.37396E+06        -0.60993E+08         0.00000E+00
    0.00000E+00         0.00000E+00        -0.18804E+08
 
   -0.19572E+08         0.26788E+06         0.00000E+00
    0.26788E+06        -0.61254E+08         0.00000E+00
    0.00000E+00         0.00000E+00        -0.18842E+08
 
   -0.19809E+08         0.15787E+06         0.00000E+00
    0.15787E+06        -0.61487E+08         0.00000E+00
    0.00000E+00         0.00000E+00        -0.18824E+08
 
   -0.20097E+08         0.51573E+05         0.00000E+00
    0.51573E+05        -0.61705E+08         0.00000E+00
    0.00000E+00         0.00000E+00        -0.18748E+08
 
   -0.66256E+07         0.83673E+05         0.00000E+00
    0.83673E+05        -0.27979E+08         0.00000E+00
    0.00000E+00         0.00000E+00        -0.86701E+07
 
   -0.69564E+07         0.25345E+06         0.00000E+00
    0.25345E+06        -0.28068E+08         0.00000E+00
    0.00000E+00         0.00000E+00        -0.86701E+07
 
   -0.72122E+07         0.42730E+06         0.00000E+00
    0.42730E+06        -0.28243E+08         0.00000E+00
    0.00000E+00         0.00000E+00        -0.86701E+07
 
   -0.74089E+07         0.60204E+06         0.00000E+00
    0.60204E+06        -0.28499E+08         0.00000E+00
    0.00000E+00         0.00000E+00        -0.86701E+07
 
   -0.75640E+07         0.77341E+06         0.00000E+00
    0.77341E+06        -0.28819E+08         0.00000E+00
    0.00000E+00         0.00000E+00        -0.86701E+07
 
   -0.76919E+07         0.93824E+06         0.00000E+00
    0.93824E+06        -0.29189E+08         0.00000E+00
    0.00000E+00         0.00000E+00        -0.86701E+07
 
   -0.78024E+07         0.10942E+07         0.00000E+00
    0.10942E+07        -0.29593E+08         0.00000E+00
    0.00000E+00         0.00000E+00        -0.86701E+07
 
   -0.79021E+07         0.12394E+07         0.00000E+00
    0.12394E+07        -0.30023E+08         0.00000E+00
    0.00000E+00         0.00000E+00        -0.86701E+07
 
   -0.79947E+07         0.13725E+07         0.00000E+00
    0.13725E+07        -0.30469E+08         0.00000E+00
    0.00000E+00         0.00000E+00        -0.86701E+07
 
   -0.80829E+07         0.14924E+07         0.00000E+00
    0.14924E+07        -0.30927E+08         0.00000E+00
    0.00000E+00         0.00000E+00        -0.86701E+07
 
   -0.81684E+07         0.15984E+07         0.00000E+00
    0.15984E+07        -0.31392E+08         0.00000E+00
    0.00000E+00         0.00000E+00        -0.86701E+07
 
   -0.82528E+07         0.16899E+07         0.00000E+00
    0.16899E+07        -0.31862E+08         0.00000E+00
    0.00000E+00         0.00000E+00        -0.86701E+07
 
   -0.83372E+07         0.17665E+07         0.00000E+00
    0.17665E+07        -0.32337E+08         0.00000E+00
    0.00000E+00         0.00000E+00        -0.86701E+07
 
   -0.84230E+07         0.18273E+07         0.00000E+00
    0.18273E+07        -0.32816E+08         0.00000E+00
    0.00000E+00         0.00000E+00        -0.86701E+07
 
   -0.85116E+07         0.18708E+07         0.00000E+00
    0.18708E+07        -0.33300E+08         0.00000E+00
    0.00000E+00         0.00000E+00        -0.86701E+07
 
   -0.86046E+07         0.18955E+07         0.00000E+00
    0.18955E+07        -0.33788E+08         0.00000E+00
    0.00000E+00         0.00000E+00        -0.86701E+07
 
   -0.87009E+07         0.18993E+07         0.00000E+00
    0.18993E+07        -0.34251E+08         0.00000E+00
    0.00000E+00         0.00000E+00        -0.87086E+07
 
   -0.88049E+07         0.19161E+07         0.00000E+00
    0.19161E+07        -0.34655E+08         0.00000E+00
    0.00000E+00         0.00000E+00        -0.88275E+07
 
   -0.89157E+07         0.19197E+07         0.00000E+00
    0.19197E+07        -0.35047E+08         0.00000E+00
    0.00000E+00         0.00000E+00        -0.89670E+07
 
   -0.90330E+07         0.19185E+07         0.00000E+00
    0.19185E+07        -0.35439E+08         0.00000E+00
    0.00000E+00         0.00000E+00        -0.91000E+07
 
   -0.91532E+07         0.19169E+07         0.00000E+00
    0.19169E+07        -0.35828E+08         0.00000E+00
    0.00000E+00         0.00000E+00        -0.92267E+07
 
   -0.92732E+07         0.19157E+07         0.00000E+00
    0.19157E+07        -0.36215E+08         0.00000E+00
    0.00000E+00         0.00000E+00        -0.93475E+07
 
   -0.93915E+07         0.19149E+07         0.00000E+00
    0.19149E+07        -0.36599E+08         0.00000E+00
    0.00000E+00         0.00000E+00        -0.94629E+07
 
   -0.95073E+07         0.19144E+07         0.00000E+00
    0.19144E+07        -0.36980E+08         0.00000E+00
    0.00000E+00         0.00000E+00        -0.95732E+07
 
   -0.96200E+07         0.19139E+07         0.00000E+00
    0.19139E+07        -0.37359E+08         0.00000E+00
    0.00000E+00         0.00000E+00        -0.96786E+07
 
   -0.97297E+07         0.19132E+07         0.00000E+00
    0.19132E+07        -0.37735E+08         0.00000E+00
    0.00000E+00         0.00000E+00        -0.97797E+07
 
   -0.98362E+07         0.19118E+07         0.00000E+00
    0.19118E+07        -0.38109E+08         0.00000E+00
    0.00000E+00         0.00000E+00        -0.98766E+07
 
   -0.99399E+07         0.19094E+07         0.00000E+00
    0.19094E+07        -0.38480E+08         0.00000E+00
    0.00000E+00         0.00000E+00        -0.99697E+07
 
   -0.10041E+08         0.19058E+07         0.00000E+00
    0.19058E+07        -0.38848E+08         0.00000E+00
    0.00000E+00         0.00000E+00        -0.10059E+08
 
   -0.10139E+08         0.19006E+07         0.00000E+00
    0.19006E+07        -0.39215E+08         0.00000E+00
    0.00000E+00         0.00000E+00        -0.10145E+08
 
   -0.10235E+08         0.18937E+07         0.00000E+00
    0.18937E+07        -0.39580E+08         0.00000E+00
    0.00000E+00         0.00000E+00        -0.10229E+08
 
   -0.10330E+08         0.18847E+07         0.00000E+00
    0.18847E+07        -0.39943E+08         0.00000E+00
    0.00000E+00         0.00000E+00        -0.10309E+08
 
   -0.10422E+08         0.18734E+07         0.00000E+00
    0.18734E+07        -0.40306E+08         0.00000E+00
    0.00000E+00         0.00000E+00        -0.10386E+08
 
   -0.10514E+08         0.18597E+07         0.00000E+00
    0.18597E+07        -0.40668E+08         0.00000E+00
    0.00000E+00         0.00000E+00        -0.10461E+08
 
   -0.10605E+08         0.18438E+07         0.00000E+00
    0.18438E+07        -0.41031E+08         0.00000E+00
    0.00000E+00         0.00000E+00        -0.10534E+08
 
   -0.10697E+08         0.18264E+07         0.00000E+00
    0.18264E+07        -0.41395E+08         0.00000E+00
    0.00000E+00         0.00000E+00        -0.10604E+08
 
   -0.10790E+08         0.18082E+07         0.00000E+00
    0.18082E+07        -0.41756E+08         0.00000E+00
    0.00000E+00         0.00000E+00        -0.10677E+08
 
   -0.10884E+08         0.17854E+07         0.00000E+00
    0.17854E+07        -0.42093E+08         0.00000E+00
    0.00000E+00         0.00000E+00        -0.10777E+08
 
   -0.10979E+08         0.17633E+07         0.00000E+00
    0.17633E+07        -0.42415E+08         0.00000E+00
    0.00000E+00         0.00000E+00        -0.10894E+08
 
   -0.11077E+08         0.17422E+07         0.00000E+00
    0.17422E+07        -0.42740E+08         0.00000E+00
    0.00000E+00         0.00000E+00        -0.11009E+08
 
   -0.11177E+08         0.17229E+07         0.00000E+00
    0.17229E+07        -0.43065E+08         0.00000E+00
    0.00000E+00         0.00000E+00        -0.11122E+08
 
   -0.11278E+08         0.17054E+07         0.00000E+00
    0.17054E+07        -0.43390E+08         0.00000E+00
    0.00000E+00         0.00000E+00        -0.11234E+08
 
   -0.11380E+08         0.16899E+07         0.00000E+00
    0.16899E+07        -0.43716E+08         0.00000E+00
    0.00000E+00         0.00000E+00        -0.11345E+08
 
   -0.11482E+08         0.16762E+07         0.00000E+00
    0.16762E+07        -0.44041E+08         0.00000E+00
    0.00000E+00         0.00000E+00        -0.11455E+08
 
   -0.11584E+08         0.16641E+07         0.00000E+00
    0.16641E+07        -0.44365E+08         0.00000E+00
    0.00000E+00         0.00000E+00        -0.11564E+08
 
   -0.11687E+08         0.16532E+07         0.00000E+00
    0.16532E+07        -0.44689E+08         0.00000E+00
    0.00000E+00         0.00000E+00        -0.11671E+08
 
   -0.11789E+08         0.16434E+07         0.00000E+00
    0.16434E+07        -0.45012E+08         0.00000E+00
    0.00000E+00         0.00000E+00        -0.11778E+08
 
   -0.11895E+08         0.16342E+07         0.00000E+00
    0.16342E+07        -0.45331E+08         0.00000E+00
    0.00000E+00         0.00000E+00        -0.11887E+08
 
   -0.12019E+08         0.16240E+07         0.00000E+00
    0.16240E+07        -0.45632E+08         0.00000E+00
    0.00000E+00         0.00000E+00        -0.12014E+08
 
   -0.12152E+08         0.16136E+07         0.00000E+00
    0.16136E+07        -0.45924E+08         0.00000E+00
    0.00000E+00         0.00000E+00        -0.12150E+08
 
   -0.12285E+08         0.16038E+07         0.00000E+00
    0.16038E+07        -0.46216E+08         0.00000E+00
    0.00000E+00         0.00000E+00        -0.12285E+08
 
   -0.12418E+08         0.15944E+07         0.00000E+00
    0.15944E+07        -0.46506E+08         0.00000E+00
    0.00000E+00         0.00000E+00        -0.12420E+08
 
   -0.12552E+08         0.15854E+07         0.00000E+00
    0.15854E+07        -0.46796E+08         0.00000E+00
    0.00000E+00         0.00000E+00        -0.12554E+08
 
   -0.12685E+08         0.15766E+07         0.00000E+00
    0.15766E+07        -0.47086E+08         0.00000E+00
    0.00000E+00         0.00000E+00        -0.12688E+08
 
   -0.12818E+08         0.15682E+07         0.00000E+00
    0.15682E+07        -0.47376E+08         0.00000E+00
    0.00000E+00         0.00000E+00        -0.12822E+08
 
   -0.12951E+08         0.15599E+07         0.00000E+00
    0.15599E+07        -0.47665E+08         0.00000E+00
    0.00000E+00         0.00000E+00        -0.12956E+08
 
   -0.13084E+08         0.15517E+07         0.00000E+00
    0.15517E+07        -0.47954E+08         0.00000E+00
    0.00000E+00         0.00000E+00        -0.13089E+08
 
   -0.13218E+08         0.15437E+07         0.00000E+00
    0.15437E+07        -0.48244E+08         0.00000E+00
    0.00000E+00         0.00000E+00        -0.13223E+08
 
   -0.13352E+08         0.15357E+07         0.00000E+00
    0.15357E+07        -0.48534E+08         0.00000E+00
    0.00000E+00         0.00000E+00        -0.13357E+08
 
   -0.13486E+08         0.15278E+07         0.00000E+00
    0.15278E+07        -0.48824E+08         0.00000E+00
    0.00000E+00         0.00000E+00        -0.13490E+08
 
   -0.13620E+08         0.15198E+07         0.00000E+00
    0.15198E+07        -0.49114E+08         0.00000E+00
    0.00000E+00         0.00000E+00        -0.13624E+08
 
   -0.13755E+08         0.15118E+07         0.00000E+00
    0.15118E+07        -0.49406E+08         0.00000E+00
    0.00000E+00         0.00000E+00        -0.13758E+08
 
   -0.13890E+08         0.15037E+07         0.00000E+00
    0.15037E+07        -0.49698E+08         0.00000E+00
    0.00000E+00         0.00000E+00        -0.13893E+08
 
   -0.14026E+08         0.14955E+07         0.00000E+00
    0.14955E+07        -0.49991E+08         0.00000E+00
    0.00000E+00         0.00000E+00        -0.14028E+08
 
   -0.14163E+08         0.14870E+07         0.00000E+00
    0.14870E+07        -0.50285E+08         0.00000E+00
    0.00000E+00         0.00000E+00        -0.14163E+08
 
   -0.14300E+08         0.14784E+07         0.00000E+00
    0.14784E+07        -0.50581E+08         0.00000E+00
    0.00000E+00         0.00000E+00        -0.14298E+08
 
   -0.14438E+08         0.14695E+07         0.00000E+00
    0.14695E+07        -0.50878E+08         0.00000E+00
    0.00000E+00         0.00000E+00        -0.14434E+08
 
   -0.14577E+08         0.14602E+07         0.00000E+00
    0.14602E+07        -0.51176E+08         0.00000E+00
    0.00000E+00         0.00000E+00        -0.14571E+08
 
   -0.14717E+08         0.14505E+07         0.00000E+00
    0.14505E+07        -0.51476E+08         0.00000E+00
    0.00000E+00         0.00000E+00        -0.14708E+08
 
   -0.14858E+08         0.14403E+07         0.00000E+00
    0.14403E+07        -0.51778E+08         0.00000E+00
    0.00000E+00         0.00000E+00        -0.14846E+08
 
   -0.15000E+08         0.14296E+07         0.00000E+00
    0.14296E+07        -0.52082E+08         0.00000E+00
    0.00000E+00         0.00000E+00        -0.14984E+08
 
   -0.15144E+08         0.14181E+07         0.00000E+00
    0.14181E+07        -0.52389E+08         0.00000E+00
    0.00000E+00         0.00000E+00        -0.15123E+08
 
   -0.15288E+08         0.14059E+07         0.00000E+00
    0.14059E+07        -0.52697E+08         0.00000E+00
    0.00000E+00         0.00000E+00        -0.15263E+08
 
   -0.15435E+08         0.13928E+07         0.00000E+00
    0.13928E+07        -0.53008E+08         0.00000E+00
    0.00000E+00         0.00000E+00        -0.15404E+08
 
   -0.15583E+08         0.13785E+07         0.00000E+00
    0.13785E+07        -0.53322E+08         0.00000E+00
    0.00000E+00         0.00000E+00        -0.15545E+08
 
   -0.15733E+08         0.13630E+07         0.00000E+00
    0.13630E+07        -0.53639E+08         0.00000E+00
    0.00000E+00         0.00000E+00        -0.15687E+08
 
   -0.15885E+08         0.13461E+07         0.00000E+00
    0.13461E+07        -0.53960E+08         0.00000E+00
    0.00000E+00         0.00000E+00        -0.15830E+08
 
   -0.16039E+08         0.13276E+07         0.00000E+00
    0.13276E+07        -0.54283E+08         0.00000E+00
    0.00000E+00         0.00000E+00        -0.15974E+08
 
   -0.16195E+08         0.13071E+07         0.00000E+00
    0.13071E+07        -0.54611E+08         0.00000E+00
    0.00000E+00         0.00000E+00        -0.16119E+08
 
   -0.16354E+08         0.12844E+07         0.00000E+00
    0.12844E+07        -0.54943E+08         0.00000E+00
    0.00000E+00         0.00000E+00        -0.16266E+08
 
   -0.16516E+08         0.12593E+07         0.00000E+00
    0.12593E+07        -0.55279E+08         0.00000E+00
    0.00000E+00         0.00000E+00        -0.16413E+08
 
   -0.16680E+08         0.12315E+07         0.00000E+00
    0.12315E+07        -0.55620E+08         0.00000E+00
    0.00000E+00         0.00000E+00        -0.16562E+08
 
   -0.16847E+08         0.12006E+07         0.00000E+00
    0.12006E+07        -0.55965E+08         0.00000E+00
    0.00000E+00         0.00000E+00        -0.16712E+08
 
   -0.17018E+08         0.11663E+07         0.00000E+00
    0.11663E+07        -0.56316E+08         0.00000E+00
    0.00000E+00         0.00000E+00        -0.16864E+08
 
   -0.17191E+08         0.11284E+07         0.00000E+00
    0.11284E+07        -0.56673E+08         0.00000E+00
    0.00000E+00         0.00000E+00        -0.17017E+08
 
   -0.17367E+08         0.10866E+07         0.00000E+00
    0.10866E+07        -0.57035E+08         0.00000E+00
    0.00000E+00         0.00000E+00        -0.17173E+08
 
   -0.17546E+08         0.10407E+07         0.00000E+00
    0.10407E+07        -0.57402E+08         0.00000E+00
    0.00000E+00         0.00000E+00        -0.17330E+08
 
   -0.17728E+08         0.99059E+06         0.00000E+00
    0.99059E+06        -0.57774E+08         0.00000E+00
    0.00000E+00         0.00000E+00        -0.17489E+08
 
   -0.17911E+08         0.93620E+06         0.00000E+00
    0.93620E+06        -0.58149E+08         0.00000E+00
    0.00000E+00         0.00000E+00        -0.17650E+08
 
   -0.18095E+08         0.87759E+06         0.00000E+00
    0.87759E+06        -0.58527E+08         0.00000E+00
    0.00000E+00         0.00000E+00        -0.17812E+08
 
   -0.18280E+08         0.81491E+06         0.00000E+00
    0.81491E+06        -0.58906E+08         0.00000E+00
    0.00000E+00         0.00000E+00        -0.17974E+08
 
   -0.18465E+08         0.74834E+06         0.00000E+00
    0.74834E+06        -0.59283E+08         0.00000E+00
    0.00000E+00         0.00000E+00        -0.18135E+08
 
   -0.18649E+08         0.67799E+06         0.00000E+00
    0.67799E+06        -0.59653E+08         0.00000E+00
    0.00000E+00         0.00000E+00        -0.18291E+08
 
   -0.18831E+08         0.60371E+06         0.00000E+00
    0.60371E+06        -0.60014E+08         0.00000E+00
    0.00000E+00         0.00000E+00        -0.18439E+08
 
   -0.19013E+08         0.52474E+06         0.00000E+00
    0.52474E+06        -0.60358E+08         0.00000E+00
    0.00000E+00         0.00000E+00        -0.18573E+08
 
   -0.19197E+08         0.43943E+06         0.00000E+00
    0.43943E+06        -0.60680E+08         0.00000E+00
    0.00000E+00         0.00000E+00        -0.18686E+08
 
   -0.19388E+08         0.34587E+06         0.00000E+00
    0.34587E+06        -0.60973E+08         0.00000E+00
    0.00000E+00         0.00000E+00        -0.18765E+08
 
   -0.19598E+08         0.24506E+06         0.00000E+00
    0.24506E+06        -0.61233E+08         0.00000E+00
    0.00000E+00         0.00000E+00        -0.18797E+08
 
   -0.19842E+08         0.14336E+06         0.00000E+00
    0.14336E+06        -0.61467E+08         0.00000E+00
    0.00000E+00         0.00000E+00        -0.18774E+08
 
   -0.20133E+08         0.46707E+05         0.00000E+00
    0.46707E+05        -0.61687E+08         0.00000E+00
    0.00000E+00         0.00000E+00        -0.18697E+08
 
   -0.65054E+07         0.75406E+05         0.00000E+00
    0.75406E+05        -0.28011E+08         0.00000E+00
    0.00000E+00         0.00000E+00        -0.86701E+07
 
   -0.68403E+07         0.22945E+06         0.00000E+00
    0.22945E+06        -0.28100E+08         0.00000E+00
    0.00000E+00         0.00000E+00        -0.86701E+07
 
   -0.71035E+07         0.38997E+06         0.00000E+00
    0.38997E+06        -0.28277E+08         0.00000E+00
    0.00000E+00         0.00000E+00        -0.86701E+07
 
   -0.73092E+07         0.55483E+06         0.00000E+00
    0.55483E+06        -0.28533E+08         0.00000E+00
    0.00000E+00         0.00000E+00        -0.86701E+07
 
   -0.74736E+07         0.71962E+06         0.00000E+00
    0.71962E+06        -0.28852E+08         0.00000E+00
    0.00000E+00         0.00000E+00        -0.86701E+07
 
   -0.76107E+07         0.88031E+06         0.00000E+00
    0.88031E+06        -0.29221E+08         0.00000E+00
    0.00000E+00         0.00000E+00        -0.86701E+07
 
   -0.77300E+07         0.10337E+07         0.00000E+00
    0.10337E+07        -0.29623E+08         0.00000E+00
    0.00000E+00         0.00000E+00        -0.86701E+07
 
   -0.78379E+07         0.11774E+07         0.00000E+00
    0.11774E+07        -0.30051E+08         0.00000E+00
    0.00000E+00         0.00000E+00        -0.86701E+07
 
   -0.79382E+07         0.13096E+07         0.00000E+00
    0.13096E+07        -0.30494E+08         0.00000E+00
    0.00000E+00         0.00000E+00        -0.86701E+07
 
   -0.80336E+07         0.14291E+07         0.00000E+00
    0.14291E+07        -0.30949E+08         0.00000E+00
    0.00000E+00         0.00000E+00        -0.86701E+07
 
   -0.81259E+07         0.15351E+07         0.00000E+00
    0.15351E+07        -0.31412E+08         0.00000E+00
    0.00000E+00         0.00000E+00        -0.86701E+07
 
   -0.82165E+07         0.16268E+07         0.00000E+00
    0.16268E+07        -0.31879E+08         0.00000E+00
    0.00000E+00         0.00000E+00        -0.86701E+07
 
   -0.83068E+07         0.17038E+07         0.00000E+00
    0.17038E+07        -0.32351E+08         0.00000E+00
    0.00000E+00         0.00000E+00        -0.86701E+07
 
   -0.83977E+07         0.17653E+07         0.00000E+00
    0.17653E+07        -0.32827E+08         0.00000E+00
    0.00000E+00         0.00000E+00        -0.86701E+07
 
   -0.84907E+07         0.18100E+07         0.00000E+00
    0.18100E+07        -0.33307E+08         0.00000E+00
    0.00000E+00         0.00000E+00        -0.86701E+07
 
   -0.85872E+07         0.18359E+07         0.00000E+00
    0.18359E+07        -0.33791E+08         0.00000E+00
    0.00000E+00         0.00000E+00        -0.86701E+07
 
   -0.86861E+07         0.18411E+07         0.00000E+00
    0.18411E+07        -0.34253E+08         0.00000E+00
    0.00000E+00         0.00000E+00        -0.87041E+07
 
   -0.87911E+07         0.18592E+07         0.00000E+00
    0.18592E+07        -0.34657E+08         0.00000E+00
    0.00000E+00         0.00000E+00        -0.88167E+07
 
   -0.89012E+07         0.18649E+07         0.00000E+00
    0.18649E+07        -0.35047E+08         0.00000E+00
    0.00000E+00         0.00000E+00        -0.89548E+07
 
   -0.90174E+07         0.18653E+07         0.00000E+00
    0.18653E+07        -0.35439E+08         0.00000E+00
    0.00000E+00         0.00000E+00        -0.90866E+07
 
   -0.91367E+07         0.18644E+07         0.00000E+00
    0.18644E+07        -0.35828E+08         0.00000E+00
    0.00000E+00         0.00000E+00        -0.92125E+07
 
   -0.92562E+07         0.18635E+07         0.00000E+00
    0.18635E+07        -0.36214E+08         0.00000E+00
    0.00000E+00         0.00000E+00        -0.93327E+07
 
   -0.93742E+07         0.18628E+07         0.00000E+00
    0.18628E+07        -0.36598E+08         0.00000E+00
    0.00000E+00         0.00000E+00        -0.94476E+07
 
   -0.94899E+07         0.18623E+07         0.00000E+00
    0.18623E+07        -0.36980E+08         0.00000E+00
    0.00000E+00         0.00000E+00        -0.95576E+07
 
   -0.96029E+07         0.18618E+07         0.00000E+00
    0.18618E+07        -0.37359E+08         0.00000E+00
    0.00000E+00         0.00000E+00        -0.96629E+07
 
   -0.97129E+07         0.18609E+07         0.00000E+00
    0.18609E+07        -0.37735E+08         0.00000E+00
    0.00000E+00         0.00000E+00        -0.97640E+07
 
   -0.98201E+07         0.18594E+07         0.00000E+00
    0.18594E+07        -0.38108E+08         0.00000E+00
    0.00000E+00         0.00000E+00        -0.98611E+07
 
   -0.99244E+07         0.18571E+07         0.00000E+00
    0.18571E+07        -0.38479E+08         0.00000E+00
    0.00000E+00         0.00000E+00        -0.99544E+07
 
   -0.10026E+08         0.18535E+07         0.00000E+00
    0.18535E+07        -0.38847E+08         0.00000E+00
    0.00000E+00         0.00000E+00        -0.10044E+08
 
   -0.10126E+08         0.18484E+07         0.00000E+00
    0.18484E+07        -0.39214E+08         0.00000E+00
    0.00000E+00         0.00000E+00        -0.10131E+08
 
   -0.10223E+08         0.18415E+07         0.00000E+00
    0.18415E+07        -0.39578E+08         0.00000E+00
    0.00000E+00         0.00000E+00        -0.10214E+08
 
   -0.10318E+08         0.18326E+07         0.00000E+00
    0.18326E+07        -0.39941E+08         0.00000E+00
    0.00000E+00         0.00000E+00        -0.10295E+08
 
   -0.10412E+08         0.18216E+07         0.00000E+00
    0.18216E+07        -0.40303E+08         0.00000E+00
    0.00000E+00         0.00000E+00        -0.10373E+08
 
   -0.10505E+08         0.18082E+07         0.00000E+00
    0.18082E+07        -0.40665E+08         0.00000E+00
    0.00000E+00         0.00000E+00        -0.10448E+08
 
   -0.10598E+08         0.17928E+07         0.00000E+00
    0.17928E+07        -0.41028E+08         0.00000E+00
    0.00000E+00         0.00000E+00        -0.10522E+08
 
   -0.10691E+08         0.17760E+07         0.00000E+00
    0.17760E+07        -0.41391E+08         0.00000E+00
    0.00000E+00         0.00000E+00        -0.10593E+08
 
   -0.10784E+08         0.17584E+07         0.00000E+00
    0.17584E+07        -0.41752E+08         0.00000E+00
    0.00000E+00         0.00000E+00        -0.10666E+08
 
   -0.10879E+08         0.17364E+07         0.00000E+00
    0.17364E+07        -0.42089E+08         0.00000E+00
    0.00000E+00         0.00000E+00        -0.10768E+08
 
   -0.10975E+08         0.17150E+07         0.00000E+00
    0.17150E+07        -0.42411E+08         0.00000E+00
    0.00000E+00         0.00000E+00        -0.10885E+08
 
   -0.11073E+08         0.16947E+07         0.00000E+00
    0.16947E+07        -0.42736E+08         0.00000E+00
    0.00000E+00         0.00000E+00        -0.11000E+08
 
   -0.11172E+08         0.16760E+07         0.00000E+00
    0.16760E+07        -0.43061E+08         0.00000E+00
    0.00000E+00         0.00000E+00        -0.11114E+08
 
   -0.11273E+08         0.16592E+07         0.00000E+00
    0.16592E+07        -0.43387E+08         0.00000E+00
    0.00000E+00         0.00000E+00        -0.11227E+08
 
   -0.11375E+08         0.16442E+07         0.00000E+00
    0.16442E+07        -0.43713E+08         0.00000E+00
    0.00000E+00         0.00000E+00        -0.11338E+08
 
   -0.11477E+08         0.16309E+07         0.00000E+00
    0.16309E+07        -0.44038E+08         0.00000E+00
    0.00000E+00         0.00000E+00        -0.11448E+08
 
   -0.11579E+08         0.16190E+07         0.00000E+00
    0.16190E+07        -0.44363E+08         0.00000E+00
    0.00000E+00         0.00000E+00        -0.11557E+08
 
   -0.11682E+08         0.16085E+07         0.00000E+00
    0.16085E+07        -0.44687E+08         0.00000E+00
    0.00000E+00         0.00000E+00        -0.11665E+08
 
   -0.11784E+08         0.15990E+07         0.00000E+00
    0.15990E+07        -0.45010E+08         0.00000E+00
    0.00000E+00         0.00000E+00        -0.11772E+08
 
   -0.11890E+08         0.15900E+07         0.00000E+00
    0.15900E+07        -0.45329E+08         0.00000E+00
    0.00000E+00         0.00000E+00        -0.11882E+08
 
   -0.12014E+08         0.15801E+07         0.00000E+00
    0.15801E+07        -0.45631E+08         0.00000E+00
    0.00000E+00         0.00000E+00        -0.12009E+08
 
   -0.12148E+08         0.15700E+07         0.00000E+00
    0.15700E+07        -0.45923E+08         0.00000E+00
    0.00000E+00         0.00000E+00        -0.12145E+08
 
   -0.12281E+08         0.15604E+07         0.00000E+00
    0.15604E+07        -0.46214E+08         0.00000E+00
    0.00000E+00         0.00000E+00        -0.12280E+08
 
   -0.12414E+08         0.15513E+07         0.00000E+00
    0.15513E+07        -0.46505E+08         0.00000E+00
    0.00000E+00         0.00000E+00        -0.12415E+08
 
   -0.12547E+08         0.15425E+07         0.00000E+00
    0.15425E+07        -0.46796E+08         0.00000E+00
    0.00000E+00         0.00000E+00        -0.12550E+08
 
   -0.12681E+08         0.15340E+07         0.00000E+00
    0.15340E+07        -0.47085E+08         0.00000E+00
    0.00000E+00         0.00000E+00        -0.12684E+08
 
   -0.12814E+08         0.15258E+07         0.00000E+00
    0.15258E+07        -0.47375E+08         0.00000E+00
    0.00000E+00         0.00000E+00        -0.12818E+08
 
   -0.12947E+08         0.15177E+07         0.00000E+00
    0.15177E+07        -0.47665E+08         0.00000E+00
    0.00000E+00         0.00000E+00        -0.12952E+08
 
   -0.13081E+08         0.15098E+07         0.00000E+00
    0.15098E+07        -0.47954E+08         0.00000E+00
    0.00000E+00         0.00000E+00        -0.13086E+08
 
   -0.13214E+08         0.15020E+07         0.00000E+00
    0.15020E+07        -0.48244E+08         0.00000E+00
    0.00000E+00         0.00000E+00        -0.13220E+08
 
   -0.13348E+08         0.14942E+07         0.00000E+00
    0.14942E+07        -0.48534E+08         0.00000E+00
    0.00000E+00         0.00000E+00        -0.13353E+08
 
   -0.13482E+08         0.14865E+07         0.00000E+00
    0.14865E+07        -0.48824E+08         0.00000E+00
    0.00000E+00         0.00000E+00        -0.13487E+08
 
   -0.13617E+08         0.14788E+07         0.00000E+00
    0.14788E+07        -0.49115E+08         0.00000E+00
    0.00000E+00         0.00000E+00        -0.13621E+08
 
   -0.13752E+08         0.14710E+07         0.00000E+00
    0.14710E+07        -0.49406E+08         0.00000E+00
    0.00000E+00         0.00000E+00        -0.13755E+08
 
   -0.13887E+08         0.14631E+07         0.00000E+00
    0.14631E+07        -0.49698E+08         0.00000E+00
    0.00000E+00         0.00000E+00        -0.13890E+08
 
   -0.14023E+08         0.14551E+07         0.00000E+00
    0.14551E+07        -0.49992E+08         0.00000E+00
    0.00000E+00         0.00000E+00        -0.14025E+08
 
   -0.14160E+08         0.14469E+07         0.00000E+00
    0.14469E+07        -0.50286E+08         0.00000E+00
    0.00000E+00         0.00000E+00        -0.14160E+08
 
   -0.14297E+08         0.14384E+07         0.00000E+00
    0.14384E+07        -0.50581E+08         0.00000E+00
    0.00000E+00         0.00000E+00        -0.14296E+08
 
   -0.14435E+08         0.14297E+07         0.00000E+00
    0.14297E+07        -0.50878E+08         0.00000E+00
    0.00000E+00         0.00000E+00        -0.14432E+08
 
   -0.14574E+08         0.14207E+07         0.00000E+00
    0.14207E+07        -0.51177E+08         0.00000E+00
    0.00000E+00         0.00000E+00        -0.14568E+08
 
   -0.14714E+08         0.14113E+07         0.00000E+00
    0.14113E+07        -0.51477E+08         0.00000E+00
    0.00000E+00         0.00000E+00        -0.14705E+08
 
   -0.14855E+08         0.14014E+07         0.00000E+00
    0.14014E+07        -0.51779E+08         0.00000E+00
    0.00000E+00         0.00000E+00        -0.14843E+08
 
   -0.14998E+08         0.13909E+07         0.00000E+00
    0.13909E+07        -0.52083E+08         0.00000E+00
    0.00000E+00         0.00000E+00        -0.14981E+08
 
   -0.15141E+08         0.13798E+07         0.00000E+00
    0.13798E+07        -0.52389E+08         0.00000E+00
    0.00000E+00         0.00000E+00        -0.15120E+08
 
   -0.15286E+08         0.13679E+07         0.00000E+00
    0.13679E+07        -0.52697E+08         0.00000E+00
    0.00000E+00         0.00000E+00        -0.15260E+08
 
   -0.15433E+08         0.13551E+07         0.00000E+00
    0.13551E+07        -0.53008E+08         0.00000E+00
    0.00000E+00         0.00000E+00        -0.15400E+08
 
   -0.15581E+08         0.13412E+07         0.00000E+00
    0.13412E+07        -0.53322E+08         0.00000E+00
    0.00000E+00         0.00000E+00        -0.15541E+08
 
   -0.15731E+08         0.13262E+07         0.00000E+00
    0.13262E+07        -0.53639E+08         0.00000E+00
    0.00000E+00         0.00000E+00        -0.15683E+08
 
   -0.15883E+08         0.13097E+07         0.00000E+00
    0.13097E+07        -0.53958E+08         0.00000E+00
    0.00000E+00         0.00000E+00        -0.15826E+08
 
   -0.16038E+08         0.12916E+07         0.00000E+00
    0.12916E+07        -0.54282E+08         0.00000E+00
    0.00000E+00         0.00000E+00        -0.15969E+08
 
   -0.16194E+08         0.12716E+07         0.00000E+00
    0.12716E+07        -0.54609E+08         0.00000E+00
    0.00000E+00         0.00000E+00        -0.16114E+08
 
   -0.16354E+08         0.12495E+07         0.00000E+00
    0.12495E+07        -0.54940E+08         0.00000E+00
    0.00000E+00         0.00000E+00        -0.16259E+08
 
   -0.16515E+08         0.12250E+07         0.00000E+00
    0.12250E+07        -0.55275E+08         0.00000E+00
    0.00000E+00         0.00000E+00        -0.16406E+08
 
   -0.16680E+08         0.11978E+07         0.00000E+00
    0.11978E+07        -0.55615E+08         0.00000E+00
    0.00000E+00         0.00000E+00        -0.16554E+08
 
   -0.16848E+08         0.11676E+07         0.00000E+00
    0.11676E+07        -0.55960E+08         0.00000E+00
    0.00000E+00         0.00000E+00        -0.16703E+08
 
   -0.17019E+08         0.11339E+07         0.00000E+00
    0.11339E+07        -0.56311E+08         0.00000E+00
    0.00000E+00         0.00000E+00        -0.16854E+08
 
   -0.17193E+08         0.10967E+07         0.00000E+00
    0.10967E+07        -0.56666E+08         0.00000E+00
    0.00000E+00         0.00000E+00        -0.17006E+08
 
   -0.17369E+08         0.10555E+07         0.00000E+00
    0.10555E+07        -0.57027E+08         0.00000E+00
    0.00000E+00         0.00000E+00        -0.17160E+08
 
   -0.17549E+08         0.10101E+07         0.00000E+00
    0.10101E+07        -0.57393E+08         0.00000E+00
    0.00000E+00         0.00000E+00        -0.17316E+08
 
   -0.17731E+08         0.96048E+06         0.00000E+00
    0.96048E+06        -0.57764E+08         0.00000E+00
    0.00000E+00         0.00000E+00        -0.17473E+08
 
   -0.17915E+08         0.90642E+06         0.00000E+00
    0.90642E+06        -0.58138E+08         0.00000E+00
    0.00000E+00         0.00000E+00        -0.17633E+08
 
   -0.18101E+08         0.84798E+06         0.00000E+00
    0.84798E+06        -0.58515E+08         0.00000E+00
    0.00000E+00         0.00000E+00        -0.17793E+08
 
   -0.18287E+08         0.78528E+06         0.00000E+00
    0.78528E+06        -0.58893E+08         0.00000E+00
    0.00000E+00         0.00000E+00        -0.17953E+08
 
   -0.18473E+08         0.71852E+06         0.00000E+00
    0.71852E+06        -0.59268E+08         0.00000E+00
    0.00000E+00         0.00000E+00        -0.18111E+08
 
   -0.18658E+08         0.64786E+06         0.00000E+00
    0.64786E+06        -0.59638E+08         0.00000E+00
    0.00000E+00         0.00000E+00        -0.18265E+08
 
   -0.18843E+08         0.57330E+06         0.00000E+00
    0.57330E+06        -0.59997E+08         0.00000E+00
    0.00000E+00         0.00000E+00        -0.18411E+08
 
   -0.19027E+08         0.49434E+06         0.00000E+00
    0.49434E+06        -0.60341E+08         0.00000E+00
    0.00000E+00         0.00000E+00        -0.18543E+08
 
   -0.19214E+08         0.40988E+06         0.00000E+00
    0.40988E+06        -0.60661E+08         0.00000E+00
    0.00000E+00         0.00000E+00        -0.18651E+08
 
   -0.19410E+08         0.31897E+06         0.00000E+00
    0.31897E+06        -0.60953E+08         0.00000E+00
    0.00000E+00         0.00000E+00        -0.18726E+08
 
   -0.19625E+08         0.22362E+06         0.00000E+00
    0.22362E+06        -0.61214E+08         0.00000E+00
    0.00000E+00         0.00000E+00        -0.18753E+08
 
   -0.19874E+08         0.12991E+06         0.00000E+00
    0.12991E+06        -0.61449E+08         0.00000E+00
    0.00000E+00         0.00000E+00        -0.18727E+08
 
   -0.20170E+08         0.42218E+05         0.00000E+00
    0.42218E+05        -0.61670E+08         0.00000E+00
    0.00000E+00         0.00000E+00        -0.18648E+08
 
   -0.63881E+07         0.67521E+05         0.00000E+00
    0.67521E+05        -0.28040E+08         0.00000E+00
    0.00000E+00         0.00000E+00        -0.86701E+07
 
   -0.67265E+07         0.20654E+06         0.00000E+00
    0.20654E+06        -0.28131E+08         0.00000E+00
    0.00000E+00         0.00000E+00        -0.86701E+07
 
   -0.69961E+07         0.35423E+06         0.00000E+00
    0.35423E+06        -0.28309E+08         0.00000E+00
    0.00000E+00         0.00000E+00        -0.86701E+07
 
   -0.72100E+07         0.50943E+06         0.00000E+00
    0.50943E+06        -0.28565E+08         0.00000E+00
    0.00000E+00         0.00000E+00        -0.86701E+07
 
   -0.73834E+07         0.66767E+06         0.00000E+00
    0.66767E+06        -0.28885E+08         0.00000E+00
    0.00000E+00         0.00000E+00        -0.86701E+07
 
   -0.75294E+07         0.82417E+06         0.00000E+00
    0.82417E+06        -0.29252E+08         0.00000E+00
    0.00000E+00         0.00000E+00        -0.86701E+07
 
   -0.76575E+07         0.97496E+06         0.00000E+00
    0.97496E+06        -0.29653E+08         0.00000E+00
    0.00000E+00         0.00000E+00        -0.86701E+07
 
   -0.77736E+07         0.11170E+07         0.00000E+00
    0.11170E+07        -0.30078E+08         0.00000E+00
    0.00000E+00         0.00000E+00        -0.86701E+07
 
   -0.78816E+07         0.12483E+07         0.00000E+00
    0.12483E+07        -0.30519E+08         0.00000E+00
    0.00000E+00         0.00000E+00        -0.86701E+07
 
   -0.79842E+07         0.13672E+07         0.00000E+00
    0.13672E+07        -0.30972E+08         0.00000E+00
    0.00000E+00         0.00000E+00        -0.86701E+07
 
   -0.80832E+07         0.14730E+07         0.00000E+00
    0.14730E+07        -0.31431E+08         0.00000E+00
    0.00000E+00         0.00000E+00        -0.86701E+07
 
   -0.81800E+07         0.15648E+07         0.00000E+00
    0.15648E+07        -0.31896E+08         0.00000E+00
    0.00000E+00         0.00000E+00        -0.86701E+07
 
   -0.82759E+07         0.16422E+07         0.00000E+00
    0.16422E+07        -0.32365E+08         0.00000E+00
    0.00000E+00         0.00000E+00        -0.86701E+07
 
   -0.83719E+07         0.17043E+07         0.00000E+00
    0.17043E+07        -0.32838E+08         0.00000E+00
    0.00000E+00         0.00000E+00        -0.86701E+07
 
   -0.84692E+07         0.17499E+07         0.00000E+00
    0.17499E+07        -0.33314E+08         0.00000E+00
    0.00000E+00         0.00000E+00        -0.86701E+07
 
   -0.85691E+07         0.17769E+07         0.00000E+00
    0.17769E+07        -0.33795E+08         0.00000E+00
    0.00000E+00         0.00000E+00        -0.86701E+07
 
   -0.86708E+07         0.17833E+07         0.00000E+00
    0.17833E+07        -0.34255E+08         0.00000E+00
    0.00000E+00         0.00000E+00        -0.86997E+07
 
   -0.87770E+07         0.18024E+07         0.00000E+00
    0.18024E+07        -0.34660E+08         0.00000E+00
    0.00000E+00         0.00000E+00        -0.88064E+07
 
   -0.88869E+07         0.18100E+07         0.00000E+00
    0.18100E+07        -0.35048E+08         0.00000E+00
    0.00000E+00         0.00000E+00        -0.89430E+07
 
   -0.90023E+07         0.18118E+07         0.00000E+00
    0.18118E+07        -0.35439E+08         0.00000E+00
    0.00000E+00         0.00000E+00        -0.90736E+07
 
   -0.91208E+07         0.18118E+07         0.00000E+00
    0.18118E+07        -0.35828E+08         0.00000E+00
    0.00000E+00         0.00000E+00        -0.91985E+07
 
   -0.92398E+07         0.18112E+07         0.00000E+00
    0.18112E+07        -0.36214E+08         0.00000E+00
    0.00000E+00         0.00000E+00        -0.93181E+07
 
   -0.93576E+07         0.18107E+07         0.00000E+00
    0.18107E+07        -0.36598E+08         0.00000E+00
    0.00000E+00         0.00000E+00        -0.94325E+07
 
   -0.94732E+07         0.18102E+07         0.00000E+00
    0.18102E+07        -0.36980E+08         0.00000E+00
    0.00000E+00         0.00000E+00        -0.95422E+07
 
   -0.95864E+07         0.18096E+07         0.00000E+00
    0.18096E+07        -0.37359E+08         0.00000E+00
    0.00000E+00         0.00000E+00        -0.96475E+07
 
   -0.96968E+07         0.18088E+07         0.00000E+00
    0.18088E+07        -0.37735E+08         0.00000E+00
    0.00000E+00         0.00000E+00        -0.97486E+07
 
   -0.98045E+07         0.18073E+07         0.00000E+00
    0.18073E+07        -0.38108E+08         0.00000E+00
    0.00000E+00         0.00000E+00        -0.98458E+07
 
   -0.99095E+07         0.18049E+07         0.00000E+00
    0.18049E+07        -0.38479E+08         0.00000E+00
    0.00000E+00         0.00000E+00        -0.99394E+07
 
   -0.10012E+08         0.18013E+07         0.00000E+00
    0.18013E+07        -0.38847E+08         0.00000E+00
    0.00000E+00         0.00000E+00        -0.10029E+08
 
   -0.10112E+08         0.17963E+07         0.00000E+00
    0.17963E+07        -0.39212E+08         0.00000E+00
    0.00000E+00         0.00000E+00        -0.10116E+08
 
   -0.10211E+08         0.17895E+07         0.00000E+00
    0.17895E+07        -0.39577E+08         0.00000E+00
    0.00000E+00         0.00000E+00        -0.10200E+08
 
   -0.10307E+08         0.17809E+07         0.00000E+00
    0.17809E+07        -0.39939E+08         0.00000E+00
    0.00000E+00         0.00000E+00        -0.10281E+08
 
   -0.10402E+08         0.17701E+07         0.00000E+00
    0.17701E+07        -0.40301E+08         0.00000E+00
    0.00000E+00         0.00000E+00        -0.10360E+08
 
   -0.10497E+08         0.17571E+07         0.00000E+00
    0.17571E+07        -0.40663E+08         0.00000E+00
    0.00000E+00         0.00000E+00        -0.10436E+08
 
   -0.10591E+08         0.17421E+07         0.00000E+00
    0.17421E+07        -0.41025E+08         0.00000E+00
    0.00000E+00         0.00000E+00        -0.10510E+08
 
   -0.10685E+08         0.17258E+07         0.00000E+00
    0.17258E+07        -0.41388E+08         0.00000E+00
    0.00000E+00         0.00000E+00        -0.10581E+08
 
   -0.10779E+08         0.17088E+07         0.00000E+00
    0.17088E+07        -0.41748E+08         0.00000E+00
    0.00000E+00         0.00000E+00        -0.10656E+08
 
   -0.10874E+08         0.16874E+07         0.00000E+00
    0.16874E+07        -0.42084E+08         0.00000E+00
    0.00000E+00         0.00000E+00        -0.10758E+08
 
   -0.10971E+08         0.16668E+07         0.00000E+00
    0.16668E+07        -0.42407E+08         0.00000E+00
    0.00000E+00         0.00000E+00        -0.10876E+08
 
   -0.11068E+08         0.16472E+07         0.00000E+00
    0.16472E+07        -0.42732E+08         0.00000E+00
    0.00000E+00         0.00000E+00        -0.10991E+08
 
   -0.11168E+08         0.16292E+07         0.00000E+00
    0.16292E+07        -0.43058E+08         0.00000E+00
    0.00000E+00         0.00000E+00        -0.11106E+08
 
   -0.11268E+08         0.16129E+07         0.00000E+00
    0.16129E+07        -0.43384E+08         0.00000E+00
    0.00000E+00         0.00000E+00        -0.11219E+08
 
   -0.11370E+08         0.15984E+07         0.00000E+00
    0.15984E+07        -0.43710E+08         0.00000E+00
    0.00000E+00         0.00000E+00        -0.11330E+08
 
   -0.11472E+08         0.15855E+07         0.00000E+00
    0.15855E+07        -0.44036E+08         0.00000E+00
    0.00000E+00         0.00000E+00        -0.11441E+08
 
   -0.11574E+08         0.15740E+07         0.00000E+00
    0.15740E+07        -0.44361E+08         0.00000E+00
    0.00000E+00         0.00000E+00        -0.11550E+08
 
   -0.11677E+08         0.15638E+07         0.00000E+00
    0.15638E+07        -0.44685E+08         0.00000E+00
    0.00000E+00         0.00000E+00        -0.11659E+08
 
   -0.11780E+08         0.15545E+07         0.00000E+00
    0.15545E+07        -0.45008E+08         0.00000E+00
    0.00000E+00         0.00000E+00        -0.11766E+08
 
   -0.11886E+08         0.15458E+07         0.00000E+00
    0.15458E+07        -0.45327E+08         0.00000E+00
    0.00000E+00         0.00000E+00        -0.11877E+08
 
   -0.12010E+08         0.15362E+07         0.00000E+00
    0.15362E+07        -0.45629E+08         0.00000E+00
    0.00000E+00         0.00000E+00        -0.12004E+08
 
   -0.12143E+08         0.15264E+07         0.00000E+00
    0.15264E+07        -0.45921E+08         0.00000E+00
    0.00000E+00         0.00000E+00        -0.12140E+08
 
   -0.12277E+08         0.15171E+07         0.00000E+00
    0.15171E+07        -0.46213E+08         0.00000E+00
    0.00000E+00         0.00000E+00        -0.12276E+08
 
   -0.12410E+08         0.15083E+07         0.00000E+00
    0.15083E+07        -0.46504E+08         0.00000E+00
    0.00000E+00         0.00000E+00        -0.12411E+08
 
   -0.12543E+08         0.14997E+07         0.00000E+00
    0.14997E+07        -0.46795E+08         0.00000E+00
    0.00000E+00         0.00000E+00        -0.12546E+08
 
   -0.12677E+08         0.14915E+07         0.00000E+00
    0.14915E+07        -0.47085E+08         0.00000E+00
    0.00000E+00         0.00000E+00        -0.12680E+08
 
   -0.12810E+08         0.14835E+07         0.00000E+00
    0.14835E+07        -0.47375E+08         0.00000E+00
    0.00000E+00         0.00000E+00        -0.12814E+08
 
   -0.12943E+08         0.14756E+07         0.00000E+00
    0.14756E+07        -0.47664E+08         0.00000E+00
    0.00000E+00         0.00000E+00        -0.12948E+08
 
   -0.13077E+08         0.14679E+07         0.00000E+00
    0.14679E+07        -0.47954E+08         0.00000E+00
    0.00000E+00         0.00000E+00        -0.13082E+08
 
   -0.13211E+08         0.14603E+07         0.00000E+00
    0.14603E+07        -0.48244E+08         0.00000E+00
    0.00000E+00         0.00000E+00        -0.13216E+08
 
   -0.13344E+08         0.14528E+07         0.00000E+00
    0.14528E+07        -0.48534E+08         0.00000E+00
    0.00000E+00         0.00000E+00        -0.13350E+08
 
   -0.13479E+08         0.14453E+07         0.00000E+00
    0.14453E+07        -0.48824E+08         0.00000E+00
    0.00000E+00         0.00000E+00        -0.13484E+08
 
   -0.13613E+08         0.14377E+07         0.00000E+00
    0.14377E+07        -0.49115E+08         0.00000E+00
    0.00000E+00         0.00000E+00        -0.13618E+08
 
   -0.13748E+08         0.14302E+07         0.00000E+00
    0.14302E+07        -0.49406E+08         0.00000E+00
    0.00000E+00         0.00000E+00        -0.13753E+08
 
   -0.13884E+08         0.14225E+07         0.00000E+00
    0.14225E+07        -0.49699E+08         0.00000E+00
    0.00000E+00         0.00000E+00        -0.13887E+08
 
   -0.14020E+08         0.14147E+07         0.00000E+00
    0.14147E+07        -0.49992E+08         0.00000E+00
    0.00000E+00         0.00000E+00        -0.14022E+08
 
   -0.14157E+08         0.14067E+07         0.00000E+00
    0.14067E+07        -0.50286E+08         0.00000E+00
    0.00000E+00         0.00000E+00        -0.14157E+08
 
   -0.14294E+08         0.13985E+07         0.00000E+00
    0.13985E+07        -0.50582E+08         0.00000E+00
    0.00000E+00         0.00000E+00        -0.14293E+08
 
   -0.14432E+08         0.13900E+07         0.00000E+00
    0.13900E+07        -0.50879E+08         0.00000E+00
    0.00000E+00         0.00000E+00        -0.14429E+08
 
   -0.14572E+08         0.13813E+07         0.00000E+00
    0.13813E+07        -0.51177E+08         0.00000E+00
    0.00000E+00         0.00000E+00        -0.14566E+08
 
   -0.14712E+08         0.13721E+07         0.00000E+00
    0.13721E+07        -0.51477E+08         0.00000E+00
    0.00000E+00         0.00000E+00        -0.14703E+08
 
   -0.14853E+08         0.13624E+07         0.00000E+00
    0.13624E+07        -0.51779E+08         0.00000E+00
    0.00000E+00         0.00000E+00        -0.14840E+08
 
   -0.14996E+08         0.13523E+07         0.00000E+00
    0.13523E+07        -0.52083E+08         0.00000E+00
    0.00000E+00         0.00000E+00        -0.14978E+08
 
   -0.15139E+08         0.13414E+07         0.00000E+00
    0.13414E+07        -0.52389E+08         0.00000E+00
    0.00000E+00         0.00000E+00        -0.15117E+08
 
   -0.15284E+08         0.13299E+07         0.00000E+00
    0.13299E+07        -0.52697E+08         0.00000E+00
    0.00000E+00         0.00000E+00        -0.15257E+08
 
   -0.15431E+08         0.13174E+07         0.00000E+00
    0.13174E+07        -0.53008E+08         0.00000E+00
    0.00000E+00         0.00000E+00        -0.15397E+08
 
   -0.15580E+08         0.13039E+07         0.00000E+00
    0.13039E+07        -0.53322E+08         0.00000E+00
    0.00000E+00         0.00000E+00        -0.15537E+08
 
   -0.15730E+08         0.12893E+07         0.00000E+00
    0.12893E+07        -0.53638E+08         0.00000E+00
    0.00000E+00         0.00000E+00        -0.15679E+08
 
   -0.15882E+08         0.12733E+07         0.00000E+00
    0.12733E+07        -0.53957E+08         0.00000E+00
    0.00000E+00         0.00000E+00        -0.15821E+08
 
   -0.16037E+08         0.12557E+07         0.00000E+00
    0.12557E+07        -0.54280E+08         0.00000E+00
    0.00000E+00         0.00000E+00        -0.15964E+08
 
   -0.16194E+08         0.12362E+07         0.00000E+00
    0.12362E+07        -0.54607E+08         0.00000E+00
    0.00000E+00         0.00000E+00        -0.16108E+08
 
   -0.16353E+08         0.12147E+07         0.00000E+00
    0.12147E+07        -0.54937E+08         0.00000E+00
    0.00000E+00         0.00000E+00        -0.16253E+08
 
   -0.16515E+08         0.11908E+07         0.00000E+00
    0.11908E+07        -0.55272E+08         0.00000E+00
    0.00000E+00         0.00000E+00        -0.16399E+08
 
   -0.16680E+08         0.11642E+07         0.00000E+00
    0.11642E+07        -0.55611E+08         0.00000E+00
    0.00000E+00         0.00000E+00        -0.16546E+08
 
   -0.16848E+08         0.11346E+07         0.00000E+00
    0.11346E+07        -0.55956E+08         0.00000E+00
    0.00000E+00         0.00000E+00        -0.16694E+08
 
   -0.17020E+08         0.11016E+07         0.00000E+00
    0.11016E+07        -0.56305E+08         0.00000E+00
    0.00000E+00         0.00000E+00        -0.16844E+08
 
   -0.17194E+08         0.10650E+07         0.00000E+00
    0.10650E+07        -0.56659E+08         0.00000E+00
    0.00000E+00         0.00000E+00        -0.16995E+08
 
   -0.17371E+08         0.10245E+07         0.00000E+00
    0.10245E+07        -0.57019E+08         0.00000E+00
    0.00000E+00         0.00000E+00        -0.17148E+08
 
   -0.17552E+08         0.97969E+06         0.00000E+00
    0.97969E+06        -0.57384E+08         0.00000E+00
    0.00000E+00         0.00000E+00        -0.17302E+08
 
   -0.17735E+08         0.93050E+06         0.00000E+00
    0.93050E+06        -0.57754E+08         0.00000E+00
    0.00000E+00         0.00000E+00        -0.17458E+08
 
   -0.17920E+08         0.87679E+06         0.00000E+00
    0.87679E+06        -0.58127E+08         0.00000E+00
    0.00000E+00         0.00000E+00        -0.17615E+08
 
   -0.18107E+08         0.81856E+06         0.00000E+00
    0.81856E+06        -0.58503E+08         0.00000E+00
    0.00000E+00         0.00000E+00        -0.17774E+08
 
   -0.18294E+08         0.75589E+06         0.00000E+00
    0.75589E+06        -0.58880E+08         0.00000E+00
    0.00000E+00         0.00000E+00        -0.17932E+08
 
   -0.18481E+08         0.68898E+06         0.00000E+00
    0.68898E+06        -0.59254E+08         0.00000E+00
    0.00000E+00         0.00000E+00        -0.18088E+08
 
   -0.18668E+08         0.61809E+06         0.00000E+00
    0.61809E+06        -0.59623E+08         0.00000E+00
    0.00000E+00         0.00000E+00        -0.18240E+08
 
   -0.18855E+08         0.54333E+06         0.00000E+00
    0.54333E+06        -0.59981E+08         0.00000E+00
    0.00000E+00         0.00000E+00        -0.18383E+08
 
   -0.19042E+08         0.46455E+06         0.00000E+00
    0.46455E+06        -0.60324E+08         0.00000E+00
    0.00000E+00         0.00000E+00        -0.18511E+08
 
   -0.19232E+08         0.38119E+06         0.00000E+00
    0.38119E+06        -0.60644E+08         0.00000E+00
    0.00000E+00         0.00000E+00        -0.18616E+08
 
   -0.19432E+08         0.29323E+06         0.00000E+00
    0.29323E+06        -0.60935E+08         0.00000E+00
    0.00000E+00         0.00000E+00        -0.18686E+08
 
   -0.19653E+08         0.20342E+06         0.00000E+00
    0.20342E+06        -0.61197E+08         0.00000E+00
    0.00000E+00         0.00000E+00        -0.18710E+08
 
   -0.19907E+08         0.11737E+06         0.00000E+00
    0.11737E+06        -0.61433E+08         0.00000E+00
    0.00000E+00         0.00000E+00        -0.18681E+08
 
   -0.20206E+08         0.38046E+05         0.00000E+00
    0.38046E+05        -0.61656E+08         0.00000E+00
    0.00000E+00         0.00000E+00        -0.18602E+08
 
   -0.62733E+07         0.59960E+05         0.00000E+00
    0.59960E+05        -0.28065E+08         0.00000E+00
    0.00000E+00         0.00000E+00        -0.86701E+07
 
   -0.66147E+07         0.18456E+06         0.00000E+00
    0.18456E+06        -0.28158E+08         0.00000E+00
    0.00000E+00         0.00000E+00        -0.86701E+07
 
   -0.68899E+07         0.31991E+06         0.00000E+00
    0.31991E+06        -0.28338E+08         0.00000E+00
    0.00000E+00         0.00000E+00        -0.86701E+07
 
   -0.71114E+07         0.46572E+06         0.00000E+00
    0.46572E+06        -0.28596E+08         0.00000E+00
    0.00000E+00         0.00000E+00        -0.86701E+07
 
   -0.72934E+07         0.61750E+06         0.00000E+00
    0.61750E+06        -0.28916E+08         0.00000E+00
    0.00000E+00         0.00000E+00        -0.86701E+07
 
   -0.74482E+07         0.76979E+06         0.00000E+00
    0.76979E+06        -0.29282E+08         0.00000E+00
    0.00000E+00         0.00000E+00        -0.86701E+07
 
   -0.75848E+07         0.91789E+06         0.00000E+00
    0.91789E+06        -0.29682E+08         0.00000E+00
    0.00000E+00         0.00000E+00        -0.86701E+07
 
   -0.77091E+07         0.10582E+07         0.00000E+00
    0.10582E+07        -0.30105E+08         0.00000E+00
    0.00000E+00         0.00000E+00        -0.86701E+07
 
   -0.78249E+07         0.11884E+07         0.00000E+00
    0.11884E+07        -0.30544E+08         0.00000E+00
    0.00000E+00         0.00000E+00        -0.86701E+07
 
   -0.79347E+07         0.13067E+07         0.00000E+00
    0.13067E+07        -0.30994E+08         0.00000E+00
    0.00000E+00         0.00000E+00        -0.86701E+07
 
   -0.80404E+07         0.14122E+07         0.00000E+00
    0.14122E+07        -0.31451E+08         0.00000E+00
    0.00000E+00         0.00000E+00        -0.86701E+07
 
   -0.81433E+07         0.15041E+07         0.00000E+00
    0.15041E+07        -0.31913E+08         0.00000E+00
    0.00000E+00         0.00000E+00        -0.86701E+07
 
   -0.82448E+07         0.15817E+07         0.00000E+00
    0.15817E+07        -0.32379E+08         0.00000E+00
    0.00000E+00         0.00000E+00        -0.86701E+07
 
   -0.83457E+07         0.16443E+07         0.00000E+00
    0.16443E+07        -0.32849E+08         0.00000E+00
    0.00000E+00         0.00000E+00        -0.86701E+07
 
   -0.84472E+07         0.16906E+07         0.00000E+00
    0.16906E+07        -0.33322E+08         0.00000E+00
    0.00000E+00         0.00000E+00        -0.86701E+07
 
   -0.85505E+07         0.17185E+07         0.00000E+00
    0.17185E+07        -0.33798E+08         0.00000E+00
    0.00000E+00         0.00000E+00        -0.86701E+07
 
   -0.86551E+07         0.17260E+07         0.00000E+00
    0.17260E+07        -0.34257E+08         0.00000E+00
    0.00000E+00         0.00000E+00        -0.86955E+07
 
   -0.87628E+07         0.17457E+07         0.00000E+00
    0.17457E+07        -0.34662E+08         0.00000E+00
    0.00000E+00         0.00000E+00        -0.87964E+07
 
   -0.88727E+07         0.17549E+07         0.00000E+00
    0.17549E+07        -0.35049E+08         0.00000E+00
    0.00000E+00         0.00000E+00        -0.89315E+07
 
   -0.89876E+07         0.17582E+07         0.00000E+00
    0.17582E+07        -0.35439E+08         0.00000E+00
    0.00000E+00         0.00000E+00        -0.90609E+07
 
   -0.91055E+07         0.17590E+07         0.00000E+00
    0.17590E+07        -0.35828E+08         0.00000E+00
    0.00000E+00         0.00000E+00        -0.91849E+07
 
   -0.92241E+07         0.17589E+07         0.00000E+00
    0.17589E+07        -0.36214E+08         0.00000E+00
    0.00000E+00         0.00000E+00        -0.93037E+07
 
   -0.93416E+07         0.17585E+07         0.00000E+00
    0.17585E+07        -0.36598E+08         0.00000E+00
    0.00000E+00         0.00000E+00        -0.94177E+07
 
   -0.94572E+07         0.17581E+07         0.00000E+00
    0.17581E+07        -0.36980E+08         0.00000E+00
    0.00000E+00         0.00000E+00        -0.95272E+07
 
   -0.95705E+07         0.17576E+07         0.00000E+00
    0.17576E+07        -0.37359E+08         0.00000E+00
    0.00000E+00         0.00000E+00        -0.96323E+07
 
   -0.96813E+07         0.17567E+07         0.00000E+00
    0.17567E+07        -0.37735E+08         0.00000E+00
    0.00000E+00         0.00000E+00        -0.97334E+07
 
   -0.97895E+07         0.17552E+07         0.00000E+00
    0.17552E+07        -0.38108E+08         0.00000E+00
    0.00000E+00         0.00000E+00        -0.98307E+07
 
   -0.98951E+07         0.17528E+07         0.00000E+00
    0.17528E+07        -0.38478E+08         0.00000E+00
    0.00000E+00         0.00000E+00        -0.99245E+07
 
   -0.99984E+07         0.17493E+07         0.00000E+00
    0.17493E+07        -0.38846E+08         0.00000E+00
    0.00000E+00         0.00000E+00        -0.10015E+08
 
   -0.10100E+08         0.17444E+07         0.00000E+00
    0.17444E+07        -0.39211E+08         0.00000E+00
    0.00000E+00         0.00000E+00        -0.10102E+08
 
   -0.10199E+08         0.17378E+07         0.00000E+00
    0.17378E+07        -0.39575E+08         0.00000E+00
    0.00000E+00         0.00000E+00        -0.10187E+08
 
   -0.10296E+08         0.17293E+07         0.00000E+00
    0.17293E+07        -0.39937E+08         0.00000E+00
    0.00000E+00         0.00000E+00        -0.10268E+08
 
   -0.10393E+08         0.17188E+07         0.00000E+00
    0.17188E+07        -0.40299E+08         0.00000E+00
    0.00000E+00         0.00000E+00        -0.10347E+08
 
   -0.10488E+08         0.17061E+07         0.00000E+00
    0.17061E+07        -0.40660E+08         0.00000E+00
    0.00000E+00         0.00000E+00        -0.10424E+08
 
   -0.10583E+08         0.16916E+07         0.00000E+00
    0.16916E+07        -0.41022E+08         0.00000E+00
    0.00000E+00         0.00000E+00        -0.10498E+08
 
   -0.10678E+08         0.16758E+07         0.00000E+00
    0.16758E+07        -0.41385E+08         0.00000E+00
    0.00000E+00         0.00000E+00        -0.10570E+08
 
   -0.10774E+08         0.16593E+07         0.00000E+00
    0.16593E+07        -0.41745E+08         0.00000E+00
    0.00000E+00         0.00000E+00        -0.10646E+08
 
   -0.10869E+08         0.16385E+07         0.00000E+00
    0.16385E+07        -0.42080E+08         0.00000E+00
    0.00000E+00         0.00000E+00        -0.10749E+08
 
   -0.10966E+08         0.16186E+07         0.00000E+00
    0.16186E+07        -0.42403E+08         0.00000E+00
    0.00000E+00         0.00000E+00        -0.10867E+08
 
   -0.11064E+08         0.15997E+07         0.00000E+00
    0.15997E+07        -0.42728E+08         0.00000E+00
    0.00000E+00         0.00000E+00        -0.10983E+08
 
   -0.11163E+08         0.15823E+07         0.00000E+00
    0.15823E+07        -0.43055E+08         0.00000E+00
    0.00000E+00         0.00000E+00        -0.11098E+08
 
   -0.11264E+08         0.15666E+07         0.00000E+00
    0.15666E+07        -0.43381E+08         0.00000E+00
    0.00000E+00         0.00000E+00        -0.11211E+08
 
   -0.11365E+08         0.15525E+07         0.00000E+00
    0.15525E+07        -0.43707E+08         0.00000E+00
    0.00000E+00         0.00000E+00        -0.11323E+08
 
   -0.11467E+08         0.15401E+07         0.00000E+00
    0.15401E+07        -0.44033E+08         0.00000E+00
    0.00000E+00         0.00000E+00        -0.11434E+08
 
   -0.11569E+08         0.15290E+07         0.00000E+00
    0.15290E+07        -0.44358E+08         0.00000E+00
    0.00000E+00         0.00000E+00        -0.11544E+08
 
   -0.11672E+08         0.15191E+07         0.00000E+00
    0.15191E+07        -0.44683E+08         0.00000E+00
    0.00000E+00         0.00000E+00        -0.11653E+08
 
   -0.11775E+08         0.15102E+07         0.00000E+00
    0.15102E+07        -0.45006E+08         0.00000E+00
    0.00000E+00         0.00000E+00        -0.11761E+08
 
   -0.11881E+08         0.15017E+07         0.00000E+00
    0.15017E+07        -0.45326E+08         0.00000E+00
    0.00000E+00         0.00000E+00        -0.11871E+08
 
   -0.12006E+08         0.14924E+07         0.00000E+00
    0.14924E+07        -0.45627E+08         0.00000E+00
    0.00000E+00         0.00000E+00        -0.11999E+08
 
   -0.12139E+08         0.14829E+07         0.00000E+00
    0.14829E+07        -0.45920E+08         0.00000E+00
    0.00000E+00         0.00000E+00        -0.12136E+08
 
   -0.12273E+08         0.14739E+07         0.00000E+00
    0.14739E+07        -0.46212E+08         0.00000E+00
    0.00000E+00         0.00000E+00        -0.12271E+08
 
   -0.12406E+08         0.14653E+07         0.00000E+00
    0.14653E+07        -0.46503E+08         0.00000E+00
    0.00000E+00         0.00000E+00        -0.12407E+08
 
   -0.12539E+08         0.14570E+07         0.00000E+00
    0.14570E+07        -0.46794E+08         0.00000E+00
    0.00000E+00         0.00000E+00        -0.12542E+08
 
   -0.12673E+08         0.14490E+07         0.00000E+00
    0.14490E+07        -0.47084E+08         0.00000E+00
    0.00000E+00         0.00000E+00        -0.12676E+08
 
   -0.12806E+08         0.14412E+07         0.00000E+00
    0.14412E+07        -0.47374E+08         0.00000E+00
    0.00000E+00         0.00000E+00        -0.12811E+08
 
   -0.12940E+08         0.14336E+07         0.00000E+00
    0.14336E+07        -0.47664E+08         0.00000E+00
    0.00000E+00         0.00000E+00        -0.12945E+08
 
   -0.13073E+08         0.14261E+07         0.00000E+00
    0.14261E+07        -0.47954E+08         0.00000E+00
    0.00000E+00         0.00000E+00        -0.13079E+08
 
   -0.13207E+08         0.14187E+07         0.00000E+00
    0.14187E+07        -0.48243E+08         0.00000E+00
    0.00000E+00         0.00000E+00        -0.13213E+08
 
   -0.13341E+08         0.14114E+07         0.00000E+00
    0.14114E+07        -0.48534E+08         0.00000E+00
    0.00000E+00         0.00000E+00        -0.13347E+08
 
   -0.13475E+08         0.14041E+07         0.00000E+00
    0.14041E+07        -0.48824E+08         0.00000E+00
    0.00000E+00         0.00000E+00        -0.13481E+08
 
   -0.13610E+08         0.13968E+07         0.00000E+00
    0.13968E+07        -0.49115E+08         0.00000E+00
    0.00000E+00         0.00000E+00        -0.13615E+08
 
   -0.13745E+08         0.13894E+07         0.00000E+00
    0.13894E+07        -0.49407E+08         0.00000E+00
    0.00000E+00         0.00000E+00        -0.13750E+08
 
   -0.13881E+08         0.13819E+07         0.00000E+00
    0.13819E+07        -0.49699E+08         0.00000E+00
    0.00000E+00         0.00000E+00        -0.13885E+08
 
   -0.14017E+08         0.13743E+07         0.00000E+00
    0.13743E+07        -0.49992E+08         0.00000E+00
    0.00000E+00         0.00000E+00        -0.14019E+08
 
   -0.14154E+08         0.13666E+07         0.00000E+00
    0.13666E+07        -0.50287E+08         0.00000E+00
    0.00000E+00         0.00000E+00        -0.14155E+08
 
   -0.14291E+08         0.13586E+07         0.00000E+00
    0.13586E+07        -0.50582E+08         0.00000E+00
    0.00000E+00         0.00000E+00        -0.14290E+08
 
   -0.14430E+08         0.13504E+07         0.00000E+00
    0.13504E+07        -0.50879E+08         0.00000E+00
    0.00000E+00         0.00000E+00        -0.14426E+08
 
   -0.14569E+08         0.13418E+07         0.00000E+00
    0.13418E+07        -0.51178E+08         0.00000E+00
    0.00000E+00         0.00000E+00        -0.14563E+08
 
   -0.14709E+08         0.13329E+07         0.00000E+00
    0.13329E+07        -0.51478E+08         0.00000E+00
    0.00000E+00         0.00000E+00        -0.14700E+08
 
   -0.14851E+08         0.13235E+07         0.00000E+00
    0.13235E+07        -0.51780E+08         0.00000E+00
    0.00000E+00         0.00000E+00        -0.14837E+08
 
   -0.14993E+08         0.13136E+07         0.00000E+00
    0.13136E+07        -0.52083E+08         0.00000E+00
    0.00000E+00         0.00000E+00        -0.14976E+08
 
   -0.15137E+08         0.13031E+07         0.00000E+00
    0.13031E+07        -0.52389E+08         0.00000E+00
    0.00000E+00         0.00000E+00        -0.15114E+08
 
   -0.15283E+08         0.12919E+07         0.00000E+00
    0.12919E+07        -0.52697E+08         0.00000E+00
    0.00000E+00         0.00000E+00        -0.15253E+08
 
   -0.15429E+08         0.12798E+07         0.00000E+00
    0.12798E+07        -0.53008E+08         0.00000E+00
    0.00000E+00         0.00000E+00        -0.15393E+08
 
   -0.15578E+08         0.12667E+07         0.00000E+00
    0.12667E+07        -0.53321E+08         0.00000E+00
    0.00000E+00         0.00000E+00        -0.15534E+08
 
   -0.15729E+08         0.12525E+07         0.00000E+00
    0.12525E+07        -0.53637E+08         0.00000E+00
    0.00000E+00         0.00000E+00        -0.15675E+08
 
   -0.15881E+08         0.12369E+07         0.00000E+00
    0.12369E+07        -0.53956E+08         0.00000E+00
    0.00000E+00         0.00000E+00        -0.15817E+08
 
   -0.16036E+08         0.12197E+07         0.00000E+00
    0.12197E+07        -0.54279E+08         0.00000E+00
    0.00000E+00         0.00000E+00        -0.15959E+08
 
   -0.16193E+08         0.12008E+07         0.00000E+00
    0.12008E+07        -0.54605E+08         0.00000E+00
    0.00000E+00         0.00000E+00        -0.16103E+08
 
   -0.16353E+08         0.11799E+07         0.00000E+00
    0.11799E+07        -0.54935E+08         0.00000E+00
    0.00000E+00         0.00000E+00        -0.16247E+08
 
   -0.16515E+08         0.11566E+07         0.00000E+00
    0.11566E+07        -0.55269E+08         0.00000E+00
    0.00000E+00         0.00000E+00        -0.16392E+08
 
   -0.16681E+08         0.11306E+07         0.00000E+00
    0.11306E+07        -0.55608E+08         0.00000E+00
    0.00000E+00         0.00000E+00        -0.16538E+08
 
   -0.16849E+08         0.11016E+07         0.00000E+00
    0.11016E+07        -0.55951E+08         0.00000E+00
    0.00000E+00         0.00000E+00        -0.16686E+08
 
   -0.17021E+08         0.10694E+07         0.00000E+00
    0.10694E+07        -0.56299E+08         0.00000E+00
    0.00000E+00         0.00000E+00        -0.16834E+08
 
   -0.17196E+08         0.10334E+07         0.00000E+00
    0.10334E+07        -0.56653E+08         0.00000E+00
    0.00000E+00         0.00000E+00        -0.16984E+08
 
   -0.17374E+08         0.99352E+06         0.00000E+00
    0.99352E+06        -0.57012E+08         0.00000E+00
    0.00000E+00         0.00000E+00        -0.17135E+08
 
   -0.17555E+08         0.94933E+06         0.00000E+00
    0.94933E+06        -0.57375E+08         0.00000E+00
    0.00000E+00         0.00000E+00        -0.17288E+08
 
   -0.17738E+08         0.90066E+06         0.00000E+00
    0.90066E+06        -0.57744E+08         0.00000E+00
    0.00000E+00         0.00000E+00        -0.17443E+08
 
   -0.17925E+08         0.84734E+06         0.00000E+00
    0.84734E+06        -0.58116E+08         0.00000E+00
    0.00000E+00         0.00000E+00        -0.17598E+08
 
   -0.18112E+08         0.78935E+06         0.00000E+00
    0.78935E+06        -0.58491E+08         0.00000E+00
    0.00000E+00         0.00000E+00        -0.17754E+08
 
   -0.18301E+08         0.72675E+06         0.00000E+00
    0.72675E+06        -0.58866E+08         0.00000E+00
    0.00000E+00         0.00000E+00        -0.17910E+08
 
   -0.18490E+08         0.65977E+06         0.00000E+00
    0.65977E+06        -0.59240E+08         0.00000E+00
    0.00000E+00         0.00000E+00        -0.18064E+08
 
   -0.18679E+08         0.58871E+06         0.00000E+00
    0.58871E+06        -0.59608E+08         0.00000E+00
    0.00000E+00         0.00000E+00        -0.18214E+08
 
   -0.18868E+08         0.51386E+06         0.00000E+00
    0.51386E+06        -0.59965E+08         0.00000E+00
    0.00000E+00         0.00000E+00        -0.18354E+08
 
   -0.19058E+08         0.43541E+06         0.00000E+00
    0.43541E+06        -0.60307E+08         0.00000E+00
    0.00000E+00         0.00000E+00        -0.18479E+08
 
   -0.19252E+08         0.35338E+06         0.00000E+00
    0.35338E+06        -0.60627E+08         0.00000E+00
    0.00000E+00         0.00000E+00        -0.18581E+08
 
   -0.19456E+08         0.26861E+06         0.00000E+00
    0.26861E+06        -0.60918E+08         0.00000E+00
    0.00000E+00         0.00000E+00        -0.18647E+08
 
   -0.19682E+08         0.18435E+06         0.00000E+00
    0.18435E+06        -0.61181E+08         0.00000E+00
    0.00000E+00         0.00000E+00        -0.18668E+08
 
   -0.19941E+08         0.10563E+06         0.00000E+00
    0.10563E+06        -0.61419E+08         0.00000E+00
    0.00000E+00         0.00000E+00        -0.18637E+08
 
   -0.20242E+08         0.34144E+05         0.00000E+00
    0.34144E+05        -0.61643E+08         0.00000E+00
    0.00000E+00         0.00000E+00        -0.18557E+08
 
   -0.61607E+07         0.52673E+05         0.00000E+00
    0.52673E+05        -0.28088E+08         0.00000E+00
    0.00000E+00         0.00000E+00        -0.86701E+07
 
   -0.65047E+07         0.16340E+06         0.00000E+00
    0.16340E+06        -0.28182E+08         0.00000E+00
    0.00000E+00         0.00000E+00        -0.86701E+07
 
   -0.67850E+07         0.28688E+06         0.00000E+00
    0.28688E+06        -0.28365E+08         0.00000E+00
    0.00000E+00         0.00000E+00        -0.86701E+07
 
   -0.70135E+07         0.42360E+06         0.00000E+00
    0.42360E+06        -0.28625E+08         0.00000E+00
    0.00000E+00         0.00000E+00        -0.86701E+07
 
   -0.72036E+07         0.56904E+06         0.00000E+00
    0.56904E+06        -0.28946E+08         0.00000E+00
    0.00000E+00         0.00000E+00        -0.86701E+07
 
   -0.73669E+07         0.71715E+06         0.00000E+00
    0.71715E+06        -0.29312E+08         0.00000E+00
    0.00000E+00         0.00000E+00        -0.86701E+07
 
   -0.75121E+07         0.86250E+06         0.00000E+00
    0.86250E+06        -0.29711E+08         0.00000E+00
    0.00000E+00         0.00000E+00        -0.86701E+07
 
   -0.76446E+07         0.10010E+07         0.00000E+00
    0.10010E+07        -0.30132E+08         0.00000E+00
    0.00000E+00         0.00000E+00        -0.86701E+07
 
   -0.77681E+07         0.11300E+07         0.00000E+00
    0.11300E+07        -0.30569E+08         0.00000E+00
    0.00000E+00         0.00000E+00        -0.86701E+07
 
   -0.78851E+07         0.12476E+07         0.00000E+00
    0.12476E+07        -0.31017E+08         0.00000E+00
    0.00000E+00         0.00000E+00        -0.86701E+07
 
   -0.79974E+07         0.13527E+07         0.00000E+00
    0.13527E+07        -0.31471E+08         0.00000E+00
    0.00000E+00         0.00000E+00        -0.86701E+07
 
   -0.81064E+07         0.14445E+07         0.00000E+00
    0.14445E+07        -0.31930E+08         0.00000E+00
    0.00000E+00         0.00000E+00        -0.86701E+07
 
   -0.82133E+07         0.15222E+07         0.00000E+00
    0.15222E+07        -0.32393E+08         0.00000E+00
    0.00000E+00         0.00000E+00        -0.86701E+07
 
   -0.83191E+07         0.15851E+07         0.00000E+00
    0.15851E+07        -0.32860E+08         0.00000E+00
    0.00000E+00         0.00000E+00        -0.86701E+07
 
   -0.84247E+07         0.16320E+07         0.00000E+00
    0.16320E+07        -0.33329E+08         0.00000E+00
    0.00000E+00         0.00000E+00        -0.86701E+07
 
   -0.85314E+07         0.16608E+07         0.00000E+00
    0.16608E+07        -0.33802E+08         0.00000E+00
    0.00000E+00         0.00000E+00        -0.86701E+07
 
   -0.86390E+07         0.16692E+07         0.00000E+00
    0.16692E+07        -0.34259E+08         0.00000E+00
    0.00000E+00         0.00000E+00        -0.86915E+07
 
   -0.87484E+07         0.16892E+07         0.00000E+00
    0.16892E+07        -0.34665E+08         0.00000E+00
    0.00000E+00         0.00000E+00        -0.87867E+07
 
   -0.88587E+07         0.16998E+07         0.00000E+00
    0.16998E+07        -0.35050E+08         0.00000E+00
    0.00000E+00         0.00000E+00        -0.89203E+07
 
   -0.89732E+07         0.17045E+07         0.00000E+00
    0.17045E+07        -0.35439E+08         0.00000E+00
    0.00000E+00         0.00000E+00        -0.90485E+07
 
   -0.90908E+07         0.17062E+07         0.00000E+00
    0.17062E+07        -0.35828E+08         0.00000E+00
    0.00000E+00         0.00000E+00        -0.91715E+07
 
   -0.92090E+07         0.17065E+07         0.00000E+00
    0.17065E+07        -0.36214E+08         0.00000E+00
    0.00000E+00         0.00000E+00        -0.92897E+07
 
   -0.93262E+07         0.17064E+07         0.00000E+00
    0.17064E+07        -0.36598E+08         0.00000E+00
    0.00000E+00         0.00000E+00        -0.94032E+07
 
   -0.94418E+07         0.17061E+07         0.00000E+00
    0.17061E+07        -0.36980E+08         0.00000E+00
    0.00000E+00         0.00000E+00        -0.95123E+07
 
   -0.95552E+07         0.17056E+07         0.00000E+00
    0.17056E+07        -0.37358E+08         0.00000E+00
    0.00000E+00         0.00000E+00        -0.96173E+07
 
   -0.96663E+07         0.17047E+07         0.00000E+00
    0.17047E+07        -0.37734E+08         0.00000E+00
    0.00000E+00         0.00000E+00        -0.97184E+07
 
   -0.97750E+07         0.17032E+07         0.00000E+00
    0.17032E+07        -0.38107E+08         0.00000E+00
    0.00000E+00         0.00000E+00        -0.98159E+07
 
   -0.98812E+07         0.17009E+07         0.00000E+00
    0.17009E+07        -0.38477E+08         0.00000E+00
    0.00000E+00         0.00000E+00        -0.99099E+07
 
   -0.99852E+07         0.16975E+07         0.00000E+00
    0.16975E+07        -0.38845E+08         0.00000E+00
    0.00000E+00         0.00000E+00        -0.10001E+08
 
   -0.10087E+08         0.16926E+07         0.00000E+00
    0.16926E+07        -0.39210E+08         0.00000E+00
    0.00000E+00         0.00000E+00        -0.10088E+08
 
   -0.10187E+08         0.16862E+07         0.00000E+00
    0.16862E+07        -0.39574E+08         0.00000E+00
    0.00000E+00         0.00000E+00        -0.10173E+08
 
   -0.10286E+08         0.16780E+07         0.00000E+00
    0.16780E+07        -0.39935E+08         0.00000E+00
    0.00000E+00         0.00000E+00        -0.10255E+08
 
   -0.10383E+08         0.16677E+07         0.00000E+00
    0.16677E+07        -0.40296E+08         0.00000E+00
    0.00000E+00         0.00000E+00        -0.10335E+08
 
   -0.10480E+08         0.16554E+07         0.00000E+00
    0.16554E+07        -0.40657E+08         0.00000E+00
    0.00000E+00         0.00000E+00        -0.10412E+08
 
   -0.10576E+08         0.16413E+07         0.00000E+00
    0.16413E+07        -0.41019E+08         0.00000E+00
    0.00000E+00         0.00000E+00        -0.10486E+08
 
   -0.10672E+08         0.16260E+07         0.00000E+00
    0.16260E+07        -0.41382E+08         0.00000E+00
    0.00000E+00         0.00000E+00        -0.10559E+08
 
   -0.10768E+08         0.16099E+07         0.00000E+00
    0.16099E+07        -0.41741E+08         0.00000E+00
    0.00000E+00         0.00000E+00        -0.10636E+08
 
   -0.10864E+08         0.15897E+07         0.00000E+00
    0.15897E+07        -0.42076E+08         0.00000E+00
    0.00000E+00         0.00000E+00        -0.10740E+08
 
   -0.10961E+08         0.15704E+07         0.00000E+00
    0.15704E+07        -0.42399E+08         0.00000E+00
    0.00000E+00         0.00000E+00        -0.10858E+08
 
   -0.11059E+08         0.15522E+07         0.00000E+00
    0.15522E+07        -0.42725E+08         0.00000E+00
    0.00000E+00         0.00000E+00        -0.10975E+08
 
   -0.11159E+08         0.15354E+07         0.00000E+00
    0.15354E+07        -0.43051E+08         0.00000E+00
    0.00000E+00         0.00000E+00        -0.11090E+08
 
   -0.11259E+08         0.15203E+07         0.00000E+00
    0.15203E+07        -0.43378E+08         0.00000E+00
    0.00000E+00         0.00000E+00        -0.11204E+08
 
   -0.11360E+08         0.15067E+07         0.00000E+00
    0.15067E+07        -0.43705E+08         0.00000E+00
    0.00000E+00         0.00000E+00        -0.11316E+08
 
   -0.11462E+08         0.14947E+07         0.00000E+00
    0.14947E+07        -0.44031E+08         0.00000E+00
    0.00000E+00         0.00000E+00        -0.11427E+08
 
   -0.11565E+08         0.14840E+07         0.00000E+00
    0.14840E+07        -0.44356E+08         0.00000E+00
    0.00000E+00         0.00000E+00        -0.11538E+08
 
   -0.11667E+08         0.14744E+07         0.00000E+00
    0.14744E+07        -0.44681E+08         0.00000E+00
    0.00000E+00         0.00000E+00        -0.11647E+08
 
   -0.11770E+08         0.14658E+07         0.00000E+00
    0.14658E+07        -0.45005E+08         0.00000E+00
    0.00000E+00         0.00000E+00        -0.11755E+08
 
   -0.11877E+08         0.14576E+07         0.00000E+00
    0.14576E+07        -0.45324E+08         0.00000E+00
    0.00000E+00         0.00000E+00        -0.11866E+08
 
   -0.12002E+08         0.14486E+07         0.00000E+00
    0.14486E+07        -0.45626E+08         0.00000E+00
    0.00000E+00         0.00000E+00        -0.11995E+08
 
   -0.12135E+08         0.14394E+07         0.00000E+00
    0.14394E+07        -0.45919E+08         0.00000E+00
    0.00000E+00         0.00000E+00        -0.12131E+08
 
   -0.12269E+08         0.14306E+07         0.00000E+00
    0.14306E+07        -0.46211E+08         0.00000E+00
    0.00000E+00         0.00000E+00        -0.12267E+08
 
   -0.12402E+08         0.14223E+07         0.00000E+00
    0.14223E+07        -0.46502E+08         0.00000E+00
    0.00000E+00         0.00000E+00        -0.12403E+08
 
   -0.12535E+08         0.14143E+07         0.00000E+00
    0.14143E+07        -0.46793E+08         0.00000E+00
    0.00000E+00         0.00000E+00        -0.12538E+08
 
   -0.12669E+08         0.14065E+07         0.00000E+00
    0.14065E+07        -0.47083E+08         0.00000E+00
    0.00000E+00         0.00000E+00        -0.12673E+08
 
   -0.12802E+08         0.13990E+07         0.00000E+00
    0.13990E+07        -0.47373E+08         0.00000E+00
    0.00000E+00         0.00000E+00        -0.12807E+08
 
   -0.12936E+08         0.13916E+07         0.00000E+00
    0.13916E+07        -0.47663E+08         0.00000E+00
    0.00000E+00         0.00000E+00        -0.12942E+08
 
   -0.13070E+08         0.13843E+07         0.00000E+00
    0.13843E+07        -0.47953E+08         0.00000E+00
    0.00000E+00         0.00000E+00        -0.13076E+08
 
   -0.13204E+08         0.13771E+07         0.00000E+00
    0.13771E+07        -0.48243E+08         0.00000E+00
    0.00000E+00         0.00000E+00        -0.13210E+08
 
   -0.13338E+08         0.13700E+07         0.00000E+00
    0.13700E+07        -0.48534E+08         0.00000E+00
    0.00000E+00         0.00000E+00        -0.13344E+08
 
   -0.13472E+08         0.13629E+07         0.00000E+00
    0.13629E+07        -0.48824E+08         0.00000E+00
    0.00000E+00         0.00000E+00        -0.13478E+08
 
   -0.13607E+08         0.13558E+07         0.00000E+00
    0.13558E+07        -0.49115E+08         0.00000E+00
    0.00000E+00         0.00000E+00        -0.13613E+08
 
   -0.13742E+08         0.13487E+07         0.00000E+00
    0.13487E+07        -0.49407E+08         0.00000E+00
    0.00000E+00         0.00000E+00        -0.13747E+08
 
   -0.13878E+08         0.13414E+07         0.00000E+00
    0.13414E+07        -0.49699E+08         0.00000E+00
    0.00000E+00         0.00000E+00        -0.13882E+08
 
   -0.14014E+08         0.13340E+07         0.00000E+00
    0.13340E+07        -0.49993E+08         0.00000E+00
    0.00000E+00         0.00000E+00        -0.14017E+08
 
   -0.14151E+08         0.13265E+07         0.00000E+00
    0.13265E+07        -0.50287E+08         0.00000E+00
    0.00000E+00         0.00000E+00        -0.14152E+08
 
   -0.14289E+08         0.13188E+07         0.00000E+00
    0.13188E+07        -0.50583E+08         0.00000E+00
    0.00000E+00         0.00000E+00        -0.14288E+08
 
   -0.14427E+08         0.13108E+07         0.00000E+00
    0.13108E+07        -0.50880E+08         0.00000E+00
    0.00000E+00         0.00000E+00        -0.14424E+08
 
   -0.14567E+08         0.13025E+07         0.00000E+00
    0.13025E+07        -0.51178E+08         0.00000E+00
    0.00000E+00         0.00000E+00        -0.14560E+08
 
   -0.14707E+08         0.12938E+07         0.00000E+00
    0.12938E+07        -0.51478E+08         0.00000E+00
    0.00000E+00         0.00000E+00        -0.14697E+08
 
   -0.14849E+08         0.12847E+07         0.00000E+00
    0.12847E+07        -0.51780E+08         0.00000E+00
    0.00000E+00         0.00000E+00        -0.14835E+08
 
   -0.14991E+08         0.12751E+07         0.00000E+00
    0.12751E+07        -0.52084E+08         0.00000E+00
    0.00000E+00         0.00000E+00        -0.14973E+08
 
   -0.15135E+08         0.12648E+07         0.00000E+00
    0.12648E+07        -0.52390E+08         0.00000E+00
    0.00000E+00         0.00000E+00        -0.15111E+08
 
   -0.15281E+08         0.12539E+07         0.00000E+00
    0.12539E+07        -0.52698E+08         0.00000E+00
    0.00000E+00         0.00000E+00        -0.15250E+08
 
   -0.15428E+08         0.12422E+07         0.00000E+00
    0.12422E+07        -0.53008E+08         0.00000E+00
    0.00000E+00         0.00000E+00        -0.15390E+08
 
   -0.15577E+08         0.12295E+07         0.00000E+00
    0.12295E+07        -0.53321E+08         0.00000E+00
    0.00000E+00         0.00000E+00        -0.15530E+08
 
   -0.15727E+08         0.12156E+07         0.00000E+00
    0.12156E+07        -0.53637E+08         0.00000E+00
    0.00000E+00         0.00000E+00        -0.15671E+08
 
   -0.15880E+08         0.12005E+07         0.00000E+00
    0.12005E+07        -0.53955E+08         0.00000E+00
    0.00000E+00         0.00000E+00        -0.15812E+08
 
   -0.16035E+08         0.11839E+07         0.00000E+00
    0.11839E+07        -0.54277E+08         0.00000E+00
    0.00000E+00         0.00000E+00        -0.15955E+08
 
   -0.16192E+08         0.11655E+07         0.00000E+00
    0.11655E+07        -0.54603E+08         0.00000E+00
    0.00000E+00         0.00000E+00        -0.16097E+08
 
   -0.16352E+08         0.11451E+07         0.00000E+00
    0.11451E+07        -0.54932E+08         0.00000E+00
    0.00000E+00         0.00000E+00        -0.16241E+08
 
   -0.16515E+08         0.11224E+07         0.00000E+00
    0.11224E+07        -0.55266E+08         0.00000E+00
    0.00000E+00         0.00000E+00        -0.16386E+08
 
   -0.16681E+08         0.10971E+07         0.00000E+00
    0.10971E+07        -0.55604E+08         0.00000E+00
    0.00000E+00         0.00000E+00        -0.16531E+08
 
   -0.16850E+08         0.10688E+07         0.00000E+00
    0.10688E+07        -0.55946E+08         0.00000E+00
    0.00000E+00         0.00000E+00        -0.16677E+08
 
   -0.17022E+08         0.10372E+07         0.00000E+00
    0.10372E+07        -0.56294E+08         0.00000E+00
    0.00000E+00         0.00000E+00        -0.16825E+08
 
   -0.17197E+08         0.10019E+07         0.00000E+00
    0.10019E+07        -0.56646E+08         0.00000E+00
    0.00000E+00         0.00000E+00        -0.16973E+08
 
   -0.17376E+08         0.96267E+06         0.00000E+00
    0.96267E+06        -0.57004E+08         0.00000E+00
    0.00000E+00         0.00000E+00        -0.17123E+08
 
   -0.17558E+08         0.91910E+06         0.00000E+00
    0.91910E+06        -0.57367E+08         0.00000E+00
    0.00000E+00         0.00000E+00        -0.17275E+08
 
   -0.17742E+08         0.87096E+06         0.00000E+00
    0.87096E+06        -0.57734E+08         0.00000E+00
    0.00000E+00         0.00000E+00        -0.17427E+08
 
   -0.17929E+08         0.81807E+06         0.00000E+00
    0.81807E+06        -0.58105E+08         0.00000E+00
    0.00000E+00         0.00000E+00        -0.17581E+08
 
   -0.18118E+08         0.76036E+06         0.00000E+00
    0.76036E+06        -0.58479E+08         0.00000E+00
    0.00000E+00         0.00000E+00        -0.17735E+08
 
   -0.18309E+08         0.69790E+06         0.00000E+00
    0.69790E+06        -0.58853E+08         0.00000E+00
    0.00000E+00         0.00000E+00        -0.17889E+08
 
   -0.18500E+08         0.63091E+06         0.00000E+00
    0.63091E+06        -0.59226E+08         0.00000E+00
    0.00000E+00         0.00000E+00        -0.18040E+08
 
   -0.18691E+08         0.55976E+06         0.00000E+00
    0.55976E+06        -0.59593E+08         0.00000E+00
    0.00000E+00         0.00000E+00        -0.18187E+08
 
   -0.18882E+08         0.48495E+06         0.00000E+00
    0.48495E+06        -0.59950E+08         0.00000E+00
    0.00000E+00         0.00000E+00        -0.18325E+08
 
   -0.19075E+08         0.40697E+06         0.00000E+00
    0.40697E+06        -0.60291E+08         0.00000E+00
    0.00000E+00         0.00000E+00        -0.18447E+08
 
   -0.19272E+08         0.32648E+06         0.00000E+00
    0.32648E+06        -0.60610E+08         0.00000E+00
    0.00000E+00         0.00000E+00        -0.18545E+08
 
   -0.19481E+08         0.24506E+06         0.00000E+00
    0.24506E+06        -0.60903E+08         0.00000E+00
    0.00000E+00         0.00000E+00        -0.18608E+08
 
   -0.19711E+08         0.16630E+06         0.00000E+00
    0.16630E+06        -0.61166E+08         0.00000E+00
    0.00000E+00         0.00000E+00        -0.18627E+08
 
   -0.19974E+08         0.94566E+05         0.00000E+00
    0.94566E+05        -0.61406E+08         0.00000E+00
    0.00000E+00         0.00000E+00        -0.18594E+08
 
   -0.20277E+08         0.30474E+05         0.00000E+00
    0.30474E+05        -0.61632E+08         0.00000E+00
    0.00000E+00         0.00000E+00        -0.18514E+08
 
   -0.60500E+07         0.45621E+05         0.00000E+00
    0.45621E+05        -0.28108E+08         0.00000E+00
    0.00000E+00         0.00000E+00        -0.86701E+07
 
   -0.63962E+07         0.14295E+06         0.00000E+00
    0.14295E+06        -0.28204E+08         0.00000E+00
    0.00000E+00         0.00000E+00        -0.86701E+07
 
   -0.66811E+07         0.25501E+06         0.00000E+00
    0.25501E+06        -0.28390E+08         0.00000E+00
    0.00000E+00         0.00000E+00        -0.86701E+07
 
   -0.69161E+07         0.38298E+06         0.00000E+00
    0.38298E+06        -0.28653E+08         0.00000E+00
    0.00000E+00         0.00000E+00        -0.86701E+07
 
   -0.71139E+07         0.52226E+06         0.00000E+00
    0.52226E+06        -0.28975E+08         0.00000E+00
    0.00000E+00         0.00000E+00        -0.86701E+07
 
   -0.72857E+07         0.66622E+06         0.00000E+00
    0.66622E+06        -0.29341E+08         0.00000E+00
    0.00000E+00         0.00000E+00        -0.86701E+07
 
   -0.74393E+07         0.80879E+06         0.00000E+00
    0.80879E+06        -0.29739E+08         0.00000E+00
    0.00000E+00         0.00000E+00        -0.86701E+07
 
   -0.75800E+07         0.94545E+06         0.00000E+00
    0.94545E+06        -0.30159E+08         0.00000E+00
    0.00000E+00         0.00000E+00        -0.86701E+07
 
   -0.77113E+07         0.10731E+07         0.00000E+00
    0.10731E+07        -0.30594E+08         0.00000E+00
    0.00000E+00         0.00000E+00        -0.86701E+07
 
   -0.78355E+07         0.11899E+07         0.00000E+00
    0.11899E+07        -0.31039E+08         0.00000E+00
    0.00000E+00         0.00000E+00        -0.86701E+07
 
   -0.79543E+07         0.12945E+07         0.00000E+00
    0.12945E+07        -0.31491E+08         0.00000E+00
    0.00000E+00         0.00000E+00        -0.86701E+07
 
   -0.80694E+07         0.13860E+07         0.00000E+00
    0.13860E+07        -0.31947E+08         0.00000E+00
    0.00000E+00         0.00000E+00        -0.86701E+07
 
   -0.81817E+07         0.14638E+07         0.00000E+00
    0.14638E+07        -0.32407E+08         0.00000E+00
    0.00000E+00         0.00000E+00        -0.86701E+07
 
   -0.82922E+07         0.15269E+07         0.00000E+00
    0.15269E+07        -0.32871E+08         0.00000E+00
    0.00000E+00         0.00000E+00        -0.86701E+07
 
   -0.84019E+07         0.15741E+07         0.00000E+00
    0.15741E+07        -0.33337E+08         0.00000E+00
    0.00000E+00         0.00000E+00        -0.86701E+07
 
   -0.85119E+07         0.16037E+07         0.00000E+00
    0.16037E+07        -0.33806E+08         0.00000E+00
    0.00000E+00         0.00000E+00        -0.86701E+07
 
   -0.86225E+07         0.16130E+07         0.00000E+00
    0.16130E+07        -0.34262E+08         0.00000E+00
    0.00000E+00         0.00000E+00        -0.86876E+07
 
   -0.87337E+07         0.16329E+07         0.00000E+00
    0.16329E+07        -0.34668E+08         0.00000E+00
    0.00000E+00         0.00000E+00        -0.87774E+07
 
   -0.88446E+07         0.16447E+07         0.00000E+00
    0.16447E+07        -0.35051E+08         0.00000E+00
    0.00000E+00         0.00000E+00        -0.89093E+07
 
   -0.89592E+07         0.16508E+07         0.00000E+00
    0.16508E+07        -0.35440E+08         0.00000E+00
    0.00000E+00         0.00000E+00        -0.90363E+07
 
   -0.90765E+07         0.16533E+07         0.00000E+00
    0.16533E+07        -0.35828E+08         0.00000E+00
    0.00000E+00         0.00000E+00        -0.91584E+07
 
   -0.91944E+07         0.16540E+07         0.00000E+00
    0.16540E+07        -0.36214E+08         0.00000E+00
    0.00000E+00         0.00000E+00        -0.92758E+07
 
   -0.93115E+07         0.16542E+07         0.00000E+00
    0.16542E+07        -0.36598E+08         0.00000E+00
    0.00000E+00         0.00000E+00        -0.93889E+07
 
   -0.94270E+07         0.16540E+07         0.00000E+00
    0.16540E+07        -0.36980E+08         0.00000E+00
    0.00000E+00         0.00000E+00        -0.94977E+07
 
   -0.95406E+07         0.16536E+07         0.00000E+00
    0.16536E+07        -0.37358E+08         0.00000E+00
    0.00000E+00         0.00000E+00        -0.96026E+07
 
   -0.96519E+07         0.16528E+07         0.00000E+00
    0.16528E+07        -0.37734E+08         0.00000E+00
    0.00000E+00         0.00000E+00        -0.97037E+07
 
   -0.97610E+07         0.16514E+07         0.00000E+00
    0.16514E+07        -0.38107E+08         0.00000E+00
    0.00000E+00         0.00000E+00        -0.98012E+07
 
   -0.98678E+07         0.16491E+07         0.00000E+00
    0.16491E+07        -0.38477E+08         0.00000E+00
    0.00000E+00         0.00000E+00        -0.98954E+07
 
   -0.99724E+07         0.16458E+07         0.00000E+00
    0.16458E+07        -0.38844E+08         0.00000E+00
    0.00000E+00         0.00000E+00        -0.99865E+07
 
   -0.10075E+08         0.16411E+07         0.00000E+00
    0.16411E+07        -0.39209E+08         0.00000E+00
    0.00000E+00         0.00000E+00        -0.10074E+08
 
   -0.10176E+08         0.16349E+07         0.00000E+00
    0.16349E+07        -0.39572E+08         0.00000E+00
    0.00000E+00         0.00000E+00        -0.10160E+08
 
   -0.10276E+08         0.16269E+07         0.00000E+00
    0.16269E+07        -0.39934E+08         0.00000E+00
    0.00000E+00         0.00000E+00        -0.10242E+08
 
   -0.10374E+08         0.16169E+07         0.00000E+00
    0.16169E+07        -0.40294E+08         0.00000E+00
    0.00000E+00         0.00000E+00        -0.10322E+08
 
   -0.10472E+08         0.16050E+07         0.00000E+00
    0.16050E+07        -0.40655E+08         0.00000E+00
    0.00000E+00         0.00000E+00        -0.10400E+08
 
   -0.10569E+08         0.15913E+07         0.00000E+00
    0.15913E+07        -0.41016E+08         0.00000E+00
    0.00000E+00         0.00000E+00        -0.10475E+08
 
   -0.10666E+08         0.15763E+07         0.00000E+00
    0.15763E+07        -0.41378E+08         0.00000E+00
    0.00000E+00         0.00000E+00        -0.10548E+08
 
   -0.10762E+08         0.15606E+07         0.00000E+00
    0.15606E+07        -0.41737E+08         0.00000E+00
    0.00000E+00         0.00000E+00        -0.10626E+08
 
   -0.10859E+08         0.15410E+07         0.00000E+00
    0.15410E+07        -0.42072E+08         0.00000E+00
    0.00000E+00         0.00000E+00        -0.10731E+08
 
   -0.10956E+08         0.15223E+07         0.00000E+00
    0.15223E+07        -0.42396E+08         0.00000E+00
    0.00000E+00         0.00000E+00        -0.10850E+08
 
   -0.11055E+08         0.15047E+07         0.00000E+00
    0.15047E+07        -0.42721E+08         0.00000E+00
    0.00000E+00         0.00000E+00        -0.10967E+08
 
   -0.11154E+08         0.14885E+07         0.00000E+00
    0.14885E+07        -0.43048E+08         0.00000E+00
    0.00000E+00         0.00000E+00        -0.11082E+08
 
   -0.11254E+08         0.14739E+07         0.00000E+00
    0.14739E+07        -0.43375E+08         0.00000E+00
    0.00000E+00         0.00000E+00        -0.11196E+08
 
   -0.11356E+08         0.14609E+07         0.00000E+00
    0.14609E+07        -0.43702E+08         0.00000E+00
    0.00000E+00         0.00000E+00        -0.11309E+08
 
   -0.11458E+08         0.14493E+07         0.00000E+00
    0.14493E+07        -0.44029E+08         0.00000E+00
    0.00000E+00         0.00000E+00        -0.11421E+08
 
   -0.11560E+08         0.14390E+07         0.00000E+00
    0.14390E+07        -0.44354E+08         0.00000E+00
    0.00000E+00         0.00000E+00        -0.11531E+08
 
   -0.11663E+08         0.14298E+07         0.00000E+00
    0.14298E+07        -0.44679E+08         0.00000E+00
    0.00000E+00         0.00000E+00        -0.11641E+08
 
   -0.11766E+08         0.14215E+07         0.00000E+00
    0.14215E+07        -0.45003E+08         0.00000E+00
    0.00000E+00         0.00000E+00        -0.11750E+08
 
   -0.11873E+08         0.14136E+07         0.00000E+00
    0.14136E+07        -0.45322E+08         0.00000E+00
    0.00000E+00         0.00000E+00        -0.11861E+08
 
   -0.11998E+08         0.14048E+07         0.00000E+00
    0.14048E+07        -0.45624E+08         0.00000E+00
    0.00000E+00         0.00000E+00        -0.11990E+08
 
   -0.12131E+08         0.13959E+07         0.00000E+00
    0.13959E+07        -0.45917E+08         0.00000E+00
    0.00000E+00         0.00000E+00        -0.12127E+08
 
   -0.12265E+08         0.13875E+07         0.00000E+00
    0.13875E+07        -0.46210E+08         0.00000E+00
    0.00000E+00         0.00000E+00        -0.12263E+08
 
   -0.12398E+08         0.13794E+07         0.00000E+00
    0.13794E+07        -0.46501E+08         0.00000E+00
    0.00000E+00         0.00000E+00        -0.12399E+08
 
   -0.12532E+08         0.13716E+07         0.00000E+00
    0.13716E+07        -0.46792E+08         0.00000E+00
    0.00000E+00         0.00000E+00        -0.12534E+08
 
   -0.12665E+08         0.13641E+07         0.00000E+00
    0.13641E+07        -0.47083E+08         0.00000E+00
    0.00000E+00         0.00000E+00        -0.12669E+08
 
   -0.12799E+08         0.13568E+07         0.00000E+00
    0.13568E+07        -0.47373E+08         0.00000E+00
    0.00000E+00         0.00000E+00        -0.12804E+08
 
   -0.12932E+08         0.13496E+07         0.00000E+00
    0.13496E+07        -0.47663E+08         0.00000E+00
    0.00000E+00         0.00000E+00        -0.12938E+08
 
   -0.13066E+08         0.13426E+07         0.00000E+00
    0.13426E+07        -0.47953E+08         0.00000E+00
    0.00000E+00         0.00000E+00        -0.13073E+08
 
   -0.13200E+08         0.13356E+07         0.00000E+00
    0.13356E+07        -0.48243E+08         0.00000E+00
    0.00000E+00         0.00000E+00        -0.13207E+08
 
   -0.13334E+08         0.13287E+07         0.00000E+00
    0.13287E+07        -0.48534E+08         0.00000E+00
    0.00000E+00         0.00000E+00        -0.13341E+08
 
   -0.13469E+08         0.13218E+07         0.00000E+00
    0.13218E+07        -0.48824E+08         0.00000E+00
    0.00000E+00         0.00000E+00        -0.13476E+08
 
   -0.13604E+08         0.13149E+07         0.00000E+00
    0.13149E+07        -0.49115E+08         0.00000E+00
    0.00000E+00         0.00000E+00        -0.13610E+08
 
   -0.13739E+08         0.13080E+07         0.00000E+00
    0.13080E+07        -0.49407E+08         0.00000E+00
    0.00000E+00         0.00000E+00        -0.13745E+08
 
   -0.13875E+08         0.13009E+07         0.00000E+00
    0.13009E+07        -0.49700E+08         0.00000E+00
    0.00000E+00         0.00000E+00        -0.13880E+08
 
   -0.14011E+08         0.12938E+07         0.00000E+00
    0.12938E+07        -0.49993E+08         0.00000E+00
    0.00000E+00         0.00000E+00        -0.14015E+08
 
   -0.14148E+08         0.12864E+07         0.00000E+00
    0.12864E+07        -0.50288E+08         0.00000E+00
    0.00000E+00         0.00000E+00        -0.14150E+08
 
   -0.14286E+08         0.12789E+07         0.00000E+00
    0.12789E+07        -0.50584E+08         0.00000E+00
    0.00000E+00         0.00000E+00        -0.14286E+08
 
   -0.14425E+08         0.12712E+07         0.00000E+00
    0.12712E+07        -0.50881E+08         0.00000E+00
    0.00000E+00         0.00000E+00        -0.14422E+08
 
   -0.14564E+08         0.12631E+07         0.00000E+00
    0.12631E+07        -0.51179E+08         0.00000E+00
    0.00000E+00         0.00000E+00        -0.14558E+08
 
   -0.14705E+08         0.12547E+07         0.00000E+00
    0.12547E+07        -0.51479E+08         0.00000E+00
    0.00000E+00         0.00000E+00        -0.14695E+08
 
   -0.14846E+08         0.12458E+07         0.00000E+00
    0.12458E+07        -0.51781E+08         0.00000E+00
    0.00000E+00         0.00000E+00        -0.14832E+08
 
   -0.14989E+08         0.12365E+07         0.00000E+00
    0.12365E+07        -0.52084E+08         0.00000E+00
    0.00000E+00         0.00000E+00        -0.14970E+08
 
   -0.15133E+08         0.12266E+07         0.00000E+00
    0.12266E+07        -0.52390E+08         0.00000E+00
    0.00000E+00         0.00000E+00        -0.15109E+08
 
   -0.15279E+08         0.12160E+07         0.00000E+00
    0.12160E+07        -0.52698E+08         0.00000E+00
    0.00000E+00         0.00000E+00        -0.15247E+08
 
   -0.15426E+08         0.12046E+07         0.00000E+00
    0.12046E+07        -0.53008E+08         0.00000E+00
    0.00000E+00         0.00000E+00        -0.15387E+08
 
   -0.15575E+08         0.11923E+07         0.00000E+00
    0.11923E+07        -0.53321E+08         0.00000E+00
    0.00000E+00         0.00000E+00        -0.15527E+08
 
   -0.15726E+08         0.11788E+07         0.00000E+00
    0.11788E+07        -0.53636E+08         0.00000E+00
    0.00000E+00         0.00000E+00        -0.15667E+08
 
   -0.15879E+08         0.11642E+07         0.00000E+00
    0.11642E+07        -0.53955E+08         0.00000E+00
    0.00000E+00         0.00000E+00        -0.15808E+08
 
   -0.16034E+08         0.11480E+07         0.00000E+00
    0.11480E+07        -0.54276E+08         0.00000E+00
    0.00000E+00         0.00000E+00        -0.15950E+08
 
   -0.16192E+08         0.11301E+07         0.00000E+00
    0.11301E+07        -0.54601E+08         0.00000E+00
    0.00000E+00         0.00000E+00        -0.16092E+08
 
   -0.16352E+08         0.11103E+07         0.00000E+00
    0.11103E+07        -0.54930E+08         0.00000E+00
    0.00000E+00         0.00000E+00        -0.16235E+08
 
   -0.16515E+08         0.10882E+07         0.00000E+00
    0.10882E+07        -0.55263E+08         0.00000E+00
    0.00000E+00         0.00000E+00        -0.16379E+08
 
   -0.16681E+08         0.10635E+07         0.00000E+00
    0.10635E+07        -0.55600E+08         0.00000E+00
    0.00000E+00         0.00000E+00        -0.16524E+08
 
   -0.16850E+08         0.10359E+07         0.00000E+00
    0.10359E+07        -0.55942E+08         0.00000E+00
    0.00000E+00         0.00000E+00        -0.16669E+08
 
   -0.17023E+08         0.10050E+07         0.00000E+00
    0.10050E+07        -0.56289E+08         0.00000E+00
    0.00000E+00         0.00000E+00        -0.16816E+08
 
   -0.17199E+08         0.97049E+06         0.00000E+00
    0.97049E+06        -0.56640E+08         0.00000E+00
    0.00000E+00         0.00000E+00        -0.16963E+08
 
   -0.17378E+08         0.93191E+06         0.00000E+00
    0.93191E+06        -0.56997E+08         0.00000E+00
    0.00000E+00         0.00000E+00        -0.17112E+08
 
   -0.17561E+08         0.88898E+06         0.00000E+00
    0.88898E+06        -0.57358E+08         0.00000E+00
    0.00000E+00         0.00000E+00        -0.17261E+08
 
   -0.17746E+08         0.84141E+06         0.00000E+00
    0.84141E+06        -0.57724E+08         0.00000E+00
    0.00000E+00         0.00000E+00        -0.17412E+08
 
   -0.17934E+08         0.78899E+06         0.00000E+00
    0.78899E+06        -0.58094E+08         0.00000E+00
    0.00000E+00         0.00000E+00        -0.17564E+08
 
   -0.18125E+08         0.73162E+06         0.00000E+00
    0.73162E+06        -0.58467E+08         0.00000E+00
    0.00000E+00         0.00000E+00        -0.17716E+08
 
   -0.18316E+08         0.66937E+06         0.00000E+00
    0.66937E+06        -0.58840E+08         0.00000E+00
    0.00000E+00         0.00000E+00        -0.17867E+08
 
   -0.18509E+08         0.60244E+06         0.00000E+00
    0.60244E+06        -0.59211E+08         0.00000E+00
    0.00000E+00         0.00000E+00        -0.18016E+08
 
   -0.18703E+08         0.53130E+06         0.00000E+00
    0.53130E+06        -0.59578E+08         0.00000E+00
    0.00000E+00         0.00000E+00        -0.18160E+08
 
   -0.18897E+08         0.45662E+06         0.00000E+00
    0.45662E+06        -0.59934E+08         0.00000E+00
    0.00000E+00         0.00000E+00        -0.18295E+08
 
   -0.19092E+08         0.37927E+06         0.00000E+00
    0.37927E+06        -0.60275E+08         0.00000E+00
    0.00000E+00         0.00000E+00        -0.18414E+08
 
   -0.19293E+08         0.30049E+06         0.00000E+00
    0.30049E+06        -0.60595E+08         0.00000E+00
    0.00000E+00         0.00000E+00        -0.18509E+08
 
   -0.19507E+08         0.22252E+06         0.00000E+00
    0.22252E+06        -0.60888E+08         0.00000E+00
    0.00000E+00         0.00000E+00        -0.18570E+08
 
   -0.19741E+08         0.14916E+06         0.00000E+00
    0.14916E+06        -0.61153E+08         0.00000E+00
    0.00000E+00         0.00000E+00        -0.18586E+08
 
   -0.20008E+08         0.84110E+05         0.00000E+00
    0.84110E+05        -0.61396E+08         0.00000E+00
    0.00000E+00         0.00000E+00        -0.18553E+08
 
   -0.20313E+08         0.27004E+05         0.00000E+00
    0.27004E+05        -0.61622E+08         0.00000E+00
    0.00000E+00         0.00000E+00        -0.18473E+08
 
   -0.59409E+07         0.38769E+05         0.00000E+00
    0.38769E+05        -0.28125E+08         0.00000E+00
    0.00000E+00         0.00000E+00        -0.86701E+07
 
   -0.62891E+07         0.12314E+06         0.00000E+00
    0.12314E+06        -0.28224E+08         0.00000E+00
    0.00000E+00         0.00000E+00        -0.86701E+07
 
   -0.65781E+07         0.22420E+06         0.00000E+00
    0.22420E+06        -0.28414E+08         0.00000E+00
    0.00000E+00         0.00000E+00        -0.86701E+07
 
   -0.68192E+07         0.34377E+06         0.00000E+00
    0.34377E+06        -0.28679E+08         0.00000E+00
    0.00000E+00         0.00000E+00        -0.86701E+07
 
   -0.70246E+07         0.47710E+06         0.00000E+00
    0.47710E+06        -0.29003E+08         0.00000E+00
    0.00000E+00         0.00000E+00        -0.86701E+07
 
   -0.72046E+07         0.61699E+06         0.00000E+00
    0.61699E+06        -0.29370E+08         0.00000E+00
    0.00000E+00         0.00000E+00        -0.86701E+07
 
   -0.73667E+07         0.75676E+06         0.00000E+00
    0.75676E+06        -0.29767E+08         0.00000E+00
    0.00000E+00         0.00000E+00        -0.86701E+07
 
   -0.75156E+07         0.89145E+06         0.00000E+00
    0.89145E+06        -0.30185E+08         0.00000E+00
    0.00000E+00         0.00000E+00        -0.86701E+07
 
   -0.76545E+07         0.10177E+07         0.00000E+00
    0.10177E+07        -0.30618E+08         0.00000E+00
    0.00000E+00         0.00000E+00        -0.86701E+07
 
   -0.77858E+07         0.11335E+07         0.00000E+00
    0.11335E+07        -0.31061E+08         0.00000E+00
    0.00000E+00         0.00000E+00        -0.86701E+07
 
   -0.79113E+07         0.12375E+07         0.00000E+00
    0.12375E+07        -0.31510E+08         0.00000E+00
    0.00000E+00         0.00000E+00        -0.86701E+07
 
   -0.80323E+07         0.13287E+07         0.00000E+00
    0.13287E+07        -0.31964E+08         0.00000E+00
    0.00000E+00         0.00000E+00        -0.86701E+07
 
   -0.81499E+07         0.14063E+07         0.00000E+00
    0.14063E+07        -0.32421E+08         0.00000E+00
    0.00000E+00         0.00000E+00        -0.86701E+07
 
   -0.82652E+07         0.14695E+07         0.00000E+00
    0.14695E+07        -0.32882E+08         0.00000E+00
    0.00000E+00         0.00000E+00        -0.86701E+07
 
   -0.83788E+07         0.15170E+07         0.00000E+00
    0.15170E+07        -0.33345E+08         0.00000E+00
    0.00000E+00         0.00000E+00        -0.86701E+07
 
   -0.84921E+07         0.15472E+07         0.00000E+00
    0.15472E+07        -0.33810E+08         0.00000E+00
    0.00000E+00         0.00000E+00        -0.86701E+07
 
   -0.86058E+07         0.15573E+07         0.00000E+00
    0.15573E+07        -0.34264E+08         0.00000E+00
    0.00000E+00         0.00000E+00        -0.86839E+07
 
   -0.87189E+07         0.15768E+07         0.00000E+00
    0.15768E+07        -0.34671E+08         0.00000E+00
    0.00000E+00         0.00000E+00        -0.87683E+07
 
   -0.88306E+07         0.15896E+07         0.00000E+00
    0.15896E+07        -0.35053E+08         0.00000E+00
    0.00000E+00         0.00000E+00        -0.88986E+07
 
   -0.89455E+07         0.15970E+07         0.00000E+00
    0.15970E+07        -0.35441E+08         0.00000E+00
    0.00000E+00         0.00000E+00        -0.90243E+07
 
   -0.90627E+07         0.16003E+07         0.00000E+00
    0.16003E+07        -0.35828E+08         0.00000E+00
    0.00000E+00         0.00000E+00        -0.91455E+07
 
   -0.91803E+07         0.16015E+07         0.00000E+00
    0.16015E+07        -0.36214E+08         0.00000E+00
    0.00000E+00         0.00000E+00        -0.92622E+07
 
   -0.92972E+07         0.16019E+07         0.00000E+00
    0.16019E+07        -0.36598E+08         0.00000E+00
    0.00000E+00         0.00000E+00        -0.93748E+07
 
   -0.94128E+07         0.16020E+07         0.00000E+00
    0.16020E+07        -0.36980E+08         0.00000E+00
    0.00000E+00         0.00000E+00        -0.94833E+07
 
   -0.95264E+07         0.16017E+07         0.00000E+00
    0.16017E+07        -0.37358E+08         0.00000E+00
    0.00000E+00         0.00000E+00        -0.95880E+07
 
   -0.96381E+07         0.16010E+07         0.00000E+00
    0.16010E+07        -0.37734E+08         0.00000E+00
    0.00000E+00         0.00000E+00        -0.96892E+07
 
   -0.97475E+07         0.15996E+07         0.00000E+00
    0.15996E+07        -0.38106E+08         0.00000E+00
    0.00000E+00         0.00000E+00        -0.97868E+07
 
   -0.98548E+07         0.15974E+07         0.00000E+00
    0.15974E+07        -0.38476E+08         0.00000E+00
    0.00000E+00         0.00000E+00        -0.98812E+07
 
   -0.99600E+07         0.15942E+07         0.00000E+00
    0.15942E+07        -0.38843E+08         0.00000E+00
    0.00000E+00         0.00000E+00        -0.99725E+07
 
   -0.10063E+08         0.15897E+07         0.00000E+00
    0.15897E+07        -0.39208E+08         0.00000E+00
    0.00000E+00         0.00000E+00        -0.10061E+08
 
   -0.10165E+08         0.15837E+07         0.00000E+00
    0.15837E+07        -0.39571E+08         0.00000E+00
    0.00000E+00         0.00000E+00        -0.10146E+08
 
   -0.10266E+08         0.15759E+07         0.00000E+00
    0.15759E+07        -0.39932E+08         0.00000E+00
    0.00000E+00         0.00000E+00        -0.10229E+08
 
   -0.10365E+08         0.15663E+07         0.00000E+00
    0.15663E+07        -0.40292E+08         0.00000E+00
    0.00000E+00         0.00000E+00        -0.10310E+08
 
   -0.10464E+08         0.15547E+07         0.00000E+00
    0.15547E+07        -0.40652E+08         0.00000E+00
    0.00000E+00         0.00000E+00        -0.10388E+08
 
   -0.10562E+08         0.15414E+07         0.00000E+00
    0.15414E+07        -0.41013E+08         0.00000E+00
    0.00000E+00         0.00000E+00        -0.10464E+08
 
   -0.10659E+08         0.15268E+07         0.00000E+00
    0.15268E+07        -0.41375E+08         0.00000E+00
    0.00000E+00         0.00000E+00        -0.10537E+08
 
   -0.10757E+08         0.15115E+07         0.00000E+00
    0.15115E+07        -0.41734E+08         0.00000E+00
    0.00000E+00         0.00000E+00        -0.10617E+08
 
   -0.10854E+08         0.14924E+07         0.00000E+00
    0.14924E+07        -0.42068E+08         0.00000E+00
    0.00000E+00         0.00000E+00        -0.10723E+08
 
   -0.10951E+08         0.14742E+07         0.00000E+00
    0.14742E+07        -0.42392E+08         0.00000E+00
    0.00000E+00         0.00000E+00        -0.10842E+08
 
   -0.11050E+08         0.14572E+07         0.00000E+00
    0.14572E+07        -0.42718E+08         0.00000E+00
    0.00000E+00         0.00000E+00        -0.10959E+08
 
   -0.11149E+08         0.14416E+07         0.00000E+00
    0.14416E+07        -0.43045E+08         0.00000E+00
    0.00000E+00         0.00000E+00        -0.11075E+08
 
   -0.11250E+08         0.14276E+07         0.00000E+00
    0.14276E+07        -0.43373E+08         0.00000E+00
    0.00000E+00         0.00000E+00        -0.11189E+08
 
   -0.11351E+08         0.14151E+07         0.00000E+00
    0.14151E+07        -0.43700E+08         0.00000E+00
    0.00000E+00         0.00000E+00        -0.11302E+08
 
   -0.11453E+08         0.14040E+07         0.00000E+00
    0.14040E+07        -0.44027E+08         0.00000E+00
    0.00000E+00         0.00000E+00        -0.11414E+08
 
   -0.11556E+08         0.13941E+07         0.00000E+00
    0.13941E+07        -0.44353E+08         0.00000E+00
    0.00000E+00         0.00000E+00        -0.11525E+08
 
   -0.11658E+08         0.13852E+07         0.00000E+00
    0.13852E+07        -0.44678E+08         0.00000E+00
    0.00000E+00         0.00000E+00        -0.11635E+08
 
   -0.11762E+08         0.13771E+07         0.00000E+00
    0.13771E+07        -0.45001E+08         0.00000E+00
    0.00000E+00         0.00000E+00        -0.11744E+08
 
   -0.11869E+08         0.13695E+07         0.00000E+00
    0.13695E+07        -0.45321E+08         0.00000E+00
    0.00000E+00         0.00000E+00        -0.11856E+08
 
   -0.11994E+08         0.13611E+07         0.00000E+00
    0.13611E+07        -0.45623E+08         0.00000E+00
    0.00000E+00         0.00000E+00        -0.11985E+08
 
   -0.12127E+08         0.13525E+07         0.00000E+00
    0.13525E+07        -0.45916E+08         0.00000E+00
    0.00000E+00         0.00000E+00        -0.12123E+08
 
   -0.12261E+08         0.13443E+07         0.00000E+00
    0.13443E+07        -0.46208E+08         0.00000E+00
    0.00000E+00         0.00000E+00        -0.12259E+08
 
   -0.12395E+08         0.13365E+07         0.00000E+00
    0.13365E+07        -0.46500E+08         0.00000E+00
    0.00000E+00         0.00000E+00        -0.12395E+08
 
   -0.12528E+08         0.13290E+07         0.00000E+00
    0.13290E+07        -0.46791E+08         0.00000E+00
    0.00000E+00         0.00000E+00        -0.12531E+08
 
   -0.12662E+08         0.13217E+07         0.00000E+00
    0.13217E+07        -0.47082E+08         0.00000E+00
    0.00000E+00         0.00000E+00        -0.12666E+08
 
   -0.12795E+08         0.13146E+07         0.00000E+00
    0.13146E+07        -0.47372E+08         0.00000E+00
    0.00000E+00         0.00000E+00        -0.12801E+08
 
   -0.12929E+08         0.13077E+07         0.00000E+00
    0.13077E+07        -0.47663E+08         0.00000E+00
    0.00000E+00         0.00000E+00        -0.12935E+08
 
   -0.13063E+08         0.13008E+07         0.00000E+00
    0.13008E+07        -0.47953E+08         0.00000E+00
    0.00000E+00         0.00000E+00        -0.13070E+08
 
   -0.13197E+08         0.12941E+07         0.00000E+00
    0.12941E+07        -0.48243E+08         0.00000E+00
    0.00000E+00         0.00000E+00        -0.13204E+08
 
   -0.13331E+08         0.12874E+07         0.00000E+00
    0.12874E+07        -0.48534E+08         0.00000E+00
    0.00000E+00         0.00000E+00        -0.13339E+08
 
   -0.13466E+08         0.12807E+07         0.00000E+00
    0.12807E+07        -0.48824E+08         0.00000E+00
    0.00000E+00         0.00000E+00        -0.13473E+08
 
   -0.13601E+08         0.12740E+07         0.00000E+00
    0.12740E+07        -0.49116E+08         0.00000E+00
    0.00000E+00         0.00000E+00        -0.13608E+08
 
   -0.13736E+08         0.12673E+07         0.00000E+00
    0.12673E+07        -0.49408E+08         0.00000E+00
    0.00000E+00         0.00000E+00        -0.13742E+08
 
   -0.13872E+08         0.12605E+07         0.00000E+00
    0.12605E+07        -0.49700E+08         0.00000E+00
    0.00000E+00         0.00000E+00        -0.13877E+08
 
   -0.14009E+08         0.12535E+07         0.00000E+00
    0.12535E+07        -0.49994E+08         0.00000E+00
    0.00000E+00         0.00000E+00        -0.14012E+08
 
   -0.14146E+08         0.12464E+07         0.00000E+00
    0.12464E+07        -0.50288E+08         0.00000E+00
    0.00000E+00         0.00000E+00        -0.14148E+08
 
   -0.14284E+08         0.12391E+07         0.00000E+00
    0.12391E+07        -0.50584E+08         0.00000E+00
    0.00000E+00         0.00000E+00        -0.14283E+08
 
   -0.14422E+08         0.12316E+07         0.00000E+00
    0.12316E+07        -0.50881E+08         0.00000E+00
    0.00000E+00         0.00000E+00        -0.14419E+08
 
   -0.14562E+08         0.12238E+07         0.00000E+00
    0.12238E+07        -0.51180E+08         0.00000E+00
    0.00000E+00         0.00000E+00        -0.14556E+08
 
   -0.14703E+08         0.12156E+07         0.00000E+00
    0.12156E+07        -0.51480E+08         0.00000E+00
    0.00000E+00         0.00000E+00        -0.14693E+08
 
   -0.14844E+08         0.12070E+07         0.00000E+00
    0.12070E+07        -0.51781E+08         0.00000E+00
    0.00000E+00         0.00000E+00        -0.14830E+08
 
   -0.14987E+08         0.11980E+07         0.00000E+00
    0.11980E+07        -0.52085E+08         0.00000E+00
    0.00000E+00         0.00000E+00        -0.14968E+08
 
   -0.15132E+08         0.11883E+07         0.00000E+00
    0.11883E+07        -0.52390E+08         0.00000E+00
    0.00000E+00         0.00000E+00        -0.15106E+08
 
   -0.15277E+08         0.11781E+07         0.00000E+00
    0.11781E+07        -0.52698E+08         0.00000E+00
    0.00000E+00         0.00000E+00        -0.15245E+08
 
   -0.15425E+08         0.11670E+07         0.00000E+00
    0.11670E+07        -0.53008E+08         0.00000E+00
    0.00000E+00         0.00000E+00        -0.15384E+08
 
   -0.15574E+08         0.11551E+07         0.00000E+00
    0.11551E+07        -0.53321E+08         0.00000E+00
    0.00000E+00         0.00000E+00        -0.15524E+08
 
   -0.15725E+08         0.11421E+07         0.00000E+00
    0.11421E+07        -0.53636E+08         0.00000E+00
    0.00000E+00         0.00000E+00        -0.15664E+08
 
   -0.15878E+08         0.11278E+07         0.00000E+00
    0.11278E+07        -0.53954E+08         0.00000E+00
    0.00000E+00         0.00000E+00        -0.15805E+08
 
   -0.16033E+08         0.11122E+07         0.00000E+00
    0.11122E+07        -0.54275E+08         0.00000E+00
    0.00000E+00         0.00000E+00        -0.15946E+08
 
   -0.16191E+08         0.10948E+07         0.00000E+00
    0.10948E+07        -0.54600E+08         0.00000E+00
    0.00000E+00         0.00000E+00        -0.16088E+08
 
   -0.16351E+08         0.10756E+07         0.00000E+00
    0.10756E+07        -0.54928E+08         0.00000E+00
    0.00000E+00         0.00000E+00        -0.16230E+08
 
   -0.16515E+08         0.10541E+07         0.00000E+00
    0.10541E+07        -0.55260E+08         0.00000E+00
    0.00000E+00         0.00000E+00        -0.16373E+08
 
   -0.16681E+08         0.10301E+07         0.00000E+00
    0.10301E+07        -0.55597E+08         0.00000E+00
    0.00000E+00         0.00000E+00        -0.16517E+08
 
   -0.16851E+08         0.10032E+07         0.00000E+00
    0.10032E+07        -0.55938E+08         0.00000E+00
    0.00000E+00         0.00000E+00        -0.16661E+08
 
   -0.17024E+08         0.97297E+06         0.00000E+00
    0.97297E+06        -0.56283E+08         0.00000E+00
    0.00000E+00         0.00000E+00        -0.16807E+08
 
   -0.17200E+08         0.93913E+06         0.00000E+00
    0.93913E+06        -0.56634E+08         0.00000E+00
    0.00000E+00         0.00000E+00        -0.16953E+08
 
   -0.17380E+08         0.90125E+06         0.00000E+00
    0.90125E+06        -0.56990E+08         0.00000E+00
    0.00000E+00         0.00000E+00        -0.17100E+08
 
   -0.17564E+08         0.85899E+06         0.00000E+00
    0.85899E+06        -0.57350E+08         0.00000E+00
    0.00000E+00         0.00000E+00        -0.17248E+08
 
   -0.17750E+08         0.81202E+06         0.00000E+00
    0.81202E+06        -0.57715E+08         0.00000E+00
    0.00000E+00         0.00000E+00        -0.17397E+08
 
   -0.17939E+08         0.76012E+06         0.00000E+00
    0.76012E+06        -0.58083E+08         0.00000E+00
    0.00000E+00         0.00000E+00        -0.17547E+08
 
   -0.18131E+08         0.70315E+06         0.00000E+00
    0.70315E+06        -0.58455E+08         0.00000E+00
    0.00000E+00         0.00000E+00        -0.17697E+08
 
   -0.18325E+08         0.64116E+06         0.00000E+00
    0.64116E+06        -0.58827E+08         0.00000E+00
    0.00000E+00         0.00000E+00        -0.17846E+08
 
   -0.18519E+08         0.57439E+06         0.00000E+00
    0.57439E+06        -0.59197E+08         0.00000E+00
    0.00000E+00         0.00000E+00        -0.17992E+08
 
   -0.18715E+08         0.50337E+06         0.00000E+00
    0.50337E+06        -0.59563E+08         0.00000E+00
    0.00000E+00         0.00000E+00        -0.18133E+08
 
   -0.18912E+08         0.42894E+06         0.00000E+00
    0.42894E+06        -0.59919E+08         0.00000E+00
    0.00000E+00         0.00000E+00        -0.18265E+08
 
   -0.19111E+08         0.35235E+06         0.00000E+00
    0.35235E+06        -0.60260E+08         0.00000E+00
    0.00000E+00         0.00000E+00        -0.18381E+08
 
   -0.19316E+08         0.27541E+06         0.00000E+00
    0.27541E+06        -0.60580E+08         0.00000E+00
    0.00000E+00         0.00000E+00        -0.18474E+08
 
   -0.19533E+08         0.20096E+06         0.00000E+00
    0.20096E+06        -0.60874E+08         0.00000E+00
    0.00000E+00         0.00000E+00        -0.18532E+08
 
   -0.19772E+08         0.13287E+06         0.00000E+00
    0.13287E+06        -0.61142E+08         0.00000E+00
    0.00000E+00         0.00000E+00        -0.18546E+08
 
   -0.20042E+08         0.74184E+05         0.00000E+00
    0.74184E+05        -0.61386E+08         0.00000E+00
    0.00000E+00         0.00000E+00        -0.18513E+08
 
   -0.20349E+08         0.23708E+05         0.00000E+00
    0.23708E+05        -0.61614E+08         0.00000E+00
    0.00000E+00         0.00000E+00        -0.18432E+08
 
   -0.58331E+07         0.32090E+05         0.00000E+00
    0.32090E+05        -0.28139E+08         0.00000E+00
    0.00000E+00         0.00000E+00        -0.86701E+07
 
   -0.61831E+07         0.10387E+06         0.00000E+00
    0.10387E+06        -0.28241E+08         0.00000E+00
    0.00000E+00         0.00000E+00        -0.86701E+07
 
   -0.64759E+07         0.19438E+06         0.00000E+00
    0.19438E+06        -0.28435E+08         0.00000E+00
    0.00000E+00         0.00000E+00        -0.86701E+07
 
   -0.67227E+07         0.30591E+06         0.00000E+00
    0.30591E+06        -0.28704E+08         0.00000E+00
    0.00000E+00         0.00000E+00        -0.86701E+07
 
   -0.69354E+07         0.43353E+06         0.00000E+00
    0.43353E+06        -0.29030E+08         0.00000E+00
    0.00000E+00         0.00000E+00        -0.86701E+07
 
   -0.71237E+07         0.56944E+06         0.00000E+00
    0.56944E+06        -0.29398E+08         0.00000E+00
    0.00000E+00         0.00000E+00        -0.86701E+07
 
   -0.72941E+07         0.70640E+06         0.00000E+00
    0.70640E+06        -0.29794E+08         0.00000E+00
    0.00000E+00         0.00000E+00        -0.86701E+07
 
   -0.74512E+07         0.83905E+06         0.00000E+00
    0.83905E+06        -0.30211E+08         0.00000E+00
    0.00000E+00         0.00000E+00        -0.86701E+07
 
   -0.75979E+07         0.96384E+06         0.00000E+00
    0.96384E+06        -0.30642E+08         0.00000E+00
    0.00000E+00         0.00000E+00        -0.86701E+07
 
   -0.77363E+07         0.10786E+07         0.00000E+00
    0.10786E+07        -0.31083E+08         0.00000E+00
    0.00000E+00         0.00000E+00        -0.86701E+07
 
   -0.78683E+07         0.11818E+07         0.00000E+00
    0.11818E+07        -0.31530E+08         0.00000E+00
    0.00000E+00         0.00000E+00        -0.86701E+07
 
   -0.79952E+07         0.12725E+07         0.00000E+00
    0.12725E+07        -0.31981E+08         0.00000E+00
    0.00000E+00         0.00000E+00        -0.86701E+07
 
   -0.81181E+07         0.13499E+07         0.00000E+00
    0.13499E+07        -0.32435E+08         0.00000E+00
    0.00000E+00         0.00000E+00        -0.86701E+07
 
   -0.82379E+07         0.14130E+07         0.00000E+00
    0.14130E+07        -0.32893E+08         0.00000E+00
    0.00000E+00         0.00000E+00        -0.86701E+07
 
   -0.83555E+07         0.14606E+07         0.00000E+00
    0.14606E+07        -0.33353E+08         0.00000E+00
    0.00000E+00         0.00000E+00        -0.86701E+07
 
   -0.84720E+07         0.14913E+07         0.00000E+00
    0.14913E+07        -0.33814E+08         0.00000E+00
    0.00000E+00         0.00000E+00        -0.86701E+07
 
   -0.85887E+07         0.15022E+07         0.00000E+00
    0.15022E+07        -0.34267E+08         0.00000E+00
    0.00000E+00         0.00000E+00        -0.86804E+07
 
   -0.87039E+07         0.15210E+07         0.00000E+00
    0.15210E+07        -0.34675E+08         0.00000E+00
    0.00000E+00         0.00000E+00        -0.87594E+07
 
   -0.88167E+07         0.15347E+07         0.00000E+00
    0.15347E+07        -0.35055E+08         0.00000E+00
    0.00000E+00         0.00000E+00        -0.88882E+07
 
   -0.89322E+07         0.15433E+07         0.00000E+00
    0.15433E+07        -0.35442E+08         0.00000E+00
    0.00000E+00         0.00000E+00        -0.90126E+07
 
   -0.90494E+07         0.15473E+07         0.00000E+00
    0.15473E+07        -0.35829E+08         0.00000E+00
    0.00000E+00         0.00000E+00        -0.91328E+07
 
   -0.91668E+07         0.15490E+07         0.00000E+00
    0.15490E+07        -0.36214E+08         0.00000E+00
    0.00000E+00         0.00000E+00        -0.92488E+07
 
   -0.92836E+07         0.15497E+07         0.00000E+00
    0.15497E+07        -0.36598E+08         0.00000E+00
    0.00000E+00         0.00000E+00        -0.93609E+07
 
   -0.93990E+07         0.15499E+07         0.00000E+00
    0.15499E+07        -0.36980E+08         0.00000E+00
    0.00000E+00         0.00000E+00        -0.94691E+07
 
   -0.95128E+07         0.15498E+07         0.00000E+00
    0.15498E+07        -0.37358E+08         0.00000E+00
    0.00000E+00         0.00000E+00        -0.95737E+07
 
   -0.96247E+07         0.15492E+07         0.00000E+00
    0.15492E+07        -0.37734E+08         0.00000E+00
    0.00000E+00         0.00000E+00        -0.96748E+07
 
   -0.97345E+07         0.15479E+07         0.00000E+00
    0.15479E+07        -0.38106E+08         0.00000E+00
    0.00000E+00         0.00000E+00        -0.97726E+07
 
   -0.98423E+07         0.15459E+07         0.00000E+00
    0.15459E+07        -0.38476E+08         0.00000E+00
    0.00000E+00         0.00000E+00        -0.98672E+07
 
   -0.99481E+07         0.15428E+07         0.00000E+00
    0.15428E+07        -0.38843E+08         0.00000E+00
    0.00000E+00         0.00000E+00        -0.99588E+07
 
   -0.10052E+08         0.15384E+07         0.00000E+00
    0.15384E+07        -0.39207E+08         0.00000E+00
    0.00000E+00         0.00000E+00        -0.10048E+08
 
   -0.10155E+08         0.15326E+07         0.00000E+00
    0.15326E+07        -0.39569E+08         0.00000E+00
    0.00000E+00         0.00000E+00        -0.10134E+08
 
   -0.10256E+08         0.15252E+07         0.00000E+00
    0.15252E+07        -0.39930E+08         0.00000E+00
    0.00000E+00         0.00000E+00        -0.10217E+08
 
   -0.10356E+08         0.15158E+07         0.00000E+00
    0.15158E+07        -0.40290E+08         0.00000E+00
    0.00000E+00         0.00000E+00        -0.10298E+08
 
   -0.10456E+08         0.15046E+07         0.00000E+00
    0.15046E+07        -0.40650E+08         0.00000E+00
    0.00000E+00         0.00000E+00        -0.10376E+08
 
   -0.10555E+08         0.14917E+07         0.00000E+00
    0.14917E+07        -0.41010E+08         0.00000E+00
    0.00000E+00         0.00000E+00        -0.10453E+08
 
   -0.10653E+08         0.14775E+07         0.00000E+00
    0.14775E+07        -0.41372E+08         0.00000E+00
    0.00000E+00         0.00000E+00        -0.10527E+08
 
   -0.10751E+08         0.14625E+07         0.00000E+00
    0.14625E+07        -0.41730E+08         0.00000E+00
    0.00000E+00         0.00000E+00        -0.10607E+08
 
   -0.10849E+08         0.14438E+07         0.00000E+00
    0.14438E+07        -0.42065E+08         0.00000E+00
    0.00000E+00         0.00000E+00        -0.10714E+08
 
   -0.10947E+08         0.14261E+07         0.00000E+00
    0.14261E+07        -0.42389E+08         0.00000E+00
    0.00000E+00         0.00000E+00        -0.10833E+08
 
   -0.11045E+08         0.14097E+07         0.00000E+00
    0.14097E+07        -0.42715E+08         0.00000E+00
    0.00000E+00         0.00000E+00        -0.10951E+08
 
   -0.11145E+08         0.13947E+07         0.00000E+00
    0.13947E+07        -0.43042E+08         0.00000E+00
    0.00000E+00         0.00000E+00        -0.11067E+08
 
   -0.11245E+08         0.13813E+07         0.00000E+00
    0.13813E+07        -0.43370E+08         0.00000E+00
    0.00000E+00         0.00000E+00        -0.11182E+08
 
   -0.11346E+08         0.13693E+07         0.00000E+00
    0.13693E+07        -0.43698E+08         0.00000E+00
    0.00000E+00         0.00000E+00        -0.11296E+08
 
   -0.11449E+08         0.13586E+07         0.00000E+00
    0.13586E+07        -0.44025E+08         0.00000E+00
    0.00000E+00         0.00000E+00        -0.11408E+08
 
   -0.11551E+08         0.13491E+07         0.00000E+00
    0.13491E+07        -0.44351E+08         0.00000E+00
    0.00000E+00         0.00000E+00        -0.11519E+08
 
   -0.11654E+08         0.13406E+07         0.00000E+00
    0.13406E+07        -0.44676E+08         0.00000E+00
    0.00000E+00         0.00000E+00        -0.11630E+08
 
   -0.11758E+08         0.13329E+07         0.00000E+00
    0.13329E+07        -0.45000E+08         0.00000E+00
    0.00000E+00         0.00000E+00        -0.11739E+08
 
   -0.11865E+08         0.13255E+07         0.00000E+00
    0.13255E+07        -0.45319E+08         0.00000E+00
    0.00000E+00         0.00000E+00        -0.11852E+08
 
   -0.11990E+08         0.13174E+07         0.00000E+00
    0.13174E+07        -0.45621E+08         0.00000E+00
    0.00000E+00         0.00000E+00        -0.11981E+08
 
   -0.12124E+08         0.13091E+07         0.00000E+00
    0.13091E+07        -0.45915E+08         0.00000E+00
    0.00000E+00         0.00000E+00        -0.12118E+08
 
   -0.12258E+08         0.13012E+07         0.00000E+00
    0.13012E+07        -0.46207E+08         0.00000E+00
    0.00000E+00         0.00000E+00        -0.12255E+08
 
   -0.12391E+08         0.12936E+07         0.00000E+00
    0.12936E+07        -0.46499E+08         0.00000E+00
    0.00000E+00         0.00000E+00        -0.12391E+08
 
   -0.12525E+08         0.12864E+07         0.00000E+00
    0.12864E+07        -0.46791E+08         0.00000E+00
    0.00000E+00         0.00000E+00        -0.12527E+08
 
   -0.12658E+08         0.12793E+07         0.00000E+00
    0.12793E+07        -0.47081E+08         0.00000E+00
    0.00000E+00         0.00000E+00        -0.12662E+08
 
   -0.12792E+08         0.12725E+07         0.00000E+00
    0.12725E+07        -0.47372E+08         0.00000E+00
    0.00000E+00         0.00000E+00        -0.12797E+08
 
   -0.12926E+08         0.12658E+07         0.00000E+00
    0.12658E+07        -0.47662E+08         0.00000E+00
    0.00000E+00         0.00000E+00        -0.12932E+08
 
   -0.13060E+08         0.12592E+07         0.00000E+00
    0.12592E+07        -0.47953E+08         0.00000E+00
    0.00000E+00         0.00000E+00        -0.13067E+08
 
   -0.13194E+08         0.12526E+07         0.00000E+00
    0.12526E+07        -0.48243E+08         0.00000E+00
    0.00000E+00         0.00000E+00        -0.13201E+08
 
   -0.13328E+08         0.12462E+07         0.00000E+00
    0.12462E+07        -0.48534E+08         0.00000E+00
    0.00000E+00         0.00000E+00        -0.13336E+08
 
   -0.13463E+08         0.12397E+07         0.00000E+00
    0.12397E+07        -0.48825E+08         0.00000E+00
    0.00000E+00         0.00000E+00        -0.13471E+08
 
   -0.13598E+08         0.12332E+07         0.00000E+00
    0.12332E+07        -0.49116E+08         0.00000E+00
    0.00000E+00         0.00000E+00        -0.13605E+08
 
   -0.13733E+08         0.12267E+07         0.00000E+00
    0.12267E+07        -0.49408E+08         0.00000E+00
    0.00000E+00         0.00000E+00        -0.13740E+08
 
   -0.13869E+08         0.12200E+07         0.00000E+00
    0.12200E+07        -0.49701E+08         0.00000E+00
    0.00000E+00         0.00000E+00        -0.13875E+08
 
   -0.14006E+08         0.12133E+07         0.00000E+00
    0.12133E+07        -0.49994E+08         0.00000E+00
    0.00000E+00         0.00000E+00        -0.14010E+08
 
   -0.14143E+08         0.12064E+07         0.00000E+00
    0.12064E+07        -0.50289E+08         0.00000E+00
    0.00000E+00         0.00000E+00        -0.14145E+08
 
   -0.14281E+08         0.11993E+07         0.00000E+00
    0.11993E+07        -0.50585E+08         0.00000E+00
    0.00000E+00         0.00000E+00        -0.14281E+08
 
   -0.14420E+08         0.11920E+07         0.00000E+00
    0.11920E+07        -0.50882E+08         0.00000E+00
    0.00000E+00         0.00000E+00        -0.14417E+08
 
   -0.14560E+08         0.11845E+07         0.00000E+00
    0.11845E+07        -0.51180E+08         0.00000E+00
    0.00000E+00         0.00000E+00        -0.14554E+08
 
   -0.14700E+08         0.11765E+07         0.00000E+00
    0.11765E+07        -0.51480E+08         0.00000E+00
    0.00000E+00         0.00000E+00        -0.14691E+08
 
   -0.14842E+08         0.11682E+07         0.00000E+00
    0.11682E+07        -0.51782E+08         0.00000E+00
    0.00000E+00         0.00000E+00        -0.14828E+08
 
   -0.14985E+08         0.11595E+07         0.00000E+00
    0.11595E+07        -0.52085E+08         0.00000E+00
    0.00000E+00         0.00000E+00        -0.14965E+08
 
   -0.15130E+08         0.11501E+07         0.00000E+00
    0.11501E+07        -0.52391E+08         0.00000E+00
    0.00000E+00         0.00000E+00        -0.15104E+08
 
   -0.15276E+08         0.11402E+07         0.00000E+00
    0.11402E+07        -0.52698E+08         0.00000E+00
    0.00000E+00         0.00000E+00        -0.15242E+08
 
   -0.15423E+08         0.11295E+07         0.00000E+00
    0.11295E+07        -0.53008E+08         0.00000E+00
    0.00000E+00         0.00000E+00        -0.15381E+08
 
   -0.15572E+08         0.11179E+07         0.00000E+00
    0.11179E+07        -0.53320E+08         0.00000E+00
    0.00000E+00         0.00000E+00        -0.15521E+08
 
   -0.15724E+08         0.11053E+07         0.00000E+00
    0.11053E+07        -0.53635E+08         0.00000E+00
    0.00000E+00         0.00000E+00        -0.15660E+08
 
   -0.15877E+08         0.10915E+07         0.00000E+00
    0.10915E+07        -0.53953E+08         0.00000E+00
    0.00000E+00         0.00000E+00        -0.15801E+08
 
   -0.16032E+08         0.10764E+07         0.00000E+00
    0.10764E+07        -0.54274E+08         0.00000E+00
    0.00000E+00         0.00000E+00        -0.15942E+08
 
   -0.16190E+08         0.10596E+07         0.00000E+00
    0.10596E+07        -0.54598E+08         0.00000E+00
    0.00000E+00         0.00000E+00        -0.16083E+08
 
   -0.16351E+08         0.10409E+07         0.00000E+00
    0.10409E+07        -0.54926E+08         0.00000E+00
    0.00000E+00         0.00000E+00        -0.16225E+08
 
   -0.16515E+08         0.10200E+07         0.00000E+00
    0.10200E+07        -0.55258E+08         0.00000E+00
    0.00000E+00         0.00000E+00        -0.16367E+08
 
   -0.16682E+08         0.99665E+06         0.00000E+00
    0.99665E+06        -0.55593E+08         0.00000E+00
    0.00000E+00         0.00000E+00        -0.16510E+08
 
   -0.16852E+08         0.97042E+06         0.00000E+00
    0.97042E+06        -0.55934E+08         0.00000E+00
    0.00000E+00         0.00000E+00        -0.16654E+08
 
   -0.17025E+08         0.94095E+06         0.00000E+00
    0.94095E+06        -0.56278E+08         0.00000E+00
    0.00000E+00         0.00000E+00        -0.16798E+08
 
   -0.17202E+08         0.90784E+06         0.00000E+00
    0.90784E+06        -0.56628E+08         0.00000E+00
    0.00000E+00         0.00000E+00        -0.16943E+08
 
   -0.17383E+08         0.87069E+06         0.00000E+00
    0.87069E+06        -0.56983E+08         0.00000E+00
    0.00000E+00         0.00000E+00        -0.17089E+08
 
   -0.17567E+08         0.82913E+06         0.00000E+00
    0.82913E+06        -0.57342E+08         0.00000E+00
    0.00000E+00         0.00000E+00        -0.17235E+08
 
   -0.17754E+08         0.78281E+06         0.00000E+00
    0.78281E+06        -0.57705E+08         0.00000E+00
    0.00000E+00         0.00000E+00        -0.17383E+08
 
   -0.17945E+08         0.73147E+06         0.00000E+00
    0.73147E+06        -0.58073E+08         0.00000E+00
    0.00000E+00         0.00000E+00        -0.17530E+08
 
   -0.18138E+08         0.67496E+06         0.00000E+00
    0.67496E+06        -0.58443E+08         0.00000E+00
    0.00000E+00         0.00000E+00        -0.17678E+08
 
   -0.18333E+08         0.61332E+06         0.00000E+00
    0.61332E+06        -0.58814E+08         0.00000E+00
    0.00000E+00         0.00000E+00        -0.17824E+08
 
   -0.18530E+08         0.54680E+06         0.00000E+00
    0.54680E+06        -0.59183E+08         0.00000E+00
    0.00000E+00         0.00000E+00        -0.17968E+08
 
   -0.18728E+08         0.47599E+06         0.00000E+00
    0.47599E+06        -0.59548E+08         0.00000E+00
    0.00000E+00         0.00000E+00        -0.18106E+08
 
   -0.18928E+08         0.40193E+06         0.00000E+00
    0.40193E+06        -0.59904E+08         0.00000E+00
    0.00000E+00         0.00000E+00        -0.18235E+08
 
   -0.19130E+08         0.32623E+06         0.00000E+00
    0.32623E+06        -0.60245E+08         0.00000E+00
    0.00000E+00         0.00000E+00        -0.18348E+08
 
   -0.19339E+08         0.25124E+06         0.00000E+00
    0.25124E+06        -0.60566E+08         0.00000E+00
    0.00000E+00         0.00000E+00        -0.18438E+08
 
   -0.19561E+08         0.18032E+06         0.00000E+00
    0.18032E+06        -0.60862E+08         0.00000E+00
    0.00000E+00         0.00000E+00        -0.18494E+08
 
   -0.19803E+08         0.11734E+06         0.00000E+00
    0.11734E+06        -0.61132E+08         0.00000E+00
    0.00000E+00         0.00000E+00        -0.18507E+08
 
   -0.20076E+08         0.64727E+05         0.00000E+00
    0.64727E+05        -0.61379E+08         0.00000E+00
    0.00000E+00         0.00000E+00        -0.18474E+08
 
   -0.20385E+08         0.20563E+05         0.00000E+00
    0.20563E+05        -0.61608E+08         0.00000E+00
    0.00000E+00         0.00000E+00        -0.18394E+08
 
   -0.57265E+07         0.25559E+05         0.00000E+00
    0.25559E+05        -0.28151E+08         0.00000E+00
    0.00000E+00         0.00000E+00        -0.86701E+07
 
   -0.60780E+07         0.85107E+05         0.00000E+00
    0.85107E+05        -0.28256E+08         0.00000E+00
    0.00000E+00         0.00000E+00        -0.86701E+07
 
   -0.63742E+07         0.16547E+06         0.00000E+00
    0.16547E+06        -0.28454E+08         0.00000E+00
    0.00000E+00         0.00000E+00        -0.86701E+07
 
   -0.66266E+07         0.26937E+06         0.00000E+00
    0.26937E+06        -0.28727E+08         0.00000E+00
    0.00000E+00         0.00000E+00        -0.86701E+07
 
   -0.68465E+07         0.39154E+06         0.00000E+00
    0.39154E+06        -0.29056E+08         0.00000E+00
    0.00000E+00         0.00000E+00        -0.86701E+07
 
   -0.70429E+07         0.52358E+06         0.00000E+00
    0.52358E+06        -0.29425E+08         0.00000E+00
    0.00000E+00         0.00000E+00        -0.86701E+07
 
   -0.72218E+07         0.65772E+06         0.00000E+00
    0.65772E+06        -0.29821E+08         0.00000E+00
    0.00000E+00         0.00000E+00        -0.86701E+07
 
   -0.73870E+07         0.78824E+06         0.00000E+00
    0.78824E+06        -0.30237E+08         0.00000E+00
    0.00000E+00         0.00000E+00        -0.86701E+07
 
   -0.75414E+07         0.91142E+06         0.00000E+00
    0.91142E+06        -0.30666E+08         0.00000E+00
    0.00000E+00         0.00000E+00        -0.86701E+07
 
   -0.76869E+07         0.10249E+07         0.00000E+00
    0.10249E+07        -0.31105E+08         0.00000E+00
    0.00000E+00         0.00000E+00        -0.86701E+07
 
   -0.78254E+07         0.11273E+07         0.00000E+00
    0.11273E+07        -0.31549E+08         0.00000E+00
    0.00000E+00         0.00000E+00        -0.86701E+07
 
   -0.79581E+07         0.12174E+07         0.00000E+00
    0.12174E+07        -0.31998E+08         0.00000E+00
    0.00000E+00         0.00000E+00        -0.86701E+07
 
   -0.80862E+07         0.12944E+07         0.00000E+00
    0.12944E+07        -0.32449E+08         0.00000E+00
    0.00000E+00         0.00000E+00        -0.86701E+07
 
   -0.82106E+07         0.13573E+07         0.00000E+00
    0.13573E+07        -0.32904E+08         0.00000E+00
    0.00000E+00         0.00000E+00        -0.86701E+07
 
   -0.83320E+07         0.14049E+07         0.00000E+00
    0.14049E+07        -0.33361E+08         0.00000E+00
    0.00000E+00         0.00000E+00        -0.86701E+07
 
   -0.84517E+07         0.14360E+07         0.00000E+00
    0.14360E+07        -0.33818E+08         0.00000E+00
    0.00000E+00         0.00000E+00        -0.86701E+07
 
   -0.85713E+07         0.14478E+07         0.00000E+00
    0.14478E+07        -0.34269E+08         0.00000E+00
    0.00000E+00         0.00000E+00        -0.86769E+07
 
   -0.86886E+07         0.14653E+07         0.00000E+00
    0.14653E+07        -0.34678E+08         0.00000E+00
    0.00000E+00         0.00000E+00        -0.87507E+07
 
   -0.88027E+07         0.14801E+07         0.00000E+00
    0.14801E+07        -0.35058E+08         0.00000E+00
    0.00000E+00         0.00000E+00        -0.88779E+07
 
   -0.89191E+07         0.14897E+07         0.00000E+00
    0.14897E+07        -0.35443E+08         0.00000E+00
    0.00000E+00         0.00000E+00        -0.90011E+07
 
   -0.90364E+07         0.14942E+07         0.00000E+00
    0.14942E+07        -0.35829E+08         0.00000E+00
    0.00000E+00         0.00000E+00        -0.91203E+07
 
   -0.91537E+07         0.14964E+07         0.00000E+00
    0.14964E+07        -0.36215E+08         0.00000E+00
    0.00000E+00         0.00000E+00        -0.92356E+07
 
   -0.92704E+07         0.14974E+07         0.00000E+00
    0.14974E+07        -0.36598E+08         0.00000E+00
    0.00000E+00         0.00000E+00        -0.93472E+07
 
   -0.93858E+07         0.14979E+07         0.00000E+00
    0.14979E+07        -0.36980E+08         0.00000E+00
    0.00000E+00         0.00000E+00        -0.94551E+07
 
   -0.94998E+07         0.14979E+07         0.00000E+00
    0.14979E+07        -0.37358E+08         0.00000E+00
    0.00000E+00         0.00000E+00        -0.95596E+07
 
   -0.96119E+07         0.14975E+07         0.00000E+00
    0.14975E+07        -0.37734E+08         0.00000E+00
    0.00000E+00         0.00000E+00        -0.96607E+07
 
   -0.97220E+07         0.14963E+07         0.00000E+00
    0.14963E+07        -0.38106E+08         0.00000E+00
    0.00000E+00         0.00000E+00        -0.97586E+07
 
   -0.98302E+07         0.14944E+07         0.00000E+00
    0.14944E+07        -0.38475E+08         0.00000E+00
    0.00000E+00         0.00000E+00        -0.98534E+07
 
   -0.99366E+07         0.14914E+07         0.00000E+00
    0.14914E+07        -0.38842E+08         0.00000E+00
    0.00000E+00         0.00000E+00        -0.99453E+07
 
   -0.10041E+08         0.14873E+07         0.00000E+00
    0.14873E+07        -0.39206E+08         0.00000E+00
    0.00000E+00         0.00000E+00        -0.10034E+08
 
   -0.10144E+08         0.14817E+07         0.00000E+00
    0.14817E+07        -0.39568E+08         0.00000E+00
    0.00000E+00         0.00000E+00        -0.10121E+08
 
   -0.10246E+08         0.14745E+07         0.00000E+00
    0.14745E+07        -0.39928E+08         0.00000E+00
    0.00000E+00         0.00000E+00        -0.10205E+08
 
   -0.10347E+08         0.14655E+07         0.00000E+00
    0.14655E+07        -0.40288E+08         0.00000E+00
    0.00000E+00         0.00000E+00        -0.10286E+08
 
   -0.10448E+08         0.14547E+07         0.00000E+00
    0.14547E+07        -0.40647E+08         0.00000E+00
    0.00000E+00         0.00000E+00        -0.10365E+08
 
   -0.10548E+08         0.14421E+07         0.00000E+00
    0.14421E+07        -0.41007E+08         0.00000E+00
    0.00000E+00         0.00000E+00        -0.10442E+08
 
   -0.10647E+08         0.14282E+07         0.00000E+00
    0.14282E+07        -0.41370E+08         0.00000E+00
    0.00000E+00         0.00000E+00        -0.10517E+08
 
   -0.10745E+08         0.14135E+07         0.00000E+00
    0.14135E+07        -0.41727E+08         0.00000E+00
    0.00000E+00         0.00000E+00        -0.10598E+08
 
   -0.10843E+08         0.13953E+07         0.00000E+00
    0.13953E+07        -0.42061E+08         0.00000E+00
    0.00000E+00         0.00000E+00        -0.10706E+08
 
   -0.10942E+08         0.13781E+07         0.00000E+00
    0.13781E+07        -0.42385E+08         0.00000E+00
    0.00000E+00         0.00000E+00        -0.10825E+08
 
   -0.11040E+08         0.13623E+07         0.00000E+00
    0.13623E+07        -0.42712E+08         0.00000E+00
    0.00000E+00         0.00000E+00        -0.10943E+08
 
   -0.11140E+08         0.13479E+07         0.00000E+00
    0.13479E+07        -0.43039E+08         0.00000E+00
    0.00000E+00         0.00000E+00        -0.11060E+08
 
   -0.11241E+08         0.13350E+07         0.00000E+00
    0.13350E+07        -0.43368E+08         0.00000E+00
    0.00000E+00         0.00000E+00        -0.11175E+08
 
   -0.11342E+08         0.13235E+07         0.00000E+00
    0.13235E+07        -0.43695E+08         0.00000E+00
    0.00000E+00         0.00000E+00        -0.11289E+08
 
   -0.11444E+08         0.13133E+07         0.00000E+00
    0.13133E+07        -0.44023E+08         0.00000E+00
    0.00000E+00         0.00000E+00        -0.11402E+08
 
   -0.11547E+08         0.13042E+07         0.00000E+00
    0.13042E+07        -0.44349E+08         0.00000E+00
    0.00000E+00         0.00000E+00        -0.11513E+08
 
   -0.11650E+08         0.12960E+07         0.00000E+00
    0.12960E+07        -0.44674E+08         0.00000E+00
    0.00000E+00         0.00000E+00        -0.11624E+08
 
   -0.11753E+08         0.12886E+07         0.00000E+00
    0.12886E+07        -0.44999E+08         0.00000E+00
    0.00000E+00         0.00000E+00        -0.11734E+08
 
   -0.11861E+08         0.12815E+07         0.00000E+00
    0.12815E+07        -0.45318E+08         0.00000E+00
    0.00000E+00         0.00000E+00        -0.11847E+08
 
   -0.11987E+08         0.12737E+07         0.00000E+00
    0.12737E+07        -0.45620E+08         0.00000E+00
    0.00000E+00         0.00000E+00        -0.11977E+08
 
   -0.12120E+08         0.12657E+07         0.00000E+00
    0.12657E+07        -0.45914E+08         0.00000E+00
    0.00000E+00         0.00000E+00        -0.12114E+08
 
   -0.12254E+08         0.12581E+07         0.00000E+00
    0.12581E+07        -0.46206E+08         0.00000E+00
    0.00000E+00         0.00000E+00        -0.12251E+08
 
   -0.12388E+08         0.12508E+07         0.00000E+00
    0.12508E+07        -0.46498E+08         0.00000E+00
    0.00000E+00         0.00000E+00        -0.12388E+08
 
   -0.12521E+08         0.12438E+07         0.00000E+00
    0.12438E+07        -0.46790E+08         0.00000E+00
    0.00000E+00         0.00000E+00        -0.12524E+08
 
   -0.12655E+08         0.12370E+07         0.00000E+00
    0.12370E+07        -0.47081E+08         0.00000E+00
    0.00000E+00         0.00000E+00        -0.12659E+08
 
   -0.12789E+08         0.12304E+07         0.00000E+00
    0.12304E+07        -0.47372E+08         0.00000E+00
    0.00000E+00         0.00000E+00        -0.12794E+08
 
   -0.12923E+08         0.12239E+07         0.00000E+00
    0.12239E+07        -0.47662E+08         0.00000E+00
    0.00000E+00         0.00000E+00        -0.12929E+08
 
   -0.13057E+08         0.12175E+07         0.00000E+00
    0.12175E+07        -0.47953E+08         0.00000E+00
    0.00000E+00         0.00000E+00        -0.13064E+08
 
   -0.13191E+08         0.12112E+07         0.00000E+00
    0.12112E+07        -0.48243E+08         0.00000E+00
    0.00000E+00         0.00000E+00        -0.13199E+08
 
   -0.13325E+08         0.12049E+07         0.00000E+00
    0.12049E+07        -0.48534E+08         0.00000E+00
    0.00000E+00         0.00000E+00        -0.13333E+08
 
   -0.13460E+08         0.11987E+07         0.00000E+00
    0.11987E+07        -0.48825E+08         0.00000E+00
    0.00000E+00         0.00000E+00        -0.13468E+08
 
   -0.13595E+08         0.11924E+07         0.00000E+00
    0.11924E+07        -0.49116E+08         0.00000E+00
    0.00000E+00         0.00000E+00        -0.13603E+08
 
   -0.13731E+08         0.11861E+07         0.00000E+00
    0.11861E+07        -0.49408E+08         0.00000E+00
    0.00000E+00         0.00000E+00        -0.13738E+08
 
   -0.13867E+08         0.11796E+07         0.00000E+00
    0.11796E+07        -0.49701E+08         0.00000E+00
    0.00000E+00         0.00000E+00        -0.13873E+08
 
   -0.14003E+08         0.11731E+07         0.00000E+00
    0.11731E+07        -0.49995E+08         0.00000E+00
    0.00000E+00         0.00000E+00        -0.14008E+08
 
   -0.14141E+08         0.11665E+07         0.00000E+00
    0.11665E+07        -0.50290E+08         0.00000E+00
    0.00000E+00         0.00000E+00        -0.14143E+08
 
   -0.14279E+08         0.11596E+07         0.00000E+00
    0.11596E+07        -0.50585E+08         0.00000E+00
    0.00000E+00         0.00000E+00        -0.14279E+08
 
   -0.14418E+08         0.11525E+07         0.00000E+00
    0.11525E+07        -0.50882E+08         0.00000E+00
    0.00000E+00         0.00000E+00        -0.14415E+08
 
   -0.14558E+08         0.11452E+07         0.00000E+00
    0.11452E+07        -0.51181E+08         0.00000E+00
    0.00000E+00         0.00000E+00        -0.14552E+08
 
   -0.14698E+08         0.11375E+07         0.00000E+00
    0.11375E+07        -0.51481E+08         0.00000E+00
    0.00000E+00         0.00000E+00        -0.14688E+08
 
   -0.14840E+08         0.11295E+07         0.00000E+00
    0.11295E+07        -0.51782E+08         0.00000E+00
    0.00000E+00         0.00000E+00        -0.14826E+08
 
   -0.14984E+08         0.11210E+07         0.00000E+00
    0.11210E+07        -0.52086E+08         0.00000E+00
    0.00000E+00         0.00000E+00        -0.14963E+08
 
   -0.15128E+08         0.11119E+07         0.00000E+00
    0.11119E+07        -0.52391E+08         0.00000E+00
    0.00000E+00         0.00000E+00        -0.15101E+08
 
   -0.15274E+08         0.11023E+07         0.00000E+00
    0.11023E+07        -0.52699E+08         0.00000E+00
    0.00000E+00         0.00000E+00        -0.15240E+08
 
   -0.15422E+08         0.10920E+07         0.00000E+00
    0.10920E+07        -0.53008E+08         0.00000E+00
    0.00000E+00         0.00000E+00        -0.15378E+08
 
   -0.15571E+08         0.10808E+07         0.00000E+00
    0.10808E+07        -0.53320E+08         0.00000E+00
    0.00000E+00         0.00000E+00        -0.15518E+08
 
   -0.15723E+08         0.10686E+07         0.00000E+00
    0.10686E+07        -0.53635E+08         0.00000E+00
    0.00000E+00         0.00000E+00        -0.15657E+08
 
   -0.15876E+08         0.10553E+07         0.00000E+00
    0.10553E+07        -0.53953E+08         0.00000E+00
    0.00000E+00         0.00000E+00        -0.15797E+08
 
   -0.16032E+08         0.10406E+07         0.00000E+00
    0.10406E+07        -0.54273E+08         0.00000E+00
    0.00000E+00         0.00000E+00        -0.15938E+08
 
   -0.16190E+08         0.10243E+07         0.00000E+00
    0.10243E+07        -0.54597E+08         0.00000E+00
    0.00000E+00         0.00000E+00        -0.16079E+08
 
   -0.16351E+08         0.10062E+07         0.00000E+00
    0.10062E+07        -0.54924E+08         0.00000E+00
    0.00000E+00         0.00000E+00        -0.16220E+08
 
   -0.16515E+08         0.98596E+06         0.00000E+00
    0.98596E+06        -0.55255E+08         0.00000E+00
    0.00000E+00         0.00000E+00        -0.16361E+08
 
   -0.16682E+08         0.96326E+06         0.00000E+00
    0.96326E+06        -0.55590E+08         0.00000E+00
    0.00000E+00         0.00000E+00        -0.16504E+08
 
   -0.16852E+08         0.93774E+06         0.00000E+00
    0.93774E+06        -0.55930E+08         0.00000E+00
    0.00000E+00         0.00000E+00        -0.16646E+08
 
   -0.17026E+08         0.90900E+06         0.00000E+00
    0.90900E+06        -0.56274E+08         0.00000E+00
    0.00000E+00         0.00000E+00        -0.16789E+08
 
   -0.17204E+08         0.87664E+06         0.00000E+00
    0.87664E+06        -0.56622E+08         0.00000E+00
    0.00000E+00         0.00000E+00        -0.16933E+08
 
   -0.17385E+08         0.84024E+06         0.00000E+00
    0.84024E+06        -0.56976E+08         0.00000E+00
    0.00000E+00         0.00000E+00        -0.17078E+08
 
   -0.17570E+08         0.79940E+06         0.00000E+00
    0.79940E+06        -0.57334E+08         0.00000E+00
    0.00000E+00         0.00000E+00        -0.17222E+08
 
   -0.17758E+08         0.75377E+06         0.00000E+00
    0.75377E+06        -0.57696E+08         0.00000E+00
    0.00000E+00         0.00000E+00        -0.17368E+08
 
   -0.17950E+08         0.70305E+06         0.00000E+00
    0.70305E+06        -0.58062E+08         0.00000E+00
    0.00000E+00         0.00000E+00        -0.17513E+08
 
   -0.18144E+08         0.64708E+06         0.00000E+00
    0.64708E+06        -0.58431E+08         0.00000E+00
    0.00000E+00         0.00000E+00        -0.17659E+08
 
   -0.18342E+08         0.58586E+06         0.00000E+00
    0.58586E+06        -0.58801E+08         0.00000E+00
    0.00000E+00         0.00000E+00        -0.17802E+08
 
   -0.18541E+08         0.51968E+06         0.00000E+00
    0.51968E+06        -0.59170E+08         0.00000E+00
    0.00000E+00         0.00000E+00        -0.17943E+08
 
   -0.18742E+08         0.44921E+06         0.00000E+00
    0.44921E+06        -0.59534E+08         0.00000E+00
    0.00000E+00         0.00000E+00        -0.18078E+08
 
   -0.18944E+08         0.37565E+06         0.00000E+00
    0.37565E+06        -0.59889E+08         0.00000E+00
    0.00000E+00         0.00000E+00        -0.18204E+08
 
   -0.19151E+08         0.30095E+06         0.00000E+00
    0.30095E+06        -0.60231E+08         0.00000E+00
    0.00000E+00         0.00000E+00        -0.18315E+08
 
   -0.19364E+08         0.22799E+06         0.00000E+00
    0.22799E+06        -0.60553E+08         0.00000E+00
    0.00000E+00         0.00000E+00        -0.18402E+08
 
   -0.19589E+08         0.16055E+06         0.00000E+00
    0.16055E+06        -0.60850E+08         0.00000E+00
    0.00000E+00         0.00000E+00        -0.18456E+08
 
   -0.19835E+08         0.10250E+06         0.00000E+00
    0.10250E+06        -0.61123E+08         0.00000E+00
    0.00000E+00         0.00000E+00        -0.18469E+08
 
   -0.20111E+08         0.55687E+05         0.00000E+00
    0.55687E+05        -0.61372E+08         0.00000E+00
    0.00000E+00         0.00000E+00        -0.18436E+08
 
   -0.20421E+08         0.17552E+05         0.00000E+00
    0.17552E+05        -0.61602E+08         0.00000E+00
    0.00000E+00         0.00000E+00        -0.18356E+08
 
   -0.56207E+07         0.19155E+05         0.00000E+00
    0.19155E+05        -0.28160E+08         0.00000E+00
    0.00000E+00         0.00000E+00        -0.86701E+07
 
   -0.59736E+07         0.66789E+05         0.00000E+00
    0.66789E+05        -0.28268E+08         0.00000E+00
    0.00000E+00         0.00000E+00        -0.86701E+07
 
   -0.62731E+07         0.13743E+06         0.00000E+00
    0.13743E+06        -0.28472E+08         0.00000E+00
    0.00000E+00         0.00000E+00        -0.86701E+07
 
   -0.65308E+07         0.23409E+06         0.00000E+00
    0.23409E+06        -0.28750E+08         0.00000E+00
    0.00000E+00         0.00000E+00        -0.86701E+07
 
   -0.67578E+07         0.35109E+06         0.00000E+00
    0.35109E+06        -0.29082E+08         0.00000E+00
    0.00000E+00         0.00000E+00        -0.86701E+07
 
   -0.69623E+07         0.47939E+06         0.00000E+00
    0.47939E+06        -0.29451E+08         0.00000E+00
    0.00000E+00         0.00000E+00        -0.86701E+07
 
   -0.71496E+07         0.61071E+06         0.00000E+00
    0.61071E+06        -0.29848E+08         0.00000E+00
    0.00000E+00         0.00000E+00        -0.86701E+07
 
   -0.73230E+07         0.73903E+06         0.00000E+00
    0.73903E+06        -0.30262E+08         0.00000E+00
    0.00000E+00         0.00000E+00        -0.86701E+07
 
   -0.74851E+07         0.86049E+06         0.00000E+00
    0.86049E+06        -0.30690E+08         0.00000E+00
    0.00000E+00         0.00000E+00        -0.86701E+07
 
   -0.76378E+07         0.97267E+06         0.00000E+00
    0.97267E+06        -0.31126E+08         0.00000E+00
    0.00000E+00         0.00000E+00        -0.86701E+07
 
   -0.77826E+07         0.10740E+07         0.00000E+00
    0.10740E+07        -0.31568E+08         0.00000E+00
    0.00000E+00         0.00000E+00        -0.86701E+07
 
   -0.79211E+07         0.11634E+07         0.00000E+00
    0.11634E+07        -0.32014E+08         0.00000E+00
    0.00000E+00         0.00000E+00        -0.86701E+07
 
   -0.80543E+07         0.12399E+07         0.00000E+00
    0.12399E+07        -0.32463E+08         0.00000E+00
    0.00000E+00         0.00000E+00        -0.86701E+07
 
   -0.81832E+07         0.13025E+07         0.00000E+00
    0.13025E+07        -0.32915E+08         0.00000E+00
    0.00000E+00         0.00000E+00        -0.86701E+07
 
   -0.83086E+07         0.13499E+07         0.00000E+00
    0.13499E+07        -0.33369E+08         0.00000E+00
    0.00000E+00         0.00000E+00        -0.86701E+07
 
   -0.84313E+07         0.13811E+07         0.00000E+00
    0.13811E+07        -0.33823E+08         0.00000E+00
    0.00000E+00         0.00000E+00        -0.86701E+07
 
   -0.85535E+07         0.13940E+07         0.00000E+00
    0.13940E+07        -0.34271E+08         0.00000E+00
    0.00000E+00         0.00000E+00        -0.86735E+07
 
   -0.86729E+07         0.14098E+07         0.00000E+00
    0.14098E+07        -0.34681E+08         0.00000E+00
    0.00000E+00         0.00000E+00        -0.87422E+07
 
   -0.87889E+07         0.14258E+07         0.00000E+00
    0.14258E+07        -0.35061E+08         0.00000E+00
    0.00000E+00         0.00000E+00        -0.88678E+07
 
   -0.89062E+07         0.14361E+07         0.00000E+00
    0.14361E+07        -0.35445E+08         0.00000E+00
    0.00000E+00         0.00000E+00        -0.89897E+07
 
   -0.90237E+07         0.14412E+07         0.00000E+00
    0.14412E+07        -0.35830E+08         0.00000E+00
    0.00000E+00         0.00000E+00        -0.91079E+07
 
   -0.91410E+07         0.14438E+07         0.00000E+00
    0.14438E+07        -0.36215E+08         0.00000E+00
    0.00000E+00         0.00000E+00        -0.92226E+07
 
   -0.92576E+07         0.14452E+07         0.00000E+00
    0.14452E+07        -0.36599E+08         0.00000E+00
    0.00000E+00         0.00000E+00        -0.93337E+07
 
   -0.93731E+07         0.14459E+07         0.00000E+00
    0.14459E+07        -0.36980E+08         0.00000E+00
    0.00000E+00         0.00000E+00        -0.94413E+07
 
   -0.94872E+07         0.14461E+07         0.00000E+00
    0.14461E+07        -0.37358E+08         0.00000E+00
    0.00000E+00         0.00000E+00        -0.95457E+07
 
   -0.95995E+07         0.14458E+07         0.00000E+00
    0.14458E+07        -0.37733E+08         0.00000E+00
    0.00000E+00         0.00000E+00        -0.96468E+07
 
   -0.97100E+07         0.14448E+07         0.00000E+00
    0.14448E+07        -0.38106E+08         0.00000E+00
    0.00000E+00         0.00000E+00        -0.97448E+07
 
   -0.98186E+07         0.14430E+07         0.00000E+00
    0.14430E+07        -0.38475E+08         0.00000E+00
    0.00000E+00         0.00000E+00        -0.98398E+07
 
   -0.99254E+07         0.14402E+07         0.00000E+00
    0.14402E+07        -0.38841E+08         0.00000E+00
    0.00000E+00         0.00000E+00        -0.99320E+07
 
   -0.10031E+08         0.14363E+07         0.00000E+00
    0.14363E+07        -0.39205E+08         0.00000E+00
    0.00000E+00         0.00000E+00        -0.10021E+08
 
   -0.10134E+08         0.14310E+07         0.00000E+00
    0.14310E+07        -0.39567E+08         0.00000E+00
    0.00000E+00         0.00000E+00        -0.10108E+08
 
   -0.10237E+08         0.14241E+07         0.00000E+00
    0.14241E+07        -0.39927E+08         0.00000E+00
    0.00000E+00         0.00000E+00        -0.10192E+08
 
   -0.10339E+08         0.14154E+07         0.00000E+00
    0.14154E+07        -0.40286E+08         0.00000E+00
    0.00000E+00         0.00000E+00        -0.10274E+08
 
   -0.10440E+08         0.14049E+07         0.00000E+00
    0.14049E+07        -0.40645E+08         0.00000E+00
    0.00000E+00         0.00000E+00        -0.10354E+08
 
   -0.10541E+08         0.13927E+07         0.00000E+00
    0.13927E+07        -0.41005E+08         0.00000E+00
    0.00000E+00         0.00000E+00        -0.10431E+08
 
   -0.10641E+08         0.13791E+07         0.00000E+00
    0.13791E+07        -0.41367E+08         0.00000E+00
    0.00000E+00         0.00000E+00        -0.10506E+08
 
   -0.10740E+08         0.13647E+07         0.00000E+00
    0.13647E+07        -0.41723E+08         0.00000E+00
    0.00000E+00         0.00000E+00        -0.10589E+08
 
   -0.10838E+08         0.13469E+07         0.00000E+00
    0.13469E+07        -0.42057E+08         0.00000E+00
    0.00000E+00         0.00000E+00        -0.10697E+08
 
   -0.10937E+08         0.13302E+07         0.00000E+00
    0.13302E+07        -0.42382E+08         0.00000E+00
    0.00000E+00         0.00000E+00        -0.10817E+08
 
   -0.11036E+08         0.13149E+07         0.00000E+00
    0.13149E+07        -0.42709E+08         0.00000E+00
    0.00000E+00         0.00000E+00        -0.10936E+08
 
   -0.11135E+08         0.13010E+07         0.00000E+00
    0.13010E+07        -0.43037E+08         0.00000E+00
    0.00000E+00         0.00000E+00        -0.11053E+08
 
   -0.11236E+08         0.12887E+07         0.00000E+00
    0.12887E+07        -0.43365E+08         0.00000E+00
    0.00000E+00         0.00000E+00        -0.11168E+08
 
   -0.11338E+08         0.12777E+07         0.00000E+00
    0.12777E+07        -0.43693E+08         0.00000E+00
    0.00000E+00         0.00000E+00        -0.11282E+08
 
   -0.11440E+08         0.12679E+07         0.00000E+00
    0.12679E+07        -0.44021E+08         0.00000E+00
    0.00000E+00         0.00000E+00        -0.11396E+08
 
   -0.11543E+08         0.12593E+07         0.00000E+00
    0.12593E+07        -0.44347E+08         0.00000E+00
    0.00000E+00         0.00000E+00        -0.11508E+08
 
   -0.11646E+08         0.12515E+07         0.00000E+00
    0.12515E+07        -0.44673E+08         0.00000E+00
    0.00000E+00         0.00000E+00        -0.11619E+08
 
   -0.11750E+08         0.12444E+07         0.00000E+00
    0.12444E+07        -0.44997E+08         0.00000E+00
    0.00000E+00         0.00000E+00        -0.11729E+08
 
   -0.11858E+08         0.12376E+07         0.00000E+00
    0.12376E+07        -0.45317E+08         0.00000E+00
    0.00000E+00         0.00000E+00        -0.11842E+08
 
   -0.11983E+08         0.12300E+07         0.00000E+00
    0.12300E+07        -0.45619E+08         0.00000E+00
    0.00000E+00         0.00000E+00        -0.11973E+08
 
   -0.12117E+08         0.12224E+07         0.00000E+00
    0.12224E+07        -0.45912E+08         0.00000E+00
    0.00000E+00         0.00000E+00        -0.12110E+08
 
   -0.12251E+08         0.12151E+07         0.00000E+00
    0.12151E+07        -0.46205E+08         0.00000E+00
    0.00000E+00         0.00000E+00        -0.12248E+08
 
   -0.12385E+08         0.12080E+07         0.00000E+00
    0.12080E+07        -0.46497E+08         0.00000E+00
    0.00000E+00         0.00000E+00        -0.12384E+08
 
   -0.12518E+08         0.12013E+07         0.00000E+00
    0.12013E+07        -0.46789E+08         0.00000E+00
    0.00000E+00         0.00000E+00        -0.12520E+08
 
   -0.12652E+08         0.11947E+07         0.00000E+00
    0.11947E+07        -0.47080E+08         0.00000E+00
    0.00000E+00         0.00000E+00        -0.12656E+08
 
   -0.12786E+08         0.11883E+07         0.00000E+00
    0.11883E+07        -0.47371E+08         0.00000E+00
    0.00000E+00         0.00000E+00        -0.12791E+08
 
   -0.12920E+08         0.11821E+07         0.00000E+00
    0.11821E+07        -0.47662E+08         0.00000E+00
    0.00000E+00         0.00000E+00        -0.12926E+08
 
   -0.13054E+08         0.11759E+07         0.00000E+00
    0.11759E+07        -0.47952E+08         0.00000E+00
    0.00000E+00         0.00000E+00        -0.13061E+08
 
   -0.13188E+08         0.11698E+07         0.00000E+00
    0.11698E+07        -0.48243E+08         0.00000E+00
    0.00000E+00         0.00000E+00        -0.13196E+08
 
   -0.13322E+08         0.11637E+07         0.00000E+00
    0.11637E+07        -0.48534E+08         0.00000E+00
    0.00000E+00         0.00000E+00        -0.13331E+08
 
   -0.13457E+08         0.11577E+07         0.00000E+00
    0.11577E+07        -0.48825E+08         0.00000E+00
    0.00000E+00         0.00000E+00        -0.13466E+08
 
   -0.13592E+08         0.11516E+07         0.00000E+00
    0.11516E+07        -0.49117E+08         0.00000E+00
    0.00000E+00         0.00000E+00        -0.13601E+08
 
   -0.13728E+08         0.11455E+07         0.00000E+00
    0.11455E+07        -0.49409E+08         0.00000E+00
    0.00000E+00         0.00000E+00        -0.13736E+08
 
   -0.13864E+08         0.11393E+07         0.00000E+00
    0.11393E+07        -0.49702E+08         0.00000E+00
    0.00000E+00         0.00000E+00        -0.13871E+08
 
   -0.14001E+08         0.11330E+07         0.00000E+00
    0.11330E+07        -0.49995E+08         0.00000E+00
    0.00000E+00         0.00000E+00        -0.14006E+08
 
   -0.14138E+08         0.11265E+07         0.00000E+00
    0.11265E+07        -0.50290E+08         0.00000E+00
    0.00000E+00         0.00000E+00        -0.14141E+08
 
   -0.14276E+08         0.11199E+07         0.00000E+00
    0.11199E+07        -0.50586E+08         0.00000E+00
    0.00000E+00         0.00000E+00        -0.14277E+08
 
   -0.14415E+08         0.11130E+07         0.00000E+00
    0.11130E+07        -0.50883E+08         0.00000E+00
    0.00000E+00         0.00000E+00        -0.14413E+08
 
   -0.14555E+08         0.11059E+07         0.00000E+00
    0.11059E+07        -0.51182E+08         0.00000E+00
    0.00000E+00         0.00000E+00        -0.14550E+08
 
   -0.14696E+08         0.10985E+07         0.00000E+00
    0.10985E+07        -0.51482E+08         0.00000E+00
    0.00000E+00         0.00000E+00        -0.14686E+08
 
   -0.14838E+08         0.10907E+07         0.00000E+00
    0.10907E+07        -0.51783E+08         0.00000E+00
    0.00000E+00         0.00000E+00        -0.14824E+08
 
   -0.14982E+08         0.10825E+07         0.00000E+00
    0.10825E+07        -0.52086E+08         0.00000E+00
    0.00000E+00         0.00000E+00        -0.14961E+08
 
   -0.15126E+08         0.10738E+07         0.00000E+00
    0.10738E+07        -0.52392E+08         0.00000E+00
    0.00000E+00         0.00000E+00        -0.15099E+08
 
   -0.15273E+08         0.10645E+07         0.00000E+00
    0.10645E+07        -0.52699E+08         0.00000E+00
    0.00000E+00         0.00000E+00        -0.15237E+08
 
   -0.15420E+08         0.10545E+07         0.00000E+00
    0.10545E+07        -0.53009E+08         0.00000E+00
    0.00000E+00         0.00000E+00        -0.15376E+08
 
   -0.15570E+08         0.10437E+07         0.00000E+00
    0.10437E+07        -0.53321E+08         0.00000E+00
    0.00000E+00         0.00000E+00        -0.15515E+08
 
   -0.15721E+08         0.10319E+07         0.00000E+00
    0.10319E+07        -0.53635E+08         0.00000E+00
    0.00000E+00         0.00000E+00        -0.15654E+08
 
   -0.15875E+08         0.10190E+07         0.00000E+00
    0.10190E+07        -0.53952E+08         0.00000E+00
    0.00000E+00         0.00000E+00        -0.15794E+08
 
   -0.16031E+08         0.10048E+07         0.00000E+00
    0.10048E+07        -0.54272E+08         0.00000E+00
    0.00000E+00         0.00000E+00        -0.15934E+08
 
   -0.16190E+08         0.98907E+06         0.00000E+00
    0.98907E+06        -0.54596E+08         0.00000E+00
    0.00000E+00         0.00000E+00        -0.16074E+08
 
   -0.16351E+08         0.97155E+06         0.00000E+00
    0.97155E+06        -0.54922E+08         0.00000E+00
    0.00000E+00         0.00000E+00        -0.16215E+08
 
   -0.16515E+08         0.95194E+06         0.00000E+00
    0.95194E+06        -0.55253E+08         0.00000E+00
    0.00000E+00         0.00000E+00        -0.16356E+08
 
   -0.16682E+08         0.92991E+06         0.00000E+00
    0.92991E+06        -0.55587E+08         0.00000E+00
    0.00000E+00         0.00000E+00        -0.16497E+08
 
   -0.16853E+08         0.90510E+06         0.00000E+00
    0.90510E+06        -0.55926E+08         0.00000E+00
    0.00000E+00         0.00000E+00        -0.16639E+08
 
   -0.17027E+08         0.87711E+06         0.00000E+00
    0.87711E+06        -0.56269E+08         0.00000E+00
    0.00000E+00         0.00000E+00        -0.16781E+08
 
   -0.17206E+08         0.84551E+06         0.00000E+00
    0.84551E+06        -0.56617E+08         0.00000E+00
    0.00000E+00         0.00000E+00        -0.16924E+08
 
   -0.17387E+08         0.80989E+06         0.00000E+00
    0.80989E+06        -0.56969E+08         0.00000E+00
    0.00000E+00         0.00000E+00        -0.17067E+08
 
   -0.17573E+08         0.76982E+06         0.00000E+00
    0.76982E+06        -0.57326E+08         0.00000E+00
    0.00000E+00         0.00000E+00        -0.17210E+08
 
   -0.17762E+08         0.72492E+06         0.00000E+00
    0.72492E+06        -0.57687E+08         0.00000E+00
    0.00000E+00         0.00000E+00        -0.17353E+08
 
   -0.17955E+08         0.67487E+06         0.00000E+00
    0.67487E+06        -0.58052E+08         0.00000E+00
    0.00000E+00         0.00000E+00        -0.17497E+08
 
   -0.18151E+08         0.61950E+06         0.00000E+00
    0.61950E+06        -0.58420E+08         0.00000E+00
    0.00000E+00         0.00000E+00        -0.17639E+08
 
   -0.18350E+08         0.55881E+06         0.00000E+00
    0.55881E+06        -0.58788E+08         0.00000E+00
    0.00000E+00         0.00000E+00        -0.17781E+08
 
   -0.18552E+08         0.49308E+06         0.00000E+00
    0.49308E+06        -0.59156E+08         0.00000E+00
    0.00000E+00         0.00000E+00        -0.17918E+08
 
   -0.18756E+08         0.42306E+06         0.00000E+00
    0.42306E+06        -0.59519E+08         0.00000E+00
    0.00000E+00         0.00000E+00        -0.18051E+08
 
   -0.18962E+08         0.35012E+06         0.00000E+00
    0.35012E+06        -0.59875E+08         0.00000E+00
    0.00000E+00         0.00000E+00        -0.18173E+08
 
   -0.19172E+08         0.27653E+06         0.00000E+00
    0.27653E+06        -0.60217E+08         0.00000E+00
    0.00000E+00         0.00000E+00        -0.18281E+08
 
   -0.19389E+08         0.20564E+06         0.00000E+00
    0.20564E+06        -0.60540E+08         0.00000E+00
    0.00000E+00         0.00000E+00        -0.18366E+08
 
   -0.19618E+08         0.14162E+06         0.00000E+00
    0.14162E+06        -0.60840E+08         0.00000E+00
    0.00000E+00         0.00000E+00        -0.18419E+08
 
   -0.19868E+08         0.88304E+05         0.00000E+00
    0.88304E+05        -0.61115E+08         0.00000E+00
    0.00000E+00         0.00000E+00        -0.18431E+08
 
   -0.20146E+08         0.47022E+05         0.00000E+00
    0.47022E+05        -0.61367E+08         0.00000E+00
    0.00000E+00         0.00000E+00        -0.18399E+08
 
   -0.20457E+08         0.14660E+05         0.00000E+00
    0.14660E+05        -0.61598E+08         0.00000E+00
    0.00000E+00         0.00000E+00        -0.18320E+08
 
   -0.55155E+07         0.12862E+05         0.00000E+00
    0.12862E+05        -0.28167E+08         0.00000E+00
    0.00000E+00         0.00000E+00        -0.86701E+07
 
   -0.58697E+07         0.48881E+05         0.00000E+00
    0.48881E+05        -0.28279E+08         0.00000E+00
    0.00000E+00         0.00000E+00        -0.86701E+07
 
   -0.61722E+07         0.11022E+06         0.00000E+00
    0.11022E+06        -0.28488E+08         0.00000E+00
    0.00000E+00         0.00000E+00        -0.86701E+07
 
   -0.64352E+07         0.20008E+06         0.00000E+00
    0.20008E+06        -0.28771E+08         0.00000E+00
    0.00000E+00         0.00000E+00        -0.86701E+07
 
   -0.66693E+07         0.31220E+06         0.00000E+00
    0.31220E+06        -0.29106E+08         0.00000E+00
    0.00000E+00         0.00000E+00        -0.86701E+07
 
   -0.68820E+07         0.43689E+06         0.00000E+00
    0.43689E+06        -0.29477E+08         0.00000E+00
    0.00000E+00         0.00000E+00        -0.86701E+07
 
   -0.70777E+07         0.56538E+06         0.00000E+00
    0.56538E+06        -0.29874E+08         0.00000E+00
    0.00000E+00         0.00000E+00        -0.86701E+07
 
   -0.72594E+07         0.69142E+06         0.00000E+00
    0.69142E+06        -0.30287E+08         0.00000E+00
    0.00000E+00         0.00000E+00        -0.86701E+07
 
   -0.74292E+07         0.81103E+06         0.00000E+00
    0.81103E+06        -0.30713E+08         0.00000E+00
    0.00000E+00         0.00000E+00        -0.86701E+07
 
   -0.75889E+07         0.92174E+06         0.00000E+00
    0.92174E+06        -0.31147E+08         0.00000E+00
    0.00000E+00         0.00000E+00        -0.86701E+07
 
   -0.77401E+07         0.10219E+07         0.00000E+00
    0.10219E+07        -0.31587E+08         0.00000E+00
    0.00000E+00         0.00000E+00        -0.86701E+07
 
   -0.78843E+07         0.11105E+07         0.00000E+00
    0.11105E+07        -0.32031E+08         0.00000E+00
    0.00000E+00         0.00000E+00        -0.86701E+07
 
   -0.80225E+07         0.11863E+07         0.00000E+00
    0.11863E+07        -0.32477E+08         0.00000E+00
    0.00000E+00         0.00000E+00        -0.86701E+07
 
   -0.81558E+07         0.12485E+07         0.00000E+00
    0.12485E+07        -0.32926E+08         0.00000E+00
    0.00000E+00         0.00000E+00        -0.86701E+07
 
   -0.82851E+07         0.12957E+07         0.00000E+00
    0.12957E+07        -0.33376E+08         0.00000E+00
    0.00000E+00         0.00000E+00        -0.86701E+07
 
   -0.84111E+07         0.13266E+07         0.00000E+00
    0.13266E+07        -0.33828E+08         0.00000E+00
    0.00000E+00         0.00000E+00        -0.86701E+07
 
   -0.85356E+07         0.13410E+07         0.00000E+00
    0.13410E+07        -0.34273E+08         0.00000E+00
    0.00000E+00         0.00000E+00        -0.86706E+07
 
   -0.86567E+07         0.13546E+07         0.00000E+00
    0.13546E+07        -0.34684E+08         0.00000E+00
    0.00000E+00         0.00000E+00        -0.87339E+07
 
   -0.87753E+07         0.13720E+07         0.00000E+00
    0.13720E+07        -0.35064E+08         0.00000E+00
    0.00000E+00         0.00000E+00        -0.88578E+07
 
   -0.88937E+07         0.13826E+07         0.00000E+00
    0.13826E+07        -0.35446E+08         0.00000E+00
    0.00000E+00         0.00000E+00        -0.89785E+07
 
   -0.90114E+07         0.13881E+07         0.00000E+00
    0.13881E+07        -0.35831E+08         0.00000E+00
    0.00000E+00         0.00000E+00        -0.90957E+07
 
   -0.91287E+07         0.13912E+07         0.00000E+00
    0.13912E+07        -0.36215E+08         0.00000E+00
    0.00000E+00         0.00000E+00        -0.92097E+07
 
   -0.92453E+07         0.13929E+07         0.00000E+00
    0.13929E+07        -0.36599E+08         0.00000E+00
    0.00000E+00         0.00000E+00        -0.93203E+07
 
   -0.93609E+07         0.13939E+07         0.00000E+00
    0.13939E+07        -0.36980E+08         0.00000E+00
    0.00000E+00         0.00000E+00        -0.94277E+07
 
   -0.94751E+07         0.13943E+07         0.00000E+00
    0.13943E+07        -0.37358E+08         0.00000E+00
    0.00000E+00         0.00000E+00        -0.95319E+07
 
   -0.95876E+07         0.13942E+07         0.00000E+00
    0.13942E+07        -0.37733E+08         0.00000E+00
    0.00000E+00         0.00000E+00        -0.96330E+07
 
   -0.96984E+07         0.13934E+07         0.00000E+00
    0.13934E+07        -0.38105E+08         0.00000E+00
    0.00000E+00         0.00000E+00        -0.97312E+07
 
   -0.98074E+07         0.13917E+07         0.00000E+00
    0.13917E+07        -0.38474E+08         0.00000E+00
    0.00000E+00         0.00000E+00        -0.98264E+07
 
   -0.99146E+07         0.13891E+07         0.00000E+00
    0.13891E+07        -0.38841E+08         0.00000E+00
    0.00000E+00         0.00000E+00        -0.99189E+07
 
   -0.10020E+08         0.13854E+07         0.00000E+00
    0.13854E+07        -0.39204E+08         0.00000E+00
    0.00000E+00         0.00000E+00        -0.10009E+08
 
   -0.10125E+08         0.13804E+07         0.00000E+00
    0.13804E+07        -0.39566E+08         0.00000E+00
    0.00000E+00         0.00000E+00        -0.10096E+08
 
   -0.10228E+08         0.13738E+07         0.00000E+00
    0.13738E+07        -0.39925E+08         0.00000E+00
    0.00000E+00         0.00000E+00        -0.10180E+08
 
   -0.10331E+08         0.13655E+07         0.00000E+00
    0.13655E+07        -0.40284E+08         0.00000E+00
    0.00000E+00         0.00000E+00        -0.10263E+08
 
   -0.10432E+08         0.13553E+07         0.00000E+00
    0.13553E+07        -0.40643E+08         0.00000E+00
    0.00000E+00         0.00000E+00        -0.10343E+08
 
   -0.10534E+08         0.13434E+07         0.00000E+00
    0.13434E+07        -0.41002E+08         0.00000E+00
    0.00000E+00         0.00000E+00        -0.10421E+08
 
   -0.10634E+08         0.13302E+07         0.00000E+00
    0.13302E+07        -0.41364E+08         0.00000E+00
    0.00000E+00         0.00000E+00        -0.10496E+08
 
   -0.10734E+08         0.13160E+07         0.00000E+00
    0.13160E+07        -0.41720E+08         0.00000E+00
    0.00000E+00         0.00000E+00        -0.10580E+08
 
   -0.10833E+08         0.12986E+07         0.00000E+00
    0.12986E+07        -0.42054E+08         0.00000E+00
    0.00000E+00         0.00000E+00        -0.10689E+08
 
   -0.10932E+08         0.12823E+07         0.00000E+00
    0.12823E+07        -0.42379E+08         0.00000E+00
    0.00000E+00         0.00000E+00        -0.10809E+08
 
   -0.11031E+08         0.12675E+07         0.00000E+00
    0.12675E+07        -0.42706E+08         0.00000E+00
    0.00000E+00         0.00000E+00        -0.10928E+08
 
   -0.11131E+08         0.12542E+07         0.00000E+00
    0.12542E+07        -0.43034E+08         0.00000E+00
    0.00000E+00         0.00000E+00        -0.11046E+08
 
   -0.11232E+08         0.12424E+07         0.00000E+00
    0.12424E+07        -0.43363E+08         0.00000E+00
    0.00000E+00         0.00000E+00        -0.11161E+08
 
   -0.11333E+08         0.12319E+07         0.00000E+00
    0.12319E+07        -0.43691E+08         0.00000E+00
    0.00000E+00         0.00000E+00        -0.11276E+08
 
   -0.11436E+08         0.12226E+07         0.00000E+00
    0.12226E+07        -0.44019E+08         0.00000E+00
    0.00000E+00         0.00000E+00        -0.11390E+08
 
   -0.11539E+08         0.12144E+07         0.00000E+00
    0.12144E+07        -0.44346E+08         0.00000E+00
    0.00000E+00         0.00000E+00        -0.11502E+08
 
   -0.11642E+08         0.12069E+07         0.00000E+00
    0.12069E+07        -0.44671E+08         0.00000E+00
    0.00000E+00         0.00000E+00        -0.11613E+08
 
   -0.11746E+08         0.12002E+07         0.00000E+00
    0.12002E+07        -0.44996E+08         0.00000E+00
    0.00000E+00         0.00000E+00        -0.11724E+08
 
   -0.11854E+08         0.11937E+07         0.00000E+00
    0.11937E+07        -0.45315E+08         0.00000E+00
    0.00000E+00         0.00000E+00        -0.11838E+08
 
   -0.11980E+08         0.11864E+07         0.00000E+00
    0.11864E+07        -0.45617E+08         0.00000E+00
    0.00000E+00         0.00000E+00        -0.11969E+08
 
   -0.12114E+08         0.11791E+07         0.00000E+00
    0.11791E+07        -0.45911E+08         0.00000E+00
    0.00000E+00         0.00000E+00        -0.12107E+08
 
   -0.12248E+08         0.11720E+07         0.00000E+00
    0.11720E+07        -0.46204E+08         0.00000E+00
    0.00000E+00         0.00000E+00        -0.12244E+08
 
   -0.12381E+08         0.11653E+07         0.00000E+00
    0.11653E+07        -0.46497E+08         0.00000E+00
    0.00000E+00         0.00000E+00        -0.12381E+08
 
   -0.12515E+08         0.11588E+07         0.00000E+00
    0.11588E+07        -0.46788E+08         0.00000E+00
    0.00000E+00         0.00000E+00        -0.12517E+08
 
   -0.12649E+08         0.11525E+07         0.00000E+00
    0.11525E+07        -0.47080E+08         0.00000E+00
    0.00000E+00         0.00000E+00        -0.12653E+08
 
   -0.12783E+08         0.11463E+07         0.00000E+00
    0.11463E+07        -0.47371E+08         0.00000E+00
    0.00000E+00         0.00000E+00        -0.12788E+08
 
   -0.12917E+08         0.11403E+07         0.00000E+00
    0.11403E+07        -0.47662E+08         0.00000E+00
    0.00000E+00         0.00000E+00        -0.12924E+08
 
   -0.13051E+08         0.11343E+07         0.00000E+00
    0.11343E+07        -0.47952E+08         0.00000E+00
    0.00000E+00         0.00000E+00        -0.13059E+08
 
   -0.13185E+08         0.11284E+07         0.00000E+00
    0.11284E+07        -0.48243E+08         0.00000E+00
    0.00000E+00         0.00000E+00        -0.13194E+08
 
   -0.13320E+08         0.11226E+07         0.00000E+00
    0.11226E+07        -0.48534E+08         0.00000E+00
    0.00000E+00         0.00000E+00        -0.13329E+08
 
   -0.13455E+08         0.11167E+07         0.00000E+00
    0.11167E+07        -0.48825E+08         0.00000E+00
    0.00000E+00         0.00000E+00        -0.13464E+08
 
   -0.13590E+08         0.11109E+07         0.00000E+00
    0.11109E+07        -0.49117E+08         0.00000E+00
    0.00000E+00         0.00000E+00        -0.13599E+08
 
   -0.13725E+08         0.11049E+07         0.00000E+00
    0.11049E+07        -0.49409E+08         0.00000E+00
    0.00000E+00         0.00000E+00        -0.13734E+08
 
   -0.13862E+08         0.10990E+07         0.00000E+00
    0.10990E+07        -0.49702E+08         0.00000E+00
    0.00000E+00         0.00000E+00        -0.13869E+08
 
   -0.13999E+08         0.10929E+07         0.00000E+00
    0.10929E+07        -0.49996E+08         0.00000E+00
    0.00000E+00         0.00000E+00        -0.14004E+08
 
   -0.14136E+08         0.10866E+07         0.00000E+00
    0.10866E+07        -0.50291E+08         0.00000E+00
    0.00000E+00         0.00000E+00        -0.14140E+08
 
   -0.14274E+08         0.10802E+07         0.00000E+00
    0.10802E+07        -0.50587E+08         0.00000E+00
    0.00000E+00         0.00000E+00        -0.14275E+08
 
   -0.14413E+08         0.10736E+07         0.00000E+00
    0.10736E+07        -0.50884E+08         0.00000E+00
    0.00000E+00         0.00000E+00        -0.14411E+08
 
   -0.14553E+08         0.10667E+07         0.00000E+00
    0.10667E+07        -0.51182E+08         0.00000E+00
    0.00000E+00         0.00000E+00        -0.14548E+08
 
   -0.14694E+08         0.10595E+07         0.00000E+00
    0.10595E+07        -0.51482E+08         0.00000E+00
    0.00000E+00         0.00000E+00        -0.14685E+08
 
   -0.14837E+08         0.10520E+07         0.00000E+00
    0.10520E+07        -0.51784E+08         0.00000E+00
    0.00000E+00         0.00000E+00        -0.14822E+08
 
   -0.14980E+08         0.10441E+07         0.00000E+00
    0.10441E+07        -0.52087E+08         0.00000E+00
    0.00000E+00         0.00000E+00        -0.14959E+08
 
   -0.15125E+08         0.10357E+07         0.00000E+00
    0.10357E+07        -0.52392E+08         0.00000E+00
    0.00000E+00         0.00000E+00        -0.15097E+08
 
   -0.15271E+08         0.10267E+07         0.00000E+00
    0.10267E+07        -0.52700E+08         0.00000E+00
    0.00000E+00         0.00000E+00        -0.15235E+08
 
   -0.15419E+08         0.10170E+07         0.00000E+00
    0.10170E+07        -0.53009E+08         0.00000E+00
    0.00000E+00         0.00000E+00        -0.15373E+08
 
   -0.15569E+08         0.10066E+07         0.00000E+00
    0.10066E+07        -0.53321E+08         0.00000E+00
    0.00000E+00         0.00000E+00        -0.15512E+08
 
   -0.15721E+08         0.99521E+06         0.00000E+00
    0.99521E+06        -0.53635E+08         0.00000E+00
    0.00000E+00         0.00000E+00        -0.15651E+08
 
   -0.15874E+08         0.98277E+06         0.00000E+00
    0.98277E+06        -0.53952E+08         0.00000E+00
    0.00000E+00         0.00000E+00        -0.15791E+08
 
   -0.16031E+08         0.96906E+06         0.00000E+00
    0.96906E+06        -0.54272E+08         0.00000E+00
    0.00000E+00         0.00000E+00        -0.15930E+08
 
   -0.16189E+08         0.95387E+06         0.00000E+00
    0.95387E+06        -0.54595E+08         0.00000E+00
    0.00000E+00         0.00000E+00        -0.16070E+08
 
   -0.16351E+08         0.93693E+06         0.00000E+00
    0.93693E+06        -0.54921E+08         0.00000E+00
    0.00000E+00         0.00000E+00        -0.16210E+08
 
   -0.16515E+08         0.91795E+06         0.00000E+00
    0.91795E+06        -0.55251E+08         0.00000E+00
    0.00000E+00         0.00000E+00        -0.16351E+08
 
   -0.16683E+08         0.89660E+06         0.00000E+00
    0.89660E+06        -0.55585E+08         0.00000E+00
    0.00000E+00         0.00000E+00        -0.16491E+08
 
   -0.16854E+08         0.87251E+06         0.00000E+00
    0.87251E+06        -0.55922E+08         0.00000E+00
    0.00000E+00         0.00000E+00        -0.16632E+08
 
   -0.17029E+08         0.84528E+06         0.00000E+00
    0.84528E+06        -0.56265E+08         0.00000E+00
    0.00000E+00         0.00000E+00        -0.16773E+08
 
   -0.17207E+08         0.81447E+06         0.00000E+00
    0.81447E+06        -0.56611E+08         0.00000E+00
    0.00000E+00         0.00000E+00        -0.16914E+08
 
   -0.17390E+08         0.77965E+06         0.00000E+00
    0.77965E+06        -0.56963E+08         0.00000E+00
    0.00000E+00         0.00000E+00        -0.17056E+08
 
   -0.17576E+08         0.74038E+06         0.00000E+00
    0.74038E+06        -0.57318E+08         0.00000E+00
    0.00000E+00         0.00000E+00        -0.17198E+08
 
   -0.17767E+08         0.69626E+06         0.00000E+00
    0.69626E+06        -0.57678E+08         0.00000E+00
    0.00000E+00         0.00000E+00        -0.17339E+08
 
   -0.17961E+08         0.64695E+06         0.00000E+00
    0.64695E+06        -0.58042E+08         0.00000E+00
    0.00000E+00         0.00000E+00        -0.17480E+08
 
   -0.18159E+08         0.59226E+06         0.00000E+00
    0.59226E+06        -0.58408E+08         0.00000E+00
    0.00000E+00         0.00000E+00        -0.17621E+08
 
   -0.18360E+08         0.53218E+06         0.00000E+00
    0.53218E+06        -0.58776E+08         0.00000E+00
    0.00000E+00         0.00000E+00        -0.17759E+08
 
   -0.18563E+08         0.46702E+06         0.00000E+00
    0.46702E+06        -0.59143E+08         0.00000E+00
    0.00000E+00         0.00000E+00        -0.17894E+08
 
   -0.18770E+08         0.39758E+06         0.00000E+00
    0.39758E+06        -0.59505E+08         0.00000E+00
    0.00000E+00         0.00000E+00        -0.18023E+08
 
   -0.18980E+08         0.32538E+06         0.00000E+00
    0.32538E+06        -0.59860E+08         0.00000E+00
    0.00000E+00         0.00000E+00        -0.18142E+08
 
   -0.19194E+08         0.25300E+06         0.00000E+00
    0.25300E+06        -0.60203E+08         0.00000E+00
    0.00000E+00         0.00000E+00        -0.18247E+08
 
   -0.19415E+08         0.18420E+06         0.00000E+00
    0.18420E+06        -0.60528E+08         0.00000E+00
    0.00000E+00         0.00000E+00        -0.18330E+08
 
   -0.19648E+08         0.12350E+06         0.00000E+00
    0.12350E+06        -0.60830E+08         0.00000E+00
    0.00000E+00         0.00000E+00        -0.18382E+08
 
   -0.19901E+08         0.74700E+05         0.00000E+00
    0.74700E+05        -0.61109E+08         0.00000E+00
    0.00000E+00         0.00000E+00        -0.18394E+08
 
   -0.20181E+08         0.38695E+05         0.00000E+00
    0.38695E+05        -0.61363E+08         0.00000E+00
    0.00000E+00         0.00000E+00        -0.18362E+08
 
   -0.20494E+08         0.11872E+05         0.00000E+00
    0.11872E+05        -0.61596E+08         0.00000E+00
    0.00000E+00         0.00000E+00        -0.18284E+08
 
   -0.54106E+07         0.66653E+04         0.00000E+00
    0.66653E+04        -0.28171E+08         0.00000E+00
    0.00000E+00         0.00000E+00        -0.86701E+07
 
   -0.57660E+07         0.31354E+05         0.00000E+00
    0.31354E+05        -0.28287E+08         0.00000E+00
    0.00000E+00         0.00000E+00        -0.86701E+07
 
   -0.60715E+07         0.83821E+05         0.00000E+00
    0.83821E+05        -0.28502E+08         0.00000E+00
    0.00000E+00         0.00000E+00        -0.86701E+07
 
   -0.63398E+07         0.16732E+06         0.00000E+00
    0.16732E+06        -0.28791E+08         0.00000E+00
    0.00000E+00         0.00000E+00        -0.86701E+07
 
   -0.65811E+07         0.27487E+06         0.00000E+00
    0.27487E+06        -0.29130E+08         0.00000E+00
    0.00000E+00         0.00000E+00        -0.86701E+07
 
   -0.68019E+07         0.39608E+06         0.00000E+00
    0.39608E+06        -0.29503E+08         0.00000E+00
    0.00000E+00         0.00000E+00        -0.86701E+07
 
   -0.70062E+07         0.52174E+06         0.00000E+00
    0.52174E+06        -0.29899E+08         0.00000E+00
    0.00000E+00         0.00000E+00        -0.86701E+07
 
   -0.71961E+07         0.64541E+06         0.00000E+00
    0.64541E+06        -0.30312E+08         0.00000E+00
    0.00000E+00         0.00000E+00        -0.86701E+07
 
   -0.73735E+07         0.76306E+06         0.00000E+00
    0.76306E+06        -0.30736E+08         0.00000E+00
    0.00000E+00         0.00000E+00        -0.86701E+07
 
   -0.75403E+07         0.87216E+06         0.00000E+00
    0.87216E+06        -0.31168E+08         0.00000E+00
    0.00000E+00         0.00000E+00        -0.86701E+07
 
   -0.76978E+07         0.97109E+06         0.00000E+00
    0.97109E+06        -0.31606E+08         0.00000E+00
    0.00000E+00         0.00000E+00        -0.86701E+07
 
   -0.78476E+07         0.10586E+07         0.00000E+00
    0.10586E+07        -0.32047E+08         0.00000E+00
    0.00000E+00         0.00000E+00        -0.86701E+07
 
   -0.79909E+07         0.11337E+07         0.00000E+00
    0.11337E+07        -0.32491E+08         0.00000E+00
    0.00000E+00         0.00000E+00        -0.86701E+07
 
   -0.81285E+07         0.11953E+07         0.00000E+00
    0.11953E+07        -0.32937E+08         0.00000E+00
    0.00000E+00         0.00000E+00        -0.86701E+07
 
   -0.82617E+07         0.12422E+07         0.00000E+00
    0.12422E+07        -0.33384E+08         0.00000E+00
    0.00000E+00         0.00000E+00        -0.86701E+07
 
   -0.83912E+07         0.12728E+07         0.00000E+00
    0.12728E+07        -0.33832E+08         0.00000E+00
    0.00000E+00         0.00000E+00        -0.86701E+07
 
   -0.85195E+07         0.12884E+07         0.00000E+00
    0.12884E+07        -0.34276E+08         0.00000E+00
    0.00000E+00         0.00000E+00        -0.86701E+07
 
   -0.86420E+07         0.12996E+07         0.00000E+00
    0.12996E+07        -0.34687E+08         0.00000E+00
    0.00000E+00         0.00000E+00        -0.87279E+07
 
   -0.87622E+07         0.13185E+07         0.00000E+00
    0.13185E+07        -0.35066E+08         0.00000E+00
    0.00000E+00         0.00000E+00        -0.88480E+07
 
   -0.88813E+07         0.13291E+07         0.00000E+00
    0.13291E+07        -0.35448E+08         0.00000E+00
    0.00000E+00         0.00000E+00        -0.89674E+07
 
   -0.89993E+07         0.13351E+07         0.00000E+00
    0.13351E+07        -0.35831E+08         0.00000E+00
    0.00000E+00         0.00000E+00        -0.90837E+07
 
   -0.91167E+07         0.13386E+07         0.00000E+00
    0.13386E+07        -0.36216E+08         0.00000E+00
    0.00000E+00         0.00000E+00        -0.91970E+07
 
   -0.92334E+07         0.13407E+07         0.00000E+00
    0.13407E+07        -0.36599E+08         0.00000E+00
    0.00000E+00         0.00000E+00        -0.93071E+07
 
   -0.93491E+07         0.13419E+07         0.00000E+00
    0.13419E+07        -0.36980E+08         0.00000E+00
    0.00000E+00         0.00000E+00        -0.94142E+07
 
   -0.94634E+07         0.13426E+07         0.00000E+00
    0.13426E+07        -0.37358E+08         0.00000E+00
    0.00000E+00         0.00000E+00        -0.95183E+07
 
   -0.95762E+07         0.13426E+07         0.00000E+00
    0.13426E+07        -0.37733E+08         0.00000E+00
    0.00000E+00         0.00000E+00        -0.96195E+07
 
   -0.96872E+07         0.13420E+07         0.00000E+00
    0.13420E+07        -0.38105E+08         0.00000E+00
    0.00000E+00         0.00000E+00        -0.97177E+07
 
   -0.97966E+07         0.13405E+07         0.00000E+00
    0.13405E+07        -0.38474E+08         0.00000E+00
    0.00000E+00         0.00000E+00        -0.98132E+07
 
   -0.99043E+07         0.13381E+07         0.00000E+00
    0.13381E+07        -0.38840E+08         0.00000E+00
    0.00000E+00         0.00000E+00        -0.99060E+07
 
   -0.10010E+08         0.13346E+07         0.00000E+00
    0.13346E+07        -0.39203E+08         0.00000E+00
    0.00000E+00         0.00000E+00        -0.99961E+07
 
   -0.10115E+08         0.13298E+07         0.00000E+00
    0.13298E+07        -0.39565E+08         0.00000E+00
    0.00000E+00         0.00000E+00        -0.10084E+08
 
   -0.10219E+08         0.13236E+07         0.00000E+00
    0.13236E+07        -0.39924E+08         0.00000E+00
    0.00000E+00         0.00000E+00        -0.10169E+08
 
   -0.10322E+08         0.13156E+07         0.00000E+00
    0.13156E+07        -0.40282E+08         0.00000E+00
    0.00000E+00         0.00000E+00        -0.10252E+08
 
   -0.10425E+08         0.13059E+07         0.00000E+00
    0.13059E+07        -0.40640E+08         0.00000E+00
    0.00000E+00         0.00000E+00        -0.10332E+08
 
   -0.10527E+08         0.12943E+07         0.00000E+00
    0.12943E+07        -0.41000E+08         0.00000E+00
    0.00000E+00         0.00000E+00        -0.10410E+08
 
   -0.10628E+08         0.12813E+07         0.00000E+00
    0.12813E+07        -0.41361E+08         0.00000E+00
    0.00000E+00         0.00000E+00        -0.10487E+08
 
   -0.10728E+08         0.12674E+07         0.00000E+00
    0.12674E+07        -0.41717E+08         0.00000E+00
    0.00000E+00         0.00000E+00        -0.10571E+08
 
   -0.10827E+08         0.12504E+07         0.00000E+00
    0.12504E+07        -0.42051E+08         0.00000E+00
    0.00000E+00         0.00000E+00        -0.10681E+08
 
   -0.10927E+08         0.12345E+07         0.00000E+00
    0.12345E+07        -0.42376E+08         0.00000E+00
    0.00000E+00         0.00000E+00        -0.10802E+08
 
   -0.11026E+08         0.12202E+07         0.00000E+00
    0.12202E+07        -0.42703E+08         0.00000E+00
    0.00000E+00         0.00000E+00        -0.10921E+08
 
   -0.11126E+08         0.12074E+07         0.00000E+00
    0.12074E+07        -0.43032E+08         0.00000E+00
    0.00000E+00         0.00000E+00        -0.11039E+08
 
   -0.11227E+08         0.11961E+07         0.00000E+00
    0.11961E+07        -0.43361E+08         0.00000E+00
    0.00000E+00         0.00000E+00        -0.11155E+08
 
   -0.11329E+08         0.11862E+07         0.00000E+00
    0.11862E+07        -0.43689E+08         0.00000E+00
    0.00000E+00         0.00000E+00        -0.11270E+08
 
   -0.11431E+08         0.11774E+07         0.00000E+00
    0.11774E+07        -0.44017E+08         0.00000E+00
    0.00000E+00         0.00000E+00        -0.11384E+08
 
   -0.11535E+08         0.11695E+07         0.00000E+00
    0.11695E+07        -0.44344E+08         0.00000E+00
    0.00000E+00         0.00000E+00        -0.11497E+08
 
   -0.11638E+08         0.11624E+07         0.00000E+00
    0.11624E+07        -0.44670E+08         0.00000E+00
    0.00000E+00         0.00000E+00        -0.11608E+08
 
   -0.11742E+08         0.11560E+07         0.00000E+00
    0.11560E+07        -0.44995E+08         0.00000E+00
    0.00000E+00         0.00000E+00        -0.11719E+08
 
   -0.11851E+08         0.11498E+07         0.00000E+00
    0.11498E+07        -0.45314E+08         0.00000E+00
    0.00000E+00         0.00000E+00        -0.11834E+08
 
   -0.11977E+08         0.11429E+07         0.00000E+00
    0.11429E+07        -0.45616E+08         0.00000E+00
    0.00000E+00         0.00000E+00        -0.11965E+08
 
   -0.12111E+08         0.11358E+07         0.00000E+00
    0.11358E+07        -0.45910E+08         0.00000E+00
    0.00000E+00         0.00000E+00        -0.12103E+08
 
   -0.12245E+08         0.11291E+07         0.00000E+00
    0.11291E+07        -0.46203E+08         0.00000E+00
    0.00000E+00         0.00000E+00        -0.12240E+08
 
   -0.12378E+08         0.11226E+07         0.00000E+00
    0.11226E+07        -0.46496E+08         0.00000E+00
    0.00000E+00         0.00000E+00        -0.12377E+08
 
   -0.12512E+08         0.11163E+07         0.00000E+00
    0.11163E+07        -0.46788E+08         0.00000E+00
    0.00000E+00         0.00000E+00        -0.12514E+08
 
   -0.12646E+08         0.11103E+07         0.00000E+00
    0.11103E+07        -0.47079E+08         0.00000E+00
    0.00000E+00         0.00000E+00        -0.12650E+08
 
   -0.12780E+08         0.11043E+07         0.00000E+00
    0.11043E+07        -0.47370E+08         0.00000E+00
    0.00000E+00         0.00000E+00        -0.12786E+08
 
   -0.12914E+08         0.10985E+07         0.00000E+00
    0.10985E+07        -0.47661E+08         0.00000E+00
    0.00000E+00         0.00000E+00        -0.12921E+08
 
   -0.13048E+08         0.10928E+07         0.00000E+00
    0.10928E+07        -0.47952E+08         0.00000E+00
    0.00000E+00         0.00000E+00        -0.13056E+08
 
   -0.13182E+08         0.10871E+07         0.00000E+00
    0.10871E+07        -0.48243E+08         0.00000E+00
    0.00000E+00         0.00000E+00        -0.13191E+08
 
   -0.13317E+08         0.10815E+07         0.00000E+00
    0.10815E+07        -0.48534E+08         0.00000E+00
    0.00000E+00         0.00000E+00        -0.13326E+08
 
   -0.13452E+08         0.10758E+07         0.00000E+00
    0.10758E+07        -0.48825E+08         0.00000E+00
    0.00000E+00         0.00000E+00        -0.13461E+08
 
   -0.13587E+08         0.10701E+07         0.00000E+00
    0.10701E+07        -0.49117E+08         0.00000E+00
    0.00000E+00         0.00000E+00        -0.13596E+08
 
   -0.13723E+08         0.10644E+07         0.00000E+00
    0.10644E+07        -0.49410E+08         0.00000E+00
    0.00000E+00         0.00000E+00        -0.13732E+08
 
   -0.13859E+08         0.10587E+07         0.00000E+00
    0.10587E+07        -0.49703E+08         0.00000E+00
    0.00000E+00         0.00000E+00        -0.13867E+08
 
   -0.13996E+08         0.10528E+07         0.00000E+00
    0.10528E+07        -0.49997E+08         0.00000E+00
    0.00000E+00         0.00000E+00        -0.14002E+08
 
   -0.14134E+08         0.10467E+07         0.00000E+00
    0.10467E+07        -0.50291E+08         0.00000E+00
    0.00000E+00         0.00000E+00        -0.14138E+08
 
   -0.14272E+08         0.10405E+07         0.00000E+00
    0.10405E+07        -0.50587E+08         0.00000E+00
    0.00000E+00         0.00000E+00        -0.14274E+08
 
   -0.14411E+08         0.10342E+07         0.00000E+00
    0.10342E+07        -0.50884E+08         0.00000E+00
    0.00000E+00         0.00000E+00        -0.14410E+08
 
   -0.14551E+08         0.10275E+07         0.00000E+00
    0.10275E+07        -0.51183E+08         0.00000E+00
    0.00000E+00         0.00000E+00        -0.14546E+08
 
   -0.14693E+08         0.10206E+07         0.00000E+00
    0.10206E+07        -0.51483E+08         0.00000E+00
    0.00000E+00         0.00000E+00        -0.14683E+08
 
   -0.14835E+08         0.10133E+07         0.00000E+00
    0.10133E+07        -0.51784E+08         0.00000E+00
    0.00000E+00         0.00000E+00        -0.14820E+08
 
   -0.14979E+08         0.10057E+07         0.00000E+00
    0.10057E+07        -0.52088E+08         0.00000E+00
    0.00000E+00         0.00000E+00        -0.14957E+08
 
   -0.15123E+08         0.99755E+06         0.00000E+00
    0.99755E+06        -0.52393E+08         0.00000E+00
    0.00000E+00         0.00000E+00        -0.15095E+08
 
   -0.15270E+08         0.98887E+06         0.00000E+00
    0.98887E+06        -0.52700E+08         0.00000E+00
    0.00000E+00         0.00000E+00        -0.15233E+08
 
   -0.15418E+08         0.97956E+06         0.00000E+00
    0.97956E+06        -0.53009E+08         0.00000E+00
    0.00000E+00         0.00000E+00        -0.15371E+08
 
   -0.15568E+08         0.96950E+06         0.00000E+00
    0.96950E+06        -0.53321E+08         0.00000E+00
    0.00000E+00         0.00000E+00        -0.15510E+08
 
   -0.15720E+08         0.95855E+06         0.00000E+00
    0.95855E+06        -0.53635E+08         0.00000E+00
    0.00000E+00         0.00000E+00        -0.15649E+08
 
   -0.15874E+08         0.94656E+06         0.00000E+00
    0.94656E+06        -0.53952E+08         0.00000E+00
    0.00000E+00         0.00000E+00        -0.15788E+08
 
   -0.16030E+08         0.93335E+06         0.00000E+00
    0.93335E+06        -0.54271E+08         0.00000E+00
    0.00000E+00         0.00000E+00        -0.15927E+08
 
   -0.16189E+08         0.91869E+06         0.00000E+00
    0.91869E+06        -0.54594E+08         0.00000E+00
    0.00000E+00         0.00000E+00        -0.16066E+08
 
   -0.16351E+08         0.90233E+06         0.00000E+00
    0.90233E+06        -0.54919E+08         0.00000E+00
    0.00000E+00         0.00000E+00        -0.16206E+08
 
   -0.16515E+08         0.88399E+06         0.00000E+00
    0.88399E+06        -0.55249E+08         0.00000E+00
    0.00000E+00         0.00000E+00        -0.16346E+08
 
   -0.16683E+08         0.86333E+06         0.00000E+00
    0.86333E+06        -0.55582E+08         0.00000E+00
    0.00000E+00         0.00000E+00        -0.16485E+08
 
   -0.16855E+08         0.83997E+06         0.00000E+00
    0.83997E+06        -0.55919E+08         0.00000E+00
    0.00000E+00         0.00000E+00        -0.16625E+08
 
   -0.17030E+08         0.81351E+06         0.00000E+00
    0.81351E+06        -0.56260E+08         0.00000E+00
    0.00000E+00         0.00000E+00        -0.16765E+08
 
   -0.17209E+08         0.78351E+06         0.00000E+00
    0.78351E+06        -0.56606E+08         0.00000E+00
    0.00000E+00         0.00000E+00        -0.16905E+08
 
   -0.17392E+08         0.74952E+06         0.00000E+00
    0.74952E+06        -0.56956E+08         0.00000E+00
    0.00000E+00         0.00000E+00        -0.17045E+08
 
   -0.17580E+08         0.71109E+06         0.00000E+00
    0.71109E+06        -0.57311E+08         0.00000E+00
    0.00000E+00         0.00000E+00        -0.17185E+08
 
   -0.17771E+08         0.66780E+06         0.00000E+00
    0.66780E+06        -0.57670E+08         0.00000E+00
    0.00000E+00         0.00000E+00        -0.17325E+08
 
   -0.17967E+08         0.61929E+06         0.00000E+00
    0.61929E+06        -0.58032E+08         0.00000E+00
    0.00000E+00         0.00000E+00        -0.17464E+08
 
   -0.18166E+08         0.56536E+06         0.00000E+00
    0.56536E+06        -0.58397E+08         0.00000E+00
    0.00000E+00         0.00000E+00        -0.17602E+08
 
   -0.18369E+08         0.50600E+06         0.00000E+00
    0.50600E+06        -0.58764E+08         0.00000E+00
    0.00000E+00         0.00000E+00        -0.17737E+08
 
   -0.18575E+08         0.44153E+06         0.00000E+00
    0.44153E+06        -0.59129E+08         0.00000E+00
    0.00000E+00         0.00000E+00        -0.17869E+08
 
   -0.18785E+08         0.37280E+06         0.00000E+00
    0.37280E+06        -0.59492E+08         0.00000E+00
    0.00000E+00         0.00000E+00        -0.17995E+08
 
   -0.18998E+08         0.30147E+06         0.00000E+00
    0.30147E+06        -0.59847E+08         0.00000E+00
    0.00000E+00         0.00000E+00        -0.18111E+08
 
   -0.19216E+08         0.23038E+06         0.00000E+00
    0.23038E+06        -0.60190E+08         0.00000E+00
    0.00000E+00         0.00000E+00        -0.18213E+08
 
   -0.19442E+08         0.16366E+06         0.00000E+00
    0.16366E+06        -0.60517E+08         0.00000E+00
    0.00000E+00         0.00000E+00        -0.18294E+08
 
   -0.19679E+08         0.10615E+06         0.00000E+00
    0.10615E+06        -0.60822E+08         0.00000E+00
    0.00000E+00         0.00000E+00        -0.18345E+08
 
   -0.19935E+08         0.61650E+05         0.00000E+00
    0.61650E+05        -0.61103E+08         0.00000E+00
    0.00000E+00         0.00000E+00        -0.18358E+08
 
   -0.20217E+08         0.30674E+05         0.00000E+00
    0.30674E+05        -0.61360E+08         0.00000E+00
    0.00000E+00         0.00000E+00        -0.18327E+08
 
   -0.20531E+08         0.91794E+04         0.00000E+00
    0.91794E+04        -0.61594E+08         0.00000E+00
    0.00000E+00         0.00000E+00        -0.18250E+08
 
   -0.53057E+07         0.55359E+03         0.00000E+00
    0.55359E+03        -0.28173E+08         0.00000E+00
    0.00000E+00         0.00000E+00        -0.86701E+07
 
   -0.56623E+07         0.14192E+05         0.00000E+00
    0.14192E+05        -0.28294E+08         0.00000E+00
    0.00000E+00         0.00000E+00        -0.86701E+07
 
   -0.59709E+07         0.58239E+05         0.00000E+00
    0.58239E+05        -0.28515E+08         0.00000E+00
    0.00000E+00         0.00000E+00        -0.86701E+07
 
   -0.62445E+07         0.13583E+06         0.00000E+00
    0.13583E+06        -0.28810E+08         0.00000E+00
    0.00000E+00         0.00000E+00        -0.86701E+07
 
   -0.64930E+07         0.23913E+06         0.00000E+00
    0.23913E+06        -0.29153E+08         0.00000E+00
    0.00000E+00         0.00000E+00        -0.86701E+07
 
   -0.67222E+07         0.35698E+06         0.00000E+00
    0.35698E+06        -0.29527E+08         0.00000E+00
    0.00000E+00         0.00000E+00        -0.86701E+07
 
   -0.69350E+07         0.47980E+06         0.00000E+00
    0.47980E+06        -0.29924E+08         0.00000E+00
    0.00000E+00         0.00000E+00        -0.86701E+07
 
   -0.71332E+07         0.60101E+06         0.00000E+00
    0.60101E+06        -0.30336E+08         0.00000E+00
    0.00000E+00         0.00000E+00        -0.86701E+07
 
   -0.73184E+07         0.71655E+06         0.00000E+00
    0.71655E+06        -0.30759E+08         0.00000E+00
    0.00000E+00         0.00000E+00        -0.86701E+07
 
   -0.74921E+07         0.82392E+06         0.00000E+00
    0.82392E+06        -0.31189E+08         0.00000E+00
    0.00000E+00         0.00000E+00        -0.86701E+07
 
   -0.76559E+07         0.92143E+06         0.00000E+00
    0.92143E+06        -0.31625E+08         0.00000E+00
    0.00000E+00         0.00000E+00        -0.86701E+07
 
   -0.78113E+07         0.10078E+07         0.00000E+00
    0.10078E+07        -0.32064E+08         0.00000E+00
    0.00000E+00         0.00000E+00        -0.86701E+07
 
   -0.79594E+07         0.10820E+07         0.00000E+00
    0.10820E+07        -0.32505E+08         0.00000E+00
    0.00000E+00         0.00000E+00        -0.86701E+07
 
   -0.81014E+07         0.11430E+07         0.00000E+00
    0.11430E+07        -0.32948E+08         0.00000E+00
    0.00000E+00         0.00000E+00        -0.86701E+07
 
   -0.82383E+07         0.11894E+07         0.00000E+00
    0.11894E+07        -0.33392E+08         0.00000E+00
    0.00000E+00         0.00000E+00        -0.86701E+07
 
   -0.83715E+07         0.12198E+07         0.00000E+00
    0.12198E+07        -0.33836E+08         0.00000E+00
    0.00000E+00         0.00000E+00        -0.86701E+07
 
   -0.85033E+07         0.12363E+07         0.00000E+00
    0.12363E+07        -0.34279E+08         0.00000E+00
    0.00000E+00         0.00000E+00        -0.86701E+07
 
   -0.86284E+07         0.12452E+07         0.00000E+00
    0.12452E+07        -0.34690E+08         0.00000E+00
    0.00000E+00         0.00000E+00        -0.87237E+07
 
   -0.87494E+07         0.12651E+07         0.00000E+00
    0.12651E+07        -0.35069E+08         0.00000E+00
    0.00000E+00         0.00000E+00        -0.88382E+07
 
   -0.88692E+07         0.12758E+07         0.00000E+00
    0.12758E+07        -0.35449E+08         0.00000E+00
    0.00000E+00         0.00000E+00        -0.89563E+07
 
   -0.89876E+07         0.12822E+07         0.00000E+00
    0.12822E+07        -0.35832E+08         0.00000E+00
    0.00000E+00         0.00000E+00        -0.90718E+07
 
   -0.91051E+07         0.12860E+07         0.00000E+00
    0.12860E+07        -0.36216E+08         0.00000E+00
    0.00000E+00         0.00000E+00        -0.91844E+07
 
   -0.92219E+07         0.12884E+07         0.00000E+00
    0.12884E+07        -0.36599E+08         0.00000E+00
    0.00000E+00         0.00000E+00        -0.92941E+07
 
   -0.93377E+07         0.12900E+07         0.00000E+00
    0.12900E+07        -0.36980E+08         0.00000E+00
    0.00000E+00         0.00000E+00        -0.94009E+07
 
   -0.94522E+07         0.12909E+07         0.00000E+00
    0.12909E+07        -0.37358E+08         0.00000E+00
    0.00000E+00         0.00000E+00        -0.95049E+07
 
   -0.95652E+07         0.12911E+07         0.00000E+00
    0.12911E+07        -0.37733E+08         0.00000E+00
    0.00000E+00         0.00000E+00        -0.96061E+07
 
   -0.96765E+07         0.12907E+07         0.00000E+00
    0.12907E+07        -0.38105E+08         0.00000E+00
    0.00000E+00         0.00000E+00        -0.97045E+07
 
   -0.97862E+07         0.12894E+07         0.00000E+00
    0.12894E+07        -0.38474E+08         0.00000E+00
    0.00000E+00         0.00000E+00        -0.98002E+07
 
   -0.98943E+07         0.12872E+07         0.00000E+00
    0.12872E+07        -0.38839E+08         0.00000E+00
    0.00000E+00         0.00000E+00        -0.98932E+07
 
   -0.10001E+08         0.12839E+07         0.00000E+00
    0.12839E+07        -0.39203E+08         0.00000E+00
    0.00000E+00         0.00000E+00        -0.99837E+07
 
   -0.10106E+08         0.12794E+07         0.00000E+00
    0.12794E+07        -0.39563E+08         0.00000E+00
    0.00000E+00         0.00000E+00        -0.10072E+08
 
   -0.10211E+08         0.12735E+07         0.00000E+00
    0.12735E+07        -0.39923E+08         0.00000E+00
    0.00000E+00         0.00000E+00        -0.10157E+08
 
   -0.10314E+08         0.12659E+07         0.00000E+00
    0.12659E+07        -0.40281E+08         0.00000E+00
    0.00000E+00         0.00000E+00        -0.10240E+08
 
   -0.10418E+08         0.12565E+07         0.00000E+00
    0.12565E+07        -0.40638E+08         0.00000E+00
    0.00000E+00         0.00000E+00        -0.10321E+08
 
   -0.10520E+08         0.12453E+07         0.00000E+00
    0.12453E+07        -0.40997E+08         0.00000E+00
    0.00000E+00         0.00000E+00        -0.10400E+08
 
   -0.10622E+08         0.12326E+07         0.00000E+00
    0.12326E+07        -0.41358E+08         0.00000E+00
    0.00000E+00         0.00000E+00        -0.10477E+08
 
   -0.10722E+08         0.12188E+07         0.00000E+00
    0.12188E+07        -0.41714E+08         0.00000E+00
    0.00000E+00         0.00000E+00        -0.10562E+08
 
   -0.10822E+08         0.12022E+07         0.00000E+00
    0.12022E+07        -0.42047E+08         0.00000E+00
    0.00000E+00         0.00000E+00        -0.10673E+08
 
   -0.10922E+08         0.11867E+07         0.00000E+00
    0.11867E+07        -0.42373E+08         0.00000E+00
    0.00000E+00         0.00000E+00        -0.10794E+08
 
   -0.11021E+08         0.11729E+07         0.00000E+00
    0.11729E+07        -0.42700E+08         0.00000E+00
    0.00000E+00         0.00000E+00        -0.10914E+08
 
   -0.11122E+08         0.11607E+07         0.00000E+00
    0.11607E+07        -0.43029E+08         0.00000E+00
    0.00000E+00         0.00000E+00        -0.11032E+08
 
   -0.11223E+08         0.11499E+07         0.00000E+00
    0.11499E+07        -0.43359E+08         0.00000E+00
    0.00000E+00         0.00000E+00        -0.11148E+08
 
   -0.11325E+08         0.11405E+07         0.00000E+00
    0.11405E+07        -0.43688E+08         0.00000E+00
    0.00000E+00         0.00000E+00        -0.11264E+08
 
   -0.11427E+08         0.11321E+07         0.00000E+00
    0.11321E+07        -0.44016E+08         0.00000E+00
    0.00000E+00         0.00000E+00        -0.11378E+08
 
   -0.11531E+08         0.11247E+07         0.00000E+00
    0.11247E+07        -0.44343E+08         0.00000E+00
    0.00000E+00         0.00000E+00        -0.11491E+08
 
   -0.11634E+08         0.11180E+07         0.00000E+00
    0.11180E+07        -0.44669E+08         0.00000E+00
    0.00000E+00         0.00000E+00        -0.11603E+08
 
   -0.11739E+08         0.11119E+07         0.00000E+00
    0.11119E+07        -0.44993E+08         0.00000E+00
    0.00000E+00         0.00000E+00        -0.11714E+08
 
   -0.11848E+08         0.11059E+07         0.00000E+00
    0.11059E+07        -0.45313E+08         0.00000E+00
    0.00000E+00         0.00000E+00        -0.11829E+08
 
   -0.11974E+08         0.10993E+07         0.00000E+00
    0.10993E+07        -0.45615E+08         0.00000E+00
    0.00000E+00         0.00000E+00        -0.11961E+08
 
   -0.12108E+08         0.10926E+07         0.00000E+00
    0.10926E+07        -0.45909E+08         0.00000E+00
    0.00000E+00         0.00000E+00        -0.12099E+08
 
   -0.12242E+08         0.10861E+07         0.00000E+00
    0.10861E+07        -0.46202E+08         0.00000E+00
    0.00000E+00         0.00000E+00        -0.12237E+08
 
   -0.12376E+08         0.10799E+07         0.00000E+00
    0.10799E+07        -0.46495E+08         0.00000E+00
    0.00000E+00         0.00000E+00        -0.12374E+08
 
   -0.12509E+08         0.10739E+07         0.00000E+00
    0.10739E+07        -0.46787E+08         0.00000E+00
    0.00000E+00         0.00000E+00        -0.12511E+08
 
   -0.12643E+08         0.10681E+07         0.00000E+00
    0.10681E+07        -0.47079E+08         0.00000E+00
    0.00000E+00         0.00000E+00        -0.12647E+08
 
   -0.12777E+08         0.10624E+07         0.00000E+00
    0.10624E+07        -0.47370E+08         0.00000E+00
    0.00000E+00         0.00000E+00        -0.12783E+08
 
   -0.12911E+08         0.10568E+07         0.00000E+00
    0.10568E+07        -0.47661E+08         0.00000E+00
    0.00000E+00         0.00000E+00        -0.12919E+08
 
   -0.13046E+08         0.10513E+07         0.00000E+00
    0.10513E+07        -0.47952E+08         0.00000E+00
    0.00000E+00         0.00000E+00        -0.13054E+08
 
   -0.13180E+08         0.10458E+07         0.00000E+00
    0.10458E+07        -0.48243E+08         0.00000E+00
    0.00000E+00         0.00000E+00        -0.13189E+08
 
   -0.13315E+08         0.10404E+07         0.00000E+00
    0.10404E+07        -0.48534E+08         0.00000E+00
    0.00000E+00         0.00000E+00        -0.13324E+08
 
   -0.13450E+08         0.10349E+07         0.00000E+00
    0.10349E+07        -0.48826E+08         0.00000E+00
    0.00000E+00         0.00000E+00        -0.13459E+08
 
   -0.13585E+08         0.10295E+07         0.00000E+00
    0.10295E+07        -0.49117E+08         0.00000E+00
    0.00000E+00         0.00000E+00        -0.13595E+08
 
   -0.13721E+08         0.10240E+07         0.00000E+00
    0.10240E+07        -0.49410E+08         0.00000E+00
    0.00000E+00         0.00000E+00        -0.13730E+08
 
   -0.13857E+08         0.10184E+07         0.00000E+00
    0.10184E+07        -0.49703E+08         0.00000E+00
    0.00000E+00         0.00000E+00        -0.13865E+08
 
   -0.13994E+08         0.10127E+07         0.00000E+00
    0.10127E+07        -0.49997E+08         0.00000E+00
    0.00000E+00         0.00000E+00        -0.14001E+08
 
   -0.14132E+08         0.10069E+07         0.00000E+00
    0.10069E+07        -0.50292E+08         0.00000E+00
    0.00000E+00         0.00000E+00        -0.14136E+08
 
   -0.14270E+08         0.10009E+07         0.00000E+00
    0.10009E+07        -0.50588E+08         0.00000E+00
    0.00000E+00         0.00000E+00        -0.14272E+08
 
   -0.14409E+08         0.99475E+06         0.00000E+00
    0.99475E+06        -0.50885E+08         0.00000E+00
    0.00000E+00         0.00000E+00        -0.14408E+08
 
   -0.14550E+08         0.98835E+06         0.00000E+00
    0.98835E+06        -0.51184E+08         0.00000E+00
    0.00000E+00         0.00000E+00        -0.14545E+08
 
   -0.14691E+08         0.98168E+06         0.00000E+00
    0.98168E+06        -0.51484E+08         0.00000E+00
    0.00000E+00         0.00000E+00        -0.14681E+08
 
   -0.14833E+08         0.97468E+06         0.00000E+00
    0.97468E+06        -0.51785E+08         0.00000E+00
    0.00000E+00         0.00000E+00        -0.14818E+08
 
   -0.14977E+08         0.96729E+06         0.00000E+00
    0.96729E+06        -0.52088E+08         0.00000E+00
    0.00000E+00         0.00000E+00        -0.14955E+08
 
   -0.15122E+08         0.95946E+06         0.00000E+00
    0.95946E+06        -0.52394E+08         0.00000E+00
    0.00000E+00         0.00000E+00        -0.15093E+08
 
   -0.15269E+08         0.95111E+06         0.00000E+00
    0.95111E+06        -0.52701E+08         0.00000E+00
    0.00000E+00         0.00000E+00        -0.15231E+08
 
   -0.15417E+08         0.94215E+06         0.00000E+00
    0.94215E+06        -0.53010E+08         0.00000E+00
    0.00000E+00         0.00000E+00        -0.15369E+08
 
   -0.15567E+08         0.93246E+06         0.00000E+00
    0.93246E+06        -0.53321E+08         0.00000E+00
    0.00000E+00         0.00000E+00        -0.15507E+08
 
   -0.15719E+08         0.92192E+06         0.00000E+00
    0.92192E+06        -0.53635E+08         0.00000E+00
    0.00000E+00         0.00000E+00        -0.15646E+08
 
   -0.15873E+08         0.91038E+06         0.00000E+00
    0.91038E+06        -0.53951E+08         0.00000E+00
    0.00000E+00         0.00000E+00        -0.15785E+08
 
   -0.16030E+08         0.89766E+06         0.00000E+00
    0.89766E+06        -0.54271E+08         0.00000E+00
    0.00000E+00         0.00000E+00        -0.15924E+08
 
   -0.16189E+08         0.88353E+06         0.00000E+00
    0.88353E+06        -0.54593E+08         0.00000E+00
    0.00000E+00         0.00000E+00        -0.16063E+08
 
   -0.16351E+08         0.86777E+06         0.00000E+00
    0.86777E+06        -0.54918E+08         0.00000E+00
    0.00000E+00         0.00000E+00        -0.16202E+08
 
   -0.16516E+08         0.85006E+06         0.00000E+00
    0.85006E+06        -0.55247E+08         0.00000E+00
    0.00000E+00         0.00000E+00        -0.16341E+08
 
   -0.16684E+08         0.83009E+06         0.00000E+00
    0.83009E+06        -0.55579E+08         0.00000E+00
    0.00000E+00         0.00000E+00        -0.16480E+08
 
   -0.16856E+08         0.80748E+06         0.00000E+00
    0.80748E+06        -0.55916E+08         0.00000E+00
    0.00000E+00         0.00000E+00        -0.16619E+08
 
   -0.17031E+08         0.78181E+06         0.00000E+00
    0.78181E+06        -0.56256E+08         0.00000E+00
    0.00000E+00         0.00000E+00        -0.16758E+08
 
   -0.17211E+08         0.75264E+06         0.00000E+00
    0.75264E+06        -0.56601E+08         0.00000E+00
    0.00000E+00         0.00000E+00        -0.16897E+08
 
   -0.17395E+08         0.71951E+06         0.00000E+00
    0.71951E+06        -0.56950E+08         0.00000E+00
    0.00000E+00         0.00000E+00        -0.17035E+08
 
   -0.17583E+08         0.68196E+06         0.00000E+00
    0.68196E+06        -0.57304E+08         0.00000E+00
    0.00000E+00         0.00000E+00        -0.17173E+08
 
   -0.17776E+08         0.63954E+06         0.00000E+00
    0.63954E+06        -0.57661E+08         0.00000E+00
    0.00000E+00         0.00000E+00        -0.17311E+08
 
   -0.17972E+08         0.59191E+06         0.00000E+00
    0.59191E+06        -0.58022E+08         0.00000E+00
    0.00000E+00         0.00000E+00        -0.17448E+08
 
   -0.18174E+08         0.53882E+06         0.00000E+00
    0.53882E+06        -0.58386E+08         0.00000E+00
    0.00000E+00         0.00000E+00        -0.17583E+08
 
   -0.18379E+08         0.48028E+06         0.00000E+00
    0.48028E+06        -0.58752E+08         0.00000E+00
    0.00000E+00         0.00000E+00        -0.17716E+08
 
   -0.18588E+08         0.41662E+06         0.00000E+00
    0.41662E+06        -0.59116E+08         0.00000E+00
    0.00000E+00         0.00000E+00        -0.17844E+08
 
   -0.18800E+08         0.34873E+06         0.00000E+00
    0.34873E+06        -0.59478E+08         0.00000E+00
    0.00000E+00         0.00000E+00        -0.17967E+08
 
   -0.19017E+08         0.27841E+06         0.00000E+00
    0.27841E+06        -0.59833E+08         0.00000E+00
    0.00000E+00         0.00000E+00        -0.18080E+08
 
   -0.19239E+08         0.20868E+06         0.00000E+00
    0.20868E+06        -0.60177E+08         0.00000E+00
    0.00000E+00         0.00000E+00        -0.18179E+08
 
   -0.19469E+08         0.14403E+06         0.00000E+00
    0.14403E+06        -0.60506E+08         0.00000E+00
    0.00000E+00         0.00000E+00        -0.18258E+08
 
   -0.19710E+08         0.89562E+05         0.00000E+00
    0.89562E+05        -0.60814E+08         0.00000E+00
    0.00000E+00         0.00000E+00        -0.18308E+08
 
   -0.19970E+08         0.49121E+05         0.00000E+00
    0.49121E+05        -0.61099E+08         0.00000E+00
    0.00000E+00         0.00000E+00        -0.18322E+08
 
   -0.20254E+08         0.22935E+05         0.00000E+00
    0.22935E+05        -0.61359E+08         0.00000E+00
    0.00000E+00         0.00000E+00        -0.18292E+08
 
   -0.20568E+08         0.65715E+04         0.00000E+00
    0.65715E+04        -0.61594E+08         0.00000E+00
    0.00000E+00         0.00000E+00        -0.18216E+08
 
   -0.52006E+07        -0.54807E+04         0.00000E+00
   -0.54807E+04        -0.28172E+08         0.00000E+00
    0.00000E+00         0.00000E+00        -0.86701E+07
 
   -0.55583E+07        -0.26124E+04         0.00000E+00
   -0.26124E+04        -0.28298E+08         0.00000E+00
    0.00000E+00         0.00000E+00        -0.86701E+07
 
   -0.58700E+07         0.33486E+05         0.00000E+00
    0.33486E+05        -0.28527E+08         0.00000E+00
    0.00000E+00         0.00000E+00        -0.86701E+07
 
   -0.61491E+07         0.10564E+06         0.00000E+00
    0.10564E+06        -0.28828E+08         0.00000E+00
    0.00000E+00         0.00000E+00        -0.86701E+07
 
   -0.64052E+07         0.20499E+06         0.00000E+00
    0.20499E+06        -0.29175E+08         0.00000E+00
    0.00000E+00         0.00000E+00        -0.86701E+07
 
   -0.66429E+07         0.31961E+06         0.00000E+00
    0.31961E+06        -0.29551E+08         0.00000E+00
    0.00000E+00         0.00000E+00        -0.86701E+07
 
   -0.68644E+07         0.43956E+06         0.00000E+00
    0.43956E+06        -0.29948E+08         0.00000E+00
    0.00000E+00         0.00000E+00        -0.86701E+07
 
   -0.70709E+07         0.55821E+06         0.00000E+00
    0.55821E+06        -0.30359E+08         0.00000E+00
    0.00000E+00         0.00000E+00        -0.86701E+07
 
   -0.72637E+07         0.67152E+06         0.00000E+00
    0.67152E+06        -0.30781E+08         0.00000E+00
    0.00000E+00         0.00000E+00        -0.86701E+07
 
   -0.74444E+07         0.77699E+06         0.00000E+00
    0.77699E+06        -0.31210E+08         0.00000E+00
    0.00000E+00         0.00000E+00        -0.86701E+07
 
   -0.76144E+07         0.87294E+06         0.00000E+00
    0.87294E+06        -0.31643E+08         0.00000E+00
    0.00000E+00         0.00000E+00        -0.86701E+07
 
   -0.77753E+07         0.95806E+06         0.00000E+00
    0.95806E+06        -0.32080E+08         0.00000E+00
    0.00000E+00         0.00000E+00        -0.86701E+07
 
   -0.79283E+07         0.10313E+07         0.00000E+00
    0.10313E+07        -0.32518E+08         0.00000E+00
    0.00000E+00         0.00000E+00        -0.86701E+07
 
   -0.80745E+07         0.10914E+07         0.00000E+00
    0.10914E+07        -0.32959E+08         0.00000E+00
    0.00000E+00         0.00000E+00        -0.86701E+07
 
   -0.82151E+07         0.11373E+07         0.00000E+00
    0.11373E+07        -0.33400E+08         0.00000E+00
    0.00000E+00         0.00000E+00        -0.86701E+07
 
   -0.83519E+07         0.11676E+07         0.00000E+00
    0.11676E+07        -0.33841E+08         0.00000E+00
    0.00000E+00         0.00000E+00        -0.86701E+07
 
   -0.84867E+07         0.11845E+07         0.00000E+00
    0.11845E+07        -0.34281E+08         0.00000E+00
    0.00000E+00         0.00000E+00        -0.86701E+07
 
   -0.86144E+07         0.11914E+07         0.00000E+00
    0.11914E+07        -0.34693E+08         0.00000E+00
    0.00000E+00         0.00000E+00        -0.87195E+07
 
   -0.87369E+07         0.12117E+07         0.00000E+00
    0.12117E+07        -0.35072E+08         0.00000E+00
    0.00000E+00         0.00000E+00        -0.88285E+07
 
   -0.88572E+07         0.12226E+07         0.00000E+00
    0.12226E+07        -0.35451E+08         0.00000E+00
    0.00000E+00         0.00000E+00        -0.89454E+07
 
   -0.89760E+07         0.12292E+07         0.00000E+00
    0.12292E+07        -0.35833E+08         0.00000E+00
    0.00000E+00         0.00000E+00        -0.90599E+07
 
   -0.90938E+07         0.12334E+07         0.00000E+00
    0.12334E+07        -0.36217E+08         0.00000E+00
    0.00000E+00         0.00000E+00        -0.91719E+07
 
   -0.92108E+07         0.12362E+07         0.00000E+00
    0.12362E+07        -0.36600E+08         0.00000E+00
    0.00000E+00         0.00000E+00        -0.92812E+07
 
   -0.93267E+07         0.12381E+07         0.00000E+00
    0.12381E+07        -0.36981E+08         0.00000E+00
    0.00000E+00         0.00000E+00        -0.93878E+07
 
   -0.94414E+07         0.12392E+07         0.00000E+00
    0.12392E+07        -0.37358E+08         0.00000E+00
    0.00000E+00         0.00000E+00        -0.94917E+07
 
   -0.95546E+07         0.12397E+07         0.00000E+00
    0.12397E+07        -0.37733E+08         0.00000E+00
    0.00000E+00         0.00000E+00        -0.95929E+07
 
   -0.96662E+07         0.12394E+07         0.00000E+00
    0.12394E+07        -0.38105E+08         0.00000E+00
    0.00000E+00         0.00000E+00        -0.96914E+07
 
   -0.97762E+07         0.12383E+07         0.00000E+00
    0.12383E+07        -0.38473E+08         0.00000E+00
    0.00000E+00         0.00000E+00        -0.97874E+07
 
   -0.98846E+07         0.12363E+07         0.00000E+00
    0.12363E+07        -0.38839E+08         0.00000E+00
    0.00000E+00         0.00000E+00        -0.98807E+07
 
   -0.99916E+07         0.12333E+07         0.00000E+00
    0.12333E+07        -0.39202E+08         0.00000E+00
    0.00000E+00         0.00000E+00        -0.99715E+07
 
   -0.10097E+08         0.12291E+07         0.00000E+00
    0.12291E+07        -0.39562E+08         0.00000E+00
    0.00000E+00         0.00000E+00        -0.10060E+08
 
   -0.10202E+08         0.12236E+07         0.00000E+00
    0.12236E+07        -0.39921E+08         0.00000E+00
    0.00000E+00         0.00000E+00        -0.10146E+08
 
   -0.10307E+08         0.12163E+07         0.00000E+00
    0.12163E+07        -0.40279E+08         0.00000E+00
    0.00000E+00         0.00000E+00        -0.10230E+08
 
   -0.10410E+08         0.12073E+07         0.00000E+00
    0.12073E+07        -0.40636E+08         0.00000E+00
    0.00000E+00         0.00000E+00        -0.10311E+08
 
   -0.10513E+08         0.11964E+07         0.00000E+00
    0.11964E+07        -0.40995E+08         0.00000E+00
    0.00000E+00         0.00000E+00        -0.10390E+08
 
   -0.10616E+08         0.11839E+07         0.00000E+00
    0.11839E+07        -0.41356E+08         0.00000E+00
    0.00000E+00         0.00000E+00        -0.10468E+08
 
   -0.10717E+08         0.11704E+07         0.00000E+00
    0.11704E+07        -0.41711E+08         0.00000E+00
    0.00000E+00         0.00000E+00        -0.10554E+08
 
   -0.10817E+08         0.11541E+07         0.00000E+00
    0.11541E+07        -0.42044E+08         0.00000E+00
    0.00000E+00         0.00000E+00        -0.10665E+08
 
   -0.10916E+08         0.11390E+07         0.00000E+00
    0.11390E+07        -0.42370E+08         0.00000E+00
    0.00000E+00         0.00000E+00        -0.10787E+08
 
   -0.11016E+08         0.11256E+07         0.00000E+00
    0.11256E+07        -0.42698E+08         0.00000E+00
    0.00000E+00         0.00000E+00        -0.10907E+08
 
   -0.11117E+08         0.11139E+07         0.00000E+00
    0.11139E+07        -0.43027E+08         0.00000E+00
    0.00000E+00         0.00000E+00        -0.11025E+08
 
   -0.11218E+08         0.11037E+07         0.00000E+00
    0.11037E+07        -0.43357E+08         0.00000E+00
    0.00000E+00         0.00000E+00        -0.11142E+08
 
   -0.11320E+08         0.10948E+07         0.00000E+00
    0.10948E+07        -0.43686E+08         0.00000E+00
    0.00000E+00         0.00000E+00        -0.11258E+08
 
   -0.11423E+08         0.10869E+07         0.00000E+00
    0.10869E+07        -0.44014E+08         0.00000E+00
    0.00000E+00         0.00000E+00        -0.11372E+08
 
   -0.11527E+08         0.10799E+07         0.00000E+00
    0.10799E+07        -0.44341E+08         0.00000E+00
    0.00000E+00         0.00000E+00        -0.11486E+08
 
   -0.11631E+08         0.10736E+07         0.00000E+00
    0.10736E+07        -0.44667E+08         0.00000E+00
    0.00000E+00         0.00000E+00        -0.11598E+08
 
   -0.11735E+08         0.10678E+07         0.00000E+00
    0.10678E+07        -0.44992E+08         0.00000E+00
    0.00000E+00         0.00000E+00        -0.11710E+08
 
   -0.11844E+08         0.10621E+07         0.00000E+00
    0.10621E+07        -0.45311E+08         0.00000E+00
    0.00000E+00         0.00000E+00        -0.11825E+08
 
   -0.11971E+08         0.10558E+07         0.00000E+00
    0.10558E+07        -0.45614E+08         0.00000E+00
    0.00000E+00         0.00000E+00        -0.11957E+08
 
   -0.12105E+08         0.10494E+07         0.00000E+00
    0.10494E+07        -0.45908E+08         0.00000E+00
    0.00000E+00         0.00000E+00        -0.12096E+08
 
   -0.12239E+08         0.10432E+07         0.00000E+00
    0.10432E+07        -0.46201E+08         0.00000E+00
    0.00000E+00         0.00000E+00        -0.12234E+08
 
   -0.12373E+08         0.10373E+07         0.00000E+00
    0.10373E+07        -0.46494E+08         0.00000E+00
    0.00000E+00         0.00000E+00        -0.12371E+08
 
   -0.12507E+08         0.10315E+07         0.00000E+00
    0.10315E+07        -0.46786E+08         0.00000E+00
    0.00000E+00         0.00000E+00        -0.12508E+08
 
   -0.12641E+08         0.10259E+07         0.00000E+00
    0.10259E+07        -0.47078E+08         0.00000E+00
    0.00000E+00         0.00000E+00        -0.12644E+08
 
   -0.12775E+08         0.10204E+07         0.00000E+00
    0.10204E+07        -0.47370E+08         0.00000E+00
    0.00000E+00         0.00000E+00        -0.12780E+08
 
   -0.12909E+08         0.10151E+07         0.00000E+00
    0.10151E+07        -0.47661E+08         0.00000E+00
    0.00000E+00         0.00000E+00        -0.12916E+08
 
   -0.13043E+08         0.10098E+07         0.00000E+00
    0.10098E+07        -0.47952E+08         0.00000E+00
    0.00000E+00         0.00000E+00        -0.13052E+08
 
   -0.13177E+08         0.10045E+07         0.00000E+00
    0.10045E+07        -0.48243E+08         0.00000E+00
    0.00000E+00         0.00000E+00        -0.13187E+08
 
   -0.13312E+08         0.99929E+06         0.00000E+00
    0.99929E+06        -0.48534E+08         0.00000E+00
    0.00000E+00         0.00000E+00        -0.13322E+08
 
   -0.13447E+08         0.99406E+06         0.00000E+00
    0.99406E+06        -0.48826E+08         0.00000E+00
    0.00000E+00         0.00000E+00        -0.13457E+08
 
   -0.13583E+08         0.98881E+06         0.00000E+00
    0.98881E+06        -0.49118E+08         0.00000E+00
    0.00000E+00         0.00000E+00        -0.13593E+08
 
   -0.13718E+08         0.98351E+06         0.00000E+00
    0.98351E+06        -0.49410E+08         0.00000E+00
    0.00000E+00         0.00000E+00        -0.13728E+08
 
   -0.13855E+08         0.97814E+06         0.00000E+00
    0.97814E+06        -0.49704E+08         0.00000E+00
    0.00000E+00         0.00000E+00        -0.13863E+08
 
   -0.13992E+08         0.97267E+06         0.00000E+00
    0.97267E+06        -0.49998E+08         0.00000E+00
    0.00000E+00         0.00000E+00        -0.13999E+08
 
   -0.14130E+08         0.96707E+06         0.00000E+00
    0.96707E+06        -0.50293E+08         0.00000E+00
    0.00000E+00         0.00000E+00        -0.14135E+08
 
   -0.14268E+08         0.96132E+06         0.00000E+00
    0.96132E+06        -0.50589E+08         0.00000E+00
    0.00000E+00         0.00000E+00        -0.14271E+08
 
   -0.14408E+08         0.95538E+06         0.00000E+00
    0.95538E+06        -0.50886E+08         0.00000E+00
    0.00000E+00         0.00000E+00        -0.14407E+08
 
   -0.14548E+08         0.94922E+06         0.00000E+00
    0.94922E+06        -0.51184E+08         0.00000E+00
    0.00000E+00         0.00000E+00        -0.14543E+08
 
   -0.14689E+08         0.94279E+06         0.00000E+00
    0.94279E+06        -0.51484E+08         0.00000E+00
    0.00000E+00         0.00000E+00        -0.14680E+08
 
   -0.14832E+08         0.93605E+06         0.00000E+00
    0.93605E+06        -0.51786E+08         0.00000E+00
    0.00000E+00         0.00000E+00        -0.14817E+08
 
   -0.14976E+08         0.92894E+06         0.00000E+00
    0.92894E+06        -0.52089E+08         0.00000E+00
    0.00000E+00         0.00000E+00        -0.14954E+08
 
   -0.15121E+08         0.92141E+06         0.00000E+00
    0.92141E+06        -0.52394E+08         0.00000E+00
    0.00000E+00         0.00000E+00        -0.15091E+08
 
   -0.15267E+08         0.91338E+06         0.00000E+00
    0.91338E+06        -0.52701E+08         0.00000E+00
    0.00000E+00         0.00000E+00        -0.15229E+08
 
   -0.15416E+08         0.90476E+06         0.00000E+00
    0.90476E+06        -0.53010E+08         0.00000E+00
    0.00000E+00         0.00000E+00        -0.15367E+08
 
   -0.15566E+08         0.89544E+06         0.00000E+00
    0.89544E+06        -0.53322E+08         0.00000E+00
    0.00000E+00         0.00000E+00        -0.15505E+08
 
   -0.15718E+08         0.88531E+06         0.00000E+00
    0.88531E+06        -0.53635E+08         0.00000E+00
    0.00000E+00         0.00000E+00        -0.15643E+08
 
   -0.15872E+08         0.87422E+06         0.00000E+00
    0.87422E+06        -0.53951E+08         0.00000E+00
    0.00000E+00         0.00000E+00        -0.15782E+08
 
   -0.16029E+08         0.86199E+06         0.00000E+00
    0.86199E+06        -0.54270E+08         0.00000E+00
    0.00000E+00         0.00000E+00        -0.15920E+08
 
   -0.16189E+08         0.84841E+06         0.00000E+00
    0.84841E+06        -0.54592E+08         0.00000E+00
    0.00000E+00         0.00000E+00        -0.16059E+08
 
   -0.16351E+08         0.83323E+06         0.00000E+00
    0.83323E+06        -0.54917E+08         0.00000E+00
    0.00000E+00         0.00000E+00        -0.16198E+08
 
   -0.16516E+08         0.81617E+06         0.00000E+00
    0.81617E+06        -0.55245E+08         0.00000E+00
    0.00000E+00         0.00000E+00        -0.16336E+08
 
   -0.16685E+08         0.79690E+06         0.00000E+00
    0.79690E+06        -0.55577E+08         0.00000E+00
    0.00000E+00         0.00000E+00        -0.16474E+08
 
   -0.16857E+08         0.77503E+06         0.00000E+00
    0.77503E+06        -0.55913E+08         0.00000E+00
    0.00000E+00         0.00000E+00        -0.16613E+08
 
   -0.17033E+08         0.75017E+06         0.00000E+00
    0.75017E+06        -0.56252E+08         0.00000E+00
    0.00000E+00         0.00000E+00        -0.16750E+08
 
   -0.17213E+08         0.72186E+06         0.00000E+00
    0.72186E+06        -0.56596E+08         0.00000E+00
    0.00000E+00         0.00000E+00        -0.16888E+08
 
   -0.17398E+08         0.68962E+06         0.00000E+00
    0.68962E+06        -0.56944E+08         0.00000E+00
    0.00000E+00         0.00000E+00        -0.17025E+08
 
   -0.17587E+08         0.65298E+06         0.00000E+00
    0.65298E+06        -0.57297E+08         0.00000E+00
    0.00000E+00         0.00000E+00        -0.17162E+08
 
   -0.17780E+08         0.61150E+06         0.00000E+00
    0.61150E+06        -0.57653E+08         0.00000E+00
    0.00000E+00         0.00000E+00        -0.17297E+08
 
   -0.17978E+08         0.56480E+06         0.00000E+00
    0.56480E+06        -0.58013E+08         0.00000E+00
    0.00000E+00         0.00000E+00        -0.17432E+08
 
   -0.18181E+08         0.51265E+06         0.00000E+00
    0.51265E+06        -0.58376E+08         0.00000E+00
    0.00000E+00         0.00000E+00        -0.17564E+08
 
   -0.18388E+08         0.45504E+06         0.00000E+00
    0.45504E+06        -0.58740E+08         0.00000E+00
    0.00000E+00         0.00000E+00        -0.17694E+08
 
   -0.18600E+08         0.39231E+06         0.00000E+00
    0.39231E+06        -0.59104E+08         0.00000E+00
    0.00000E+00         0.00000E+00        -0.17820E+08
 
   -0.18816E+08         0.32542E+06         0.00000E+00
    0.32542E+06        -0.59465E+08         0.00000E+00
    0.00000E+00         0.00000E+00        -0.17939E+08
 
   -0.19037E+08         0.25622E+06         0.00000E+00
    0.25622E+06        -0.59820E+08         0.00000E+00
    0.00000E+00         0.00000E+00        -0.18049E+08
 
   -0.19263E+08         0.18794E+06         0.00000E+00
    0.18794E+06        -0.60165E+08         0.00000E+00
    0.00000E+00         0.00000E+00        -0.18145E+08
 
   -0.19497E+08         0.12530E+06         0.00000E+00
    0.12530E+06        -0.60496E+08         0.00000E+00
    0.00000E+00         0.00000E+00        -0.18222E+08
 
   -0.19743E+08         0.73715E+05         0.00000E+00
    0.73715E+05        -0.60807E+08         0.00000E+00
    0.00000E+00         0.00000E+00        -0.18272E+08
 
   -0.20005E+08         0.37090E+05         0.00000E+00
    0.37090E+05        -0.61095E+08         0.00000E+00
    0.00000E+00         0.00000E+00        -0.18286E+08
 
   -0.20291E+08         0.15456E+05         0.00000E+00
    0.15456E+05        -0.61358E+08         0.00000E+00
    0.00000E+00         0.00000E+00        -0.18258E+08
 
   -0.20606E+08         0.40408E+04         0.00000E+00
    0.40408E+04        -0.61595E+08         0.00000E+00
    0.00000E+00         0.00000E+00        -0.18183E+08
 
   -0.50950E+07        -0.11442E+05         0.00000E+00
   -0.11442E+05        -0.28169E+08         0.00000E+00
    0.00000E+00         0.00000E+00        -0.86701E+07
 
   -0.54539E+07        -0.19052E+05         0.00000E+00
   -0.19052E+05        -0.28301E+08         0.00000E+00
    0.00000E+00         0.00000E+00        -0.86701E+07
 
   -0.57688E+07         0.95982E+04         0.00000E+00
    0.95982E+04        -0.28537E+08         0.00000E+00
    0.00000E+00         0.00000E+00        -0.86701E+07
 
   -0.60538E+07         0.76808E+05         0.00000E+00
    0.76808E+05        -0.28845E+08         0.00000E+00
    0.00000E+00         0.00000E+00        -0.86701E+07
 
   -0.63175E+07         0.17252E+06         0.00000E+00
    0.17252E+06        -0.29196E+08         0.00000E+00
    0.00000E+00         0.00000E+00        -0.86701E+07
 
   -0.65640E+07         0.28401E+06         0.00000E+00
    0.28401E+06        -0.29575E+08         0.00000E+00
    0.00000E+00         0.00000E+00        -0.86701E+07
 
   -0.67942E+07         0.40105E+06         0.00000E+00
    0.40105E+06        -0.29972E+08         0.00000E+00
    0.00000E+00         0.00000E+00        -0.86701E+07
 
   -0.70091E+07         0.51702E+06         0.00000E+00
    0.51702E+06        -0.30382E+08         0.00000E+00
    0.00000E+00         0.00000E+00        -0.86701E+07
 
   -0.72096E+07         0.62794E+06         0.00000E+00
    0.62794E+06        -0.30803E+08         0.00000E+00
    0.00000E+00         0.00000E+00        -0.86701E+07
 
   -0.73972E+07         0.73138E+06         0.00000E+00
    0.73138E+06        -0.31230E+08         0.00000E+00
    0.00000E+00         0.00000E+00        -0.86701E+07
 
   -0.75734E+07         0.82561E+06         0.00000E+00
    0.82561E+06        -0.31661E+08         0.00000E+00
    0.00000E+00         0.00000E+00        -0.86701E+07
 
   -0.77397E+07         0.90932E+06         0.00000E+00
    0.90932E+06        -0.32095E+08         0.00000E+00
    0.00000E+00         0.00000E+00        -0.86701E+07
 
   -0.78974E+07         0.98137E+06         0.00000E+00
    0.98137E+06        -0.32532E+08         0.00000E+00
    0.00000E+00         0.00000E+00        -0.86701E+07
 
   -0.80477E+07         0.10406E+07         0.00000E+00
    0.10406E+07        -0.32969E+08         0.00000E+00
    0.00000E+00         0.00000E+00        -0.86701E+07
 
   -0.81920E+07         0.10859E+07         0.00000E+00
    0.10859E+07        -0.33407E+08         0.00000E+00
    0.00000E+00         0.00000E+00        -0.86701E+07
 
   -0.83322E+07         0.11162E+07         0.00000E+00
    0.11162E+07        -0.33845E+08         0.00000E+00
    0.00000E+00         0.00000E+00        -0.86701E+07
 
   -0.84698E+07         0.11331E+07         0.00000E+00
    0.11331E+07        -0.34284E+08         0.00000E+00
    0.00000E+00         0.00000E+00        -0.86701E+07
 
   -0.86001E+07         0.11382E+07         0.00000E+00
    0.11382E+07        -0.34695E+08         0.00000E+00
    0.00000E+00         0.00000E+00        -0.87153E+07
 
   -0.87244E+07         0.11584E+07         0.00000E+00
    0.11584E+07        -0.35075E+08         0.00000E+00
    0.00000E+00         0.00000E+00        -0.88188E+07
 
   -0.88454E+07         0.11695E+07         0.00000E+00
    0.11695E+07        -0.35452E+08         0.00000E+00
    0.00000E+00         0.00000E+00        -0.89345E+07
 
   -0.89647E+07         0.11764E+07         0.00000E+00
    0.11764E+07        -0.35834E+08         0.00000E+00
    0.00000E+00         0.00000E+00        -0.90482E+07
 
   -0.90828E+07         0.11809E+07         0.00000E+00
    0.11809E+07        -0.36218E+08         0.00000E+00
    0.00000E+00         0.00000E+00        -0.91595E+07
 
   -0.92000E+07         0.11840E+07         0.00000E+00
    0.11840E+07        -0.36600E+08         0.00000E+00
    0.00000E+00         0.00000E+00        -0.92684E+07
 
   -0.93161E+07         0.11862E+07         0.00000E+00
    0.11862E+07        -0.36981E+08         0.00000E+00
    0.00000E+00         0.00000E+00        -0.93748E+07
 
   -0.94310E+07         0.11876E+07         0.00000E+00
    0.11876E+07        -0.37359E+08         0.00000E+00
    0.00000E+00         0.00000E+00        -0.94786E+07
 
   -0.95444E+07         0.11883E+07         0.00000E+00
    0.11883E+07        -0.37733E+08         0.00000E+00
    0.00000E+00         0.00000E+00        -0.95799E+07
 
   -0.96563E+07         0.11882E+07         0.00000E+00
    0.11882E+07        -0.38105E+08         0.00000E+00
    0.00000E+00         0.00000E+00        -0.96786E+07
 
   -0.97666E+07         0.11873E+07         0.00000E+00
    0.11873E+07        -0.38473E+08         0.00000E+00
    0.00000E+00         0.00000E+00        -0.97747E+07
 
   -0.98754E+07         0.11856E+07         0.00000E+00
    0.11856E+07        -0.38838E+08         0.00000E+00
    0.00000E+00         0.00000E+00        -0.98683E+07
 
   -0.99827E+07         0.11828E+07         0.00000E+00
    0.11828E+07        -0.39201E+08         0.00000E+00
    0.00000E+00         0.00000E+00        -0.99595E+07
 
   -0.10089E+08         0.11789E+07         0.00000E+00
    0.11789E+07        -0.39562E+08         0.00000E+00
    0.00000E+00         0.00000E+00        -0.10048E+08
 
   -0.10194E+08         0.11737E+07         0.00000E+00
    0.11737E+07        -0.39920E+08         0.00000E+00
    0.00000E+00         0.00000E+00        -0.10135E+08
 
   -0.10299E+08         0.11669E+07         0.00000E+00
    0.11669E+07        -0.40277E+08         0.00000E+00
    0.00000E+00         0.00000E+00        -0.10219E+08
 
   -0.10403E+08         0.11582E+07         0.00000E+00
    0.11582E+07        -0.40634E+08         0.00000E+00
    0.00000E+00         0.00000E+00        -0.10301E+08
 
   -0.10507E+08         0.11476E+07         0.00000E+00
    0.11476E+07        -0.40992E+08         0.00000E+00
    0.00000E+00         0.00000E+00        -0.10381E+08
 
   -0.10609E+08         0.11354E+07         0.00000E+00
    0.11354E+07        -0.41353E+08         0.00000E+00
    0.00000E+00         0.00000E+00        -0.10458E+08
 
   -0.10711E+08         0.11220E+07         0.00000E+00
    0.11220E+07        -0.41708E+08         0.00000E+00
    0.00000E+00         0.00000E+00        -0.10546E+08
 
   -0.10811E+08         0.11060E+07         0.00000E+00
    0.11060E+07        -0.42041E+08         0.00000E+00
    0.00000E+00         0.00000E+00        -0.10658E+08
 
   -0.10911E+08         0.10914E+07         0.00000E+00
    0.10914E+07        -0.42367E+08         0.00000E+00
    0.00000E+00         0.00000E+00        -0.10779E+08
 
   -0.11012E+08         0.10785E+07         0.00000E+00
    0.10785E+07        -0.42695E+08         0.00000E+00
    0.00000E+00         0.00000E+00        -0.10900E+08
 
   -0.11112E+08         0.10673E+07         0.00000E+00
    0.10673E+07        -0.43025E+08         0.00000E+00
    0.00000E+00         0.00000E+00        -0.11018E+08
 
   -0.11214E+08         0.10576E+07         0.00000E+00
    0.10576E+07        -0.43355E+08         0.00000E+00
    0.00000E+00         0.00000E+00        -0.11136E+08
 
   -0.11316E+08         0.10492E+07         0.00000E+00
    0.10492E+07        -0.43684E+08         0.00000E+00
    0.00000E+00         0.00000E+00        -0.11252E+08
 
   -0.11420E+08         0.10418E+07         0.00000E+00
    0.10418E+07        -0.44013E+08         0.00000E+00
    0.00000E+00         0.00000E+00        -0.11367E+08
 
   -0.11523E+08         0.10352E+07         0.00000E+00
    0.10352E+07        -0.44340E+08         0.00000E+00
    0.00000E+00         0.00000E+00        -0.11481E+08
 
   -0.11627E+08         0.10292E+07         0.00000E+00
    0.10292E+07        -0.44666E+08         0.00000E+00
    0.00000E+00         0.00000E+00        -0.11593E+08
 
   -0.11732E+08         0.10237E+07         0.00000E+00
    0.10237E+07        -0.44991E+08         0.00000E+00
    0.00000E+00         0.00000E+00        -0.11705E+08
 
   -0.11842E+08         0.10184E+07         0.00000E+00
    0.10184E+07        -0.45310E+08         0.00000E+00
    0.00000E+00         0.00000E+00        -0.11821E+08
 
   -0.11968E+08         0.10123E+07         0.00000E+00
    0.10123E+07        -0.45612E+08         0.00000E+00
    0.00000E+00         0.00000E+00        -0.11954E+08
 
   -0.12102E+08         0.10062E+07         0.00000E+00
    0.10062E+07        -0.45907E+08         0.00000E+00
    0.00000E+00         0.00000E+00        -0.12093E+08
 
   -0.12236E+08         0.10003E+07         0.00000E+00
    0.10003E+07        -0.46201E+08         0.00000E+00
    0.00000E+00         0.00000E+00        -0.12231E+08
 
   -0.12370E+08         0.99464E+06         0.00000E+00
    0.99464E+06        -0.46494E+08         0.00000E+00
    0.00000E+00         0.00000E+00        -0.12368E+08
 
   -0.12504E+08         0.98914E+06         0.00000E+00
    0.98914E+06        -0.46786E+08         0.00000E+00
    0.00000E+00         0.00000E+00        -0.12505E+08
 
   -0.12638E+08         0.98378E+06         0.00000E+00
    0.98378E+06        -0.47078E+08         0.00000E+00
    0.00000E+00         0.00000E+00        -0.12642E+08
 
   -0.12772E+08         0.97854E+06         0.00000E+00
    0.97854E+06        -0.47369E+08         0.00000E+00
    0.00000E+00         0.00000E+00        -0.12778E+08
 
   -0.12906E+08         0.97339E+06         0.00000E+00
    0.97339E+06        -0.47661E+08         0.00000E+00
    0.00000E+00         0.00000E+00        -0.12914E+08
 
   -0.13041E+08         0.96831E+06         0.00000E+00
    0.96831E+06        -0.47952E+08         0.00000E+00
    0.00000E+00         0.00000E+00        -0.13049E+08
 
   -0.13175E+08         0.96327E+06         0.00000E+00
    0.96327E+06        -0.48243E+08         0.00000E+00
    0.00000E+00         0.00000E+00        -0.13185E+08
 
   -0.13310E+08         0.95825E+06         0.00000E+00
    0.95825E+06        -0.48534E+08         0.00000E+00
    0.00000E+00         0.00000E+00        -0.13320E+08
 
   -0.13445E+08         0.95323E+06         0.00000E+00
    0.95323E+06        -0.48826E+08         0.00000E+00
    0.00000E+00         0.00000E+00        -0.13456E+08
 
   -0.13580E+08         0.94818E+06         0.00000E+00
    0.94818E+06        -0.49118E+08         0.00000E+00
    0.00000E+00         0.00000E+00        -0.13591E+08
 
   -0.13716E+08         0.94309E+06         0.00000E+00
    0.94309E+06        -0.49411E+08         0.00000E+00
    0.00000E+00         0.00000E+00        -0.13726E+08
 
   -0.13853E+08         0.93792E+06         0.00000E+00
    0.93792E+06        -0.49704E+08         0.00000E+00
    0.00000E+00         0.00000E+00        -0.13862E+08
 
   -0.13990E+08         0.93267E+06         0.00000E+00
    0.93267E+06        -0.49998E+08         0.00000E+00
    0.00000E+00         0.00000E+00        -0.13997E+08
 
   -0.14128E+08         0.92728E+06         0.00000E+00
    0.92728E+06        -0.50293E+08         0.00000E+00
    0.00000E+00         0.00000E+00        -0.14133E+08
 
   -0.14266E+08         0.92175E+06         0.00000E+00
    0.92175E+06        -0.50589E+08         0.00000E+00
    0.00000E+00         0.00000E+00        -0.14269E+08
 
   -0.14406E+08         0.91604E+06         0.00000E+00
    0.91604E+06        -0.50887E+08         0.00000E+00
    0.00000E+00         0.00000E+00        -0.14405E+08
 
   -0.14546E+08         0.91011E+06         0.00000E+00
    0.91011E+06        -0.51185E+08         0.00000E+00
    0.00000E+00         0.00000E+00        -0.14542E+08
 
   -0.14688E+08         0.90393E+06         0.00000E+00
    0.90393E+06        -0.51485E+08         0.00000E+00
    0.00000E+00         0.00000E+00        -0.14678E+08
 
   -0.14830E+08         0.89745E+06         0.00000E+00
    0.89745E+06        -0.51787E+08         0.00000E+00
    0.00000E+00         0.00000E+00        -0.14815E+08
 
   -0.14974E+08         0.89062E+06         0.00000E+00
    0.89062E+06        -0.52090E+08         0.00000E+00
    0.00000E+00         0.00000E+00        -0.14952E+08
 
   -0.15120E+08         0.88338E+06         0.00000E+00
    0.88338E+06        -0.52395E+08         0.00000E+00
    0.00000E+00         0.00000E+00        -0.15090E+08
 
   -0.15266E+08         0.87567E+06         0.00000E+00
    0.87567E+06        -0.52702E+08         0.00000E+00
    0.00000E+00         0.00000E+00        -0.15227E+08
 
   -0.15415E+08         0.86739E+06         0.00000E+00
    0.86739E+06        -0.53011E+08         0.00000E+00
    0.00000E+00         0.00000E+00        -0.15365E+08
 
   -0.15565E+08         0.85845E+06         0.00000E+00
    0.85845E+06        -0.53322E+08         0.00000E+00
    0.00000E+00         0.00000E+00        -0.15503E+08
 
   -0.15718E+08         0.84873E+06         0.00000E+00
    0.84873E+06        -0.53635E+08         0.00000E+00
    0.00000E+00         0.00000E+00        -0.15641E+08
 
   -0.15872E+08         0.83809E+06         0.00000E+00
    0.83809E+06        -0.53951E+08         0.00000E+00
    0.00000E+00         0.00000E+00        -0.15779E+08
 
   -0.16029E+08         0.82635E+06         0.00000E+00
    0.82635E+06        -0.54270E+08         0.00000E+00
    0.00000E+00         0.00000E+00        -0.15917E+08
 
   -0.16188E+08         0.81330E+06         0.00000E+00
    0.81330E+06        -0.54591E+08         0.00000E+00
    0.00000E+00         0.00000E+00        -0.16056E+08
 
   -0.16351E+08         0.79872E+06         0.00000E+00
    0.79872E+06        -0.54916E+08         0.00000E+00
    0.00000E+00         0.00000E+00        -0.16194E+08
 
   -0.16516E+08         0.78231E+06         0.00000E+00
    0.78231E+06        -0.55244E+08         0.00000E+00
    0.00000E+00         0.00000E+00        -0.16332E+08
 
   -0.16685E+08         0.76374E+06         0.00000E+00
    0.76374E+06        -0.55575E+08         0.00000E+00
    0.00000E+00         0.00000E+00        -0.16469E+08
 
   -0.16858E+08         0.74264E+06         0.00000E+00
    0.74264E+06        -0.55910E+08         0.00000E+00
    0.00000E+00         0.00000E+00        -0.16607E+08
 
   -0.17034E+08         0.71860E+06         0.00000E+00
    0.71860E+06        -0.56249E+08         0.00000E+00
    0.00000E+00         0.00000E+00        -0.16743E+08
 
   -0.17215E+08         0.69116E+06         0.00000E+00
    0.69116E+06        -0.56592E+08         0.00000E+00
    0.00000E+00         0.00000E+00        -0.16880E+08
 
   -0.17400E+08         0.65984E+06         0.00000E+00
    0.65984E+06        -0.56939E+08         0.00000E+00
    0.00000E+00         0.00000E+00        -0.17015E+08
 
   -0.17590E+08         0.62416E+06         0.00000E+00
    0.62416E+06        -0.57290E+08         0.00000E+00
    0.00000E+00         0.00000E+00        -0.17150E+08
 
   -0.17785E+08         0.58367E+06         0.00000E+00
    0.58367E+06        -0.57645E+08         0.00000E+00
    0.00000E+00         0.00000E+00        -0.17284E+08
 
   -0.17985E+08         0.53799E+06         0.00000E+00
    0.53799E+06        -0.58004E+08         0.00000E+00
    0.00000E+00         0.00000E+00        -0.17416E+08
 
   -0.18189E+08         0.48687E+06         0.00000E+00
    0.48687E+06        -0.58365E+08         0.00000E+00
    0.00000E+00         0.00000E+00        -0.17546E+08
 
   -0.18399E+08         0.43029E+06         0.00000E+00
    0.43029E+06        -0.58728E+08         0.00000E+00
    0.00000E+00         0.00000E+00        -0.17673E+08
 
   -0.18613E+08         0.36863E+06         0.00000E+00
    0.36863E+06        -0.59091E+08         0.00000E+00
    0.00000E+00         0.00000E+00        -0.17795E+08
 
   -0.18832E+08         0.30287E+06         0.00000E+00
    0.30287E+06        -0.59452E+08         0.00000E+00
    0.00000E+00         0.00000E+00        -0.17911E+08
 
   -0.19057E+08         0.23493E+06         0.00000E+00
    0.23493E+06        -0.59807E+08         0.00000E+00
    0.00000E+00         0.00000E+00        -0.18017E+08
 
   -0.19288E+08         0.16816E+06         0.00000E+00
    0.16816E+06        -0.60153E+08         0.00000E+00
    0.00000E+00         0.00000E+00        -0.18111E+08
 
   -0.19526E+08         0.10750E+06         0.00000E+00
    0.10750E+06        -0.60486E+08         0.00000E+00
    0.00000E+00         0.00000E+00        -0.18186E+08
 
   -0.19775E+08         0.58602E+05         0.00000E+00
    0.58602E+05        -0.60801E+08         0.00000E+00
    0.00000E+00         0.00000E+00        -0.18235E+08
 
   -0.20041E+08         0.25538E+05         0.00000E+00
    0.25538E+05        -0.61093E+08         0.00000E+00
    0.00000E+00         0.00000E+00        -0.18251E+08
 
   -0.20328E+08         0.82208E+04         0.00000E+00
    0.82208E+04        -0.61359E+08         0.00000E+00
    0.00000E+00         0.00000E+00        -0.18224E+08
 
   -0.20644E+08         0.15806E+04         0.00000E+00
    0.15806E+04        -0.61597E+08         0.00000E+00
    0.00000E+00         0.00000E+00        -0.18150E+08
 
   -0.49885E+07        -0.17328E+05         0.00000E+00
   -0.17328E+05        -0.28164E+08         0.00000E+00
    0.00000E+00         0.00000E+00        -0.86701E+07
 
   -0.53487E+07        -0.35104E+05         0.00000E+00
   -0.35104E+05        -0.28301E+08         0.00000E+00
    0.00000E+00         0.00000E+00        -0.86701E+07
 
   -0.56672E+07        -0.13365E+05         0.00000E+00
   -0.13365E+05        -0.28547E+08         0.00000E+00
    0.00000E+00         0.00000E+00        -0.86701E+07
 
   -0.59583E+07         0.49399E+05         0.00000E+00
    0.49399E+05        -0.28862E+08         0.00000E+00
    0.00000E+00         0.00000E+00        -0.86701E+07
 
   -0.62302E+07         0.14176E+06         0.00000E+00
    0.14176E+06        -0.29217E+08         0.00000E+00
    0.00000E+00         0.00000E+00        -0.86701E+07
 
   -0.64855E+07         0.25020E+06         0.00000E+00
    0.25020E+06        -0.29598E+08         0.00000E+00
    0.00000E+00         0.00000E+00        -0.86701E+07
 
   -0.67247E+07         0.36428E+06         0.00000E+00
    0.36428E+06        -0.29995E+08         0.00000E+00
    0.00000E+00         0.00000E+00        -0.86701E+07
 
   -0.69480E+07         0.47743E+06         0.00000E+00
    0.47743E+06        -0.30405E+08         0.00000E+00
    0.00000E+00         0.00000E+00        -0.86701E+07
 
   -0.71561E+07         0.58583E+06         0.00000E+00
    0.58583E+06        -0.30824E+08         0.00000E+00
    0.00000E+00         0.00000E+00        -0.86701E+07
 
   -0.73506E+07         0.68707E+06         0.00000E+00
    0.68707E+06        -0.31249E+08         0.00000E+00
    0.00000E+00         0.00000E+00        -0.86701E+07
 
   -0.75329E+07         0.77944E+06         0.00000E+00
    0.77944E+06        -0.31679E+08         0.00000E+00
    0.00000E+00         0.00000E+00        -0.86701E+07
 
   -0.77046E+07         0.86159E+06         0.00000E+00
    0.86159E+06        -0.32111E+08         0.00000E+00
    0.00000E+00         0.00000E+00        -0.86701E+07
 
   -0.78669E+07         0.93235E+06         0.00000E+00
    0.93235E+06        -0.32545E+08         0.00000E+00
    0.00000E+00         0.00000E+00        -0.86701E+07
 
   -0.80213E+07         0.99061E+06         0.00000E+00
    0.99061E+06        -0.32980E+08         0.00000E+00
    0.00000E+00         0.00000E+00        -0.86701E+07
 
   -0.81691E+07         0.10352E+07         0.00000E+00
    0.10352E+07        -0.33415E+08         0.00000E+00
    0.00000E+00         0.00000E+00        -0.86701E+07
 
   -0.83126E+07         0.10654E+07         0.00000E+00
    0.10654E+07        -0.33850E+08         0.00000E+00
    0.00000E+00         0.00000E+00        -0.86701E+07
 
   -0.84528E+07         0.10821E+07         0.00000E+00
    0.10821E+07        -0.34286E+08         0.00000E+00
    0.00000E+00         0.00000E+00        -0.86701E+07
 
   -0.85857E+07         0.10857E+07         0.00000E+00
    0.10857E+07        -0.34698E+08         0.00000E+00
    0.00000E+00         0.00000E+00        -0.87111E+07
 
   -0.87120E+07         0.11053E+07         0.00000E+00
    0.11053E+07        -0.35078E+08         0.00000E+00
    0.00000E+00         0.00000E+00        -0.88091E+07
 
   -0.88338E+07         0.11165E+07         0.00000E+00
    0.11165E+07        -0.35454E+08         0.00000E+00
    0.00000E+00         0.00000E+00        -0.89237E+07
 
   -0.89536E+07         0.11236E+07         0.00000E+00
    0.11236E+07        -0.35836E+08         0.00000E+00
    0.00000E+00         0.00000E+00        -0.90365E+07
 
   -0.90721E+07         0.11284E+07         0.00000E+00
    0.11284E+07        -0.36219E+08         0.00000E+00
    0.00000E+00         0.00000E+00        -0.91472E+07
 
   -0.91895E+07         0.11318E+07         0.00000E+00
    0.11318E+07        -0.36601E+08         0.00000E+00
    0.00000E+00         0.00000E+00        -0.92557E+07
 
   -0.93058E+07         0.11343E+07         0.00000E+00
    0.11343E+07        -0.36981E+08         0.00000E+00
    0.00000E+00         0.00000E+00        -0.93619E+07
 
   -0.94210E+07         0.11360E+07         0.00000E+00
    0.11360E+07        -0.37359E+08         0.00000E+00
    0.00000E+00         0.00000E+00        -0.94656E+07
 
   -0.95347E+07         0.11369E+07         0.00000E+00
    0.11369E+07        -0.37733E+08         0.00000E+00
    0.00000E+00         0.00000E+00        -0.95670E+07
 
   -0.96468E+07         0.11371E+07         0.00000E+00
    0.11371E+07        -0.38105E+08         0.00000E+00
    0.00000E+00         0.00000E+00        -0.96658E+07
 
   -0.97574E+07         0.11364E+07         0.00000E+00
    0.11364E+07        -0.38473E+08         0.00000E+00
    0.00000E+00         0.00000E+00        -0.97622E+07
 
   -0.98665E+07         0.11348E+07         0.00000E+00
    0.11348E+07        -0.38838E+08         0.00000E+00
    0.00000E+00         0.00000E+00        -0.98562E+07
 
   -0.99741E+07         0.11323E+07         0.00000E+00
    0.11323E+07        -0.39200E+08         0.00000E+00
    0.00000E+00         0.00000E+00        -0.99477E+07
 
   -0.10081E+08         0.11288E+07         0.00000E+00
    0.11288E+07        -0.39561E+08         0.00000E+00
    0.00000E+00         0.00000E+00        -0.10037E+08
 
   -0.10186E+08         0.11239E+07         0.00000E+00
    0.11239E+07        -0.39919E+08         0.00000E+00
    0.00000E+00         0.00000E+00        -0.10124E+08
 
   -0.10291E+08         0.11175E+07         0.00000E+00
    0.11175E+07        -0.40276E+08         0.00000E+00
    0.00000E+00         0.00000E+00        -0.10208E+08
 
   -0.10396E+08         0.11092E+07         0.00000E+00
    0.11092E+07        -0.40632E+08         0.00000E+00
    0.00000E+00         0.00000E+00        -0.10291E+08
 
   -0.10500E+08         0.10989E+07         0.00000E+00
    0.10989E+07        -0.40990E+08         0.00000E+00
    0.00000E+00         0.00000E+00        -0.10371E+08
 
   -0.10603E+08         0.10869E+07         0.00000E+00
    0.10869E+07        -0.41351E+08         0.00000E+00
    0.00000E+00         0.00000E+00        -0.10449E+08
 
   -0.10705E+08         0.10737E+07         0.00000E+00
    0.10737E+07        -0.41705E+08         0.00000E+00
    0.00000E+00         0.00000E+00        -0.10537E+08
 
   -0.10806E+08         0.10580E+07         0.00000E+00
    0.10580E+07        -0.42038E+08         0.00000E+00
    0.00000E+00         0.00000E+00        -0.10650E+08
 
   -0.10906E+08         0.10437E+07         0.00000E+00
    0.10437E+07        -0.42364E+08         0.00000E+00
    0.00000E+00         0.00000E+00        -0.10772E+08
 
   -0.11007E+08         0.10313E+07         0.00000E+00
    0.10313E+07        -0.42693E+08         0.00000E+00
    0.00000E+00         0.00000E+00        -0.10893E+08
 
   -0.11108E+08         0.10206E+07         0.00000E+00
    0.10206E+07        -0.43023E+08         0.00000E+00
    0.00000E+00         0.00000E+00        -0.11012E+08
 
   -0.11210E+08         0.10115E+07         0.00000E+00
    0.10115E+07        -0.43353E+08         0.00000E+00
    0.00000E+00         0.00000E+00        -0.11130E+08
 
   -0.11312E+08         0.10036E+07         0.00000E+00
    0.10036E+07        -0.43683E+08         0.00000E+00
    0.00000E+00         0.00000E+00        -0.11246E+08
 
   -0.11416E+08         0.99667E+06         0.00000E+00
    0.99667E+06        -0.44011E+08         0.00000E+00
    0.00000E+00         0.00000E+00        -0.11361E+08
 
   -0.11520E+08         0.99047E+06         0.00000E+00
    0.99047E+06        -0.44339E+08         0.00000E+00
    0.00000E+00         0.00000E+00        -0.11476E+08
 
   -0.11624E+08         0.98486E+06         0.00000E+00
    0.98486E+06        -0.44665E+08         0.00000E+00
    0.00000E+00         0.00000E+00        -0.11589E+08
 
   -0.11729E+08         0.97970E+06         0.00000E+00
    0.97970E+06        -0.44990E+08         0.00000E+00
    0.00000E+00         0.00000E+00        -0.11701E+08
 
   -0.11839E+08         0.97462E+06         0.00000E+00
    0.97462E+06        -0.45309E+08         0.00000E+00
    0.00000E+00         0.00000E+00        -0.11817E+08
 
   -0.11966E+08         0.96890E+06         0.00000E+00
    0.96890E+06        -0.45611E+08         0.00000E+00
    0.00000E+00         0.00000E+00        -0.11950E+08
 
   -0.12100E+08         0.96307E+06         0.00000E+00
    0.96307E+06        -0.45906E+08         0.00000E+00
    0.00000E+00         0.00000E+00        -0.12089E+08
 
   -0.12234E+08         0.95746E+06         0.00000E+00
    0.95746E+06        -0.46200E+08         0.00000E+00
    0.00000E+00         0.00000E+00        -0.12228E+08
 
   -0.12368E+08         0.95205E+06         0.00000E+00
    0.95205E+06        -0.46493E+08         0.00000E+00
    0.00000E+00         0.00000E+00        -0.12365E+08
 
   -0.12502E+08         0.94680E+06         0.00000E+00
    0.94680E+06        -0.46785E+08         0.00000E+00
    0.00000E+00         0.00000E+00        -0.12502E+08
 
   -0.12636E+08         0.94169E+06         0.00000E+00
    0.94169E+06        -0.47077E+08         0.00000E+00
    0.00000E+00         0.00000E+00        -0.12639E+08
 
   -0.12770E+08         0.93668E+06         0.00000E+00
    0.93668E+06        -0.47369E+08         0.00000E+00
    0.00000E+00         0.00000E+00        -0.12775E+08
 
   -0.12904E+08         0.93175E+06         0.00000E+00
    0.93175E+06        -0.47660E+08         0.00000E+00
    0.00000E+00         0.00000E+00        -0.12912E+08
 
   -0.13038E+08         0.92688E+06         0.00000E+00
    0.92688E+06        -0.47952E+08         0.00000E+00
    0.00000E+00         0.00000E+00        -0.13047E+08
 
   -0.13173E+08         0.92205E+06         0.00000E+00
    0.92205E+06        -0.48243E+08         0.00000E+00
    0.00000E+00         0.00000E+00        -0.13183E+08
 
   -0.13308E+08         0.91724E+06         0.00000E+00
    0.91724E+06        -0.48535E+08         0.00000E+00
    0.00000E+00         0.00000E+00        -0.13318E+08
 
   -0.13443E+08         0.91242E+06         0.00000E+00
    0.91242E+06        -0.48826E+08         0.00000E+00
    0.00000E+00         0.00000E+00        -0.13454E+08
 
   -0.13578E+08         0.90758E+06         0.00000E+00
    0.90758E+06        -0.49119E+08         0.00000E+00
    0.00000E+00         0.00000E+00        -0.13589E+08
 
   -0.13714E+08         0.90269E+06         0.00000E+00
    0.90269E+06        -0.49411E+08         0.00000E+00
    0.00000E+00         0.00000E+00        -0.13725E+08
 
   -0.13851E+08         0.89774E+06         0.00000E+00
    0.89774E+06        -0.49705E+08         0.00000E+00
    0.00000E+00         0.00000E+00        -0.13860E+08
 
   -0.13988E+08         0.89269E+06         0.00000E+00
    0.89269E+06        -0.49999E+08         0.00000E+00
    0.00000E+00         0.00000E+00        -0.13996E+08
 
   -0.14126E+08         0.88752E+06         0.00000E+00
    0.88752E+06        -0.50294E+08         0.00000E+00
    0.00000E+00         0.00000E+00        -0.14132E+08
 
   -0.14265E+08         0.88221E+06         0.00000E+00
    0.88221E+06        -0.50590E+08         0.00000E+00
    0.00000E+00         0.00000E+00        -0.14268E+08
 
   -0.14404E+08         0.87673E+06         0.00000E+00
    0.87673E+06        -0.50888E+08         0.00000E+00
    0.00000E+00         0.00000E+00        -0.14404E+08
 
   -0.14545E+08         0.87104E+06         0.00000E+00
    0.87104E+06        -0.51186E+08         0.00000E+00
    0.00000E+00         0.00000E+00        -0.14540E+08
 
   -0.14686E+08         0.86510E+06         0.00000E+00
    0.86510E+06        -0.51486E+08         0.00000E+00
    0.00000E+00         0.00000E+00        -0.14677E+08
 
   -0.14829E+08         0.85888E+06         0.00000E+00
    0.85888E+06        -0.51788E+08         0.00000E+00
    0.00000E+00         0.00000E+00        -0.14814E+08
 
   -0.14973E+08         0.85233E+06         0.00000E+00
    0.85233E+06        -0.52091E+08         0.00000E+00
    0.00000E+00         0.00000E+00        -0.14951E+08
 
   -0.15118E+08         0.84539E+06         0.00000E+00
    0.84539E+06        -0.52396E+08         0.00000E+00
    0.00000E+00         0.00000E+00        -0.15088E+08
 
   -0.15265E+08         0.83799E+06         0.00000E+00
    0.83799E+06        -0.52703E+08         0.00000E+00
    0.00000E+00         0.00000E+00        -0.15226E+08
 
   -0.15414E+08         0.83005E+06         0.00000E+00
    0.83005E+06        -0.53011E+08         0.00000E+00
    0.00000E+00         0.00000E+00        -0.15363E+08
 
   -0.15564E+08         0.82149E+06         0.00000E+00
    0.82149E+06        -0.53322E+08         0.00000E+00
    0.00000E+00         0.00000E+00        -0.15501E+08
 
   -0.15717E+08         0.81218E+06         0.00000E+00
    0.81218E+06        -0.53636E+08         0.00000E+00
    0.00000E+00         0.00000E+00        -0.15639E+08
 
   -0.15872E+08         0.80198E+06         0.00000E+00
    0.80198E+06        -0.53952E+08         0.00000E+00
    0.00000E+00         0.00000E+00        -0.15777E+08
 
   -0.16029E+08         0.79073E+06         0.00000E+00
    0.79073E+06        -0.54270E+08         0.00000E+00
    0.00000E+00         0.00000E+00        -0.15915E+08
 
   -0.16188E+08         0.77823E+06         0.00000E+00
    0.77823E+06        -0.54591E+08         0.00000E+00
    0.00000E+00         0.00000E+00        -0.16052E+08
 
   -0.16351E+08         0.76424E+06         0.00000E+00
    0.76424E+06        -0.54915E+08         0.00000E+00
    0.00000E+00         0.00000E+00        -0.16190E+08
 
   -0.16517E+08         0.74848E+06         0.00000E+00
    0.74848E+06        -0.55242E+08         0.00000E+00
    0.00000E+00         0.00000E+00        -0.16327E+08
 
   -0.16686E+08         0.73062E+06         0.00000E+00
    0.73062E+06        -0.55573E+08         0.00000E+00
    0.00000E+00         0.00000E+00        -0.16464E+08
 
   -0.16859E+08         0.71030E+06         0.00000E+00
    0.71030E+06        -0.55907E+08         0.00000E+00
    0.00000E+00         0.00000E+00        -0.16601E+08
 
   -0.17036E+08         0.68710E+06         0.00000E+00
    0.68710E+06        -0.56245E+08         0.00000E+00
    0.00000E+00         0.00000E+00        -0.16737E+08
 
   -0.17217E+08         0.66055E+06         0.00000E+00
    0.66055E+06        -0.56587E+08         0.00000E+00
    0.00000E+00         0.00000E+00        -0.16872E+08
 
   -0.17403E+08         0.63019E+06         0.00000E+00
    0.63019E+06        -0.56934E+08         0.00000E+00
    0.00000E+00         0.00000E+00        -0.17006E+08
 
   -0.17594E+08         0.59551E+06         0.00000E+00
    0.59551E+06        -0.57284E+08         0.00000E+00
    0.00000E+00         0.00000E+00        -0.17139E+08
 
   -0.17790E+08         0.55607E+06         0.00000E+00
    0.55607E+06        -0.57638E+08         0.00000E+00
    0.00000E+00         0.00000E+00        -0.17271E+08
 
   -0.17991E+08         0.51147E+06         0.00000E+00
    0.51147E+06        -0.57995E+08         0.00000E+00
    0.00000E+00         0.00000E+00        -0.17401E+08
 
   -0.18197E+08         0.46146E+06         0.00000E+00
    0.46146E+06        -0.58355E+08         0.00000E+00
    0.00000E+00         0.00000E+00        -0.17528E+08
 
   -0.18409E+08         0.40604E+06         0.00000E+00
    0.40604E+06        -0.58717E+08         0.00000E+00
    0.00000E+00         0.00000E+00        -0.17652E+08
 
   -0.18626E+08         0.34559E+06         0.00000E+00
    0.34559E+06        -0.59079E+08         0.00000E+00
    0.00000E+00         0.00000E+00        -0.17771E+08
 
   -0.18849E+08         0.28110E+06         0.00000E+00
    0.28110E+06        -0.59439E+08         0.00000E+00
    0.00000E+00         0.00000E+00        -0.17883E+08
 
   -0.19078E+08         0.21456E+06         0.00000E+00
    0.21456E+06        -0.59795E+08         0.00000E+00
    0.00000E+00         0.00000E+00        -0.17986E+08
 
   -0.19313E+08         0.14937E+06         0.00000E+00
    0.14937E+06        -0.60142E+08         0.00000E+00
    0.00000E+00         0.00000E+00        -0.18077E+08
 
   -0.19556E+08         0.90624E+05         0.00000E+00
    0.90624E+05        -0.60477E+08         0.00000E+00
    0.00000E+00         0.00000E+00        -0.18150E+08
 
   -0.19809E+08         0.44226E+05         0.00000E+00
    0.44226E+05        -0.60795E+08         0.00000E+00
    0.00000E+00         0.00000E+00        -0.18199E+08
 
   -0.20077E+08         0.14455E+05         0.00000E+00
    0.14455E+05        -0.61091E+08         0.00000E+00
    0.00000E+00         0.00000E+00        -0.18216E+08
 
   -0.20367E+08         0.12160E+04         0.00000E+00
    0.12160E+04        -0.61360E+08         0.00000E+00
    0.00000E+00         0.00000E+00        -0.18191E+08
 
   -0.20683E+08        -0.81459E+03         0.00000E+00
   -0.81459E+03        -0.61600E+08         0.00000E+00
    0.00000E+00         0.00000E+00        -0.18118E+08
 
   -0.48808E+07        -0.23134E+05         0.00000E+00
   -0.23134E+05        -0.28156E+08         0.00000E+00
    0.00000E+00         0.00000E+00        -0.86701E+07
 
   -0.52424E+07        -0.50728E+05         0.00000E+00
   -0.50728E+05        -0.28300E+08         0.00000E+00
    0.00000E+00         0.00000E+00        -0.86701E+07
 
   -0.55649E+07        -0.35318E+05         0.00000E+00
   -0.35318E+05        -0.28555E+08         0.00000E+00
    0.00000E+00         0.00000E+00        -0.86701E+07
 
   -0.58627E+07         0.23504E+05         0.00000E+00
    0.23504E+05        -0.28877E+08         0.00000E+00
    0.00000E+00         0.00000E+00        -0.86701E+07
 
   -0.61431E+07         0.11279E+06         0.00000E+00
    0.11279E+06        -0.29238E+08         0.00000E+00
    0.00000E+00         0.00000E+00        -0.86701E+07
 
   -0.64077E+07         0.21824E+06         0.00000E+00
    0.21824E+06        -0.29620E+08         0.00000E+00
    0.00000E+00         0.00000E+00        -0.86701E+07
 
   -0.66559E+07         0.32926E+06         0.00000E+00
    0.32926E+06        -0.30018E+08         0.00000E+00
    0.00000E+00         0.00000E+00        -0.86701E+07
 
   -0.68876E+07         0.43946E+06         0.00000E+00
    0.43946E+06        -0.30427E+08         0.00000E+00
    0.00000E+00         0.00000E+00        -0.86701E+07
 
   -0.71034E+07         0.54517E+06         0.00000E+00
    0.54517E+06        -0.30845E+08         0.00000E+00
    0.00000E+00         0.00000E+00        -0.86701E+07
 
   -0.73047E+07         0.64406E+06         0.00000E+00
    0.64406E+06        -0.31268E+08         0.00000E+00
    0.00000E+00         0.00000E+00        -0.86701E+07
 
   -0.74931E+07         0.73441E+06         0.00000E+00
    0.73441E+06        -0.31696E+08         0.00000E+00
    0.00000E+00         0.00000E+00        -0.86701E+07
 
   -0.76700E+07         0.81485E+06         0.00000E+00
    0.81485E+06        -0.32126E+08         0.00000E+00
    0.00000E+00         0.00000E+00        -0.86701E+07
 
   -0.78369E+07         0.88420E+06         0.00000E+00
    0.88420E+06        -0.32557E+08         0.00000E+00
    0.00000E+00         0.00000E+00        -0.86701E+07
 
   -0.79952E+07         0.94133E+06         0.00000E+00
    0.94133E+06        -0.32990E+08         0.00000E+00
    0.00000E+00         0.00000E+00        -0.86701E+07
 
   -0.81465E+07         0.98515E+06         0.00000E+00
    0.98515E+06        -0.33422E+08         0.00000E+00
    0.00000E+00         0.00000E+00        -0.86701E+07
 
   -0.82929E+07         0.10151E+07         0.00000E+00
    0.10151E+07        -0.33854E+08         0.00000E+00
    0.00000E+00         0.00000E+00        -0.86701E+07
 
   -0.84356E+07         0.10316E+07         0.00000E+00
    0.10316E+07        -0.34288E+08         0.00000E+00
    0.00000E+00         0.00000E+00        -0.86701E+07
 
   -0.85711E+07         0.10337E+07         0.00000E+00
    0.10337E+07        -0.34700E+08         0.00000E+00
    0.00000E+00         0.00000E+00        -0.87069E+07
 
   -0.86994E+07         0.10525E+07         0.00000E+00
    0.10525E+07        -0.35081E+08         0.00000E+00
    0.00000E+00         0.00000E+00        -0.87994E+07
 
   -0.88222E+07         0.10637E+07         0.00000E+00
    0.10637E+07        -0.35456E+08         0.00000E+00
    0.00000E+00         0.00000E+00        -0.89129E+07
 
   -0.89426E+07         0.10709E+07         0.00000E+00
    0.10709E+07        -0.35837E+08         0.00000E+00
    0.00000E+00         0.00000E+00        -0.90248E+07
 
   -0.90616E+07         0.10760E+07         0.00000E+00
    0.10760E+07        -0.36219E+08         0.00000E+00
    0.00000E+00         0.00000E+00        -0.91350E+07
 
   -0.91794E+07         0.10797E+07         0.00000E+00
    0.10797E+07        -0.36601E+08         0.00000E+00
    0.00000E+00         0.00000E+00        -0.92431E+07
 
   -0.92960E+07         0.10825E+07         0.00000E+00
    0.10825E+07        -0.36982E+08         0.00000E+00
    0.00000E+00         0.00000E+00        -0.93491E+07
 
   -0.94113E+07         0.10845E+07         0.00000E+00
    0.10845E+07        -0.37359E+08         0.00000E+00
    0.00000E+00         0.00000E+00        -0.94528E+07
 
   -0.95253E+07         0.10856E+07         0.00000E+00
    0.10856E+07        -0.37733E+08         0.00000E+00
    0.00000E+00         0.00000E+00        -0.95542E+07
 
   -0.96378E+07         0.10860E+07         0.00000E+00
    0.10860E+07        -0.38105E+08         0.00000E+00
    0.00000E+00         0.00000E+00        -0.96533E+07
 
   -0.97486E+07         0.10855E+07         0.00000E+00
    0.10855E+07        -0.38473E+08         0.00000E+00
    0.00000E+00         0.00000E+00        -0.97499E+07
 
   -0.98579E+07         0.10842E+07         0.00000E+00
    0.10842E+07        -0.38838E+08         0.00000E+00
    0.00000E+00         0.00000E+00        -0.98442E+07
 
   -0.99659E+07         0.10820E+07         0.00000E+00
    0.10820E+07        -0.39200E+08         0.00000E+00
    0.00000E+00         0.00000E+00        -0.99361E+07
 
   -0.10073E+08         0.10787E+07         0.00000E+00
    0.10787E+07        -0.39560E+08         0.00000E+00
    0.00000E+00         0.00000E+00        -0.10026E+08
 
   -0.10179E+08         0.10742E+07         0.00000E+00
    0.10742E+07        -0.39918E+08         0.00000E+00
    0.00000E+00         0.00000E+00        -0.10113E+08
 
   -0.10284E+08         0.10681E+07         0.00000E+00
    0.10681E+07        -0.40274E+08         0.00000E+00
    0.00000E+00         0.00000E+00        -0.10198E+08
 
   -0.10389E+08         0.10603E+07         0.00000E+00
    0.10603E+07        -0.40631E+08         0.00000E+00
    0.00000E+00         0.00000E+00        -0.10281E+08
 
   -0.10494E+08         0.10503E+07         0.00000E+00
    0.10503E+07        -0.40988E+08         0.00000E+00
    0.00000E+00         0.00000E+00        -0.10362E+08
 
   -0.10597E+08         0.10385E+07         0.00000E+00
    0.10385E+07        -0.41348E+08         0.00000E+00
    0.00000E+00         0.00000E+00        -0.10440E+08
 
   -0.10700E+08         0.10254E+07         0.00000E+00
    0.10254E+07        -0.41702E+08         0.00000E+00
    0.00000E+00         0.00000E+00        -0.10529E+08
 
   -0.10801E+08         0.10101E+07         0.00000E+00
    0.10101E+07        -0.42035E+08         0.00000E+00
    0.00000E+00         0.00000E+00        -0.10643E+08
 
   -0.10901E+08         0.99619E+06         0.00000E+00
    0.99619E+06        -0.42362E+08         0.00000E+00
    0.00000E+00         0.00000E+00        -0.10765E+08
 
   -0.11002E+08         0.98421E+06         0.00000E+00
    0.98421E+06        -0.42691E+08         0.00000E+00
    0.00000E+00         0.00000E+00        -0.10886E+08
 
   -0.11103E+08         0.97408E+06         0.00000E+00
    0.97408E+06        -0.43021E+08         0.00000E+00
    0.00000E+00         0.00000E+00        -0.11006E+08
 
   -0.11205E+08         0.96548E+06         0.00000E+00
    0.96548E+06        -0.43351E+08         0.00000E+00
    0.00000E+00         0.00000E+00        -0.11124E+08
 
   -0.11308E+08         0.95809E+06         0.00000E+00
    0.95809E+06        -0.43681E+08         0.00000E+00
    0.00000E+00         0.00000E+00        -0.11241E+08
 
   -0.11412E+08         0.95160E+06         0.00000E+00
    0.95160E+06        -0.44010E+08         0.00000E+00
    0.00000E+00         0.00000E+00        -0.11356E+08
 
   -0.11516E+08         0.94581E+06         0.00000E+00
    0.94581E+06        -0.44338E+08         0.00000E+00
    0.00000E+00         0.00000E+00        -0.11471E+08
 
   -0.11621E+08         0.94056E+06         0.00000E+00
    0.94056E+06        -0.44664E+08         0.00000E+00
    0.00000E+00         0.00000E+00        -0.11584E+08
 
   -0.11726E+08         0.93572E+06         0.00000E+00
    0.93572E+06        -0.44989E+08         0.00000E+00
    0.00000E+00         0.00000E+00        -0.11697E+08
 
   -0.11836E+08         0.93092E+06         0.00000E+00
    0.93092E+06        -0.45308E+08         0.00000E+00
    0.00000E+00         0.00000E+00        -0.11814E+08
 
   -0.11963E+08         0.92550E+06         0.00000E+00
    0.92550E+06        -0.45610E+08         0.00000E+00
    0.00000E+00         0.00000E+00        -0.11947E+08
 
   -0.12098E+08         0.91997E+06         0.00000E+00
    0.91997E+06        -0.45905E+08         0.00000E+00
    0.00000E+00         0.00000E+00        -0.12086E+08
 
   -0.12232E+08         0.91465E+06         0.00000E+00
    0.91465E+06        -0.46199E+08         0.00000E+00
    0.00000E+00         0.00000E+00        -0.12225E+08
 
   -0.12366E+08         0.90950E+06         0.00000E+00
    0.90950E+06        -0.46492E+08         0.00000E+00
    0.00000E+00         0.00000E+00        -0.12362E+08
 
   -0.12500E+08         0.90450E+06         0.00000E+00
    0.90450E+06        -0.46785E+08         0.00000E+00
    0.00000E+00         0.00000E+00        -0.12500E+08
 
   -0.12634E+08         0.89962E+06         0.00000E+00
    0.89962E+06        -0.47077E+08         0.00000E+00
    0.00000E+00         0.00000E+00        -0.12637E+08
 
   -0.12768E+08         0.89484E+06         0.00000E+00
    0.89484E+06        -0.47369E+08         0.00000E+00
    0.00000E+00         0.00000E+00        -0.12773E+08
 
   -0.12902E+08         0.89013E+06         0.00000E+00
    0.89013E+06        -0.47660E+08         0.00000E+00
    0.00000E+00         0.00000E+00        -0.12909E+08
 
   -0.13036E+08         0.88548E+06         0.00000E+00
    0.88548E+06        -0.47952E+08         0.00000E+00
    0.00000E+00         0.00000E+00        -0.13045E+08
 
   -0.13171E+08         0.88086E+06         0.00000E+00
    0.88086E+06        -0.48243E+08         0.00000E+00
    0.00000E+00         0.00000E+00        -0.13181E+08
 
   -0.13306E+08         0.87625E+06         0.00000E+00
    0.87625E+06        -0.48535E+08         0.00000E+00
    0.00000E+00         0.00000E+00        -0.13317E+08
 
   -0.13441E+08         0.87164E+06         0.00000E+00
    0.87164E+06        -0.48827E+08         0.00000E+00
    0.00000E+00         0.00000E+00        -0.13452E+08
 
   -0.13576E+08         0.86701E+06         0.00000E+00
    0.86701E+06        -0.49119E+08         0.00000E+00
    0.00000E+00         0.00000E+00        -0.13588E+08
 
   -0.13712E+08         0.86233E+06         0.00000E+00
    0.86233E+06        -0.49412E+08         0.00000E+00
    0.00000E+00         0.00000E+00        -0.13723E+08
 
   -0.13849E+08         0.85758E+06         0.00000E+00
    0.85758E+06        -0.49705E+08         0.00000E+00
    0.00000E+00         0.00000E+00        -0.13859E+08
 
   -0.13986E+08         0.85274E+06         0.00000E+00
    0.85274E+06        -0.50000E+08         0.00000E+00
    0.00000E+00         0.00000E+00        -0.13995E+08
 
   -0.14124E+08         0.84779E+06         0.00000E+00
    0.84779E+06        -0.50295E+08         0.00000E+00
    0.00000E+00         0.00000E+00        -0.14131E+08
 
   -0.14263E+08         0.84270E+06         0.00000E+00
    0.84270E+06        -0.50591E+08         0.00000E+00
    0.00000E+00         0.00000E+00        -0.14267E+08
 
   -0.14403E+08         0.83744E+06         0.00000E+00
    0.83744E+06        -0.50888E+08         0.00000E+00
    0.00000E+00         0.00000E+00        -0.14403E+08
 
   -0.14543E+08         0.83199E+06         0.00000E+00
    0.83199E+06        -0.51187E+08         0.00000E+00
    0.00000E+00         0.00000E+00        -0.14539E+08
 
   -0.14685E+08         0.82630E+06         0.00000E+00
    0.82630E+06        -0.51487E+08         0.00000E+00
    0.00000E+00         0.00000E+00        -0.14676E+08
 
   -0.14828E+08         0.82034E+06         0.00000E+00
    0.82034E+06        -0.51789E+08         0.00000E+00
    0.00000E+00         0.00000E+00        -0.14813E+08
 
   -0.14972E+08         0.81406E+06         0.00000E+00
    0.81406E+06        -0.52092E+08         0.00000E+00
    0.00000E+00         0.00000E+00        -0.14950E+08
 
   -0.15117E+08         0.80742E+06         0.00000E+00
    0.80742E+06        -0.52397E+08         0.00000E+00
    0.00000E+00         0.00000E+00        -0.15087E+08
 
   -0.15264E+08         0.80034E+06         0.00000E+00
    0.80034E+06        -0.52703E+08         0.00000E+00
    0.00000E+00         0.00000E+00        -0.15224E+08
 
   -0.15413E+08         0.79275E+06         0.00000E+00
    0.79275E+06        -0.53012E+08         0.00000E+00
    0.00000E+00         0.00000E+00        -0.15362E+08
 
   -0.15564E+08         0.78455E+06         0.00000E+00
    0.78455E+06        -0.53323E+08         0.00000E+00
    0.00000E+00         0.00000E+00        -0.15499E+08
 
   -0.15716E+08         0.77565E+06         0.00000E+00
    0.77565E+06        -0.53636E+08         0.00000E+00
    0.00000E+00         0.00000E+00        -0.15637E+08
 
   -0.15871E+08         0.76590E+06         0.00000E+00
    0.76590E+06        -0.53952E+08         0.00000E+00
    0.00000E+00         0.00000E+00        -0.15775E+08
 
   -0.16029E+08         0.75514E+06         0.00000E+00
    0.75514E+06        -0.54270E+08         0.00000E+00
    0.00000E+00         0.00000E+00        -0.15912E+08
 
   -0.16189E+08         0.74318E+06         0.00000E+00
    0.74318E+06        -0.54591E+08         0.00000E+00
    0.00000E+00         0.00000E+00        -0.16049E+08
 
   -0.16351E+08         0.72979E+06         0.00000E+00
    0.72979E+06        -0.54914E+08         0.00000E+00
    0.00000E+00         0.00000E+00        -0.16187E+08
 
   -0.16517E+08         0.71468E+06         0.00000E+00
    0.71468E+06        -0.55241E+08         0.00000E+00
    0.00000E+00         0.00000E+00        -0.16323E+08
 
   -0.16687E+08         0.69755E+06         0.00000E+00
    0.69755E+06        -0.55571E+08         0.00000E+00
    0.00000E+00         0.00000E+00        -0.16459E+08
 
   -0.16860E+08         0.67801E+06         0.00000E+00
    0.67801E+06        -0.55905E+08         0.00000E+00
    0.00000E+00         0.00000E+00        -0.16595E+08
 
   -0.17038E+08         0.65566E+06         0.00000E+00
    0.65566E+06        -0.56242E+08         0.00000E+00
    0.00000E+00         0.00000E+00        -0.16730E+08
 
   -0.17219E+08         0.63004E+06         0.00000E+00
    0.63004E+06        -0.56583E+08         0.00000E+00
    0.00000E+00         0.00000E+00        -0.16864E+08
 
   -0.17406E+08         0.60066E+06         0.00000E+00
    0.60066E+06        -0.56929E+08         0.00000E+00
    0.00000E+00         0.00000E+00        -0.16997E+08
 
   -0.17598E+08         0.56703E+06         0.00000E+00
    0.56703E+06        -0.57278E+08         0.00000E+00
    0.00000E+00         0.00000E+00        -0.17128E+08
 
   -0.17795E+08         0.52869E+06         0.00000E+00
    0.52869E+06        -0.57630E+08         0.00000E+00
    0.00000E+00         0.00000E+00        -0.17258E+08
 
   -0.17997E+08         0.48525E+06         0.00000E+00
    0.48525E+06        -0.57987E+08         0.00000E+00
    0.00000E+00         0.00000E+00        -0.17386E+08
 
   -0.18205E+08         0.43646E+06         0.00000E+00
    0.43646E+06        -0.58345E+08         0.00000E+00
    0.00000E+00         0.00000E+00        -0.17510E+08
 
   -0.18419E+08         0.38231E+06         0.00000E+00
    0.38231E+06        -0.58706E+08         0.00000E+00
    0.00000E+00         0.00000E+00        -0.17631E+08
 
   -0.18639E+08         0.32320E+06         0.00000E+00
    0.32320E+06        -0.59067E+08         0.00000E+00
    0.00000E+00         0.00000E+00        -0.17747E+08
 
   -0.18866E+08         0.26013E+06         0.00000E+00
    0.26013E+06        -0.59427E+08         0.00000E+00
    0.00000E+00         0.00000E+00        -0.17855E+08
 
   -0.19098E+08         0.19511E+06         0.00000E+00
    0.19511E+06        -0.59782E+08         0.00000E+00
    0.00000E+00         0.00000E+00        -0.17955E+08
 
   -0.19338E+08         0.13158E+06         0.00000E+00
    0.13158E+06        -0.60131E+08         0.00000E+00
    0.00000E+00         0.00000E+00        -0.18043E+08
 
   -0.19586E+08         0.74700E+05         0.00000E+00
    0.74700E+05        -0.60469E+08         0.00000E+00
    0.00000E+00         0.00000E+00        -0.18114E+08
 
   -0.19843E+08         0.30595E+05         0.00000E+00
    0.30595E+05        -0.60790E+08         0.00000E+00
    0.00000E+00         0.00000E+00        -0.18163E+08
 
   -0.20115E+08         0.38375E+04         0.00000E+00
    0.38375E+04        -0.61090E+08         0.00000E+00
    0.00000E+00         0.00000E+00        -0.18181E+08
 
   -0.20405E+08        -0.55677E+04         0.00000E+00
   -0.55677E+04        -0.61363E+08         0.00000E+00
    0.00000E+00         0.00000E+00        -0.18158E+08
 
   -0.20723E+08        -0.31496E+04         0.00000E+00
   -0.31496E+04        -0.61604E+08         0.00000E+00
    0.00000E+00         0.00000E+00        -0.18087E+08
 
   -0.47715E+07        -0.28843E+05         0.00000E+00
   -0.28843E+05        -0.28146E+08         0.00000E+00
    0.00000E+00         0.00000E+00        -0.86701E+07
 
   -0.51349E+07        -0.65861E+05         0.00000E+00
   -0.65861E+05        -0.28298E+08         0.00000E+00
    0.00000E+00         0.00000E+00        -0.86701E+07
 
   -0.54618E+07        -0.56147E+05         0.00000E+00
   -0.56147E+05        -0.28562E+08         0.00000E+00
    0.00000E+00         0.00000E+00        -0.86701E+07
 
   -0.57670E+07        -0.76748E+03         0.00000E+00
   -0.76748E+03        -0.28892E+08         0.00000E+00
    0.00000E+00         0.00000E+00        -0.86701E+07
 
   -0.60564E+07         0.85664E+05         0.00000E+00
    0.85664E+05        -0.29257E+08         0.00000E+00
    0.00000E+00         0.00000E+00        -0.86701E+07
 
   -0.63305E+07         0.18814E+06         0.00000E+00
    0.18814E+06        -0.29642E+08         0.00000E+00
    0.00000E+00         0.00000E+00        -0.86701E+07
 
   -0.65879E+07         0.29602E+06         0.00000E+00
    0.29602E+06        -0.30040E+08         0.00000E+00
    0.00000E+00         0.00000E+00        -0.86701E+07
 
   -0.68281E+07         0.40310E+06         0.00000E+00
    0.40310E+06        -0.30448E+08         0.00000E+00
    0.00000E+00         0.00000E+00        -0.86701E+07
 
   -0.70515E+07         0.50595E+06         0.00000E+00
    0.50595E+06        -0.30865E+08         0.00000E+00
    0.00000E+00         0.00000E+00        -0.86701E+07
 
   -0.72596E+07         0.60232E+06         0.00000E+00
    0.60232E+06        -0.31287E+08         0.00000E+00
    0.00000E+00         0.00000E+00        -0.86701E+07
 
   -0.74539E+07         0.69049E+06         0.00000E+00
    0.69049E+06        -0.31713E+08         0.00000E+00
    0.00000E+00         0.00000E+00        -0.86701E+07
 
   -0.76360E+07         0.76908E+06         0.00000E+00
    0.76908E+06        -0.32141E+08         0.00000E+00
    0.00000E+00         0.00000E+00        -0.86701E+07
 
   -0.78074E+07         0.83688E+06         0.00000E+00
    0.83688E+06        -0.32570E+08         0.00000E+00
    0.00000E+00         0.00000E+00        -0.86701E+07
 
   -0.79695E+07         0.89278E+06         0.00000E+00
    0.89278E+06        -0.33000E+08         0.00000E+00
    0.00000E+00         0.00000E+00        -0.86701E+07
 
   -0.81241E+07         0.93576E+06         0.00000E+00
    0.93576E+06        -0.33430E+08         0.00000E+00
    0.00000E+00         0.00000E+00        -0.86701E+07
 
   -0.82733E+07         0.96542E+06         0.00000E+00
    0.96542E+06        -0.33859E+08         0.00000E+00
    0.00000E+00         0.00000E+00        -0.86701E+07
 
   -0.84184E+07         0.98148E+06         0.00000E+00
    0.98148E+06        -0.34290E+08         0.00000E+00
    0.00000E+00         0.00000E+00        -0.86701E+07
 
   -0.85565E+07         0.98226E+06         0.00000E+00
    0.98226E+06        -0.34701E+08         0.00000E+00
    0.00000E+00         0.00000E+00        -0.87026E+07
 
   -0.86869E+07         0.10000E+07         0.00000E+00
    0.10000E+07        -0.35083E+08         0.00000E+00
    0.00000E+00         0.00000E+00        -0.87897E+07
 
   -0.88107E+07         0.10109E+07         0.00000E+00
    0.10109E+07        -0.35458E+08         0.00000E+00
    0.00000E+00         0.00000E+00        -0.89020E+07
 
   -0.89318E+07         0.10184E+07         0.00000E+00
    0.10184E+07        -0.35838E+08         0.00000E+00
    0.00000E+00         0.00000E+00        -0.90132E+07
 
   -0.90513E+07         0.10237E+07         0.00000E+00
    0.10237E+07        -0.36220E+08         0.00000E+00
    0.00000E+00         0.00000E+00        -0.91228E+07
 
   -0.91695E+07         0.10277E+07         0.00000E+00
    0.10277E+07        -0.36602E+08         0.00000E+00
    0.00000E+00         0.00000E+00        -0.92306E+07
 
   -0.92864E+07         0.10308E+07         0.00000E+00
    0.10308E+07        -0.36982E+08         0.00000E+00
    0.00000E+00         0.00000E+00        -0.93364E+07
 
   -0.94021E+07         0.10330E+07         0.00000E+00
    0.10330E+07        -0.37359E+08         0.00000E+00
    0.00000E+00         0.00000E+00        -0.94402E+07
 
   -0.95164E+07         0.10344E+07         0.00000E+00
    0.10344E+07        -0.37734E+08         0.00000E+00
    0.00000E+00         0.00000E+00        -0.95417E+07
 
   -0.96291E+07         0.10349E+07         0.00000E+00
    0.10349E+07        -0.38105E+08         0.00000E+00
    0.00000E+00         0.00000E+00        -0.96409E+07
 
   -0.97402E+07         0.10347E+07         0.00000E+00
    0.10347E+07        -0.38472E+08         0.00000E+00
    0.00000E+00         0.00000E+00        -0.97378E+07
 
   -0.98497E+07         0.10336E+07         0.00000E+00
    0.10336E+07        -0.38837E+08         0.00000E+00
    0.00000E+00         0.00000E+00        -0.98324E+07
 
   -0.99579E+07         0.10316E+07         0.00000E+00
    0.10316E+07        -0.39199E+08         0.00000E+00
    0.00000E+00         0.00000E+00        -0.99247E+07
 
   -0.10065E+08         0.10286E+07         0.00000E+00
    0.10286E+07        -0.39559E+08         0.00000E+00
    0.00000E+00         0.00000E+00        -0.10015E+08
 
   -0.10171E+08         0.10245E+07         0.00000E+00
    0.10245E+07        -0.39917E+08         0.00000E+00
    0.00000E+00         0.00000E+00        -0.10102E+08
 
   -0.10277E+08         0.10189E+07         0.00000E+00
    0.10189E+07        -0.40273E+08         0.00000E+00
    0.00000E+00         0.00000E+00        -0.10188E+08
 
   -0.10382E+08         0.10114E+07         0.00000E+00
    0.10114E+07        -0.40629E+08         0.00000E+00
    0.00000E+00         0.00000E+00        -0.10271E+08
 
   -0.10487E+08         0.10018E+07         0.00000E+00
    0.10018E+07        -0.40986E+08         0.00000E+00
    0.00000E+00         0.00000E+00        -0.10352E+08
 
   -0.10591E+08         0.99024E+06         0.00000E+00
    0.99024E+06        -0.41346E+08         0.00000E+00
    0.00000E+00         0.00000E+00        -0.10432E+08
 
   -0.10694E+08         0.97724E+06         0.00000E+00
    0.97724E+06        -0.41699E+08         0.00000E+00
    0.00000E+00         0.00000E+00        -0.10521E+08
 
   -0.10795E+08         0.96222E+06         0.00000E+00
    0.96222E+06        -0.42032E+08         0.00000E+00
    0.00000E+00         0.00000E+00        -0.10635E+08
 
   -0.10896E+08         0.94869E+06         0.00000E+00
    0.94869E+06        -0.42359E+08         0.00000E+00
    0.00000E+00         0.00000E+00        -0.10758E+08
 
   -0.10997E+08         0.93718E+06         0.00000E+00
    0.93718E+06        -0.42689E+08         0.00000E+00
    0.00000E+00         0.00000E+00        -0.10880E+08
 
   -0.11099E+08         0.92757E+06         0.00000E+00
    0.92757E+06        -0.43019E+08         0.00000E+00
    0.00000E+00         0.00000E+00        -0.10999E+08
 
   -0.11201E+08         0.91951E+06         0.00000E+00
    0.91951E+06        -0.43350E+08         0.00000E+00
    0.00000E+00         0.00000E+00        -0.11118E+08
 
   -0.11305E+08         0.91262E+06         0.00000E+00
    0.91262E+06        -0.43680E+08         0.00000E+00
    0.00000E+00         0.00000E+00        -0.11235E+08
 
   -0.11408E+08         0.90659E+06         0.00000E+00
    0.90659E+06        -0.44009E+08         0.00000E+00
    0.00000E+00         0.00000E+00        -0.11351E+08
 
   -0.11513E+08         0.90120E+06         0.00000E+00
    0.90120E+06        -0.44337E+08         0.00000E+00
    0.00000E+00         0.00000E+00        -0.11466E+08
 
   -0.11618E+08         0.89630E+06         0.00000E+00
    0.89630E+06        -0.44663E+08         0.00000E+00
    0.00000E+00         0.00000E+00        -0.11580E+08
 
   -0.11723E+08         0.89177E+06         0.00000E+00
    0.89177E+06        -0.44988E+08         0.00000E+00
    0.00000E+00         0.00000E+00        -0.11692E+08
 
   -0.11834E+08         0.88725E+06         0.00000E+00
    0.88725E+06        -0.45307E+08         0.00000E+00
    0.00000E+00         0.00000E+00        -0.11810E+08
 
   -0.11961E+08         0.88213E+06         0.00000E+00
    0.88213E+06        -0.45609E+08         0.00000E+00
    0.00000E+00         0.00000E+00        -0.11944E+08
 
   -0.12095E+08         0.87690E+06         0.00000E+00
    0.87690E+06        -0.45904E+08         0.00000E+00
    0.00000E+00         0.00000E+00        -0.12083E+08
 
   -0.12229E+08         0.87186E+06         0.00000E+00
    0.87186E+06        -0.46198E+08         0.00000E+00
    0.00000E+00         0.00000E+00        -0.12222E+08
 
   -0.12363E+08         0.86697E+06         0.00000E+00
    0.86697E+06        -0.46492E+08         0.00000E+00
    0.00000E+00         0.00000E+00        -0.12360E+08
 
   -0.12498E+08         0.86222E+06         0.00000E+00
    0.86222E+06        -0.46784E+08         0.00000E+00
    0.00000E+00         0.00000E+00        -0.12497E+08
 
   -0.12632E+08         0.85758E+06         0.00000E+00
    0.85758E+06        -0.47077E+08         0.00000E+00
    0.00000E+00         0.00000E+00        -0.12634E+08
 
   -0.12766E+08         0.85302E+06         0.00000E+00
    0.85302E+06        -0.47369E+08         0.00000E+00
    0.00000E+00         0.00000E+00        -0.12771E+08
 
   -0.12900E+08         0.84854E+06         0.00000E+00
    0.84854E+06        -0.47660E+08         0.00000E+00
    0.00000E+00         0.00000E+00        -0.12907E+08
 
   -0.13034E+08         0.84410E+06         0.00000E+00
    0.84410E+06        -0.47952E+08         0.00000E+00
    0.00000E+00         0.00000E+00        -0.13043E+08
 
   -0.13169E+08         0.83969E+06         0.00000E+00
    0.83969E+06        -0.48243E+08         0.00000E+00
    0.00000E+00         0.00000E+00        -0.13179E+08
 
   -0.13304E+08         0.83530E+06         0.00000E+00
    0.83530E+06        -0.48535E+08         0.00000E+00
    0.00000E+00         0.00000E+00        -0.13315E+08
 
   -0.13439E+08         0.83089E+06         0.00000E+00
    0.83089E+06        -0.48827E+08         0.00000E+00
    0.00000E+00         0.00000E+00        -0.13451E+08
 
   -0.13574E+08         0.82646E+06         0.00000E+00
    0.82646E+06        -0.49119E+08         0.00000E+00
    0.00000E+00         0.00000E+00        -0.13586E+08
 
   -0.13710E+08         0.82199E+06         0.00000E+00
    0.82199E+06        -0.49412E+08         0.00000E+00
    0.00000E+00         0.00000E+00        -0.13722E+08
 
   -0.13847E+08         0.81745E+06         0.00000E+00
    0.81745E+06        -0.49706E+08         0.00000E+00
    0.00000E+00         0.00000E+00        -0.13858E+08
 
   -0.13984E+08         0.81282E+06         0.00000E+00
    0.81282E+06        -0.50000E+08         0.00000E+00
    0.00000E+00         0.00000E+00        -0.13993E+08
 
   -0.14122E+08         0.80809E+06         0.00000E+00
    0.80809E+06        -0.50295E+08         0.00000E+00
    0.00000E+00         0.00000E+00        -0.14129E+08
 
   -0.14261E+08         0.80322E+06         0.00000E+00
    0.80322E+06        -0.50592E+08         0.00000E+00
    0.00000E+00         0.00000E+00        -0.14265E+08
 
   -0.14401E+08         0.79819E+06         0.00000E+00
    0.79819E+06        -0.50889E+08         0.00000E+00
    0.00000E+00         0.00000E+00        -0.14402E+08
 
   -0.14542E+08         0.79297E+06         0.00000E+00
    0.79297E+06        -0.51188E+08         0.00000E+00
    0.00000E+00         0.00000E+00        -0.14538E+08
 
   -0.14683E+08         0.78753E+06         0.00000E+00
    0.78753E+06        -0.51488E+08         0.00000E+00
    0.00000E+00         0.00000E+00        -0.14675E+08
 
   -0.14826E+08         0.78183E+06         0.00000E+00
    0.78183E+06        -0.51790E+08         0.00000E+00
    0.00000E+00         0.00000E+00        -0.14811E+08
 
   -0.14971E+08         0.77583E+06         0.00000E+00
    0.77583E+06        -0.52093E+08         0.00000E+00
    0.00000E+00         0.00000E+00        -0.14948E+08
 
   -0.15116E+08         0.76948E+06         0.00000E+00
    0.76948E+06        -0.52398E+08         0.00000E+00
    0.00000E+00         0.00000E+00        -0.15085E+08
 
   -0.15264E+08         0.76271E+06         0.00000E+00
    0.76271E+06        -0.52704E+08         0.00000E+00
    0.00000E+00         0.00000E+00        -0.15223E+08
 
   -0.15413E+08         0.75547E+06         0.00000E+00
    0.75547E+06        -0.53013E+08         0.00000E+00
    0.00000E+00         0.00000E+00        -0.15360E+08
 
   -0.15563E+08         0.74765E+06         0.00000E+00
    0.74765E+06        -0.53324E+08         0.00000E+00
    0.00000E+00         0.00000E+00        -0.15498E+08
 
   -0.15716E+08         0.73915E+06         0.00000E+00
    0.73915E+06        -0.53637E+08         0.00000E+00
    0.00000E+00         0.00000E+00        -0.15635E+08
 
   -0.15871E+08         0.72985E+06         0.00000E+00
    0.72985E+06        -0.53952E+08         0.00000E+00
    0.00000E+00         0.00000E+00        -0.15772E+08
 
   -0.16029E+08         0.71958E+06         0.00000E+00
    0.71958E+06        -0.54270E+08         0.00000E+00
    0.00000E+00         0.00000E+00        -0.15910E+08
 
   -0.16189E+08         0.70816E+06         0.00000E+00
    0.70816E+06        -0.54591E+08         0.00000E+00
    0.00000E+00         0.00000E+00        -0.16047E+08
 
   -0.16352E+08         0.69537E+06         0.00000E+00
    0.69537E+06        -0.54914E+08         0.00000E+00
    0.00000E+00         0.00000E+00        -0.16183E+08
 
   -0.16518E+08         0.68092E+06         0.00000E+00
    0.68092E+06        -0.55240E+08         0.00000E+00
    0.00000E+00         0.00000E+00        -0.16319E+08
 
   -0.16688E+08         0.66451E+06         0.00000E+00
    0.66451E+06        -0.55570E+08         0.00000E+00
    0.00000E+00         0.00000E+00        -0.16455E+08
 
   -0.16861E+08         0.64577E+06         0.00000E+00
    0.64577E+06        -0.55903E+08         0.00000E+00
    0.00000E+00         0.00000E+00        -0.16590E+08
 
   -0.17039E+08         0.62429E+06         0.00000E+00
    0.62429E+06        -0.56239E+08         0.00000E+00
    0.00000E+00         0.00000E+00        -0.16724E+08
 
   -0.17222E+08         0.59961E+06         0.00000E+00
    0.59961E+06        -0.56580E+08         0.00000E+00
    0.00000E+00         0.00000E+00        -0.16856E+08
 
   -0.17409E+08         0.57125E+06         0.00000E+00
    0.57125E+06        -0.56924E+08         0.00000E+00
    0.00000E+00         0.00000E+00        -0.16988E+08
 
   -0.17602E+08         0.53872E+06         0.00000E+00
    0.53872E+06        -0.57272E+08         0.00000E+00
    0.00000E+00         0.00000E+00        -0.17118E+08
 
   -0.17800E+08         0.50155E+06         0.00000E+00
    0.50155E+06        -0.57623E+08         0.00000E+00
    0.00000E+00         0.00000E+00        -0.17245E+08
 
   -0.18004E+08         0.45934E+06         0.00000E+00
    0.45934E+06        -0.57978E+08         0.00000E+00
    0.00000E+00         0.00000E+00        -0.17371E+08
 
   -0.18214E+08         0.41186E+06         0.00000E+00
    0.41186E+06        -0.58336E+08         0.00000E+00
    0.00000E+00         0.00000E+00        -0.17493E+08
 
   -0.18430E+08         0.35910E+06         0.00000E+00
    0.35910E+06        -0.58696E+08         0.00000E+00
    0.00000E+00         0.00000E+00        -0.17610E+08
 
   -0.18653E+08         0.30146E+06         0.00000E+00
    0.30146E+06        -0.59056E+08         0.00000E+00
    0.00000E+00         0.00000E+00        -0.17723E+08
 
   -0.18883E+08         0.23997E+06         0.00000E+00
    0.23997E+06        -0.59415E+08         0.00000E+00
    0.00000E+00         0.00000E+00        -0.17828E+08
 
   -0.19120E+08         0.17662E+06         0.00000E+00
    0.17662E+06        -0.59771E+08         0.00000E+00
    0.00000E+00         0.00000E+00        -0.17924E+08
 
   -0.19364E+08         0.11482E+06         0.00000E+00
    0.11482E+06        -0.60120E+08         0.00000E+00
    0.00000E+00         0.00000E+00        -0.18008E+08
 
   -0.19617E+08         0.59749E+05         0.00000E+00
    0.59749E+05        -0.60460E+08         0.00000E+00
    0.00000E+00         0.00000E+00        -0.18078E+08
 
   -0.19879E+08         0.17727E+05         0.00000E+00
    0.17727E+05        -0.60786E+08         0.00000E+00
    0.00000E+00         0.00000E+00        -0.18126E+08
 
   -0.20153E+08        -0.63122E+04         0.00000E+00
   -0.63122E+04        -0.61090E+08         0.00000E+00
    0.00000E+00         0.00000E+00        -0.18146E+08
 
   -0.20445E+08        -0.12136E+05         0.00000E+00
   -0.12136E+05        -0.61366E+08         0.00000E+00
    0.00000E+00         0.00000E+00        -0.18125E+08
 
   -0.20763E+08        -0.54282E+04         0.00000E+00
   -0.54282E+04        -0.61609E+08         0.00000E+00
    0.00000E+00         0.00000E+00        -0.18055E+08
 
   -0.46601E+07        -0.34429E+05         0.00000E+00
   -0.34429E+05        -0.28134E+08         0.00000E+00
    0.00000E+00         0.00000E+00        -0.86701E+07
 
   -0.50256E+07        -0.80406E+05         0.00000E+00
   -0.80406E+05        -0.28294E+08         0.00000E+00
    0.00000E+00         0.00000E+00        -0.86701E+07
 
   -0.53578E+07        -0.75703E+05         0.00000E+00
   -0.75703E+05        -0.28569E+08         0.00000E+00
    0.00000E+00         0.00000E+00        -0.86701E+07
 
   -0.56711E+07        -0.23287E+05         0.00000E+00
   -0.23287E+05        -0.28907E+08         0.00000E+00
    0.00000E+00         0.00000E+00        -0.86701E+07
 
   -0.59701E+07         0.60483E+05         0.00000E+00
    0.60483E+05        -0.29276E+08         0.00000E+00
    0.00000E+00         0.00000E+00        -0.86701E+07
 
   -0.62540E+07         0.15998E+06         0.00000E+00
    0.15998E+06        -0.29663E+08         0.00000E+00
    0.00000E+00         0.00000E+00        -0.86701E+07
 
   -0.65208E+07         0.26455E+06         0.00000E+00
    0.26455E+06        -0.30061E+08         0.00000E+00
    0.00000E+00         0.00000E+00        -0.86701E+07
 
   -0.67695E+07         0.36834E+06         0.00000E+00
    0.36834E+06        -0.30469E+08         0.00000E+00
    0.00000E+00         0.00000E+00        -0.86701E+07
 
   -0.70005E+07         0.46816E+06         0.00000E+00
    0.46816E+06        -0.30885E+08         0.00000E+00
    0.00000E+00         0.00000E+00        -0.86701E+07
 
   -0.72152E+07         0.56185E+06         0.00000E+00
    0.56185E+06        -0.31305E+08         0.00000E+00
    0.00000E+00         0.00000E+00        -0.86701E+07
 
   -0.74154E+07         0.64768E+06         0.00000E+00
    0.64768E+06        -0.31729E+08         0.00000E+00
    0.00000E+00         0.00000E+00        -0.86701E+07
 
   -0.76026E+07         0.72426E+06         0.00000E+00
    0.72426E+06        -0.32155E+08         0.00000E+00
    0.00000E+00         0.00000E+00        -0.86701E+07
 
   -0.77784E+07         0.79037E+06         0.00000E+00
    0.79037E+06        -0.32582E+08         0.00000E+00
    0.00000E+00         0.00000E+00        -0.86701E+07
 
   -0.79442E+07         0.84493E+06         0.00000E+00
    0.84493E+06        -0.33010E+08         0.00000E+00
    0.00000E+00         0.00000E+00        -0.86701E+07
 
   -0.81020E+07         0.88697E+06         0.00000E+00
    0.88697E+06        -0.33437E+08         0.00000E+00
    0.00000E+00         0.00000E+00        -0.86701E+07
 
   -0.82538E+07         0.91617E+06         0.00000E+00
    0.91617E+06        -0.33864E+08         0.00000E+00
    0.00000E+00         0.00000E+00        -0.86701E+07
 
   -0.84011E+07         0.93185E+06         0.00000E+00
    0.93185E+06        -0.34291E+08         0.00000E+00
    0.00000E+00         0.00000E+00        -0.86701E+07
 
   -0.85417E+07         0.93139E+06         0.00000E+00
    0.93139E+06        -0.34703E+08         0.00000E+00
    0.00000E+00         0.00000E+00        -0.86983E+07
 
   -0.86742E+07         0.94779E+06         0.00000E+00
    0.94779E+06        -0.35086E+08         0.00000E+00
    0.00000E+00         0.00000E+00        -0.87798E+07
 
   -0.87991E+07         0.95832E+06         0.00000E+00
    0.95832E+06        -0.35459E+08         0.00000E+00
    0.00000E+00         0.00000E+00        -0.88912E+07
 
   -0.89211E+07         0.96597E+06         0.00000E+00
    0.96597E+06        -0.35839E+08         0.00000E+00
    0.00000E+00         0.00000E+00        -0.90016E+07
 
   -0.90413E+07         0.97152E+06         0.00000E+00
    0.97152E+06        -0.36221E+08         0.00000E+00
    0.00000E+00         0.00000E+00        -0.91107E+07
 
   -0.91599E+07         0.97575E+06         0.00000E+00
    0.97575E+06        -0.36603E+08         0.00000E+00
    0.00000E+00         0.00000E+00        -0.92182E+07
 
   -0.92772E+07         0.97911E+06         0.00000E+00
    0.97911E+06        -0.36983E+08         0.00000E+00
    0.00000E+00         0.00000E+00        -0.93239E+07
 
   -0.93932E+07         0.98159E+06         0.00000E+00
    0.98159E+06        -0.37360E+08         0.00000E+00
    0.00000E+00         0.00000E+00        -0.94276E+07
 
   -0.95078E+07         0.98320E+06         0.00000E+00
    0.98320E+06        -0.37734E+08         0.00000E+00
    0.00000E+00         0.00000E+00        -0.95292E+07
 
   -0.96208E+07         0.98396E+06         0.00000E+00
    0.98396E+06        -0.38105E+08         0.00000E+00
    0.00000E+00         0.00000E+00        -0.96287E+07
 
   -0.97321E+07         0.98389E+06         0.00000E+00
    0.98389E+06        -0.38472E+08         0.00000E+00
    0.00000E+00         0.00000E+00        -0.97259E+07
 
   -0.98419E+07         0.98302E+06         0.00000E+00
    0.98302E+06        -0.38837E+08         0.00000E+00
    0.00000E+00         0.00000E+00        -0.98208E+07
 
   -0.99503E+07         0.98131E+06         0.00000E+00
    0.98131E+06        -0.39199E+08         0.00000E+00
    0.00000E+00         0.00000E+00        -0.99134E+07
 
   -0.10058E+08         0.97866E+06         0.00000E+00
    0.97866E+06        -0.39558E+08         0.00000E+00
    0.00000E+00         0.00000E+00        -0.10004E+08
 
   -0.10164E+08         0.97489E+06         0.00000E+00
    0.97489E+06        -0.39916E+08         0.00000E+00
    0.00000E+00         0.00000E+00        -0.10092E+08
 
   -0.10270E+08         0.96968E+06         0.00000E+00
    0.96968E+06        -0.40272E+08         0.00000E+00
    0.00000E+00         0.00000E+00        -0.10178E+08
 
   -0.10376E+08         0.96264E+06         0.00000E+00
    0.96264E+06        -0.40627E+08         0.00000E+00
    0.00000E+00         0.00000E+00        -0.10262E+08
 
   -0.10481E+08         0.95341E+06         0.00000E+00
    0.95341E+06        -0.40984E+08         0.00000E+00
    0.00000E+00         0.00000E+00        -0.10343E+08
 
   -0.10585E+08         0.94202E+06         0.00000E+00
    0.94202E+06        -0.41343E+08         0.00000E+00
    0.00000E+00         0.00000E+00        -0.10423E+08
 
   -0.10688E+08         0.92913E+06         0.00000E+00
    0.92913E+06        -0.41696E+08         0.00000E+00
    0.00000E+00         0.00000E+00        -0.10514E+08
 
   -0.10790E+08         0.91440E+06         0.00000E+00
    0.91440E+06        -0.42029E+08         0.00000E+00
    0.00000E+00         0.00000E+00        -0.10628E+08
 
   -0.10891E+08         0.90124E+06         0.00000E+00
    0.90124E+06        -0.42357E+08         0.00000E+00
    0.00000E+00         0.00000E+00        -0.10751E+08
 
   -0.10992E+08         0.89020E+06         0.00000E+00
    0.89020E+06        -0.42687E+08         0.00000E+00
    0.00000E+00         0.00000E+00        -0.10873E+08
 
   -0.11094E+08         0.88113E+06         0.00000E+00
    0.88113E+06        -0.43018E+08         0.00000E+00
    0.00000E+00         0.00000E+00        -0.10993E+08
 
   -0.11197E+08         0.87361E+06         0.00000E+00
    0.87361E+06        -0.43348E+08         0.00000E+00
    0.00000E+00         0.00000E+00        -0.11112E+08
 
   -0.11301E+08         0.86721E+06         0.00000E+00
    0.86721E+06        -0.43679E+08         0.00000E+00
    0.00000E+00         0.00000E+00        -0.11230E+08
 
   -0.11405E+08         0.86163E+06         0.00000E+00
    0.86163E+06        -0.44008E+08         0.00000E+00
    0.00000E+00         0.00000E+00        -0.11346E+08
 
   -0.11510E+08         0.85664E+06         0.00000E+00
    0.85664E+06        -0.44336E+08         0.00000E+00
    0.00000E+00         0.00000E+00        -0.11461E+08
 
   -0.11615E+08         0.85209E+06         0.00000E+00
    0.85209E+06        -0.44662E+08         0.00000E+00
    0.00000E+00         0.00000E+00        -0.11575E+08
 
   -0.11720E+08         0.84787E+06         0.00000E+00
    0.84787E+06        -0.44987E+08         0.00000E+00
    0.00000E+00         0.00000E+00        -0.11688E+08
 
   -0.11831E+08         0.84362E+06         0.00000E+00
    0.84362E+06        -0.45306E+08         0.00000E+00
    0.00000E+00         0.00000E+00        -0.11807E+08
 
   -0.11959E+08         0.83880E+06         0.00000E+00
    0.83880E+06        -0.45608E+08         0.00000E+00
    0.00000E+00         0.00000E+00        -0.11941E+08
 
   -0.12093E+08         0.83387E+06         0.00000E+00
    0.83387E+06        -0.45903E+08         0.00000E+00
    0.00000E+00         0.00000E+00        -0.12080E+08
 
   -0.12227E+08         0.82910E+06         0.00000E+00
    0.82910E+06        -0.46197E+08         0.00000E+00
    0.00000E+00         0.00000E+00        -0.12219E+08
 
   -0.12361E+08         0.82448E+06         0.00000E+00
    0.82448E+06        -0.46491E+08         0.00000E+00
    0.00000E+00         0.00000E+00        -0.12357E+08
 
   -0.12496E+08         0.81997E+06         0.00000E+00
    0.81997E+06        -0.46784E+08         0.00000E+00
    0.00000E+00         0.00000E+00        -0.12495E+08
 
   -0.12630E+08         0.81556E+06         0.00000E+00
    0.81556E+06        -0.47076E+08         0.00000E+00
    0.00000E+00         0.00000E+00        -0.12632E+08
 
   -0.12764E+08         0.81124E+06         0.00000E+00
    0.81124E+06        -0.47368E+08         0.00000E+00
    0.00000E+00         0.00000E+00        -0.12769E+08
 
   -0.12898E+08         0.80697E+06         0.00000E+00
    0.80697E+06        -0.47660E+08         0.00000E+00
    0.00000E+00         0.00000E+00        -0.12905E+08
 
   -0.13032E+08         0.80275E+06         0.00000E+00
    0.80275E+06        -0.47952E+08         0.00000E+00
    0.00000E+00         0.00000E+00        -0.13042E+08
 
   -0.13167E+08         0.79855E+06         0.00000E+00
    0.79855E+06        -0.48243E+08         0.00000E+00
    0.00000E+00         0.00000E+00        -0.13178E+08
 
   -0.13302E+08         0.79436E+06         0.00000E+00
    0.79436E+06        -0.48535E+08         0.00000E+00
    0.00000E+00         0.00000E+00        -0.13313E+08
 
   -0.13437E+08         0.79017E+06         0.00000E+00
    0.79017E+06        -0.48827E+08         0.00000E+00
    0.00000E+00         0.00000E+00        -0.13449E+08
 
   -0.13573E+08         0.78595E+06         0.00000E+00
    0.78595E+06        -0.49120E+08         0.00000E+00
    0.00000E+00         0.00000E+00        -0.13585E+08
 
   -0.13709E+08         0.78168E+06         0.00000E+00
    0.78168E+06        -0.49413E+08         0.00000E+00
    0.00000E+00         0.00000E+00        -0.13721E+08
 
   -0.13845E+08         0.77735E+06         0.00000E+00
    0.77735E+06        -0.49706E+08         0.00000E+00
    0.00000E+00         0.00000E+00        -0.13856E+08
 
   -0.13983E+08         0.77293E+06         0.00000E+00
    0.77293E+06        -0.50001E+08         0.00000E+00
    0.00000E+00         0.00000E+00        -0.13992E+08
 
   -0.14121E+08         0.76841E+06         0.00000E+00
    0.76841E+06        -0.50296E+08         0.00000E+00
    0.00000E+00         0.00000E+00        -0.14128E+08
 
   -0.14260E+08         0.76376E+06         0.00000E+00
    0.76376E+06        -0.50593E+08         0.00000E+00
    0.00000E+00         0.00000E+00        -0.14264E+08
 
   -0.14400E+08         0.75896E+06         0.00000E+00
    0.75896E+06        -0.50890E+08         0.00000E+00
    0.00000E+00         0.00000E+00        -0.14401E+08
 
   -0.14540E+08         0.75398E+06         0.00000E+00
    0.75398E+06        -0.51189E+08         0.00000E+00
    0.00000E+00         0.00000E+00        -0.14537E+08
 
   -0.14682E+08         0.74878E+06         0.00000E+00
    0.74878E+06        -0.51489E+08         0.00000E+00
    0.00000E+00         0.00000E+00        -0.14674E+08
 
   -0.14825E+08         0.74335E+06         0.00000E+00
    0.74335E+06        -0.51790E+08         0.00000E+00
    0.00000E+00         0.00000E+00        -0.14810E+08
 
   -0.14970E+08         0.73762E+06         0.00000E+00
    0.73762E+06        -0.52094E+08         0.00000E+00
    0.00000E+00         0.00000E+00        -0.14947E+08
 
   -0.15115E+08         0.73157E+06         0.00000E+00
    0.73157E+06        -0.52399E+08         0.00000E+00
    0.00000E+00         0.00000E+00        -0.15084E+08
 
   -0.15263E+08         0.72512E+06         0.00000E+00
    0.72512E+06        -0.52705E+08         0.00000E+00
    0.00000E+00         0.00000E+00        -0.15221E+08
 
   -0.15412E+08         0.71822E+06         0.00000E+00
    0.71822E+06        -0.53014E+08         0.00000E+00
    0.00000E+00         0.00000E+00        -0.15359E+08
 
   -0.15563E+08         0.71077E+06         0.00000E+00
    0.71077E+06        -0.53325E+08         0.00000E+00
    0.00000E+00         0.00000E+00        -0.15496E+08
 
   -0.15716E+08         0.70268E+06         0.00000E+00
    0.70268E+06        -0.53637E+08         0.00000E+00
    0.00000E+00         0.00000E+00        -0.15633E+08
 
   -0.15871E+08         0.69382E+06         0.00000E+00
    0.69382E+06        -0.53953E+08         0.00000E+00
    0.00000E+00         0.00000E+00        -0.15770E+08
 
   -0.16029E+08         0.68405E+06         0.00000E+00
    0.68405E+06        -0.54270E+08         0.00000E+00
    0.00000E+00         0.00000E+00        -0.15907E+08
 
   -0.16189E+08         0.67318E+06         0.00000E+00
    0.67318E+06        -0.54591E+08         0.00000E+00
    0.00000E+00         0.00000E+00        -0.16044E+08
 
   -0.16352E+08         0.66098E+06         0.00000E+00
    0.66098E+06        -0.54914E+08         0.00000E+00
    0.00000E+00         0.00000E+00        -0.16180E+08
 
   -0.16519E+08         0.64720E+06         0.00000E+00
    0.64720E+06        -0.55239E+08         0.00000E+00
    0.00000E+00         0.00000E+00        -0.16316E+08
 
   -0.16689E+08         0.63152E+06         0.00000E+00
    0.63152E+06        -0.55569E+08         0.00000E+00
    0.00000E+00         0.00000E+00        -0.16451E+08
 
   -0.16863E+08         0.61359E+06         0.00000E+00
    0.61359E+06        -0.55901E+08         0.00000E+00
    0.00000E+00         0.00000E+00        -0.16585E+08
 
   -0.17041E+08         0.59299E+06         0.00000E+00
    0.59299E+06        -0.56237E+08         0.00000E+00
    0.00000E+00         0.00000E+00        -0.16718E+08
 
   -0.17224E+08         0.56928E+06         0.00000E+00
    0.56928E+06        -0.56576E+08         0.00000E+00
    0.00000E+00         0.00000E+00        -0.16849E+08
 
   -0.17412E+08         0.54198E+06         0.00000E+00
    0.54198E+06        -0.56919E+08         0.00000E+00
    0.00000E+00         0.00000E+00        -0.16979E+08
 
   -0.17606E+08         0.51059E+06         0.00000E+00
    0.51059E+06        -0.57266E+08         0.00000E+00
    0.00000E+00         0.00000E+00        -0.17107E+08
 
   -0.17805E+08         0.47464E+06         0.00000E+00
    0.47464E+06        -0.57617E+08         0.00000E+00
    0.00000E+00         0.00000E+00        -0.17233E+08
 
   -0.18010E+08         0.43375E+06         0.00000E+00
    0.43375E+06        -0.57971E+08         0.00000E+00
    0.00000E+00         0.00000E+00        -0.17356E+08
 
   -0.18222E+08         0.38767E+06         0.00000E+00
    0.38767E+06        -0.58327E+08         0.00000E+00
    0.00000E+00         0.00000E+00        -0.17475E+08
 
   -0.18441E+08         0.33641E+06         0.00000E+00
    0.33641E+06        -0.58686E+08         0.00000E+00
    0.00000E+00         0.00000E+00        -0.17590E+08
 
   -0.18667E+08         0.28039E+06         0.00000E+00
    0.28039E+06        -0.59045E+08         0.00000E+00
    0.00000E+00         0.00000E+00        -0.17699E+08
 
   -0.18900E+08         0.22062E+06         0.00000E+00
    0.22062E+06        -0.59404E+08         0.00000E+00
    0.00000E+00         0.00000E+00        -0.17801E+08
 
   -0.19141E+08         0.15908E+06         0.00000E+00
    0.15908E+06        -0.59759E+08         0.00000E+00
    0.00000E+00         0.00000E+00        -0.17893E+08
 
   -0.19391E+08         0.99100E+05         0.00000E+00
    0.99100E+05        -0.60110E+08         0.00000E+00
    0.00000E+00         0.00000E+00        -0.17974E+08
 
   -0.19648E+08         0.45797E+05         0.00000E+00
    0.45797E+05        -0.60453E+08         0.00000E+00
    0.00000E+00         0.00000E+00        -0.18041E+08
 
   -0.19914E+08         0.56464E+04         0.00000E+00
    0.56464E+04        -0.60782E+08         0.00000E+00
    0.00000E+00         0.00000E+00        -0.18090E+08
 
   -0.20192E+08        -0.15983E+05         0.00000E+00
   -0.15983E+05        -0.61090E+08         0.00000E+00
    0.00000E+00         0.00000E+00        -0.18111E+08
 
   -0.20486E+08        -0.18492E+05         0.00000E+00
   -0.18492E+05        -0.61370E+08         0.00000E+00
    0.00000E+00         0.00000E+00        -0.18093E+08
 
   -0.20804E+08        -0.76536E+04         0.00000E+00
   -0.76536E+04        -0.61615E+08         0.00000E+00
    0.00000E+00         0.00000E+00        -0.18025E+08
 
   -0.45461E+07        -0.39847E+05         0.00000E+00
   -0.39847E+05        -0.28120E+08         0.00000E+00
    0.00000E+00         0.00000E+00        -0.86701E+07
 
   -0.49143E+07        -0.94230E+05         0.00000E+00
   -0.94230E+05        -0.28289E+08         0.00000E+00
    0.00000E+00         0.00000E+00        -0.86701E+07
 
   -0.52528E+07        -0.93796E+05         0.00000E+00
   -0.93796E+05        -0.28575E+08         0.00000E+00
    0.00000E+00         0.00000E+00        -0.86701E+07
 
   -0.55751E+07        -0.43904E+05         0.00000E+00
   -0.43904E+05        -0.28921E+08         0.00000E+00
    0.00000E+00         0.00000E+00        -0.86701E+07
 
   -0.58843E+07         0.37335E+05         0.00000E+00
    0.37335E+05        -0.29295E+08         0.00000E+00
    0.00000E+00         0.00000E+00        -0.86701E+07
 
   -0.61784E+07         0.13378E+06         0.00000E+00
    0.13378E+06        -0.29683E+08         0.00000E+00
    0.00000E+00         0.00000E+00        -0.86701E+07
 
   -0.64547E+07         0.23489E+06         0.00000E+00
    0.23489E+06        -0.30082E+08         0.00000E+00
    0.00000E+00         0.00000E+00        -0.86701E+07
 
   -0.67119E+07         0.33520E+06         0.00000E+00
    0.33520E+06        -0.30489E+08         0.00000E+00
    0.00000E+00         0.00000E+00        -0.86701E+07
 
   -0.69504E+07         0.43180E+06         0.00000E+00
    0.43180E+06        -0.30904E+08         0.00000E+00
    0.00000E+00         0.00000E+00        -0.86701E+07
 
   -0.71718E+07         0.52263E+06         0.00000E+00
    0.52263E+06        -0.31323E+08         0.00000E+00
    0.00000E+00         0.00000E+00        -0.86701E+07
 
   -0.73779E+07         0.60596E+06         0.00000E+00
    0.60596E+06        -0.31745E+08         0.00000E+00
    0.00000E+00         0.00000E+00        -0.86701E+07
 
   -0.75700E+07         0.68037E+06         0.00000E+00
    0.68037E+06        -0.32169E+08         0.00000E+00
    0.00000E+00         0.00000E+00        -0.86701E+07
 
   -0.77500E+07         0.74466E+06         0.00000E+00
    0.74466E+06        -0.32594E+08         0.00000E+00
    0.00000E+00         0.00000E+00        -0.86701E+07
 
   -0.79195E+07         0.79775E+06         0.00000E+00
    0.79775E+06        -0.33019E+08         0.00000E+00
    0.00000E+00         0.00000E+00        -0.86701E+07
 
   -0.80803E+07         0.83875E+06         0.00000E+00
    0.83875E+06        -0.33444E+08         0.00000E+00
    0.00000E+00         0.00000E+00        -0.86701E+07
 
   -0.82345E+07         0.86735E+06         0.00000E+00
    0.86735E+06        -0.33868E+08         0.00000E+00
    0.00000E+00         0.00000E+00        -0.86701E+07
 
   -0.83838E+07         0.88265E+06         0.00000E+00
    0.88265E+06        -0.34293E+08         0.00000E+00
    0.00000E+00         0.00000E+00        -0.86701E+07
 
   -0.85269E+07         0.88110E+06         0.00000E+00
    0.88110E+06        -0.34704E+08         0.00000E+00
    0.00000E+00         0.00000E+00        -0.86939E+07
 
   -0.86614E+07         0.89583E+06         0.00000E+00
    0.89583E+06        -0.35089E+08         0.00000E+00
    0.00000E+00         0.00000E+00        -0.87699E+07
 
   -0.87876E+07         0.90593E+06         0.00000E+00
    0.90593E+06        -0.35461E+08         0.00000E+00
    0.00000E+00         0.00000E+00        -0.88802E+07
 
   -0.89106E+07         0.91374E+06         0.00000E+00
    0.91374E+06        -0.35841E+08         0.00000E+00
    0.00000E+00         0.00000E+00        -0.89899E+07
 
   -0.90315E+07         0.91941E+06         0.00000E+00
    0.91941E+06        -0.36222E+08         0.00000E+00
    0.00000E+00         0.00000E+00        -0.90986E+07
 
   -0.91505E+07         0.92388E+06         0.00000E+00
    0.92388E+06        -0.36604E+08         0.00000E+00
    0.00000E+00         0.00000E+00        -0.92058E+07
 
   -0.92683E+07         0.92751E+06         0.00000E+00
    0.92751E+06        -0.36983E+08         0.00000E+00
    0.00000E+00         0.00000E+00        -0.93114E+07
 
   -0.93847E+07         0.93025E+06         0.00000E+00
    0.93025E+06        -0.37360E+08         0.00000E+00
    0.00000E+00         0.00000E+00        -0.94152E+07
 
   -0.94996E+07         0.93207E+06         0.00000E+00
    0.93207E+06        -0.37734E+08         0.00000E+00
    0.00000E+00         0.00000E+00        -0.95170E+07
 
   -0.96129E+07         0.93302E+06         0.00000E+00
    0.93302E+06        -0.38105E+08         0.00000E+00
    0.00000E+00         0.00000E+00        -0.96166E+07
 
   -0.97245E+07         0.93316E+06         0.00000E+00
    0.93316E+06        -0.38472E+08         0.00000E+00
    0.00000E+00         0.00000E+00        -0.97141E+07
 
   -0.98345E+07         0.93250E+06         0.00000E+00
    0.93250E+06        -0.38837E+08         0.00000E+00
    0.00000E+00         0.00000E+00        -0.98094E+07
 
   -0.99430E+07         0.93105E+06         0.00000E+00
    0.93105E+06        -0.39199E+08         0.00000E+00
    0.00000E+00         0.00000E+00        -0.99024E+07
 
   -0.10050E+08         0.92871E+06         0.00000E+00
    0.92871E+06        -0.39558E+08         0.00000E+00
    0.00000E+00         0.00000E+00        -0.99932E+07
 
   -0.10157E+08         0.92531E+06         0.00000E+00
    0.92531E+06        -0.39915E+08         0.00000E+00
    0.00000E+00         0.00000E+00        -0.10082E+08
 
   -0.10263E+08         0.92053E+06         0.00000E+00
    0.92053E+06        -0.40271E+08         0.00000E+00
    0.00000E+00         0.00000E+00        -0.10168E+08
 
   -0.10369E+08         0.91392E+06         0.00000E+00
    0.91392E+06        -0.40626E+08         0.00000E+00
    0.00000E+00         0.00000E+00        -0.10252E+08
 
   -0.10475E+08         0.90505E+06         0.00000E+00
    0.90505E+06        -0.40982E+08         0.00000E+00
    0.00000E+00         0.00000E+00        -0.10335E+08
 
   -0.10579E+08         0.89389E+06         0.00000E+00
    0.89389E+06        -0.41341E+08         0.00000E+00
    0.00000E+00         0.00000E+00        -0.10415E+08
 
   -0.10683E+08         0.88108E+06         0.00000E+00
    0.88108E+06        -0.41693E+08         0.00000E+00
    0.00000E+00         0.00000E+00        -0.10506E+08
 
   -0.10785E+08         0.86664E+06         0.00000E+00
    0.86664E+06        -0.42026E+08         0.00000E+00
    0.00000E+00         0.00000E+00        -0.10621E+08
 
   -0.10886E+08         0.85385E+06         0.00000E+00
    0.85385E+06        -0.42354E+08         0.00000E+00
    0.00000E+00         0.00000E+00        -0.10745E+08
 
   -0.10988E+08         0.84329E+06         0.00000E+00
    0.84329E+06        -0.42685E+08         0.00000E+00
    0.00000E+00         0.00000E+00        -0.10867E+08
 
   -0.11090E+08         0.83476E+06         0.00000E+00
    0.83476E+06        -0.43016E+08         0.00000E+00
    0.00000E+00         0.00000E+00        -0.10987E+08
 
   -0.11193E+08         0.82777E+06         0.00000E+00
    0.82777E+06        -0.43347E+08         0.00000E+00
    0.00000E+00         0.00000E+00        -0.11106E+08
 
   -0.11297E+08         0.82188E+06         0.00000E+00
    0.82188E+06        -0.43678E+08         0.00000E+00
    0.00000E+00         0.00000E+00        -0.11224E+08
 
   -0.11402E+08         0.81674E+06         0.00000E+00
    0.81674E+06        -0.44007E+08         0.00000E+00
    0.00000E+00         0.00000E+00        -0.11341E+08
 
   -0.11507E+08         0.81213E+06         0.00000E+00
    0.81213E+06        -0.44335E+08         0.00000E+00
    0.00000E+00         0.00000E+00        -0.11456E+08
 
   -0.11612E+08         0.80792E+06         0.00000E+00
    0.80792E+06        -0.44661E+08         0.00000E+00
    0.00000E+00         0.00000E+00        -0.11571E+08
 
   -0.11717E+08         0.80400E+06         0.00000E+00
    0.80400E+06        -0.44987E+08         0.00000E+00
    0.00000E+00         0.00000E+00        -0.11684E+08
 
   -0.11829E+08         0.80003E+06         0.00000E+00
    0.80003E+06        -0.45305E+08         0.00000E+00
    0.00000E+00         0.00000E+00        -0.11803E+08
 
   -0.11957E+08         0.79550E+06         0.00000E+00
    0.79550E+06        -0.45607E+08         0.00000E+00
    0.00000E+00         0.00000E+00        -0.11938E+08
 
   -0.12091E+08         0.79086E+06         0.00000E+00
    0.79086E+06        -0.45902E+08         0.00000E+00
    0.00000E+00         0.00000E+00        -0.12077E+08
 
   -0.12226E+08         0.78637E+06         0.00000E+00
    0.78637E+06        -0.46197E+08         0.00000E+00
    0.00000E+00         0.00000E+00        -0.12216E+08
 
   -0.12360E+08         0.78201E+06         0.00000E+00
    0.78201E+06        -0.46490E+08         0.00000E+00
    0.00000E+00         0.00000E+00        -0.12355E+08
 
   -0.12494E+08         0.77775E+06         0.00000E+00
    0.77775E+06        -0.46783E+08         0.00000E+00
    0.00000E+00         0.00000E+00        -0.12492E+08
 
   -0.12628E+08         0.77358E+06         0.00000E+00
    0.77358E+06        -0.47076E+08         0.00000E+00
    0.00000E+00         0.00000E+00        -0.12630E+08
 
   -0.12762E+08         0.76948E+06         0.00000E+00
    0.76948E+06        -0.47368E+08         0.00000E+00
    0.00000E+00         0.00000E+00        -0.12767E+08
 
   -0.12896E+08         0.76543E+06         0.00000E+00
    0.76543E+06        -0.47660E+08         0.00000E+00
    0.00000E+00         0.00000E+00        -0.12903E+08
 
   -0.13030E+08         0.76142E+06         0.00000E+00
    0.76142E+06        -0.47952E+08         0.00000E+00
    0.00000E+00         0.00000E+00        -0.13040E+08
 
   -0.13165E+08         0.75744E+06         0.00000E+00
    0.75744E+06        -0.48244E+08         0.00000E+00
    0.00000E+00         0.00000E+00        -0.13176E+08
 
   -0.13300E+08         0.75346E+06         0.00000E+00
    0.75346E+06        -0.48535E+08         0.00000E+00
    0.00000E+00         0.00000E+00        -0.13312E+08
 
   -0.13435E+08         0.74947E+06         0.00000E+00
    0.74947E+06        -0.48828E+08         0.00000E+00
    0.00000E+00         0.00000E+00        -0.13448E+08
 
   -0.13571E+08         0.74545E+06         0.00000E+00
    0.74545E+06        -0.49120E+08         0.00000E+00
    0.00000E+00         0.00000E+00        -0.13584E+08
 
   -0.13707E+08         0.74139E+06         0.00000E+00
    0.74139E+06        -0.49413E+08         0.00000E+00
    0.00000E+00         0.00000E+00        -0.13720E+08
 
   -0.13844E+08         0.73727E+06         0.00000E+00
    0.73727E+06        -0.49707E+08         0.00000E+00
    0.00000E+00         0.00000E+00        -0.13855E+08
 
   -0.13981E+08         0.73306E+06         0.00000E+00
    0.73306E+06        -0.50002E+08         0.00000E+00
    0.00000E+00         0.00000E+00        -0.13991E+08
 
   -0.14119E+08         0.72876E+06         0.00000E+00
    0.72876E+06        -0.50297E+08         0.00000E+00
    0.00000E+00         0.00000E+00        -0.14127E+08
 
   -0.14258E+08         0.72433E+06         0.00000E+00
    0.72433E+06        -0.50593E+08         0.00000E+00
    0.00000E+00         0.00000E+00        -0.14263E+08
 
   -0.14398E+08         0.71976E+06         0.00000E+00
    0.71976E+06        -0.50891E+08         0.00000E+00
    0.00000E+00         0.00000E+00        -0.14400E+08
 
   -0.14539E+08         0.71502E+06         0.00000E+00
    0.71502E+06        -0.51190E+08         0.00000E+00
    0.00000E+00         0.00000E+00        -0.14536E+08
 
   -0.14681E+08         0.71007E+06         0.00000E+00
    0.71007E+06        -0.51490E+08         0.00000E+00
    0.00000E+00         0.00000E+00        -0.14673E+08
 
   -0.14824E+08         0.70490E+06         0.00000E+00
    0.70490E+06        -0.51791E+08         0.00000E+00
    0.00000E+00         0.00000E+00        -0.14809E+08
 
   -0.14969E+08         0.69945E+06         0.00000E+00
    0.69945E+06        -0.52095E+08         0.00000E+00
    0.00000E+00         0.00000E+00        -0.14946E+08
 
   -0.15115E+08         0.69369E+06         0.00000E+00
    0.69369E+06        -0.52400E+08         0.00000E+00
    0.00000E+00         0.00000E+00        -0.15083E+08
 
   -0.15262E+08         0.68756E+06         0.00000E+00
    0.68756E+06        -0.52706E+08         0.00000E+00
    0.00000E+00         0.00000E+00        -0.15220E+08
 
   -0.15411E+08         0.68100E+06         0.00000E+00
    0.68100E+06        -0.53015E+08         0.00000E+00
    0.00000E+00         0.00000E+00        -0.15357E+08
 
   -0.15562E+08         0.67392E+06         0.00000E+00
    0.67392E+06        -0.53325E+08         0.00000E+00
    0.00000E+00         0.00000E+00        -0.15495E+08
 
   -0.15716E+08         0.66624E+06         0.00000E+00
    0.66624E+06        -0.53638E+08         0.00000E+00
    0.00000E+00         0.00000E+00        -0.15632E+08
 
   -0.15871E+08         0.65783E+06         0.00000E+00
    0.65783E+06        -0.53953E+08         0.00000E+00
    0.00000E+00         0.00000E+00        -0.15769E+08
 
   -0.16029E+08         0.64855E+06         0.00000E+00
    0.64855E+06        -0.54271E+08         0.00000E+00
    0.00000E+00         0.00000E+00        -0.15905E+08
 
   -0.16189E+08         0.63822E+06         0.00000E+00
    0.63822E+06        -0.54591E+08         0.00000E+00
    0.00000E+00         0.00000E+00        -0.16041E+08
 
   -0.16353E+08         0.62662E+06         0.00000E+00
    0.62662E+06        -0.54913E+08         0.00000E+00
    0.00000E+00         0.00000E+00        -0.16177E+08
 
   -0.16520E+08         0.61351E+06         0.00000E+00
    0.61351E+06        -0.55239E+08         0.00000E+00
    0.00000E+00         0.00000E+00        -0.16312E+08
 
   -0.16690E+08         0.59857E+06         0.00000E+00
    0.59857E+06        -0.55567E+08         0.00000E+00
    0.00000E+00         0.00000E+00        -0.16447E+08
 
   -0.16864E+08         0.58146E+06         0.00000E+00
    0.58146E+06        -0.55899E+08         0.00000E+00
    0.00000E+00         0.00000E+00        -0.16580E+08
 
   -0.17043E+08         0.56177E+06         0.00000E+00
    0.56177E+06        -0.56234E+08         0.00000E+00
    0.00000E+00         0.00000E+00        -0.16712E+08
 
   -0.17227E+08         0.53905E+06         0.00000E+00
    0.53905E+06        -0.56573E+08         0.00000E+00
    0.00000E+00         0.00000E+00        -0.16842E+08
 
   -0.17415E+08         0.51283E+06         0.00000E+00
    0.51283E+06        -0.56915E+08         0.00000E+00
    0.00000E+00         0.00000E+00        -0.16971E+08
 
   -0.17610E+08         0.48263E+06         0.00000E+00
    0.48263E+06        -0.57261E+08         0.00000E+00
    0.00000E+00         0.00000E+00        -0.17097E+08
 
   -0.17810E+08         0.44797E+06         0.00000E+00
    0.44797E+06        -0.57611E+08         0.00000E+00
    0.00000E+00         0.00000E+00        -0.17221E+08
 
   -0.18017E+08         0.40847E+06         0.00000E+00
    0.40847E+06        -0.57963E+08         0.00000E+00
    0.00000E+00         0.00000E+00        -0.17342E+08
 
   -0.18231E+08         0.36389E+06         0.00000E+00
    0.36389E+06        -0.58319E+08         0.00000E+00
    0.00000E+00         0.00000E+00        -0.17458E+08
 
   -0.18452E+08         0.31426E+06         0.00000E+00
    0.31426E+06        -0.58676E+08         0.00000E+00
    0.00000E+00         0.00000E+00        -0.17570E+08
 
   -0.18681E+08         0.25998E+06         0.00000E+00
    0.25998E+06        -0.59034E+08         0.00000E+00
    0.00000E+00         0.00000E+00        -0.17676E+08
 
   -0.18918E+08         0.20209E+06         0.00000E+00
    0.20209E+06        -0.59393E+08         0.00000E+00
    0.00000E+00         0.00000E+00        -0.17774E+08
 
   -0.19163E+08         0.14250E+06         0.00000E+00
    0.14250E+06        -0.59749E+08         0.00000E+00
    0.00000E+00         0.00000E+00        -0.17862E+08
 
   -0.19417E+08         0.84436E+05         0.00000E+00
    0.84436E+05        -0.60100E+08         0.00000E+00
    0.00000E+00         0.00000E+00        -0.17940E+08
 
   -0.19680E+08         0.32876E+05         0.00000E+00
    0.32876E+05        -0.60445E+08         0.00000E+00
    0.00000E+00         0.00000E+00        -0.18005E+08
 
   -0.19951E+08        -0.56112E+04         0.00000E+00
   -0.56112E+04        -0.60778E+08         0.00000E+00
    0.00000E+00         0.00000E+00        -0.18053E+08
 
   -0.20231E+08        -0.25155E+05         0.00000E+00
   -0.25155E+05        -0.61091E+08         0.00000E+00
    0.00000E+00         0.00000E+00        -0.18075E+08
 
   -0.20527E+08        -0.24634E+05         0.00000E+00
   -0.24634E+05        -0.61375E+08         0.00000E+00
    0.00000E+00         0.00000E+00        -0.18060E+08
 
   -0.20846E+08        -0.98282E+04         0.00000E+00
   -0.98282E+04        -0.61623E+08         0.00000E+00
    0.00000E+00         0.00000E+00        -0.17994E+08
 
   -0.44288E+07        -0.45026E+05         0.00000E+00
   -0.45026E+05        -0.28104E+08         0.00000E+00
    0.00000E+00         0.00000E+00        -0.86701E+07
 
   -0.48007E+07        -0.10715E+06         0.00000E+00
   -0.10715E+06        -0.28283E+08         0.00000E+00
    0.00000E+00         0.00000E+00        -0.86701E+07
 
   -0.51466E+07        -0.11019E+06         0.00000E+00
   -0.11019E+06        -0.28580E+08         0.00000E+00
    0.00000E+00         0.00000E+00        -0.86701E+07
 
   -0.54791E+07        -0.62453E+05         0.00000E+00
   -0.62453E+05        -0.28935E+08         0.00000E+00
    0.00000E+00         0.00000E+00        -0.86701E+07
 
   -0.57992E+07         0.16318E+05         0.00000E+00
    0.16318E+05        -0.29313E+08         0.00000E+00
    0.00000E+00         0.00000E+00        -0.86701E+07
 
   -0.61038E+07         0.10960E+06         0.00000E+00
    0.10960E+06        -0.29703E+08         0.00000E+00
    0.00000E+00         0.00000E+00        -0.86701E+07
 
   -0.63897E+07         0.20704E+06         0.00000E+00
    0.20704E+06        -0.30102E+08         0.00000E+00
    0.00000E+00         0.00000E+00        -0.86701E+07
 
   -0.66554E+07         0.30365E+06         0.00000E+00
    0.30365E+06        -0.30509E+08         0.00000E+00
    0.00000E+00         0.00000E+00        -0.86701E+07
 
   -0.69014E+07         0.39686E+06         0.00000E+00
    0.39686E+06        -0.30922E+08         0.00000E+00
    0.00000E+00         0.00000E+00        -0.86701E+07
 
   -0.71294E+07         0.48465E+06         0.00000E+00
    0.48465E+06        -0.31340E+08         0.00000E+00
    0.00000E+00         0.00000E+00        -0.86701E+07
 
   -0.73412E+07         0.56531E+06         0.00000E+00
    0.56531E+06        -0.31761E+08         0.00000E+00
    0.00000E+00         0.00000E+00        -0.86701E+07
 
   -0.75382E+07         0.63740E+06         0.00000E+00
    0.63740E+06        -0.32183E+08         0.00000E+00
    0.00000E+00         0.00000E+00        -0.86701E+07
 
   -0.77223E+07         0.69972E+06         0.00000E+00
    0.69972E+06        -0.32606E+08         0.00000E+00
    0.00000E+00         0.00000E+00        -0.86701E+07
 
   -0.78952E+07         0.75122E+06         0.00000E+00
    0.75122E+06        -0.33028E+08         0.00000E+00
    0.00000E+00         0.00000E+00        -0.86701E+07
 
   -0.80589E+07         0.79107E+06         0.00000E+00
    0.79107E+06        -0.33451E+08         0.00000E+00
    0.00000E+00         0.00000E+00        -0.86701E+07
 
   -0.82153E+07         0.81891E+06         0.00000E+00
    0.81891E+06        -0.33873E+08         0.00000E+00
    0.00000E+00         0.00000E+00        -0.86701E+07
 
   -0.83664E+07         0.83385E+06         0.00000E+00
    0.83385E+06        -0.34294E+08         0.00000E+00
    0.00000E+00         0.00000E+00        -0.86701E+07
 
   -0.85119E+07         0.83140E+06         0.00000E+00
    0.83140E+06        -0.34705E+08         0.00000E+00
    0.00000E+00         0.00000E+00        -0.86894E+07
 
   -0.86484E+07         0.84411E+06         0.00000E+00
    0.84411E+06        -0.35091E+08         0.00000E+00
    0.00000E+00         0.00000E+00        -0.87598E+07
 
   -0.87759E+07         0.85378E+06         0.00000E+00
    0.85378E+06        -0.35463E+08         0.00000E+00
    0.00000E+00         0.00000E+00        -0.88692E+07
 
   -0.89002E+07         0.86171E+06         0.00000E+00
    0.86171E+06        -0.35842E+08         0.00000E+00
    0.00000E+00         0.00000E+00        -0.89783E+07
 
   -0.90218E+07         0.86741E+06         0.00000E+00
    0.86741E+06        -0.36223E+08         0.00000E+00
    0.00000E+00         0.00000E+00        -0.90865E+07
 
   -0.91415E+07         0.87210E+06         0.00000E+00
    0.87210E+06        -0.36604E+08         0.00000E+00
    0.00000E+00         0.00000E+00        -0.91935E+07
 
   -0.92597E+07         0.87600E+06         0.00000E+00
    0.87600E+06        -0.36984E+08         0.00000E+00
    0.00000E+00         0.00000E+00        -0.92991E+07
 
   -0.93765E+07         0.87898E+06         0.00000E+00
    0.87898E+06        -0.37361E+08         0.00000E+00
    0.00000E+00         0.00000E+00        -0.94029E+07
 
   -0.94918E+07         0.88101E+06         0.00000E+00
    0.88101E+06        -0.37734E+08         0.00000E+00
    0.00000E+00         0.00000E+00        -0.95048E+07
 
   -0.96053E+07         0.88214E+06         0.00000E+00
    0.88214E+06        -0.38105E+08         0.00000E+00
    0.00000E+00         0.00000E+00        -0.96047E+07
 
   -0.97172E+07         0.88246E+06         0.00000E+00
    0.88246E+06        -0.38472E+08         0.00000E+00
    0.00000E+00         0.00000E+00        -0.97025E+07
 
   -0.98274E+07         0.88202E+06         0.00000E+00
    0.88202E+06        -0.38837E+08         0.00000E+00
    0.00000E+00         0.00000E+00        -0.97981E+07
 
   -0.99361E+07         0.88082E+06         0.00000E+00
    0.88082E+06        -0.39198E+08         0.00000E+00
    0.00000E+00         0.00000E+00        -0.98916E+07
 
   -0.10044E+08         0.87879E+06         0.00000E+00
    0.87879E+06        -0.39557E+08         0.00000E+00
    0.00000E+00         0.00000E+00        -0.99828E+07
 
   -0.10150E+08         0.87576E+06         0.00000E+00
    0.87576E+06        -0.39914E+08         0.00000E+00
    0.00000E+00         0.00000E+00        -0.10072E+08
 
   -0.10257E+08         0.87140E+06         0.00000E+00
    0.87140E+06        -0.40270E+08         0.00000E+00
    0.00000E+00         0.00000E+00        -0.10159E+08
 
   -0.10363E+08         0.86524E+06         0.00000E+00
    0.86524E+06        -0.40624E+08         0.00000E+00
    0.00000E+00         0.00000E+00        -0.10243E+08
 
   -0.10468E+08         0.85676E+06         0.00000E+00
    0.85676E+06        -0.40980E+08         0.00000E+00
    0.00000E+00         0.00000E+00        -0.10326E+08
 
   -0.10573E+08         0.84581E+06         0.00000E+00
    0.84581E+06        -0.41338E+08         0.00000E+00
    0.00000E+00         0.00000E+00        -0.10407E+08
 
   -0.10677E+08         0.83309E+06         0.00000E+00
    0.83309E+06        -0.41690E+08         0.00000E+00
    0.00000E+00         0.00000E+00        -0.10498E+08
 
   -0.10779E+08         0.81892E+06         0.00000E+00
    0.81892E+06        -0.42024E+08         0.00000E+00
    0.00000E+00         0.00000E+00        -0.10614E+08
 
   -0.10881E+08         0.80651E+06         0.00000E+00
    0.80651E+06        -0.42352E+08         0.00000E+00
    0.00000E+00         0.00000E+00        -0.10738E+08
 
   -0.10983E+08         0.79644E+06         0.00000E+00
    0.79644E+06        -0.42683E+08         0.00000E+00
    0.00000E+00         0.00000E+00        -0.10861E+08
 
   -0.11086E+08         0.78846E+06         0.00000E+00
    0.78846E+06        -0.43014E+08         0.00000E+00
    0.00000E+00         0.00000E+00        -0.10981E+08
 
   -0.11189E+08         0.78201E+06         0.00000E+00
    0.78201E+06        -0.43346E+08         0.00000E+00
    0.00000E+00         0.00000E+00        -0.11101E+08
 
   -0.11293E+08         0.77661E+06         0.00000E+00
    0.77661E+06        -0.43676E+08         0.00000E+00
    0.00000E+00         0.00000E+00        -0.11219E+08
 
   -0.11398E+08         0.77190E+06         0.00000E+00
    0.77190E+06        -0.44006E+08         0.00000E+00
    0.00000E+00         0.00000E+00        -0.11336E+08
 
   -0.11504E+08         0.76768E+06         0.00000E+00
    0.76768E+06        -0.44334E+08         0.00000E+00
    0.00000E+00         0.00000E+00        -0.11452E+08
 
   -0.11609E+08         0.76380E+06         0.00000E+00
    0.76380E+06        -0.44661E+08         0.00000E+00
    0.00000E+00         0.00000E+00        -0.11567E+08
 
   -0.11715E+08         0.76018E+06         0.00000E+00
    0.76018E+06        -0.44986E+08         0.00000E+00
    0.00000E+00         0.00000E+00        -0.11681E+08
 
   -0.11827E+08         0.75648E+06         0.00000E+00
    0.75648E+06        -0.45304E+08         0.00000E+00
    0.00000E+00         0.00000E+00        -0.11800E+08
 
   -0.11955E+08         0.75224E+06         0.00000E+00
    0.75224E+06        -0.45606E+08         0.00000E+00
    0.00000E+00         0.00000E+00        -0.11935E+08
 
   -0.12090E+08         0.74789E+06         0.00000E+00
    0.74789E+06        -0.45901E+08         0.00000E+00
    0.00000E+00         0.00000E+00        -0.12074E+08
 
   -0.12224E+08         0.74367E+06         0.00000E+00
    0.74367E+06        -0.46196E+08         0.00000E+00
    0.00000E+00         0.00000E+00        -0.12214E+08
 
   -0.12358E+08         0.73956E+06         0.00000E+00
    0.73956E+06        -0.46490E+08         0.00000E+00
    0.00000E+00         0.00000E+00        -0.12352E+08
 
   -0.12492E+08         0.73555E+06         0.00000E+00
    0.73555E+06        -0.46783E+08         0.00000E+00
    0.00000E+00         0.00000E+00        -0.12490E+08
 
   -0.12626E+08         0.73161E+06         0.00000E+00
    0.73161E+06        -0.47076E+08         0.00000E+00
    0.00000E+00         0.00000E+00        -0.12628E+08
 
   -0.12760E+08         0.72774E+06         0.00000E+00
    0.72774E+06        -0.47368E+08         0.00000E+00
    0.00000E+00         0.00000E+00        -0.12765E+08
 
   -0.12894E+08         0.72391E+06         0.00000E+00
    0.72391E+06        -0.47660E+08         0.00000E+00
    0.00000E+00         0.00000E+00        -0.12902E+08
 
   -0.13029E+08         0.72012E+06         0.00000E+00
    0.72012E+06        -0.47952E+08         0.00000E+00
    0.00000E+00         0.00000E+00        -0.13038E+08
 
   -0.13163E+08         0.71634E+06         0.00000E+00
    0.71634E+06        -0.48244E+08         0.00000E+00
    0.00000E+00         0.00000E+00        -0.13174E+08
 
   -0.13298E+08         0.71257E+06         0.00000E+00
    0.71257E+06        -0.48536E+08         0.00000E+00
    0.00000E+00         0.00000E+00        -0.13311E+08
 
   -0.13434E+08         0.70879E+06         0.00000E+00
    0.70879E+06        -0.48828E+08         0.00000E+00
    0.00000E+00         0.00000E+00        -0.13447E+08
 
   -0.13569E+08         0.70498E+06         0.00000E+00
    0.70498E+06        -0.49121E+08         0.00000E+00
    0.00000E+00         0.00000E+00        -0.13583E+08
 
   -0.13706E+08         0.70113E+06         0.00000E+00
    0.70113E+06        -0.49414E+08         0.00000E+00
    0.00000E+00         0.00000E+00        -0.13718E+08
 
   -0.13842E+08         0.69722E+06         0.00000E+00
    0.69722E+06        -0.49708E+08         0.00000E+00
    0.00000E+00         0.00000E+00        -0.13854E+08
 
   -0.13980E+08         0.69322E+06         0.00000E+00
    0.69322E+06        -0.50002E+08         0.00000E+00
    0.00000E+00         0.00000E+00        -0.13990E+08
 
   -0.14118E+08         0.68914E+06         0.00000E+00
    0.68914E+06        -0.50298E+08         0.00000E+00
    0.00000E+00         0.00000E+00        -0.14126E+08
 
   -0.14257E+08         0.68493E+06         0.00000E+00
    0.68493E+06        -0.50594E+08         0.00000E+00
    0.00000E+00         0.00000E+00        -0.14263E+08
 
   -0.14397E+08         0.68059E+06         0.00000E+00
    0.68059E+06        -0.50892E+08         0.00000E+00
    0.00000E+00         0.00000E+00        -0.14399E+08
 
   -0.14538E+08         0.67609E+06         0.00000E+00
    0.67609E+06        -0.51191E+08         0.00000E+00
    0.00000E+00         0.00000E+00        -0.14535E+08
 
   -0.14680E+08         0.67139E+06         0.00000E+00
    0.67139E+06        -0.51491E+08         0.00000E+00
    0.00000E+00         0.00000E+00        -0.14672E+08
 
   -0.14823E+08         0.66648E+06         0.00000E+00
    0.66648E+06        -0.51793E+08         0.00000E+00
    0.00000E+00         0.00000E+00        -0.14809E+08
 
   -0.14968E+08         0.66131E+06         0.00000E+00
    0.66131E+06        -0.52096E+08         0.00000E+00
    0.00000E+00         0.00000E+00        -0.14945E+08
 
   -0.15114E+08         0.65585E+06         0.00000E+00
    0.65585E+06        -0.52401E+08         0.00000E+00
    0.00000E+00         0.00000E+00        -0.15082E+08
 
   -0.15262E+08         0.65003E+06         0.00000E+00
    0.65003E+06        -0.52707E+08         0.00000E+00
    0.00000E+00         0.00000E+00        -0.15219E+08
 
   -0.15411E+08         0.64381E+06         0.00000E+00
    0.64381E+06        -0.53016E+08         0.00000E+00
    0.00000E+00         0.00000E+00        -0.15356E+08
 
   -0.15562E+08         0.63711E+06         0.00000E+00
    0.63711E+06        -0.53326E+08         0.00000E+00
    0.00000E+00         0.00000E+00        -0.15493E+08
 
   -0.15715E+08         0.62983E+06         0.00000E+00
    0.62983E+06        -0.53639E+08         0.00000E+00
    0.00000E+00         0.00000E+00        -0.15630E+08
 
   -0.15871E+08         0.62187E+06         0.00000E+00
    0.62187E+06        -0.53954E+08         0.00000E+00
    0.00000E+00         0.00000E+00        -0.15767E+08
 
   -0.16029E+08         0.61308E+06         0.00000E+00
    0.61308E+06        -0.54271E+08         0.00000E+00
    0.00000E+00         0.00000E+00        -0.15903E+08
 
   -0.16190E+08         0.60329E+06         0.00000E+00
    0.60329E+06        -0.54591E+08         0.00000E+00
    0.00000E+00         0.00000E+00        -0.16039E+08
 
   -0.16353E+08         0.59230E+06         0.00000E+00
    0.59230E+06        -0.54913E+08         0.00000E+00
    0.00000E+00         0.00000E+00        -0.16174E+08
 
   -0.16520E+08         0.57986E+06         0.00000E+00
    0.57986E+06        -0.55239E+08         0.00000E+00
    0.00000E+00         0.00000E+00        -0.16309E+08
 
   -0.16691E+08         0.56567E+06         0.00000E+00
    0.56567E+06        -0.55567E+08         0.00000E+00
    0.00000E+00         0.00000E+00        -0.16443E+08
 
   -0.16866E+08         0.54939E+06         0.00000E+00
    0.54939E+06        -0.55898E+08         0.00000E+00
    0.00000E+00         0.00000E+00        -0.16575E+08
 
   -0.17045E+08         0.53062E+06         0.00000E+00
    0.53062E+06        -0.56232E+08         0.00000E+00
    0.00000E+00         0.00000E+00        -0.16706E+08
 
   -0.17229E+08         0.50892E+06         0.00000E+00
    0.50892E+06        -0.56570E+08         0.00000E+00
    0.00000E+00         0.00000E+00        -0.16836E+08
 
   -0.17419E+08         0.48382E+06         0.00000E+00
    0.48382E+06        -0.56912E+08         0.00000E+00
    0.00000E+00         0.00000E+00        -0.16963E+08
 
   -0.17614E+08         0.45484E+06         0.00000E+00
    0.45484E+06        -0.57256E+08         0.00000E+00
    0.00000E+00         0.00000E+00        -0.17088E+08
 
   -0.17815E+08         0.42153E+06         0.00000E+00
    0.42153E+06        -0.57605E+08         0.00000E+00
    0.00000E+00         0.00000E+00        -0.17210E+08
 
   -0.18024E+08         0.38350E+06         0.00000E+00
    0.38350E+06        -0.57956E+08         0.00000E+00
    0.00000E+00         0.00000E+00        -0.17328E+08
 
   -0.18239E+08         0.34053E+06         0.00000E+00
    0.34053E+06        -0.58310E+08         0.00000E+00
    0.00000E+00         0.00000E+00        -0.17442E+08
 
   -0.18463E+08         0.29264E+06         0.00000E+00
    0.29264E+06        -0.58667E+08         0.00000E+00
    0.00000E+00         0.00000E+00        -0.17550E+08
 
   -0.18695E+08         0.24025E+06         0.00000E+00
    0.24025E+06        -0.59024E+08         0.00000E+00
    0.00000E+00         0.00000E+00        -0.17652E+08
 
   -0.18935E+08         0.18437E+06         0.00000E+00
    0.18437E+06        -0.59382E+08         0.00000E+00
    0.00000E+00         0.00000E+00        -0.17747E+08
 
   -0.19185E+08         0.12688E+06         0.00000E+00
    0.12688E+06        -0.59738E+08         0.00000E+00
    0.00000E+00         0.00000E+00        -0.17832E+08
 
   -0.19444E+08         0.70841E+05         0.00000E+00
    0.70841E+05        -0.60091E+08         0.00000E+00
    0.00000E+00         0.00000E+00        -0.17907E+08
 
   -0.19712E+08         0.21019E+05         0.00000E+00
    0.21019E+05        -0.60438E+08         0.00000E+00
    0.00000E+00         0.00000E+00        -0.17969E+08
 
   -0.19988E+08        -0.16002E+05         0.00000E+00
   -0.16002E+05        -0.60775E+08         0.00000E+00
    0.00000E+00         0.00000E+00        -0.18016E+08
 
   -0.20272E+08        -0.33800E+05         0.00000E+00
   -0.33800E+05        -0.61092E+08         0.00000E+00
    0.00000E+00         0.00000E+00        -0.18040E+08
 
   -0.20569E+08        -0.30556E+05         0.00000E+00
   -0.30556E+05        -0.61381E+08         0.00000E+00
    0.00000E+00         0.00000E+00        -0.18027E+08
 
   -0.20889E+08        -0.11954E+05         0.00000E+00
   -0.11954E+05        -0.61631E+08         0.00000E+00
    0.00000E+00         0.00000E+00        -0.17963E+08
 
   -0.43074E+07        -0.49853E+05         0.00000E+00
   -0.49853E+05        -0.28086E+08         0.00000E+00
    0.00000E+00         0.00000E+00        -0.86701E+07
 
   -0.46843E+07        -0.11890E+06         0.00000E+00
   -0.11890E+06        -0.28275E+08         0.00000E+00
    0.00000E+00         0.00000E+00        -0.86701E+07
 
   -0.50393E+07        -0.12460E+06         0.00000E+00
   -0.12460E+06        -0.28585E+08         0.00000E+00
    0.00000E+00         0.00000E+00        -0.86701E+07
 
   -0.53831E+07        -0.78756E+05         0.00000E+00
   -0.78756E+05        -0.28948E+08         0.00000E+00
    0.00000E+00         0.00000E+00        -0.86701E+07
 
   -0.57148E+07        -0.24680E+04         0.00000E+00
   -0.24680E+04        -0.29330E+08         0.00000E+00
    0.00000E+00         0.00000E+00        -0.86701E+07
 
   -0.60303E+07         0.87486E+05         0.00000E+00
    0.87486E+05        -0.29722E+08         0.00000E+00
    0.00000E+00         0.00000E+00        -0.86701E+07
 
   -0.63259E+07         0.18100E+06         0.00000E+00
    0.18100E+06        -0.30121E+08         0.00000E+00
    0.00000E+00         0.00000E+00        -0.86701E+07
 
   -0.66001E+07         0.27370E+06         0.00000E+00
    0.27370E+06        -0.30527E+08         0.00000E+00
    0.00000E+00         0.00000E+00        -0.86701E+07
 
   -0.68536E+07         0.36331E+06         0.00000E+00
    0.36331E+06        -0.30940E+08         0.00000E+00
    0.00000E+00         0.00000E+00        -0.86701E+07
 
   -0.70881E+07         0.44789E+06         0.00000E+00
    0.44789E+06        -0.31357E+08         0.00000E+00
    0.00000E+00         0.00000E+00        -0.86701E+07
 
   -0.73055E+07         0.52570E+06         0.00000E+00
    0.52570E+06        -0.31776E+08         0.00000E+00
    0.00000E+00         0.00000E+00        -0.86701E+07
 
   -0.75073E+07         0.59531E+06         0.00000E+00
    0.59531E+06        -0.32196E+08         0.00000E+00
    0.00000E+00         0.00000E+00        -0.86701E+07
 
   -0.76954E+07         0.65551E+06         0.00000E+00
    0.65551E+06        -0.32617E+08         0.00000E+00
    0.00000E+00         0.00000E+00        -0.86701E+07
 
   -0.78716E+07         0.70530E+06         0.00000E+00
    0.70530E+06        -0.33037E+08         0.00000E+00
    0.00000E+00         0.00000E+00        -0.86701E+07
 
   -0.80380E+07         0.74388E+06         0.00000E+00
    0.74388E+06        -0.33457E+08         0.00000E+00
    0.00000E+00         0.00000E+00        -0.86701E+07
 
   -0.81965E+07         0.77082E+06         0.00000E+00
    0.77082E+06        -0.33877E+08         0.00000E+00
    0.00000E+00         0.00000E+00        -0.86701E+07
 
   -0.83490E+07         0.78536E+06         0.00000E+00
    0.78536E+06        -0.34296E+08         0.00000E+00
    0.00000E+00         0.00000E+00        -0.86701E+07
 
   -0.84968E+07         0.78233E+06         0.00000E+00
    0.78233E+06        -0.34705E+08         0.00000E+00
    0.00000E+00         0.00000E+00        -0.86848E+07
 
   -0.86351E+07         0.79258E+06         0.00000E+00
    0.79258E+06        -0.35092E+08         0.00000E+00
    0.00000E+00         0.00000E+00        -0.87496E+07
 
   -0.87642E+07         0.80196E+06         0.00000E+00
    0.80196E+06        -0.35465E+08         0.00000E+00
    0.00000E+00         0.00000E+00        -0.88581E+07
 
   -0.88899E+07         0.80989E+06         0.00000E+00
    0.80989E+06        -0.35843E+08         0.00000E+00
    0.00000E+00         0.00000E+00        -0.89666E+07
 
   -0.90124E+07         0.81553E+06         0.00000E+00
    0.81553E+06        -0.36224E+08         0.00000E+00
    0.00000E+00         0.00000E+00        -0.90745E+07
 
   -0.91326E+07         0.82043E+06         0.00000E+00
    0.82043E+06        -0.36605E+08         0.00000E+00
    0.00000E+00         0.00000E+00        -0.91813E+07
 
   -0.92514E+07         0.82459E+06         0.00000E+00
    0.82459E+06        -0.36985E+08         0.00000E+00
    0.00000E+00         0.00000E+00        -0.92868E+07
 
   -0.93687E+07         0.82779E+06         0.00000E+00
    0.82779E+06        -0.37361E+08         0.00000E+00
    0.00000E+00         0.00000E+00        -0.93907E+07
 
   -0.94844E+07         0.83000E+06         0.00000E+00
    0.83000E+06        -0.37735E+08         0.00000E+00
    0.00000E+00         0.00000E+00        -0.94928E+07
 
   -0.95982E+07         0.83131E+06         0.00000E+00
    0.83131E+06        -0.38105E+08         0.00000E+00
    0.00000E+00         0.00000E+00        -0.95930E+07
 
   -0.97103E+07         0.83181E+06         0.00000E+00
    0.83181E+06        -0.38472E+08         0.00000E+00
    0.00000E+00         0.00000E+00        -0.96911E+07
 
   -0.98206E+07         0.83157E+06         0.00000E+00
    0.83157E+06        -0.38836E+08         0.00000E+00
    0.00000E+00         0.00000E+00        -0.97871E+07
 
   -0.99295E+07         0.83061E+06         0.00000E+00
    0.83061E+06        -0.39198E+08         0.00000E+00
    0.00000E+00         0.00000E+00        -0.98809E+07
 
   -0.10037E+08         0.82888E+06         0.00000E+00
    0.82888E+06        -0.39557E+08         0.00000E+00
    0.00000E+00         0.00000E+00        -0.99725E+07
 
   -0.10144E+08         0.82622E+06         0.00000E+00
    0.82622E+06        -0.39914E+08         0.00000E+00
    0.00000E+00         0.00000E+00        -0.10062E+08
 
   -0.10250E+08         0.82230E+06         0.00000E+00
    0.82230E+06        -0.40269E+08         0.00000E+00
    0.00000E+00         0.00000E+00        -0.10149E+08
 
   -0.10356E+08         0.81660E+06         0.00000E+00
    0.81660E+06        -0.40623E+08         0.00000E+00
    0.00000E+00         0.00000E+00        -0.10234E+08
 
   -0.10462E+08         0.80851E+06         0.00000E+00
    0.80851E+06        -0.40978E+08         0.00000E+00
    0.00000E+00         0.00000E+00        -0.10318E+08
 
   -0.10567E+08         0.79780E+06         0.00000E+00
    0.79780E+06        -0.41336E+08         0.00000E+00
    0.00000E+00         0.00000E+00        -0.10399E+08
 
   -0.10671E+08         0.78515E+06         0.00000E+00
    0.78515E+06        -0.41687E+08         0.00000E+00
    0.00000E+00         0.00000E+00        -0.10491E+08
 
   -0.10774E+08         0.77126E+06         0.00000E+00
    0.77126E+06        -0.42021E+08         0.00000E+00
    0.00000E+00         0.00000E+00        -0.10608E+08
 
   -0.10876E+08         0.75924E+06         0.00000E+00
    0.75924E+06        -0.42350E+08         0.00000E+00
    0.00000E+00         0.00000E+00        -0.10732E+08
 
   -0.10978E+08         0.74968E+06         0.00000E+00
    0.74968E+06        -0.42681E+08         0.00000E+00
    0.00000E+00         0.00000E+00        -0.10855E+08
 
   -0.11081E+08         0.74225E+06         0.00000E+00
    0.74225E+06        -0.43013E+08         0.00000E+00
    0.00000E+00         0.00000E+00        -0.10976E+08
 
   -0.11185E+08         0.73634E+06         0.00000E+00
    0.73634E+06        -0.43345E+08         0.00000E+00
    0.00000E+00         0.00000E+00        -0.11096E+08
 
   -0.11290E+08         0.73141E+06         0.00000E+00
    0.73141E+06        -0.43676E+08         0.00000E+00
    0.00000E+00         0.00000E+00        -0.11214E+08
 
   -0.11395E+08         0.72713E+06         0.00000E+00
    0.72713E+06        -0.44005E+08         0.00000E+00
    0.00000E+00         0.00000E+00        -0.11331E+08
 
   -0.11501E+08         0.72328E+06         0.00000E+00
    0.72328E+06        -0.44333E+08         0.00000E+00
    0.00000E+00         0.00000E+00        -0.11448E+08
 
   -0.11607E+08         0.71973E+06         0.00000E+00
    0.71973E+06        -0.44660E+08         0.00000E+00
    0.00000E+00         0.00000E+00        -0.11563E+08
 
   -0.11713E+08         0.71640E+06         0.00000E+00
    0.71640E+06        -0.44985E+08         0.00000E+00
    0.00000E+00         0.00000E+00        -0.11677E+08
 
   -0.11825E+08         0.71297E+06         0.00000E+00
    0.71297E+06        -0.45303E+08         0.00000E+00
    0.00000E+00         0.00000E+00        -0.11797E+08
 
   -0.11954E+08         0.70901E+06         0.00000E+00
    0.70901E+06        -0.45605E+08         0.00000E+00
    0.00000E+00         0.00000E+00        -0.11932E+08
 
   -0.12088E+08         0.70495E+06         0.00000E+00
    0.70495E+06        -0.45901E+08         0.00000E+00
    0.00000E+00         0.00000E+00        -0.12072E+08
 
   -0.12222E+08         0.70100E+06         0.00000E+00
    0.70100E+06        -0.46195E+08         0.00000E+00
    0.00000E+00         0.00000E+00        -0.12211E+08
 
   -0.12356E+08         0.69715E+06         0.00000E+00
    0.69715E+06        -0.46489E+08         0.00000E+00
    0.00000E+00         0.00000E+00        -0.12350E+08
 
   -0.12490E+08         0.69338E+06         0.00000E+00
    0.69338E+06        -0.46783E+08         0.00000E+00
    0.00000E+00         0.00000E+00        -0.12488E+08
 
   -0.12624E+08         0.68967E+06         0.00000E+00
    0.68967E+06        -0.47075E+08         0.00000E+00
    0.00000E+00         0.00000E+00        -0.12626E+08
 
   -0.12759E+08         0.68602E+06         0.00000E+00
    0.68602E+06        -0.47368E+08         0.00000E+00
    0.00000E+00         0.00000E+00        -0.12763E+08
 
   -0.12893E+08         0.68242E+06         0.00000E+00
    0.68242E+06        -0.47660E+08         0.00000E+00
    0.00000E+00         0.00000E+00        -0.12900E+08
 
   -0.13027E+08         0.67884E+06         0.00000E+00
    0.67884E+06        -0.47952E+08         0.00000E+00
    0.00000E+00         0.00000E+00        -0.13037E+08
 
   -0.13162E+08         0.67527E+06         0.00000E+00
    0.67527E+06        -0.48244E+08         0.00000E+00
    0.00000E+00         0.00000E+00        -0.13173E+08
 
   -0.13297E+08         0.67171E+06         0.00000E+00
    0.67171E+06        -0.48536E+08         0.00000E+00
    0.00000E+00         0.00000E+00        -0.13309E+08
 
   -0.13432E+08         0.66814E+06         0.00000E+00
    0.66814E+06        -0.48828E+08         0.00000E+00
    0.00000E+00         0.00000E+00        -0.13445E+08
 
   -0.13568E+08         0.66454E+06         0.00000E+00
    0.66454E+06        -0.49121E+08         0.00000E+00
    0.00000E+00         0.00000E+00        -0.13581E+08
 
   -0.13704E+08         0.66089E+06         0.00000E+00
    0.66089E+06        -0.49414E+08         0.00000E+00
    0.00000E+00         0.00000E+00        -0.13717E+08
 
   -0.13841E+08         0.65719E+06         0.00000E+00
    0.65719E+06        -0.49708E+08         0.00000E+00
    0.00000E+00         0.00000E+00        -0.13853E+08
 
   -0.13978E+08         0.65341E+06         0.00000E+00
    0.65341E+06        -0.50003E+08         0.00000E+00
    0.00000E+00         0.00000E+00        -0.13990E+08
 
   -0.14117E+08         0.64954E+06         0.00000E+00
    0.64954E+06        -0.50299E+08         0.00000E+00
    0.00000E+00         0.00000E+00        -0.14126E+08
 
   -0.14256E+08         0.64556E+06         0.00000E+00
    0.64556E+06        -0.50595E+08         0.00000E+00
    0.00000E+00         0.00000E+00        -0.14262E+08
 
   -0.14396E+08         0.64145E+06         0.00000E+00
    0.64145E+06        -0.50893E+08         0.00000E+00
    0.00000E+00         0.00000E+00        -0.14398E+08
 
   -0.14537E+08         0.63718E+06         0.00000E+00
    0.63718E+06        -0.51192E+08         0.00000E+00
    0.00000E+00         0.00000E+00        -0.14535E+08
 
   -0.14679E+08         0.63274E+06         0.00000E+00
    0.63274E+06        -0.51492E+08         0.00000E+00
    0.00000E+00         0.00000E+00        -0.14671E+08
 
   -0.14822E+08         0.62809E+06         0.00000E+00
    0.62809E+06        -0.51794E+08         0.00000E+00
    0.00000E+00         0.00000E+00        -0.14808E+08
 
   -0.14967E+08         0.62320E+06         0.00000E+00
    0.62320E+06        -0.52097E+08         0.00000E+00
    0.00000E+00         0.00000E+00        -0.14945E+08
 
   -0.15113E+08         0.61803E+06         0.00000E+00
    0.61803E+06        -0.52402E+08         0.00000E+00
    0.00000E+00         0.00000E+00        -0.15082E+08
 
   -0.15261E+08         0.61254E+06         0.00000E+00
    0.61254E+06        -0.52708E+08         0.00000E+00
    0.00000E+00         0.00000E+00        -0.15218E+08
 
   -0.15411E+08         0.60666E+06         0.00000E+00
    0.60666E+06        -0.53017E+08         0.00000E+00
    0.00000E+00         0.00000E+00        -0.15355E+08
 
   -0.15562E+08         0.60033E+06         0.00000E+00
    0.60033E+06        -0.53327E+08         0.00000E+00
    0.00000E+00         0.00000E+00        -0.15492E+08
 
   -0.15715E+08         0.59346E+06         0.00000E+00
    0.59346E+06        -0.53640E+08         0.00000E+00
    0.00000E+00         0.00000E+00        -0.15629E+08
 
   -0.15871E+08         0.58594E+06         0.00000E+00
    0.58594E+06        -0.53955E+08         0.00000E+00
    0.00000E+00         0.00000E+00        -0.15765E+08
 
   -0.16029E+08         0.57764E+06         0.00000E+00
    0.57764E+06        -0.54272E+08         0.00000E+00
    0.00000E+00         0.00000E+00        -0.15901E+08
 
   -0.16190E+08         0.56840E+06         0.00000E+00
    0.56840E+06        -0.54591E+08         0.00000E+00
    0.00000E+00         0.00000E+00        -0.16037E+08
 
   -0.16354E+08         0.55802E+06         0.00000E+00
    0.55802E+06        -0.54914E+08         0.00000E+00
    0.00000E+00         0.00000E+00        -0.16172E+08
 
   -0.16522E+08         0.54625E+06         0.00000E+00
    0.54625E+06        -0.55238E+08         0.00000E+00
    0.00000E+00         0.00000E+00        -0.16306E+08
 
   -0.16693E+08         0.53282E+06         0.00000E+00
    0.53282E+06        -0.55566E+08         0.00000E+00
    0.00000E+00         0.00000E+00        -0.16439E+08
 
   -0.16868E+08         0.51737E+06         0.00000E+00
    0.51737E+06        -0.55897E+08         0.00000E+00
    0.00000E+00         0.00000E+00        -0.16571E+08
 
   -0.17047E+08         0.49954E+06         0.00000E+00
    0.49954E+06        -0.56230E+08         0.00000E+00
    0.00000E+00         0.00000E+00        -0.16701E+08
 
   -0.17232E+08         0.47888E+06         0.00000E+00
    0.47888E+06        -0.56568E+08         0.00000E+00
    0.00000E+00         0.00000E+00        -0.16829E+08
 
   -0.17422E+08         0.45494E+06         0.00000E+00
    0.45494E+06        -0.56908E+08         0.00000E+00
    0.00000E+00         0.00000E+00        -0.16955E+08
 
   -0.17618E+08         0.42724E+06         0.00000E+00
    0.42724E+06        -0.57252E+08         0.00000E+00
    0.00000E+00         0.00000E+00        -0.17078E+08
 
   -0.17821E+08         0.39534E+06         0.00000E+00
    0.39534E+06        -0.57599E+08         0.00000E+00
    0.00000E+00         0.00000E+00        -0.17198E+08
 
   -0.18031E+08         0.35886E+06         0.00000E+00
    0.35886E+06        -0.57950E+08         0.00000E+00
    0.00000E+00         0.00000E+00        -0.17314E+08
 
   -0.18248E+08         0.31759E+06         0.00000E+00
    0.31759E+06        -0.58303E+08         0.00000E+00
    0.00000E+00         0.00000E+00        -0.17426E+08
 
   -0.18474E+08         0.27155E+06         0.00000E+00
    0.27155E+06        -0.58658E+08         0.00000E+00
    0.00000E+00         0.00000E+00        -0.17531E+08
 
   -0.18709E+08         0.22118E+06         0.00000E+00
    0.22118E+06        -0.59015E+08         0.00000E+00
    0.00000E+00         0.00000E+00        -0.17630E+08
 
   -0.18953E+08         0.16747E+06         0.00000E+00
    0.16747E+06        -0.59372E+08         0.00000E+00
    0.00000E+00         0.00000E+00        -0.17721E+08
 
   -0.19208E+08         0.11222E+06         0.00000E+00
    0.11222E+06        -0.59728E+08         0.00000E+00
    0.00000E+00         0.00000E+00        -0.17802E+08
 
   -0.19472E+08         0.58325E+05         0.00000E+00
    0.58325E+05        -0.60082E+08         0.00000E+00
    0.00000E+00         0.00000E+00        -0.17873E+08
 
   -0.19745E+08         0.10261E+05         0.00000E+00
    0.10261E+05        -0.60431E+08         0.00000E+00
    0.00000E+00         0.00000E+00        -0.17933E+08
 
   -0.20025E+08        -0.25471E+05         0.00000E+00
   -0.25471E+05        -0.60771E+08         0.00000E+00
    0.00000E+00         0.00000E+00        -0.17979E+08
 
   -0.20313E+08        -0.41879E+05         0.00000E+00
   -0.41879E+05        -0.61094E+08         0.00000E+00
    0.00000E+00         0.00000E+00        -0.18004E+08
 
   -0.20613E+08        -0.36249E+05         0.00000E+00
   -0.36249E+05        -0.61387E+08         0.00000E+00
    0.00000E+00         0.00000E+00        -0.17994E+08
 
   -0.20933E+08        -0.14032E+05         0.00000E+00
   -0.14032E+05        -0.61640E+08         0.00000E+00
    0.00000E+00         0.00000E+00        -0.17933E+08
 
   -0.41812E+07        -0.54150E+05         0.00000E+00
   -0.54150E+05        -0.28066E+08         0.00000E+00
    0.00000E+00         0.00000E+00        -0.86701E+07
 
   -0.45649E+07        -0.12913E+06         0.00000E+00
   -0.12913E+06        -0.28267E+08         0.00000E+00
    0.00000E+00         0.00000E+00        -0.86701E+07
 
   -0.49309E+07        -0.13668E+06         0.00000E+00
   -0.13668E+06        -0.28590E+08         0.00000E+00
    0.00000E+00         0.00000E+00        -0.86701E+07
 
   -0.52874E+07        -0.92628E+05         0.00000E+00
   -0.92628E+05        -0.28960E+08         0.00000E+00
    0.00000E+00         0.00000E+00        -0.86701E+07
 
   -0.56313E+07        -0.18919E+05         0.00000E+00
   -0.18919E+05        -0.29347E+08         0.00000E+00
    0.00000E+00         0.00000E+00        -0.86701E+07
 
   -0.59581E+07         0.67471E+05         0.00000E+00
    0.67471E+05        -0.29740E+08         0.00000E+00
    0.00000E+00         0.00000E+00        -0.86701E+07
 
   -0.62635E+07         0.15678E+06         0.00000E+00
    0.15678E+06        -0.30139E+08         0.00000E+00
    0.00000E+00         0.00000E+00        -0.86701E+07
 
   -0.65461E+07         0.24533E+06         0.00000E+00
    0.24533E+06        -0.30545E+08         0.00000E+00
    0.00000E+00         0.00000E+00        -0.86701E+07
 
   -0.68070E+07         0.33115E+06         0.00000E+00
    0.33115E+06        -0.30957E+08         0.00000E+00
    0.00000E+00         0.00000E+00        -0.86701E+07
 
   -0.70480E+07         0.41233E+06         0.00000E+00
    0.41233E+06        -0.31373E+08         0.00000E+00
    0.00000E+00         0.00000E+00        -0.86701E+07
 
   -0.72708E+07         0.48712E+06         0.00000E+00
    0.48712E+06        -0.31791E+08         0.00000E+00
    0.00000E+00         0.00000E+00        -0.86701E+07
 
   -0.74773E+07         0.55408E+06         0.00000E+00
    0.55408E+06        -0.32209E+08         0.00000E+00
    0.00000E+00         0.00000E+00        -0.86701E+07
 
   -0.76693E+07         0.61202E+06         0.00000E+00
    0.61202E+06        -0.32628E+08         0.00000E+00
    0.00000E+00         0.00000E+00        -0.86701E+07
 
   -0.78486E+07         0.65996E+06         0.00000E+00
    0.65996E+06        -0.33046E+08         0.00000E+00
    0.00000E+00         0.00000E+00        -0.86701E+07
 
   -0.80175E+07         0.69716E+06         0.00000E+00
    0.69716E+06        -0.33464E+08         0.00000E+00
    0.00000E+00         0.00000E+00        -0.86701E+07
 
   -0.81779E+07         0.72306E+06         0.00000E+00
    0.72306E+06        -0.33881E+08         0.00000E+00
    0.00000E+00         0.00000E+00        -0.86701E+07
 
   -0.83318E+07         0.73709E+06         0.00000E+00
    0.73709E+06        -0.34297E+08         0.00000E+00
    0.00000E+00         0.00000E+00        -0.86701E+07
 
   -0.84814E+07         0.73392E+06         0.00000E+00
    0.73392E+06        -0.34705E+08         0.00000E+00
    0.00000E+00         0.00000E+00        -0.86801E+07
 
   -0.86214E+07         0.74117E+06         0.00000E+00
    0.74117E+06        -0.35094E+08         0.00000E+00
    0.00000E+00         0.00000E+00        -0.87392E+07
 
   -0.87525E+07         0.75060E+06         0.00000E+00
    0.75060E+06        -0.35467E+08         0.00000E+00
    0.00000E+00         0.00000E+00        -0.88469E+07
 
   -0.88798E+07         0.75826E+06         0.00000E+00
    0.75826E+06        -0.35844E+08         0.00000E+00
    0.00000E+00         0.00000E+00        -0.89549E+07
 
   -0.90030E+07         0.76378E+06         0.00000E+00
    0.76378E+06        -0.36225E+08         0.00000E+00
    0.00000E+00         0.00000E+00        -0.90624E+07
 
   -0.91240E+07         0.76890E+06         0.00000E+00
    0.76890E+06        -0.36606E+08         0.00000E+00
    0.00000E+00         0.00000E+00        -0.91691E+07
 
   -0.92435E+07         0.77329E+06         0.00000E+00
    0.77329E+06        -0.36985E+08         0.00000E+00
    0.00000E+00         0.00000E+00        -0.92746E+07
 
   -0.93613E+07         0.77669E+06         0.00000E+00
    0.77669E+06        -0.37362E+08         0.00000E+00
    0.00000E+00         0.00000E+00        -0.93786E+07
 
   -0.94773E+07         0.77907E+06         0.00000E+00
    0.77907E+06        -0.37735E+08         0.00000E+00
    0.00000E+00         0.00000E+00        -0.94810E+07
 
   -0.95915E+07         0.78053E+06         0.00000E+00
    0.78053E+06        -0.38105E+08         0.00000E+00
    0.00000E+00         0.00000E+00        -0.95814E+07
 
   -0.97037E+07         0.78119E+06         0.00000E+00
    0.78119E+06        -0.38472E+08         0.00000E+00
    0.00000E+00         0.00000E+00        -0.96798E+07
 
   -0.98143E+07         0.78114E+06         0.00000E+00
    0.78114E+06        -0.38836E+08         0.00000E+00
    0.00000E+00         0.00000E+00        -0.97762E+07
 
   -0.99232E+07         0.78042E+06         0.00000E+00
    0.78042E+06        -0.39198E+08         0.00000E+00
    0.00000E+00         0.00000E+00        -0.98704E+07
 
   -0.10031E+08         0.77898E+06         0.00000E+00
    0.77898E+06        -0.39556E+08         0.00000E+00
    0.00000E+00         0.00000E+00        -0.99625E+07
 
   -0.10138E+08         0.77668E+06         0.00000E+00
    0.77668E+06        -0.39913E+08         0.00000E+00
    0.00000E+00         0.00000E+00        -0.10052E+08
 
   -0.10244E+08         0.77319E+06         0.00000E+00
    0.77319E+06        -0.40268E+08         0.00000E+00
    0.00000E+00         0.00000E+00        -0.10140E+08
 
   -0.10350E+08         0.76797E+06         0.00000E+00
    0.76797E+06        -0.40621E+08         0.00000E+00
    0.00000E+00         0.00000E+00        -0.10226E+08
 
   -0.10456E+08         0.76031E+06         0.00000E+00
    0.76031E+06        -0.40976E+08         0.00000E+00
    0.00000E+00         0.00000E+00        -0.10309E+08
 
   -0.10562E+08         0.74985E+06         0.00000E+00
    0.74985E+06        -0.41334E+08         0.00000E+00
    0.00000E+00         0.00000E+00        -0.10391E+08
 
   -0.10666E+08         0.73727E+06         0.00000E+00
    0.73727E+06        -0.41685E+08         0.00000E+00
    0.00000E+00         0.00000E+00        -0.10484E+08
 
   -0.10768E+08         0.72365E+06         0.00000E+00
    0.72365E+06        -0.42018E+08         0.00000E+00
    0.00000E+00         0.00000E+00        -0.10601E+08
 
   -0.10871E+08         0.71202E+06         0.00000E+00
    0.71202E+06        -0.42348E+08         0.00000E+00
    0.00000E+00         0.00000E+00        -0.10726E+08
 
   -0.10973E+08         0.70299E+06         0.00000E+00
    0.70299E+06        -0.42679E+08         0.00000E+00
    0.00000E+00         0.00000E+00        -0.10849E+08
 
   -0.11077E+08         0.69613E+06         0.00000E+00
    0.69613E+06        -0.43012E+08         0.00000E+00
    0.00000E+00         0.00000E+00        -0.10970E+08
 
   -0.11181E+08         0.69075E+06         0.00000E+00
    0.69075E+06        -0.43344E+08         0.00000E+00
    0.00000E+00         0.00000E+00        -0.11090E+08
 
   -0.11287E+08         0.68630E+06         0.00000E+00
    0.68630E+06        -0.43675E+08         0.00000E+00
    0.00000E+00         0.00000E+00        -0.11209E+08
 
   -0.11392E+08         0.68243E+06         0.00000E+00
    0.68243E+06        -0.44004E+08         0.00000E+00
    0.00000E+00         0.00000E+00        -0.11327E+08
 
   -0.11498E+08         0.67895E+06         0.00000E+00
    0.67895E+06        -0.44332E+08         0.00000E+00
    0.00000E+00         0.00000E+00        -0.11443E+08
 
   -0.11604E+08         0.67572E+06         0.00000E+00
    0.67572E+06        -0.44659E+08         0.00000E+00
    0.00000E+00         0.00000E+00        -0.11559E+08
 
   -0.11710E+08         0.67266E+06         0.00000E+00
    0.67266E+06        -0.44985E+08         0.00000E+00
    0.00000E+00         0.00000E+00        -0.11673E+08
 
   -0.11823E+08         0.66949E+06         0.00000E+00
    0.66949E+06        -0.45302E+08         0.00000E+00
    0.00000E+00         0.00000E+00        -0.11793E+08
 
   -0.11952E+08         0.66581E+06         0.00000E+00
    0.66581E+06        -0.45604E+08         0.00000E+00
    0.00000E+00         0.00000E+00        -0.11929E+08
 
   -0.12087E+08         0.66204E+06         0.00000E+00
    0.66204E+06        -0.45900E+08         0.00000E+00
    0.00000E+00         0.00000E+00        -0.12069E+08
 
   -0.12221E+08         0.65836E+06         0.00000E+00
    0.65836E+06        -0.46195E+08         0.00000E+00
    0.00000E+00         0.00000E+00        -0.12209E+08
 
   -0.12355E+08         0.65476E+06         0.00000E+00
    0.65476E+06        -0.46489E+08         0.00000E+00
    0.00000E+00         0.00000E+00        -0.12348E+08
 
   -0.12489E+08         0.65123E+06         0.00000E+00
    0.65123E+06        -0.46782E+08         0.00000E+00
    0.00000E+00         0.00000E+00        -0.12486E+08
 
   -0.12623E+08         0.64776E+06         0.00000E+00
    0.64776E+06        -0.47075E+08         0.00000E+00
    0.00000E+00         0.00000E+00        -0.12624E+08
 
   -0.12757E+08         0.64433E+06         0.00000E+00
    0.64433E+06        -0.47368E+08         0.00000E+00
    0.00000E+00         0.00000E+00        -0.12761E+08
 
   -0.12891E+08         0.64094E+06         0.00000E+00
    0.64094E+06        -0.47660E+08         0.00000E+00
    0.00000E+00         0.00000E+00        -0.12898E+08
 
   -0.13026E+08         0.63758E+06         0.00000E+00
    0.63758E+06        -0.47952E+08         0.00000E+00
    0.00000E+00         0.00000E+00        -0.13035E+08
 
   -0.13160E+08         0.63423E+06         0.00000E+00
    0.63423E+06        -0.48244E+08         0.00000E+00
    0.00000E+00         0.00000E+00        -0.13172E+08
 
   -0.13295E+08         0.63087E+06         0.00000E+00
    0.63087E+06        -0.48536E+08         0.00000E+00
    0.00000E+00         0.00000E+00        -0.13308E+08
 
   -0.13431E+08         0.62751E+06         0.00000E+00
    0.62751E+06        -0.48829E+08         0.00000E+00
    0.00000E+00         0.00000E+00        -0.13444E+08
 
   -0.13566E+08         0.62411E+06         0.00000E+00
    0.62411E+06        -0.49122E+08         0.00000E+00
    0.00000E+00         0.00000E+00        -0.13580E+08
 
   -0.13703E+08         0.62068E+06         0.00000E+00
    0.62068E+06        -0.49415E+08         0.00000E+00
    0.00000E+00         0.00000E+00        -0.13717E+08
 
   -0.13840E+08         0.61719E+06         0.00000E+00
    0.61719E+06        -0.49709E+08         0.00000E+00
    0.00000E+00         0.00000E+00        -0.13853E+08
 
   -0.13977E+08         0.61362E+06         0.00000E+00
    0.61362E+06        -0.50004E+08         0.00000E+00
    0.00000E+00         0.00000E+00        -0.13989E+08
 
   -0.14116E+08         0.60997E+06         0.00000E+00
    0.60997E+06        -0.50299E+08         0.00000E+00
    0.00000E+00         0.00000E+00        -0.14125E+08
 
   -0.14255E+08         0.60622E+06         0.00000E+00
    0.60622E+06        -0.50596E+08         0.00000E+00
    0.00000E+00         0.00000E+00        -0.14261E+08
 
   -0.14395E+08         0.60234E+06         0.00000E+00
    0.60234E+06        -0.50894E+08         0.00000E+00
    0.00000E+00         0.00000E+00        -0.14398E+08
 
   -0.14536E+08         0.59831E+06         0.00000E+00
    0.59831E+06        -0.51193E+08         0.00000E+00
    0.00000E+00         0.00000E+00        -0.14534E+08
 
   -0.14678E+08         0.59412E+06         0.00000E+00
    0.59412E+06        -0.51493E+08         0.00000E+00
    0.00000E+00         0.00000E+00        -0.14671E+08
 
   -0.14822E+08         0.58974E+06         0.00000E+00
    0.58974E+06        -0.51795E+08         0.00000E+00
    0.00000E+00         0.00000E+00        -0.14807E+08
 
   -0.14966E+08         0.58513E+06         0.00000E+00
    0.58513E+06        -0.52098E+08         0.00000E+00
    0.00000E+00         0.00000E+00        -0.14944E+08
 
   -0.15113E+08         0.58025E+06         0.00000E+00
    0.58025E+06        -0.52403E+08         0.00000E+00
    0.00000E+00         0.00000E+00        -0.15081E+08
 
   -0.15261E+08         0.57508E+06         0.00000E+00
    0.57508E+06        -0.52710E+08         0.00000E+00
    0.00000E+00         0.00000E+00        -0.15218E+08
 
   -0.15410E+08         0.56954E+06         0.00000E+00
    0.56954E+06        -0.53018E+08         0.00000E+00
    0.00000E+00         0.00000E+00        -0.15354E+08
 
   -0.15562E+08         0.56359E+06         0.00000E+00
    0.56359E+06        -0.53329E+08         0.00000E+00
    0.00000E+00         0.00000E+00        -0.15491E+08
 
   -0.15715E+08         0.55712E+06         0.00000E+00
    0.55712E+06        -0.53641E+08         0.00000E+00
    0.00000E+00         0.00000E+00        -0.15628E+08
 
   -0.15871E+08         0.55005E+06         0.00000E+00
    0.55005E+06        -0.53956E+08         0.00000E+00
    0.00000E+00         0.00000E+00        -0.15764E+08
 
   -0.16030E+08         0.54224E+06         0.00000E+00
    0.54224E+06        -0.54273E+08         0.00000E+00
    0.00000E+00         0.00000E+00        -0.15900E+08
 
   -0.16191E+08         0.53355E+06         0.00000E+00
    0.53355E+06        -0.54592E+08         0.00000E+00
    0.00000E+00         0.00000E+00        -0.16035E+08
 
   -0.16355E+08         0.52377E+06         0.00000E+00
    0.52377E+06        -0.54914E+08         0.00000E+00
    0.00000E+00         0.00000E+00        -0.16169E+08
 
   -0.16523E+08         0.51268E+06         0.00000E+00
    0.51268E+06        -0.55238E+08         0.00000E+00
    0.00000E+00         0.00000E+00        -0.16303E+08
 
   -0.16694E+08         0.50001E+06         0.00000E+00
    0.50001E+06        -0.55566E+08         0.00000E+00
    0.00000E+00         0.00000E+00        -0.16436E+08
 
   -0.16869E+08         0.48542E+06         0.00000E+00
    0.48542E+06        -0.55896E+08         0.00000E+00
    0.00000E+00         0.00000E+00        -0.16567E+08
 
   -0.17049E+08         0.46854E+06         0.00000E+00
    0.46854E+06        -0.56229E+08         0.00000E+00
    0.00000E+00         0.00000E+00        -0.16696E+08
 
   -0.17235E+08         0.44895E+06         0.00000E+00
    0.44895E+06        -0.56565E+08         0.00000E+00
    0.00000E+00         0.00000E+00        -0.16823E+08
 
   -0.17425E+08         0.42620E+06         0.00000E+00
    0.42620E+06        -0.56905E+08         0.00000E+00
    0.00000E+00         0.00000E+00        -0.16948E+08
 
   -0.17622E+08         0.39983E+06         0.00000E+00
    0.39983E+06        -0.57248E+08         0.00000E+00
    0.00000E+00         0.00000E+00        -0.17069E+08
 
   -0.17826E+08         0.36940E+06         0.00000E+00
    0.36940E+06        -0.57594E+08         0.00000E+00
    0.00000E+00         0.00000E+00        -0.17187E+08
 
   -0.18038E+08         0.33455E+06         0.00000E+00
    0.33455E+06        -0.57944E+08         0.00000E+00
    0.00000E+00         0.00000E+00        -0.17301E+08
 
   -0.18257E+08         0.29507E+06         0.00000E+00
    0.29507E+06        -0.58296E+08         0.00000E+00
    0.00000E+00         0.00000E+00        -0.17410E+08
 
   -0.18486E+08         0.25100E+06         0.00000E+00
    0.25100E+06        -0.58650E+08         0.00000E+00
    0.00000E+00         0.00000E+00        -0.17512E+08
 
   -0.18724E+08         0.20278E+06         0.00000E+00
    0.20278E+06        -0.59006E+08         0.00000E+00
    0.00000E+00         0.00000E+00        -0.17608E+08
 
   -0.18972E+08         0.15138E+06         0.00000E+00
    0.15138E+06        -0.59363E+08         0.00000E+00
    0.00000E+00         0.00000E+00        -0.17695E+08
 
   -0.19230E+08         0.98514E+05         0.00000E+00
    0.98514E+05        -0.59719E+08         0.00000E+00
    0.00000E+00         0.00000E+00        -0.17772E+08
 
   -0.19499E+08         0.46892E+05         0.00000E+00
    0.46892E+05        -0.60073E+08         0.00000E+00
    0.00000E+00         0.00000E+00        -0.17840E+08
 
   -0.19778E+08         0.63862E+03         0.00000E+00
    0.63862E+03        -0.60424E+08         0.00000E+00
    0.00000E+00         0.00000E+00        -0.17897E+08
 
   -0.20064E+08        -0.33955E+05         0.00000E+00
   -0.33955E+05        -0.60768E+08         0.00000E+00
    0.00000E+00         0.00000E+00        -0.17941E+08
 
   -0.20356E+08        -0.49340E+05         0.00000E+00
   -0.49340E+05        -0.61096E+08         0.00000E+00
    0.00000E+00         0.00000E+00        -0.17968E+08
 
   -0.20657E+08        -0.41697E+05         0.00000E+00
   -0.41697E+05        -0.61394E+08         0.00000E+00
    0.00000E+00         0.00000E+00        -0.17961E+08
 
   -0.20978E+08        -0.16063E+05         0.00000E+00
   -0.16063E+05        -0.61649E+08         0.00000E+00
    0.00000E+00         0.00000E+00        -0.17902E+08
 
   -0.40488E+07        -0.57629E+05         0.00000E+00
   -0.57629E+05        -0.28044E+08         0.00000E+00
    0.00000E+00         0.00000E+00        -0.86701E+07
 
   -0.44420E+07        -0.13738E+06         0.00000E+00
   -0.13738E+06        -0.28259E+08         0.00000E+00
    0.00000E+00         0.00000E+00        -0.86701E+07
 
   -0.48215E+07        -0.14603E+06         0.00000E+00
   -0.14603E+06        -0.28595E+08         0.00000E+00
    0.00000E+00         0.00000E+00        -0.86701E+07
 
   -0.51920E+07        -0.10389E+06         0.00000E+00
   -0.10389E+06        -0.28973E+08         0.00000E+00
    0.00000E+00         0.00000E+00        -0.86701E+07
 
   -0.55490E+07        -0.32928E+05         0.00000E+00
   -0.32928E+05        -0.29363E+08         0.00000E+00
    0.00000E+00         0.00000E+00        -0.86701E+07
 
   -0.58873E+07         0.49589E+05         0.00000E+00
    0.49589E+05        -0.29757E+08         0.00000E+00
    0.00000E+00         0.00000E+00        -0.86701E+07
 
   -0.62025E+07         0.13437E+06         0.00000E+00
    0.13437E+06        -0.30156E+08         0.00000E+00
    0.00000E+00         0.00000E+00        -0.86701E+07
 
   -0.64935E+07         0.21853E+06         0.00000E+00
    0.21853E+06        -0.30562E+08         0.00000E+00
    0.00000E+00         0.00000E+00        -0.86701E+07
 
   -0.67617E+07         0.30037E+06         0.00000E+00
    0.30037E+06        -0.30974E+08         0.00000E+00
    0.00000E+00         0.00000E+00        -0.86701E+07
 
   -0.70090E+07         0.37796E+06         0.00000E+00
    0.37796E+06        -0.31388E+08         0.00000E+00
    0.00000E+00         0.00000E+00        -0.86701E+07
 
   -0.72373E+07         0.44955E+06         0.00000E+00
    0.44955E+06        -0.31804E+08         0.00000E+00
    0.00000E+00         0.00000E+00        -0.86701E+07
 
   -0.74483E+07         0.51368E+06         0.00000E+00
    0.51368E+06        -0.32221E+08         0.00000E+00
    0.00000E+00         0.00000E+00        -0.86701E+07
 
   -0.76440E+07         0.56921E+06         0.00000E+00
    0.56921E+06        -0.32638E+08         0.00000E+00
    0.00000E+00         0.00000E+00        -0.86701E+07
 
   -0.78263E+07         0.61517E+06         0.00000E+00
    0.61517E+06        -0.33055E+08         0.00000E+00
    0.00000E+00         0.00000E+00        -0.86701E+07
 
   -0.79975E+07         0.65086E+06         0.00000E+00
    0.65086E+06        -0.33470E+08         0.00000E+00
    0.00000E+00         0.00000E+00        -0.86701E+07
 
   -0.81598E+07         0.67565E+06         0.00000E+00
    0.67565E+06        -0.33885E+08         0.00000E+00
    0.00000E+00         0.00000E+00        -0.86701E+07
 
   -0.83147E+07         0.68885E+06         0.00000E+00
    0.68885E+06        -0.34299E+08         0.00000E+00
    0.00000E+00         0.00000E+00        -0.86701E+07
 
   -0.84656E+07         0.68620E+06         0.00000E+00
    0.68620E+06        -0.34705E+08         0.00000E+00
    0.00000E+00         0.00000E+00        -0.86752E+07
 
   -0.86067E+07         0.68979E+06         0.00000E+00
    0.68979E+06        -0.35095E+08         0.00000E+00
    0.00000E+00         0.00000E+00        -0.87286E+07
 
   -0.87410E+07         0.69990E+06         0.00000E+00
    0.69990E+06        -0.35469E+08         0.00000E+00
    0.00000E+00         0.00000E+00        -0.88356E+07
 
   -0.88698E+07         0.70677E+06         0.00000E+00
    0.70677E+06        -0.35846E+08         0.00000E+00
    0.00000E+00         0.00000E+00        -0.89431E+07
 
   -0.89939E+07         0.71219E+06         0.00000E+00
    0.71219E+06        -0.36226E+08         0.00000E+00
    0.00000E+00         0.00000E+00        -0.90503E+07
 
   -0.91157E+07         0.71752E+06         0.00000E+00
    0.71752E+06        -0.36607E+08         0.00000E+00
    0.00000E+00         0.00000E+00        -0.91569E+07
 
   -0.92358E+07         0.72211E+06         0.00000E+00
    0.72211E+06        -0.36986E+08         0.00000E+00
    0.00000E+00         0.00000E+00        -0.92625E+07
 
   -0.93542E+07         0.72568E+06         0.00000E+00
    0.72568E+06        -0.37362E+08         0.00000E+00
    0.00000E+00         0.00000E+00        -0.93667E+07
 
   -0.94707E+07         0.72820E+06         0.00000E+00
    0.72820E+06        -0.37735E+08         0.00000E+00
    0.00000E+00         0.00000E+00        -0.94692E+07
 
   -0.95851E+07         0.72980E+06         0.00000E+00
    0.72980E+06        -0.38105E+08         0.00000E+00
    0.00000E+00         0.00000E+00        -0.95700E+07
 
   -0.96976E+07         0.73062E+06         0.00000E+00
    0.73062E+06        -0.38472E+08         0.00000E+00
    0.00000E+00         0.00000E+00        -0.96688E+07
 
   -0.98083E+07         0.73074E+06         0.00000E+00
    0.73074E+06        -0.38836E+08         0.00000E+00
    0.00000E+00         0.00000E+00        -0.97655E+07
 
   -0.99173E+07         0.73024E+06         0.00000E+00
    0.73024E+06        -0.39197E+08         0.00000E+00
    0.00000E+00         0.00000E+00        -0.98601E+07
 
   -0.10025E+08         0.72908E+06         0.00000E+00
    0.72908E+06        -0.39556E+08         0.00000E+00
    0.00000E+00         0.00000E+00        -0.99526E+07
 
   -0.10132E+08         0.72713E+06         0.00000E+00
    0.72713E+06        -0.39912E+08         0.00000E+00
    0.00000E+00         0.00000E+00        -0.10043E+08
 
   -0.10238E+08         0.72408E+06         0.00000E+00
    0.72408E+06        -0.40267E+08         0.00000E+00
    0.00000E+00         0.00000E+00        -0.10131E+08
 
   -0.10344E+08         0.71935E+06         0.00000E+00
    0.71935E+06        -0.40620E+08         0.00000E+00
    0.00000E+00         0.00000E+00        -0.10217E+08
 
   -0.10450E+08         0.71214E+06         0.00000E+00
    0.71214E+06        -0.40974E+08         0.00000E+00
    0.00000E+00         0.00000E+00        -0.10301E+08
 
   -0.10556E+08         0.70195E+06         0.00000E+00
    0.70195E+06        -0.41331E+08         0.00000E+00
    0.00000E+00         0.00000E+00        -0.10383E+08
 
   -0.10660E+08         0.68943E+06         0.00000E+00
    0.68943E+06        -0.41682E+08         0.00000E+00
    0.00000E+00         0.00000E+00        -0.10477E+08
 
   -0.10763E+08         0.67608E+06         0.00000E+00
    0.67608E+06        -0.42016E+08         0.00000E+00
    0.00000E+00         0.00000E+00        -0.10594E+08
 
   -0.10866E+08         0.66487E+06         0.00000E+00
    0.66487E+06        -0.42346E+08         0.00000E+00
    0.00000E+00         0.00000E+00        -0.10719E+08
 
   -0.10969E+08         0.65639E+06         0.00000E+00
    0.65639E+06        -0.42678E+08         0.00000E+00
    0.00000E+00         0.00000E+00        -0.10843E+08
 
   -0.11073E+08         0.65010E+06         0.00000E+00
    0.65010E+06        -0.43011E+08         0.00000E+00
    0.00000E+00         0.00000E+00        -0.10965E+08
 
   -0.11178E+08         0.64526E+06         0.00000E+00
    0.64526E+06        -0.43343E+08         0.00000E+00
    0.00000E+00         0.00000E+00        -0.11085E+08
 
   -0.11283E+08         0.64127E+06         0.00000E+00
    0.64127E+06        -0.43674E+08         0.00000E+00
    0.00000E+00         0.00000E+00        -0.11204E+08
 
   -0.11389E+08         0.63781E+06         0.00000E+00
    0.63781E+06        -0.44004E+08         0.00000E+00
    0.00000E+00         0.00000E+00        -0.11322E+08
 
   -0.11496E+08         0.63467E+06         0.00000E+00
    0.63467E+06        -0.44332E+08         0.00000E+00
    0.00000E+00         0.00000E+00        -0.11439E+08
 
   -0.11602E+08         0.63175E+06         0.00000E+00
    0.63175E+06        -0.44659E+08         0.00000E+00
    0.00000E+00         0.00000E+00        -0.11555E+08
 
   -0.11708E+08         0.62897E+06         0.00000E+00
    0.62897E+06        -0.44984E+08         0.00000E+00
    0.00000E+00         0.00000E+00        -0.11670E+08
 
   -0.11822E+08         0.62605E+06         0.00000E+00
    0.62605E+06        -0.45302E+08         0.00000E+00
    0.00000E+00         0.00000E+00        -0.11790E+08
 
   -0.11951E+08         0.62265E+06         0.00000E+00
    0.62265E+06        -0.45603E+08         0.00000E+00
    0.00000E+00         0.00000E+00        -0.11926E+08
 
   -0.12085E+08         0.61916E+06         0.00000E+00
    0.61916E+06        -0.45899E+08         0.00000E+00
    0.00000E+00         0.00000E+00        -0.12067E+08
 
   -0.12219E+08         0.61574E+06         0.00000E+00
    0.61574E+06        -0.46194E+08         0.00000E+00
    0.00000E+00         0.00000E+00        -0.12207E+08
 
   -0.12353E+08         0.61239E+06         0.00000E+00
    0.61239E+06        -0.46488E+08         0.00000E+00
    0.00000E+00         0.00000E+00        -0.12346E+08
 
   -0.12488E+08         0.60910E+06         0.00000E+00
    0.60910E+06        -0.46782E+08         0.00000E+00
    0.00000E+00         0.00000E+00        -0.12484E+08
 
   -0.12622E+08         0.60586E+06         0.00000E+00
    0.60586E+06        -0.47075E+08         0.00000E+00
    0.00000E+00         0.00000E+00        -0.12622E+08
 
   -0.12756E+08         0.60266E+06         0.00000E+00
    0.60266E+06        -0.47368E+08         0.00000E+00
    0.00000E+00         0.00000E+00        -0.12760E+08
 
   -0.12890E+08         0.59949E+06         0.00000E+00
    0.59949E+06        -0.47660E+08         0.00000E+00
    0.00000E+00         0.00000E+00        -0.12897E+08
 
   -0.13024E+08         0.59634E+06         0.00000E+00
    0.59634E+06        -0.47952E+08         0.00000E+00
    0.00000E+00         0.00000E+00        -0.13034E+08
 
   -0.13159E+08         0.59320E+06         0.00000E+00
    0.59320E+06        -0.48244E+08         0.00000E+00
    0.00000E+00         0.00000E+00        -0.13170E+08
 
   -0.13294E+08         0.59006E+06         0.00000E+00
    0.59006E+06        -0.48537E+08         0.00000E+00
    0.00000E+00         0.00000E+00        -0.13307E+08
 
   -0.13429E+08         0.58690E+06         0.00000E+00
    0.58690E+06        -0.48829E+08         0.00000E+00
    0.00000E+00         0.00000E+00        -0.13443E+08
 
   -0.13565E+08         0.58371E+06         0.00000E+00
    0.58371E+06        -0.49122E+08         0.00000E+00
    0.00000E+00         0.00000E+00        -0.13580E+08
 
   -0.13702E+08         0.58049E+06         0.00000E+00
    0.58049E+06        -0.49416E+08         0.00000E+00
    0.00000E+00         0.00000E+00        -0.13716E+08
 
   -0.13838E+08         0.57721E+06         0.00000E+00
    0.57721E+06        -0.49710E+08         0.00000E+00
    0.00000E+00         0.00000E+00        -0.13852E+08
 
   -0.13976E+08         0.57386E+06         0.00000E+00
    0.57386E+06        -0.50005E+08         0.00000E+00
    0.00000E+00         0.00000E+00        -0.13988E+08
 
   -0.14114E+08         0.57043E+06         0.00000E+00
    0.57043E+06        -0.50300E+08         0.00000E+00
    0.00000E+00         0.00000E+00        -0.14124E+08
 
   -0.14254E+08         0.56690E+06         0.00000E+00
    0.56690E+06        -0.50597E+08         0.00000E+00
    0.00000E+00         0.00000E+00        -0.14261E+08
 
   -0.14394E+08         0.56326E+06         0.00000E+00
    0.56326E+06        -0.50895E+08         0.00000E+00
    0.00000E+00         0.00000E+00        -0.14397E+08
 
   -0.14535E+08         0.55948E+06         0.00000E+00
    0.55948E+06        -0.51194E+08         0.00000E+00
    0.00000E+00         0.00000E+00        -0.14534E+08
 
   -0.14677E+08         0.55554E+06         0.00000E+00
    0.55554E+06        -0.51494E+08         0.00000E+00
    0.00000E+00         0.00000E+00        -0.14670E+08
 
   -0.14821E+08         0.55142E+06         0.00000E+00
    0.55142E+06        -0.51796E+08         0.00000E+00
    0.00000E+00         0.00000E+00        -0.14807E+08
 
   -0.14966E+08         0.54708E+06         0.00000E+00
    0.54708E+06        -0.52099E+08         0.00000E+00
    0.00000E+00         0.00000E+00        -0.14943E+08
 
   -0.15112E+08         0.54251E+06         0.00000E+00
    0.54251E+06        -0.52404E+08         0.00000E+00
    0.00000E+00         0.00000E+00        -0.15080E+08
 
   -0.15260E+08         0.53765E+06         0.00000E+00
    0.53765E+06        -0.52711E+08         0.00000E+00
    0.00000E+00         0.00000E+00        -0.15217E+08
 
   -0.15410E+08         0.53246E+06         0.00000E+00
    0.53246E+06        -0.53019E+08         0.00000E+00
    0.00000E+00         0.00000E+00        -0.15354E+08
 
   -0.15562E+08         0.52688E+06         0.00000E+00
    0.52688E+06        -0.53330E+08         0.00000E+00
    0.00000E+00         0.00000E+00        -0.15490E+08
 
   -0.15716E+08         0.52082E+06         0.00000E+00
    0.52082E+06        -0.53642E+08         0.00000E+00
    0.00000E+00         0.00000E+00        -0.15627E+08
 
   -0.15872E+08         0.51419E+06         0.00000E+00
    0.51419E+06        -0.53957E+08         0.00000E+00
    0.00000E+00         0.00000E+00        -0.15763E+08
 
   -0.16030E+08         0.50688E+06         0.00000E+00
    0.50688E+06        -0.54274E+08         0.00000E+00
    0.00000E+00         0.00000E+00        -0.15898E+08
 
   -0.16192E+08         0.49873E+06         0.00000E+00
    0.49873E+06        -0.54593E+08         0.00000E+00
    0.00000E+00         0.00000E+00        -0.16033E+08
 
   -0.16356E+08         0.48957E+06         0.00000E+00
    0.48957E+06        -0.54914E+08         0.00000E+00
    0.00000E+00         0.00000E+00        -0.16167E+08
 
   -0.16524E+08         0.47916E+06         0.00000E+00
    0.47916E+06        -0.55239E+08         0.00000E+00
    0.00000E+00         0.00000E+00        -0.16300E+08
 
   -0.16695E+08         0.46725E+06         0.00000E+00
    0.46725E+06        -0.55565E+08         0.00000E+00
    0.00000E+00         0.00000E+00        -0.16432E+08
 
   -0.16871E+08         0.45352E+06         0.00000E+00
    0.45352E+06        -0.55895E+08         0.00000E+00
    0.00000E+00         0.00000E+00        -0.16563E+08
 
   -0.17052E+08         0.43761E+06         0.00000E+00
    0.43761E+06        -0.56228E+08         0.00000E+00
    0.00000E+00         0.00000E+00        -0.16691E+08
 
   -0.17237E+08         0.41912E+06         0.00000E+00
    0.41912E+06        -0.56564E+08         0.00000E+00
    0.00000E+00         0.00000E+00        -0.16817E+08
 
   -0.17429E+08         0.39759E+06         0.00000E+00
    0.39759E+06        -0.56902E+08         0.00000E+00
    0.00000E+00         0.00000E+00        -0.16941E+08
 
   -0.17627E+08         0.37260E+06         0.00000E+00
    0.37260E+06        -0.57245E+08         0.00000E+00
    0.00000E+00         0.00000E+00        -0.17061E+08
 
   -0.17832E+08         0.34370E+06         0.00000E+00
    0.34370E+06        -0.57590E+08         0.00000E+00
    0.00000E+00         0.00000E+00        -0.17177E+08
 
   -0.18045E+08         0.31055E+06         0.00000E+00
    0.31055E+06        -0.57938E+08         0.00000E+00
    0.00000E+00         0.00000E+00        -0.17288E+08
 
   -0.18266E+08         0.27297E+06         0.00000E+00
    0.27297E+06        -0.58289E+08         0.00000E+00
    0.00000E+00         0.00000E+00        -0.17394E+08
 
   -0.18497E+08         0.23099E+06         0.00000E+00
    0.23099E+06        -0.58643E+08         0.00000E+00
    0.00000E+00         0.00000E+00        -0.17494E+08
 
   -0.18738E+08         0.18505E+06         0.00000E+00
    0.18505E+06        -0.58998E+08         0.00000E+00
    0.00000E+00         0.00000E+00        -0.17586E+08
 
   -0.18990E+08         0.13609E+06         0.00000E+00
    0.13609E+06        -0.59354E+08         0.00000E+00
    0.00000E+00         0.00000E+00        -0.17669E+08
 
   -0.19253E+08         0.85751E+05         0.00000E+00
    0.85751E+05        -0.59710E+08         0.00000E+00
    0.00000E+00         0.00000E+00        -0.17743E+08
 
   -0.19527E+08         0.36541E+05         0.00000E+00
    0.36541E+05        -0.60065E+08         0.00000E+00
    0.00000E+00         0.00000E+00        -0.17807E+08
 
   -0.19811E+08        -0.78150E+04         0.00000E+00
   -0.78150E+04        -0.60418E+08         0.00000E+00
    0.00000E+00         0.00000E+00        -0.17860E+08
 
   -0.20103E+08        -0.41382E+05         0.00000E+00
   -0.41382E+05        -0.60765E+08         0.00000E+00
    0.00000E+00         0.00000E+00        -0.17903E+08
 
   -0.20399E+08        -0.56120E+05         0.00000E+00
   -0.56120E+05        -0.61098E+08         0.00000E+00
    0.00000E+00         0.00000E+00        -0.17931E+08
 
   -0.20703E+08        -0.46878E+05         0.00000E+00
   -0.46878E+05        -0.61402E+08         0.00000E+00
    0.00000E+00         0.00000E+00        -0.17927E+08
 
   -0.21024E+08        -0.18046E+05         0.00000E+00
   -0.18046E+05        -0.61660E+08         0.00000E+00
    0.00000E+00         0.00000E+00        -0.17871E+08
 
   -0.39087E+07        -0.59821E+05         0.00000E+00
   -0.59821E+05        -0.28022E+08         0.00000E+00
    0.00000E+00         0.00000E+00        -0.86701E+07
 
   -0.43156E+07        -0.14300E+06         0.00000E+00
   -0.14300E+06        -0.28250E+08         0.00000E+00
    0.00000E+00         0.00000E+00        -0.86701E+07
 
   -0.47114E+07        -0.15224E+06         0.00000E+00
   -0.15224E+06        -0.28599E+08         0.00000E+00
    0.00000E+00         0.00000E+00        -0.86701E+07
 
   -0.50974E+07        -0.11237E+06         0.00000E+00
   -0.11237E+06        -0.28984E+08         0.00000E+00
    0.00000E+00         0.00000E+00        -0.86701E+07
 
   -0.54680E+07        -0.44385E+05         0.00000E+00
   -0.44385E+05        -0.29379E+08         0.00000E+00
    0.00000E+00         0.00000E+00        -0.86701E+07
 
   -0.58182E+07         0.33855E+05         0.00000E+00
    0.33855E+05        -0.29774E+08         0.00000E+00
    0.00000E+00         0.00000E+00        -0.86701E+07
 
   -0.61431E+07         0.11375E+06         0.00000E+00
    0.11375E+06        -0.30173E+08         0.00000E+00
    0.00000E+00         0.00000E+00        -0.86701E+07
 
   -0.64424E+07         0.19329E+06         0.00000E+00
    0.19329E+06        -0.30579E+08         0.00000E+00
    0.00000E+00         0.00000E+00        -0.86701E+07
 
   -0.67178E+07         0.27094E+06         0.00000E+00
    0.27094E+06        -0.30989E+08         0.00000E+00
    0.00000E+00         0.00000E+00        -0.86701E+07
 
   -0.69714E+07         0.34476E+06         0.00000E+00
    0.34476E+06        -0.31403E+08         0.00000E+00
    0.00000E+00         0.00000E+00        -0.86701E+07
 
   -0.72050E+07         0.41295E+06         0.00000E+00
    0.41295E+06        -0.31818E+08         0.00000E+00
    0.00000E+00         0.00000E+00        -0.86701E+07
 
   -0.74204E+07         0.47409E+06         0.00000E+00
    0.47409E+06        -0.32233E+08         0.00000E+00
    0.00000E+00         0.00000E+00        -0.86701E+07
 
   -0.76196E+07         0.52704E+06         0.00000E+00
    0.52704E+06        -0.32648E+08         0.00000E+00
    0.00000E+00         0.00000E+00        -0.86701E+07
 
   -0.78048E+07         0.57090E+06         0.00000E+00
    0.57090E+06        -0.33063E+08         0.00000E+00
    0.00000E+00         0.00000E+00        -0.86701E+07
 
   -0.79781E+07         0.60494E+06         0.00000E+00
    0.60494E+06        -0.33476E+08         0.00000E+00
    0.00000E+00         0.00000E+00        -0.86701E+07
 
   -0.81421E+07         0.62860E+06         0.00000E+00
    0.62860E+06        -0.33889E+08         0.00000E+00
    0.00000E+00         0.00000E+00        -0.86701E+07
 
   -0.82982E+07         0.64056E+06         0.00000E+00
    0.64056E+06        -0.34300E+08         0.00000E+00
    0.00000E+00         0.00000E+00        -0.86701E+07
 
   -0.84496E+07         0.63920E+06         0.00000E+00
    0.63920E+06        -0.34705E+08         0.00000E+00
    0.00000E+00         0.00000E+00        -0.86707E+07
 
   -0.85945E+07         0.63859E+06         0.00000E+00
    0.63859E+06        -0.35094E+08         0.00000E+00
    0.00000E+00         0.00000E+00        -0.87214E+07
 
   -0.87300E+07         0.64974E+06         0.00000E+00
    0.64974E+06        -0.35471E+08         0.00000E+00
    0.00000E+00         0.00000E+00        -0.88241E+07
 
   -0.88599E+07         0.65538E+06         0.00000E+00
    0.65538E+06        -0.35847E+08         0.00000E+00
    0.00000E+00         0.00000E+00        -0.89312E+07
 
   -0.89849E+07         0.66079E+06         0.00000E+00
    0.66079E+06        -0.36227E+08         0.00000E+00
    0.00000E+00         0.00000E+00        -0.90382E+07
 
   -0.91076E+07         0.66629E+06         0.00000E+00
    0.66629E+06        -0.36608E+08         0.00000E+00
    0.00000E+00         0.00000E+00        -0.91448E+07
 
   -0.92285E+07         0.67107E+06         0.00000E+00
    0.67107E+06        -0.36987E+08         0.00000E+00
    0.00000E+00         0.00000E+00        -0.92504E+07
 
   -0.93475E+07         0.67477E+06         0.00000E+00
    0.67477E+06        -0.37363E+08         0.00000E+00
    0.00000E+00         0.00000E+00        -0.93548E+07
 
   -0.94644E+07         0.67741E+06         0.00000E+00
    0.67741E+06        -0.37736E+08         0.00000E+00
    0.00000E+00         0.00000E+00        -0.94576E+07
 
   -0.95792E+07         0.67913E+06         0.00000E+00
    0.67913E+06        -0.38106E+08         0.00000E+00
    0.00000E+00         0.00000E+00        -0.95587E+07
 
   -0.96919E+07         0.68007E+06         0.00000E+00
    0.68007E+06        -0.38472E+08         0.00000E+00
    0.00000E+00         0.00000E+00        -0.96579E+07
 
   -0.98027E+07         0.68036E+06         0.00000E+00
    0.68036E+06        -0.38836E+08         0.00000E+00
    0.00000E+00         0.00000E+00        -0.97550E+07
 
   -0.99117E+07         0.68006E+06         0.00000E+00
    0.68006E+06        -0.39197E+08         0.00000E+00
    0.00000E+00         0.00000E+00        -0.98501E+07
 
   -0.10019E+08         0.67916E+06         0.00000E+00
    0.67916E+06        -0.39556E+08         0.00000E+00
    0.00000E+00         0.00000E+00        -0.99430E+07
 
   -0.10126E+08         0.67756E+06         0.00000E+00
    0.67756E+06        -0.39912E+08         0.00000E+00
    0.00000E+00         0.00000E+00        -0.10034E+08
 
   -0.10232E+08         0.67494E+06         0.00000E+00
    0.67494E+06        -0.40266E+08         0.00000E+00
    0.00000E+00         0.00000E+00        -0.10122E+08
 
   -0.10338E+08         0.67071E+06         0.00000E+00
    0.67071E+06        -0.40619E+08         0.00000E+00
    0.00000E+00         0.00000E+00        -0.10209E+08
 
   -0.10444E+08         0.66399E+06         0.00000E+00
    0.66399E+06        -0.40972E+08         0.00000E+00
    0.00000E+00         0.00000E+00        -0.10293E+08
 
   -0.10550E+08         0.65409E+06         0.00000E+00
    0.65409E+06        -0.41329E+08         0.00000E+00
    0.00000E+00         0.00000E+00        -0.10376E+08
 
   -0.10654E+08         0.64164E+06         0.00000E+00
    0.64164E+06        -0.41679E+08         0.00000E+00
    0.00000E+00         0.00000E+00        -0.10470E+08
 
   -0.10757E+08         0.62856E+06         0.00000E+00
    0.62856E+06        -0.42013E+08         0.00000E+00
    0.00000E+00         0.00000E+00        -0.10588E+08
 
   -0.10860E+08         0.61779E+06         0.00000E+00
    0.61779E+06        -0.42344E+08         0.00000E+00
    0.00000E+00         0.00000E+00        -0.10713E+08
 
   -0.10964E+08         0.60988E+06         0.00000E+00
    0.60988E+06        -0.42677E+08         0.00000E+00
    0.00000E+00         0.00000E+00        -0.10837E+08
 
   -0.11068E+08         0.60419E+06         0.00000E+00
    0.60419E+06        -0.43010E+08         0.00000E+00
    0.00000E+00         0.00000E+00        -0.10959E+08
 
   -0.11174E+08         0.59986E+06         0.00000E+00
    0.59986E+06        -0.43342E+08         0.00000E+00
    0.00000E+00         0.00000E+00        -0.11080E+08
 
   -0.11280E+08         0.59633E+06         0.00000E+00
    0.59633E+06        -0.43673E+08         0.00000E+00
    0.00000E+00         0.00000E+00        -0.11200E+08
 
   -0.11386E+08         0.59326E+06         0.00000E+00
    0.59326E+06        -0.44003E+08         0.00000E+00
    0.00000E+00         0.00000E+00        -0.11318E+08
 
   -0.11493E+08         0.59046E+06         0.00000E+00
    0.59046E+06        -0.44331E+08         0.00000E+00
    0.00000E+00         0.00000E+00        -0.11435E+08
 
   -0.11600E+08         0.58783E+06         0.00000E+00
    0.58783E+06        -0.44658E+08         0.00000E+00
    0.00000E+00         0.00000E+00        -0.11551E+08
 
   -0.11706E+08         0.58532E+06         0.00000E+00
    0.58532E+06        -0.44984E+08         0.00000E+00
    0.00000E+00         0.00000E+00        -0.11666E+08
 
   -0.11820E+08         0.58265E+06         0.00000E+00
    0.58265E+06        -0.45301E+08         0.00000E+00
    0.00000E+00         0.00000E+00        -0.11788E+08
 
   -0.11950E+08         0.57953E+06         0.00000E+00
    0.57953E+06        -0.45603E+08         0.00000E+00
    0.00000E+00         0.00000E+00        -0.11924E+08
 
   -0.12084E+08         0.57631E+06         0.00000E+00
    0.57631E+06        -0.45899E+08         0.00000E+00
    0.00000E+00         0.00000E+00        -0.12065E+08
 
   -0.12218E+08         0.57315E+06         0.00000E+00
    0.57315E+06        -0.46194E+08         0.00000E+00
    0.00000E+00         0.00000E+00        -0.12204E+08
 
   -0.12352E+08         0.57005E+06         0.00000E+00
    0.57005E+06        -0.46488E+08         0.00000E+00
    0.00000E+00         0.00000E+00        -0.12344E+08
 
   -0.12486E+08         0.56699E+06         0.00000E+00
    0.56699E+06        -0.46782E+08         0.00000E+00
    0.00000E+00         0.00000E+00        -0.12482E+08
 
   -0.12620E+08         0.56398E+06         0.00000E+00
    0.56398E+06        -0.47075E+08         0.00000E+00
    0.00000E+00         0.00000E+00        -0.12620E+08
 
   -0.12755E+08         0.56101E+06         0.00000E+00
    0.56101E+06        -0.47368E+08         0.00000E+00
    0.00000E+00         0.00000E+00        -0.12758E+08
 
   -0.12889E+08         0.55806E+06         0.00000E+00
    0.55806E+06        -0.47660E+08         0.00000E+00
    0.00000E+00         0.00000E+00        -0.12895E+08
 
   -0.13023E+08         0.55512E+06         0.00000E+00
    0.55512E+06        -0.47952E+08         0.00000E+00
    0.00000E+00         0.00000E+00        -0.13033E+08
 
   -0.13158E+08         0.55219E+06         0.00000E+00
    0.55219E+06        -0.48245E+08         0.00000E+00
    0.00000E+00         0.00000E+00        -0.13169E+08
 
   -0.13293E+08         0.54926E+06         0.00000E+00
    0.54926E+06        -0.48537E+08         0.00000E+00
    0.00000E+00         0.00000E+00        -0.13306E+08
 
   -0.13428E+08         0.54631E+06         0.00000E+00
    0.54631E+06        -0.48830E+08         0.00000E+00
    0.00000E+00         0.00000E+00        -0.13442E+08
 
   -0.13564E+08         0.54334E+06         0.00000E+00
    0.54334E+06        -0.49123E+08         0.00000E+00
    0.00000E+00         0.00000E+00        -0.13579E+08
 
   -0.13700E+08         0.54032E+06         0.00000E+00
    0.54032E+06        -0.49416E+08         0.00000E+00
    0.00000E+00         0.00000E+00        -0.13715E+08
 
   -0.13837E+08         0.53726E+06         0.00000E+00
    0.53726E+06        -0.49710E+08         0.00000E+00
    0.00000E+00         0.00000E+00        -0.13851E+08
 
   -0.13975E+08         0.53413E+06         0.00000E+00
    0.53413E+06        -0.50005E+08         0.00000E+00
    0.00000E+00         0.00000E+00        -0.13988E+08
 
   -0.14113E+08         0.53092E+06         0.00000E+00
    0.53092E+06        -0.50301E+08         0.00000E+00
    0.00000E+00         0.00000E+00        -0.14124E+08
 
   -0.14253E+08         0.52762E+06         0.00000E+00
    0.52762E+06        -0.50598E+08         0.00000E+00
    0.00000E+00         0.00000E+00        -0.14260E+08
 
   -0.14393E+08         0.52421E+06         0.00000E+00
    0.52421E+06        -0.50896E+08         0.00000E+00
    0.00000E+00         0.00000E+00        -0.14397E+08
 
   -0.14534E+08         0.52067E+06         0.00000E+00
    0.52067E+06        -0.51195E+08         0.00000E+00
    0.00000E+00         0.00000E+00        -0.14533E+08
 
   -0.14677E+08         0.51698E+06         0.00000E+00
    0.51698E+06        -0.51495E+08         0.00000E+00
    0.00000E+00         0.00000E+00        -0.14670E+08
 
   -0.14820E+08         0.51313E+06         0.00000E+00
    0.51313E+06        -0.51797E+08         0.00000E+00
    0.00000E+00         0.00000E+00        -0.14806E+08
 
   -0.14965E+08         0.50908E+06         0.00000E+00
    0.50908E+06        -0.52101E+08         0.00000E+00
    0.00000E+00         0.00000E+00        -0.14943E+08
 
   -0.15112E+08         0.50480E+06         0.00000E+00
    0.50480E+06        -0.52406E+08         0.00000E+00
    0.00000E+00         0.00000E+00        -0.15080E+08
 
   -0.15260E+08         0.50027E+06         0.00000E+00
    0.50027E+06        -0.52712E+08         0.00000E+00
    0.00000E+00         0.00000E+00        -0.15216E+08
 
   -0.15410E+08         0.49542E+06         0.00000E+00
    0.49542E+06        -0.53021E+08         0.00000E+00
    0.00000E+00         0.00000E+00        -0.15353E+08
 
   -0.15562E+08         0.49021E+06         0.00000E+00
    0.49021E+06        -0.53331E+08         0.00000E+00
    0.00000E+00         0.00000E+00        -0.15489E+08
 
   -0.15716E+08         0.48455E+06         0.00000E+00
    0.48455E+06        -0.53644E+08         0.00000E+00
    0.00000E+00         0.00000E+00        -0.15626E+08
 
   -0.15872E+08         0.47837E+06         0.00000E+00
    0.47837E+06        -0.53958E+08         0.00000E+00
    0.00000E+00         0.00000E+00        -0.15761E+08
 
   -0.16031E+08         0.47155E+06         0.00000E+00
    0.47155E+06        -0.54275E+08         0.00000E+00
    0.00000E+00         0.00000E+00        -0.15897E+08
 
   -0.16192E+08         0.46395E+06         0.00000E+00
    0.46395E+06        -0.54594E+08         0.00000E+00
    0.00000E+00         0.00000E+00        -0.16031E+08
 
   -0.16357E+08         0.45540E+06         0.00000E+00
    0.45540E+06        -0.54915E+08         0.00000E+00
    0.00000E+00         0.00000E+00        -0.16165E+08
 
   -0.16525E+08         0.44568E+06         0.00000E+00
    0.44568E+06        -0.55239E+08         0.00000E+00
    0.00000E+00         0.00000E+00        -0.16298E+08
 
   -0.16697E+08         0.43455E+06         0.00000E+00
    0.43455E+06        -0.55566E+08         0.00000E+00
    0.00000E+00         0.00000E+00        -0.16429E+08
 
   -0.16873E+08         0.42170E+06         0.00000E+00
    0.42170E+06        -0.55895E+08         0.00000E+00
    0.00000E+00         0.00000E+00        -0.16559E+08
 
   -0.17054E+08         0.40677E+06         0.00000E+00
    0.40677E+06        -0.56227E+08         0.00000E+00
    0.00000E+00         0.00000E+00        -0.16687E+08
 
   -0.17241E+08         0.38939E+06         0.00000E+00
    0.38939E+06        -0.56562E+08         0.00000E+00
    0.00000E+00         0.00000E+00        -0.16812E+08
 
   -0.17433E+08         0.36913E+06         0.00000E+00
    0.36913E+06        -0.56900E+08         0.00000E+00
    0.00000E+00         0.00000E+00        -0.16934E+08
 
   -0.17632E+08         0.34555E+06         0.00000E+00
    0.34555E+06        -0.57241E+08         0.00000E+00
    0.00000E+00         0.00000E+00        -0.17052E+08
 
   -0.17838E+08         0.31825E+06         0.00000E+00
    0.31825E+06        -0.57586E+08         0.00000E+00
    0.00000E+00         0.00000E+00        -0.17167E+08
 
   -0.18052E+08         0.28689E+06         0.00000E+00
    0.28689E+06        -0.57933E+08         0.00000E+00
    0.00000E+00         0.00000E+00        -0.17276E+08
 
   -0.18276E+08         0.25129E+06         0.00000E+00
    0.25129E+06        -0.58283E+08         0.00000E+00
    0.00000E+00         0.00000E+00        -0.17379E+08
 
   -0.18509E+08         0.21150E+06         0.00000E+00
    0.21150E+06        -0.58636E+08         0.00000E+00
    0.00000E+00         0.00000E+00        -0.17476E+08
 
   -0.18753E+08         0.16797E+06         0.00000E+00
    0.16797E+06        -0.58990E+08         0.00000E+00
    0.00000E+00         0.00000E+00        -0.17565E+08
 
   -0.19008E+08         0.12159E+06         0.00000E+00
    0.12159E+06        -0.59346E+08         0.00000E+00
    0.00000E+00         0.00000E+00        -0.17644E+08
 
   -0.19276E+08         0.73918E+05         0.00000E+00
    0.73918E+05        -0.59702E+08         0.00000E+00
    0.00000E+00         0.00000E+00        -0.17714E+08
 
   -0.19555E+08         0.27265E+05         0.00000E+00
    0.27265E+05        -0.60057E+08         0.00000E+00
    0.00000E+00         0.00000E+00        -0.17774E+08
 
   -0.19844E+08        -0.15072E+05         0.00000E+00
   -0.15072E+05        -0.60412E+08         0.00000E+00
    0.00000E+00         0.00000E+00        -0.17824E+08
 
   -0.20142E+08        -0.47669E+05         0.00000E+00
   -0.47669E+05        -0.60762E+08         0.00000E+00
    0.00000E+00         0.00000E+00        -0.17865E+08
 
   -0.20443E+08        -0.62136E+05         0.00000E+00
   -0.62136E+05        -0.61100E+08         0.00000E+00
    0.00000E+00         0.00000E+00        -0.17893E+08
 
   -0.20750E+08        -0.51762E+05         0.00000E+00
   -0.51762E+05        -0.61409E+08         0.00000E+00
    0.00000E+00         0.00000E+00        -0.17892E+08
 
   -0.21072E+08        -0.19980E+05         0.00000E+00
   -0.19980E+05        -0.61671E+08         0.00000E+00
    0.00000E+00         0.00000E+00        -0.17839E+08
 
   -0.37589E+07        -0.59939E+05         0.00000E+00
   -0.59939E+05        -0.27999E+08         0.00000E+00
    0.00000E+00         0.00000E+00        -0.86701E+07
 
   -0.41859E+07        -0.14514E+06         0.00000E+00
   -0.14514E+06        -0.28240E+08         0.00000E+00
    0.00000E+00         0.00000E+00        -0.86701E+07
 
   -0.46008E+07        -0.15484E+06         0.00000E+00
   -0.15484E+06        -0.28603E+08         0.00000E+00
    0.00000E+00         0.00000E+00        -0.86701E+07
 
   -0.50036E+07        -0.11792E+06         0.00000E+00
   -0.11792E+06        -0.28996E+08         0.00000E+00
    0.00000E+00         0.00000E+00        -0.86701E+07
 
   -0.53887E+07        -0.53168E+05         0.00000E+00
   -0.53168E+05        -0.29394E+08         0.00000E+00
    0.00000E+00         0.00000E+00        -0.86701E+07
 
   -0.57508E+07         0.20260E+05         0.00000E+00
    0.20260E+05        -0.29789E+08         0.00000E+00
    0.00000E+00         0.00000E+00        -0.86701E+07
 
   -0.60854E+07         0.94906E+05         0.00000E+00
    0.94906E+05        -0.30188E+08         0.00000E+00
    0.00000E+00         0.00000E+00        -0.86701E+07
 
   -0.63929E+07         0.16958E+06         0.00000E+00
    0.16958E+06        -0.30594E+08         0.00000E+00
    0.00000E+00         0.00000E+00        -0.86701E+07
 
   -0.66755E+07         0.24285E+06         0.00000E+00
    0.24285E+06        -0.31004E+08         0.00000E+00
    0.00000E+00         0.00000E+00        -0.86701E+07
 
   -0.69353E+07         0.31271E+06         0.00000E+00
    0.31271E+06        -0.31417E+08         0.00000E+00
    0.00000E+00         0.00000E+00        -0.86701E+07
 
   -0.71741E+07         0.37732E+06         0.00000E+00
    0.37732E+06        -0.31830E+08         0.00000E+00
    0.00000E+00         0.00000E+00        -0.86701E+07
 
   -0.73937E+07         0.43527E+06         0.00000E+00
    0.43527E+06        -0.32244E+08         0.00000E+00
    0.00000E+00         0.00000E+00        -0.86701E+07
 
   -0.75963E+07         0.48549E+06         0.00000E+00
    0.48549E+06        -0.32658E+08         0.00000E+00
    0.00000E+00         0.00000E+00        -0.86701E+07
 
   -0.77840E+07         0.52710E+06         0.00000E+00
    0.52710E+06        -0.33070E+08         0.00000E+00
    0.00000E+00         0.00000E+00        -0.86701E+07
 
   -0.79594E+07         0.55938E+06         0.00000E+00
    0.55938E+06        -0.33482E+08         0.00000E+00
    0.00000E+00         0.00000E+00        -0.86701E+07
 
   -0.81247E+07         0.58178E+06         0.00000E+00
    0.58178E+06        -0.33892E+08         0.00000E+00
    0.00000E+00         0.00000E+00        -0.86701E+07
 
   -0.82823E+07         0.59259E+06         0.00000E+00
    0.59259E+06        -0.34301E+08         0.00000E+00
    0.00000E+00         0.00000E+00        -0.86701E+07
 
   -0.84365E+07         0.59256E+06         0.00000E+00
    0.59256E+06        -0.34706E+08         0.00000E+00
    0.00000E+00         0.00000E+00        -0.86701E+07
 
   -0.85832E+07         0.58804E+06         0.00000E+00
    0.58804E+06        -0.35095E+08         0.00000E+00
    0.00000E+00         0.00000E+00        -0.87158E+07
 
   -0.87195E+07         0.59958E+06         0.00000E+00
    0.59958E+06        -0.35472E+08         0.00000E+00
    0.00000E+00         0.00000E+00        -0.88125E+07
 
   -0.88500E+07         0.60421E+06         0.00000E+00
    0.60421E+06        -0.35848E+08         0.00000E+00
    0.00000E+00         0.00000E+00        -0.89192E+07
 
   -0.89760E+07         0.60958E+06         0.00000E+00
    0.60958E+06        -0.36229E+08         0.00000E+00
    0.00000E+00         0.00000E+00        -0.90261E+07
 
   -0.90997E+07         0.61524E+06         0.00000E+00
    0.61524E+06        -0.36609E+08         0.00000E+00
    0.00000E+00         0.00000E+00        -0.91327E+07
 
   -0.92215E+07         0.62017E+06         0.00000E+00
    0.62017E+06        -0.36988E+08         0.00000E+00
    0.00000E+00         0.00000E+00        -0.92385E+07
 
   -0.93411E+07         0.62397E+06         0.00000E+00
    0.62397E+06        -0.37364E+08         0.00000E+00
    0.00000E+00         0.00000E+00        -0.93430E+07
 
   -0.94585E+07         0.62670E+06         0.00000E+00
    0.62670E+06        -0.37736E+08         0.00000E+00
    0.00000E+00         0.00000E+00        -0.94462E+07
 
   -0.95736E+07         0.62851E+06         0.00000E+00
    0.62851E+06        -0.38106E+08         0.00000E+00
    0.00000E+00         0.00000E+00        -0.95476E+07
 
   -0.96865E+07         0.62956E+06         0.00000E+00
    0.62956E+06        -0.38472E+08         0.00000E+00
    0.00000E+00         0.00000E+00        -0.96471E+07
 
   -0.97974E+07         0.62999E+06         0.00000E+00
    0.62999E+06        -0.38836E+08         0.00000E+00
    0.00000E+00         0.00000E+00        -0.97447E+07
 
   -0.99065E+07         0.62987E+06         0.00000E+00
    0.62987E+06        -0.39197E+08         0.00000E+00
    0.00000E+00         0.00000E+00        -0.98402E+07
 
   -0.10014E+08         0.62923E+06         0.00000E+00
    0.62923E+06        -0.39556E+08         0.00000E+00
    0.00000E+00         0.00000E+00        -0.99336E+07
 
   -0.10120E+08         0.62795E+06         0.00000E+00
    0.62795E+06        -0.39912E+08         0.00000E+00
    0.00000E+00         0.00000E+00        -0.10025E+08
 
   -0.10226E+08         0.62575E+06         0.00000E+00
    0.62575E+06        -0.40266E+08         0.00000E+00
    0.00000E+00         0.00000E+00        -0.10114E+08
 
   -0.10332E+08         0.62205E+06         0.00000E+00
    0.62205E+06        -0.40618E+08         0.00000E+00
    0.00000E+00         0.00000E+00        -0.10201E+08
 
   -0.10438E+08         0.61585E+06         0.00000E+00
    0.61585E+06        -0.40971E+08         0.00000E+00
    0.00000E+00         0.00000E+00        -0.10286E+08
 
   -0.10544E+08         0.60628E+06         0.00000E+00
    0.60628E+06        -0.41327E+08         0.00000E+00
    0.00000E+00         0.00000E+00        -0.10369E+08
 
   -0.10648E+08         0.59388E+06         0.00000E+00
    0.59388E+06        -0.41677E+08         0.00000E+00
    0.00000E+00         0.00000E+00        -0.10463E+08
 
   -0.10752E+08         0.58109E+06         0.00000E+00
    0.58109E+06        -0.42011E+08         0.00000E+00
    0.00000E+00         0.00000E+00        -0.10582E+08
 
   -0.10855E+08         0.57078E+06         0.00000E+00
    0.57078E+06        -0.42342E+08         0.00000E+00
    0.00000E+00         0.00000E+00        -0.10707E+08
 
   -0.10959E+08         0.56348E+06         0.00000E+00
    0.56348E+06        -0.42675E+08         0.00000E+00
    0.00000E+00         0.00000E+00        -0.10831E+08
 
   -0.11064E+08         0.55839E+06         0.00000E+00
    0.55839E+06        -0.43009E+08         0.00000E+00
    0.00000E+00         0.00000E+00        -0.10954E+08
 
   -0.11170E+08         0.55458E+06         0.00000E+00
    0.55458E+06        -0.43341E+08         0.00000E+00
    0.00000E+00         0.00000E+00        -0.11075E+08
 
   -0.11277E+08         0.55148E+06         0.00000E+00
    0.55148E+06        -0.43673E+08         0.00000E+00
    0.00000E+00         0.00000E+00        -0.11195E+08
 
   -0.11384E+08         0.54878E+06         0.00000E+00
    0.54878E+06        -0.44002E+08         0.00000E+00
    0.00000E+00         0.00000E+00        -0.11314E+08
 
   -0.11491E+08         0.54631E+06         0.00000E+00
    0.54631E+06        -0.44331E+08         0.00000E+00
    0.00000E+00         0.00000E+00        -0.11431E+08
 
   -0.11598E+08         0.54397E+06         0.00000E+00
    0.54397E+06        -0.44658E+08         0.00000E+00
    0.00000E+00         0.00000E+00        -0.11547E+08
 
   -0.11705E+08         0.54172E+06         0.00000E+00
    0.54172E+06        -0.44983E+08         0.00000E+00
    0.00000E+00         0.00000E+00        -0.11663E+08
 
   -0.11819E+08         0.53929E+06         0.00000E+00
    0.53929E+06        -0.45300E+08         0.00000E+00
    0.00000E+00         0.00000E+00        -0.11785E+08
 
   -0.11949E+08         0.53643E+06         0.00000E+00
    0.53643E+06        -0.45602E+08         0.00000E+00
    0.00000E+00         0.00000E+00        -0.11922E+08
 
   -0.12083E+08         0.53348E+06         0.00000E+00
    0.53348E+06        -0.45898E+08         0.00000E+00
    0.00000E+00         0.00000E+00        -0.12062E+08
 
   -0.12217E+08         0.53058E+06         0.00000E+00
    0.53058E+06        -0.46193E+08         0.00000E+00
    0.00000E+00         0.00000E+00        -0.12202E+08
 
   -0.12351E+08         0.52772E+06         0.00000E+00
    0.52772E+06        -0.46488E+08         0.00000E+00
    0.00000E+00         0.00000E+00        -0.12342E+08
 
   -0.12485E+08         0.52491E+06         0.00000E+00
    0.52491E+06        -0.46781E+08         0.00000E+00
    0.00000E+00         0.00000E+00        -0.12480E+08
 
   -0.12619E+08         0.52213E+06         0.00000E+00
    0.52213E+06        -0.47075E+08         0.00000E+00
    0.00000E+00         0.00000E+00        -0.12619E+08
 
   -0.12753E+08         0.51937E+06         0.00000E+00
    0.51937E+06        -0.47368E+08         0.00000E+00
    0.00000E+00         0.00000E+00        -0.12757E+08
 
   -0.12888E+08         0.51664E+06         0.00000E+00
    0.51664E+06        -0.47660E+08         0.00000E+00
    0.00000E+00         0.00000E+00        -0.12894E+08
 
   -0.13022E+08         0.51392E+06         0.00000E+00
    0.51392E+06        -0.47952E+08         0.00000E+00
    0.00000E+00         0.00000E+00        -0.13031E+08
 
   -0.13157E+08         0.51120E+06         0.00000E+00
    0.51120E+06        -0.48245E+08         0.00000E+00
    0.00000E+00         0.00000E+00        -0.13168E+08
 
   -0.13292E+08         0.50848E+06         0.00000E+00
    0.50848E+06        -0.48537E+08         0.00000E+00
    0.00000E+00         0.00000E+00        -0.13305E+08
 
   -0.13427E+08         0.50574E+06         0.00000E+00
    0.50574E+06        -0.48830E+08         0.00000E+00
    0.00000E+00         0.00000E+00        -0.13442E+08
 
   -0.13563E+08         0.50298E+06         0.00000E+00
    0.50298E+06        -0.49123E+08         0.00000E+00
    0.00000E+00         0.00000E+00        -0.13578E+08
 
   -0.13699E+08         0.50018E+06         0.00000E+00
    0.50018E+06        -0.49417E+08         0.00000E+00
    0.00000E+00         0.00000E+00        -0.13714E+08
 
   -0.13836E+08         0.49733E+06         0.00000E+00
    0.49733E+06        -0.49711E+08         0.00000E+00
    0.00000E+00         0.00000E+00        -0.13851E+08
 
   -0.13974E+08         0.49442E+06         0.00000E+00
    0.49442E+06        -0.50006E+08         0.00000E+00
    0.00000E+00         0.00000E+00        -0.13987E+08
 
   -0.14112E+08         0.49143E+06         0.00000E+00
    0.49143E+06        -0.50302E+08         0.00000E+00
    0.00000E+00         0.00000E+00        -0.14124E+08
 
   -0.14252E+08         0.48836E+06         0.00000E+00
    0.48836E+06        -0.50599E+08         0.00000E+00
    0.00000E+00         0.00000E+00        -0.14260E+08
 
   -0.14392E+08         0.48518E+06         0.00000E+00
    0.48518E+06        -0.50897E+08         0.00000E+00
    0.00000E+00         0.00000E+00        -0.14396E+08
 
   -0.14534E+08         0.48189E+06         0.00000E+00
    0.48189E+06        -0.51196E+08         0.00000E+00
    0.00000E+00         0.00000E+00        -0.14533E+08
 
   -0.14676E+08         0.47846E+06         0.00000E+00
    0.47846E+06        -0.51497E+08         0.00000E+00
    0.00000E+00         0.00000E+00        -0.14669E+08
 
   -0.14820E+08         0.47487E+06         0.00000E+00
    0.47487E+06        -0.51798E+08         0.00000E+00
    0.00000E+00         0.00000E+00        -0.14806E+08
 
   -0.14965E+08         0.47111E+06         0.00000E+00
    0.47111E+06        -0.52102E+08         0.00000E+00
    0.00000E+00         0.00000E+00        -0.14943E+08
 
   -0.15112E+08         0.46713E+06         0.00000E+00
    0.46713E+06        -0.52407E+08         0.00000E+00
    0.00000E+00         0.00000E+00        -0.15079E+08
 
   -0.15260E+08         0.46292E+06         0.00000E+00
    0.46292E+06        -0.52714E+08         0.00000E+00
    0.00000E+00         0.00000E+00        -0.15216E+08
 
   -0.15410E+08         0.45842E+06         0.00000E+00
    0.45842E+06        -0.53022E+08         0.00000E+00
    0.00000E+00         0.00000E+00        -0.15353E+08
 
   -0.15562E+08         0.45358E+06         0.00000E+00
    0.45358E+06        -0.53333E+08         0.00000E+00
    0.00000E+00         0.00000E+00        -0.15489E+08
 
   -0.15716E+08         0.44833E+06         0.00000E+00
    0.44833E+06        -0.53645E+08         0.00000E+00
    0.00000E+00         0.00000E+00        -0.15625E+08
 
   -0.15873E+08         0.44260E+06         0.00000E+00
    0.44260E+06        -0.53959E+08         0.00000E+00
    0.00000E+00         0.00000E+00        -0.15761E+08
 
   -0.16032E+08         0.43627E+06         0.00000E+00
    0.43627E+06        -0.54276E+08         0.00000E+00
    0.00000E+00         0.00000E+00        -0.15896E+08
 
   -0.16193E+08         0.42922E+06         0.00000E+00
    0.42922E+06        -0.54595E+08         0.00000E+00
    0.00000E+00         0.00000E+00        -0.16030E+08
 
   -0.16358E+08         0.42128E+06         0.00000E+00
    0.42128E+06        -0.54916E+08         0.00000E+00
    0.00000E+00         0.00000E+00        -0.16163E+08
 
   -0.16527E+08         0.41226E+06         0.00000E+00
    0.41226E+06        -0.55240E+08         0.00000E+00
    0.00000E+00         0.00000E+00        -0.16296E+08
 
   -0.16699E+08         0.40190E+06         0.00000E+00
    0.40190E+06        -0.55566E+08         0.00000E+00
    0.00000E+00         0.00000E+00        -0.16427E+08
 
   -0.16875E+08         0.38993E+06         0.00000E+00
    0.38993E+06        -0.55895E+08         0.00000E+00
    0.00000E+00         0.00000E+00        -0.16556E+08
 
   -0.17057E+08         0.37601E+06         0.00000E+00
    0.37601E+06        -0.56226E+08         0.00000E+00
    0.00000E+00         0.00000E+00        -0.16682E+08
 
   -0.17244E+08         0.35977E+06         0.00000E+00
    0.35977E+06        -0.56561E+08         0.00000E+00
    0.00000E+00         0.00000E+00        -0.16806E+08
 
   -0.17437E+08         0.34081E+06         0.00000E+00
    0.34081E+06        -0.56898E+08         0.00000E+00
    0.00000E+00         0.00000E+00        -0.16927E+08
 
   -0.17636E+08         0.31870E+06         0.00000E+00
    0.31870E+06        -0.57239E+08         0.00000E+00
    0.00000E+00         0.00000E+00        -0.17044E+08
 
   -0.17844E+08         0.29305E+06         0.00000E+00
    0.29305E+06        -0.57582E+08         0.00000E+00
    0.00000E+00         0.00000E+00        -0.17157E+08
 
   -0.18060E+08         0.26355E+06         0.00000E+00
    0.26355E+06        -0.57929E+08         0.00000E+00
    0.00000E+00         0.00000E+00        -0.17264E+08
 
   -0.18285E+08         0.23002E+06         0.00000E+00
    0.23002E+06        -0.58278E+08         0.00000E+00
    0.00000E+00         0.00000E+00        -0.17365E+08
 
   -0.18521E+08         0.19255E+06         0.00000E+00
    0.19255E+06        -0.58629E+08         0.00000E+00
    0.00000E+00         0.00000E+00        -0.17459E+08
 
   -0.18768E+08         0.15154E+06         0.00000E+00
    0.15154E+06        -0.58983E+08         0.00000E+00
    0.00000E+00         0.00000E+00        -0.17544E+08
 
   -0.19027E+08         0.10787E+06         0.00000E+00
    0.10787E+06        -0.59338E+08         0.00000E+00
    0.00000E+00         0.00000E+00        -0.17620E+08
 
   -0.19299E+08         0.63003E+05         0.00000E+00
    0.63003E+05        -0.59694E+08         0.00000E+00
    0.00000E+00         0.00000E+00        -0.17686E+08
 
   -0.19583E+08         0.19051E+05         0.00000E+00
    0.19051E+05        -0.60050E+08         0.00000E+00
    0.00000E+00         0.00000E+00        -0.17742E+08
 
   -0.19878E+08        -0.21112E+05         0.00000E+00
   -0.21112E+05        -0.60406E+08         0.00000E+00
    0.00000E+00         0.00000E+00        -0.17789E+08
 
   -0.20182E+08        -0.52731E+05         0.00000E+00
   -0.52731E+05        -0.60759E+08         0.00000E+00
    0.00000E+00         0.00000E+00        -0.17827E+08
 
   -0.20489E+08        -0.67286E+05         0.00000E+00
   -0.67286E+05        -0.61102E+08         0.00000E+00
    0.00000E+00         0.00000E+00        -0.17854E+08
 
   -0.20798E+08        -0.56308E+05         0.00000E+00
   -0.56308E+05        -0.61417E+08         0.00000E+00
    0.00000E+00         0.00000E+00        -0.17857E+08
 
   -0.21121E+08        -0.21864E+05         0.00000E+00
   -0.21864E+05        -0.61683E+08         0.00000E+00
    0.00000E+00         0.00000E+00        -0.17808E+08
 
   -0.35967E+07        -0.56640E+05         0.00000E+00
   -0.56640E+05        -0.27976E+08         0.00000E+00
    0.00000E+00         0.00000E+00        -0.86701E+07
 
   -0.40535E+07        -0.14267E+06         0.00000E+00
   -0.14267E+06        -0.28231E+08         0.00000E+00
    0.00000E+00         0.00000E+00        -0.86701E+07
 
   -0.44903E+07        -0.15350E+06         0.00000E+00
   -0.15350E+06        -0.28607E+08         0.00000E+00
    0.00000E+00         0.00000E+00        -0.86701E+07
 
   -0.49111E+07        -0.12041E+06         0.00000E+00
   -0.12041E+06        -0.29006E+08         0.00000E+00
    0.00000E+00         0.00000E+00        -0.86701E+07
 
   -0.53115E+07        -0.59144E+05         0.00000E+00
   -0.59144E+05        -0.29408E+08         0.00000E+00
    0.00000E+00         0.00000E+00        -0.86701E+07
 
   -0.56855E+07         0.87481E+04         0.00000E+00
    0.87481E+04        -0.29803E+08         0.00000E+00
    0.00000E+00         0.00000E+00        -0.86701E+07
 
   -0.60295E+07         0.77820E+05         0.00000E+00
    0.77820E+05        -0.30203E+08         0.00000E+00
    0.00000E+00         0.00000E+00        -0.86701E+07
 
   -0.63451E+07         0.14739E+06         0.00000E+00
    0.14739E+06        -0.30608E+08         0.00000E+00
    0.00000E+00         0.00000E+00        -0.86701E+07
 
   -0.66348E+07         0.21610E+06         0.00000E+00
    0.21610E+06        -0.31018E+08         0.00000E+00
    0.00000E+00         0.00000E+00        -0.86701E+07
 
   -0.69006E+07         0.28178E+06         0.00000E+00
    0.28178E+06        -0.31430E+08         0.00000E+00
    0.00000E+00         0.00000E+00        -0.86701E+07
 
   -0.71445E+07         0.34261E+06         0.00000E+00
    0.34261E+06        -0.31842E+08         0.00000E+00
    0.00000E+00         0.00000E+00        -0.86701E+07
 
   -0.73682E+07         0.39720E+06         0.00000E+00
    0.39720E+06        -0.32255E+08         0.00000E+00
    0.00000E+00         0.00000E+00        -0.86701E+07
 
   -0.75740E+07         0.44452E+06         0.00000E+00
    0.44452E+06        -0.32667E+08         0.00000E+00
    0.00000E+00         0.00000E+00        -0.86701E+07
 
   -0.77642E+07         0.48373E+06         0.00000E+00
    0.48373E+06        -0.33077E+08         0.00000E+00
    0.00000E+00         0.00000E+00        -0.86701E+07
 
   -0.79413E+07         0.51416E+06         0.00000E+00
    0.51416E+06        -0.33487E+08         0.00000E+00
    0.00000E+00         0.00000E+00        -0.86701E+07
 
   -0.81079E+07         0.53512E+06         0.00000E+00
    0.53512E+06        -0.33896E+08         0.00000E+00
    0.00000E+00         0.00000E+00        -0.86701E+07
 
   -0.82669E+07         0.54525E+06         0.00000E+00
    0.54525E+06        -0.34302E+08         0.00000E+00
    0.00000E+00         0.00000E+00        -0.86701E+07
 
   -0.84230E+07         0.54594E+06         0.00000E+00
    0.54594E+06        -0.34706E+08         0.00000E+00
    0.00000E+00         0.00000E+00        -0.86701E+07
 
   -0.85713E+07         0.53819E+06         0.00000E+00
    0.53819E+06        -0.35096E+08         0.00000E+00
    0.00000E+00         0.00000E+00        -0.87101E+07
 
   -0.87090E+07         0.54932E+06         0.00000E+00
    0.54932E+06        -0.35472E+08         0.00000E+00
    0.00000E+00         0.00000E+00        -0.88006E+07
 
   -0.88402E+07         0.55326E+06         0.00000E+00
    0.55326E+06        -0.35849E+08         0.00000E+00
    0.00000E+00         0.00000E+00        -0.89071E+07
 
   -0.89673E+07         0.55859E+06         0.00000E+00
    0.55859E+06        -0.36230E+08         0.00000E+00
    0.00000E+00         0.00000E+00        -0.90139E+07
 
   -0.90921E+07         0.56441E+06         0.00000E+00
    0.56441E+06        -0.36611E+08         0.00000E+00
    0.00000E+00         0.00000E+00        -0.91206E+07
 
   -0.92148E+07         0.56943E+06         0.00000E+00
    0.56943E+06        -0.36989E+08         0.00000E+00
    0.00000E+00         0.00000E+00        -0.92265E+07
 
   -0.93352E+07         0.57329E+06         0.00000E+00
    0.57329E+06        -0.37364E+08         0.00000E+00
    0.00000E+00         0.00000E+00        -0.93314E+07
 
   -0.94531E+07         0.57607E+06         0.00000E+00
    0.57607E+06        -0.37737E+08         0.00000E+00
    0.00000E+00         0.00000E+00        -0.94348E+07
 
   -0.95685E+07         0.57794E+06         0.00000E+00
    0.57794E+06        -0.38106E+08         0.00000E+00
    0.00000E+00         0.00000E+00        -0.95366E+07
 
   -0.96816E+07         0.57908E+06         0.00000E+00
    0.57908E+06        -0.38473E+08         0.00000E+00
    0.00000E+00         0.00000E+00        -0.96366E+07
 
   -0.97926E+07         0.57963E+06         0.00000E+00
    0.57963E+06        -0.38836E+08         0.00000E+00
    0.00000E+00         0.00000E+00        -0.97346E+07
 
   -0.99017E+07         0.57968E+06         0.00000E+00
    0.57968E+06        -0.39197E+08         0.00000E+00
    0.00000E+00         0.00000E+00        -0.98305E+07
 
   -0.10009E+08         0.57926E+06         0.00000E+00
    0.57926E+06        -0.39555E+08         0.00000E+00
    0.00000E+00         0.00000E+00        -0.99243E+07
 
   -0.10115E+08         0.57829E+06         0.00000E+00
    0.57829E+06        -0.39911E+08         0.00000E+00
    0.00000E+00         0.00000E+00        -0.10016E+08
 
   -0.10221E+08         0.57650E+06         0.00000E+00
    0.57650E+06        -0.40265E+08         0.00000E+00
    0.00000E+00         0.00000E+00        -0.10106E+08
 
   -0.10326E+08         0.57333E+06         0.00000E+00
    0.57333E+06        -0.40617E+08         0.00000E+00
    0.00000E+00         0.00000E+00        -0.10193E+08
 
   -0.10432E+08         0.56769E+06         0.00000E+00
    0.56769E+06        -0.40969E+08         0.00000E+00
    0.00000E+00         0.00000E+00        -0.10278E+08
 
   -0.10538E+08         0.55849E+06         0.00000E+00
    0.55849E+06        -0.41324E+08         0.00000E+00
    0.00000E+00         0.00000E+00        -0.10362E+08
 
   -0.10642E+08         0.54617E+06         0.00000E+00
    0.54617E+06        -0.41674E+08         0.00000E+00
    0.00000E+00         0.00000E+00        -0.10457E+08
 
   -0.10746E+08         0.53367E+06         0.00000E+00
    0.53367E+06        -0.42009E+08         0.00000E+00
    0.00000E+00         0.00000E+00        -0.10575E+08
 
   -0.10850E+08         0.52386E+06         0.00000E+00
    0.52386E+06        -0.42340E+08         0.00000E+00
    0.00000E+00         0.00000E+00        -0.10701E+08
 
   -0.10954E+08         0.51721E+06         0.00000E+00
    0.51721E+06        -0.42674E+08         0.00000E+00
    0.00000E+00         0.00000E+00        -0.10826E+08
 
   -0.11060E+08         0.51272E+06         0.00000E+00
    0.51272E+06        -0.43008E+08         0.00000E+00
    0.00000E+00         0.00000E+00        -0.10949E+08
 
   -0.11167E+08         0.50941E+06         0.00000E+00
    0.50941E+06        -0.43341E+08         0.00000E+00
    0.00000E+00         0.00000E+00        -0.11070E+08
 
   -0.11274E+08         0.50673E+06         0.00000E+00
    0.50673E+06        -0.43672E+08         0.00000E+00
    0.00000E+00         0.00000E+00        -0.11191E+08
 
   -0.11381E+08         0.50439E+06         0.00000E+00
    0.50439E+06        -0.44002E+08         0.00000E+00
    0.00000E+00         0.00000E+00        -0.11309E+08
 
   -0.11489E+08         0.50223E+06         0.00000E+00
    0.50223E+06        -0.44330E+08         0.00000E+00
    0.00000E+00         0.00000E+00        -0.11427E+08
 
   -0.11596E+08         0.50016E+06         0.00000E+00
    0.50016E+06        -0.44657E+08         0.00000E+00
    0.00000E+00         0.00000E+00        -0.11544E+08
 
   -0.11703E+08         0.49815E+06         0.00000E+00
    0.49815E+06        -0.44983E+08         0.00000E+00
    0.00000E+00         0.00000E+00        -0.11660E+08
 
   -0.11818E+08         0.49597E+06         0.00000E+00
    0.49597E+06        -0.45300E+08         0.00000E+00
    0.00000E+00         0.00000E+00        -0.11782E+08
 
   -0.11948E+08         0.49337E+06         0.00000E+00
    0.49337E+06        -0.45601E+08         0.00000E+00
    0.00000E+00         0.00000E+00        -0.11919E+08
 
   -0.12082E+08         0.49068E+06         0.00000E+00
    0.49068E+06        -0.45897E+08         0.00000E+00
    0.00000E+00         0.00000E+00        -0.12060E+08
 
   -0.12216E+08         0.48804E+06         0.00000E+00
    0.48804E+06        -0.46193E+08         0.00000E+00
    0.00000E+00         0.00000E+00        -0.12200E+08
 
   -0.12350E+08         0.48542E+06         0.00000E+00
    0.48542E+06        -0.46487E+08         0.00000E+00
    0.00000E+00         0.00000E+00        -0.12340E+08
 
   -0.12484E+08         0.48284E+06         0.00000E+00
    0.48284E+06        -0.46781E+08         0.00000E+00
    0.00000E+00         0.00000E+00        -0.12479E+08
 
   -0.12618E+08         0.48029E+06         0.00000E+00
    0.48029E+06        -0.47075E+08         0.00000E+00
    0.00000E+00         0.00000E+00        -0.12617E+08
 
   -0.12753E+08         0.47776E+06         0.00000E+00
    0.47776E+06        -0.47367E+08         0.00000E+00
    0.00000E+00         0.00000E+00        -0.12755E+08
 
   -0.12887E+08         0.47524E+06         0.00000E+00
    0.47524E+06        -0.47660E+08         0.00000E+00
    0.00000E+00         0.00000E+00        -0.12893E+08
 
   -0.13021E+08         0.47274E+06         0.00000E+00
    0.47274E+06        -0.47953E+08         0.00000E+00
    0.00000E+00         0.00000E+00        -0.13030E+08
 
   -0.13156E+08         0.47023E+06         0.00000E+00
    0.47023E+06        -0.48245E+08         0.00000E+00
    0.00000E+00         0.00000E+00        -0.13167E+08
 
   -0.13291E+08         0.46772E+06         0.00000E+00
    0.46772E+06        -0.48538E+08         0.00000E+00
    0.00000E+00         0.00000E+00        -0.13304E+08
 
   -0.13426E+08         0.46520E+06         0.00000E+00
    0.46520E+06        -0.48831E+08         0.00000E+00
    0.00000E+00         0.00000E+00        -0.13441E+08
 
   -0.13562E+08         0.46264E+06         0.00000E+00
    0.46264E+06        -0.49124E+08         0.00000E+00
    0.00000E+00         0.00000E+00        -0.13577E+08
 
   -0.13698E+08         0.46006E+06         0.00000E+00
    0.46006E+06        -0.49418E+08         0.00000E+00
    0.00000E+00         0.00000E+00        -0.13714E+08
 
   -0.13835E+08         0.45742E+06         0.00000E+00
    0.45742E+06        -0.49712E+08         0.00000E+00
    0.00000E+00         0.00000E+00        -0.13850E+08
 
   -0.13973E+08         0.45473E+06         0.00000E+00
    0.45473E+06        -0.50007E+08         0.00000E+00
    0.00000E+00         0.00000E+00        -0.13987E+08
 
   -0.14112E+08         0.45197E+06         0.00000E+00
    0.45197E+06        -0.50303E+08         0.00000E+00
    0.00000E+00         0.00000E+00        -0.14123E+08
 
   -0.14251E+08         0.44913E+06         0.00000E+00
    0.44913E+06        -0.50600E+08         0.00000E+00
    0.00000E+00         0.00000E+00        -0.14260E+08
 
   -0.14391E+08         0.44619E+06         0.00000E+00
    0.44619E+06        -0.50898E+08         0.00000E+00
    0.00000E+00         0.00000E+00        -0.14396E+08
 
   -0.14533E+08         0.44314E+06         0.00000E+00
    0.44314E+06        -0.51197E+08         0.00000E+00
    0.00000E+00         0.00000E+00        -0.14533E+08
 
   -0.14676E+08         0.43997E+06         0.00000E+00
    0.43997E+06        -0.51498E+08         0.00000E+00
    0.00000E+00         0.00000E+00        -0.14669E+08
 
   -0.14819E+08         0.43666E+06         0.00000E+00
    0.43666E+06        -0.51800E+08         0.00000E+00
    0.00000E+00         0.00000E+00        -0.14806E+08
 
   -0.14965E+08         0.43318E+06         0.00000E+00
    0.43318E+06        -0.52103E+08         0.00000E+00
    0.00000E+00         0.00000E+00        -0.14943E+08
 
   -0.15112E+08         0.42950E+06         0.00000E+00
    0.42950E+06        -0.52408E+08         0.00000E+00
    0.00000E+00         0.00000E+00        -0.15079E+08
 
   -0.15260E+08         0.42561E+06         0.00000E+00
    0.42561E+06        -0.52715E+08         0.00000E+00
    0.00000E+00         0.00000E+00        -0.15216E+08
 
   -0.15410E+08         0.42145E+06         0.00000E+00
    0.42145E+06        -0.53024E+08         0.00000E+00
    0.00000E+00         0.00000E+00        -0.15352E+08
 
   -0.15562E+08         0.41699E+06         0.00000E+00
    0.41699E+06        -0.53334E+08         0.00000E+00
    0.00000E+00         0.00000E+00        -0.15488E+08
 
   -0.15717E+08         0.41215E+06         0.00000E+00
    0.41215E+06        -0.53647E+08         0.00000E+00
    0.00000E+00         0.00000E+00        -0.15624E+08
 
   -0.15873E+08         0.40686E+06         0.00000E+00
    0.40686E+06        -0.53961E+08         0.00000E+00
    0.00000E+00         0.00000E+00        -0.15760E+08
 
   -0.16033E+08         0.40103E+06         0.00000E+00
    0.40103E+06        -0.54277E+08         0.00000E+00
    0.00000E+00         0.00000E+00        -0.15895E+08
 
   -0.16195E+08         0.39453E+06         0.00000E+00
    0.39453E+06        -0.54596E+08         0.00000E+00
    0.00000E+00         0.00000E+00        -0.16029E+08
 
   -0.16360E+08         0.38721E+06         0.00000E+00
    0.38721E+06        -0.54917E+08         0.00000E+00
    0.00000E+00         0.00000E+00        -0.16162E+08
 
   -0.16528E+08         0.37888E+06         0.00000E+00
    0.37888E+06        -0.55241E+08         0.00000E+00
    0.00000E+00         0.00000E+00        -0.16294E+08
 
   -0.16701E+08         0.36931E+06         0.00000E+00
    0.36931E+06        -0.55567E+08         0.00000E+00
    0.00000E+00         0.00000E+00        -0.16424E+08
 
   -0.16878E+08         0.35824E+06         0.00000E+00
    0.35824E+06        -0.55895E+08         0.00000E+00
    0.00000E+00         0.00000E+00        -0.16552E+08
 
   -0.17060E+08         0.34534E+06         0.00000E+00
    0.34534E+06        -0.56226E+08         0.00000E+00
    0.00000E+00         0.00000E+00        -0.16678E+08
 
   -0.17247E+08         0.33027E+06         0.00000E+00
    0.33027E+06        -0.56560E+08         0.00000E+00
    0.00000E+00         0.00000E+00        -0.16802E+08
 
   -0.17441E+08         0.31263E+06         0.00000E+00
    0.31263E+06        -0.56897E+08         0.00000E+00
    0.00000E+00         0.00000E+00        -0.16921E+08
 
   -0.17641E+08         0.29203E+06         0.00000E+00
    0.29203E+06        -0.57237E+08         0.00000E+00
    0.00000E+00         0.00000E+00        -0.17037E+08
 
   -0.17850E+08         0.26810E+06         0.00000E+00
    0.26810E+06        -0.57579E+08         0.00000E+00
    0.00000E+00         0.00000E+00        -0.17148E+08
 
   -0.18067E+08         0.24053E+06         0.00000E+00
    0.24053E+06        -0.57925E+08         0.00000E+00
    0.00000E+00         0.00000E+00        -0.17253E+08
 
   -0.18295E+08         0.20918E+06         0.00000E+00
    0.20918E+06        -0.58273E+08         0.00000E+00
    0.00000E+00         0.00000E+00        -0.17351E+08
 
   -0.18533E+08         0.17412E+06         0.00000E+00
    0.17412E+06        -0.58624E+08         0.00000E+00
    0.00000E+00         0.00000E+00        -0.17442E+08
 
   -0.18783E+08         0.13575E+06         0.00000E+00
    0.13575E+06        -0.58977E+08         0.00000E+00
    0.00000E+00         0.00000E+00        -0.17524E+08
 
   -0.19046E+08         0.94923E+05         0.00000E+00
    0.94923E+05        -0.59331E+08         0.00000E+00
    0.00000E+00         0.00000E+00        -0.17596E+08
 
   -0.19322E+08         0.52989E+05         0.00000E+00
    0.52989E+05        -0.59687E+08         0.00000E+00
    0.00000E+00         0.00000E+00        -0.17659E+08
 
   -0.19611E+08         0.11879E+05         0.00000E+00
    0.11879E+05        -0.60043E+08         0.00000E+00
    0.00000E+00         0.00000E+00        -0.17710E+08
 
   -0.19912E+08        -0.25927E+05         0.00000E+00
   -0.25927E+05        -0.60400E+08         0.00000E+00
    0.00000E+00         0.00000E+00        -0.17753E+08
 
   -0.20222E+08        -0.56477E+05         0.00000E+00
   -0.56477E+05        -0.60756E+08         0.00000E+00
    0.00000E+00         0.00000E+00        -0.17788E+08
 
   -0.20535E+08        -0.71448E+05         0.00000E+00
   -0.71448E+05        -0.61103E+08         0.00000E+00
    0.00000E+00         0.00000E+00        -0.17815E+08
 
   -0.20848E+08        -0.60463E+05         0.00000E+00
   -0.60463E+05        -0.61425E+08         0.00000E+00
    0.00000E+00         0.00000E+00        -0.17821E+08
 
   -0.21172E+08        -0.23692E+05         0.00000E+00
   -0.23692E+05        -0.61696E+08         0.00000E+00
    0.00000E+00         0.00000E+00        -0.17775E+08
 
   -0.34389E+07        -0.50808E+05         0.00000E+00
   -0.50808E+05        -0.27948E+08         0.00000E+00
    0.00000E+00         0.00000E+00        -0.86807E+07
 
   -0.39203E+07        -0.13347E+06         0.00000E+00
   -0.13347E+06        -0.28230E+08         0.00000E+00
    0.00000E+00         0.00000E+00        -0.86701E+07
 
   -0.43798E+07        -0.14881E+06         0.00000E+00
   -0.14881E+06        -0.28607E+08         0.00000E+00
    0.00000E+00         0.00000E+00        -0.86701E+07
 
   -0.48202E+07        -0.11922E+06         0.00000E+00
   -0.11922E+06        -0.29017E+08         0.00000E+00
    0.00000E+00         0.00000E+00        -0.86701E+07
 
   -0.52367E+07        -0.62383E+05         0.00000E+00
   -0.62383E+05        -0.29420E+08         0.00000E+00
    0.00000E+00         0.00000E+00        -0.86701E+07
 
   -0.56223E+07        -0.70800E+03         0.00000E+00
   -0.70800E+03        -0.29817E+08         0.00000E+00
    0.00000E+00         0.00000E+00        -0.86701E+07
 
   -0.59756E+07         0.62449E+05         0.00000E+00
    0.62449E+05        -0.30216E+08         0.00000E+00
    0.00000E+00         0.00000E+00        -0.86701E+07
 
   -0.62991E+07         0.12670E+06         0.00000E+00
    0.12670E+06        -0.30622E+08         0.00000E+00
    0.00000E+00         0.00000E+00        -0.86701E+07
 
   -0.65957E+07         0.19065E+06         0.00000E+00
    0.19065E+06        -0.31031E+08         0.00000E+00
    0.00000E+00         0.00000E+00        -0.86701E+07
 
   -0.68676E+07         0.25196E+06         0.00000E+00
    0.25196E+06        -0.31442E+08         0.00000E+00
    0.00000E+00         0.00000E+00        -0.86701E+07
 
   -0.71164E+07         0.30880E+06         0.00000E+00
    0.30880E+06        -0.31854E+08         0.00000E+00
    0.00000E+00         0.00000E+00        -0.86701E+07
 
   -0.73441E+07         0.35984E+06         0.00000E+00
    0.35984E+06        -0.32265E+08         0.00000E+00
    0.00000E+00         0.00000E+00        -0.86701E+07
 
   -0.75529E+07         0.40409E+06         0.00000E+00
    0.40409E+06        -0.32675E+08         0.00000E+00
    0.00000E+00         0.00000E+00        -0.86701E+07
 
   -0.77452E+07         0.44076E+06         0.00000E+00
    0.44076E+06        -0.33084E+08         0.00000E+00
    0.00000E+00         0.00000E+00        -0.86701E+07
 
   -0.79239E+07         0.46920E+06         0.00000E+00
    0.46920E+06        -0.33492E+08         0.00000E+00
    0.00000E+00         0.00000E+00        -0.86701E+07
 
   -0.80915E+07         0.48867E+06         0.00000E+00
    0.48867E+06        -0.33899E+08         0.00000E+00
    0.00000E+00         0.00000E+00        -0.86701E+07
 
   -0.82517E+07         0.49830E+06         0.00000E+00
    0.49830E+06        -0.34303E+08         0.00000E+00
    0.00000E+00         0.00000E+00        -0.86701E+07
 
   -0.84089E+07         0.49937E+06         0.00000E+00
    0.49937E+06        -0.34705E+08         0.00000E+00
    0.00000E+00         0.00000E+00        -0.86701E+07
 
   -0.85590E+07         0.48904E+06         0.00000E+00
    0.48904E+06        -0.35096E+08         0.00000E+00
    0.00000E+00         0.00000E+00        -0.87043E+07
 
   -0.86984E+07         0.49909E+06         0.00000E+00
    0.49909E+06        -0.35473E+08         0.00000E+00
    0.00000E+00         0.00000E+00        -0.87886E+07
 
   -0.88303E+07         0.50250E+06         0.00000E+00
    0.50250E+06        -0.35849E+08         0.00000E+00
    0.00000E+00         0.00000E+00        -0.88949E+07
 
   -0.89587E+07         0.50785E+06         0.00000E+00
    0.50785E+06        -0.36231E+08         0.00000E+00
    0.00000E+00         0.00000E+00        -0.90017E+07
 
   -0.90848E+07         0.51379E+06         0.00000E+00
    0.51379E+06        -0.36612E+08         0.00000E+00
    0.00000E+00         0.00000E+00        -0.91085E+07
 
   -0.92085E+07         0.51885E+06         0.00000E+00
    0.51885E+06        -0.36990E+08         0.00000E+00
    0.00000E+00         0.00000E+00        -0.92147E+07
 
   -0.93296E+07         0.52273E+06         0.00000E+00
    0.52273E+06        -0.37365E+08         0.00000E+00
    0.00000E+00         0.00000E+00        -0.93198E+07
 
   -0.94480E+07         0.52552E+06         0.00000E+00
    0.52552E+06        -0.37737E+08         0.00000E+00
    0.00000E+00         0.00000E+00        -0.94236E+07
 
   -0.95638E+07         0.52742E+06         0.00000E+00
    0.52742E+06        -0.38106E+08         0.00000E+00
    0.00000E+00         0.00000E+00        -0.95258E+07
 
   -0.96771E+07         0.52862E+06         0.00000E+00
    0.52862E+06        -0.38473E+08         0.00000E+00
    0.00000E+00         0.00000E+00        -0.96262E+07
 
   -0.97882E+07         0.52927E+06         0.00000E+00
    0.52927E+06        -0.38836E+08         0.00000E+00
    0.00000E+00         0.00000E+00        -0.97246E+07
 
   -0.98972E+07         0.52947E+06         0.00000E+00
    0.52947E+06        -0.39197E+08         0.00000E+00
    0.00000E+00         0.00000E+00        -0.98210E+07
 
   -0.10005E+08         0.52926E+06         0.00000E+00
    0.52926E+06        -0.39555E+08         0.00000E+00
    0.00000E+00         0.00000E+00        -0.99153E+07
 
   -0.10110E+08         0.52857E+06         0.00000E+00
    0.52857E+06        -0.39911E+08         0.00000E+00
    0.00000E+00         0.00000E+00        -0.10007E+08
 
   -0.10215E+08         0.52718E+06         0.00000E+00
    0.52718E+06        -0.40265E+08         0.00000E+00
    0.00000E+00         0.00000E+00        -0.10097E+08
 
   -0.10320E+08         0.52453E+06         0.00000E+00
    0.52453E+06        -0.40616E+08         0.00000E+00
    0.00000E+00         0.00000E+00        -0.10185E+08
 
   -0.10426E+08         0.51950E+06         0.00000E+00
    0.51950E+06        -0.40968E+08         0.00000E+00
    0.00000E+00         0.00000E+00        -0.10271E+08
 
   -0.10532E+08         0.51073E+06         0.00000E+00
    0.51073E+06        -0.41322E+08         0.00000E+00
    0.00000E+00         0.00000E+00        -0.10355E+08
 
   -0.10636E+08         0.49849E+06         0.00000E+00
    0.49849E+06        -0.41671E+08         0.00000E+00
    0.00000E+00         0.00000E+00        -0.10451E+08
 
   -0.10740E+08         0.48630E+06         0.00000E+00
    0.48630E+06        -0.42006E+08         0.00000E+00
    0.00000E+00         0.00000E+00        -0.10569E+08
 
   -0.10844E+08         0.47704E+06         0.00000E+00
    0.47704E+06        -0.42339E+08         0.00000E+00
    0.00000E+00         0.00000E+00        -0.10696E+08
 
   -0.10950E+08         0.47107E+06         0.00000E+00
    0.47107E+06        -0.42673E+08         0.00000E+00
    0.00000E+00         0.00000E+00        -0.10821E+08
 
   -0.11056E+08         0.46718E+06         0.00000E+00
    0.46718E+06        -0.43007E+08         0.00000E+00
    0.00000E+00         0.00000E+00        -0.10944E+08
 
   -0.11164E+08         0.46436E+06         0.00000E+00
    0.46436E+06        -0.43340E+08         0.00000E+00
    0.00000E+00         0.00000E+00        -0.11066E+08
 
   -0.11271E+08         0.46209E+06         0.00000E+00
    0.46209E+06        -0.43672E+08         0.00000E+00
    0.00000E+00         0.00000E+00        -0.11186E+08
 
   -0.11379E+08         0.46008E+06         0.00000E+00
    0.46008E+06        -0.44001E+08         0.00000E+00
    0.00000E+00         0.00000E+00        -0.11305E+08
 
   -0.11487E+08         0.45821E+06         0.00000E+00
    0.45821E+06        -0.44330E+08         0.00000E+00
    0.00000E+00         0.00000E+00        -0.11424E+08
 
   -0.11594E+08         0.45641E+06         0.00000E+00
    0.45641E+06        -0.44657E+08         0.00000E+00
    0.00000E+00         0.00000E+00        -0.11541E+08
 
   -0.11702E+08         0.45464E+06         0.00000E+00
    0.45464E+06        -0.44982E+08         0.00000E+00
    0.00000E+00         0.00000E+00        -0.11657E+08
 
   -0.11817E+08         0.45268E+06         0.00000E+00
    0.45268E+06        -0.45299E+08         0.00000E+00
    0.00000E+00         0.00000E+00        -0.11779E+08
 
   -0.11947E+08         0.45034E+06         0.00000E+00
    0.45034E+06        -0.45601E+08         0.00000E+00
    0.00000E+00         0.00000E+00        -0.11917E+08
 
   -0.12081E+08         0.44791E+06         0.00000E+00
    0.44791E+06        -0.45897E+08         0.00000E+00
    0.00000E+00         0.00000E+00        -0.12058E+08
 
   -0.12216E+08         0.44552E+06         0.00000E+00
    0.44552E+06        -0.46192E+08         0.00000E+00
    0.00000E+00         0.00000E+00        -0.12198E+08
 
   -0.12350E+08         0.44314E+06         0.00000E+00
    0.44314E+06        -0.46487E+08         0.00000E+00
    0.00000E+00         0.00000E+00        -0.12338E+08
 
   -0.12484E+08         0.44080E+06         0.00000E+00
    0.44080E+06        -0.46781E+08         0.00000E+00
    0.00000E+00         0.00000E+00        -0.12477E+08
 
   -0.12618E+08         0.43847E+06         0.00000E+00
    0.43847E+06        -0.47074E+08         0.00000E+00
    0.00000E+00         0.00000E+00        -0.12616E+08
 
   -0.12752E+08         0.43616E+06         0.00000E+00
    0.43616E+06        -0.47368E+08         0.00000E+00
    0.00000E+00         0.00000E+00        -0.12754E+08
 
   -0.12886E+08         0.43386E+06         0.00000E+00
    0.43386E+06        -0.47660E+08         0.00000E+00
    0.00000E+00         0.00000E+00        -0.12892E+08
 
   -0.13020E+08         0.43157E+06         0.00000E+00
    0.43157E+06        -0.47953E+08         0.00000E+00
    0.00000E+00         0.00000E+00        -0.13029E+08
 
   -0.13155E+08         0.42928E+06         0.00000E+00
    0.42928E+06        -0.48245E+08         0.00000E+00
    0.00000E+00         0.00000E+00        -0.13166E+08
 
   -0.13290E+08         0.42698E+06         0.00000E+00
    0.42698E+06        -0.48538E+08         0.00000E+00
    0.00000E+00         0.00000E+00        -0.13303E+08
 
   -0.13425E+08         0.42467E+06         0.00000E+00
    0.42467E+06        -0.48831E+08         0.00000E+00
    0.00000E+00         0.00000E+00        -0.13440E+08
 
   -0.13561E+08         0.42233E+06         0.00000E+00
    0.42233E+06        -0.49124E+08         0.00000E+00
    0.00000E+00         0.00000E+00        -0.13577E+08
 
   -0.13698E+08         0.41996E+06         0.00000E+00
    0.41996E+06        -0.49418E+08         0.00000E+00
    0.00000E+00         0.00000E+00        -0.13713E+08
 
   -0.13835E+08         0.41754E+06         0.00000E+00
    0.41754E+06        -0.49713E+08         0.00000E+00
    0.00000E+00         0.00000E+00        -0.13850E+08
 
   -0.13972E+08         0.41507E+06         0.00000E+00
    0.41507E+06        -0.50008E+08         0.00000E+00
    0.00000E+00         0.00000E+00        -0.13987E+08
 
   -0.14111E+08         0.41254E+06         0.00000E+00
    0.41254E+06        -0.50304E+08         0.00000E+00
    0.00000E+00         0.00000E+00        -0.14123E+08
 
   -0.14250E+08         0.40993E+06         0.00000E+00
    0.40993E+06        -0.50601E+08         0.00000E+00
    0.00000E+00         0.00000E+00        -0.14260E+08
 
   -0.14391E+08         0.40723E+06         0.00000E+00
    0.40723E+06        -0.50899E+08         0.00000E+00
    0.00000E+00         0.00000E+00        -0.14396E+08
 
   -0.14532E+08         0.40443E+06         0.00000E+00
    0.40443E+06        -0.51198E+08         0.00000E+00
    0.00000E+00         0.00000E+00        -0.14533E+08
 
   -0.14675E+08         0.40152E+06         0.00000E+00
    0.40152E+06        -0.51499E+08         0.00000E+00
    0.00000E+00         0.00000E+00        -0.14669E+08
 
   -0.14819E+08         0.39848E+06         0.00000E+00
    0.39848E+06        -0.51801E+08         0.00000E+00
    0.00000E+00         0.00000E+00        -0.14806E+08
 
   -0.14965E+08         0.39528E+06         0.00000E+00
    0.39528E+06        -0.52105E+08         0.00000E+00
    0.00000E+00         0.00000E+00        -0.14942E+08
 
   -0.15111E+08         0.39191E+06         0.00000E+00
    0.39191E+06        -0.52410E+08         0.00000E+00
    0.00000E+00         0.00000E+00        -0.15079E+08
 
   -0.15260E+08         0.38834E+06         0.00000E+00
    0.38834E+06        -0.52717E+08         0.00000E+00
    0.00000E+00         0.00000E+00        -0.15216E+08
 
   -0.15410E+08         0.38453E+06         0.00000E+00
    0.38453E+06        -0.53025E+08         0.00000E+00
    0.00000E+00         0.00000E+00        -0.15352E+08
 
   -0.15563E+08         0.38044E+06         0.00000E+00
    0.38044E+06        -0.53336E+08         0.00000E+00
    0.00000E+00         0.00000E+00        -0.15488E+08
 
   -0.15717E+08         0.37601E+06         0.00000E+00
    0.37601E+06        -0.53648E+08         0.00000E+00
    0.00000E+00         0.00000E+00        -0.15624E+08
 
   -0.15874E+08         0.37118E+06         0.00000E+00
    0.37118E+06        -0.53963E+08         0.00000E+00
    0.00000E+00         0.00000E+00        -0.15759E+08
 
   -0.16034E+08         0.36584E+06         0.00000E+00
    0.36584E+06        -0.54279E+08         0.00000E+00
    0.00000E+00         0.00000E+00        -0.15894E+08
 
   -0.16196E+08         0.35989E+06         0.00000E+00
    0.35989E+06        -0.54598E+08         0.00000E+00
    0.00000E+00         0.00000E+00        -0.16028E+08
 
   -0.16361E+08         0.35319E+06         0.00000E+00
    0.35319E+06        -0.54919E+08         0.00000E+00
    0.00000E+00         0.00000E+00        -0.16160E+08
 
   -0.16530E+08         0.34556E+06         0.00000E+00
    0.34556E+06        -0.55242E+08         0.00000E+00
    0.00000E+00         0.00000E+00        -0.16292E+08
 
   -0.16703E+08         0.33678E+06         0.00000E+00
    0.33678E+06        -0.55567E+08         0.00000E+00
    0.00000E+00         0.00000E+00        -0.16422E+08
 
   -0.16880E+08         0.32662E+06         0.00000E+00
    0.32662E+06        -0.55896E+08         0.00000E+00
    0.00000E+00         0.00000E+00        -0.16549E+08
 
   -0.17062E+08         0.31476E+06         0.00000E+00
    0.31476E+06        -0.56226E+08         0.00000E+00
    0.00000E+00         0.00000E+00        -0.16675E+08
 
   -0.17250E+08         0.30087E+06         0.00000E+00
    0.30087E+06        -0.56560E+08         0.00000E+00
    0.00000E+00         0.00000E+00        -0.16797E+08
 
   -0.17445E+08         0.28459E+06         0.00000E+00
    0.28459E+06        -0.56896E+08         0.00000E+00
    0.00000E+00         0.00000E+00        -0.16916E+08
 
   -0.17646E+08         0.26555E+06         0.00000E+00
    0.26555E+06        -0.57235E+08         0.00000E+00
    0.00000E+00         0.00000E+00        -0.17030E+08
 
   -0.17856E+08         0.24340E+06         0.00000E+00
    0.24340E+06        -0.57577E+08         0.00000E+00
    0.00000E+00         0.00000E+00        -0.17139E+08
 
   -0.18075E+08         0.21785E+06         0.00000E+00
    0.21785E+06        -0.57922E+08         0.00000E+00
    0.00000E+00         0.00000E+00        -0.17242E+08
 
   -0.18305E+08         0.18876E+06         0.00000E+00
    0.18876E+06        -0.58269E+08         0.00000E+00
    0.00000E+00         0.00000E+00        -0.17338E+08
 
   -0.18545E+08         0.15621E+06         0.00000E+00
    0.15621E+06        -0.58619E+08         0.00000E+00
    0.00000E+00         0.00000E+00        -0.17426E+08
 
   -0.18798E+08         0.12061E+06         0.00000E+00
    0.12061E+06        -0.58971E+08         0.00000E+00
    0.00000E+00         0.00000E+00        -0.17505E+08
 
   -0.19064E+08         0.82737E+05         0.00000E+00
    0.82737E+05        -0.59325E+08         0.00000E+00
    0.00000E+00         0.00000E+00        -0.17573E+08
 
   -0.19345E+08         0.43861E+05         0.00000E+00
    0.43861E+05        -0.59681E+08         0.00000E+00
    0.00000E+00         0.00000E+00        -0.17632E+08
 
   -0.19639E+08         0.57266E+04         0.00000E+00
    0.57266E+04        -0.60037E+08         0.00000E+00
    0.00000E+00         0.00000E+00        -0.17679E+08
 
   -0.19946E+08        -0.29526E+05         0.00000E+00
   -0.29526E+05        -0.60395E+08         0.00000E+00
    0.00000E+00         0.00000E+00        -0.17718E+08
 
   -0.20262E+08        -0.58824E+05         0.00000E+00
   -0.58824E+05        -0.60752E+08         0.00000E+00
    0.00000E+00         0.00000E+00        -0.17749E+08
 
   -0.20582E+08        -0.74469E+05         0.00000E+00
   -0.74469E+05        -0.61105E+08         0.00000E+00
    0.00000E+00         0.00000E+00        -0.17774E+08
 
   -0.20900E+08        -0.64153E+05         0.00000E+00
   -0.64153E+05        -0.61433E+08         0.00000E+00
    0.00000E+00         0.00000E+00        -0.17783E+08
 
   -0.21224E+08        -0.25459E+05         0.00000E+00
   -0.25459E+05        -0.61709E+08         0.00000E+00
    0.00000E+00         0.00000E+00        -0.17741E+08
 
   -0.33328E+07        -0.47679E+05         0.00000E+00
   -0.47679E+05        -0.27917E+08         0.00000E+00
    0.00000E+00         0.00000E+00        -0.87264E+07
 
   -0.37856E+07        -0.11974E+06         0.00000E+00
   -0.11974E+06        -0.28235E+08         0.00000E+00
    0.00000E+00         0.00000E+00        -0.86701E+07
 
   -0.42692E+07        -0.14076E+06         0.00000E+00
   -0.14076E+06        -0.28604E+08         0.00000E+00
    0.00000E+00         0.00000E+00        -0.86701E+07
 
   -0.47320E+07        -0.11357E+06         0.00000E+00
   -0.11357E+06        -0.29028E+08         0.00000E+00
    0.00000E+00         0.00000E+00        -0.86701E+07
 
   -0.51648E+07        -0.63152E+05         0.00000E+00
   -0.63152E+05        -0.29432E+08         0.00000E+00
    0.00000E+00         0.00000E+00        -0.86701E+07
 
   -0.55614E+07        -0.80962E+04         0.00000E+00
   -0.80962E+04        -0.29829E+08         0.00000E+00
    0.00000E+00         0.00000E+00        -0.86701E+07
 
   -0.59237E+07         0.48719E+05         0.00000E+00
    0.48719E+05        -0.30228E+08         0.00000E+00
    0.00000E+00         0.00000E+00        -0.86701E+07
 
   -0.62550E+07         0.10749E+06         0.00000E+00
    0.10749E+06        -0.30634E+08         0.00000E+00
    0.00000E+00         0.00000E+00        -0.86701E+07
 
   -0.65585E+07         0.16650E+06         0.00000E+00
    0.16650E+06        -0.31043E+08         0.00000E+00
    0.00000E+00         0.00000E+00        -0.86701E+07
 
   -0.68363E+07         0.22322E+06         0.00000E+00
    0.22322E+06        -0.31454E+08         0.00000E+00
    0.00000E+00         0.00000E+00        -0.86701E+07
 
   -0.70899E+07         0.27586E+06         0.00000E+00
    0.27586E+06        -0.31864E+08         0.00000E+00
    0.00000E+00         0.00000E+00        -0.86701E+07
 
   -0.73213E+07         0.32314E+06         0.00000E+00
    0.32314E+06        -0.32274E+08         0.00000E+00
    0.00000E+00         0.00000E+00        -0.86701E+07
 
   -0.75329E+07         0.36415E+06         0.00000E+00
    0.36415E+06        -0.32683E+08         0.00000E+00
    0.00000E+00         0.00000E+00        -0.86701E+07
 
   -0.77273E+07         0.39813E+06         0.00000E+00
    0.39813E+06        -0.33090E+08         0.00000E+00
    0.00000E+00         0.00000E+00        -0.86701E+07
 
   -0.79073E+07         0.42447E+06         0.00000E+00
    0.42447E+06        -0.33497E+08         0.00000E+00
    0.00000E+00         0.00000E+00        -0.86701E+07
 
   -0.80758E+07         0.44241E+06         0.00000E+00
    0.44241E+06        -0.33901E+08         0.00000E+00
    0.00000E+00         0.00000E+00        -0.86701E+07
 
   -0.82367E+07         0.45155E+06         0.00000E+00
    0.45155E+06        -0.34304E+08         0.00000E+00
    0.00000E+00         0.00000E+00        -0.86701E+07
 
   -0.83943E+07         0.45284E+06         0.00000E+00
    0.45284E+06        -0.34705E+08         0.00000E+00
    0.00000E+00         0.00000E+00        -0.86701E+07
 
   -0.85461E+07         0.44059E+06         0.00000E+00
    0.44059E+06        -0.35096E+08         0.00000E+00
    0.00000E+00         0.00000E+00        -0.86983E+07
 
   -0.86874E+07         0.44897E+06         0.00000E+00
    0.44897E+06        -0.35474E+08         0.00000E+00
    0.00000E+00         0.00000E+00        -0.87764E+07
 
   -0.88204E+07         0.45194E+06         0.00000E+00
    0.45194E+06        -0.35850E+08         0.00000E+00
    0.00000E+00         0.00000E+00        -0.88826E+07
 
   -0.89502E+07         0.45742E+06         0.00000E+00
    0.45742E+06        -0.36232E+08         0.00000E+00
    0.00000E+00         0.00000E+00        -0.89895E+07
 
   -0.90778E+07         0.46342E+06         0.00000E+00
    0.46342E+06        -0.36613E+08         0.00000E+00
    0.00000E+00         0.00000E+00        -0.90964E+07
 
   -0.92026E+07         0.46846E+06         0.00000E+00
    0.46846E+06        -0.36991E+08         0.00000E+00
    0.00000E+00         0.00000E+00        -0.92029E+07
 
   -0.93245E+07         0.47230E+06         0.00000E+00
    0.47230E+06        -0.37366E+08         0.00000E+00
    0.00000E+00         0.00000E+00        -0.93084E+07
 
   -0.94434E+07         0.47506E+06         0.00000E+00
    0.47506E+06        -0.37738E+08         0.00000E+00
    0.00000E+00         0.00000E+00        -0.94125E+07
 
   -0.95596E+07         0.47696E+06         0.00000E+00
    0.47696E+06        -0.38107E+08         0.00000E+00
    0.00000E+00         0.00000E+00        -0.95152E+07
 
   -0.96731E+07         0.47820E+06         0.00000E+00
    0.47820E+06        -0.38473E+08         0.00000E+00
    0.00000E+00         0.00000E+00        -0.96160E+07
 
   -0.97842E+07         0.47892E+06         0.00000E+00
    0.47892E+06        -0.38836E+08         0.00000E+00
    0.00000E+00         0.00000E+00        -0.97149E+07
 
   -0.98932E+07         0.47924E+06         0.00000E+00
    0.47924E+06        -0.39197E+08         0.00000E+00
    0.00000E+00         0.00000E+00        -0.98117E+07
 
   -0.10000E+08         0.47921E+06         0.00000E+00
    0.47921E+06        -0.39555E+08         0.00000E+00
    0.00000E+00         0.00000E+00        -0.99065E+07
 
   -0.10106E+08         0.47878E+06         0.00000E+00
    0.47878E+06        -0.39911E+08         0.00000E+00
    0.00000E+00         0.00000E+00        -0.99991E+07
 
   -0.10210E+08         0.47776E+06         0.00000E+00
    0.47776E+06        -0.40264E+08         0.00000E+00
    0.00000E+00         0.00000E+00        -0.10090E+08
 
   -0.10315E+08         0.47564E+06         0.00000E+00
    0.47564E+06        -0.40616E+08         0.00000E+00
    0.00000E+00         0.00000E+00        -0.10178E+08
 
   -0.10420E+08         0.47125E+06         0.00000E+00
    0.47125E+06        -0.40967E+08         0.00000E+00
    0.00000E+00         0.00000E+00        -0.10264E+08
 
   -0.10525E+08         0.46297E+06         0.00000E+00
    0.46297E+06        -0.41320E+08         0.00000E+00
    0.00000E+00         0.00000E+00        -0.10348E+08
 
   -0.10630E+08         0.45085E+06         0.00000E+00
    0.45085E+06        -0.41669E+08         0.00000E+00
    0.00000E+00         0.00000E+00        -0.10444E+08
 
   -0.10734E+08         0.43898E+06         0.00000E+00
    0.43898E+06        -0.42004E+08         0.00000E+00
    0.00000E+00         0.00000E+00        -0.10563E+08
 
   -0.10839E+08         0.43034E+06         0.00000E+00
    0.43034E+06        -0.42337E+08         0.00000E+00
    0.00000E+00         0.00000E+00        -0.10690E+08
 
   -0.10945E+08         0.42508E+06         0.00000E+00
    0.42508E+06        -0.42672E+08         0.00000E+00
    0.00000E+00         0.00000E+00        -0.10815E+08
 
   -0.11052E+08         0.42179E+06         0.00000E+00
    0.42179E+06        -0.43007E+08         0.00000E+00
    0.00000E+00         0.00000E+00        -0.10939E+08
 
   -0.11160E+08         0.41944E+06         0.00000E+00
    0.41944E+06        -0.43340E+08         0.00000E+00
    0.00000E+00         0.00000E+00        -0.11061E+08
 
   -0.11269E+08         0.41754E+06         0.00000E+00
    0.41754E+06        -0.43671E+08         0.00000E+00
    0.00000E+00         0.00000E+00        -0.11182E+08
 
   -0.11377E+08         0.41586E+06         0.00000E+00
    0.41586E+06        -0.44001E+08         0.00000E+00
    0.00000E+00         0.00000E+00        -0.11301E+08
 
   -0.11485E+08         0.41426E+06         0.00000E+00
    0.41426E+06        -0.44330E+08         0.00000E+00
    0.00000E+00         0.00000E+00        -0.11420E+08
 
   -0.11593E+08         0.41271E+06         0.00000E+00
    0.41271E+06        -0.44656E+08         0.00000E+00
    0.00000E+00         0.00000E+00        -0.11537E+08
 
   -0.11701E+08         0.41116E+06         0.00000E+00
    0.41116E+06        -0.44982E+08         0.00000E+00
    0.00000E+00         0.00000E+00        -0.11653E+08
 
   -0.11816E+08         0.40943E+06         0.00000E+00
    0.40943E+06        -0.45299E+08         0.00000E+00
    0.00000E+00         0.00000E+00        -0.11777E+08
 
   -0.11947E+08         0.40734E+06         0.00000E+00
    0.40734E+06        -0.45600E+08         0.00000E+00
    0.00000E+00         0.00000E+00        -0.11915E+08
 
   -0.12081E+08         0.40517E+06         0.00000E+00
    0.40517E+06        -0.45896E+08         0.00000E+00
    0.00000E+00         0.00000E+00        -0.12056E+08
 
   -0.12215E+08         0.40302E+06         0.00000E+00
    0.40302E+06        -0.46192E+08         0.00000E+00
    0.00000E+00         0.00000E+00        -0.12197E+08
 
   -0.12349E+08         0.40088E+06         0.00000E+00
    0.40088E+06        -0.46487E+08         0.00000E+00
    0.00000E+00         0.00000E+00        -0.12336E+08
 
   -0.12483E+08         0.39876E+06         0.00000E+00
    0.39876E+06        -0.46781E+08         0.00000E+00
    0.00000E+00         0.00000E+00        -0.12476E+08
 
   -0.12617E+08         0.39666E+06         0.00000E+00
    0.39666E+06        -0.47074E+08         0.00000E+00
    0.00000E+00         0.00000E+00        -0.12614E+08
 
   -0.12751E+08         0.39458E+06         0.00000E+00
    0.39458E+06        -0.47368E+08         0.00000E+00
    0.00000E+00         0.00000E+00        -0.12753E+08
 
   -0.12885E+08         0.39250E+06         0.00000E+00
    0.39250E+06        -0.47660E+08         0.00000E+00
    0.00000E+00         0.00000E+00        -0.12891E+08
 
   -0.13020E+08         0.39042E+06         0.00000E+00
    0.39042E+06        -0.47953E+08         0.00000E+00
    0.00000E+00         0.00000E+00        -0.13028E+08
 
   -0.13154E+08         0.38834E+06         0.00000E+00
    0.38834E+06        -0.48246E+08         0.00000E+00
    0.00000E+00         0.00000E+00        -0.13166E+08
 
   -0.13289E+08         0.38626E+06         0.00000E+00
    0.38626E+06        -0.48539E+08         0.00000E+00
    0.00000E+00         0.00000E+00        -0.13303E+08
 
   -0.13425E+08         0.38416E+06         0.00000E+00
    0.38416E+06        -0.48832E+08         0.00000E+00
    0.00000E+00         0.00000E+00        -0.13440E+08
 
   -0.13560E+08         0.38203E+06         0.00000E+00
    0.38203E+06        -0.49125E+08         0.00000E+00
    0.00000E+00         0.00000E+00        -0.13576E+08
 
   -0.13697E+08         0.37988E+06         0.00000E+00
    0.37988E+06        -0.49419E+08         0.00000E+00
    0.00000E+00         0.00000E+00        -0.13713E+08
 
   -0.13834E+08         0.37768E+06         0.00000E+00
    0.37768E+06        -0.49714E+08         0.00000E+00
    0.00000E+00         0.00000E+00        -0.13850E+08
 
   -0.13972E+08         0.37543E+06         0.00000E+00
    0.37543E+06        -0.50009E+08         0.00000E+00
    0.00000E+00         0.00000E+00        -0.13986E+08
 
   -0.14110E+08         0.37313E+06         0.00000E+00
    0.37313E+06        -0.50305E+08         0.00000E+00
    0.00000E+00         0.00000E+00        -0.14123E+08
 
   -0.14250E+08         0.37075E+06         0.00000E+00
    0.37075E+06        -0.50602E+08         0.00000E+00
    0.00000E+00         0.00000E+00        -0.14259E+08
 
   -0.14390E+08         0.36830E+06         0.00000E+00
    0.36830E+06        -0.50900E+08         0.00000E+00
    0.00000E+00         0.00000E+00        -0.14396E+08
 
   -0.14532E+08         0.36575E+06         0.00000E+00
    0.36575E+06        -0.51200E+08         0.00000E+00
    0.00000E+00         0.00000E+00        -0.14533E+08
 
   -0.14675E+08         0.36310E+06         0.00000E+00
    0.36310E+06        -0.51500E+08         0.00000E+00
    0.00000E+00         0.00000E+00        -0.14669E+08
 
   -0.14819E+08         0.36033E+06         0.00000E+00
    0.36033E+06        -0.51803E+08         0.00000E+00
    0.00000E+00         0.00000E+00        -0.14806E+08
 
   -0.14964E+08         0.35743E+06         0.00000E+00
    0.35743E+06        -0.52106E+08         0.00000E+00
    0.00000E+00         0.00000E+00        -0.14942E+08
 
   -0.15112E+08         0.35436E+06         0.00000E+00
    0.35436E+06        -0.52411E+08         0.00000E+00
    0.00000E+00         0.00000E+00        -0.15079E+08
 
   -0.15260E+08         0.35112E+06         0.00000E+00
    0.35112E+06        -0.52718E+08         0.00000E+00
    0.00000E+00         0.00000E+00        -0.15215E+08
 
   -0.15411E+08         0.34766E+06         0.00000E+00
    0.34766E+06        -0.53027E+08         0.00000E+00
    0.00000E+00         0.00000E+00        -0.15352E+08
 
   -0.15563E+08         0.34394E+06         0.00000E+00
    0.34394E+06        -0.53337E+08         0.00000E+00
    0.00000E+00         0.00000E+00        -0.15488E+08
 
   -0.15718E+08         0.33992E+06         0.00000E+00
    0.33992E+06        -0.53650E+08         0.00000E+00
    0.00000E+00         0.00000E+00        -0.15623E+08
 
   -0.15875E+08         0.33554E+06         0.00000E+00
    0.33554E+06        -0.53964E+08         0.00000E+00
    0.00000E+00         0.00000E+00        -0.15758E+08
 
   -0.16035E+08         0.33070E+06         0.00000E+00
    0.33070E+06        -0.54281E+08         0.00000E+00
    0.00000E+00         0.00000E+00        -0.15893E+08
 
   -0.16197E+08         0.32530E+06         0.00000E+00
    0.32530E+06        -0.54599E+08         0.00000E+00
    0.00000E+00         0.00000E+00        -0.16027E+08
 
   -0.16363E+08         0.31922E+06         0.00000E+00
    0.31922E+06        -0.54920E+08         0.00000E+00
    0.00000E+00         0.00000E+00        -0.16159E+08
 
   -0.16532E+08         0.31229E+06         0.00000E+00
    0.31229E+06        -0.55243E+08         0.00000E+00
    0.00000E+00         0.00000E+00        -0.16290E+08
 
   -0.16705E+08         0.30432E+06         0.00000E+00
    0.30432E+06        -0.55569E+08         0.00000E+00
    0.00000E+00         0.00000E+00        -0.16420E+08
 
   -0.16883E+08         0.29507E+06         0.00000E+00
    0.29507E+06        -0.55896E+08         0.00000E+00
    0.00000E+00         0.00000E+00        -0.16547E+08
 
   -0.17065E+08         0.28426E+06         0.00000E+00
    0.28426E+06        -0.56227E+08         0.00000E+00
    0.00000E+00         0.00000E+00        -0.16671E+08
 
   -0.17254E+08         0.27159E+06         0.00000E+00
    0.27159E+06        -0.56560E+08         0.00000E+00
    0.00000E+00         0.00000E+00        -0.16793E+08
 
   -0.17449E+08         0.25671E+06         0.00000E+00
    0.25671E+06        -0.56895E+08         0.00000E+00
    0.00000E+00         0.00000E+00        -0.16910E+08
 
   -0.17652E+08         0.23927E+06         0.00000E+00
    0.23927E+06        -0.57234E+08         0.00000E+00
    0.00000E+00         0.00000E+00        -0.17023E+08
 
   -0.17863E+08         0.21895E+06         0.00000E+00
    0.21895E+06        -0.57575E+08         0.00000E+00
    0.00000E+00         0.00000E+00        -0.17131E+08
 
   -0.18083E+08         0.19549E+06         0.00000E+00
    0.19549E+06        -0.57919E+08         0.00000E+00
    0.00000E+00         0.00000E+00        -0.17232E+08
 
   -0.18314E+08         0.16875E+06         0.00000E+00
    0.16875E+06        -0.58266E+08         0.00000E+00
    0.00000E+00         0.00000E+00        -0.17325E+08
 
   -0.18557E+08         0.13882E+06         0.00000E+00
    0.13882E+06        -0.58615E+08         0.00000E+00
    0.00000E+00         0.00000E+00        -0.17410E+08
 
   -0.18813E+08         0.10609E+06         0.00000E+00
    0.10609E+06        -0.58966E+08         0.00000E+00
    0.00000E+00         0.00000E+00        -0.17486E+08
 
   -0.19083E+08         0.71299E+05         0.00000E+00
    0.71299E+05        -0.59320E+08         0.00000E+00
    0.00000E+00         0.00000E+00        -0.17551E+08
 
   -0.19368E+08         0.35604E+05         0.00000E+00
    0.35604E+05        -0.59675E+08         0.00000E+00
    0.00000E+00         0.00000E+00        -0.17605E+08
 
   -0.19667E+08         0.56894E+03         0.00000E+00
    0.56894E+03        -0.60032E+08         0.00000E+00
    0.00000E+00         0.00000E+00        -0.17649E+08
 
   -0.19979E+08        -0.31935E+05         0.00000E+00
   -0.31935E+05        -0.60390E+08         0.00000E+00
    0.00000E+00         0.00000E+00        -0.17683E+08
 
   -0.20303E+08        -0.59699E+05         0.00000E+00
   -0.59699E+05        -0.60748E+08         0.00000E+00
    0.00000E+00         0.00000E+00        -0.17709E+08
 
   -0.20630E+08        -0.76170E+05         0.00000E+00
   -0.76170E+05        -0.61105E+08         0.00000E+00
    0.00000E+00         0.00000E+00        -0.17733E+08
 
   -0.20953E+08        -0.67281E+05         0.00000E+00
   -0.67281E+05        -0.61441E+08         0.00000E+00
    0.00000E+00         0.00000E+00        -0.17744E+08
 
   -0.21279E+08        -0.27158E+05         0.00000E+00
   -0.27158E+05        -0.61723E+08         0.00000E+00
    0.00000E+00         0.00000E+00        -0.17707E+08
 
   -0.32385E+07        -0.50487E+05         0.00000E+00
   -0.50487E+05        -0.27890E+08         0.00000E+00
    0.00000E+00         0.00000E+00        -0.87829E+07
 
   -0.36536E+07        -0.10684E+06         0.00000E+00
   -0.10684E+06        -0.28236E+08         0.00000E+00
    0.00000E+00         0.00000E+00        -0.86762E+07
 
   -0.41588E+07        -0.12731E+06         0.00000E+00
   -0.12731E+06        -0.28605E+08         0.00000E+00
    0.00000E+00         0.00000E+00        -0.86701E+07
 
   -0.46476E+07        -0.10360E+06         0.00000E+00
   -0.10360E+06        -0.29036E+08         0.00000E+00
    0.00000E+00         0.00000E+00        -0.86701E+07
 
   -0.50959E+07        -0.61509E+05         0.00000E+00
   -0.61509E+05        -0.29442E+08         0.00000E+00
    0.00000E+00         0.00000E+00        -0.86701E+07
 
   -0.55031E+07        -0.13524E+05         0.00000E+00
   -0.13524E+05        -0.29839E+08         0.00000E+00
    0.00000E+00         0.00000E+00        -0.86701E+07
 
   -0.58738E+07         0.36576E+05         0.00000E+00
    0.36576E+05        -0.30239E+08         0.00000E+00
    0.00000E+00         0.00000E+00        -0.86701E+07
 
   -0.62128E+07         0.89762E+05         0.00000E+00
    0.89762E+05        -0.30645E+08         0.00000E+00
    0.00000E+00         0.00000E+00        -0.86701E+07
 
   -0.65232E+07         0.14362E+06         0.00000E+00
    0.14362E+06        -0.31054E+08         0.00000E+00
    0.00000E+00         0.00000E+00        -0.86701E+07
 
   -0.68068E+07         0.19555E+06         0.00000E+00
    0.19555E+06        -0.31464E+08         0.00000E+00
    0.00000E+00         0.00000E+00        -0.86701E+07
 
   -0.70650E+07         0.24376E+06         0.00000E+00
    0.24376E+06        -0.31874E+08         0.00000E+00
    0.00000E+00         0.00000E+00        -0.86701E+07
 
   -0.73001E+07         0.28709E+06         0.00000E+00
    0.28709E+06        -0.32282E+08         0.00000E+00
    0.00000E+00         0.00000E+00        -0.86701E+07
 
   -0.75143E+07         0.32466E+06         0.00000E+00
    0.32466E+06        -0.32690E+08         0.00000E+00
    0.00000E+00         0.00000E+00        -0.86701E+07
 
   -0.77104E+07         0.35580E+06         0.00000E+00
    0.35580E+06        -0.33096E+08         0.00000E+00
    0.00000E+00         0.00000E+00        -0.86701E+07
 
   -0.78914E+07         0.37992E+06         0.00000E+00
    0.37992E+06        -0.33501E+08         0.00000E+00
    0.00000E+00         0.00000E+00        -0.86701E+07
 
   -0.80606E+07         0.39630E+06         0.00000E+00
    0.39630E+06        -0.33904E+08         0.00000E+00
    0.00000E+00         0.00000E+00        -0.86701E+07
 
   -0.82219E+07         0.40485E+06         0.00000E+00
    0.40485E+06        -0.34305E+08         0.00000E+00
    0.00000E+00         0.00000E+00        -0.86701E+07
 
   -0.83793E+07         0.40630E+06         0.00000E+00
    0.40630E+06        -0.34704E+08         0.00000E+00
    0.00000E+00         0.00000E+00        -0.86701E+07
 
   -0.85326E+07         0.39284E+06         0.00000E+00
    0.39284E+06        -0.35095E+08         0.00000E+00
    0.00000E+00         0.00000E+00        -0.86921E+07
 
   -0.86760E+07         0.39899E+06         0.00000E+00
    0.39899E+06        -0.35474E+08         0.00000E+00
    0.00000E+00         0.00000E+00        -0.87639E+07
 
   -0.88103E+07         0.40166E+06         0.00000E+00
    0.40166E+06        -0.35851E+08         0.00000E+00
    0.00000E+00         0.00000E+00        -0.88701E+07
 
   -0.89420E+07         0.40733E+06         0.00000E+00
    0.40733E+06        -0.36233E+08         0.00000E+00
    0.00000E+00         0.00000E+00        -0.89772E+07
 
   -0.90711E+07         0.41330E+06         0.00000E+00
    0.41330E+06        -0.36614E+08         0.00000E+00
    0.00000E+00         0.00000E+00        -0.90844E+07
 
   -0.91971E+07         0.41826E+06         0.00000E+00
    0.41826E+06        -0.36992E+08         0.00000E+00
    0.00000E+00         0.00000E+00        -0.91911E+07
 
   -0.93198E+07         0.42200E+06         0.00000E+00
    0.42200E+06        -0.37366E+08         0.00000E+00
    0.00000E+00         0.00000E+00        -0.92970E+07
 
   -0.94393E+07         0.42469E+06         0.00000E+00
    0.42469E+06        -0.37738E+08         0.00000E+00
    0.00000E+00         0.00000E+00        -0.94016E+07
 
   -0.95558E+07         0.42655E+06         0.00000E+00
    0.42655E+06        -0.38107E+08         0.00000E+00
    0.00000E+00         0.00000E+00        -0.95047E+07
 
   -0.96695E+07         0.42779E+06         0.00000E+00
    0.42779E+06        -0.38473E+08         0.00000E+00
    0.00000E+00         0.00000E+00        -0.96060E+07
 
   -0.97807E+07         0.42857E+06         0.00000E+00
    0.42857E+06        -0.38837E+08         0.00000E+00
    0.00000E+00         0.00000E+00        -0.97053E+07
 
   -0.98895E+07         0.42899E+06         0.00000E+00
    0.42899E+06        -0.39197E+08         0.00000E+00
    0.00000E+00         0.00000E+00        -0.98026E+07
 
   -0.99964E+07         0.42911E+06         0.00000E+00
    0.42911E+06        -0.39555E+08         0.00000E+00
    0.00000E+00         0.00000E+00        -0.98979E+07
 
   -0.10102E+08         0.42891E+06         0.00000E+00
    0.42891E+06        -0.39911E+08         0.00000E+00
    0.00000E+00         0.00000E+00        -0.99909E+07
 
   -0.10206E+08         0.42822E+06         0.00000E+00
    0.42822E+06        -0.40264E+08         0.00000E+00
    0.00000E+00         0.00000E+00        -0.10082E+08
 
   -0.10309E+08         0.42661E+06         0.00000E+00
    0.42661E+06        -0.40615E+08         0.00000E+00
    0.00000E+00         0.00000E+00        -0.10171E+08
 
   -0.10414E+08         0.42292E+06         0.00000E+00
    0.42292E+06        -0.40965E+08         0.00000E+00
    0.00000E+00         0.00000E+00        -0.10257E+08
 
   -0.10519E+08         0.41521E+06         0.00000E+00
    0.41521E+06        -0.41318E+08         0.00000E+00
    0.00000E+00         0.00000E+00        -0.10342E+08
 
   -0.10624E+08         0.40324E+06         0.00000E+00
    0.40324E+06        -0.41666E+08         0.00000E+00
    0.00000E+00         0.00000E+00        -0.10438E+08
 
   -0.10728E+08         0.39173E+06         0.00000E+00
    0.39173E+06        -0.42002E+08         0.00000E+00
    0.00000E+00         0.00000E+00        -0.10558E+08
 
   -0.10833E+08         0.38376E+06         0.00000E+00
    0.38376E+06        -0.42336E+08         0.00000E+00
    0.00000E+00         0.00000E+00        -0.10685E+08
 
   -0.10940E+08         0.37926E+06         0.00000E+00
    0.37926E+06        -0.42672E+08         0.00000E+00
    0.00000E+00         0.00000E+00        -0.10810E+08
 
   -0.11049E+08         0.37657E+06         0.00000E+00
    0.37657E+06        -0.43006E+08         0.00000E+00
    0.00000E+00         0.00000E+00        -0.10934E+08
 
   -0.11157E+08         0.37466E+06         0.00000E+00
    0.37466E+06        -0.43339E+08         0.00000E+00
    0.00000E+00         0.00000E+00        -0.11057E+08
 
   -0.11266E+08         0.37311E+06         0.00000E+00
    0.37311E+06        -0.43671E+08         0.00000E+00
    0.00000E+00         0.00000E+00        -0.11178E+08
 
   -0.11375E+08         0.37172E+06         0.00000E+00
    0.37172E+06        -0.44001E+08         0.00000E+00
    0.00000E+00         0.00000E+00        -0.11298E+08
 
   -0.11484E+08         0.37038E+06         0.00000E+00
    0.37038E+06        -0.44329E+08         0.00000E+00
    0.00000E+00         0.00000E+00        -0.11416E+08
 
   -0.11592E+08         0.36906E+06         0.00000E+00
    0.36906E+06        -0.44656E+08         0.00000E+00
    0.00000E+00         0.00000E+00        -0.11534E+08
 
   -0.11700E+08         0.36773E+06         0.00000E+00
    0.36773E+06        -0.44982E+08         0.00000E+00
    0.00000E+00         0.00000E+00        -0.11651E+08
 
   -0.11815E+08         0.36621E+06         0.00000E+00
    0.36621E+06        -0.45298E+08         0.00000E+00
    0.00000E+00         0.00000E+00        -0.11775E+08
 
   -0.11946E+08         0.36437E+06         0.00000E+00
    0.36437E+06        -0.45599E+08         0.00000E+00
    0.00000E+00         0.00000E+00        -0.11913E+08
 
   -0.12080E+08         0.36245E+06         0.00000E+00
    0.36245E+06        -0.45896E+08         0.00000E+00
    0.00000E+00         0.00000E+00        -0.12054E+08
 
   -0.12215E+08         0.36054E+06         0.00000E+00
    0.36054E+06        -0.46192E+08         0.00000E+00
    0.00000E+00         0.00000E+00        -0.12195E+08
 
   -0.12349E+08         0.35864E+06         0.00000E+00
    0.35864E+06        -0.46487E+08         0.00000E+00
    0.00000E+00         0.00000E+00        -0.12335E+08
 
   -0.12482E+08         0.35675E+06         0.00000E+00
    0.35675E+06        -0.46781E+08         0.00000E+00
    0.00000E+00         0.00000E+00        -0.12474E+08
 
   -0.12616E+08         0.35487E+06         0.00000E+00
    0.35487E+06        -0.47074E+08         0.00000E+00
    0.00000E+00         0.00000E+00        -0.12613E+08
 
   -0.12750E+08         0.35301E+06         0.00000E+00
    0.35301E+06        -0.47368E+08         0.00000E+00
    0.00000E+00         0.00000E+00        -0.12752E+08
 
   -0.12885E+08         0.35114E+06         0.00000E+00
    0.35114E+06        -0.47661E+08         0.00000E+00
    0.00000E+00         0.00000E+00        -0.12890E+08
 
   -0.13019E+08         0.34928E+06         0.00000E+00
    0.34928E+06        -0.47953E+08         0.00000E+00
    0.00000E+00         0.00000E+00        -0.13028E+08
 
   -0.13154E+08         0.34742E+06         0.00000E+00
    0.34742E+06        -0.48246E+08         0.00000E+00
    0.00000E+00         0.00000E+00        -0.13165E+08
 
   -0.13289E+08         0.34555E+06         0.00000E+00
    0.34555E+06        -0.48539E+08         0.00000E+00
    0.00000E+00         0.00000E+00        -0.13302E+08
 
   -0.13424E+08         0.34366E+06         0.00000E+00
    0.34366E+06        -0.48832E+08         0.00000E+00
    0.00000E+00         0.00000E+00        -0.13439E+08
 
   -0.13560E+08         0.34175E+06         0.00000E+00
    0.34175E+06        -0.49126E+08         0.00000E+00
    0.00000E+00         0.00000E+00        -0.13576E+08
 
   -0.13696E+08         0.33982E+06         0.00000E+00
    0.33982E+06        -0.49420E+08         0.00000E+00
    0.00000E+00         0.00000E+00        -0.13713E+08
 
   -0.13833E+08         0.33784E+06         0.00000E+00
    0.33784E+06        -0.49714E+08         0.00000E+00
    0.00000E+00         0.00000E+00        -0.13850E+08
 
   -0.13971E+08         0.33582E+06         0.00000E+00
    0.33582E+06        -0.50010E+08         0.00000E+00
    0.00000E+00         0.00000E+00        -0.13986E+08
 
   -0.14110E+08         0.33374E+06         0.00000E+00
    0.33374E+06        -0.50306E+08         0.00000E+00
    0.00000E+00         0.00000E+00        -0.14123E+08
 
   -0.14249E+08         0.33161E+06         0.00000E+00
    0.33161E+06        -0.50603E+08         0.00000E+00
    0.00000E+00         0.00000E+00        -0.14260E+08
 
   -0.14390E+08         0.32940E+06         0.00000E+00
    0.32940E+06        -0.50901E+08         0.00000E+00
    0.00000E+00         0.00000E+00        -0.14396E+08
 
   -0.14532E+08         0.32711E+06         0.00000E+00
    0.32711E+06        -0.51201E+08         0.00000E+00
    0.00000E+00         0.00000E+00        -0.14533E+08
 
   -0.14675E+08         0.32472E+06         0.00000E+00
    0.32472E+06        -0.51502E+08         0.00000E+00
    0.00000E+00         0.00000E+00        -0.14669E+08
 
   -0.14819E+08         0.32223E+06         0.00000E+00
    0.32223E+06        -0.51804E+08         0.00000E+00
    0.00000E+00         0.00000E+00        -0.14806E+08
 
   -0.14964E+08         0.31961E+06         0.00000E+00
    0.31961E+06        -0.52108E+08         0.00000E+00
    0.00000E+00         0.00000E+00        -0.14943E+08
 
   -0.15112E+08         0.31686E+06         0.00000E+00
    0.31686E+06        -0.52413E+08         0.00000E+00
    0.00000E+00         0.00000E+00        -0.15079E+08
 
   -0.15261E+08         0.31394E+06         0.00000E+00
    0.31394E+06        -0.52720E+08         0.00000E+00
    0.00000E+00         0.00000E+00        -0.15216E+08
 
   -0.15411E+08         0.31083E+06         0.00000E+00
    0.31083E+06        -0.53029E+08         0.00000E+00
    0.00000E+00         0.00000E+00        -0.15352E+08
 
   -0.15564E+08         0.30749E+06         0.00000E+00
    0.30749E+06        -0.53339E+08         0.00000E+00
    0.00000E+00         0.00000E+00        -0.15488E+08
 
   -0.15719E+08         0.30388E+06         0.00000E+00
    0.30388E+06        -0.53652E+08         0.00000E+00
    0.00000E+00         0.00000E+00        -0.15623E+08
 
   -0.15876E+08         0.29995E+06         0.00000E+00
    0.29995E+06        -0.53966E+08         0.00000E+00
    0.00000E+00         0.00000E+00        -0.15758E+08
 
   -0.16036E+08         0.29560E+06         0.00000E+00
    0.29560E+06        -0.54283E+08         0.00000E+00
    0.00000E+00         0.00000E+00        -0.15892E+08
 
   -0.16199E+08         0.29076E+06         0.00000E+00
    0.29076E+06        -0.54601E+08         0.00000E+00
    0.00000E+00         0.00000E+00        -0.16026E+08
 
   -0.16364E+08         0.28531E+06         0.00000E+00
    0.28531E+06        -0.54922E+08         0.00000E+00
    0.00000E+00         0.00000E+00        -0.16158E+08
 
   -0.16534E+08         0.27909E+06         0.00000E+00
    0.27909E+06        -0.55245E+08         0.00000E+00
    0.00000E+00         0.00000E+00        -0.16289E+08
 
   -0.16707E+08         0.27192E+06         0.00000E+00
    0.27192E+06        -0.55570E+08         0.00000E+00
    0.00000E+00         0.00000E+00        -0.16418E+08
 
   -0.16885E+08         0.26360E+06         0.00000E+00
    0.26360E+06        -0.55898E+08         0.00000E+00
    0.00000E+00         0.00000E+00        -0.16544E+08
 
   -0.17069E+08         0.25386E+06         0.00000E+00
    0.25386E+06        -0.56228E+08         0.00000E+00
    0.00000E+00         0.00000E+00        -0.16668E+08
 
   -0.17258E+08         0.24243E+06         0.00000E+00
    0.24243E+06        -0.56560E+08         0.00000E+00
    0.00000E+00         0.00000E+00        -0.16789E+08
 
   -0.17454E+08         0.22897E+06         0.00000E+00
    0.22897E+06        -0.56895E+08         0.00000E+00
    0.00000E+00         0.00000E+00        -0.16905E+08
 
   -0.17657E+08         0.21319E+06         0.00000E+00
    0.21319E+06        -0.57233E+08         0.00000E+00
    0.00000E+00         0.00000E+00        -0.17017E+08
 
   -0.17869E+08         0.19476E+06         0.00000E+00
    0.19476E+06        -0.57574E+08         0.00000E+00
    0.00000E+00         0.00000E+00        -0.17123E+08
 
   -0.18091E+08         0.17345E+06         0.00000E+00
    0.17345E+06        -0.57917E+08         0.00000E+00
    0.00000E+00         0.00000E+00        -0.17222E+08
 
   -0.18324E+08         0.14916E+06         0.00000E+00
    0.14916E+06        -0.58263E+08         0.00000E+00
    0.00000E+00         0.00000E+00        -0.17313E+08
 
   -0.18570E+08         0.12195E+06         0.00000E+00
    0.12195E+06        -0.58612E+08         0.00000E+00
    0.00000E+00         0.00000E+00        -0.17395E+08
 
   -0.18829E+08         0.92199E+05         0.00000E+00
    0.92199E+05        -0.58963E+08         0.00000E+00
    0.00000E+00         0.00000E+00        -0.17468E+08
 
   -0.19102E+08         0.60599E+05         0.00000E+00
    0.60599E+05        -0.59315E+08         0.00000E+00
    0.00000E+00         0.00000E+00        -0.17529E+08
 
   -0.19391E+08         0.28202E+05         0.00000E+00
    0.28202E+05        -0.59670E+08         0.00000E+00
    0.00000E+00         0.00000E+00        -0.17580E+08
 
   -0.19695E+08        -0.36165E+04         0.00000E+00
   -0.36165E+04        -0.60027E+08         0.00000E+00
    0.00000E+00         0.00000E+00        -0.17619E+08
 
   -0.20013E+08        -0.33197E+05         0.00000E+00
   -0.33197E+05        -0.60385E+08         0.00000E+00
    0.00000E+00         0.00000E+00        -0.17648E+08
 
   -0.20344E+08        -0.59058E+05         0.00000E+00
   -0.59058E+05        -0.60745E+08         0.00000E+00
    0.00000E+00         0.00000E+00        -0.17670E+08
 
   -0.20679E+08        -0.76340E+05         0.00000E+00
   -0.76340E+05        -0.61105E+08         0.00000E+00
    0.00000E+00         0.00000E+00        -0.17690E+08
 
   -0.21008E+08        -0.69716E+05         0.00000E+00
   -0.69716E+05        -0.61448E+08         0.00000E+00
    0.00000E+00         0.00000E+00        -0.17703E+08
 
   -0.21336E+08        -0.28777E+05         0.00000E+00
   -0.28777E+05        -0.61737E+08         0.00000E+00
    0.00000E+00         0.00000E+00        -0.17671E+08
 
   -0.31484E+07        -0.51526E+05         0.00000E+00
   -0.51526E+05        -0.27858E+08         0.00000E+00
    0.00000E+00         0.00000E+00        -0.88426E+07
 
   -0.35570E+07        -0.99934E+05         0.00000E+00
   -0.99934E+05        -0.28229E+08         0.00000E+00
    0.00000E+00         0.00000E+00        -0.87096E+07
 
   -0.40478E+07        -0.10764E+06         0.00000E+00
   -0.10764E+06        -0.28627E+08         0.00000E+00
    0.00000E+00         0.00000E+00        -0.86701E+07
 
   -0.45683E+07        -0.90341E+05         0.00000E+00
   -0.90341E+05        -0.29035E+08         0.00000E+00
    0.00000E+00         0.00000E+00        -0.86701E+07
 
   -0.50306E+07        -0.56951E+05         0.00000E+00
   -0.56951E+05        -0.29453E+08         0.00000E+00
    0.00000E+00         0.00000E+00        -0.86701E+07
 
   -0.54474E+07        -0.17459E+05         0.00000E+00
   -0.17459E+05        -0.29847E+08         0.00000E+00
    0.00000E+00         0.00000E+00        -0.86701E+07
 
   -0.58261E+07         0.26115E+05         0.00000E+00
    0.26115E+05        -0.30249E+08         0.00000E+00
    0.00000E+00         0.00000E+00        -0.86701E+07
 
   -0.61727E+07         0.73446E+05         0.00000E+00
    0.73446E+05        -0.30656E+08         0.00000E+00
    0.00000E+00         0.00000E+00        -0.86701E+07
 
   -0.64899E+07         0.12203E+06         0.00000E+00
    0.12203E+06        -0.31064E+08         0.00000E+00
    0.00000E+00         0.00000E+00        -0.86701E+07
 
   -0.67792E+07         0.16890E+06         0.00000E+00
    0.16890E+06        -0.31474E+08         0.00000E+00
    0.00000E+00         0.00000E+00        -0.86701E+07
 
   -0.70420E+07         0.21247E+06         0.00000E+00
    0.21247E+06        -0.31882E+08         0.00000E+00
    0.00000E+00         0.00000E+00        -0.86701E+07
 
   -0.72804E+07         0.25163E+06         0.00000E+00
    0.25163E+06        -0.32290E+08         0.00000E+00
    0.00000E+00         0.00000E+00        -0.86701E+07
 
   -0.74970E+07         0.28558E+06         0.00000E+00
    0.28558E+06        -0.32697E+08         0.00000E+00
    0.00000E+00         0.00000E+00        -0.86701E+07
 
   -0.76946E+07         0.31373E+06         0.00000E+00
    0.31373E+06        -0.33102E+08         0.00000E+00
    0.00000E+00         0.00000E+00        -0.86701E+07
 
   -0.78764E+07         0.33550E+06         0.00000E+00
    0.33550E+06        -0.33505E+08         0.00000E+00
    0.00000E+00         0.00000E+00        -0.86701E+07
 
   -0.80460E+07         0.35029E+06         0.00000E+00
    0.35029E+06        -0.33906E+08         0.00000E+00
    0.00000E+00         0.00000E+00        -0.86701E+07
 
   -0.82073E+07         0.35809E+06         0.00000E+00
    0.35809E+06        -0.34306E+08         0.00000E+00
    0.00000E+00         0.00000E+00        -0.86701E+07
 
   -0.83640E+07         0.35965E+06         0.00000E+00
    0.35965E+06        -0.34703E+08         0.00000E+00
    0.00000E+00         0.00000E+00        -0.86701E+07
 
   -0.85184E+07         0.34584E+06         0.00000E+00
    0.34584E+06        -0.35094E+08         0.00000E+00
    0.00000E+00         0.00000E+00        -0.86858E+07
 
   -0.86639E+07         0.34915E+06         0.00000E+00
    0.34915E+06        -0.35474E+08         0.00000E+00
    0.00000E+00         0.00000E+00        -0.87512E+07
 
   -0.88001E+07         0.35178E+06         0.00000E+00
    0.35178E+06        -0.35852E+08         0.00000E+00
    0.00000E+00         0.00000E+00        -0.88575E+07
 
   -0.89340E+07         0.35763E+06         0.00000E+00
    0.35763E+06        -0.36235E+08         0.00000E+00
    0.00000E+00         0.00000E+00        -0.89648E+07
 
   -0.90647E+07         0.36347E+06         0.00000E+00
    0.36347E+06        -0.36615E+08         0.00000E+00
    0.00000E+00         0.00000E+00        -0.90723E+07
 
   -0.91920E+07         0.36827E+06         0.00000E+00
    0.36827E+06        -0.36992E+08         0.00000E+00
    0.00000E+00         0.00000E+00        -0.91795E+07
 
   -0.93155E+07         0.37183E+06         0.00000E+00
    0.37183E+06        -0.37367E+08         0.00000E+00
    0.00000E+00         0.00000E+00        -0.92858E+07
 
   -0.94356E+07         0.37440E+06         0.00000E+00
    0.37440E+06        -0.37739E+08         0.00000E+00
    0.00000E+00         0.00000E+00        -0.93908E+07
 
   -0.95524E+07         0.37620E+06         0.00000E+00
    0.37620E+06        -0.38107E+08         0.00000E+00
    0.00000E+00         0.00000E+00        -0.94943E+07
 
   -0.96663E+07         0.37742E+06         0.00000E+00
    0.37742E+06        -0.38473E+08         0.00000E+00
    0.00000E+00         0.00000E+00        -0.95961E+07
 
   -0.97775E+07         0.37821E+06         0.00000E+00
    0.37821E+06        -0.38837E+08         0.00000E+00
    0.00000E+00         0.00000E+00        -0.96960E+07
 
   -0.98863E+07         0.37870E+06         0.00000E+00
    0.37870E+06        -0.39197E+08         0.00000E+00
    0.00000E+00         0.00000E+00        -0.97938E+07
 
   -0.99930E+07         0.37894E+06         0.00000E+00
    0.37894E+06        -0.39555E+08         0.00000E+00
    0.00000E+00         0.00000E+00        -0.98895E+07
 
   -0.10098E+08         0.37894E+06         0.00000E+00
    0.37894E+06        -0.39911E+08         0.00000E+00
    0.00000E+00         0.00000E+00        -0.99830E+07
 
   -0.10201E+08         0.37855E+06         0.00000E+00
    0.37855E+06        -0.40264E+08         0.00000E+00
    0.00000E+00         0.00000E+00        -0.10074E+08
 
   -0.10304E+08         0.37743E+06         0.00000E+00
    0.37743E+06        -0.40615E+08         0.00000E+00
    0.00000E+00         0.00000E+00        -0.10164E+08
 
   -0.10408E+08         0.37446E+06         0.00000E+00
    0.37446E+06        -0.40964E+08         0.00000E+00
    0.00000E+00         0.00000E+00        -0.10251E+08
 
   -0.10512E+08         0.36743E+06         0.00000E+00
    0.36743E+06        -0.41316E+08         0.00000E+00
    0.00000E+00         0.00000E+00        -0.10336E+08
 
   -0.10617E+08         0.35565E+06         0.00000E+00
    0.35565E+06        -0.41664E+08         0.00000E+00
    0.00000E+00         0.00000E+00        -0.10432E+08
 
   -0.10722E+08         0.34455E+06         0.00000E+00
    0.34455E+06        -0.42000E+08         0.00000E+00
    0.00000E+00         0.00000E+00        -0.10552E+08
 
   -0.10828E+08         0.33736E+06         0.00000E+00
    0.33736E+06        -0.42335E+08         0.00000E+00
    0.00000E+00         0.00000E+00        -0.10679E+08
 
   -0.10936E+08         0.33364E+06         0.00000E+00
    0.33364E+06        -0.42671E+08         0.00000E+00
    0.00000E+00         0.00000E+00        -0.10805E+08
 
   -0.11045E+08         0.33151E+06         0.00000E+00
    0.33151E+06        -0.43006E+08         0.00000E+00
    0.00000E+00         0.00000E+00        -0.10929E+08
 
   -0.11154E+08         0.33001E+06         0.00000E+00
    0.33001E+06        -0.43339E+08         0.00000E+00
    0.00000E+00         0.00000E+00        -0.11052E+08
 
   -0.11264E+08         0.32878E+06         0.00000E+00
    0.32878E+06        -0.43671E+08         0.00000E+00
    0.00000E+00         0.00000E+00        -0.11174E+08
 
   -0.11373E+08         0.32766E+06         0.00000E+00
    0.32766E+06        -0.44001E+08         0.00000E+00
    0.00000E+00         0.00000E+00        -0.11294E+08
 
   -0.11482E+08         0.32657E+06         0.00000E+00
    0.32657E+06        -0.44329E+08         0.00000E+00
    0.00000E+00         0.00000E+00        -0.11413E+08
 
   -0.11591E+08         0.32546E+06         0.00000E+00
    0.32546E+06        -0.44656E+08         0.00000E+00
    0.00000E+00         0.00000E+00        -0.11531E+08
 
   -0.11699E+08         0.32433E+06         0.00000E+00
    0.32433E+06        -0.44981E+08         0.00000E+00
    0.00000E+00         0.00000E+00        -0.11648E+08
 
   -0.11815E+08         0.32302E+06         0.00000E+00
    0.32302E+06        -0.45298E+08         0.00000E+00
    0.00000E+00         0.00000E+00        -0.11772E+08
 
   -0.11946E+08         0.32142E+06         0.00000E+00
    0.32142E+06        -0.45599E+08         0.00000E+00
    0.00000E+00         0.00000E+00        -0.11911E+08
 
   -0.12080E+08         0.31975E+06         0.00000E+00
    0.31975E+06        -0.45896E+08         0.00000E+00
    0.00000E+00         0.00000E+00        -0.12052E+08
 
   -0.12214E+08         0.31808E+06         0.00000E+00
    0.31808E+06        -0.46191E+08         0.00000E+00
    0.00000E+00         0.00000E+00        -0.12193E+08
 
   -0.12348E+08         0.31641E+06         0.00000E+00
    0.31641E+06        -0.46486E+08         0.00000E+00
    0.00000E+00         0.00000E+00        -0.12333E+08
 
   -0.12482E+08         0.31475E+06         0.00000E+00
    0.31475E+06        -0.46781E+08         0.00000E+00
    0.00000E+00         0.00000E+00        -0.12473E+08
 
   -0.12616E+08         0.31310E+06         0.00000E+00
    0.31310E+06        -0.47074E+08         0.00000E+00
    0.00000E+00         0.00000E+00        -0.12612E+08
 
   -0.12750E+08         0.31145E+06         0.00000E+00
    0.31145E+06        -0.47368E+08         0.00000E+00
    0.00000E+00         0.00000E+00        -0.12751E+08
 
   -0.12884E+08         0.30980E+06         0.00000E+00
    0.30980E+06        -0.47661E+08         0.00000E+00
    0.00000E+00         0.00000E+00        -0.12889E+08
 
   -0.13018E+08         0.30816E+06         0.00000E+00
    0.30816E+06        -0.47954E+08         0.00000E+00
    0.00000E+00         0.00000E+00        -0.13027E+08
 
   -0.13153E+08         0.30651E+06         0.00000E+00
    0.30651E+06        -0.48247E+08         0.00000E+00
    0.00000E+00         0.00000E+00        -0.13164E+08
 
   -0.13288E+08         0.30486E+06         0.00000E+00
    0.30486E+06        -0.48540E+08         0.00000E+00
    0.00000E+00         0.00000E+00        -0.13302E+08
 
   -0.13423E+08         0.30319E+06         0.00000E+00
    0.30319E+06        -0.48833E+08         0.00000E+00
    0.00000E+00         0.00000E+00        -0.13439E+08
 
   -0.13559E+08         0.30149E+06         0.00000E+00
    0.30149E+06        -0.49126E+08         0.00000E+00
    0.00000E+00         0.00000E+00        -0.13576E+08
 
   -0.13696E+08         0.29977E+06         0.00000E+00
    0.29977E+06        -0.49420E+08         0.00000E+00
    0.00000E+00         0.00000E+00        -0.13713E+08
 
   -0.13833E+08         0.29802E+06         0.00000E+00
    0.29802E+06        -0.49715E+08         0.00000E+00
    0.00000E+00         0.00000E+00        -0.13850E+08
 
   -0.13971E+08         0.29623E+06         0.00000E+00
    0.29623E+06        -0.50011E+08         0.00000E+00
    0.00000E+00         0.00000E+00        -0.13986E+08
 
   -0.14109E+08         0.29439E+06         0.00000E+00
    0.29439E+06        -0.50307E+08         0.00000E+00
    0.00000E+00         0.00000E+00        -0.14123E+08
 
   -0.14249E+08         0.29249E+06         0.00000E+00
    0.29249E+06        -0.50604E+08         0.00000E+00
    0.00000E+00         0.00000E+00        -0.14260E+08
 
   -0.14390E+08         0.29053E+06         0.00000E+00
    0.29053E+06        -0.50903E+08         0.00000E+00
    0.00000E+00         0.00000E+00        -0.14396E+08
 
   -0.14531E+08         0.28849E+06         0.00000E+00
    0.28849E+06        -0.51202E+08         0.00000E+00
    0.00000E+00         0.00000E+00        -0.14533E+08
 
   -0.14674E+08         0.28637E+06         0.00000E+00
    0.28637E+06        -0.51503E+08         0.00000E+00
    0.00000E+00         0.00000E+00        -0.14670E+08
 
   -0.14819E+08         0.28416E+06         0.00000E+00
    0.28416E+06        -0.51806E+08         0.00000E+00
    0.00000E+00         0.00000E+00        -0.14806E+08
 
   -0.14965E+08         0.28184E+06         0.00000E+00
    0.28184E+06        -0.52109E+08         0.00000E+00
    0.00000E+00         0.00000E+00        -0.14943E+08
 
   -0.15112E+08         0.27939E+06         0.00000E+00
    0.27939E+06        -0.52415E+08         0.00000E+00
    0.00000E+00         0.00000E+00        -0.15079E+08
 
   -0.15261E+08         0.27680E+06         0.00000E+00
    0.27680E+06        -0.52722E+08         0.00000E+00
    0.00000E+00         0.00000E+00        -0.15216E+08
 
   -0.15412E+08         0.27405E+06         0.00000E+00
    0.27405E+06        -0.53031E+08         0.00000E+00
    0.00000E+00         0.00000E+00        -0.15352E+08
 
   -0.15565E+08         0.27109E+06         0.00000E+00
    0.27109E+06        -0.53341E+08         0.00000E+00
    0.00000E+00         0.00000E+00        -0.15488E+08
 
   -0.15720E+08         0.26790E+06         0.00000E+00
    0.26790E+06        -0.53654E+08         0.00000E+00
    0.00000E+00         0.00000E+00        -0.15623E+08
 
   -0.15877E+08         0.26441E+06         0.00000E+00
    0.26441E+06        -0.53968E+08         0.00000E+00
    0.00000E+00         0.00000E+00        -0.15758E+08
 
   -0.16037E+08         0.26057E+06         0.00000E+00
    0.26057E+06        -0.54285E+08         0.00000E+00
    0.00000E+00         0.00000E+00        -0.15892E+08
 
   -0.16200E+08         0.25629E+06         0.00000E+00
    0.25629E+06        -0.54603E+08         0.00000E+00
    0.00000E+00         0.00000E+00        -0.16025E+08
 
   -0.16366E+08         0.25146E+06         0.00000E+00
    0.25146E+06        -0.54924E+08         0.00000E+00
    0.00000E+00         0.00000E+00        -0.16157E+08
 
   -0.16536E+08         0.24595E+06         0.00000E+00
    0.24595E+06        -0.55247E+08         0.00000E+00
    0.00000E+00         0.00000E+00        -0.16287E+08
 
   -0.16710E+08         0.23960E+06         0.00000E+00
    0.23960E+06        -0.55572E+08         0.00000E+00
    0.00000E+00         0.00000E+00        -0.16416E+08
 
   -0.16888E+08         0.23221E+06         0.00000E+00
    0.23221E+06        -0.55899E+08         0.00000E+00
    0.00000E+00         0.00000E+00        -0.16542E+08
 
   -0.17072E+08         0.22356E+06         0.00000E+00
    0.22356E+06        -0.56229E+08         0.00000E+00
    0.00000E+00         0.00000E+00        -0.16665E+08
 
   -0.17262E+08         0.21338E+06         0.00000E+00
    0.21338E+06        -0.56561E+08         0.00000E+00
    0.00000E+00         0.00000E+00        -0.16785E+08
 
   -0.17458E+08         0.20139E+06         0.00000E+00
    0.20139E+06        -0.56896E+08         0.00000E+00
    0.00000E+00         0.00000E+00        -0.16901E+08
 
   -0.17663E+08         0.18730E+06         0.00000E+00
    0.18730E+06        -0.57233E+08         0.00000E+00
    0.00000E+00         0.00000E+00        -0.17011E+08
 
   -0.17876E+08         0.17082E+06         0.00000E+00
    0.17082E+06        -0.57573E+08         0.00000E+00
    0.00000E+00         0.00000E+00        -0.17115E+08
 
   -0.18099E+08         0.15175E+06         0.00000E+00
    0.15175E+06        -0.57916E+08         0.00000E+00
    0.00000E+00         0.00000E+00        -0.17212E+08
 
   -0.18334E+08         0.12998E+06         0.00000E+00
    0.12998E+06        -0.58261E+08         0.00000E+00
    0.00000E+00         0.00000E+00        -0.17301E+08
 
   -0.18582E+08         0.10559E+06         0.00000E+00
    0.10559E+06        -0.58609E+08         0.00000E+00
    0.00000E+00         0.00000E+00        -0.17381E+08
 
   -0.18844E+08         0.78927E+05         0.00000E+00
    0.78927E+05        -0.58959E+08         0.00000E+00
    0.00000E+00         0.00000E+00        -0.17450E+08
 
   -0.19121E+08         0.50626E+05         0.00000E+00
    0.50626E+05        -0.59312E+08         0.00000E+00
    0.00000E+00         0.00000E+00        -0.17508E+08
 
   -0.19414E+08         0.21642E+05         0.00000E+00
    0.21642E+05        -0.59667E+08         0.00000E+00
    0.00000E+00         0.00000E+00        -0.17555E+08
 
   -0.19723E+08        -0.68466E+04         0.00000E+00
   -0.68466E+04        -0.60023E+08         0.00000E+00
    0.00000E+00         0.00000E+00        -0.17590E+08
 
   -0.20047E+08        -0.33369E+05         0.00000E+00
   -0.33369E+05        -0.60381E+08         0.00000E+00
    0.00000E+00         0.00000E+00        -0.17614E+08
 
   -0.20384E+08        -0.56901E+05         0.00000E+00
   -0.56901E+05        -0.60741E+08         0.00000E+00
    0.00000E+00         0.00000E+00        -0.17631E+08
 
   -0.20728E+08        -0.74737E+05         0.00000E+00
   -0.74737E+05        -0.61103E+08         0.00000E+00
    0.00000E+00         0.00000E+00        -0.17646E+08
 
   -0.21065E+08        -0.71271E+05         0.00000E+00
   -0.71271E+05        -0.61454E+08         0.00000E+00
    0.00000E+00         0.00000E+00        -0.17659E+08
 
   -0.21395E+08        -0.30307E+05         0.00000E+00
   -0.30307E+05        -0.61751E+08         0.00000E+00
    0.00000E+00         0.00000E+00        -0.17633E+08
 
   -0.30674E+07        -0.49227E+05         0.00000E+00
   -0.49227E+05        -0.27833E+08         0.00000E+00
    0.00000E+00         0.00000E+00        -0.89064E+07
 
   -0.34828E+07        -0.97871E+05         0.00000E+00
   -0.97871E+05        -0.28215E+08         0.00000E+00
    0.00000E+00         0.00000E+00        -0.87623E+07
 
   -0.39699E+07        -0.83702E+05         0.00000E+00
   -0.83702E+05        -0.28640E+08         0.00000E+00
    0.00000E+00         0.00000E+00        -0.86911E+07
 
   -0.44945E+07        -0.74641E+05         0.00000E+00
   -0.74641E+05        -0.29047E+08         0.00000E+00
    0.00000E+00         0.00000E+00        -0.86701E+07
 
   -0.49697E+07        -0.50080E+05         0.00000E+00
   -0.50080E+05        -0.29456E+08         0.00000E+00
    0.00000E+00         0.00000E+00        -0.86701E+07
 
   -0.53941E+07        -0.19866E+05         0.00000E+00
   -0.19866E+05        -0.29856E+08         0.00000E+00
    0.00000E+00         0.00000E+00        -0.86701E+07
 
   -0.57808E+07         0.17219E+05         0.00000E+00
    0.17219E+05        -0.30258E+08         0.00000E+00
    0.00000E+00         0.00000E+00        -0.86701E+07
 
   -0.61346E+07         0.58560E+05         0.00000E+00
    0.58560E+05        -0.30665E+08         0.00000E+00
    0.00000E+00         0.00000E+00        -0.86701E+07
 
   -0.64587E+07         0.10170E+06         0.00000E+00
    0.10170E+06        -0.31074E+08         0.00000E+00
    0.00000E+00         0.00000E+00        -0.86701E+07
 
   -0.67536E+07         0.14325E+06         0.00000E+00
    0.14325E+06        -0.31482E+08         0.00000E+00
    0.00000E+00         0.00000E+00        -0.86701E+07
 
   -0.70207E+07         0.18195E+06         0.00000E+00
    0.18195E+06        -0.31890E+08         0.00000E+00
    0.00000E+00         0.00000E+00        -0.86701E+07
 
   -0.72624E+07         0.21671E+06         0.00000E+00
    0.21671E+06        -0.32297E+08         0.00000E+00
    0.00000E+00         0.00000E+00        -0.86701E+07
 
   -0.74811E+07         0.24686E+06         0.00000E+00
    0.24686E+06        -0.32702E+08         0.00000E+00
    0.00000E+00         0.00000E+00        -0.86701E+07
 
   -0.76799E+07         0.27185E+06         0.00000E+00
    0.27185E+06        -0.33106E+08         0.00000E+00
    0.00000E+00         0.00000E+00        -0.86701E+07
 
   -0.78623E+07         0.29116E+06         0.00000E+00
    0.29116E+06        -0.33508E+08         0.00000E+00
    0.00000E+00         0.00000E+00        -0.86701E+07
 
   -0.80319E+07         0.30430E+06         0.00000E+00
    0.30430E+06        -0.33908E+08         0.00000E+00
    0.00000E+00         0.00000E+00        -0.86701E+07
 
   -0.81929E+07         0.31122E+06         0.00000E+00
    0.31122E+06        -0.34307E+08         0.00000E+00
    0.00000E+00         0.00000E+00        -0.86701E+07
 
   -0.83485E+07         0.31267E+06         0.00000E+00
    0.31267E+06        -0.34703E+08         0.00000E+00
    0.00000E+00         0.00000E+00        -0.86701E+07
 
   -0.85032E+07         0.29962E+06         0.00000E+00
    0.29962E+06        -0.35092E+08         0.00000E+00
    0.00000E+00         0.00000E+00        -0.86793E+07
 
   -0.86509E+07         0.29943E+06         0.00000E+00
    0.29943E+06        -0.35474E+08         0.00000E+00
    0.00000E+00         0.00000E+00        -0.87382E+07
 
   -0.87899E+07         0.30252E+06         0.00000E+00
    0.30252E+06        -0.35853E+08         0.00000E+00
    0.00000E+00         0.00000E+00        -0.88447E+07
 
   -0.89263E+07         0.30830E+06         0.00000E+00
    0.30830E+06        -0.36236E+08         0.00000E+00
    0.00000E+00         0.00000E+00        -0.89523E+07
 
   -0.90588E+07         0.31393E+06         0.00000E+00
    0.31393E+06        -0.36616E+08         0.00000E+00
    0.00000E+00         0.00000E+00        -0.90602E+07
 
   -0.91873E+07         0.31848E+06         0.00000E+00
    0.31848E+06        -0.36993E+08         0.00000E+00
    0.00000E+00         0.00000E+00        -0.91678E+07
 
   -0.93117E+07         0.32180E+06         0.00000E+00
    0.32180E+06        -0.37367E+08         0.00000E+00
    0.00000E+00         0.00000E+00        -0.92746E+07
 
   -0.94324E+07         0.32421E+06         0.00000E+00
    0.32421E+06        -0.37739E+08         0.00000E+00
    0.00000E+00         0.00000E+00        -0.93802E+07
 
   -0.95496E+07         0.32590E+06         0.00000E+00
    0.32590E+06        -0.38108E+08         0.00000E+00
    0.00000E+00         0.00000E+00        -0.94842E+07
 
   -0.96636E+07         0.32706E+06         0.00000E+00
    0.32706E+06        -0.38474E+08         0.00000E+00
    0.00000E+00         0.00000E+00        -0.95865E+07
 
   -0.97749E+07         0.32785E+06         0.00000E+00
    0.32785E+06        -0.38837E+08         0.00000E+00
    0.00000E+00         0.00000E+00        -0.96868E+07
 
   -0.98836E+07         0.32838E+06         0.00000E+00
    0.32838E+06        -0.39197E+08         0.00000E+00
    0.00000E+00         0.00000E+00        -0.97851E+07
 
   -0.99900E+07         0.32871E+06         0.00000E+00
    0.32871E+06        -0.39555E+08         0.00000E+00
    0.00000E+00         0.00000E+00        -0.98813E+07
 
   -0.10094E+08         0.32886E+06         0.00000E+00
    0.32886E+06        -0.39911E+08         0.00000E+00
    0.00000E+00         0.00000E+00        -0.99753E+07
 
   -0.10197E+08         0.32874E+06         0.00000E+00
    0.32874E+06        -0.40264E+08         0.00000E+00
    0.00000E+00         0.00000E+00        -0.10067E+08
 
   -0.10299E+08         0.32805E+06         0.00000E+00
    0.32805E+06        -0.40615E+08         0.00000E+00
    0.00000E+00         0.00000E+00        -0.10157E+08
 
   -0.10401E+08         0.32583E+06         0.00000E+00
    0.32583E+06        -0.40964E+08         0.00000E+00
    0.00000E+00         0.00000E+00        -0.10244E+08
 
   -0.10505E+08         0.31960E+06         0.00000E+00
    0.31960E+06        -0.41314E+08         0.00000E+00
    0.00000E+00         0.00000E+00        -0.10330E+08
 
   -0.10610E+08         0.30809E+06         0.00000E+00
    0.30809E+06        -0.41661E+08         0.00000E+00
    0.00000E+00         0.00000E+00        -0.10427E+08
 
   -0.10715E+08         0.29746E+06         0.00000E+00
    0.29746E+06        -0.41998E+08         0.00000E+00
    0.00000E+00         0.00000E+00        -0.10546E+08
 
   -0.10822E+08         0.29114E+06         0.00000E+00
    0.29114E+06        -0.42334E+08         0.00000E+00
    0.00000E+00         0.00000E+00        -0.10674E+08
 
   -0.10931E+08         0.28824E+06         0.00000E+00
    0.28824E+06        -0.42671E+08         0.00000E+00
    0.00000E+00         0.00000E+00        -0.10800E+08
 
   -0.11041E+08         0.28663E+06         0.00000E+00
    0.28663E+06        -0.43006E+08         0.00000E+00
    0.00000E+00         0.00000E+00        -0.10925E+08
 
   -0.11152E+08         0.28550E+06         0.00000E+00
    0.28550E+06        -0.43339E+08         0.00000E+00
    0.00000E+00         0.00000E+00        -0.11048E+08
 
   -0.11262E+08         0.28457E+06         0.00000E+00
    0.28457E+06        -0.43670E+08         0.00000E+00
    0.00000E+00         0.00000E+00        -0.11170E+08
 
   -0.11372E+08         0.28370E+06         0.00000E+00
    0.28370E+06        -0.44000E+08         0.00000E+00
    0.00000E+00         0.00000E+00        -0.11290E+08
 
   -0.11481E+08         0.28282E+06         0.00000E+00
    0.28282E+06        -0.44329E+08         0.00000E+00
    0.00000E+00         0.00000E+00        -0.11410E+08
 
   -0.11590E+08         0.28192E+06         0.00000E+00
    0.28192E+06        -0.44656E+08         0.00000E+00
    0.00000E+00         0.00000E+00        -0.11528E+08
 
   -0.11698E+08         0.28098E+06         0.00000E+00
    0.28098E+06        -0.44981E+08         0.00000E+00
    0.00000E+00         0.00000E+00        -0.11645E+08
 
   -0.11815E+08         0.27987E+06         0.00000E+00
    0.27987E+06        -0.45297E+08         0.00000E+00
    0.00000E+00         0.00000E+00        -0.11770E+08
 
   -0.11946E+08         0.27850E+06         0.00000E+00
    0.27850E+06        -0.45598E+08         0.00000E+00
    0.00000E+00         0.00000E+00        -0.11909E+08
 
   -0.12080E+08         0.27707E+06         0.00000E+00
    0.27707E+06        -0.45895E+08         0.00000E+00
    0.00000E+00         0.00000E+00        -0.12051E+08
 
   -0.12214E+08         0.27563E+06         0.00000E+00
    0.27563E+06        -0.46191E+08         0.00000E+00
    0.00000E+00         0.00000E+00        -0.12192E+08
 
   -0.12348E+08         0.27420E+06         0.00000E+00
    0.27420E+06        -0.46486E+08         0.00000E+00
    0.00000E+00         0.00000E+00        -0.12332E+08
 
   -0.12482E+08         0.27276E+06         0.00000E+00
    0.27276E+06        -0.46781E+08         0.00000E+00
    0.00000E+00         0.00000E+00        -0.12472E+08
 
   -0.12616E+08         0.27133E+06         0.00000E+00
    0.27133E+06        -0.47074E+08         0.00000E+00
    0.00000E+00         0.00000E+00        -0.12611E+08
 
   -0.12750E+08         0.26990E+06         0.00000E+00
    0.26990E+06        -0.47368E+08         0.00000E+00
    0.00000E+00         0.00000E+00        -0.12750E+08
 
   -0.12884E+08         0.26848E+06         0.00000E+00
    0.26848E+06        -0.47661E+08         0.00000E+00
    0.00000E+00         0.00000E+00        -0.12888E+08
 
   -0.13018E+08         0.26705E+06         0.00000E+00
    0.26705E+06        -0.47954E+08         0.00000E+00
    0.00000E+00         0.00000E+00        -0.13026E+08
 
   -0.13153E+08         0.26562E+06         0.00000E+00
    0.26562E+06        -0.48247E+08         0.00000E+00
    0.00000E+00         0.00000E+00        -0.13164E+08
 
   -0.13288E+08         0.26418E+06         0.00000E+00
    0.26418E+06        -0.48540E+08         0.00000E+00
    0.00000E+00         0.00000E+00        -0.13301E+08
 
   -0.13423E+08         0.26272E+06         0.00000E+00
    0.26272E+06        -0.48833E+08         0.00000E+00
    0.00000E+00         0.00000E+00        -0.13439E+08
 
   -0.13559E+08         0.26125E+06         0.00000E+00
    0.26125E+06        -0.49127E+08         0.00000E+00
    0.00000E+00         0.00000E+00        -0.13576E+08
 
   -0.13695E+08         0.25975E+06         0.00000E+00
    0.25975E+06        -0.49421E+08         0.00000E+00
    0.00000E+00         0.00000E+00        -0.13713E+08
 
   -0.13832E+08         0.25823E+06         0.00000E+00
    0.25823E+06        -0.49716E+08         0.00000E+00
    0.00000E+00         0.00000E+00        -0.13850E+08
 
   -0.13970E+08         0.25666E+06         0.00000E+00
    0.25666E+06        -0.50012E+08         0.00000E+00
    0.00000E+00         0.00000E+00        -0.13986E+08
 
   -0.14109E+08         0.25506E+06         0.00000E+00
    0.25506E+06        -0.50308E+08         0.00000E+00
    0.00000E+00         0.00000E+00        -0.14123E+08
 
   -0.14249E+08         0.25340E+06         0.00000E+00
    0.25340E+06        -0.50605E+08         0.00000E+00
    0.00000E+00         0.00000E+00        -0.14260E+08
 
   -0.14389E+08         0.25169E+06         0.00000E+00
    0.25169E+06        -0.50904E+08         0.00000E+00
    0.00000E+00         0.00000E+00        -0.14397E+08
 
   -0.14531E+08         0.24991E+06         0.00000E+00
    0.24991E+06        -0.51204E+08         0.00000E+00
    0.00000E+00         0.00000E+00        -0.14533E+08
 
   -0.14674E+08         0.24806E+06         0.00000E+00
    0.24806E+06        -0.51505E+08         0.00000E+00
    0.00000E+00         0.00000E+00        -0.14670E+08
 
   -0.14819E+08         0.24613E+06         0.00000E+00
    0.24613E+06        -0.51807E+08         0.00000E+00
    0.00000E+00         0.00000E+00        -0.14807E+08
 
   -0.14965E+08         0.24411E+06         0.00000E+00
    0.24411E+06        -0.52111E+08         0.00000E+00
    0.00000E+00         0.00000E+00        -0.14943E+08
 
   -0.15112E+08         0.24198E+06         0.00000E+00
    0.24198E+06        -0.52416E+08         0.00000E+00
    0.00000E+00         0.00000E+00        -0.15080E+08
 
   -0.15261E+08         0.23972E+06         0.00000E+00
    0.23972E+06        -0.52724E+08         0.00000E+00
    0.00000E+00         0.00000E+00        -0.15216E+08
 
   -0.15412E+08         0.23732E+06         0.00000E+00
    0.23732E+06        -0.53033E+08         0.00000E+00
    0.00000E+00         0.00000E+00        -0.15352E+08
 
   -0.15565E+08         0.23474E+06         0.00000E+00
    0.23474E+06        -0.53343E+08         0.00000E+00
    0.00000E+00         0.00000E+00        -0.15488E+08
 
   -0.15721E+08         0.23196E+06         0.00000E+00
    0.23196E+06        -0.53656E+08         0.00000E+00
    0.00000E+00         0.00000E+00        -0.15623E+08
 
   -0.15878E+08         0.22893E+06         0.00000E+00
    0.22893E+06        -0.53970E+08         0.00000E+00
    0.00000E+00         0.00000E+00        -0.15758E+08
 
   -0.16039E+08         0.22559E+06         0.00000E+00
    0.22559E+06        -0.54287E+08         0.00000E+00
    0.00000E+00         0.00000E+00        -0.15892E+08
 
   -0.16202E+08         0.22187E+06         0.00000E+00
    0.22187E+06        -0.54605E+08         0.00000E+00
    0.00000E+00         0.00000E+00        -0.16025E+08
 
   -0.16368E+08         0.21767E+06         0.00000E+00
    0.21767E+06        -0.54926E+08         0.00000E+00
    0.00000E+00         0.00000E+00        -0.16156E+08
 
   -0.16538E+08         0.21288E+06         0.00000E+00
    0.21288E+06        -0.55249E+08         0.00000E+00
    0.00000E+00         0.00000E+00        -0.16286E+08
 
   -0.16713E+08         0.20735E+06         0.00000E+00
    0.20735E+06        -0.55574E+08         0.00000E+00
    0.00000E+00         0.00000E+00        -0.16415E+08
 
   -0.16891E+08         0.20091E+06         0.00000E+00
    0.20091E+06        -0.55901E+08         0.00000E+00
    0.00000E+00         0.00000E+00        -0.16540E+08
 
   -0.17075E+08         0.19336E+06         0.00000E+00
    0.19336E+06        -0.56230E+08         0.00000E+00
    0.00000E+00         0.00000E+00        -0.16663E+08
 
   -0.17266E+08         0.18446E+06         0.00000E+00
    0.18446E+06        -0.56562E+08         0.00000E+00
    0.00000E+00         0.00000E+00        -0.16782E+08
 
   -0.17463E+08         0.17397E+06         0.00000E+00
    0.17397E+06        -0.56897E+08         0.00000E+00
    0.00000E+00         0.00000E+00        -0.16896E+08
 
   -0.17668E+08         0.16160E+06         0.00000E+00
    0.16160E+06        -0.57234E+08         0.00000E+00
    0.00000E+00         0.00000E+00        -0.17005E+08
 
   -0.17883E+08         0.14713E+06         0.00000E+00
    0.14713E+06        -0.57573E+08         0.00000E+00
    0.00000E+00         0.00000E+00        -0.17108E+08
 
   -0.18108E+08         0.13036E+06         0.00000E+00
    0.13036E+06        -0.57915E+08         0.00000E+00
    0.00000E+00         0.00000E+00        -0.17204E+08
 
   -0.18345E+08         0.11121E+06         0.00000E+00
    0.11121E+06        -0.58260E+08         0.00000E+00
    0.00000E+00         0.00000E+00        -0.17290E+08
 
   -0.18595E+08         0.89738E+05         0.00000E+00
    0.89738E+05        -0.58608E+08         0.00000E+00
    0.00000E+00         0.00000E+00        -0.17367E+08
 
   -0.18860E+08         0.66269E+05         0.00000E+00
    0.66269E+05        -0.58957E+08         0.00000E+00
    0.00000E+00         0.00000E+00        -0.17434E+08
 
   -0.19141E+08         0.41373E+05         0.00000E+00
    0.41373E+05        -0.59309E+08         0.00000E+00
    0.00000E+00         0.00000E+00        -0.17488E+08
 
   -0.19438E+08         0.15908E+05         0.00000E+00
    0.15908E+05        -0.59664E+08         0.00000E+00
    0.00000E+00         0.00000E+00        -0.17531E+08
 
   -0.19752E+08        -0.91313E+04         0.00000E+00
   -0.91313E+04        -0.60020E+08         0.00000E+00
    0.00000E+00         0.00000E+00        -0.17561E+08
 
   -0.20081E+08        -0.32507E+05         0.00000E+00
   -0.32507E+05        -0.60378E+08         0.00000E+00
    0.00000E+00         0.00000E+00        -0.17581E+08
 
   -0.20425E+08        -0.53291E+05         0.00000E+00
   -0.53291E+05        -0.60737E+08         0.00000E+00
    0.00000E+00         0.00000E+00        -0.17592E+08
 
   -0.20777E+08        -0.71106E+05         0.00000E+00
   -0.71106E+05        -0.61101E+08         0.00000E+00
    0.00000E+00         0.00000E+00        -0.17601E+08
 
   -0.21123E+08        -0.71686E+05         0.00000E+00
   -0.71686E+05        -0.61459E+08         0.00000E+00
    0.00000E+00         0.00000E+00        -0.17614E+08
 
   -0.21458E+08        -0.31740E+05         0.00000E+00
   -0.31740E+05        -0.61766E+08         0.00000E+00
    0.00000E+00         0.00000E+00        -0.17593E+08
 
   -0.29984E+07        -0.47062E+05         0.00000E+00
   -0.47062E+05        -0.27817E+08         0.00000E+00
    0.00000E+00         0.00000E+00        -0.89749E+07
 
   -0.34399E+07        -0.91388E+05         0.00000E+00
   -0.91388E+05        -0.28196E+08         0.00000E+00
    0.00000E+00         0.00000E+00        -0.88362E+07
 
   -0.39101E+07        -0.65023E+05         0.00000E+00
   -0.65023E+05        -0.28648E+08         0.00000E+00
    0.00000E+00         0.00000E+00        -0.87248E+07
 
   -0.44246E+07        -0.55114E+05         0.00000E+00
   -0.55114E+05        -0.29068E+08         0.00000E+00
    0.00000E+00         0.00000E+00        -0.86701E+07
 
   -0.49135E+07        -0.42988E+05         0.00000E+00
   -0.42988E+05        -0.29455E+08         0.00000E+00
    0.00000E+00         0.00000E+00        -0.86701E+07
 
   -0.53434E+07        -0.20041E+05         0.00000E+00
   -0.20041E+05        -0.29864E+08         0.00000E+00
    0.00000E+00         0.00000E+00        -0.86701E+07
 
   -0.57376E+07         0.94749E+04         0.00000E+00
    0.94749E+04        -0.30264E+08         0.00000E+00
    0.00000E+00         0.00000E+00        -0.86701E+07
 
   -0.60988E+07         0.45266E+05         0.00000E+00
    0.45266E+05        -0.30673E+08         0.00000E+00
    0.00000E+00         0.00000E+00        -0.86701E+07
 
   -0.64298E+07         0.82581E+05         0.00000E+00
    0.82581E+05        -0.31081E+08         0.00000E+00
    0.00000E+00         0.00000E+00        -0.86701E+07
 
   -0.67301E+07         0.11860E+06         0.00000E+00
    0.11860E+06        -0.31490E+08         0.00000E+00
    0.00000E+00         0.00000E+00        -0.86701E+07
 
   -0.70015E+07         0.15217E+06         0.00000E+00
    0.15217E+06        -0.31897E+08         0.00000E+00
    0.00000E+00         0.00000E+00        -0.86701E+07
 
   -0.72461E+07         0.18231E+06         0.00000E+00
    0.18231E+06        -0.32303E+08         0.00000E+00
    0.00000E+00         0.00000E+00        -0.86701E+07
 
   -0.74667E+07         0.20845E+06         0.00000E+00
    0.20845E+06        -0.32708E+08         0.00000E+00
    0.00000E+00         0.00000E+00        -0.86701E+07
 
   -0.76665E+07         0.23011E+06         0.00000E+00
    0.23011E+06        -0.33110E+08         0.00000E+00
    0.00000E+00         0.00000E+00        -0.86701E+07
 
   -0.78491E+07         0.24685E+06         0.00000E+00
    0.24685E+06        -0.33511E+08         0.00000E+00
    0.00000E+00         0.00000E+00        -0.86701E+07
 
   -0.80185E+07         0.25824E+06         0.00000E+00
    0.25824E+06        -0.33910E+08         0.00000E+00
    0.00000E+00         0.00000E+00        -0.86701E+07
 
   -0.81788E+07         0.26427E+06         0.00000E+00
    0.26427E+06        -0.34307E+08         0.00000E+00
    0.00000E+00         0.00000E+00        -0.86701E+07
 
   -0.83331E+07         0.26507E+06         0.00000E+00
    0.26507E+06        -0.34703E+08         0.00000E+00
    0.00000E+00         0.00000E+00        -0.86701E+07
 
   -0.84866E+07         0.25422E+06         0.00000E+00
    0.25422E+06        -0.35090E+08         0.00000E+00
    0.00000E+00         0.00000E+00        -0.86726E+07
 
   -0.86363E+07         0.24980E+06         0.00000E+00
    0.24980E+06        -0.35473E+08         0.00000E+00
    0.00000E+00         0.00000E+00        -0.87251E+07
 
   -0.87799E+07         0.25418E+06         0.00000E+00
    0.25418E+06        -0.35855E+08         0.00000E+00
    0.00000E+00         0.00000E+00        -0.88318E+07
 
   -0.89189E+07         0.25928E+06         0.00000E+00
    0.25928E+06        -0.36237E+08         0.00000E+00
    0.00000E+00         0.00000E+00        -0.89398E+07
 
   -0.90533E+07         0.26476E+06         0.00000E+00
    0.26476E+06        -0.36617E+08         0.00000E+00
    0.00000E+00         0.00000E+00        -0.90482E+07
 
   -0.91832E+07         0.26890E+06         0.00000E+00
    0.26890E+06        -0.36994E+08         0.00000E+00
    0.00000E+00         0.00000E+00        -0.91563E+07
 
   -0.93085E+07         0.27191E+06         0.00000E+00
    0.27191E+06        -0.37368E+08         0.00000E+00
    0.00000E+00         0.00000E+00        -0.92636E+07
 
   -0.94297E+07         0.27410E+06         0.00000E+00
    0.27410E+06        -0.37739E+08         0.00000E+00
    0.00000E+00         0.00000E+00        -0.93696E+07
 
   -0.95472E+07         0.27565E+06         0.00000E+00
    0.27565E+06        -0.38108E+08         0.00000E+00
    0.00000E+00         0.00000E+00        -0.94742E+07
 
   -0.96615E+07         0.27672E+06         0.00000E+00
    0.27672E+06        -0.38474E+08         0.00000E+00
    0.00000E+00         0.00000E+00        -0.95770E+07
 
   -0.97727E+07         0.27748E+06         0.00000E+00
    0.27748E+06        -0.38837E+08         0.00000E+00
    0.00000E+00         0.00000E+00        -0.96779E+07
 
   -0.98813E+07         0.27801E+06         0.00000E+00
    0.27801E+06        -0.39197E+08         0.00000E+00
    0.00000E+00         0.00000E+00        -0.97767E+07
 
   -0.99874E+07         0.27841E+06         0.00000E+00
    0.27841E+06        -0.39555E+08         0.00000E+00
    0.00000E+00         0.00000E+00        -0.98733E+07
 
   -0.10091E+08         0.27867E+06         0.00000E+00
    0.27867E+06        -0.39911E+08         0.00000E+00
    0.00000E+00         0.00000E+00        -0.99678E+07
 
   -0.10193E+08         0.27875E+06         0.00000E+00
    0.27875E+06        -0.40264E+08         0.00000E+00
    0.00000E+00         0.00000E+00        -0.10060E+08
 
   -0.10294E+08         0.27844E+06         0.00000E+00
    0.27844E+06        -0.40614E+08         0.00000E+00
    0.00000E+00         0.00000E+00        -0.10150E+08
 
   -0.10395E+08         0.27697E+06         0.00000E+00
    0.27697E+06        -0.40963E+08         0.00000E+00
    0.00000E+00         0.00000E+00        -0.10238E+08
 
   -0.10498E+08         0.27168E+06         0.00000E+00
    0.27168E+06        -0.41312E+08         0.00000E+00
    0.00000E+00         0.00000E+00        -0.10324E+08
 
   -0.10603E+08         0.26056E+06         0.00000E+00
    0.26056E+06        -0.41659E+08         0.00000E+00
    0.00000E+00         0.00000E+00        -0.10421E+08
 
   -0.10708E+08         0.25049E+06         0.00000E+00
    0.25049E+06        -0.41997E+08         0.00000E+00
    0.00000E+00         0.00000E+00        -0.10541E+08
 
   -0.10816E+08         0.24518E+06         0.00000E+00
    0.24518E+06        -0.42333E+08         0.00000E+00
    0.00000E+00         0.00000E+00        -0.10669E+08
 
   -0.10927E+08         0.24309E+06         0.00000E+00
    0.24309E+06        -0.42670E+08         0.00000E+00
    0.00000E+00         0.00000E+00        -0.10796E+08
 
   -0.11038E+08         0.24195E+06         0.00000E+00
    0.24195E+06        -0.43005E+08         0.00000E+00
    0.00000E+00         0.00000E+00        -0.10920E+08
 
   -0.11149E+08         0.24114E+06         0.00000E+00
    0.24114E+06        -0.43339E+08         0.00000E+00
    0.00000E+00         0.00000E+00        -0.11044E+08
 
   -0.11260E+08         0.24047E+06         0.00000E+00
    0.24047E+06        -0.43670E+08         0.00000E+00
    0.00000E+00         0.00000E+00        -0.11166E+08
 
   -0.11370E+08         0.23982E+06         0.00000E+00
    0.23982E+06        -0.44000E+08         0.00000E+00
    0.00000E+00         0.00000E+00        -0.11287E+08
 
   -0.11480E+08         0.23914E+06         0.00000E+00
    0.23914E+06        -0.44329E+08         0.00000E+00
    0.00000E+00         0.00000E+00        -0.11406E+08
 
   -0.11589E+08         0.23843E+06         0.00000E+00
    0.23843E+06        -0.44656E+08         0.00000E+00
    0.00000E+00         0.00000E+00        -0.11525E+08
 
   -0.11698E+08         0.23767E+06         0.00000E+00
    0.23767E+06        -0.44981E+08         0.00000E+00
    0.00000E+00         0.00000E+00        -0.11642E+08
 
   -0.11815E+08         0.23675E+06         0.00000E+00
    0.23675E+06        -0.45297E+08         0.00000E+00
    0.00000E+00         0.00000E+00        -0.11768E+08
 
   -0.11946E+08         0.23561E+06         0.00000E+00
    0.23561E+06        -0.45598E+08         0.00000E+00
    0.00000E+00         0.00000E+00        -0.11907E+08
 
   -0.12080E+08         0.23441E+06         0.00000E+00
    0.23441E+06        -0.45895E+08         0.00000E+00
    0.00000E+00         0.00000E+00        -0.12049E+08
 
   -0.12214E+08         0.23320E+06         0.00000E+00
    0.23320E+06        -0.46191E+08         0.00000E+00
    0.00000E+00         0.00000E+00        -0.12190E+08
 
   -0.12348E+08         0.23199E+06         0.00000E+00
    0.23199E+06        -0.46486E+08         0.00000E+00
    0.00000E+00         0.00000E+00        -0.12331E+08
 
   -0.12482E+08         0.23078E+06         0.00000E+00
    0.23078E+06        -0.46781E+08         0.00000E+00
    0.00000E+00         0.00000E+00        -0.12471E+08
 
   -0.12616E+08         0.22958E+06         0.00000E+00
    0.22958E+06        -0.47075E+08         0.00000E+00
    0.00000E+00         0.00000E+00        -0.12610E+08
 
   -0.12750E+08         0.22837E+06         0.00000E+00
    0.22837E+06        -0.47368E+08         0.00000E+00
    0.00000E+00         0.00000E+00        -0.12749E+08
 
   -0.12884E+08         0.22716E+06         0.00000E+00
    0.22716E+06        -0.47661E+08         0.00000E+00
    0.00000E+00         0.00000E+00        -0.12887E+08
 
   -0.13018E+08         0.22595E+06         0.00000E+00
    0.22595E+06        -0.47954E+08         0.00000E+00
    0.00000E+00         0.00000E+00        -0.13026E+08
 
   -0.13152E+08         0.22474E+06         0.00000E+00
    0.22474E+06        -0.48247E+08         0.00000E+00
    0.00000E+00         0.00000E+00        -0.13163E+08
 
   -0.13287E+08         0.22351E+06         0.00000E+00
    0.22351E+06        -0.48541E+08         0.00000E+00
    0.00000E+00         0.00000E+00        -0.13301E+08
 
   -0.13423E+08         0.22228E+06         0.00000E+00
    0.22228E+06        -0.48834E+08         0.00000E+00
    0.00000E+00         0.00000E+00        -0.13438E+08
 
   -0.13558E+08         0.22102E+06         0.00000E+00
    0.22102E+06        -0.49128E+08         0.00000E+00
    0.00000E+00         0.00000E+00        -0.13576E+08
 
   -0.13695E+08         0.21975E+06         0.00000E+00
    0.21975E+06        -0.49422E+08         0.00000E+00
    0.00000E+00         0.00000E+00        -0.13713E+08
 
   -0.13832E+08         0.21845E+06         0.00000E+00
    0.21845E+06        -0.49717E+08         0.00000E+00
    0.00000E+00         0.00000E+00        -0.13850E+08
 
   -0.13970E+08         0.21712E+06         0.00000E+00
    0.21712E+06        -0.50013E+08         0.00000E+00
    0.00000E+00         0.00000E+00        -0.13987E+08
 
   -0.14109E+08         0.21575E+06         0.00000E+00
    0.21575E+06        -0.50309E+08         0.00000E+00
    0.00000E+00         0.00000E+00        -0.14124E+08
 
   -0.14248E+08         0.21434E+06         0.00000E+00
    0.21434E+06        -0.50607E+08         0.00000E+00
    0.00000E+00         0.00000E+00        -0.14260E+08
 
   -0.14389E+08         0.21288E+06         0.00000E+00
    0.21288E+06        -0.50905E+08         0.00000E+00
    0.00000E+00         0.00000E+00        -0.14397E+08
 
   -0.14531E+08         0.21137E+06         0.00000E+00
    0.21137E+06        -0.51205E+08         0.00000E+00
    0.00000E+00         0.00000E+00        -0.14534E+08
 
   -0.14674E+08         0.20979E+06         0.00000E+00
    0.20979E+06        -0.51506E+08         0.00000E+00
    0.00000E+00         0.00000E+00        -0.14670E+08
 
   -0.14819E+08         0.20815E+06         0.00000E+00
    0.20815E+06        -0.51809E+08         0.00000E+00
    0.00000E+00         0.00000E+00        -0.14807E+08
 
   -0.14965E+08         0.20642E+06         0.00000E+00
    0.20642E+06        -0.52113E+08         0.00000E+00
    0.00000E+00         0.00000E+00        -0.14944E+08
 
   -0.15113E+08         0.20460E+06         0.00000E+00
    0.20460E+06        -0.52418E+08         0.00000E+00
    0.00000E+00         0.00000E+00        -0.15080E+08
 
   -0.15262E+08         0.20268E+06         0.00000E+00
    0.20268E+06        -0.52726E+08         0.00000E+00
    0.00000E+00         0.00000E+00        -0.15216E+08
 
   -0.15413E+08         0.20064E+06         0.00000E+00
    0.20064E+06        -0.53035E+08         0.00000E+00
    0.00000E+00         0.00000E+00        -0.15352E+08
 
   -0.15566E+08         0.19845E+06         0.00000E+00
    0.19845E+06        -0.53345E+08         0.00000E+00
    0.00000E+00         0.00000E+00        -0.15488E+08
 
   -0.15722E+08         0.19609E+06         0.00000E+00
    0.19609E+06        -0.53658E+08         0.00000E+00
    0.00000E+00         0.00000E+00        -0.15623E+08
 
   -0.15880E+08         0.19351E+06         0.00000E+00
    0.19351E+06        -0.53973E+08         0.00000E+00
    0.00000E+00         0.00000E+00        -0.15758E+08
 
   -0.16040E+08         0.19068E+06         0.00000E+00
    0.19068E+06        -0.54289E+08         0.00000E+00
    0.00000E+00         0.00000E+00        -0.15892E+08
 
   -0.16204E+08         0.18752E+06         0.00000E+00
    0.18752E+06        -0.54608E+08         0.00000E+00
    0.00000E+00         0.00000E+00        -0.16024E+08
 
   -0.16370E+08         0.18395E+06         0.00000E+00
    0.18395E+06        -0.54928E+08         0.00000E+00
    0.00000E+00         0.00000E+00        -0.16156E+08
 
   -0.16541E+08         0.17988E+06         0.00000E+00
    0.17988E+06        -0.55251E+08         0.00000E+00
    0.00000E+00         0.00000E+00        -0.16286E+08
 
   -0.16715E+08         0.17518E+06         0.00000E+00
    0.17518E+06        -0.55576E+08         0.00000E+00
    0.00000E+00         0.00000E+00        -0.16413E+08
 
   -0.16895E+08         0.16970E+06         0.00000E+00
    0.16970E+06        -0.55903E+08         0.00000E+00
    0.00000E+00         0.00000E+00        -0.16539E+08
 
   -0.17079E+08         0.16327E+06         0.00000E+00
    0.16327E+06        -0.56233E+08         0.00000E+00
    0.00000E+00         0.00000E+00        -0.16661E+08
 
   -0.17270E+08         0.15567E+06         0.00000E+00
    0.15567E+06        -0.56564E+08         0.00000E+00
    0.00000E+00         0.00000E+00        -0.16779E+08
 
   -0.17468E+08         0.14670E+06         0.00000E+00
    0.14670E+06        -0.56898E+08         0.00000E+00
    0.00000E+00         0.00000E+00        -0.16892E+08
 
   -0.17674E+08         0.13611E+06         0.00000E+00
    0.13611E+06        -0.57235E+08         0.00000E+00
    0.00000E+00         0.00000E+00        -0.17000E+08
 
   -0.17890E+08         0.12371E+06         0.00000E+00
    0.12371E+06        -0.57574E+08         0.00000E+00
    0.00000E+00         0.00000E+00        -0.17102E+08
 
   -0.18116E+08         0.10931E+06         0.00000E+00
    0.10931E+06        -0.57916E+08         0.00000E+00
    0.00000E+00         0.00000E+00        -0.17195E+08
 
   -0.18355E+08         0.92847E+05         0.00000E+00
    0.92847E+05        -0.58260E+08         0.00000E+00
    0.00000E+00         0.00000E+00        -0.17280E+08
 
   -0.18608E+08         0.74392E+05         0.00000E+00
    0.74392E+05        -0.58607E+08         0.00000E+00
    0.00000E+00         0.00000E+00        -0.17355E+08
 
   -0.18876E+08         0.54220E+05         0.00000E+00
    0.54220E+05        -0.58956E+08         0.00000E+00
    0.00000E+00         0.00000E+00        -0.17418E+08
 
   -0.19160E+08         0.32835E+05         0.00000E+00
    0.32835E+05        -0.59308E+08         0.00000E+00
    0.00000E+00         0.00000E+00        -0.17469E+08
 
   -0.19461E+08         0.10985E+05         0.00000E+00
    0.10985E+05        -0.59662E+08         0.00000E+00
    0.00000E+00         0.00000E+00        -0.17507E+08
 
   -0.19780E+08        -0.10477E+05         0.00000E+00
   -0.10477E+05        -0.60017E+08         0.00000E+00
    0.00000E+00         0.00000E+00        -0.17534E+08
 
   -0.20115E+08        -0.30647E+05         0.00000E+00
   -0.30647E+05        -0.60375E+08         0.00000E+00
    0.00000E+00         0.00000E+00        -0.17549E+08
 
   -0.20465E+08        -0.48374E+05         0.00000E+00
   -0.48374E+05        -0.60734E+08         0.00000E+00
    0.00000E+00         0.00000E+00        -0.17554E+08
 
   -0.20826E+08        -0.65205E+05         0.00000E+00
   -0.65205E+05        -0.61098E+08         0.00000E+00
    0.00000E+00         0.00000E+00        -0.17556E+08
 
   -0.21184E+08        -0.70575E+05         0.00000E+00
   -0.70575E+05        -0.61463E+08         0.00000E+00
    0.00000E+00         0.00000E+00        -0.17565E+08
 
   -0.21523E+08        -0.33083E+05         0.00000E+00
   -0.33083E+05        -0.61780E+08         0.00000E+00
    0.00000E+00         0.00000E+00        -0.17550E+08
 
   -0.29430E+07        -0.45706E+05         0.00000E+00
   -0.45706E+05        -0.27799E+08         0.00000E+00
    0.00000E+00         0.00000E+00        -0.90494E+07
 
   -0.34033E+07        -0.79745E+05         0.00000E+00
   -0.79745E+05        -0.28191E+08         0.00000E+00
    0.00000E+00         0.00000E+00        -0.89141E+07
 
   -0.38782E+07        -0.52083E+05         0.00000E+00
   -0.52083E+05        -0.28648E+08         0.00000E+00
    0.00000E+00         0.00000E+00        -0.87764E+07
 
   -0.43740E+07        -0.33230E+05         0.00000E+00
   -0.33230E+05        -0.29080E+08         0.00000E+00
    0.00000E+00         0.00000E+00        -0.86813E+07
 
   -0.48618E+07        -0.36193E+05         0.00000E+00
   -0.36193E+05        -0.29459E+08         0.00000E+00
    0.00000E+00         0.00000E+00        -0.86701E+07
 
   -0.52955E+07        -0.18413E+05         0.00000E+00
   -0.18413E+05        -0.29868E+08         0.00000E+00
    0.00000E+00         0.00000E+00        -0.86701E+07
 
   -0.56965E+07         0.29595E+04         0.00000E+00
    0.29595E+04        -0.30270E+08         0.00000E+00
    0.00000E+00         0.00000E+00        -0.86701E+07
 
   -0.60655E+07         0.33579E+05         0.00000E+00
    0.33579E+05        -0.30680E+08         0.00000E+00
    0.00000E+00         0.00000E+00        -0.86701E+07
 
   -0.64032E+07         0.64635E+05         0.00000E+00
    0.64635E+05        -0.31088E+08         0.00000E+00
    0.00000E+00         0.00000E+00        -0.86701E+07
 
   -0.67088E+07         0.94915E+05         0.00000E+00
    0.94915E+05        -0.31496E+08         0.00000E+00
    0.00000E+00         0.00000E+00        -0.86701E+07
 
   -0.69843E+07         0.12308E+06         0.00000E+00
    0.12308E+06        -0.31903E+08         0.00000E+00
    0.00000E+00         0.00000E+00        -0.86701E+07
 
   -0.72316E+07         0.14836E+06         0.00000E+00
    0.14836E+06        -0.32308E+08         0.00000E+00
    0.00000E+00         0.00000E+00        -0.86701E+07
 
   -0.74539E+07         0.17029E+06         0.00000E+00
    0.17029E+06        -0.32712E+08         0.00000E+00
    0.00000E+00         0.00000E+00        -0.86701E+07
 
   -0.76544E+07         0.18846E+06         0.00000E+00
    0.18846E+06        -0.33114E+08         0.00000E+00
    0.00000E+00         0.00000E+00        -0.86701E+07
 
   -0.78369E+07         0.20250E+06         0.00000E+00
    0.20250E+06        -0.33514E+08         0.00000E+00
    0.00000E+00         0.00000E+00        -0.86701E+07
 
   -0.80057E+07         0.21204E+06         0.00000E+00
    0.21204E+06        -0.33912E+08         0.00000E+00
    0.00000E+00         0.00000E+00        -0.86701E+07
 
   -0.81649E+07         0.21715E+06         0.00000E+00
    0.21715E+06        -0.34308E+08         0.00000E+00
    0.00000E+00         0.00000E+00        -0.86701E+07
 
   -0.83181E+07         0.21703E+06         0.00000E+00
    0.21703E+06        -0.34702E+08         0.00000E+00
    0.00000E+00         0.00000E+00        -0.86701E+07
 
   -0.84722E+07         0.20932E+06         0.00000E+00
    0.20932E+06        -0.35089E+08         0.00000E+00
    0.00000E+00         0.00000E+00        -0.86701E+07
 
   -0.86251E+07         0.20073E+06         0.00000E+00
    0.20073E+06        -0.35472E+08         0.00000E+00
    0.00000E+00         0.00000E+00        -0.87171E+07
 
   -0.87704E+07         0.20644E+06         0.00000E+00
    0.20644E+06        -0.35855E+08         0.00000E+00
    0.00000E+00         0.00000E+00        -0.88188E+07
 
   -0.89118E+07         0.21069E+06         0.00000E+00
    0.21069E+06        -0.36238E+08         0.00000E+00
    0.00000E+00         0.00000E+00        -0.89273E+07
 
   -0.90483E+07         0.21594E+06         0.00000E+00
    0.21594E+06        -0.36618E+08         0.00000E+00
    0.00000E+00         0.00000E+00        -0.90361E+07
 
   -0.91796E+07         0.21952E+06         0.00000E+00
    0.21952E+06        -0.36995E+08         0.00000E+00
    0.00000E+00         0.00000E+00        -0.91448E+07
 
   -0.93057E+07         0.22217E+06         0.00000E+00
    0.22217E+06        -0.37368E+08         0.00000E+00
    0.00000E+00         0.00000E+00        -0.92526E+07
 
   -0.94275E+07         0.22409E+06         0.00000E+00
    0.22409E+06        -0.37740E+08         0.00000E+00
    0.00000E+00         0.00000E+00        -0.93593E+07
 
   -0.95454E+07         0.22545E+06         0.00000E+00
    0.22545E+06        -0.38108E+08         0.00000E+00
    0.00000E+00         0.00000E+00        -0.94644E+07
 
   -0.96598E+07         0.22640E+06         0.00000E+00
    0.22640E+06        -0.38474E+08         0.00000E+00
    0.00000E+00         0.00000E+00        -0.95677E+07
 
   -0.97711E+07         0.22709E+06         0.00000E+00
    0.22709E+06        -0.38837E+08         0.00000E+00
    0.00000E+00         0.00000E+00        -0.96691E+07
 
   -0.98795E+07         0.22761E+06         0.00000E+00
    0.22761E+06        -0.39198E+08         0.00000E+00
    0.00000E+00         0.00000E+00        -0.97684E+07
 
   -0.99853E+07         0.22802E+06         0.00000E+00
    0.22802E+06        -0.39555E+08         0.00000E+00
    0.00000E+00         0.00000E+00        -0.98656E+07
 
   -0.10089E+08         0.22836E+06         0.00000E+00
    0.22836E+06        -0.39911E+08         0.00000E+00
    0.00000E+00         0.00000E+00        -0.99606E+07
 
   -0.10190E+08         0.22859E+06         0.00000E+00
    0.22859E+06        -0.40264E+08         0.00000E+00
    0.00000E+00         0.00000E+00        -0.10053E+08
 
   -0.10290E+08         0.22857E+06         0.00000E+00
    0.22857E+06        -0.40614E+08         0.00000E+00
    0.00000E+00         0.00000E+00        -0.10144E+08
 
   -0.10389E+08         0.22782E+06         0.00000E+00
    0.22782E+06        -0.40963E+08         0.00000E+00
    0.00000E+00         0.00000E+00        -0.10232E+08
 
   -0.10491E+08         0.22363E+06         0.00000E+00
    0.22363E+06        -0.41311E+08         0.00000E+00
    0.00000E+00         0.00000E+00        -0.10319E+08
 
   -0.10595E+08         0.21306E+06         0.00000E+00
    0.21306E+06        -0.41656E+08         0.00000E+00
    0.00000E+00         0.00000E+00        -0.10416E+08
 
   -0.10701E+08         0.20368E+06         0.00000E+00
    0.20368E+06        -0.41995E+08         0.00000E+00
    0.00000E+00         0.00000E+00        -0.10536E+08
 
   -0.10810E+08         0.19951E+06         0.00000E+00
    0.19951E+06        -0.42333E+08         0.00000E+00
    0.00000E+00         0.00000E+00        -0.10664E+08
 
   -0.10922E+08         0.19820E+06         0.00000E+00
    0.19820E+06        -0.42670E+08         0.00000E+00
    0.00000E+00         0.00000E+00        -0.10791E+08
 
   -0.11035E+08         0.19746E+06         0.00000E+00
    0.19746E+06        -0.43005E+08         0.00000E+00
    0.00000E+00         0.00000E+00        -0.10916E+08
 
   -0.11147E+08         0.19694E+06         0.00000E+00
    0.19694E+06        -0.43339E+08         0.00000E+00
    0.00000E+00         0.00000E+00        -0.11040E+08
 
   -0.11258E+08         0.19649E+06         0.00000E+00
    0.19649E+06        -0.43670E+08         0.00000E+00
    0.00000E+00         0.00000E+00        -0.11162E+08
 
   -0.11369E+08         0.19603E+06         0.00000E+00
    0.19603E+06        -0.44000E+08         0.00000E+00
    0.00000E+00         0.00000E+00        -0.11283E+08
 
   -0.11479E+08         0.19553E+06         0.00000E+00
    0.19553E+06        -0.44329E+08         0.00000E+00
    0.00000E+00         0.00000E+00        -0.11403E+08
 
   -0.11588E+08         0.19498E+06         0.00000E+00
    0.19498E+06        -0.44655E+08         0.00000E+00
    0.00000E+00         0.00000E+00        -0.11522E+08
 
   -0.11697E+08         0.19439E+06         0.00000E+00
    0.19439E+06        -0.44981E+08         0.00000E+00
    0.00000E+00         0.00000E+00        -0.11640E+08
 
   -0.11815E+08         0.19366E+06         0.00000E+00
    0.19366E+06        -0.45297E+08         0.00000E+00
    0.00000E+00         0.00000E+00        -0.11766E+08
 
   -0.11946E+08         0.19274E+06         0.00000E+00
    0.19274E+06        -0.45597E+08         0.00000E+00
    0.00000E+00         0.00000E+00        -0.11906E+08
 
   -0.12080E+08         0.19177E+06         0.00000E+00
    0.19177E+06        -0.45895E+08         0.00000E+00
    0.00000E+00         0.00000E+00        -0.12048E+08
 
   -0.12214E+08         0.19079E+06         0.00000E+00
    0.19079E+06        -0.46191E+08         0.00000E+00
    0.00000E+00         0.00000E+00        -0.12189E+08
 
   -0.12348E+08         0.18981E+06         0.00000E+00
    0.18981E+06        -0.46486E+08         0.00000E+00
    0.00000E+00         0.00000E+00        -0.12330E+08
 
   -0.12482E+08         0.18882E+06         0.00000E+00
    0.18882E+06        -0.46781E+08         0.00000E+00
    0.00000E+00         0.00000E+00        -0.12470E+08
 
   -0.12616E+08         0.18783E+06         0.00000E+00
    0.18783E+06        -0.47075E+08         0.00000E+00
    0.00000E+00         0.00000E+00        -0.12609E+08
 
   -0.12750E+08         0.18684E+06         0.00000E+00
    0.18684E+06        -0.47368E+08         0.00000E+00
    0.00000E+00         0.00000E+00        -0.12748E+08
 
   -0.12883E+08         0.18585E+06         0.00000E+00
    0.18585E+06        -0.47662E+08         0.00000E+00
    0.00000E+00         0.00000E+00        -0.12887E+08
 
   -0.13018E+08         0.18486E+06         0.00000E+00
    0.18486E+06        -0.47955E+08         0.00000E+00
    0.00000E+00         0.00000E+00        -0.13025E+08
 
   -0.13152E+08         0.18386E+06         0.00000E+00
    0.18386E+06        -0.48248E+08         0.00000E+00
    0.00000E+00         0.00000E+00        -0.13163E+08
 
   -0.13287E+08         0.18286E+06         0.00000E+00
    0.18286E+06        -0.48541E+08         0.00000E+00
    0.00000E+00         0.00000E+00        -0.13301E+08
 
   -0.13422E+08         0.18184E+06         0.00000E+00
    0.18184E+06        -0.48835E+08         0.00000E+00
    0.00000E+00         0.00000E+00        -0.13438E+08
 
   -0.13558E+08         0.18081E+06         0.00000E+00
    0.18081E+06        -0.49129E+08         0.00000E+00
    0.00000E+00         0.00000E+00        -0.13576E+08
 
   -0.13695E+08         0.17976E+06         0.00000E+00
    0.17976E+06        -0.49423E+08         0.00000E+00
    0.00000E+00         0.00000E+00        -0.13713E+08
 
   -0.13832E+08         0.17869E+06         0.00000E+00
    0.17869E+06        -0.49718E+08         0.00000E+00
    0.00000E+00         0.00000E+00        -0.13850E+08
 
   -0.13970E+08         0.17760E+06         0.00000E+00
    0.17760E+06        -0.50014E+08         0.00000E+00
    0.00000E+00         0.00000E+00        -0.13987E+08
 
   -0.14109E+08         0.17647E+06         0.00000E+00
    0.17647E+06        -0.50310E+08         0.00000E+00
    0.00000E+00         0.00000E+00        -0.14124E+08
 
   -0.14248E+08         0.17531E+06         0.00000E+00
    0.17531E+06        -0.50608E+08         0.00000E+00
    0.00000E+00         0.00000E+00        -0.14261E+08
 
   -0.14389E+08         0.17410E+06         0.00000E+00
    0.17410E+06        -0.50907E+08         0.00000E+00
    0.00000E+00         0.00000E+00        -0.14398E+08
 
   -0.14531E+08         0.17286E+06         0.00000E+00
    0.17286E+06        -0.51207E+08         0.00000E+00
    0.00000E+00         0.00000E+00        -0.14534E+08
 
   -0.14674E+08         0.17156E+06         0.00000E+00
    0.17156E+06        -0.51508E+08         0.00000E+00
    0.00000E+00         0.00000E+00        -0.14671E+08
 
   -0.14819E+08         0.17020E+06         0.00000E+00
    0.17020E+06        -0.51810E+08         0.00000E+00
    0.00000E+00         0.00000E+00        -0.14808E+08
 
   -0.14965E+08         0.16878E+06         0.00000E+00
    0.16878E+06        -0.52115E+08         0.00000E+00
    0.00000E+00         0.00000E+00        -0.14944E+08
 
   -0.15113E+08         0.16728E+06         0.00000E+00
    0.16728E+06        -0.52420E+08         0.00000E+00
    0.00000E+00         0.00000E+00        -0.15081E+08
 
   -0.15263E+08         0.16570E+06         0.00000E+00
    0.16570E+06        -0.52728E+08         0.00000E+00
    0.00000E+00         0.00000E+00        -0.15217E+08
 
   -0.15414E+08         0.16402E+06         0.00000E+00
    0.16402E+06        -0.53037E+08         0.00000E+00
    0.00000E+00         0.00000E+00        -0.15353E+08
 
   -0.15567E+08         0.16222E+06         0.00000E+00
    0.16222E+06        -0.53348E+08         0.00000E+00
    0.00000E+00         0.00000E+00        -0.15488E+08
 
   -0.15723E+08         0.16028E+06         0.00000E+00
    0.16028E+06        -0.53660E+08         0.00000E+00
    0.00000E+00         0.00000E+00        -0.15623E+08
 
   -0.15881E+08         0.15816E+06         0.00000E+00
    0.15816E+06        -0.53975E+08         0.00000E+00
    0.00000E+00         0.00000E+00        -0.15758E+08
 
   -0.16042E+08         0.15583E+06         0.00000E+00
    0.15583E+06        -0.54292E+08         0.00000E+00
    0.00000E+00         0.00000E+00        -0.15892E+08
 
   -0.16206E+08         0.15323E+06         0.00000E+00
    0.15323E+06        -0.54610E+08         0.00000E+00
    0.00000E+00         0.00000E+00        -0.16024E+08
 
   -0.16373E+08         0.15030E+06         0.00000E+00
    0.15030E+06        -0.54931E+08         0.00000E+00
    0.00000E+00         0.00000E+00        -0.16155E+08
 
   -0.16543E+08         0.14696E+06         0.00000E+00
    0.14696E+06        -0.55254E+08         0.00000E+00
    0.00000E+00         0.00000E+00        -0.16285E+08
 
   -0.16718E+08         0.14309E+06         0.00000E+00
    0.14309E+06        -0.55579E+08         0.00000E+00
    0.00000E+00         0.00000E+00        -0.16412E+08
 
   -0.16898E+08         0.13858E+06         0.00000E+00
    0.13858E+06        -0.55906E+08         0.00000E+00
    0.00000E+00         0.00000E+00        -0.16537E+08
 
   -0.17083E+08         0.13328E+06         0.00000E+00
    0.13328E+06        -0.56235E+08         0.00000E+00
    0.00000E+00         0.00000E+00        -0.16659E+08
 
   -0.17274E+08         0.12701E+06         0.00000E+00
    0.12701E+06        -0.56566E+08         0.00000E+00
    0.00000E+00         0.00000E+00        -0.16776E+08
 
   -0.17473E+08         0.11959E+06         0.00000E+00
    0.11959E+06        -0.56900E+08         0.00000E+00
    0.00000E+00         0.00000E+00        -0.16889E+08
 
   -0.17680E+08         0.11083E+06         0.00000E+00
    0.11083E+06        -0.57237E+08         0.00000E+00
    0.00000E+00         0.00000E+00        -0.16996E+08
 
   -0.17897E+08         0.10054E+06         0.00000E+00
    0.10054E+06        -0.57575E+08         0.00000E+00
    0.00000E+00         0.00000E+00        -0.17096E+08
 
   -0.18125E+08         0.88581E+05         0.00000E+00
    0.88581E+05        -0.57917E+08         0.00000E+00
    0.00000E+00         0.00000E+00        -0.17188E+08
 
   -0.18366E+08         0.74898E+05         0.00000E+00
    0.74898E+05        -0.58261E+08         0.00000E+00
    0.00000E+00         0.00000E+00        -0.17270E+08
 
   -0.18621E+08         0.59552E+05         0.00000E+00
    0.59552E+05        -0.58607E+08         0.00000E+00
    0.00000E+00         0.00000E+00        -0.17342E+08
 
   -0.18892E+08         0.42778E+05         0.00000E+00
    0.42778E+05        -0.58956E+08         0.00000E+00
    0.00000E+00         0.00000E+00        -0.17403E+08
 
   -0.19180E+08         0.25010E+05         0.00000E+00
    0.25010E+05        -0.59307E+08         0.00000E+00
    0.00000E+00         0.00000E+00        -0.17450E+08
 
   -0.19485E+08         0.68612E+04         0.00000E+00
    0.68612E+04        -0.59661E+08         0.00000E+00
    0.00000E+00         0.00000E+00        -0.17485E+08
 
   -0.19809E+08        -0.10899E+05         0.00000E+00
   -0.10899E+05        -0.60016E+08         0.00000E+00
    0.00000E+00         0.00000E+00        -0.17507E+08
 
   -0.20150E+08        -0.27777E+05         0.00000E+00
   -0.27777E+05        -0.60373E+08         0.00000E+00
    0.00000E+00         0.00000E+00        -0.17517E+08
 
   -0.20506E+08        -0.42376E+05         0.00000E+00
   -0.42376E+05        -0.60732E+08         0.00000E+00
    0.00000E+00         0.00000E+00        -0.17517E+08
 
   -0.20876E+08        -0.56881E+05         0.00000E+00
   -0.56881E+05        -0.61093E+08         0.00000E+00
    0.00000E+00         0.00000E+00        -0.17510E+08
 
   -0.21246E+08        -0.67359E+05         0.00000E+00
   -0.67359E+05        -0.61463E+08         0.00000E+00
    0.00000E+00         0.00000E+00        -0.17513E+08
 
   -0.21593E+08        -0.34380E+05         0.00000E+00
   -0.34380E+05        -0.61794E+08         0.00000E+00
    0.00000E+00         0.00000E+00        -0.17504E+08
 
   -0.29036E+07        -0.44129E+05         0.00000E+00
   -0.44129E+05        -0.27778E+08         0.00000E+00
    0.00000E+00         0.00000E+00        -0.91311E+07
 
   -0.33795E+07        -0.64088E+05         0.00000E+00
   -0.64088E+05        -0.28201E+08         0.00000E+00
    0.00000E+00         0.00000E+00        -0.89961E+07
 
   -0.38720E+07        -0.38110E+05         0.00000E+00
   -0.38110E+05        -0.28641E+08         0.00000E+00
    0.00000E+00         0.00000E+00        -0.88428E+07
 
   -0.43449E+07        -0.17273E+05         0.00000E+00
   -0.17273E+05        -0.29083E+08         0.00000E+00
    0.00000E+00         0.00000E+00        -0.87066E+07
 
   -0.48132E+07        -0.28836E+05         0.00000E+00
   -0.28836E+05        -0.29473E+08         0.00000E+00
    0.00000E+00         0.00000E+00        -0.86701E+07
 
   -0.52503E+07        -0.16423E+05         0.00000E+00
   -0.16423E+05        -0.29867E+08         0.00000E+00
    0.00000E+00         0.00000E+00        -0.86701E+07
 
   -0.56573E+07        -0.17350E+04         0.00000E+00
   -0.17350E+04        -0.30276E+08         0.00000E+00
    0.00000E+00         0.00000E+00        -0.86701E+07
 
   -0.60347E+07         0.23343E+05         0.00000E+00
    0.23343E+05        -0.30685E+08         0.00000E+00
    0.00000E+00         0.00000E+00        -0.86701E+07
 
   -0.63790E+07         0.47897E+05         0.00000E+00
    0.47897E+05        -0.31094E+08         0.00000E+00
    0.00000E+00         0.00000E+00        -0.86701E+07
 
   -0.66900E+07         0.72157E+05         0.00000E+00
    0.72157E+05        -0.31502E+08         0.00000E+00
    0.00000E+00         0.00000E+00        -0.86701E+07
 
   -0.69692E+07         0.94638E+05         0.00000E+00
    0.94638E+05        -0.31908E+08         0.00000E+00
    0.00000E+00         0.00000E+00        -0.86701E+07
 
   -0.72191E+07         0.11483E+06         0.00000E+00
    0.11483E+06        -0.32313E+08         0.00000E+00
    0.00000E+00         0.00000E+00        -0.86701E+07
 
   -0.74427E+07         0.13233E+06         0.00000E+00
    0.13233E+06        -0.32716E+08         0.00000E+00
    0.00000E+00         0.00000E+00        -0.86701E+07
 
   -0.76436E+07         0.14682E+06         0.00000E+00
    0.14682E+06        -0.33117E+08         0.00000E+00
    0.00000E+00         0.00000E+00        -0.86701E+07
 
   -0.78257E+07         0.15803E+06         0.00000E+00
    0.15803E+06        -0.33516E+08         0.00000E+00
    0.00000E+00         0.00000E+00        -0.86701E+07
 
   -0.79935E+07         0.16567E+06         0.00000E+00
    0.16567E+06        -0.33913E+08         0.00000E+00
    0.00000E+00         0.00000E+00        -0.86701E+07
 
   -0.81514E+07         0.16965E+06         0.00000E+00
    0.16965E+06        -0.34309E+08         0.00000E+00
    0.00000E+00         0.00000E+00        -0.86701E+07
 
   -0.83035E+07         0.16914E+06         0.00000E+00
    0.16914E+06        -0.34701E+08         0.00000E+00
    0.00000E+00         0.00000E+00        -0.86701E+07
 
   -0.84582E+07         0.16439E+06         0.00000E+00
    0.16439E+06        -0.35089E+08         0.00000E+00
    0.00000E+00         0.00000E+00        -0.86701E+07
 
   -0.86132E+07         0.15274E+06         0.00000E+00
    0.15274E+06        -0.35471E+08         0.00000E+00
    0.00000E+00         0.00000E+00        -0.87103E+07
 
   -0.87612E+07         0.15869E+06         0.00000E+00
    0.15869E+06        -0.35855E+08         0.00000E+00
    0.00000E+00         0.00000E+00        -0.88056E+07
 
   -0.89051E+07         0.16277E+06         0.00000E+00
    0.16277E+06        -0.36239E+08         0.00000E+00
    0.00000E+00         0.00000E+00        -0.89146E+07
 
   -0.90440E+07         0.16744E+06         0.00000E+00
    0.16744E+06        -0.36619E+08         0.00000E+00
    0.00000E+00         0.00000E+00        -0.90241E+07
 
   -0.91765E+07         0.17035E+06         0.00000E+00
    0.17035E+06        -0.36995E+08         0.00000E+00
    0.00000E+00         0.00000E+00        -0.91333E+07
 
   -0.93035E+07         0.17257E+06         0.00000E+00
    0.17257E+06        -0.37369E+08         0.00000E+00
    0.00000E+00         0.00000E+00        -0.92418E+07
 
   -0.94259E+07         0.17417E+06         0.00000E+00
    0.17417E+06        -0.37740E+08         0.00000E+00
    0.00000E+00         0.00000E+00        -0.93490E+07
 
   -0.95441E+07         0.17529E+06         0.00000E+00
    0.17529E+06        -0.38108E+08         0.00000E+00
    0.00000E+00         0.00000E+00        -0.94548E+07
 
   -0.96586E+07         0.17610E+06         0.00000E+00
    0.17610E+06        -0.38474E+08         0.00000E+00
    0.00000E+00         0.00000E+00        -0.95587E+07
 
   -0.97699E+07         0.17669E+06         0.00000E+00
    0.17669E+06        -0.38837E+08         0.00000E+00
    0.00000E+00         0.00000E+00        -0.96606E+07
 
   -0.98782E+07         0.17715E+06         0.00000E+00
    0.17715E+06        -0.39198E+08         0.00000E+00
    0.00000E+00         0.00000E+00        -0.97605E+07
 
   -0.99836E+07         0.17755E+06         0.00000E+00
    0.17755E+06        -0.39556E+08         0.00000E+00
    0.00000E+00         0.00000E+00        -0.98581E+07
 
   -0.10086E+08         0.17791E+06         0.00000E+00
    0.17791E+06        -0.39911E+08         0.00000E+00
    0.00000E+00         0.00000E+00        -0.99536E+07
 
   -0.10187E+08         0.17823E+06         0.00000E+00
    0.17823E+06        -0.40264E+08         0.00000E+00
    0.00000E+00         0.00000E+00        -0.10047E+08
 
   -0.10285E+08         0.17841E+06         0.00000E+00
    0.17841E+06        -0.40614E+08         0.00000E+00
    0.00000E+00         0.00000E+00        -0.10138E+08
 
   -0.10383E+08         0.17827E+06         0.00000E+00
    0.17827E+06        -0.40962E+08         0.00000E+00
    0.00000E+00         0.00000E+00        -0.10227E+08
 
   -0.10483E+08         0.17537E+06         0.00000E+00
    0.17537E+06        -0.41309E+08         0.00000E+00
    0.00000E+00         0.00000E+00        -0.10313E+08
 
   -0.10586E+08         0.16558E+06         0.00000E+00
    0.16558E+06        -0.41654E+08         0.00000E+00
    0.00000E+00         0.00000E+00        -0.10411E+08
 
   -0.10693E+08         0.15709E+06         0.00000E+00
    0.15709E+06        -0.41994E+08         0.00000E+00
    0.00000E+00         0.00000E+00        -0.10531E+08
 
   -0.10804E+08         0.15423E+06         0.00000E+00
    0.15423E+06        -0.42333E+08         0.00000E+00
    0.00000E+00         0.00000E+00        -0.10659E+08
 
   -0.10918E+08         0.15360E+06         0.00000E+00
    0.15360E+06        -0.42670E+08         0.00000E+00
    0.00000E+00         0.00000E+00        -0.10786E+08
 
   -0.11032E+08         0.15317E+06         0.00000E+00
    0.15317E+06        -0.43005E+08         0.00000E+00
    0.00000E+00         0.00000E+00        -0.10912E+08
 
   -0.11145E+08         0.15288E+06         0.00000E+00
    0.15288E+06        -0.43338E+08         0.00000E+00
    0.00000E+00         0.00000E+00        -0.11036E+08
 
   -0.11257E+08         0.15262E+06         0.00000E+00
    0.15262E+06        -0.43670E+08         0.00000E+00
    0.00000E+00         0.00000E+00        -0.11159E+08
 
   -0.11368E+08         0.15232E+06         0.00000E+00
    0.15232E+06        -0.44000E+08         0.00000E+00
    0.00000E+00         0.00000E+00        -0.11280E+08
 
   -0.11479E+08         0.15198E+06         0.00000E+00
    0.15198E+06        -0.44328E+08         0.00000E+00
    0.00000E+00         0.00000E+00        -0.11400E+08
 
   -0.11588E+08         0.15158E+06         0.00000E+00
    0.15158E+06        -0.44655E+08         0.00000E+00
    0.00000E+00         0.00000E+00        -0.11519E+08
 
   -0.11697E+08         0.15115E+06         0.00000E+00
    0.15115E+06        -0.44981E+08         0.00000E+00
    0.00000E+00         0.00000E+00        -0.11638E+08
 
   -0.11815E+08         0.15059E+06         0.00000E+00
    0.15059E+06        -0.45296E+08         0.00000E+00
    0.00000E+00         0.00000E+00        -0.11764E+08
 
   -0.11947E+08         0.14989E+06         0.00000E+00
    0.14989E+06        -0.45597E+08         0.00000E+00
    0.00000E+00         0.00000E+00        -0.11904E+08
 
   -0.12081E+08         0.14914E+06         0.00000E+00
    0.14914E+06        -0.45894E+08         0.00000E+00
    0.00000E+00         0.00000E+00        -0.12046E+08
 
   -0.12215E+08         0.14839E+06         0.00000E+00
    0.14839E+06        -0.46191E+08         0.00000E+00
    0.00000E+00         0.00000E+00        -0.12188E+08
 
   -0.12348E+08         0.14763E+06         0.00000E+00
    0.14763E+06        -0.46486E+08         0.00000E+00
    0.00000E+00         0.00000E+00        -0.12328E+08
 
   -0.12482E+08         0.14686E+06         0.00000E+00
    0.14686E+06        -0.46781E+08         0.00000E+00
    0.00000E+00         0.00000E+00        -0.12469E+08
 
   -0.12616E+08         0.14609E+06         0.00000E+00
    0.14609E+06        -0.47075E+08         0.00000E+00
    0.00000E+00         0.00000E+00        -0.12608E+08
 
   -0.12750E+08         0.14532E+06         0.00000E+00
    0.14532E+06        -0.47368E+08         0.00000E+00
    0.00000E+00         0.00000E+00        -0.12748E+08
 
   -0.12884E+08         0.14455E+06         0.00000E+00
    0.14455E+06        -0.47662E+08         0.00000E+00
    0.00000E+00         0.00000E+00        -0.12886E+08
 
   -0.13018E+08         0.14378E+06         0.00000E+00
    0.14378E+06        -0.47955E+08         0.00000E+00
    0.00000E+00         0.00000E+00        -0.13025E+08
 
   -0.13152E+08         0.14300E+06         0.00000E+00
    0.14300E+06        -0.48248E+08         0.00000E+00
    0.00000E+00         0.00000E+00        -0.13163E+08
 
   -0.13287E+08         0.14222E+06         0.00000E+00
    0.14222E+06        -0.48542E+08         0.00000E+00
    0.00000E+00         0.00000E+00        -0.13301E+08
 
   -0.13422E+08         0.14142E+06         0.00000E+00
    0.14142E+06        -0.48835E+08         0.00000E+00
    0.00000E+00         0.00000E+00        -0.13438E+08
 
   -0.13558E+08         0.14062E+06         0.00000E+00
    0.14062E+06        -0.49129E+08         0.00000E+00
    0.00000E+00         0.00000E+00        -0.13576E+08
 
   -0.13695E+08         0.13979E+06         0.00000E+00
    0.13979E+06        -0.49424E+08         0.00000E+00
    0.00000E+00         0.00000E+00        -0.13713E+08
 
   -0.13832E+08         0.13896E+06         0.00000E+00
    0.13896E+06        -0.49719E+08         0.00000E+00
    0.00000E+00         0.00000E+00        -0.13850E+08
 
   -0.13970E+08         0.13810E+06         0.00000E+00
    0.13810E+06        -0.50015E+08         0.00000E+00
    0.00000E+00         0.00000E+00        -0.13987E+08
 
   -0.14108E+08         0.13721E+06         0.00000E+00
    0.13721E+06        -0.50311E+08         0.00000E+00
    0.00000E+00         0.00000E+00        -0.14124E+08
 
   -0.14248E+08         0.13630E+06         0.00000E+00
    0.13630E+06        -0.50609E+08         0.00000E+00
    0.00000E+00         0.00000E+00        -0.14261E+08
 
   -0.14389E+08         0.13536E+06         0.00000E+00
    0.13536E+06        -0.50908E+08         0.00000E+00
    0.00000E+00         0.00000E+00        -0.14398E+08
 
   -0.14531E+08         0.13438E+06         0.00000E+00
    0.13438E+06        -0.51208E+08         0.00000E+00
    0.00000E+00         0.00000E+00        -0.14535E+08
 
   -0.14675E+08         0.13336E+06         0.00000E+00
    0.13336E+06        -0.51509E+08         0.00000E+00
    0.00000E+00         0.00000E+00        -0.14672E+08
 
   -0.14819E+08         0.13230E+06         0.00000E+00
    0.13230E+06        -0.51812E+08         0.00000E+00
    0.00000E+00         0.00000E+00        -0.14808E+08
 
   -0.14966E+08         0.13118E+06         0.00000E+00
    0.13118E+06        -0.52116E+08         0.00000E+00
    0.00000E+00         0.00000E+00        -0.14945E+08
 
   -0.15114E+08         0.13001E+06         0.00000E+00
    0.13001E+06        -0.52422E+08         0.00000E+00
    0.00000E+00         0.00000E+00        -0.15081E+08
 
   -0.15263E+08         0.12877E+06         0.00000E+00
    0.12877E+06        -0.52730E+08         0.00000E+00
    0.00000E+00         0.00000E+00        -0.15217E+08
 
   -0.15415E+08         0.12745E+06         0.00000E+00
    0.12745E+06        -0.53039E+08         0.00000E+00
    0.00000E+00         0.00000E+00        -0.15353E+08
 
   -0.15569E+08         0.12604E+06         0.00000E+00
    0.12604E+06        -0.53350E+08         0.00000E+00
    0.00000E+00         0.00000E+00        -0.15489E+08
 
   -0.15724E+08         0.12452E+06         0.00000E+00
    0.12452E+06        -0.53663E+08         0.00000E+00
    0.00000E+00         0.00000E+00        -0.15624E+08
 
   -0.15883E+08         0.12287E+06         0.00000E+00
    0.12287E+06        -0.53978E+08         0.00000E+00
    0.00000E+00         0.00000E+00        -0.15758E+08
 
   -0.16044E+08         0.12105E+06         0.00000E+00
    0.12105E+06        -0.54294E+08         0.00000E+00
    0.00000E+00         0.00000E+00        -0.15892E+08
 
   -0.16208E+08         0.11902E+06         0.00000E+00
    0.11902E+06        -0.54613E+08         0.00000E+00
    0.00000E+00         0.00000E+00        -0.16024E+08
 
   -0.16375E+08         0.11673E+06         0.00000E+00
    0.11673E+06        -0.54934E+08         0.00000E+00
    0.00000E+00         0.00000E+00        -0.16155E+08
 
   -0.16546E+08         0.11412E+06         0.00000E+00
    0.11412E+06        -0.55257E+08         0.00000E+00
    0.00000E+00         0.00000E+00        -0.16284E+08
 
   -0.16721E+08         0.11109E+06         0.00000E+00
    0.11109E+06        -0.55582E+08         0.00000E+00
    0.00000E+00         0.00000E+00        -0.16412E+08
 
   -0.16901E+08         0.10756E+06         0.00000E+00
    0.10756E+06        -0.55909E+08         0.00000E+00
    0.00000E+00         0.00000E+00        -0.16536E+08
 
   -0.17087E+08         0.10341E+06         0.00000E+00
    0.10341E+06        -0.56238E+08         0.00000E+00
    0.00000E+00         0.00000E+00        -0.16657E+08
 
   -0.17279E+08         0.98484E+05         0.00000E+00
    0.98484E+05        -0.56569E+08         0.00000E+00
    0.00000E+00         0.00000E+00        -0.16774E+08
 
   -0.17478E+08         0.92649E+05         0.00000E+00
    0.92649E+05        -0.56903E+08         0.00000E+00
    0.00000E+00         0.00000E+00        -0.16886E+08
 
   -0.17686E+08         0.85745E+05         0.00000E+00
    0.85745E+05        -0.57239E+08         0.00000E+00
    0.00000E+00         0.00000E+00        -0.16992E+08
 
   -0.17904E+08         0.77627E+05         0.00000E+00
    0.77627E+05        -0.57578E+08         0.00000E+00
    0.00000E+00         0.00000E+00        -0.17090E+08
 
   -0.18134E+08         0.68181E+05         0.00000E+00
    0.68181E+05        -0.57919E+08         0.00000E+00
    0.00000E+00         0.00000E+00        -0.17181E+08
 
   -0.18377E+08         0.57359E+05         0.00000E+00
    0.57359E+05        -0.58262E+08         0.00000E+00
    0.00000E+00         0.00000E+00        -0.17261E+08
 
   -0.18634E+08         0.45216E+05         0.00000E+00
    0.45216E+05        -0.58608E+08         0.00000E+00
    0.00000E+00         0.00000E+00        -0.17331E+08
 
   -0.18908E+08         0.31940E+05         0.00000E+00
    0.31940E+05        -0.58957E+08         0.00000E+00
    0.00000E+00         0.00000E+00        -0.17388E+08
 
   -0.19199E+08         0.17896E+05         0.00000E+00
    0.17896E+05        -0.59308E+08         0.00000E+00
    0.00000E+00         0.00000E+00        -0.17433E+08
 
   -0.19509E+08         0.35406E+04         0.00000E+00
    0.35406E+04        -0.59661E+08         0.00000E+00
    0.00000E+00         0.00000E+00        -0.17463E+08
 
   -0.19838E+08        -0.10436E+05         0.00000E+00
   -0.10436E+05        -0.60016E+08         0.00000E+00
    0.00000E+00         0.00000E+00        -0.17481E+08
 
   -0.20184E+08        -0.23822E+05         0.00000E+00
   -0.23822E+05        -0.60372E+08         0.00000E+00
    0.00000E+00         0.00000E+00        -0.17485E+08
 
   -0.20547E+08        -0.35549E+05         0.00000E+00
   -0.35549E+05        -0.60731E+08         0.00000E+00
    0.00000E+00         0.00000E+00        -0.17480E+08
 
   -0.20924E+08        -0.46218E+05         0.00000E+00
   -0.46218E+05        -0.61089E+08         0.00000E+00
    0.00000E+00         0.00000E+00        -0.17465E+08
 
   -0.21308E+08        -0.61130E+05         0.00000E+00
   -0.61130E+05        -0.61461E+08         0.00000E+00
    0.00000E+00         0.00000E+00        -0.17458E+08
 
   -0.21668E+08        -0.35766E+05         0.00000E+00
   -0.35766E+05        -0.61808E+08         0.00000E+00
    0.00000E+00         0.00000E+00        -0.17454E+08
 
   -0.28851E+07        -0.42505E+05         0.00000E+00
   -0.42505E+05        -0.27758E+08         0.00000E+00
    0.00000E+00         0.00000E+00        -0.92219E+07
 
   -0.33725E+07        -0.45571E+05         0.00000E+00
   -0.45571E+05        -0.28214E+08         0.00000E+00
    0.00000E+00         0.00000E+00        -0.90816E+07
 
   -0.38656E+07        -0.22925E+05         0.00000E+00
   -0.22925E+05        -0.28632E+08         0.00000E+00
    0.00000E+00         0.00000E+00        -0.89077E+07
 
   -0.43097E+07        -0.10011E+05         0.00000E+00
   -0.10011E+05        -0.29085E+08         0.00000E+00
    0.00000E+00         0.00000E+00        -0.87306E+07
 
   -0.47663E+07        -0.19565E+05         0.00000E+00
   -0.19565E+05        -0.29485E+08         0.00000E+00
    0.00000E+00         0.00000E+00        -0.86701E+07
 
   -0.52068E+07        -0.14993E+05         0.00000E+00
   -0.14993E+05        -0.29865E+08         0.00000E+00
    0.00000E+00         0.00000E+00        -0.86701E+07
 
   -0.56205E+07        -0.41501E+04         0.00000E+00
   -0.41501E+04        -0.30281E+08         0.00000E+00
    0.00000E+00         0.00000E+00        -0.86701E+07
 
   -0.60066E+07         0.14467E+05         0.00000E+00
    0.14467E+05        -0.30690E+08         0.00000E+00
    0.00000E+00         0.00000E+00        -0.86701E+07
 
   -0.63574E+07         0.32370E+05         0.00000E+00
    0.32370E+05        -0.31098E+08         0.00000E+00
    0.00000E+00         0.00000E+00        -0.86701E+07
 
   -0.66736E+07         0.50296E+05         0.00000E+00
    0.50296E+05        -0.31506E+08         0.00000E+00
    0.00000E+00         0.00000E+00        -0.86701E+07
 
   -0.69565E+07         0.66805E+05         0.00000E+00
    0.66805E+05        -0.31912E+08         0.00000E+00
    0.00000E+00         0.00000E+00        -0.86701E+07
 
   -0.72086E+07         0.81644E+05         0.00000E+00
    0.81644E+05        -0.32316E+08         0.00000E+00
    0.00000E+00         0.00000E+00        -0.86701E+07
 
   -0.74333E+07         0.94497E+05         0.00000E+00
    0.94497E+05        -0.32718E+08         0.00000E+00
    0.00000E+00         0.00000E+00        -0.86701E+07
 
   -0.76342E+07         0.10515E+06         0.00000E+00
    0.10515E+06        -0.33119E+08         0.00000E+00
    0.00000E+00         0.00000E+00        -0.86701E+07
 
   -0.78156E+07         0.11337E+06         0.00000E+00
    0.11337E+06        -0.33518E+08         0.00000E+00
    0.00000E+00         0.00000E+00        -0.86701E+07
 
   -0.79820E+07         0.11903E+06         0.00000E+00
    0.11903E+06        -0.33914E+08         0.00000E+00
    0.00000E+00         0.00000E+00        -0.86701E+07
 
   -0.81382E+07         0.12179E+06         0.00000E+00
    0.12179E+06        -0.34309E+08         0.00000E+00
    0.00000E+00         0.00000E+00        -0.86701E+07
 
   -0.82890E+07         0.12126E+06         0.00000E+00
    0.12126E+06        -0.34701E+08         0.00000E+00
    0.00000E+00         0.00000E+00        -0.86701E+07
 
   -0.84425E+07         0.11912E+06         0.00000E+00
    0.11912E+06        -0.35088E+08         0.00000E+00
    0.00000E+00         0.00000E+00        -0.86701E+07
 
   -0.85993E+07         0.10606E+06         0.00000E+00
    0.10606E+06        -0.35470E+08         0.00000E+00
    0.00000E+00         0.00000E+00        -0.87033E+07
 
   -0.87519E+07         0.11113E+06         0.00000E+00
    0.11113E+06        -0.35855E+08         0.00000E+00
    0.00000E+00         0.00000E+00        -0.87922E+07
 
   -0.88990E+07         0.11556E+06         0.00000E+00
    0.11556E+06        -0.36241E+08         0.00000E+00
    0.00000E+00         0.00000E+00        -0.89019E+07
 
   -0.90402E+07         0.11924E+06         0.00000E+00
    0.11924E+06        -0.36619E+08         0.00000E+00
    0.00000E+00         0.00000E+00        -0.90121E+07
 
   -0.91740E+07         0.12139E+06         0.00000E+00
    0.12139E+06        -0.36996E+08         0.00000E+00
    0.00000E+00         0.00000E+00        -0.91220E+07
 
   -0.93019E+07         0.12312E+06         0.00000E+00
    0.12312E+06        -0.37369E+08         0.00000E+00
    0.00000E+00         0.00000E+00        -0.92311E+07
 
   -0.94248E+07         0.12432E+06         0.00000E+00
    0.12432E+06        -0.37740E+08         0.00000E+00
    0.00000E+00         0.00000E+00        -0.93390E+07
 
   -0.95433E+07         0.12519E+06         0.00000E+00
    0.12519E+06        -0.38109E+08         0.00000E+00
    0.00000E+00         0.00000E+00        -0.94453E+07
 
   -0.96580E+07         0.12581E+06         0.00000E+00
    0.12581E+06        -0.38474E+08         0.00000E+00
    0.00000E+00         0.00000E+00        -0.95498E+07
 
   -0.97693E+07         0.12627E+06         0.00000E+00
    0.12627E+06        -0.38837E+08         0.00000E+00
    0.00000E+00         0.00000E+00        -0.96523E+07
 
   -0.98774E+07         0.12665E+06         0.00000E+00
    0.12665E+06        -0.39198E+08         0.00000E+00
    0.00000E+00         0.00000E+00        -0.97527E+07
 
   -0.99825E+07         0.12699E+06         0.00000E+00
    0.12699E+06        -0.39556E+08         0.00000E+00
    0.00000E+00         0.00000E+00        -0.98509E+07
 
   -0.10085E+08         0.12733E+06         0.00000E+00
    0.12733E+06        -0.39911E+08         0.00000E+00
    0.00000E+00         0.00000E+00        -0.99468E+07
 
   -0.10184E+08         0.12767E+06         0.00000E+00
    0.12767E+06        -0.40264E+08         0.00000E+00
    0.00000E+00         0.00000E+00        -0.10040E+08
 
   -0.10282E+08         0.12794E+06         0.00000E+00
    0.12794E+06        -0.40614E+08         0.00000E+00
    0.00000E+00         0.00000E+00        -0.10132E+08
 
   -0.10377E+08         0.12823E+06         0.00000E+00
    0.12823E+06        -0.40962E+08         0.00000E+00
    0.00000E+00         0.00000E+00        -0.10221E+08
 
   -0.10474E+08         0.12679E+06         0.00000E+00
    0.12679E+06        -0.41308E+08         0.00000E+00
    0.00000E+00         0.00000E+00        -0.10308E+08
 
   -0.10576E+08         0.11813E+06         0.00000E+00
    0.11813E+06        -0.41652E+08         0.00000E+00
    0.00000E+00         0.00000E+00        -0.10406E+08
 
   -0.10685E+08         0.11082E+06         0.00000E+00
    0.11082E+06        -0.41993E+08         0.00000E+00
    0.00000E+00         0.00000E+00        -0.10525E+08
 
   -0.10798E+08         0.10941E+06         0.00000E+00
    0.10941E+06        -0.42332E+08         0.00000E+00
    0.00000E+00         0.00000E+00        -0.10655E+08
 
   -0.10914E+08         0.10929E+06         0.00000E+00
    0.10929E+06        -0.42670E+08         0.00000E+00
    0.00000E+00         0.00000E+00        -0.10782E+08
 
   -0.11029E+08         0.10909E+06         0.00000E+00
    0.10909E+06        -0.43005E+08         0.00000E+00
    0.00000E+00         0.00000E+00        -0.10908E+08
 
   -0.11143E+08         0.10899E+06         0.00000E+00
    0.10899E+06        -0.43338E+08         0.00000E+00
    0.00000E+00         0.00000E+00        -0.11032E+08
 
   -0.11256E+08         0.10886E+06         0.00000E+00
    0.10886E+06        -0.43670E+08         0.00000E+00
    0.00000E+00         0.00000E+00        -0.11155E+08
 
   -0.11368E+08         0.10870E+06         0.00000E+00
    0.10870E+06        -0.44000E+08         0.00000E+00
    0.00000E+00         0.00000E+00        -0.11277E+08
 
   -0.11478E+08         0.10849E+06         0.00000E+00
    0.10849E+06        -0.44328E+08         0.00000E+00
    0.00000E+00         0.00000E+00        -0.11397E+08
 
   -0.11588E+08         0.10823E+06         0.00000E+00
    0.10823E+06        -0.44655E+08         0.00000E+00
    0.00000E+00         0.00000E+00        -0.11517E+08
 
   -0.11697E+08         0.10794E+06         0.00000E+00
    0.10794E+06        -0.44981E+08         0.00000E+00
    0.00000E+00         0.00000E+00        -0.11635E+08
 
   -0.11815E+08         0.10755E+06         0.00000E+00
    0.10755E+06        -0.45296E+08         0.00000E+00
    0.00000E+00         0.00000E+00        -0.11762E+08
 
   -0.11947E+08         0.10706E+06         0.00000E+00
    0.10706E+06        -0.45597E+08         0.00000E+00
    0.00000E+00         0.00000E+00        -0.11903E+08
 
   -0.12081E+08         0.10653E+06         0.00000E+00
    0.10653E+06        -0.45894E+08         0.00000E+00
    0.00000E+00         0.00000E+00        -0.12045E+08
 
   -0.12215E+08         0.10600E+06         0.00000E+00
    0.10600E+06        -0.46190E+08         0.00000E+00
    0.00000E+00         0.00000E+00        -0.12186E+08
 
   -0.12349E+08         0.10546E+06         0.00000E+00
    0.10546E+06        -0.46486E+08         0.00000E+00
    0.00000E+00         0.00000E+00        -0.12327E+08
 
   -0.12482E+08         0.10491E+06         0.00000E+00
    0.10491E+06        -0.46781E+08         0.00000E+00
    0.00000E+00         0.00000E+00        -0.12468E+08
 
   -0.12616E+08         0.10436E+06         0.00000E+00
    0.10436E+06        -0.47075E+08         0.00000E+00
    0.00000E+00         0.00000E+00        -0.12608E+08
 
   -0.12750E+08         0.10381E+06         0.00000E+00
    0.10381E+06        -0.47369E+08         0.00000E+00
    0.00000E+00         0.00000E+00        -0.12747E+08
 
   -0.12884E+08         0.10326E+06         0.00000E+00
    0.10326E+06        -0.47662E+08         0.00000E+00
    0.00000E+00         0.00000E+00        -0.12886E+08
 
   -0.13018E+08         0.10270E+06         0.00000E+00
    0.10270E+06        -0.47956E+08         0.00000E+00
    0.00000E+00         0.00000E+00        -0.13025E+08
 
   -0.13152E+08         0.10215E+06         0.00000E+00
    0.10215E+06        -0.48249E+08         0.00000E+00
    0.00000E+00         0.00000E+00        -0.13163E+08
 
   -0.13287E+08         0.10158E+06         0.00000E+00
    0.10158E+06        -0.48542E+08         0.00000E+00
    0.00000E+00         0.00000E+00        -0.13301E+08
 
   -0.13422E+08         0.10101E+06         0.00000E+00
    0.10101E+06        -0.48836E+08         0.00000E+00
    0.00000E+00         0.00000E+00        -0.13439E+08
 
   -0.13558E+08         0.10043E+06         0.00000E+00
    0.10043E+06        -0.49130E+08         0.00000E+00
    0.00000E+00         0.00000E+00        -0.13576E+08
 
   -0.13695E+08         0.99842E+05         0.00000E+00
    0.99842E+05        -0.49425E+08         0.00000E+00
    0.00000E+00         0.00000E+00        -0.13714E+08
 
   -0.13832E+08         0.99239E+05         0.00000E+00
    0.99239E+05        -0.49720E+08         0.00000E+00
    0.00000E+00         0.00000E+00        -0.13851E+08
 
   -0.13970E+08         0.98620E+05         0.00000E+00
    0.98620E+05        -0.50016E+08         0.00000E+00
    0.00000E+00         0.00000E+00        -0.13988E+08
 
   -0.14109E+08         0.97983E+05         0.00000E+00
    0.97983E+05        -0.50313E+08         0.00000E+00
    0.00000E+00         0.00000E+00        -0.14125E+08
 
   -0.14248E+08         0.97326E+05         0.00000E+00
    0.97326E+05        -0.50611E+08         0.00000E+00
    0.00000E+00         0.00000E+00        -0.14262E+08
 
   -0.14389E+08         0.96646E+05         0.00000E+00
    0.96646E+05        -0.50909E+08         0.00000E+00
    0.00000E+00         0.00000E+00        -0.14399E+08
 
   -0.14532E+08         0.95940E+05         0.00000E+00
    0.95940E+05        -0.51210E+08         0.00000E+00
    0.00000E+00         0.00000E+00        -0.14536E+08
 
   -0.14675E+08         0.95205E+05         0.00000E+00
    0.95205E+05        -0.51511E+08         0.00000E+00
    0.00000E+00         0.00000E+00        -0.14673E+08
 
   -0.14820E+08         0.94438E+05         0.00000E+00
    0.94438E+05        -0.51814E+08         0.00000E+00
    0.00000E+00         0.00000E+00        -0.14809E+08
 
   -0.14966E+08         0.93634E+05         0.00000E+00
    0.93634E+05        -0.52118E+08         0.00000E+00
    0.00000E+00         0.00000E+00        -0.14946E+08
 
   -0.15114E+08         0.92789E+05         0.00000E+00
    0.92789E+05        -0.52424E+08         0.00000E+00
    0.00000E+00         0.00000E+00        -0.15082E+08
 
   -0.15264E+08         0.91896E+05         0.00000E+00
    0.91896E+05        -0.52732E+08         0.00000E+00
    0.00000E+00         0.00000E+00        -0.15218E+08
 
   -0.15416E+08         0.90947E+05         0.00000E+00
    0.90947E+05        -0.53041E+08         0.00000E+00
    0.00000E+00         0.00000E+00        -0.15354E+08
 
   -0.15570E+08         0.89933E+05         0.00000E+00
    0.89933E+05        -0.53352E+08         0.00000E+00
    0.00000E+00         0.00000E+00        -0.15490E+08
 
   -0.15726E+08         0.88841E+05         0.00000E+00
    0.88841E+05        -0.53665E+08         0.00000E+00
    0.00000E+00         0.00000E+00        -0.15624E+08
 
   -0.15884E+08         0.87651E+05         0.00000E+00
    0.87651E+05        -0.53980E+08         0.00000E+00
    0.00000E+00         0.00000E+00        -0.15759E+08
 
   -0.16046E+08         0.86343E+05         0.00000E+00
    0.86343E+05        -0.54297E+08         0.00000E+00
    0.00000E+00         0.00000E+00        -0.15892E+08
 
   -0.16210E+08         0.84886E+05         0.00000E+00
    0.84886E+05        -0.54616E+08         0.00000E+00
    0.00000E+00         0.00000E+00        -0.16024E+08
 
   -0.16378E+08         0.83243E+05         0.00000E+00
    0.83243E+05        -0.54937E+08         0.00000E+00
    0.00000E+00         0.00000E+00        -0.16155E+08
 
   -0.16549E+08         0.81364E+05         0.00000E+00
    0.81364E+05        -0.55260E+08         0.00000E+00
    0.00000E+00         0.00000E+00        -0.16284E+08
 
   -0.16725E+08         0.79190E+05         0.00000E+00
    0.79190E+05        -0.55585E+08         0.00000E+00
    0.00000E+00         0.00000E+00        -0.16411E+08
 
   -0.16905E+08         0.76648E+05         0.00000E+00
    0.76648E+05        -0.55912E+08         0.00000E+00
    0.00000E+00         0.00000E+00        -0.16535E+08
 
   -0.17091E+08         0.73650E+05         0.00000E+00
    0.73650E+05        -0.56241E+08         0.00000E+00
    0.00000E+00         0.00000E+00        -0.16656E+08
 
   -0.17284E+08         0.70096E+05         0.00000E+00
    0.70096E+05        -0.56572E+08         0.00000E+00
    0.00000E+00         0.00000E+00        -0.16772E+08
 
   -0.17484E+08         0.65875E+05         0.00000E+00
    0.65875E+05        -0.56906E+08         0.00000E+00
    0.00000E+00         0.00000E+00        -0.16883E+08
 
   -0.17693E+08         0.60872E+05         0.00000E+00
    0.60872E+05        -0.57242E+08         0.00000E+00
    0.00000E+00         0.00000E+00        -0.16988E+08
 
   -0.17912E+08         0.54978E+05         0.00000E+00
    0.54978E+05        -0.57580E+08         0.00000E+00
    0.00000E+00         0.00000E+00        -0.17086E+08
 
   -0.18143E+08         0.48110E+05         0.00000E+00
    0.48110E+05        -0.57921E+08         0.00000E+00
    0.00000E+00         0.00000E+00        -0.17174E+08
 
   -0.18388E+08         0.40231E+05         0.00000E+00
    0.40231E+05        -0.58265E+08         0.00000E+00
    0.00000E+00         0.00000E+00        -0.17253E+08
 
   -0.18647E+08         0.31385E+05         0.00000E+00
    0.31385E+05        -0.58611E+08         0.00000E+00
    0.00000E+00         0.00000E+00        -0.17320E+08
 
   -0.18924E+08         0.21710E+05         0.00000E+00
    0.21710E+05        -0.58959E+08         0.00000E+00
    0.00000E+00         0.00000E+00        -0.17375E+08
 
   -0.19219E+08         0.11483E+05         0.00000E+00
    0.11483E+05        -0.59310E+08         0.00000E+00
    0.00000E+00         0.00000E+00        -0.17416E+08
 
   -0.19533E+08         0.10488E+04         0.00000E+00
    0.10488E+04        -0.59662E+08         0.00000E+00
    0.00000E+00         0.00000E+00        -0.17443E+08
 
   -0.19867E+08        -0.91512E+04         0.00000E+00
   -0.91512E+04        -0.60017E+08         0.00000E+00
    0.00000E+00         0.00000E+00        -0.17456E+08
 
   -0.20219E+08        -0.18690E+05         0.00000E+00
   -0.18690E+05        -0.60372E+08         0.00000E+00
    0.00000E+00         0.00000E+00        -0.17455E+08
 
   -0.20589E+08        -0.27995E+05         0.00000E+00
   -0.27995E+05        -0.60730E+08         0.00000E+00
    0.00000E+00         0.00000E+00        -0.17443E+08
 
   -0.20973E+08        -0.33823E+05         0.00000E+00
   -0.33823E+05        -0.61086E+08         0.00000E+00
    0.00000E+00         0.00000E+00        -0.17421E+08
 
   -0.21371E+08        -0.50440E+05         0.00000E+00
   -0.50440E+05        -0.61454E+08         0.00000E+00
    0.00000E+00         0.00000E+00        -0.17400E+08
 
   -0.21749E+08        -0.37552E+05         0.00000E+00
   -0.37552E+05        -0.61820E+08         0.00000E+00
    0.00000E+00         0.00000E+00        -0.17398E+08
 
   -0.28961E+07        -0.43439E+05         0.00000E+00
   -0.43439E+05        -0.27738E+08         0.00000E+00
    0.00000E+00         0.00000E+00        -0.93246E+07
 
   -0.33854E+07        -0.24543E+05         0.00000E+00
   -0.24543E+05        -0.28230E+08         0.00000E+00
    0.00000E+00         0.00000E+00        -0.91691E+07
 
   -0.38586E+07        -0.11197E+05         0.00000E+00
   -0.11197E+05        -0.28626E+08         0.00000E+00
    0.00000E+00         0.00000E+00        -0.89696E+07
 
   -0.42817E+07        -0.93419E+04         0.00000E+00
   -0.93419E+04        -0.29085E+08         0.00000E+00
    0.00000E+00         0.00000E+00        -0.87627E+07
 
   -0.47195E+07        -0.88070E+04         0.00000E+00
   -0.88070E+04        -0.29494E+08         0.00000E+00
    0.00000E+00         0.00000E+00        -0.86701E+07
 
   -0.51634E+07        -0.13846E+05         0.00000E+00
   -0.13846E+05        -0.29863E+08         0.00000E+00
    0.00000E+00         0.00000E+00        -0.86701E+07
 
   -0.55866E+07        -0.40158E+04         0.00000E+00
   -0.40158E+04        -0.30285E+08         0.00000E+00
    0.00000E+00         0.00000E+00        -0.86701E+07
 
   -0.59812E+07         0.68476E+04         0.00000E+00
    0.68476E+04        -0.30692E+08         0.00000E+00
    0.00000E+00         0.00000E+00        -0.86701E+07
 
   -0.63386E+07         0.18084E+05         0.00000E+00
    0.18084E+05        -0.31101E+08         0.00000E+00
    0.00000E+00         0.00000E+00        -0.86701E+07
 
   -0.66599E+07         0.29288E+05         0.00000E+00
    0.29288E+05        -0.31508E+08         0.00000E+00
    0.00000E+00         0.00000E+00        -0.86701E+07
 
   -0.69461E+07         0.39533E+05         0.00000E+00
    0.39533E+05        -0.31914E+08         0.00000E+00
    0.00000E+00         0.00000E+00        -0.86701E+07
 
   -0.72003E+07         0.48762E+05         0.00000E+00
    0.48762E+05        -0.32318E+08         0.00000E+00
    0.00000E+00         0.00000E+00        -0.86701E+07
 
   -0.74257E+07         0.56740E+05         0.00000E+00
    0.56740E+05        -0.32720E+08         0.00000E+00
    0.00000E+00         0.00000E+00        -0.86701E+07
 
   -0.76264E+07         0.63356E+05         0.00000E+00
    0.63356E+05        -0.33121E+08         0.00000E+00
    0.00000E+00         0.00000E+00        -0.86701E+07
 
   -0.78066E+07         0.68460E+05         0.00000E+00
    0.68460E+05        -0.33519E+08         0.00000E+00
    0.00000E+00         0.00000E+00        -0.86701E+07
 
   -0.79712E+07         0.72022E+05         0.00000E+00
    0.72022E+05        -0.33915E+08         0.00000E+00
    0.00000E+00         0.00000E+00        -0.86701E+07
 
   -0.81254E+07         0.73621E+05         0.00000E+00
    0.73621E+05        -0.34309E+08         0.00000E+00
    0.00000E+00         0.00000E+00        -0.86701E+07
 
   -0.82746E+07         0.73066E+05         0.00000E+00
    0.73066E+05        -0.34700E+08         0.00000E+00
    0.00000E+00         0.00000E+00        -0.86701E+07
 
   -0.84251E+07         0.73302E+05         0.00000E+00
    0.73302E+05        -0.35088E+08         0.00000E+00
    0.00000E+00         0.00000E+00        -0.86701E+07
 
   -0.85831E+07         0.60839E+05         0.00000E+00
    0.60839E+05        -0.35469E+08         0.00000E+00
    0.00000E+00         0.00000E+00        -0.86963E+07
 
   -0.87423E+07         0.64132E+05         0.00000E+00
    0.64132E+05        -0.35855E+08         0.00000E+00
    0.00000E+00         0.00000E+00        -0.87787E+07
 
   -0.88940E+07         0.69156E+05         0.00000E+00
    0.69156E+05        -0.36242E+08         0.00000E+00
    0.00000E+00         0.00000E+00        -0.88891E+07
 
   -0.90372E+07         0.71269E+05         0.00000E+00
    0.71269E+05        -0.36620E+08         0.00000E+00
    0.00000E+00         0.00000E+00        -0.90001E+07
 
   -0.91722E+07         0.72651E+05         0.00000E+00
    0.72651E+05        -0.36996E+08         0.00000E+00
    0.00000E+00         0.00000E+00        -0.91107E+07
 
   -0.93009E+07         0.73800E+05         0.00000E+00
    0.73800E+05        -0.37369E+08         0.00000E+00
    0.00000E+00         0.00000E+00        -0.92205E+07
 
   -0.94243E+07         0.74562E+05         0.00000E+00
    0.74562E+05        -0.37740E+08         0.00000E+00
    0.00000E+00         0.00000E+00        -0.93291E+07
 
   -0.95432E+07         0.75124E+05         0.00000E+00
    0.75124E+05        -0.38109E+08         0.00000E+00
    0.00000E+00         0.00000E+00        -0.94361E+07
 
   -0.96580E+07         0.75526E+05         0.00000E+00
    0.75526E+05        -0.38474E+08         0.00000E+00
    0.00000E+00         0.00000E+00        -0.95412E+07
 
   -0.97692E+07         0.75836E+05         0.00000E+00
    0.75836E+05        -0.38837E+08         0.00000E+00
    0.00000E+00         0.00000E+00        -0.96442E+07
 
   -0.98771E+07         0.76095E+05         0.00000E+00
    0.76095E+05        -0.39198E+08         0.00000E+00
    0.00000E+00         0.00000E+00        -0.97452E+07
 
   -0.99819E+07         0.76342E+05         0.00000E+00
    0.76342E+05        -0.39556E+08         0.00000E+00
    0.00000E+00         0.00000E+00        -0.98438E+07
 
   -0.10084E+08         0.76596E+05         0.00000E+00
    0.76596E+05        -0.39911E+08         0.00000E+00
    0.00000E+00         0.00000E+00        -0.99402E+07
 
   -0.10182E+08         0.76898E+05         0.00000E+00
    0.76898E+05        -0.40264E+08         0.00000E+00
    0.00000E+00         0.00000E+00        -0.10034E+08
 
   -0.10278E+08         0.77173E+05         0.00000E+00
    0.77173E+05        -0.40614E+08         0.00000E+00
    0.00000E+00         0.00000E+00        -0.10126E+08
 
   -0.10372E+08         0.77577E+05         0.00000E+00
    0.77577E+05        -0.40963E+08         0.00000E+00
    0.00000E+00         0.00000E+00        -0.10216E+08
 
   -0.10465E+08         0.77699E+05         0.00000E+00
    0.77699E+05        -0.41307E+08         0.00000E+00
    0.00000E+00         0.00000E+00        -0.10303E+08
 
   -0.10565E+08         0.70722E+05         0.00000E+00
    0.70722E+05        -0.41650E+08         0.00000E+00
    0.00000E+00         0.00000E+00        -0.10401E+08
 
   -0.10676E+08         0.65027E+05         0.00000E+00
    0.65027E+05        -0.41992E+08         0.00000E+00
    0.00000E+00         0.00000E+00        -0.10521E+08
 
   -0.10793E+08         0.65155E+05         0.00000E+00
    0.65155E+05        -0.42333E+08         0.00000E+00
    0.00000E+00         0.00000E+00        -0.10650E+08
 
   -0.10910E+08         0.65253E+05         0.00000E+00
    0.65253E+05        -0.42670E+08         0.00000E+00
    0.00000E+00         0.00000E+00        -0.10778E+08
 
   -0.11026E+08         0.65228E+05         0.00000E+00
    0.65228E+05        -0.43005E+08         0.00000E+00
    0.00000E+00         0.00000E+00        -0.10904E+08
 
   -0.11141E+08         0.65248E+05         0.00000E+00
    0.65248E+05        -0.43338E+08         0.00000E+00
    0.00000E+00         0.00000E+00        -0.11029E+08
 
   -0.11255E+08         0.65217E+05         0.00000E+00
    0.65217E+05        -0.43670E+08         0.00000E+00
    0.00000E+00         0.00000E+00        -0.11152E+08
 
   -0.11367E+08         0.65155E+05         0.00000E+00
    0.65155E+05        -0.44000E+08         0.00000E+00
    0.00000E+00         0.00000E+00        -0.11274E+08
 
   -0.11478E+08         0.65054E+05         0.00000E+00
    0.65054E+05        -0.44328E+08         0.00000E+00
    0.00000E+00         0.00000E+00        -0.11395E+08
 
   -0.11588E+08         0.64919E+05         0.00000E+00
    0.64919E+05        -0.44655E+08         0.00000E+00
    0.00000E+00         0.00000E+00        -0.11514E+08
 
   -0.11698E+08         0.64755E+05         0.00000E+00
    0.64755E+05        -0.44981E+08         0.00000E+00
    0.00000E+00         0.00000E+00        -0.11633E+08
 
   -0.11816E+08         0.64534E+05         0.00000E+00
    0.64534E+05        -0.45296E+08         0.00000E+00
    0.00000E+00         0.00000E+00        -0.11760E+08
 
   -0.11948E+08         0.64244E+05         0.00000E+00
    0.64244E+05        -0.45597E+08         0.00000E+00
    0.00000E+00         0.00000E+00        -0.11901E+08
 
   -0.12082E+08         0.63933E+05         0.00000E+00
    0.63933E+05        -0.45894E+08         0.00000E+00
    0.00000E+00         0.00000E+00        -0.12044E+08
 
   -0.12216E+08         0.63615E+05         0.00000E+00
    0.63615E+05        -0.46190E+08         0.00000E+00
    0.00000E+00         0.00000E+00        -0.12185E+08
 
   -0.12349E+08         0.63291E+05         0.00000E+00
    0.63291E+05        -0.46486E+08         0.00000E+00
    0.00000E+00         0.00000E+00        -0.12326E+08
 
   -0.12483E+08         0.62964E+05         0.00000E+00
    0.62964E+05        -0.46781E+08         0.00000E+00
    0.00000E+00         0.00000E+00        -0.12467E+08
 
   -0.12617E+08         0.62635E+05         0.00000E+00
    0.62635E+05        -0.47075E+08         0.00000E+00
    0.00000E+00         0.00000E+00        -0.12607E+08
 
   -0.12750E+08         0.62305E+05         0.00000E+00
    0.62305E+05        -0.47369E+08         0.00000E+00
    0.00000E+00         0.00000E+00        -0.12747E+08
 
   -0.12884E+08         0.61972E+05         0.00000E+00
    0.61972E+05        -0.47663E+08         0.00000E+00
    0.00000E+00         0.00000E+00        -0.12886E+08
 
   -0.13018E+08         0.61637E+05         0.00000E+00
    0.61637E+05        -0.47956E+08         0.00000E+00
    0.00000E+00         0.00000E+00        -0.13024E+08
 
   -0.13152E+08         0.61300E+05         0.00000E+00
    0.61300E+05        -0.48249E+08         0.00000E+00
    0.00000E+00         0.00000E+00        -0.13163E+08
 
   -0.13287E+08         0.60959E+05         0.00000E+00
    0.60959E+05        -0.48543E+08         0.00000E+00
    0.00000E+00         0.00000E+00        -0.13301E+08
 
   -0.13422E+08         0.60614E+05         0.00000E+00
    0.60614E+05        -0.48837E+08         0.00000E+00
    0.00000E+00         0.00000E+00        -0.13439E+08
 
   -0.13558E+08         0.60263E+05         0.00000E+00
    0.60263E+05        -0.49131E+08         0.00000E+00
    0.00000E+00         0.00000E+00        -0.13576E+08
 
   -0.13695E+08         0.59906E+05         0.00000E+00
    0.59906E+05        -0.49426E+08         0.00000E+00
    0.00000E+00         0.00000E+00        -0.13714E+08
 
   -0.13832E+08         0.59540E+05         0.00000E+00
    0.59540E+05        -0.49721E+08         0.00000E+00
    0.00000E+00         0.00000E+00        -0.13851E+08
 
   -0.13970E+08         0.59164E+05         0.00000E+00
    0.59164E+05        -0.50017E+08         0.00000E+00
    0.00000E+00         0.00000E+00        -0.13989E+08
 
   -0.14109E+08         0.58777E+05         0.00000E+00
    0.58777E+05        -0.50314E+08         0.00000E+00
    0.00000E+00         0.00000E+00        -0.14126E+08
 
   -0.14249E+08         0.58378E+05         0.00000E+00
    0.58378E+05        -0.50612E+08         0.00000E+00
    0.00000E+00         0.00000E+00        -0.14263E+08
 
   -0.14390E+08         0.57965E+05         0.00000E+00
    0.57965E+05        -0.50911E+08         0.00000E+00
    0.00000E+00         0.00000E+00        -0.14400E+08
 
   -0.14532E+08         0.57536E+05         0.00000E+00
    0.57536E+05        -0.51211E+08         0.00000E+00
    0.00000E+00         0.00000E+00        -0.14537E+08
 
   -0.14675E+08         0.57089E+05         0.00000E+00
    0.57089E+05        -0.51513E+08         0.00000E+00
    0.00000E+00         0.00000E+00        -0.14673E+08
 
   -0.14820E+08         0.56623E+05         0.00000E+00
    0.56623E+05        -0.51816E+08         0.00000E+00
    0.00000E+00         0.00000E+00        -0.14810E+08
 
   -0.14967E+08         0.56134E+05         0.00000E+00
    0.56134E+05        -0.52120E+08         0.00000E+00
    0.00000E+00         0.00000E+00        -0.14947E+08
 
   -0.15115E+08         0.55621E+05         0.00000E+00
    0.55621E+05        -0.52426E+08         0.00000E+00
    0.00000E+00         0.00000E+00        -0.15083E+08
 
   -0.15265E+08         0.55079E+05         0.00000E+00
    0.55079E+05        -0.52734E+08         0.00000E+00
    0.00000E+00         0.00000E+00        -0.15219E+08
 
   -0.15417E+08         0.54503E+05         0.00000E+00
    0.54503E+05        -0.53044E+08         0.00000E+00
    0.00000E+00         0.00000E+00        -0.15355E+08
 
   -0.15571E+08         0.53889E+05         0.00000E+00
    0.53889E+05        -0.53355E+08         0.00000E+00
    0.00000E+00         0.00000E+00        -0.15490E+08
 
   -0.15727E+08         0.53226E+05         0.00000E+00
    0.53226E+05        -0.53668E+08         0.00000E+00
    0.00000E+00         0.00000E+00        -0.15625E+08
 
   -0.15886E+08         0.52507E+05         0.00000E+00
    0.52507E+05        -0.53983E+08         0.00000E+00
    0.00000E+00         0.00000E+00        -0.15759E+08
 
   -0.16048E+08         0.51715E+05         0.00000E+00
    0.51715E+05        -0.54300E+08         0.00000E+00
    0.00000E+00         0.00000E+00        -0.15893E+08
 
   -0.16212E+08         0.50834E+05         0.00000E+00
    0.50834E+05        -0.54619E+08         0.00000E+00
    0.00000E+00         0.00000E+00        -0.16025E+08
 
   -0.16380E+08         0.49839E+05         0.00000E+00
    0.49839E+05        -0.54940E+08         0.00000E+00
    0.00000E+00         0.00000E+00        -0.16155E+08
 
   -0.16552E+08         0.48702E+05         0.00000E+00
    0.48702E+05        -0.55263E+08         0.00000E+00
    0.00000E+00         0.00000E+00        -0.16284E+08
 
   -0.16728E+08         0.47384E+05         0.00000E+00
    0.47384E+05        -0.55588E+08         0.00000E+00
    0.00000E+00         0.00000E+00        -0.16411E+08
 
   -0.16909E+08         0.45841E+05         0.00000E+00
    0.45841E+05        -0.55915E+08         0.00000E+00
    0.00000E+00         0.00000E+00        -0.16534E+08
 
   -0.17096E+08         0.44018E+05         0.00000E+00
    0.44018E+05        -0.56245E+08         0.00000E+00
    0.00000E+00         0.00000E+00        -0.16654E+08
 
   -0.17289E+08         0.41852E+05         0.00000E+00
    0.41852E+05        -0.56576E+08         0.00000E+00
    0.00000E+00         0.00000E+00        -0.16770E+08
 
   -0.17490E+08         0.39274E+05         0.00000E+00
    0.39274E+05        -0.56910E+08         0.00000E+00
    0.00000E+00         0.00000E+00        -0.16881E+08
 
   -0.17700E+08         0.36210E+05         0.00000E+00
    0.36210E+05        -0.57246E+08         0.00000E+00
    0.00000E+00         0.00000E+00        -0.16985E+08
 
   -0.17920E+08         0.32593E+05         0.00000E+00
    0.32593E+05        -0.57584E+08         0.00000E+00
    0.00000E+00         0.00000E+00        -0.17081E+08
 
   -0.18152E+08         0.28369E+05         0.00000E+00
    0.28369E+05        -0.57925E+08         0.00000E+00
    0.00000E+00         0.00000E+00        -0.17169E+08
 
   -0.18399E+08         0.23516E+05         0.00000E+00
    0.23516E+05        -0.58268E+08         0.00000E+00
    0.00000E+00         0.00000E+00        -0.17246E+08
 
   -0.18661E+08         0.18056E+05         0.00000E+00
    0.18056E+05        -0.58614E+08         0.00000E+00
    0.00000E+00         0.00000E+00        -0.17311E+08
 
   -0.18941E+08         0.12097E+05         0.00000E+00
    0.12097E+05        -0.58962E+08         0.00000E+00
    0.00000E+00         0.00000E+00        -0.17363E+08
 
   -0.19239E+08         0.57622E+04         0.00000E+00
    0.57622E+04        -0.59312E+08         0.00000E+00
    0.00000E+00         0.00000E+00        -0.17400E+08
 
   -0.19557E+08        -0.59199E+03         0.00000E+00
   -0.59199E+03        -0.59665E+08         0.00000E+00
    0.00000E+00         0.00000E+00        -0.17423E+08
 
   -0.19896E+08        -0.70476E+04         0.00000E+00
   -0.70476E+04        -0.60019E+08         0.00000E+00
    0.00000E+00         0.00000E+00        -0.17431E+08
 
   -0.20253E+08        -0.12486E+05         0.00000E+00
   -0.12486E+05        -0.60373E+08         0.00000E+00
    0.00000E+00         0.00000E+00        -0.17425E+08
 
   -0.20630E+08        -0.19224E+05         0.00000E+00
   -0.19224E+05        -0.60730E+08         0.00000E+00
    0.00000E+00         0.00000E+00        -0.17407E+08
 
   -0.21022E+08        -0.21361E+05         0.00000E+00
   -0.21361E+05        -0.61085E+08         0.00000E+00
    0.00000E+00         0.00000E+00        -0.17379E+08
 
   -0.21431E+08        -0.32930E+05         0.00000E+00
   -0.32930E+05        -0.61441E+08         0.00000E+00
    0.00000E+00         0.00000E+00        -0.17339E+08
 
   -0.21837E+08        -0.40388E+05         0.00000E+00
   -0.40388E+05        -0.61831E+08         0.00000E+00
    0.00000E+00         0.00000E+00        -0.17335E+08
 
   -0.29524E+07        -0.52212E+05         0.00000E+00
   -0.52212E+05        -0.27717E+08         0.00000E+00
    0.00000E+00         0.00000E+00        -0.94427E+07
 
   -0.34183E+07        -0.17808E+04         0.00000E+00
   -0.17808E+04        -0.28252E+08         0.00000E+00
    0.00000E+00         0.00000E+00        -0.92553E+07
 
   -0.38451E+07        -0.71975E+04         0.00000E+00
   -0.71975E+04        -0.28621E+08         0.00000E+00
    0.00000E+00         0.00000E+00        -0.90277E+07
 
   -0.42665E+07        -0.11522E+05         0.00000E+00
   -0.11522E+05        -0.29084E+08         0.00000E+00
    0.00000E+00         0.00000E+00        -0.88046E+07
 
   -0.46709E+07        -0.40756E+03         0.00000E+00
   -0.40756E+03        -0.29499E+08         0.00000E+00
    0.00000E+00         0.00000E+00        -0.86717E+07
 
   -0.51194E+07        -0.11337E+05         0.00000E+00
   -0.11337E+05        -0.29862E+08         0.00000E+00
    0.00000E+00         0.00000E+00        -0.86701E+07
 
   -0.55566E+07        -0.11857E+04         0.00000E+00
   -0.11857E+04        -0.30288E+08         0.00000E+00
    0.00000E+00         0.00000E+00        -0.86701E+07
 
   -0.59582E+07         0.26280E+03         0.00000E+00
    0.26280E+03        -0.30693E+08         0.00000E+00
    0.00000E+00         0.00000E+00        -0.86701E+07
 
   -0.63227E+07         0.51771E+04         0.00000E+00
    0.51771E+04        -0.31103E+08         0.00000E+00
    0.00000E+00         0.00000E+00        -0.86701E+07
 
   -0.66488E+07         0.90262E+04         0.00000E+00
    0.90262E+04        -0.31510E+08         0.00000E+00
    0.00000E+00         0.00000E+00        -0.86701E+07
 
   -0.69383E+07         0.12798E+05         0.00000E+00
    0.12798E+05        -0.31915E+08         0.00000E+00
    0.00000E+00         0.00000E+00        -0.86701E+07
 
   -0.71942E+07         0.16111E+05         0.00000E+00
    0.16111E+05        -0.32319E+08         0.00000E+00
    0.00000E+00         0.00000E+00        -0.86701E+07
 
   -0.74200E+07         0.18993E+05         0.00000E+00
    0.18993E+05        -0.32721E+08         0.00000E+00
    0.00000E+00         0.00000E+00        -0.86701E+07
 
   -0.76200E+07         0.21379E+05         0.00000E+00
    0.21379E+05        -0.33121E+08         0.00000E+00
    0.00000E+00         0.00000E+00        -0.86701E+07
 
   -0.77988E+07         0.23218E+05         0.00000E+00
    0.23218E+05        -0.33519E+08         0.00000E+00
    0.00000E+00         0.00000E+00        -0.86701E+07
 
   -0.79612E+07         0.24521E+05         0.00000E+00
    0.24521E+05        -0.33915E+08         0.00000E+00
    0.00000E+00         0.00000E+00        -0.86701E+07
 
   -0.81128E+07         0.25129E+05         0.00000E+00
    0.25129E+05        -0.34309E+08         0.00000E+00
    0.00000E+00         0.00000E+00        -0.86701E+07
 
   -0.82602E+07         0.24362E+05         0.00000E+00
    0.24362E+05        -0.34700E+08         0.00000E+00
    0.00000E+00         0.00000E+00        -0.86701E+07
 
   -0.84063E+07         0.26492E+05         0.00000E+00
    0.26492E+05        -0.35088E+08         0.00000E+00
    0.00000E+00         0.00000E+00        -0.86701E+07
 
   -0.85636E+07         0.17332E+05         0.00000E+00
    0.17332E+05        -0.35468E+08         0.00000E+00
    0.00000E+00         0.00000E+00        -0.86891E+07
 
   -0.87323E+07         0.18102E+05         0.00000E+00
    0.18102E+05        -0.35855E+08         0.00000E+00
    0.00000E+00         0.00000E+00        -0.87650E+07
 
   -0.88903E+07         0.23703E+05         0.00000E+00
    0.23703E+05        -0.36243E+08         0.00000E+00
    0.00000E+00         0.00000E+00        -0.88763E+07
 
   -0.90347E+07         0.23354E+05         0.00000E+00
    0.23354E+05        -0.36620E+08         0.00000E+00
    0.00000E+00         0.00000E+00        -0.89881E+07
 
   -0.91710E+07         0.24220E+05         0.00000E+00
    0.24220E+05        -0.36996E+08         0.00000E+00
    0.00000E+00         0.00000E+00        -0.90995E+07
 
   -0.93006E+07         0.24577E+05         0.00000E+00
    0.24577E+05        -0.37370E+08         0.00000E+00
    0.00000E+00         0.00000E+00        -0.92101E+07
 
   -0.94245E+07         0.24890E+05         0.00000E+00
    0.24890E+05        -0.37740E+08         0.00000E+00
    0.00000E+00         0.00000E+00        -0.93194E+07
 
   -0.95436E+07         0.25097E+05         0.00000E+00
    0.25097E+05        -0.38109E+08         0.00000E+00
    0.00000E+00         0.00000E+00        -0.94270E+07
 
   -0.96586E+07         0.25253E+05         0.00000E+00
    0.25253E+05        -0.38474E+08         0.00000E+00
    0.00000E+00         0.00000E+00        -0.95327E+07
 
   -0.97698E+07         0.25375E+05         0.00000E+00
    0.25375E+05        -0.38837E+08         0.00000E+00
    0.00000E+00         0.00000E+00        -0.96364E+07
 
   -0.98774E+07         0.25485E+05         0.00000E+00
    0.25485E+05        -0.39198E+08         0.00000E+00
    0.00000E+00         0.00000E+00        -0.97379E+07
 
   -0.99818E+07         0.25596E+05         0.00000E+00
    0.25596E+05        -0.39556E+08         0.00000E+00
    0.00000E+00         0.00000E+00        -0.98371E+07
 
   -0.10083E+08         0.25728E+05         0.00000E+00
    0.25728E+05        -0.39911E+08         0.00000E+00
    0.00000E+00         0.00000E+00        -0.99340E+07
 
   -0.10181E+08         0.25874E+05         0.00000E+00
    0.25874E+05        -0.40264E+08         0.00000E+00
    0.00000E+00         0.00000E+00        -0.10029E+08
 
   -0.10275E+08         0.26142E+05         0.00000E+00
    0.26142E+05        -0.40614E+08         0.00000E+00
    0.00000E+00         0.00000E+00        -0.10121E+08
 
   -0.10367E+08         0.26193E+05         0.00000E+00
    0.26193E+05        -0.40963E+08         0.00000E+00
    0.00000E+00         0.00000E+00        -0.10211E+08
 
   -0.10455E+08         0.27808E+05         0.00000E+00
    0.27808E+05        -0.41307E+08         0.00000E+00
    0.00000E+00         0.00000E+00        -0.10299E+08
 
   -0.10552E+08         0.23374E+05         0.00000E+00
    0.23374E+05        -0.41648E+08         0.00000E+00
    0.00000E+00         0.00000E+00        -0.10396E+08
 
   -0.10666E+08         0.19981E+05         0.00000E+00
    0.19981E+05        -0.41992E+08         0.00000E+00
    0.00000E+00         0.00000E+00        -0.10516E+08
 
   -0.10787E+08         0.21568E+05         0.00000E+00
    0.21568E+05        -0.42333E+08         0.00000E+00
    0.00000E+00         0.00000E+00        -0.10645E+08
 
   -0.10907E+08         0.21452E+05         0.00000E+00
    0.21452E+05        -0.42670E+08         0.00000E+00
    0.00000E+00         0.00000E+00        -0.10774E+08
 
   -0.11024E+08         0.21610E+05         0.00000E+00
    0.21610E+05        -0.43005E+08         0.00000E+00
    0.00000E+00         0.00000E+00        -0.10900E+08
 
   -0.11140E+08         0.21652E+05         0.00000E+00
    0.21652E+05        -0.43338E+08         0.00000E+00
    0.00000E+00         0.00000E+00        -0.11025E+08
 
   -0.11254E+08         0.21686E+05         0.00000E+00
    0.21686E+05        -0.43670E+08         0.00000E+00
    0.00000E+00         0.00000E+00        -0.11149E+08
 
   -0.11367E+08         0.21692E+05         0.00000E+00
    0.21692E+05        -0.44000E+08         0.00000E+00
    0.00000E+00         0.00000E+00        -0.11271E+08
 
   -0.11478E+08         0.21678E+05         0.00000E+00
    0.21678E+05        -0.44328E+08         0.00000E+00
    0.00000E+00         0.00000E+00        -0.11392E+08
 
   -0.11589E+08         0.21647E+05         0.00000E+00
    0.21647E+05        -0.44655E+08         0.00000E+00
    0.00000E+00         0.00000E+00        -0.11512E+08
 
   -0.11698E+08         0.21602E+05         0.00000E+00
    0.21602E+05        -0.44981E+08         0.00000E+00
    0.00000E+00         0.00000E+00        -0.11631E+08
 
   -0.11817E+08         0.21536E+05         0.00000E+00
    0.21536E+05        -0.45296E+08         0.00000E+00
    0.00000E+00         0.00000E+00        -0.11759E+08
 
   -0.11949E+08         0.21444E+05         0.00000E+00
    0.21444E+05        -0.45596E+08         0.00000E+00
    0.00000E+00         0.00000E+00        -0.11900E+08
 
   -0.12083E+08         0.21343E+05         0.00000E+00
    0.21343E+05        -0.45894E+08         0.00000E+00
    0.00000E+00         0.00000E+00        -0.12042E+08
 
   -0.12216E+08         0.21238E+05         0.00000E+00
    0.21238E+05        -0.46190E+08         0.00000E+00
    0.00000E+00         0.00000E+00        -0.12184E+08
 
   -0.12350E+08         0.21131E+05         0.00000E+00
    0.21131E+05        -0.46486E+08         0.00000E+00
    0.00000E+00         0.00000E+00        -0.12326E+08
 
   -0.12484E+08         0.21022E+05         0.00000E+00
    0.21022E+05        -0.46781E+08         0.00000E+00
    0.00000E+00         0.00000E+00        -0.12466E+08
 
   -0.12617E+08         0.20912E+05         0.00000E+00
    0.20912E+05        -0.47075E+08         0.00000E+00
    0.00000E+00         0.00000E+00        -0.12606E+08
 
   -0.12751E+08         0.20801E+05         0.00000E+00
    0.20801E+05        -0.47369E+08         0.00000E+00
    0.00000E+00         0.00000E+00        -0.12746E+08
 
   -0.12884E+08         0.20688E+05         0.00000E+00
    0.20688E+05        -0.47663E+08         0.00000E+00
    0.00000E+00         0.00000E+00        -0.12885E+08
 
   -0.13018E+08         0.20575E+05         0.00000E+00
    0.20575E+05        -0.47957E+08         0.00000E+00
    0.00000E+00         0.00000E+00        -0.13024E+08
 
   -0.13153E+08         0.20460E+05         0.00000E+00
    0.20460E+05        -0.48250E+08         0.00000E+00
    0.00000E+00         0.00000E+00        -0.13163E+08
 
   -0.13287E+08         0.20344E+05         0.00000E+00
    0.20344E+05        -0.48544E+08         0.00000E+00
    0.00000E+00         0.00000E+00        -0.13301E+08
 
   -0.13423E+08         0.20227E+05         0.00000E+00
    0.20227E+05        -0.48838E+08         0.00000E+00
    0.00000E+00         0.00000E+00        -0.13439E+08
 
   -0.13558E+08         0.20107E+05         0.00000E+00
    0.20107E+05        -0.49132E+08         0.00000E+00
    0.00000E+00         0.00000E+00        -0.13577E+08
 
   -0.13695E+08         0.19984E+05         0.00000E+00
    0.19984E+05        -0.49427E+08         0.00000E+00
    0.00000E+00         0.00000E+00        -0.13715E+08
 
   -0.13832E+08         0.19858E+05         0.00000E+00
    0.19858E+05        -0.49722E+08         0.00000E+00
    0.00000E+00         0.00000E+00        -0.13852E+08
 
   -0.13970E+08         0.19729E+05         0.00000E+00
    0.19729E+05        -0.50018E+08         0.00000E+00
    0.00000E+00         0.00000E+00        -0.13989E+08
 
   -0.14109E+08         0.19596E+05         0.00000E+00
    0.19596E+05        -0.50315E+08         0.00000E+00
    0.00000E+00         0.00000E+00        -0.14127E+08
 
   -0.14249E+08         0.19459E+05         0.00000E+00
    0.19459E+05        -0.50613E+08         0.00000E+00
    0.00000E+00         0.00000E+00        -0.14264E+08
 
   -0.14390E+08         0.19316E+05         0.00000E+00
    0.19316E+05        -0.50912E+08         0.00000E+00
    0.00000E+00         0.00000E+00        -0.14401E+08
 
   -0.14532E+08         0.19168E+05         0.00000E+00
    0.19168E+05        -0.51213E+08         0.00000E+00
    0.00000E+00         0.00000E+00        -0.14538E+08
 
   -0.14676E+08         0.19014E+05         0.00000E+00
    0.19014E+05        -0.51515E+08         0.00000E+00
    0.00000E+00         0.00000E+00        -0.14674E+08
 
   -0.14821E+08         0.18853E+05         0.00000E+00
    0.18853E+05        -0.51818E+08         0.00000E+00
    0.00000E+00         0.00000E+00        -0.14811E+08
 
   -0.14968E+08         0.18685E+05         0.00000E+00
    0.18685E+05        -0.52122E+08         0.00000E+00
    0.00000E+00         0.00000E+00        -0.14948E+08
 
   -0.15116E+08         0.18508E+05         0.00000E+00
    0.18508E+05        -0.52429E+08         0.00000E+00
    0.00000E+00         0.00000E+00        -0.15084E+08
 
   -0.15266E+08         0.18321E+05         0.00000E+00
    0.18321E+05        -0.52737E+08         0.00000E+00
    0.00000E+00         0.00000E+00        -0.15220E+08
 
   -0.15418E+08         0.18123E+05         0.00000E+00
    0.18123E+05        -0.53046E+08         0.00000E+00
    0.00000E+00         0.00000E+00        -0.15356E+08
 
   -0.15573E+08         0.17912E+05         0.00000E+00
    0.17912E+05        -0.53358E+08         0.00000E+00
    0.00000E+00         0.00000E+00        -0.15491E+08
 
   -0.15729E+08         0.17686E+05         0.00000E+00
    0.17686E+05        -0.53671E+08         0.00000E+00
    0.00000E+00         0.00000E+00        -0.15626E+08
 
   -0.15888E+08         0.17439E+05         0.00000E+00
    0.17439E+05        -0.53986E+08         0.00000E+00
    0.00000E+00         0.00000E+00        -0.15760E+08
 
   -0.16050E+08         0.17168E+05         0.00000E+00
    0.17168E+05        -0.54303E+08         0.00000E+00
    0.00000E+00         0.00000E+00        -0.15893E+08
 
   -0.16215E+08         0.16867E+05         0.00000E+00
    0.16867E+05        -0.54623E+08         0.00000E+00
    0.00000E+00         0.00000E+00        -0.16025E+08
 
   -0.16383E+08         0.16526E+05         0.00000E+00
    0.16526E+05        -0.54944E+08         0.00000E+00
    0.00000E+00         0.00000E+00        -0.16156E+08
 
   -0.16555E+08         0.16136E+05         0.00000E+00
    0.16136E+05        -0.55267E+08         0.00000E+00
    0.00000E+00         0.00000E+00        -0.16284E+08
 
   -0.16732E+08         0.15683E+05         0.00000E+00
    0.15683E+05        -0.55592E+08         0.00000E+00
    0.00000E+00         0.00000E+00        -0.16411E+08
 
   -0.16913E+08         0.15149E+05         0.00000E+00
    0.15149E+05        -0.55919E+08         0.00000E+00
    0.00000E+00         0.00000E+00        -0.16534E+08
 
   -0.17100E+08         0.14515E+05         0.00000E+00
    0.14515E+05        -0.56249E+08         0.00000E+00
    0.00000E+00         0.00000E+00        -0.16654E+08
 
   -0.17294E+08         0.13758E+05         0.00000E+00
    0.13758E+05        -0.56580E+08         0.00000E+00
    0.00000E+00         0.00000E+00        -0.16769E+08
 
   -0.17496E+08         0.12850E+05         0.00000E+00
    0.12850E+05        -0.56914E+08         0.00000E+00
    0.00000E+00         0.00000E+00        -0.16879E+08
 
   -0.17706E+08         0.11765E+05         0.00000E+00
    0.11765E+05        -0.57250E+08         0.00000E+00
    0.00000E+00         0.00000E+00        -0.16982E+08
 
   -0.17928E+08         0.10476E+05         0.00000E+00
    0.10476E+05        -0.57589E+08         0.00000E+00
    0.00000E+00         0.00000E+00        -0.17078E+08
 
   -0.18162E+08         0.89623E+04         0.00000E+00
    0.89623E+04        -0.57929E+08         0.00000E+00
    0.00000E+00         0.00000E+00        -0.17164E+08
 
   -0.18410E+08         0.72139E+04         0.00000E+00
    0.72139E+04        -0.58273E+08         0.00000E+00
    0.00000E+00         0.00000E+00        -0.17239E+08
 
   -0.18675E+08         0.52440E+04         0.00000E+00
    0.52440E+04        -0.58618E+08         0.00000E+00
    0.00000E+00         0.00000E+00        -0.17302E+08
 
   -0.18957E+08         0.30787E+04         0.00000E+00
    0.30787E+04        -0.58966E+08         0.00000E+00
    0.00000E+00         0.00000E+00        -0.17351E+08
 
   -0.19259E+08         0.80999E+03         0.00000E+00
    0.80999E+03        -0.59316E+08         0.00000E+00
    0.00000E+00         0.00000E+00        -0.17385E+08
 
   -0.19582E+08        -0.15499E+04         0.00000E+00
   -0.15499E+04        -0.59669E+08         0.00000E+00
    0.00000E+00         0.00000E+00        -0.17404E+08
 
   -0.19925E+08        -0.36924E+04         0.00000E+00
   -0.36924E+04        -0.60022E+08         0.00000E+00
    0.00000E+00         0.00000E+00        -0.17408E+08
 
   -0.20289E+08        -0.61819E+04         0.00000E+00
   -0.61819E+04        -0.60377E+08         0.00000E+00
    0.00000E+00         0.00000E+00        -0.17397E+08
 
   -0.20671E+08        -0.71827E+04         0.00000E+00
   -0.71827E+04        -0.60728E+08         0.00000E+00
    0.00000E+00         0.00000E+00        -0.17370E+08
 
   -0.21075E+08        -0.12513E+05         0.00000E+00
   -0.12513E+05        -0.61092E+08         0.00000E+00
    0.00000E+00         0.00000E+00        -0.17339E+08
 
   -0.21484E+08        -0.47644E+04         0.00000E+00
   -0.47644E+04        -0.61421E+08         0.00000E+00
    0.00000E+00         0.00000E+00        -0.17278E+08
 
   -0.21937E+08        -0.45478E+05         0.00000E+00
   -0.45478E+05        -0.61839E+08         0.00000E+00
    0.00000E+00         0.00000E+00        -0.17261E+08
 
TENSORS stresstot double 
   -0.78343E+08         0.29389E+06         0.00000E+00
    0.29389E+06        -0.97014E+08         0.00000E+00
    0.00000E+00         0.00000E+00        -0.78463E+08
 
   -0.77975E+08         0.77000E+06         0.00000E+00
    0.77000E+06        -0.96773E+08         0.00000E+00
    0.00000E+00         0.00000E+00        -0.78049E+08
 
   -0.77576E+08         0.10969E+07         0.00000E+00
    0.10969E+07        -0.96625E+08         0.00000E+00
    0.00000E+00         0.00000E+00        -0.77635E+08
 
   -0.77173E+08         0.13617E+07         0.00000E+00
    0.13617E+07        -0.96533E+08         0.00000E+00
    0.00000E+00         0.00000E+00        -0.77221E+08
 
   -0.76767E+08         0.15853E+07         0.00000E+00
    0.15853E+07        -0.96494E+08         0.00000E+00
    0.00000E+00         0.00000E+00        -0.76809E+08
 
   -0.76360E+08         0.17800E+07         0.00000E+00
    0.17800E+07        -0.96495E+08         0.00000E+00
    0.00000E+00         0.00000E+00        -0.76397E+08
 
   -0.75953E+08         0.19524E+07         0.00000E+00
    0.19524E+07        -0.96528E+08         0.00000E+00
    0.00000E+00         0.00000E+00        -0.75985E+08
 
   -0.75547E+08         0.21056E+07         0.00000E+00
    0.21056E+07        -0.96585E+08         0.00000E+00
    0.00000E+00         0.00000E+00        -0.75576E+08
 
   -0.75141E+08         0.22415E+07         0.00000E+00
    0.22415E+07        -0.96659E+08         0.00000E+00
    0.00000E+00         0.00000E+00        -0.75167E+08
 
   -0.74738E+08         0.23607E+07         0.00000E+00
    0.23607E+07        -0.96746E+08         0.00000E+00
    0.00000E+00         0.00000E+00        -0.74760E+08
 
   -0.74335E+08         0.24632E+07         0.00000E+00
    0.24632E+07        -0.96844E+08         0.00000E+00
    0.00000E+00         0.00000E+00        -0.74354E+08
 
   -0.73935E+08         0.25485E+07         0.00000E+00
    0.25485E+07        -0.96950E+08         0.00000E+00
    0.00000E+00         0.00000E+00        -0.73951E+08
 
   -0.73537E+08         0.26154E+07         0.00000E+00
    0.26154E+07        -0.97064E+08         0.00000E+00
    0.00000E+00         0.00000E+00        -0.73549E+08
 
   -0.73141E+08         0.26617E+07         0.00000E+00
    0.26617E+07        -0.97189E+08         0.00000E+00
    0.00000E+00         0.00000E+00        -0.73148E+08
 
   -0.72751E+08         0.26785E+07         0.00000E+00
    0.26785E+07        -0.97329E+08         0.00000E+00
    0.00000E+00         0.00000E+00        -0.72751E+08
 
   -0.72394E+08         0.26454E+07         0.00000E+00
    0.26454E+07        -0.97493E+08         0.00000E+00
    0.00000E+00         0.00000E+00        -0.72385E+08
 
   -0.72127E+08         0.25893E+07         0.00000E+00
    0.25893E+07        -0.97572E+08         0.00000E+00
    0.00000E+00         0.00000E+00        -0.72123E+08
 
   -0.71893E+08         0.25531E+07         0.00000E+00
    0.25531E+07        -0.97579E+08         0.00000E+00
    0.00000E+00         0.00000E+00        -0.71896E+08
 
   -0.71656E+08         0.25388E+07         0.00000E+00
    0.25388E+07        -0.97577E+08         0.00000E+00
    0.00000E+00         0.00000E+00        -0.71660E+08
 
   -0.71412E+08         0.25336E+07         0.00000E+00
    0.25336E+07        -0.97574E+08         0.00000E+00
    0.00000E+00         0.00000E+00        -0.71417E+08
 
   -0.71163E+08         0.25332E+07         0.00000E+00
    0.25332E+07        -0.97573E+08         0.00000E+00
    0.00000E+00         0.00000E+00        -0.71168E+08
 
   -0.70908E+08         0.25357E+07         0.00000E+00
    0.25357E+07        -0.97574E+08         0.00000E+00
    0.00000E+00         0.00000E+00        -0.70913E+08
 
   -0.70648E+08         0.25397E+07         0.00000E+00
    0.25397E+07        -0.97577E+08         0.00000E+00
    0.00000E+00         0.00000E+00        -0.70653E+08
 
   -0.70384E+08         0.25441E+07         0.00000E+00
    0.25441E+07        -0.97581E+08         0.00000E+00
    0.00000E+00         0.00000E+00        -0.70389E+08
 
   -0.70117E+08         0.25482E+07         0.00000E+00
    0.25482E+07        -0.97587E+08         0.00000E+00
    0.00000E+00         0.00000E+00        -0.70121E+08
 
   -0.69846E+08         0.25515E+07         0.00000E+00
    0.25515E+07        -0.97594E+08         0.00000E+00
    0.00000E+00         0.00000E+00        -0.69850E+08
 
   -0.69573E+08         0.25535E+07         0.00000E+00
    0.25535E+07        -0.97602E+08         0.00000E+00
    0.00000E+00         0.00000E+00        -0.69576E+08
 
   -0.69297E+08         0.25539E+07         0.00000E+00
    0.25539E+07        -0.97611E+08         0.00000E+00
    0.00000E+00         0.00000E+00        -0.69299E+08
 
   -0.69019E+08         0.25523E+07         0.00000E+00
    0.25523E+07        -0.97621E+08         0.00000E+00
    0.00000E+00         0.00000E+00        -0.69021E+08
 
   -0.68741E+08         0.25485E+07         0.00000E+00
    0.25485E+07        -0.97631E+08         0.00000E+00
    0.00000E+00         0.00000E+00        -0.68742E+08
 
   -0.68460E+08         0.25421E+07         0.00000E+00
    0.25421E+07        -0.97644E+08         0.00000E+00
    0.00000E+00         0.00000E+00        -0.68461E+08
 
   -0.68179E+08         0.25329E+07         0.00000E+00
    0.25329E+07        -0.97658E+08         0.00000E+00
    0.00000E+00         0.00000E+00        -0.68179E+08
 
   -0.67898E+08         0.25206E+07         0.00000E+00
    0.25206E+07        -0.97675E+08         0.00000E+00
    0.00000E+00         0.00000E+00        -0.67897E+08
 
   -0.67616E+08         0.25047E+07         0.00000E+00
    0.25047E+07        -0.97694E+08         0.00000E+00
    0.00000E+00         0.00000E+00        -0.67614E+08
 
   -0.67334E+08         0.24846E+07         0.00000E+00
    0.24846E+07        -0.97717E+08         0.00000E+00
    0.00000E+00         0.00000E+00        -0.67331E+08
 
   -0.67052E+08         0.24593E+07         0.00000E+00
    0.24593E+07        -0.97743E+08         0.00000E+00
    0.00000E+00         0.00000E+00        -0.67048E+08
 
   -0.66773E+08         0.24233E+07         0.00000E+00
    0.24233E+07        -0.97772E+08         0.00000E+00
    0.00000E+00         0.00000E+00        -0.66765E+08
 
   -0.66516E+08         0.23765E+07         0.00000E+00
    0.23765E+07        -0.97776E+08         0.00000E+00
    0.00000E+00         0.00000E+00        -0.66509E+08
 
   -0.66286E+08         0.23345E+07         0.00000E+00
    0.23345E+07        -0.97751E+08         0.00000E+00
    0.00000E+00         0.00000E+00        -0.66282E+08
 
   -0.66058E+08         0.23035E+07         0.00000E+00
    0.23035E+07        -0.97730E+08         0.00000E+00
    0.00000E+00         0.00000E+00        -0.66055E+08
 
   -0.65830E+08         0.22776E+07         0.00000E+00
    0.22776E+07        -0.97712E+08         0.00000E+00
    0.00000E+00         0.00000E+00        -0.65828E+08
 
   -0.65604E+08         0.22554E+07         0.00000E+00
    0.22554E+07        -0.97698E+08         0.00000E+00
    0.00000E+00         0.00000E+00        -0.65602E+08
 
   -0.65378E+08         0.22360E+07         0.00000E+00
    0.22360E+07        -0.97686E+08         0.00000E+00
    0.00000E+00         0.00000E+00        -0.65376E+08
 
   -0.65152E+08         0.22190E+07         0.00000E+00
    0.22190E+07        -0.97676E+08         0.00000E+00
    0.00000E+00         0.00000E+00        -0.65151E+08
 
   -0.64927E+08         0.22039E+07         0.00000E+00
    0.22039E+07        -0.97668E+08         0.00000E+00
    0.00000E+00         0.00000E+00        -0.64926E+08
 
   -0.64703E+08         0.21903E+07         0.00000E+00
    0.21903E+07        -0.97662E+08         0.00000E+00
    0.00000E+00         0.00000E+00        -0.64702E+08
 
   -0.64479E+08         0.21780E+07         0.00000E+00
    0.21780E+07        -0.97657E+08         0.00000E+00
    0.00000E+00         0.00000E+00        -0.64479E+08
 
   -0.64258E+08         0.21666E+07         0.00000E+00
    0.21666E+07        -0.97651E+08         0.00000E+00
    0.00000E+00         0.00000E+00        -0.64258E+08
 
   -0.64057E+08         0.21536E+07         0.00000E+00
    0.21536E+07        -0.97628E+08         0.00000E+00
    0.00000E+00         0.00000E+00        -0.64057E+08
 
   -0.63867E+08         0.21401E+07         0.00000E+00
    0.21401E+07        -0.97595E+08         0.00000E+00
    0.00000E+00         0.00000E+00        -0.63867E+08
 
   -0.63678E+08         0.21273E+07         0.00000E+00
    0.21273E+07        -0.97563E+08         0.00000E+00
    0.00000E+00         0.00000E+00        -0.63678E+08
 
   -0.63490E+08         0.21149E+07         0.00000E+00
    0.21149E+07        -0.97531E+08         0.00000E+00
    0.00000E+00         0.00000E+00        -0.63490E+08
 
   -0.63303E+08         0.21030E+07         0.00000E+00
    0.21030E+07        -0.97500E+08         0.00000E+00
    0.00000E+00         0.00000E+00        -0.63303E+08
 
   -0.63116E+08         0.20915E+07         0.00000E+00
    0.20915E+07        -0.97469E+08         0.00000E+00
    0.00000E+00         0.00000E+00        -0.63116E+08
 
   -0.62930E+08         0.20802E+07         0.00000E+00
    0.20802E+07        -0.97438E+08         0.00000E+00
    0.00000E+00         0.00000E+00        -0.62930E+08
 
   -0.62744E+08         0.20692E+07         0.00000E+00
    0.20692E+07        -0.97408E+08         0.00000E+00
    0.00000E+00         0.00000E+00        -0.62744E+08
 
   -0.62559E+08         0.20584E+07         0.00000E+00
    0.20584E+07        -0.97378E+08         0.00000E+00
    0.00000E+00         0.00000E+00        -0.62559E+08
 
   -0.62374E+08         0.20476E+07         0.00000E+00
    0.20476E+07        -0.97349E+08         0.00000E+00
    0.00000E+00         0.00000E+00        -0.62374E+08
 
   -0.62190E+08         0.20370E+07         0.00000E+00
    0.20370E+07        -0.97321E+08         0.00000E+00
    0.00000E+00         0.00000E+00        -0.62190E+08
 
   -0.62006E+08         0.20264E+07         0.00000E+00
    0.20264E+07        -0.97293E+08         0.00000E+00
    0.00000E+00         0.00000E+00        -0.62006E+08
 
   -0.61822E+08         0.20158E+07         0.00000E+00
    0.20158E+07        -0.97265E+08         0.00000E+00
    0.00000E+00         0.00000E+00        -0.61822E+08
 
   -0.61638E+08         0.20050E+07         0.00000E+00
    0.20050E+07        -0.97239E+08         0.00000E+00
    0.00000E+00         0.00000E+00        -0.61638E+08
 
   -0.61455E+08         0.19942E+07         0.00000E+00
    0.19942E+07        -0.97213E+08         0.00000E+00
    0.00000E+00         0.00000E+00        -0.61455E+08
 
   -0.61272E+08         0.19832E+07         0.00000E+00
    0.19832E+07        -0.97188E+08         0.00000E+00
    0.00000E+00         0.00000E+00        -0.61272E+08
 
   -0.61089E+08         0.19720E+07         0.00000E+00
    0.19720E+07        -0.97164E+08         0.00000E+00
    0.00000E+00         0.00000E+00        -0.61089E+08
 
   -0.60907E+08         0.19605E+07         0.00000E+00
    0.19605E+07        -0.97141E+08         0.00000E+00
    0.00000E+00         0.00000E+00        -0.60907E+08
 
   -0.60725E+08         0.19486E+07         0.00000E+00
    0.19486E+07        -0.97120E+08         0.00000E+00
    0.00000E+00         0.00000E+00        -0.60724E+08
 
   -0.60542E+08         0.19362E+07         0.00000E+00
    0.19362E+07        -0.97099E+08         0.00000E+00
    0.00000E+00         0.00000E+00        -0.60542E+08
 
   -0.60361E+08         0.19233E+07         0.00000E+00
    0.19233E+07        -0.97080E+08         0.00000E+00
    0.00000E+00         0.00000E+00        -0.60360E+08
 
   -0.60179E+08         0.19098E+07         0.00000E+00
    0.19098E+07        -0.97062E+08         0.00000E+00
    0.00000E+00         0.00000E+00        -0.60178E+08
 
   -0.59997E+08         0.18955E+07         0.00000E+00
    0.18955E+07        -0.97046E+08         0.00000E+00
    0.00000E+00         0.00000E+00        -0.59997E+08
 
   -0.59816E+08         0.18804E+07         0.00000E+00
    0.18804E+07        -0.97032E+08         0.00000E+00
    0.00000E+00         0.00000E+00        -0.59815E+08
 
   -0.59636E+08         0.18642E+07         0.00000E+00
    0.18642E+07        -0.97019E+08         0.00000E+00
    0.00000E+00         0.00000E+00        -0.59634E+08
 
   -0.59455E+08         0.18468E+07         0.00000E+00
    0.18468E+07        -0.97009E+08         0.00000E+00
    0.00000E+00         0.00000E+00        -0.59454E+08
 
   -0.59275E+08         0.18280E+07         0.00000E+00
    0.18280E+07        -0.97001E+08         0.00000E+00
    0.00000E+00         0.00000E+00        -0.59273E+08
 
   -0.59096E+08         0.18077E+07         0.00000E+00
    0.18077E+07        -0.96996E+08         0.00000E+00
    0.00000E+00         0.00000E+00        -0.59093E+08
 
   -0.58917E+08         0.17855E+07         0.00000E+00
    0.17855E+07        -0.96993E+08         0.00000E+00
    0.00000E+00         0.00000E+00        -0.58914E+08
 
   -0.58739E+08         0.17613E+07         0.00000E+00
    0.17613E+07        -0.96994E+08         0.00000E+00
    0.00000E+00         0.00000E+00        -0.58736E+08
 
   -0.58561E+08         0.17348E+07         0.00000E+00
    0.17348E+07        -0.96998E+08         0.00000E+00
    0.00000E+00         0.00000E+00        -0.58558E+08
 
   -0.58385E+08         0.17057E+07         0.00000E+00
    0.17057E+07        -0.97006E+08         0.00000E+00
    0.00000E+00         0.00000E+00        -0.58381E+08
 
   -0.58210E+08         0.16738E+07         0.00000E+00
    0.16738E+07        -0.97018E+08         0.00000E+00
    0.00000E+00         0.00000E+00        -0.58205E+08
 
   -0.58036E+08         0.16388E+07         0.00000E+00
    0.16388E+07        -0.97034E+08         0.00000E+00
    0.00000E+00         0.00000E+00        -0.58030E+08
 
   -0.57863E+08         0.16006E+07         0.00000E+00
    0.16006E+07        -0.97055E+08         0.00000E+00
    0.00000E+00         0.00000E+00        -0.57857E+08
 
   -0.57692E+08         0.15590E+07         0.00000E+00
    0.15590E+07        -0.97081E+08         0.00000E+00
    0.00000E+00         0.00000E+00        -0.57685E+08
 
   -0.57522E+08         0.15138E+07         0.00000E+00
    0.15138E+07        -0.97111E+08         0.00000E+00
    0.00000E+00         0.00000E+00        -0.57515E+08
 
   -0.57354E+08         0.14652E+07         0.00000E+00
    0.14652E+07        -0.97146E+08         0.00000E+00
    0.00000E+00         0.00000E+00        -0.57345E+08
 
   -0.57186E+08         0.14133E+07         0.00000E+00
    0.14133E+07        -0.97185E+08         0.00000E+00
    0.00000E+00         0.00000E+00        -0.57177E+08
 
   -0.57020E+08         0.13583E+07         0.00000E+00
    0.13583E+07        -0.97228E+08         0.00000E+00
    0.00000E+00         0.00000E+00        -0.57011E+08
 
   -0.56855E+08         0.13006E+07         0.00000E+00
    0.13006E+07        -0.97273E+08         0.00000E+00
    0.00000E+00         0.00000E+00        -0.56844E+08
 
   -0.56689E+08         0.12409E+07         0.00000E+00
    0.12409E+07        -0.97319E+08         0.00000E+00
    0.00000E+00         0.00000E+00        -0.56678E+08
 
   -0.56522E+08         0.11796E+07         0.00000E+00
    0.11796E+07        -0.97364E+08         0.00000E+00
    0.00000E+00         0.00000E+00        -0.56511E+08
 
   -0.56354E+08         0.11171E+07         0.00000E+00
    0.11171E+07        -0.97406E+08         0.00000E+00
    0.00000E+00         0.00000E+00        -0.56343E+08
 
   -0.56182E+08         0.10534E+07         0.00000E+00
    0.10534E+07        -0.97442E+08         0.00000E+00
    0.00000E+00         0.00000E+00        -0.56171E+08
 
   -0.56007E+08         0.98778E+06         0.00000E+00
    0.98778E+06        -0.97469E+08         0.00000E+00
    0.00000E+00         0.00000E+00        -0.55994E+08
 
   -0.55826E+08         0.91797E+06         0.00000E+00
    0.91797E+06        -0.97485E+08         0.00000E+00
    0.00000E+00         0.00000E+00        -0.55812E+08
 
   -0.55639E+08         0.84004E+06         0.00000E+00
    0.84004E+06        -0.97487E+08         0.00000E+00
    0.00000E+00         0.00000E+00        -0.55623E+08
 
   -0.55445E+08         0.74687E+06         0.00000E+00
    0.74687E+06        -0.97475E+08         0.00000E+00
    0.00000E+00         0.00000E+00        -0.55426E+08
 
   -0.55245E+08         0.62728E+06         0.00000E+00
    0.62728E+06        -0.97444E+08         0.00000E+00
    0.00000E+00         0.00000E+00        -0.55217E+08
 
   -0.55041E+08         0.46343E+06         0.00000E+00
    0.46343E+06        -0.97406E+08         0.00000E+00
    0.00000E+00         0.00000E+00        -0.55004E+08
 
   -0.54831E+08         0.18395E+06         0.00000E+00
    0.18395E+06        -0.97321E+08         0.00000E+00
    0.00000E+00         0.00000E+00        -0.54754E+08
 
   -0.78116E+08         0.25345E+06         0.00000E+00
    0.25345E+06        -0.97120E+08         0.00000E+00
    0.00000E+00         0.00000E+00        -0.78463E+08
 
   -0.77826E+08         0.69204E+06         0.00000E+00
    0.69204E+06        -0.96849E+08         0.00000E+00
    0.00000E+00         0.00000E+00        -0.78049E+08
 
   -0.77459E+08         0.10197E+07         0.00000E+00
    0.10197E+07        -0.96681E+08         0.00000E+00
    0.00000E+00         0.00000E+00        -0.77635E+08
 
   -0.77075E+08         0.12820E+07         0.00000E+00
    0.12820E+07        -0.96582E+08         0.00000E+00
    0.00000E+00         0.00000E+00        -0.77221E+08
 
   -0.76682E+08         0.15050E+07         0.00000E+00
    0.15050E+07        -0.96536E+08         0.00000E+00
    0.00000E+00         0.00000E+00        -0.76809E+08
 
   -0.76286E+08         0.16995E+07         0.00000E+00
    0.16995E+07        -0.96532E+08         0.00000E+00
    0.00000E+00         0.00000E+00        -0.76397E+08
 
   -0.75887E+08         0.18717E+07         0.00000E+00
    0.18717E+07        -0.96560E+08         0.00000E+00
    0.00000E+00         0.00000E+00        -0.75985E+08
 
   -0.75488E+08         0.20251E+07         0.00000E+00
    0.20251E+07        -0.96613E+08         0.00000E+00
    0.00000E+00         0.00000E+00        -0.75576E+08
 
   -0.75090E+08         0.21613E+07         0.00000E+00
    0.21613E+07        -0.96684E+08         0.00000E+00
    0.00000E+00         0.00000E+00        -0.75167E+08
 
   -0.74693E+08         0.22808E+07         0.00000E+00
    0.22808E+07        -0.96769E+08         0.00000E+00
    0.00000E+00         0.00000E+00        -0.74760E+08
 
   -0.74297E+08         0.23836E+07         0.00000E+00
    0.23836E+07        -0.96863E+08         0.00000E+00
    0.00000E+00         0.00000E+00        -0.74354E+08
 
   -0.73904E+08         0.24694E+07         0.00000E+00
    0.24694E+07        -0.96965E+08         0.00000E+00
    0.00000E+00         0.00000E+00        -0.73951E+08
 
   -0.73514E+08         0.25369E+07         0.00000E+00
    0.25369E+07        -0.97076E+08         0.00000E+00
    0.00000E+00         0.00000E+00        -0.73549E+08
 
   -0.73127E+08         0.25836E+07         0.00000E+00
    0.25836E+07        -0.97196E+08         0.00000E+00
    0.00000E+00         0.00000E+00        -0.73148E+08
 
   -0.72749E+08         0.26046E+07         0.00000E+00
    0.26046E+07        -0.97330E+08         0.00000E+00
    0.00000E+00         0.00000E+00        -0.72751E+08
 
   -0.72400E+08         0.25804E+07         0.00000E+00
    0.25804E+07        -0.97483E+08         0.00000E+00
    0.00000E+00         0.00000E+00        -0.72378E+08
 
   -0.72118E+08         0.25403E+07         0.00000E+00
    0.25403E+07        -0.97561E+08         0.00000E+00
    0.00000E+00         0.00000E+00        -0.72107E+08
 
   -0.71871E+08         0.25057E+07         0.00000E+00
    0.25057E+07        -0.97574E+08         0.00000E+00
    0.00000E+00         0.00000E+00        -0.71878E+08
 
   -0.71630E+08         0.24905E+07         0.00000E+00
    0.24905E+07        -0.97575E+08         0.00000E+00
    0.00000E+00         0.00000E+00        -0.71642E+08
 
   -0.71384E+08         0.24841E+07         0.00000E+00
    0.24841E+07        -0.97573E+08         0.00000E+00
    0.00000E+00         0.00000E+00        -0.71398E+08
 
   -0.71134E+08         0.24827E+07         0.00000E+00
    0.24827E+07        -0.97573E+08         0.00000E+00
    0.00000E+00         0.00000E+00        -0.71149E+08
 
   -0.70879E+08         0.24843E+07         0.00000E+00
    0.24843E+07        -0.97574E+08         0.00000E+00
    0.00000E+00         0.00000E+00        -0.70894E+08
 
   -0.70620E+08         0.24874E+07         0.00000E+00
    0.24874E+07        -0.97578E+08         0.00000E+00
    0.00000E+00         0.00000E+00        -0.70634E+08
 
   -0.70357E+08         0.24910E+07         0.00000E+00
    0.24910E+07        -0.97582E+08         0.00000E+00
    0.00000E+00         0.00000E+00        -0.70369E+08
 
   -0.70090E+08         0.24945E+07         0.00000E+00
    0.24945E+07        -0.97588E+08         0.00000E+00
    0.00000E+00         0.00000E+00        -0.70101E+08
 
   -0.69820E+08         0.24972E+07         0.00000E+00
    0.24972E+07        -0.97595E+08         0.00000E+00
    0.00000E+00         0.00000E+00        -0.69830E+08
 
   -0.69548E+08         0.24987E+07         0.00000E+00
    0.24987E+07        -0.97602E+08         0.00000E+00
    0.00000E+00         0.00000E+00        -0.69557E+08
 
   -0.69274E+08         0.24987E+07         0.00000E+00
    0.24987E+07        -0.97611E+08         0.00000E+00
    0.00000E+00         0.00000E+00        -0.69281E+08
 
   -0.68998E+08         0.24968E+07         0.00000E+00
    0.24968E+07        -0.97620E+08         0.00000E+00
    0.00000E+00         0.00000E+00        -0.69003E+08
 
   -0.68721E+08         0.24927E+07         0.00000E+00
    0.24927E+07        -0.97630E+08         0.00000E+00
    0.00000E+00         0.00000E+00        -0.68724E+08
 
   -0.68443E+08         0.24862E+07         0.00000E+00
    0.24862E+07        -0.97642E+08         0.00000E+00
    0.00000E+00         0.00000E+00        -0.68444E+08
 
   -0.68164E+08         0.24769E+07         0.00000E+00
    0.24769E+07        -0.97656E+08         0.00000E+00
    0.00000E+00         0.00000E+00        -0.68163E+08
 
   -0.67885E+08         0.24645E+07         0.00000E+00
    0.24645E+07        -0.97672E+08         0.00000E+00
    0.00000E+00         0.00000E+00        -0.67881E+08
 
   -0.67605E+08         0.24486E+07         0.00000E+00
    0.24486E+07        -0.97691E+08         0.00000E+00
    0.00000E+00         0.00000E+00        -0.67599E+08
 
   -0.67326E+08         0.24286E+07         0.00000E+00
    0.24286E+07        -0.97713E+08         0.00000E+00
    0.00000E+00         0.00000E+00        -0.67317E+08
 
   -0.67048E+08         0.24032E+07         0.00000E+00
    0.24032E+07        -0.97737E+08         0.00000E+00
    0.00000E+00         0.00000E+00        -0.67034E+08
 
   -0.66774E+08         0.23695E+07         0.00000E+00
    0.23695E+07        -0.97764E+08         0.00000E+00
    0.00000E+00         0.00000E+00        -0.66752E+08
 
   -0.66519E+08         0.23281E+07         0.00000E+00
    0.23281E+07        -0.97766E+08         0.00000E+00
    0.00000E+00         0.00000E+00        -0.66498E+08
 
   -0.66283E+08         0.22888E+07         0.00000E+00
    0.22888E+07        -0.97744E+08         0.00000E+00
    0.00000E+00         0.00000E+00        -0.66271E+08
 
   -0.66053E+08         0.22578E+07         0.00000E+00
    0.22578E+07        -0.97724E+08         0.00000E+00
    0.00000E+00         0.00000E+00        -0.66044E+08
 
   -0.65825E+08         0.22321E+07         0.00000E+00
    0.22321E+07        -0.97707E+08         0.00000E+00
    0.00000E+00         0.00000E+00        -0.65818E+08
 
   -0.65598E+08         0.22100E+07         0.00000E+00
    0.22100E+07        -0.97694E+08         0.00000E+00
    0.00000E+00         0.00000E+00        -0.65592E+08
 
   -0.65371E+08         0.21908E+07         0.00000E+00
    0.21908E+07        -0.97682E+08         0.00000E+00
    0.00000E+00         0.00000E+00        -0.65367E+08
 
   -0.65145E+08         0.21740E+07         0.00000E+00
    0.21740E+07        -0.97673E+08         0.00000E+00
    0.00000E+00         0.00000E+00        -0.65142E+08
 
   -0.64920E+08         0.21590E+07         0.00000E+00
    0.21590E+07        -0.97665E+08         0.00000E+00
    0.00000E+00         0.00000E+00        -0.64918E+08
 
   -0.64696E+08         0.21455E+07         0.00000E+00
    0.21455E+07        -0.97659E+08         0.00000E+00
    0.00000E+00         0.00000E+00        -0.64694E+08
 
   -0.64472E+08         0.21334E+07         0.00000E+00
    0.21334E+07        -0.97654E+08         0.00000E+00
    0.00000E+00         0.00000E+00        -0.64471E+08
 
   -0.64252E+08         0.21221E+07         0.00000E+00
    0.21221E+07        -0.97648E+08         0.00000E+00
    0.00000E+00         0.00000E+00        -0.64251E+08
 
   -0.64051E+08         0.21093E+07         0.00000E+00
    0.21093E+07        -0.97625E+08         0.00000E+00
    0.00000E+00         0.00000E+00        -0.64050E+08
 
   -0.63861E+08         0.20960E+07         0.00000E+00
    0.20960E+07        -0.97593E+08         0.00000E+00
    0.00000E+00         0.00000E+00        -0.63861E+08
 
   -0.63672E+08         0.20834E+07         0.00000E+00
    0.20834E+07        -0.97561E+08         0.00000E+00
    0.00000E+00         0.00000E+00        -0.63673E+08
 
   -0.63484E+08         0.20713E+07         0.00000E+00
    0.20713E+07        -0.97530E+08         0.00000E+00
    0.00000E+00         0.00000E+00        -0.63485E+08
 
   -0.63297E+08         0.20596E+07         0.00000E+00
    0.20596E+07        -0.97499E+08         0.00000E+00
    0.00000E+00         0.00000E+00        -0.63298E+08
 
   -0.63110E+08         0.20483E+07         0.00000E+00
    0.20483E+07        -0.97468E+08         0.00000E+00
    0.00000E+00         0.00000E+00        -0.63111E+08
 
   -0.62924E+08         0.20373E+07         0.00000E+00
    0.20373E+07        -0.97437E+08         0.00000E+00
    0.00000E+00         0.00000E+00        -0.62925E+08
 
   -0.62739E+08         0.20265E+07         0.00000E+00
    0.20265E+07        -0.97407E+08         0.00000E+00
    0.00000E+00         0.00000E+00        -0.62739E+08
 
   -0.62554E+08         0.20159E+07         0.00000E+00
    0.20159E+07        -0.97378E+08         0.00000E+00
    0.00000E+00         0.00000E+00        -0.62554E+08
 
   -0.62369E+08         0.20054E+07         0.00000E+00
    0.20054E+07        -0.97349E+08         0.00000E+00
    0.00000E+00         0.00000E+00        -0.62370E+08
 
   -0.62185E+08         0.19950E+07         0.00000E+00
    0.19950E+07        -0.97320E+08         0.00000E+00
    0.00000E+00         0.00000E+00        -0.62185E+08
 
   -0.62001E+08         0.19846E+07         0.00000E+00
    0.19846E+07        -0.97293E+08         0.00000E+00
    0.00000E+00         0.00000E+00        -0.62001E+08
 
   -0.61817E+08         0.19742E+07         0.00000E+00
    0.19742E+07        -0.97265E+08         0.00000E+00
    0.00000E+00         0.00000E+00        -0.61818E+08
 
   -0.61634E+08         0.19637E+07         0.00000E+00
    0.19637E+07        -0.97239E+08         0.00000E+00
    0.00000E+00         0.00000E+00        -0.61634E+08
 
   -0.61451E+08         0.19531E+07         0.00000E+00
    0.19531E+07        -0.97213E+08         0.00000E+00
    0.00000E+00         0.00000E+00        -0.61451E+08
 
   -0.61268E+08         0.19424E+07         0.00000E+00
    0.19424E+07        -0.97189E+08         0.00000E+00
    0.00000E+00         0.00000E+00        -0.61268E+08
 
   -0.61085E+08         0.19314E+07         0.00000E+00
    0.19314E+07        -0.97165E+08         0.00000E+00
    0.00000E+00         0.00000E+00        -0.61085E+08
 
   -0.60903E+08         0.19201E+07         0.00000E+00
    0.19201E+07        -0.97142E+08         0.00000E+00
    0.00000E+00         0.00000E+00        -0.60903E+08
 
   -0.60721E+08         0.19085E+07         0.00000E+00
    0.19085E+07        -0.97120E+08         0.00000E+00
    0.00000E+00         0.00000E+00        -0.60720E+08
 
   -0.60539E+08         0.18964E+07         0.00000E+00
    0.18964E+07        -0.97099E+08         0.00000E+00
    0.00000E+00         0.00000E+00        -0.60538E+08
 
   -0.60357E+08         0.18838E+07         0.00000E+00
    0.18838E+07        -0.97080E+08         0.00000E+00
    0.00000E+00         0.00000E+00        -0.60356E+08
 
   -0.60176E+08         0.18705E+07         0.00000E+00
    0.18705E+07        -0.97062E+08         0.00000E+00
    0.00000E+00         0.00000E+00        -0.60174E+08
 
   -0.59995E+08         0.18566E+07         0.00000E+00
    0.18566E+07        -0.97046E+08         0.00000E+00
    0.00000E+00         0.00000E+00        -0.59992E+08
 
   -0.59814E+08         0.18417E+07         0.00000E+00
    0.18417E+07        -0.97032E+08         0.00000E+00
    0.00000E+00         0.00000E+00        -0.59810E+08
 
   -0.59633E+08         0.18259E+07         0.00000E+00
    0.18259E+07        -0.97019E+08         0.00000E+00
    0.00000E+00         0.00000E+00        -0.59629E+08
 
   -0.59453E+08         0.18088E+07         0.00000E+00
    0.18088E+07        -0.97008E+08         0.00000E+00
    0.00000E+00         0.00000E+00        -0.59448E+08
 
   -0.59273E+08         0.17904E+07         0.00000E+00
    0.17904E+07        -0.97000E+08         0.00000E+00
    0.00000E+00         0.00000E+00        -0.59267E+08
 
   -0.59094E+08         0.17705E+07         0.00000E+00
    0.17705E+07        -0.96994E+08         0.00000E+00
    0.00000E+00         0.00000E+00        -0.59087E+08
 
   -0.58915E+08         0.17487E+07         0.00000E+00
    0.17487E+07        -0.96991E+08         0.00000E+00
    0.00000E+00         0.00000E+00        -0.58907E+08
 
   -0.58737E+08         0.17250E+07         0.00000E+00
    0.17250E+07        -0.96991E+08         0.00000E+00
    0.00000E+00         0.00000E+00        -0.58728E+08
 
   -0.58560E+08         0.16989E+07         0.00000E+00
    0.16989E+07        -0.96995E+08         0.00000E+00
    0.00000E+00         0.00000E+00        -0.58550E+08
 
   -0.58384E+08         0.16704E+07         0.00000E+00
    0.16704E+07        -0.97002E+08         0.00000E+00
    0.00000E+00         0.00000E+00        -0.58372E+08
 
   -0.58209E+08         0.16390E+07         0.00000E+00
    0.16390E+07        -0.97013E+08         0.00000E+00
    0.00000E+00         0.00000E+00        -0.58196E+08
 
   -0.58036E+08         0.16046E+07         0.00000E+00
    0.16046E+07        -0.97029E+08         0.00000E+00
    0.00000E+00         0.00000E+00        -0.58020E+08
 
   -0.57864E+08         0.15670E+07         0.00000E+00
    0.15670E+07        -0.97049E+08         0.00000E+00
    0.00000E+00         0.00000E+00        -0.57846E+08
 
   -0.57693E+08         0.15260E+07         0.00000E+00
    0.15260E+07        -0.97073E+08         0.00000E+00
    0.00000E+00         0.00000E+00        -0.57673E+08
 
   -0.57523E+08         0.14814E+07         0.00000E+00
    0.14814E+07        -0.97103E+08         0.00000E+00
    0.00000E+00         0.00000E+00        -0.57501E+08
 
   -0.57355E+08         0.14334E+07         0.00000E+00
    0.14334E+07        -0.97137E+08         0.00000E+00
    0.00000E+00         0.00000E+00        -0.57331E+08
 
   -0.57188E+08         0.13820E+07         0.00000E+00
    0.13820E+07        -0.97175E+08         0.00000E+00
    0.00000E+00         0.00000E+00        -0.57162E+08
 
   -0.57023E+08         0.13274E+07         0.00000E+00
    0.13274E+07        -0.97217E+08         0.00000E+00
    0.00000E+00         0.00000E+00        -0.56994E+08
 
   -0.56857E+08         0.12701E+07         0.00000E+00
    0.12701E+07        -0.97261E+08         0.00000E+00
    0.00000E+00         0.00000E+00        -0.56827E+08
 
   -0.56692E+08         0.12104E+07         0.00000E+00
    0.12104E+07        -0.97307E+08         0.00000E+00
    0.00000E+00         0.00000E+00        -0.56660E+08
 
   -0.56525E+08         0.11490E+07         0.00000E+00
    0.11490E+07        -0.97351E+08         0.00000E+00
    0.00000E+00         0.00000E+00        -0.56493E+08
 
   -0.56357E+08         0.10862E+07         0.00000E+00
    0.10862E+07        -0.97392E+08         0.00000E+00
    0.00000E+00         0.00000E+00        -0.56323E+08
 
   -0.56186E+08         0.10218E+07         0.00000E+00
    0.10218E+07        -0.97428E+08         0.00000E+00
    0.00000E+00         0.00000E+00        -0.56151E+08
 
   -0.56011E+08         0.95521E+06         0.00000E+00
    0.95521E+06        -0.97454E+08         0.00000E+00
    0.00000E+00         0.00000E+00        -0.55973E+08
 
   -0.55830E+08         0.88406E+06         0.00000E+00
    0.88406E+06        -0.97468E+08         0.00000E+00
    0.00000E+00         0.00000E+00        -0.55789E+08
 
   -0.55645E+08         0.80472E+06         0.00000E+00
    0.80472E+06        -0.97468E+08         0.00000E+00
    0.00000E+00         0.00000E+00        -0.55596E+08
 
   -0.55453E+08         0.70932E+06         0.00000E+00
    0.70932E+06        -0.97450E+08         0.00000E+00
    0.00000E+00         0.00000E+00        -0.55393E+08
 
   -0.55257E+08         0.58969E+06         0.00000E+00
    0.58969E+06        -0.97415E+08         0.00000E+00
    0.00000E+00         0.00000E+00        -0.55176E+08
 
   -0.55056E+08         0.41869E+06         0.00000E+00
    0.41869E+06        -0.97357E+08         0.00000E+00
    0.00000E+00         0.00000E+00        -0.54942E+08
 
   -0.54873E+08         0.15736E+06         0.00000E+00
    0.15736E+06        -0.97249E+08         0.00000E+00
    0.00000E+00         0.00000E+00        -0.54645E+08
 
   -0.77911E+08         0.22286E+06         0.00000E+00
    0.22286E+06        -0.97214E+08         0.00000E+00
    0.00000E+00         0.00000E+00        -0.78463E+08
 
   -0.77675E+08         0.62557E+06         0.00000E+00
    0.62557E+06        -0.96923E+08         0.00000E+00
    0.00000E+00         0.00000E+00        -0.78049E+08
 
   -0.77340E+08         0.94630E+06         0.00000E+00
    0.94630E+06        -0.96738E+08         0.00000E+00
    0.00000E+00         0.00000E+00        -0.77635E+08
 
   -0.76976E+08         0.12057E+07         0.00000E+00
    0.12057E+07        -0.96630E+08         0.00000E+00
    0.00000E+00         0.00000E+00        -0.77221E+08
 
   -0.76597E+08         0.14270E+07         0.00000E+00
    0.14270E+07        -0.96577E+08         0.00000E+00
    0.00000E+00         0.00000E+00        -0.76809E+08
 
   -0.76210E+08         0.16207E+07         0.00000E+00
    0.16207E+07        -0.96568E+08         0.00000E+00
    0.00000E+00         0.00000E+00        -0.76397E+08
 
   -0.75820E+08         0.17927E+07         0.00000E+00
    0.17927E+07        -0.96593E+08         0.00000E+00
    0.00000E+00         0.00000E+00        -0.75985E+08
 
   -0.75429E+08         0.19461E+07         0.00000E+00
    0.19461E+07        -0.96642E+08         0.00000E+00
    0.00000E+00         0.00000E+00        -0.75576E+08
 
   -0.75038E+08         0.20824E+07         0.00000E+00
    0.20824E+07        -0.96710E+08         0.00000E+00
    0.00000E+00         0.00000E+00        -0.75167E+08
 
   -0.74648E+08         0.22022E+07         0.00000E+00
    0.22022E+07        -0.96791E+08         0.00000E+00
    0.00000E+00         0.00000E+00        -0.74760E+08
 
   -0.74259E+08         0.23054E+07         0.00000E+00
    0.23054E+07        -0.96882E+08         0.00000E+00
    0.00000E+00         0.00000E+00        -0.74354E+08
 
   -0.73873E+08         0.23917E+07         0.00000E+00
    0.23917E+07        -0.96981E+08         0.00000E+00
    0.00000E+00         0.00000E+00        -0.73951E+08
 
   -0.73490E+08         0.24598E+07         0.00000E+00
    0.24598E+07        -0.97088E+08         0.00000E+00
    0.00000E+00         0.00000E+00        -0.73549E+08
 
   -0.73111E+08         0.25077E+07         0.00000E+00
    0.25077E+07        -0.97203E+08         0.00000E+00
    0.00000E+00         0.00000E+00        -0.73148E+08
 
   -0.72743E+08         0.25325E+07         0.00000E+00
    0.25325E+07        -0.97332E+08         0.00000E+00
    0.00000E+00         0.00000E+00        -0.72751E+08
 
   -0.72400E+08         0.25158E+07         0.00000E+00
    0.25158E+07        -0.97477E+08         0.00000E+00
    0.00000E+00         0.00000E+00        -0.72370E+08
 
   -0.72109E+08         0.24875E+07         0.00000E+00
    0.24875E+07        -0.97553E+08         0.00000E+00
    0.00000E+00         0.00000E+00        -0.72092E+08
 
   -0.71852E+08         0.24570E+07         0.00000E+00
    0.24570E+07        -0.97570E+08         0.00000E+00
    0.00000E+00         0.00000E+00        -0.71862E+08
 
   -0.71605E+08         0.24416E+07         0.00000E+00
    0.24416E+07        -0.97573E+08         0.00000E+00
    0.00000E+00         0.00000E+00        -0.71624E+08
 
   -0.71358E+08         0.24344E+07         0.00000E+00
    0.24344E+07        -0.97573E+08         0.00000E+00
    0.00000E+00         0.00000E+00        -0.71380E+08
 
   -0.71106E+08         0.24322E+07         0.00000E+00
    0.24322E+07        -0.97573E+08         0.00000E+00
    0.00000E+00         0.00000E+00        -0.71130E+08
 
   -0.70851E+08         0.24329E+07         0.00000E+00
    0.24329E+07        -0.97575E+08         0.00000E+00
    0.00000E+00         0.00000E+00        -0.70875E+08
 
   -0.70592E+08         0.24352E+07         0.00000E+00
    0.24352E+07        -0.97578E+08         0.00000E+00
    0.00000E+00         0.00000E+00        -0.70614E+08
 
   -0.70330E+08         0.24381E+07         0.00000E+00
    0.24381E+07        -0.97583E+08         0.00000E+00
    0.00000E+00         0.00000E+00        -0.70350E+08
 
   -0.70064E+08         0.24410E+07         0.00000E+00
    0.24410E+07        -0.97589E+08         0.00000E+00
    0.00000E+00         0.00000E+00        -0.70082E+08
 
   -0.69796E+08         0.24432E+07         0.00000E+00
    0.24432E+07        -0.97595E+08         0.00000E+00
    0.00000E+00         0.00000E+00        -0.69812E+08
 
   -0.69525E+08         0.24443E+07         0.00000E+00
    0.24443E+07        -0.97602E+08         0.00000E+00
    0.00000E+00         0.00000E+00        -0.69538E+08
 
   -0.69252E+08         0.24439E+07         0.00000E+00
    0.24439E+07        -0.97610E+08         0.00000E+00
    0.00000E+00         0.00000E+00        -0.69263E+08
 
   -0.68978E+08         0.24417E+07         0.00000E+00
    0.24417E+07        -0.97619E+08         0.00000E+00
    0.00000E+00         0.00000E+00        -0.68985E+08
 
   -0.68702E+08         0.24374E+07         0.00000E+00
    0.24374E+07        -0.97629E+08         0.00000E+00
    0.00000E+00         0.00000E+00        -0.68707E+08
 
   -0.68426E+08         0.24307E+07         0.00000E+00
    0.24307E+07        -0.97641E+08         0.00000E+00
    0.00000E+00         0.00000E+00        -0.68427E+08
 
   -0.68149E+08         0.24213E+07         0.00000E+00
    0.24213E+07        -0.97654E+08         0.00000E+00
    0.00000E+00         0.00000E+00        -0.68147E+08
 
   -0.67872E+08         0.24088E+07         0.00000E+00
    0.24088E+07        -0.97669E+08         0.00000E+00
    0.00000E+00         0.00000E+00        -0.67866E+08
 
   -0.67595E+08         0.23929E+07         0.00000E+00
    0.23929E+07        -0.97687E+08         0.00000E+00
    0.00000E+00         0.00000E+00        -0.67584E+08
 
   -0.67318E+08         0.23731E+07         0.00000E+00
    0.23731E+07        -0.97708E+08         0.00000E+00
    0.00000E+00         0.00000E+00        -0.67303E+08
 
   -0.67043E+08         0.23481E+07         0.00000E+00
    0.23481E+07        -0.97732E+08         0.00000E+00
    0.00000E+00         0.00000E+00        -0.67021E+08
 
   -0.66774E+08         0.23167E+07         0.00000E+00
    0.23167E+07        -0.97757E+08         0.00000E+00
    0.00000E+00         0.00000E+00        -0.66740E+08
 
   -0.66520E+08         0.22791E+07         0.00000E+00
    0.22791E+07        -0.97758E+08         0.00000E+00
    0.00000E+00         0.00000E+00        -0.66486E+08
 
   -0.66281E+08         0.22423E+07         0.00000E+00
    0.22423E+07        -0.97737E+08         0.00000E+00
    0.00000E+00         0.00000E+00        -0.66260E+08
 
   -0.66049E+08         0.22119E+07         0.00000E+00
    0.22119E+07        -0.97719E+08         0.00000E+00
    0.00000E+00         0.00000E+00        -0.66034E+08
 
   -0.65820E+08         0.21865E+07         0.00000E+00
    0.21865E+07        -0.97703E+08         0.00000E+00
    0.00000E+00         0.00000E+00        -0.65808E+08
 
   -0.65592E+08         0.21646E+07         0.00000E+00
    0.21646E+07        -0.97689E+08         0.00000E+00
    0.00000E+00         0.00000E+00        -0.65583E+08
 
   -0.65365E+08         0.21456E+07         0.00000E+00
    0.21456E+07        -0.97679E+08         0.00000E+00
    0.00000E+00         0.00000E+00        -0.65358E+08
 
   -0.65139E+08         0.21289E+07         0.00000E+00
    0.21289E+07        -0.97670E+08         0.00000E+00
    0.00000E+00         0.00000E+00        -0.65134E+08
 
   -0.64914E+08         0.21140E+07         0.00000E+00
    0.21140E+07        -0.97663E+08         0.00000E+00
    0.00000E+00         0.00000E+00        -0.64910E+08
 
   -0.64689E+08         0.21007E+07         0.00000E+00
    0.21007E+07        -0.97657E+08         0.00000E+00
    0.00000E+00         0.00000E+00        -0.64687E+08
 
   -0.64466E+08         0.20887E+07         0.00000E+00
    0.20887E+07        -0.97652E+08         0.00000E+00
    0.00000E+00         0.00000E+00        -0.64464E+08
 
   -0.64245E+08         0.20776E+07         0.00000E+00
    0.20776E+07        -0.97646E+08         0.00000E+00
    0.00000E+00         0.00000E+00        -0.64244E+08
 
   -0.64045E+08         0.20650E+07         0.00000E+00
    0.20650E+07        -0.97623E+08         0.00000E+00
    0.00000E+00         0.00000E+00        -0.64044E+08
 
   -0.63855E+08         0.20519E+07         0.00000E+00
    0.20519E+07        -0.97591E+08         0.00000E+00
    0.00000E+00         0.00000E+00        -0.63855E+08
 
   -0.63666E+08         0.20395E+07         0.00000E+00
    0.20395E+07        -0.97560E+08         0.00000E+00
    0.00000E+00         0.00000E+00        -0.63667E+08
 
   -0.63479E+08         0.20276E+07         0.00000E+00
    0.20276E+07        -0.97528E+08         0.00000E+00
    0.00000E+00         0.00000E+00        -0.63479E+08
 
   -0.63291E+08         0.20162E+07         0.00000E+00
    0.20162E+07        -0.97497E+08         0.00000E+00
    0.00000E+00         0.00000E+00        -0.63292E+08
 
   -0.63105E+08         0.20051E+07         0.00000E+00
    0.20051E+07        -0.97467E+08         0.00000E+00
    0.00000E+00         0.00000E+00        -0.63106E+08
 
   -0.62919E+08         0.19943E+07         0.00000E+00
    0.19943E+07        -0.97437E+08         0.00000E+00
    0.00000E+00         0.00000E+00        -0.62920E+08
 
   -0.62734E+08         0.19838E+07         0.00000E+00
    0.19838E+07        -0.97407E+08         0.00000E+00
    0.00000E+00         0.00000E+00        -0.62735E+08
 
   -0.62549E+08         0.19734E+07         0.00000E+00
    0.19734E+07        -0.97377E+08         0.00000E+00
    0.00000E+00         0.00000E+00        -0.62550E+08
 
   -0.62364E+08         0.19631E+07         0.00000E+00
    0.19631E+07        -0.97349E+08         0.00000E+00
    0.00000E+00         0.00000E+00        -0.62365E+08
 
   -0.62180E+08         0.19530E+07         0.00000E+00
    0.19530E+07        -0.97320E+08         0.00000E+00
    0.00000E+00         0.00000E+00        -0.62181E+08
 
   -0.61996E+08         0.19428E+07         0.00000E+00
    0.19428E+07        -0.97293E+08         0.00000E+00
    0.00000E+00         0.00000E+00        -0.61997E+08
 
   -0.61813E+08         0.19326E+07         0.00000E+00
    0.19326E+07        -0.97266E+08         0.00000E+00
    0.00000E+00         0.00000E+00        -0.61813E+08
 
   -0.61630E+08         0.19224E+07         0.00000E+00
    0.19224E+07        -0.97239E+08         0.00000E+00
    0.00000E+00         0.00000E+00        -0.61630E+08
 
   -0.61447E+08         0.19121E+07         0.00000E+00
    0.19121E+07        -0.97214E+08         0.00000E+00
    0.00000E+00         0.00000E+00        -0.61447E+08
 
   -0.61264E+08         0.19015E+07         0.00000E+00
    0.19015E+07        -0.97189E+08         0.00000E+00
    0.00000E+00         0.00000E+00        -0.61264E+08
 
   -0.61082E+08         0.18908E+07         0.00000E+00
    0.18908E+07        -0.97165E+08         0.00000E+00
    0.00000E+00         0.00000E+00        -0.61081E+08
 
   -0.60899E+08         0.18798E+07         0.00000E+00
    0.18798E+07        -0.97142E+08         0.00000E+00
    0.00000E+00         0.00000E+00        -0.60898E+08
 
   -0.60717E+08         0.18684E+07         0.00000E+00
    0.18684E+07        -0.97120E+08         0.00000E+00
    0.00000E+00         0.00000E+00        -0.60716E+08
 
   -0.60536E+08         0.18566E+07         0.00000E+00
    0.18566E+07        -0.97100E+08         0.00000E+00
    0.00000E+00         0.00000E+00        -0.60534E+08
 
   -0.60354E+08         0.18442E+07         0.00000E+00
    0.18442E+07        -0.97081E+08         0.00000E+00
    0.00000E+00         0.00000E+00        -0.60351E+08
 
   -0.60173E+08         0.18313E+07         0.00000E+00
    0.18313E+07        -0.97063E+08         0.00000E+00
    0.00000E+00         0.00000E+00        -0.60169E+08
 
   -0.59992E+08         0.18176E+07         0.00000E+00
    0.18176E+07        -0.97046E+08         0.00000E+00
    0.00000E+00         0.00000E+00        -0.59987E+08
 
   -0.59811E+08         0.18031E+07         0.00000E+00
    0.18031E+07        -0.97031E+08         0.00000E+00
    0.00000E+00         0.00000E+00        -0.59806E+08
 
   -0.59630E+08         0.17876E+07         0.00000E+00
    0.17876E+07        -0.97018E+08         0.00000E+00
    0.00000E+00         0.00000E+00        -0.59624E+08
 
   -0.59450E+08         0.17709E+07         0.00000E+00
    0.17709E+07        -0.97008E+08         0.00000E+00
    0.00000E+00         0.00000E+00        -0.59443E+08
 
   -0.59271E+08         0.17528E+07         0.00000E+00
    0.17528E+07        -0.96999E+08         0.00000E+00
    0.00000E+00         0.00000E+00        -0.59262E+08
 
   -0.59092E+08         0.17333E+07         0.00000E+00
    0.17333E+07        -0.96993E+08         0.00000E+00
    0.00000E+00         0.00000E+00        -0.59081E+08
 
   -0.58914E+08         0.17120E+07         0.00000E+00
    0.17120E+07        -0.96989E+08         0.00000E+00
    0.00000E+00         0.00000E+00        -0.58901E+08
 
   -0.58736E+08         0.16887E+07         0.00000E+00
    0.16887E+07        -0.96989E+08         0.00000E+00
    0.00000E+00         0.00000E+00        -0.58721E+08
 
   -0.58559E+08         0.16631E+07         0.00000E+00
    0.16631E+07        -0.96992E+08         0.00000E+00
    0.00000E+00         0.00000E+00        -0.58542E+08
 
   -0.58384E+08         0.16351E+07         0.00000E+00
    0.16351E+07        -0.96998E+08         0.00000E+00
    0.00000E+00         0.00000E+00        -0.58364E+08
 
   -0.58209E+08         0.16043E+07         0.00000E+00
    0.16043E+07        -0.97009E+08         0.00000E+00
    0.00000E+00         0.00000E+00        -0.58186E+08
 
   -0.58036E+08         0.15705E+07         0.00000E+00
    0.15705E+07        -0.97023E+08         0.00000E+00
    0.00000E+00         0.00000E+00        -0.58010E+08
 
   -0.57864E+08         0.15335E+07         0.00000E+00
    0.15335E+07        -0.97043E+08         0.00000E+00
    0.00000E+00         0.00000E+00        -0.57834E+08
 
   -0.57694E+08         0.14930E+07         0.00000E+00
    0.14930E+07        -0.97066E+08         0.00000E+00
    0.00000E+00         0.00000E+00        -0.57660E+08
 
   -0.57525E+08         0.14491E+07         0.00000E+00
    0.14491E+07        -0.97095E+08         0.00000E+00
    0.00000E+00         0.00000E+00        -0.57488E+08
 
   -0.57357E+08         0.14016E+07         0.00000E+00
    0.14016E+07        -0.97128E+08         0.00000E+00
    0.00000E+00         0.00000E+00        -0.57316E+08
 
   -0.57191E+08         0.13507E+07         0.00000E+00
    0.13507E+07        -0.97165E+08         0.00000E+00
    0.00000E+00         0.00000E+00        -0.57146E+08
 
   -0.57025E+08         0.12965E+07         0.00000E+00
    0.12965E+07        -0.97206E+08         0.00000E+00
    0.00000E+00         0.00000E+00        -0.56978E+08
 
   -0.56860E+08         0.12395E+07         0.00000E+00
    0.12395E+07        -0.97250E+08         0.00000E+00
    0.00000E+00         0.00000E+00        -0.56810E+08
 
   -0.56695E+08         0.11800E+07         0.00000E+00
    0.11800E+07        -0.97294E+08         0.00000E+00
    0.00000E+00         0.00000E+00        -0.56642E+08
 
   -0.56529E+08         0.11184E+07         0.00000E+00
    0.11184E+07        -0.97338E+08         0.00000E+00
    0.00000E+00         0.00000E+00        -0.56474E+08
 
   -0.56361E+08         0.10552E+07         0.00000E+00
    0.10552E+07        -0.97379E+08         0.00000E+00
    0.00000E+00         0.00000E+00        -0.56304E+08
 
   -0.56190E+08         0.99024E+06         0.00000E+00
    0.99024E+06        -0.97413E+08         0.00000E+00
    0.00000E+00         0.00000E+00        -0.56130E+08
 
   -0.56015E+08         0.92263E+06         0.00000E+00
    0.92263E+06        -0.97438E+08         0.00000E+00
    0.00000E+00         0.00000E+00        -0.55952E+08
 
   -0.55836E+08         0.85036E+06         0.00000E+00
    0.85036E+06        -0.97451E+08         0.00000E+00
    0.00000E+00         0.00000E+00        -0.55765E+08
 
   -0.55651E+08         0.76940E+06         0.00000E+00
    0.76940E+06        -0.97448E+08         0.00000E+00
    0.00000E+00         0.00000E+00        -0.55569E+08
 
   -0.55462E+08         0.67288E+06         0.00000E+00
    0.67288E+06        -0.97426E+08         0.00000E+00
    0.00000E+00         0.00000E+00        -0.55359E+08
 
   -0.55269E+08         0.55137E+06         0.00000E+00
    0.55137E+06        -0.97384E+08         0.00000E+00
    0.00000E+00         0.00000E+00        -0.55133E+08
 
   -0.55075E+08         0.37785E+06         0.00000E+00
    0.37785E+06        -0.97309E+08         0.00000E+00
    0.00000E+00         0.00000E+00        -0.54877E+08
 
   -0.54915E+08         0.13650E+06         0.00000E+00
    0.13650E+06        -0.97187E+08         0.00000E+00
    0.00000E+00         0.00000E+00        -0.54546E+08
 
   -0.77722E+08         0.19863E+06         0.00000E+00
    0.19863E+06        -0.97297E+08         0.00000E+00
    0.00000E+00         0.00000E+00        -0.78463E+08
 
   -0.77524E+08         0.56822E+06         0.00000E+00
    0.56822E+06        -0.96994E+08         0.00000E+00
    0.00000E+00         0.00000E+00        -0.78049E+08
 
   -0.77221E+08         0.87747E+06         0.00000E+00
    0.87747E+06        -0.96795E+08         0.00000E+00
    0.00000E+00         0.00000E+00        -0.77635E+08
 
   -0.76875E+08         0.11326E+07         0.00000E+00
    0.11326E+07        -0.96677E+08         0.00000E+00
    0.00000E+00         0.00000E+00        -0.77221E+08
 
   -0.76510E+08         0.13514E+07         0.00000E+00
    0.13514E+07        -0.96618E+08         0.00000E+00
    0.00000E+00         0.00000E+00        -0.76809E+08
 
   -0.76134E+08         0.15439E+07         0.00000E+00
    0.15439E+07        -0.96605E+08         0.00000E+00
    0.00000E+00         0.00000E+00        -0.76397E+08
 
   -0.75753E+08         0.17152E+07         0.00000E+00
    0.17152E+07        -0.96625E+08         0.00000E+00
    0.00000E+00         0.00000E+00        -0.75985E+08
 
   -0.75369E+08         0.18685E+07         0.00000E+00
    0.18685E+07        -0.96671E+08         0.00000E+00
    0.00000E+00         0.00000E+00        -0.75576E+08
 
   -0.74985E+08         0.20049E+07         0.00000E+00
    0.20049E+07        -0.96736E+08         0.00000E+00
    0.00000E+00         0.00000E+00        -0.75167E+08
 
   -0.74602E+08         0.21249E+07         0.00000E+00
    0.21249E+07        -0.96813E+08         0.00000E+00
    0.00000E+00         0.00000E+00        -0.74760E+08
 
   -0.74220E+08         0.22286E+07         0.00000E+00
    0.22286E+07        -0.96901E+08         0.00000E+00
    0.00000E+00         0.00000E+00        -0.74354E+08
 
   -0.73841E+08         0.23154E+07         0.00000E+00
    0.23154E+07        -0.96996E+08         0.00000E+00
    0.00000E+00         0.00000E+00        -0.73951E+08
 
   -0.73465E+08         0.23844E+07         0.00000E+00
    0.23844E+07        -0.97099E+08         0.00000E+00
    0.00000E+00         0.00000E+00        -0.73549E+08
 
   -0.73095E+08         0.24337E+07         0.00000E+00
    0.24337E+07        -0.97211E+08         0.00000E+00
    0.00000E+00         0.00000E+00        -0.73148E+08
 
   -0.72735E+08         0.24617E+07         0.00000E+00
    0.24617E+07        -0.97334E+08         0.00000E+00
    0.00000E+00         0.00000E+00        -0.72751E+08
 
   -0.72396E+08         0.24518E+07         0.00000E+00
    0.24518E+07        -0.97472E+08         0.00000E+00
    0.00000E+00         0.00000E+00        -0.72364E+08
 
   -0.72100E+08         0.24320E+07         0.00000E+00
    0.24320E+07        -0.97546E+08         0.00000E+00
    0.00000E+00         0.00000E+00        -0.72077E+08
 
   -0.71834E+08         0.24069E+07         0.00000E+00
    0.24069E+07        -0.97566E+08         0.00000E+00
    0.00000E+00         0.00000E+00        -0.71846E+08
 
   -0.71583E+08         0.23921E+07         0.00000E+00
    0.23921E+07        -0.97571E+08         0.00000E+00
    0.00000E+00         0.00000E+00        -0.71607E+08
 
   -0.71333E+08         0.23844E+07         0.00000E+00
    0.23844E+07        -0.97572E+08         0.00000E+00
    0.00000E+00         0.00000E+00        -0.71363E+08
 
   -0.71080E+08         0.23814E+07         0.00000E+00
    0.23814E+07        -0.97573E+08         0.00000E+00
    0.00000E+00         0.00000E+00        -0.71112E+08
 
   -0.70825E+08         0.23814E+07         0.00000E+00
    0.23814E+07        -0.97575E+08         0.00000E+00
    0.00000E+00         0.00000E+00        -0.70856E+08
 
   -0.70566E+08         0.23830E+07         0.00000E+00
    0.23830E+07        -0.97579E+08         0.00000E+00
    0.00000E+00         0.00000E+00        -0.70596E+08
 
   -0.70304E+08         0.23853E+07         0.00000E+00
    0.23853E+07        -0.97583E+08         0.00000E+00
    0.00000E+00         0.00000E+00        -0.70331E+08
 
   -0.70039E+08         0.23876E+07         0.00000E+00
    0.23876E+07        -0.97589E+08         0.00000E+00
    0.00000E+00         0.00000E+00        -0.70064E+08
 
   -0.69771E+08         0.23893E+07         0.00000E+00
    0.23893E+07        -0.97595E+08         0.00000E+00
    0.00000E+00         0.00000E+00        -0.69793E+08
 
   -0.69502E+08         0.23900E+07         0.00000E+00
    0.23900E+07        -0.97602E+08         0.00000E+00
    0.00000E+00         0.00000E+00        -0.69520E+08
 
   -0.69231E+08         0.23893E+07         0.00000E+00
    0.23893E+07        -0.97610E+08         0.00000E+00
    0.00000E+00         0.00000E+00        -0.69245E+08
 
   -0.68958E+08         0.23869E+07         0.00000E+00
    0.23869E+07        -0.97619E+08         0.00000E+00
    0.00000E+00         0.00000E+00        -0.68968E+08
 
   -0.68684E+08         0.23824E+07         0.00000E+00
    0.23824E+07        -0.97628E+08         0.00000E+00
    0.00000E+00         0.00000E+00        -0.68690E+08
 
   -0.68410E+08         0.23755E+07         0.00000E+00
    0.23755E+07        -0.97639E+08         0.00000E+00
    0.00000E+00         0.00000E+00        -0.68411E+08
 
   -0.68135E+08         0.23660E+07         0.00000E+00
    0.23660E+07        -0.97652E+08         0.00000E+00
    0.00000E+00         0.00000E+00        -0.68131E+08
 
   -0.67859E+08         0.23536E+07         0.00000E+00
    0.23536E+07        -0.97666E+08         0.00000E+00
    0.00000E+00         0.00000E+00        -0.67850E+08
 
   -0.67584E+08         0.23378E+07         0.00000E+00
    0.23378E+07        -0.97684E+08         0.00000E+00
    0.00000E+00         0.00000E+00        -0.67570E+08
 
   -0.67310E+08         0.23181E+07         0.00000E+00
    0.23181E+07        -0.97704E+08         0.00000E+00
    0.00000E+00         0.00000E+00        -0.67289E+08
 
   -0.67038E+08         0.22938E+07         0.00000E+00
    0.22938E+07        -0.97726E+08         0.00000E+00
    0.00000E+00         0.00000E+00        -0.67008E+08
 
   -0.66773E+08         0.22644E+07         0.00000E+00
    0.22644E+07        -0.97750E+08         0.00000E+00
    0.00000E+00         0.00000E+00        -0.66727E+08
 
   -0.66519E+08         0.22298E+07         0.00000E+00
    0.22298E+07        -0.97750E+08         0.00000E+00
    0.00000E+00         0.00000E+00        -0.66475E+08
 
   -0.66279E+08         0.21953E+07         0.00000E+00
    0.21953E+07        -0.97731E+08         0.00000E+00
    0.00000E+00         0.00000E+00        -0.66249E+08
 
   -0.66045E+08         0.21657E+07         0.00000E+00
    0.21657E+07        -0.97713E+08         0.00000E+00
    0.00000E+00         0.00000E+00        -0.66024E+08
 
   -0.65815E+08         0.21406E+07         0.00000E+00
    0.21406E+07        -0.97698E+08         0.00000E+00
    0.00000E+00         0.00000E+00        -0.65798E+08
 
   -0.65586E+08         0.21191E+07         0.00000E+00
    0.21191E+07        -0.97685E+08         0.00000E+00
    0.00000E+00         0.00000E+00        -0.65573E+08
 
   -0.65359E+08         0.21003E+07         0.00000E+00
    0.21003E+07        -0.97675E+08         0.00000E+00
    0.00000E+00         0.00000E+00        -0.65349E+08
 
   -0.65133E+08         0.20837E+07         0.00000E+00
    0.20837E+07        -0.97667E+08         0.00000E+00
    0.00000E+00         0.00000E+00        -0.65125E+08
 
   -0.64907E+08         0.20691E+07         0.00000E+00
    0.20691E+07        -0.97660E+08         0.00000E+00
    0.00000E+00         0.00000E+00        -0.64902E+08
 
   -0.64683E+08         0.20560E+07         0.00000E+00
    0.20560E+07        -0.97654E+08         0.00000E+00
    0.00000E+00         0.00000E+00        -0.64679E+08
 
   -0.64460E+08         0.20441E+07         0.00000E+00
    0.20441E+07        -0.97650E+08         0.00000E+00
    0.00000E+00         0.00000E+00        -0.64457E+08
 
   -0.64239E+08         0.20331E+07         0.00000E+00
    0.20331E+07        -0.97644E+08         0.00000E+00
    0.00000E+00         0.00000E+00        -0.64237E+08
 
   -0.64039E+08         0.20207E+07         0.00000E+00
    0.20207E+07        -0.97621E+08         0.00000E+00
    0.00000E+00         0.00000E+00        -0.64038E+08
 
   -0.63849E+08         0.20079E+07         0.00000E+00
    0.20079E+07        -0.97590E+08         0.00000E+00
    0.00000E+00         0.00000E+00        -0.63849E+08
 
   -0.63661E+08         0.19957E+07         0.00000E+00
    0.19957E+07        -0.97558E+08         0.00000E+00
    0.00000E+00         0.00000E+00        -0.63661E+08
 
   -0.63473E+08         0.19841E+07         0.00000E+00
    0.19841E+07        -0.97527E+08         0.00000E+00
    0.00000E+00         0.00000E+00        -0.63474E+08
 
   -0.63286E+08         0.19729E+07         0.00000E+00
    0.19729E+07        -0.97496E+08         0.00000E+00
    0.00000E+00         0.00000E+00        -0.63287E+08
 
   -0.63100E+08         0.19621E+07         0.00000E+00
    0.19621E+07        -0.97466E+08         0.00000E+00
    0.00000E+00         0.00000E+00        -0.63101E+08
 
   -0.62914E+08         0.19515E+07         0.00000E+00
    0.19515E+07        -0.97436E+08         0.00000E+00
    0.00000E+00         0.00000E+00        -0.62915E+08
 
   -0.62729E+08         0.19412E+07         0.00000E+00
    0.19412E+07        -0.97406E+08         0.00000E+00
    0.00000E+00         0.00000E+00        -0.62730E+08
 
   -0.62544E+08         0.19310E+07         0.00000E+00
    0.19310E+07        -0.97377E+08         0.00000E+00
    0.00000E+00         0.00000E+00        -0.62545E+08
 
   -0.62359E+08         0.19210E+07         0.00000E+00
    0.19210E+07        -0.97348E+08         0.00000E+00
    0.00000E+00         0.00000E+00        -0.62361E+08
 
   -0.62175E+08         0.19110E+07         0.00000E+00
    0.19110E+07        -0.97320E+08         0.00000E+00
    0.00000E+00         0.00000E+00        -0.62177E+08
 
   -0.61992E+08         0.19011E+07         0.00000E+00
    0.19011E+07        -0.97293E+08         0.00000E+00
    0.00000E+00         0.00000E+00        -0.61993E+08
 
   -0.61808E+08         0.18912E+07         0.00000E+00
    0.18912E+07        -0.97266E+08         0.00000E+00
    0.00000E+00         0.00000E+00        -0.61809E+08
 
   -0.61625E+08         0.18812E+07         0.00000E+00
    0.18812E+07        -0.97240E+08         0.00000E+00
    0.00000E+00         0.00000E+00        -0.61626E+08
 
   -0.61443E+08         0.18710E+07         0.00000E+00
    0.18710E+07        -0.97214E+08         0.00000E+00
    0.00000E+00         0.00000E+00        -0.61443E+08
 
   -0.61260E+08         0.18608E+07         0.00000E+00
    0.18608E+07        -0.97189E+08         0.00000E+00
    0.00000E+00         0.00000E+00        -0.61260E+08
 
   -0.61078E+08         0.18503E+07         0.00000E+00
    0.18503E+07        -0.97166E+08         0.00000E+00
    0.00000E+00         0.00000E+00        -0.61077E+08
 
   -0.60896E+08         0.18395E+07         0.00000E+00
    0.18395E+07        -0.97143E+08         0.00000E+00
    0.00000E+00         0.00000E+00        -0.60895E+08
 
   -0.60714E+08         0.18284E+07         0.00000E+00
    0.18284E+07        -0.97121E+08         0.00000E+00
    0.00000E+00         0.00000E+00        -0.60712E+08
 
   -0.60532E+08         0.18168E+07         0.00000E+00
    0.18168E+07        -0.97100E+08         0.00000E+00
    0.00000E+00         0.00000E+00        -0.60530E+08
 
   -0.60351E+08         0.18047E+07         0.00000E+00
    0.18047E+07        -0.97081E+08         0.00000E+00
    0.00000E+00         0.00000E+00        -0.60347E+08
 
   -0.60170E+08         0.17921E+07         0.00000E+00
    0.17921E+07        -0.97063E+08         0.00000E+00
    0.00000E+00         0.00000E+00        -0.60165E+08
 
   -0.59989E+08         0.17787E+07         0.00000E+00
    0.17787E+07        -0.97046E+08         0.00000E+00
    0.00000E+00         0.00000E+00        -0.59983E+08
 
   -0.59808E+08         0.17645E+07         0.00000E+00
    0.17645E+07        -0.97031E+08         0.00000E+00
    0.00000E+00         0.00000E+00        -0.59801E+08
 
   -0.59628E+08         0.17493E+07         0.00000E+00
    0.17493E+07        -0.97018E+08         0.00000E+00
    0.00000E+00         0.00000E+00        -0.59619E+08
 
   -0.59448E+08         0.17329E+07         0.00000E+00
    0.17329E+07        -0.97007E+08         0.00000E+00
    0.00000E+00         0.00000E+00        -0.59438E+08
 
   -0.59269E+08         0.17153E+07         0.00000E+00
    0.17153E+07        -0.96998E+08         0.00000E+00
    0.00000E+00         0.00000E+00        -0.59256E+08
 
   -0.59090E+08         0.16961E+07         0.00000E+00
    0.16961E+07        -0.96991E+08         0.00000E+00
    0.00000E+00         0.00000E+00        -0.59075E+08
 
   -0.58912E+08         0.16753E+07         0.00000E+00
    0.16753E+07        -0.96987E+08         0.00000E+00
    0.00000E+00         0.00000E+00        -0.58894E+08
 
   -0.58735E+08         0.16524E+07         0.00000E+00
    0.16524E+07        -0.96987E+08         0.00000E+00
    0.00000E+00         0.00000E+00        -0.58714E+08
 
   -0.58558E+08         0.16274E+07         0.00000E+00
    0.16274E+07        -0.96989E+08         0.00000E+00
    0.00000E+00         0.00000E+00        -0.58534E+08
 
   -0.58383E+08         0.15999E+07         0.00000E+00
    0.15999E+07        -0.96995E+08         0.00000E+00
    0.00000E+00         0.00000E+00        -0.58355E+08
 
   -0.58209E+08         0.15696E+07         0.00000E+00
    0.15696E+07        -0.97004E+08         0.00000E+00
    0.00000E+00         0.00000E+00        -0.58177E+08
 
   -0.58036E+08         0.15364E+07         0.00000E+00
    0.15364E+07        -0.97018E+08         0.00000E+00
    0.00000E+00         0.00000E+00        -0.58000E+08
 
   -0.57864E+08         0.15000E+07         0.00000E+00
    0.15000E+07        -0.97037E+08         0.00000E+00
    0.00000E+00         0.00000E+00        -0.57823E+08
 
   -0.57694E+08         0.14601E+07         0.00000E+00
    0.14601E+07        -0.97059E+08         0.00000E+00
    0.00000E+00         0.00000E+00        -0.57648E+08
 
   -0.57526E+08         0.14168E+07         0.00000E+00
    0.14168E+07        -0.97087E+08         0.00000E+00
    0.00000E+00         0.00000E+00        -0.57474E+08
 
   -0.57359E+08         0.13699E+07         0.00000E+00
    0.13699E+07        -0.97119E+08         0.00000E+00
    0.00000E+00         0.00000E+00        -0.57302E+08
 
   -0.57193E+08         0.13194E+07         0.00000E+00
    0.13194E+07        -0.97155E+08         0.00000E+00
    0.00000E+00         0.00000E+00        -0.57131E+08
 
   -0.57028E+08         0.12657E+07         0.00000E+00
    0.12657E+07        -0.97195E+08         0.00000E+00
    0.00000E+00         0.00000E+00        -0.56961E+08
 
   -0.56863E+08         0.12089E+07         0.00000E+00
    0.12089E+07        -0.97238E+08         0.00000E+00
    0.00000E+00         0.00000E+00        -0.56792E+08
 
   -0.56699E+08         0.11495E+07         0.00000E+00
    0.11495E+07        -0.97282E+08         0.00000E+00
    0.00000E+00         0.00000E+00        -0.56624E+08
 
   -0.56533E+08         0.10878E+07         0.00000E+00
    0.10878E+07        -0.97325E+08         0.00000E+00
    0.00000E+00         0.00000E+00        -0.56455E+08
 
   -0.56365E+08         0.10242E+07         0.00000E+00
    0.10242E+07        -0.97365E+08         0.00000E+00
    0.00000E+00         0.00000E+00        -0.56284E+08
 
   -0.56194E+08         0.95863E+06         0.00000E+00
    0.95863E+06        -0.97398E+08         0.00000E+00
    0.00000E+00         0.00000E+00        -0.56109E+08
 
   -0.56020E+08         0.89012E+06         0.00000E+00
    0.89012E+06        -0.97422E+08         0.00000E+00
    0.00000E+00         0.00000E+00        -0.55929E+08
 
   -0.55841E+08         0.81674E+06         0.00000E+00
    0.81674E+06        -0.97433E+08         0.00000E+00
    0.00000E+00         0.00000E+00        -0.55741E+08
 
   -0.55658E+08         0.73440E+06         0.00000E+00
    0.73440E+06        -0.97428E+08         0.00000E+00
    0.00000E+00         0.00000E+00        -0.55541E+08
 
   -0.55471E+08         0.63696E+06         0.00000E+00
    0.63696E+06        -0.97402E+08         0.00000E+00
    0.00000E+00         0.00000E+00        -0.55325E+08
 
   -0.55282E+08         0.51332E+06         0.00000E+00
    0.51332E+06        -0.97352E+08         0.00000E+00
    0.00000E+00         0.00000E+00        -0.55088E+08
 
   -0.55097E+08         0.34120E+06         0.00000E+00
    0.34120E+06        -0.97263E+08         0.00000E+00
    0.00000E+00         0.00000E+00        -0.54812E+08
 
   -0.54958E+08         0.11979E+06         0.00000E+00
    0.11979E+06        -0.97134E+08         0.00000E+00
    0.00000E+00         0.00000E+00        -0.54455E+08
 
   -0.77547E+08         0.17870E+06         0.00000E+00
    0.17870E+06        -0.97372E+08         0.00000E+00
    0.00000E+00         0.00000E+00        -0.78463E+08
 
   -0.77377E+08         0.51807E+06         0.00000E+00
    0.51807E+06        -0.97060E+08         0.00000E+00
    0.00000E+00         0.00000E+00        -0.78049E+08
 
   -0.77101E+08         0.81327E+06         0.00000E+00
    0.81327E+06        -0.96850E+08         0.00000E+00
    0.00000E+00         0.00000E+00        -0.77635E+08
 
   -0.76774E+08         0.10626E+07         0.00000E+00
    0.10626E+07        -0.96723E+08         0.00000E+00
    0.00000E+00         0.00000E+00        -0.77221E+08
 
   -0.76422E+08         0.12782E+07         0.00000E+00
    0.12782E+07        -0.96659E+08         0.00000E+00
    0.00000E+00         0.00000E+00        -0.76809E+08
 
   -0.76057E+08         0.14689E+07         0.00000E+00
    0.14689E+07        -0.96641E+08         0.00000E+00
    0.00000E+00         0.00000E+00        -0.76397E+08
 
   -0.75685E+08         0.16395E+07         0.00000E+00
    0.16395E+07        -0.96658E+08         0.00000E+00
    0.00000E+00         0.00000E+00        -0.75985E+08
 
   -0.75309E+08         0.17924E+07         0.00000E+00
    0.17924E+07        -0.96700E+08         0.00000E+00
    0.00000E+00         0.00000E+00        -0.75576E+08
 
   -0.74932E+08         0.19288E+07         0.00000E+00
    0.19288E+07        -0.96761E+08         0.00000E+00
    0.00000E+00         0.00000E+00        -0.75167E+08
 
   -0.74556E+08         0.20491E+07         0.00000E+00
    0.20491E+07        -0.96836E+08         0.00000E+00
    0.00000E+00         0.00000E+00        -0.74760E+08
 
   -0.74181E+08         0.21532E+07         0.00000E+00
    0.21532E+07        -0.96920E+08         0.00000E+00
    0.00000E+00         0.00000E+00        -0.74354E+08
 
   -0.73809E+08         0.22406E+07         0.00000E+00
    0.22406E+07        -0.97012E+08         0.00000E+00
    0.00000E+00         0.00000E+00        -0.73951E+08
 
   -0.73440E+08         0.23104E+07         0.00000E+00
    0.23104E+07        -0.97111E+08         0.00000E+00
    0.00000E+00         0.00000E+00        -0.73549E+08
 
   -0.73077E+08         0.23613E+07         0.00000E+00
    0.23613E+07        -0.97219E+08         0.00000E+00
    0.00000E+00         0.00000E+00        -0.73148E+08
 
   -0.72724E+08         0.23917E+07         0.00000E+00
    0.23917E+07        -0.97338E+08         0.00000E+00
    0.00000E+00         0.00000E+00        -0.72751E+08
 
   -0.72389E+08         0.23886E+07         0.00000E+00
    0.23886E+07        -0.97469E+08         0.00000E+00
    0.00000E+00         0.00000E+00        -0.72357E+08
 
   -0.72089E+08         0.23745E+07         0.00000E+00
    0.23745E+07        -0.97540E+08         0.00000E+00
    0.00000E+00         0.00000E+00        -0.72063E+08
 
   -0.71817E+08         0.23557E+07         0.00000E+00
    0.23557E+07        -0.97562E+08         0.00000E+00
    0.00000E+00         0.00000E+00        -0.71830E+08
 
   -0.71562E+08         0.23419E+07         0.00000E+00
    0.23419E+07        -0.97569E+08         0.00000E+00
    0.00000E+00         0.00000E+00        -0.71591E+08
 
   -0.71309E+08         0.23340E+07         0.00000E+00
    0.23340E+07        -0.97571E+08         0.00000E+00
    0.00000E+00         0.00000E+00        -0.71345E+08
 
   -0.71055E+08         0.23306E+07         0.00000E+00
    0.23306E+07        -0.97572E+08         0.00000E+00
    0.00000E+00         0.00000E+00        -0.71094E+08
 
   -0.70799E+08         0.23299E+07         0.00000E+00
    0.23299E+07        -0.97575E+08         0.00000E+00
    0.00000E+00         0.00000E+00        -0.70838E+08
 
   -0.70540E+08         0.23310E+07         0.00000E+00
    0.23310E+07        -0.97579E+08         0.00000E+00
    0.00000E+00         0.00000E+00        -0.70577E+08
 
   -0.70279E+08         0.23327E+07         0.00000E+00
    0.23327E+07        -0.97584E+08         0.00000E+00
    0.00000E+00         0.00000E+00        -0.70313E+08
 
   -0.70015E+08         0.23345E+07         0.00000E+00
    0.23345E+07        -0.97589E+08         0.00000E+00
    0.00000E+00         0.00000E+00        -0.70045E+08
 
   -0.69748E+08         0.23358E+07         0.00000E+00
    0.23358E+07        -0.97596E+08         0.00000E+00
    0.00000E+00         0.00000E+00        -0.69775E+08
 
   -0.69480E+08         0.23361E+07         0.00000E+00
    0.23361E+07        -0.97602E+08         0.00000E+00
    0.00000E+00         0.00000E+00        -0.69502E+08
 
   -0.69210E+08         0.23351E+07         0.00000E+00
    0.23351E+07        -0.97610E+08         0.00000E+00
    0.00000E+00         0.00000E+00        -0.69227E+08
 
   -0.68939E+08         0.23324E+07         0.00000E+00
    0.23324E+07        -0.97618E+08         0.00000E+00
    0.00000E+00         0.00000E+00        -0.68951E+08
 
   -0.68666E+08         0.23277E+07         0.00000E+00
    0.23277E+07        -0.97627E+08         0.00000E+00
    0.00000E+00         0.00000E+00        -0.68673E+08
 
   -0.68394E+08         0.23207E+07         0.00000E+00
    0.23207E+07        -0.97637E+08         0.00000E+00
    0.00000E+00         0.00000E+00        -0.68395E+08
 
   -0.68120E+08         0.23112E+07         0.00000E+00
    0.23112E+07        -0.97650E+08         0.00000E+00
    0.00000E+00         0.00000E+00        -0.68115E+08
 
   -0.67847E+08         0.22988E+07         0.00000E+00
    0.22988E+07        -0.97664E+08         0.00000E+00
    0.00000E+00         0.00000E+00        -0.67835E+08
 
   -0.67574E+08         0.22831E+07         0.00000E+00
    0.22831E+07        -0.97680E+08         0.00000E+00
    0.00000E+00         0.00000E+00        -0.67555E+08
 
   -0.67303E+08         0.22637E+07         0.00000E+00
    0.22637E+07        -0.97700E+08         0.00000E+00
    0.00000E+00         0.00000E+00        -0.67275E+08
 
   -0.67034E+08         0.22402E+07         0.00000E+00
    0.22402E+07        -0.97721E+08         0.00000E+00
    0.00000E+00         0.00000E+00        -0.66995E+08
 
   -0.66771E+08         0.22127E+07         0.00000E+00
    0.22127E+07        -0.97744E+08         0.00000E+00
    0.00000E+00         0.00000E+00        -0.66714E+08
 
   -0.66518E+08         0.21804E+07         0.00000E+00
    0.21804E+07        -0.97743E+08         0.00000E+00
    0.00000E+00         0.00000E+00        -0.66465E+08
 
   -0.66276E+08         0.21479E+07         0.00000E+00
    0.21479E+07        -0.97725E+08         0.00000E+00
    0.00000E+00         0.00000E+00        -0.66239E+08
 
   -0.66041E+08         0.21193E+07         0.00000E+00
    0.21193E+07        -0.97708E+08         0.00000E+00
    0.00000E+00         0.00000E+00        -0.66014E+08
 
   -0.65810E+08         0.20947E+07         0.00000E+00
    0.20947E+07        -0.97693E+08         0.00000E+00
    0.00000E+00         0.00000E+00        -0.65789E+08
 
   -0.65581E+08         0.20734E+07         0.00000E+00
    0.20734E+07        -0.97681E+08         0.00000E+00
    0.00000E+00         0.00000E+00        -0.65564E+08
 
   -0.65353E+08         0.20549E+07         0.00000E+00
    0.20549E+07        -0.97672E+08         0.00000E+00
    0.00000E+00         0.00000E+00        -0.65340E+08
 
   -0.65126E+08         0.20386E+07         0.00000E+00
    0.20386E+07        -0.97664E+08         0.00000E+00
    0.00000E+00         0.00000E+00        -0.65117E+08
 
   -0.64901E+08         0.20241E+07         0.00000E+00
    0.20241E+07        -0.97657E+08         0.00000E+00
    0.00000E+00         0.00000E+00        -0.64894E+08
 
   -0.64677E+08         0.20112E+07         0.00000E+00
    0.20112E+07        -0.97652E+08         0.00000E+00
    0.00000E+00         0.00000E+00        -0.64672E+08
 
   -0.64453E+08         0.19995E+07         0.00000E+00
    0.19995E+07        -0.97648E+08         0.00000E+00
    0.00000E+00         0.00000E+00        -0.64450E+08
 
   -0.64233E+08         0.19886E+07         0.00000E+00
    0.19886E+07        -0.97642E+08         0.00000E+00
    0.00000E+00         0.00000E+00        -0.64231E+08
 
   -0.64033E+08         0.19765E+07         0.00000E+00
    0.19765E+07        -0.97619E+08         0.00000E+00
    0.00000E+00         0.00000E+00        -0.64032E+08
 
   -0.63843E+08         0.19639E+07         0.00000E+00
    0.19639E+07        -0.97588E+08         0.00000E+00
    0.00000E+00         0.00000E+00        -0.63843E+08
 
   -0.63655E+08         0.19520E+07         0.00000E+00
    0.19520E+07        -0.97557E+08         0.00000E+00
    0.00000E+00         0.00000E+00        -0.63655E+08
 
   -0.63467E+08         0.19406E+07         0.00000E+00
    0.19406E+07        -0.97526E+08         0.00000E+00
    0.00000E+00         0.00000E+00        -0.63468E+08
 
   -0.63281E+08         0.19296E+07         0.00000E+00
    0.19296E+07        -0.97495E+08         0.00000E+00
    0.00000E+00         0.00000E+00        -0.63282E+08
 
   -0.63094E+08         0.19190E+07         0.00000E+00
    0.19190E+07        -0.97465E+08         0.00000E+00
    0.00000E+00         0.00000E+00        -0.63096E+08
 
   -0.62909E+08         0.19087E+07         0.00000E+00
    0.19087E+07        -0.97435E+08         0.00000E+00
    0.00000E+00         0.00000E+00        -0.62910E+08
 
   -0.62724E+08         0.18986E+07         0.00000E+00
    0.18986E+07        -0.97406E+08         0.00000E+00
    0.00000E+00         0.00000E+00        -0.62725E+08
 
   -0.62539E+08         0.18887E+07         0.00000E+00
    0.18887E+07        -0.97377E+08         0.00000E+00
    0.00000E+00         0.00000E+00        -0.62541E+08
 
   -0.62355E+08         0.18789E+07         0.00000E+00
    0.18789E+07        -0.97348E+08         0.00000E+00
    0.00000E+00         0.00000E+00        -0.62356E+08
 
   -0.62171E+08         0.18691E+07         0.00000E+00
    0.18691E+07        -0.97320E+08         0.00000E+00
    0.00000E+00         0.00000E+00        -0.62172E+08
 
   -0.61987E+08         0.18594E+07         0.00000E+00
    0.18594E+07        -0.97293E+08         0.00000E+00
    0.00000E+00         0.00000E+00        -0.61989E+08
 
   -0.61804E+08         0.18497E+07         0.00000E+00
    0.18497E+07        -0.97266E+08         0.00000E+00
    0.00000E+00         0.00000E+00        -0.61805E+08
 
   -0.61621E+08         0.18399E+07         0.00000E+00
    0.18399E+07        -0.97240E+08         0.00000E+00
    0.00000E+00         0.00000E+00        -0.61622E+08
 
   -0.61439E+08         0.18301E+07         0.00000E+00
    0.18301E+07        -0.97214E+08         0.00000E+00
    0.00000E+00         0.00000E+00        -0.61439E+08
 
   -0.61256E+08         0.18200E+07         0.00000E+00
    0.18200E+07        -0.97190E+08         0.00000E+00
    0.00000E+00         0.00000E+00        -0.61256E+08
 
   -0.61074E+08         0.18098E+07         0.00000E+00
    0.18098E+07        -0.97166E+08         0.00000E+00
    0.00000E+00         0.00000E+00        -0.61073E+08
 
   -0.60892E+08         0.17992E+07         0.00000E+00
    0.17992E+07        -0.97143E+08         0.00000E+00
    0.00000E+00         0.00000E+00        -0.60891E+08
 
   -0.60710E+08         0.17883E+07         0.00000E+00
    0.17883E+07        -0.97121E+08         0.00000E+00
    0.00000E+00         0.00000E+00        -0.60708E+08
 
   -0.60529E+08         0.17771E+07         0.00000E+00
    0.17771E+07        -0.97101E+08         0.00000E+00
    0.00000E+00         0.00000E+00        -0.60526E+08
 
   -0.60348E+08         0.17653E+07         0.00000E+00
    0.17653E+07        -0.97081E+08         0.00000E+00
    0.00000E+00         0.00000E+00        -0.60343E+08
 
   -0.60167E+08         0.17529E+07         0.00000E+00
    0.17529E+07        -0.97063E+08         0.00000E+00
    0.00000E+00         0.00000E+00        -0.60161E+08
 
   -0.59986E+08         0.17398E+07         0.00000E+00
    0.17398E+07        -0.97046E+08         0.00000E+00
    0.00000E+00         0.00000E+00        -0.59979E+08
 
   -0.59806E+08         0.17259E+07         0.00000E+00
    0.17259E+07        -0.97031E+08         0.00000E+00
    0.00000E+00         0.00000E+00        -0.59797E+08
 
   -0.59625E+08         0.17110E+07         0.00000E+00
    0.17110E+07        -0.97018E+08         0.00000E+00
    0.00000E+00         0.00000E+00        -0.59615E+08
 
   -0.59446E+08         0.16950E+07         0.00000E+00
    0.16950E+07        -0.97006E+08         0.00000E+00
    0.00000E+00         0.00000E+00        -0.59433E+08
 
   -0.59267E+08         0.16778E+07         0.00000E+00
    0.16778E+07        -0.96997E+08         0.00000E+00
    0.00000E+00         0.00000E+00        -0.59251E+08
 
   -0.59088E+08         0.16590E+07         0.00000E+00
    0.16590E+07        -0.96990E+08         0.00000E+00
    0.00000E+00         0.00000E+00        -0.59069E+08
 
   -0.58910E+08         0.16386E+07         0.00000E+00
    0.16386E+07        -0.96986E+08         0.00000E+00
    0.00000E+00         0.00000E+00        -0.58888E+08
 
   -0.58733E+08         0.16162E+07         0.00000E+00
    0.16162E+07        -0.96984E+08         0.00000E+00
    0.00000E+00         0.00000E+00        -0.58707E+08
 
   -0.58557E+08         0.15917E+07         0.00000E+00
    0.15917E+07        -0.96986E+08         0.00000E+00
    0.00000E+00         0.00000E+00        -0.58527E+08
 
   -0.58382E+08         0.15647E+07         0.00000E+00
    0.15647E+07        -0.96991E+08         0.00000E+00
    0.00000E+00         0.00000E+00        -0.58347E+08
 
   -0.58208E+08         0.15350E+07         0.00000E+00
    0.15350E+07        -0.97000E+08         0.00000E+00
    0.00000E+00         0.00000E+00        -0.58168E+08
 
   -0.58036E+08         0.15024E+07         0.00000E+00
    0.15024E+07        -0.97013E+08         0.00000E+00
    0.00000E+00         0.00000E+00        -0.57990E+08
 
   -0.57865E+08         0.14665E+07         0.00000E+00
    0.14665E+07        -0.97031E+08         0.00000E+00
    0.00000E+00         0.00000E+00        -0.57812E+08
 
   -0.57695E+08         0.14273E+07         0.00000E+00
    0.14273E+07        -0.97053E+08         0.00000E+00
    0.00000E+00         0.00000E+00        -0.57636E+08
 
   -0.57527E+08         0.13845E+07         0.00000E+00
    0.13845E+07        -0.97079E+08         0.00000E+00
    0.00000E+00         0.00000E+00        -0.57461E+08
 
   -0.57361E+08         0.13381E+07         0.00000E+00
    0.13381E+07        -0.97110E+08         0.00000E+00
    0.00000E+00         0.00000E+00        -0.57288E+08
 
   -0.57195E+08         0.12882E+07         0.00000E+00
    0.12882E+07        -0.97146E+08         0.00000E+00
    0.00000E+00         0.00000E+00        -0.57116E+08
 
   -0.57031E+08         0.12349E+07         0.00000E+00
    0.12349E+07        -0.97185E+08         0.00000E+00
    0.00000E+00         0.00000E+00        -0.56945E+08
 
   -0.56867E+08         0.11783E+07         0.00000E+00
    0.11783E+07        -0.97227E+08         0.00000E+00
    0.00000E+00         0.00000E+00        -0.56775E+08
 
   -0.56702E+08         0.11190E+07         0.00000E+00
    0.11190E+07        -0.97270E+08         0.00000E+00
    0.00000E+00         0.00000E+00        -0.56605E+08
 
   -0.56537E+08         0.10572E+07         0.00000E+00
    0.10572E+07        -0.97312E+08         0.00000E+00
    0.00000E+00         0.00000E+00        -0.56435E+08
 
   -0.56370E+08         0.99327E+06         0.00000E+00
    0.99327E+06        -0.97351E+08         0.00000E+00
    0.00000E+00         0.00000E+00        -0.56263E+08
 
   -0.56199E+08         0.92702E+06         0.00000E+00
    0.92702E+06        -0.97384E+08         0.00000E+00
    0.00000E+00         0.00000E+00        -0.56088E+08
 
   -0.56026E+08         0.85767E+06         0.00000E+00
    0.85767E+06        -0.97406E+08         0.00000E+00
    0.00000E+00         0.00000E+00        -0.55906E+08
 
   -0.55848E+08         0.78323E+06         0.00000E+00
    0.78323E+06        -0.97416E+08         0.00000E+00
    0.00000E+00         0.00000E+00        -0.55715E+08
 
   -0.55666E+08         0.69977E+06         0.00000E+00
    0.69977E+06        -0.97407E+08         0.00000E+00
    0.00000E+00         0.00000E+00        -0.55512E+08
 
   -0.55482E+08         0.60142E+06         0.00000E+00
    0.60142E+06        -0.97377E+08         0.00000E+00
    0.00000E+00         0.00000E+00        -0.55290E+08
 
   -0.55297E+08         0.47632E+06         0.00000E+00
    0.47632E+06        -0.97320E+08         0.00000E+00
    0.00000E+00         0.00000E+00        -0.55042E+08
 
   -0.55122E+08         0.30856E+06         0.00000E+00
    0.30856E+06        -0.97220E+08         0.00000E+00
    0.00000E+00         0.00000E+00        -0.54747E+08
 
   -0.55000E+08         0.10611E+06         0.00000E+00
    0.10611E+06        -0.97088E+08         0.00000E+00
    0.00000E+00         0.00000E+00        -0.54372E+08
 
   -0.77382E+08         0.16180E+06         0.00000E+00
    0.16180E+06        -0.97439E+08         0.00000E+00
    0.00000E+00         0.00000E+00        -0.78463E+08
 
   -0.77233E+08         0.47364E+06         0.00000E+00
    0.47364E+06        -0.97122E+08         0.00000E+00
    0.00000E+00         0.00000E+00        -0.78049E+08
 
   -0.76981E+08         0.75348E+06         0.00000E+00
    0.75348E+06        -0.96903E+08         0.00000E+00
    0.00000E+00         0.00000E+00        -0.77635E+08
 
   -0.76672E+08         0.99556E+06         0.00000E+00
    0.99556E+06        -0.96769E+08         0.00000E+00
    0.00000E+00         0.00000E+00        -0.77221E+08
 
   -0.76333E+08         0.12073E+07         0.00000E+00
    0.12073E+07        -0.96699E+08         0.00000E+00
    0.00000E+00         0.00000E+00        -0.76809E+08
 
   -0.75979E+08         0.13959E+07         0.00000E+00
    0.13959E+07        -0.96676E+08         0.00000E+00
    0.00000E+00         0.00000E+00        -0.76397E+08
 
   -0.75616E+08         0.15653E+07         0.00000E+00
    0.15653E+07        -0.96690E+08         0.00000E+00
    0.00000E+00         0.00000E+00        -0.75985E+08
 
   -0.75248E+08         0.17178E+07         0.00000E+00
    0.17178E+07        -0.96729E+08         0.00000E+00
    0.00000E+00         0.00000E+00        -0.75576E+08
 
   -0.74879E+08         0.18541E+07         0.00000E+00
    0.18541E+07        -0.96787E+08         0.00000E+00
    0.00000E+00         0.00000E+00        -0.75167E+08
 
   -0.74509E+08         0.19746E+07         0.00000E+00
    0.19746E+07        -0.96858E+08         0.00000E+00
    0.00000E+00         0.00000E+00        -0.74760E+08
 
   -0.74141E+08         0.20791E+07         0.00000E+00
    0.20791E+07        -0.96939E+08         0.00000E+00
    0.00000E+00         0.00000E+00        -0.74354E+08
 
   -0.73776E+08         0.21671E+07         0.00000E+00
    0.21671E+07        -0.97028E+08         0.00000E+00
    0.00000E+00         0.00000E+00        -0.73951E+08
 
   -0.73414E+08         0.22379E+07         0.00000E+00
    0.22379E+07        -0.97124E+08         0.00000E+00
    0.00000E+00         0.00000E+00        -0.73549E+08
 
   -0.73059E+08         0.22904E+07         0.00000E+00
    0.22904E+07        -0.97227E+08         0.00000E+00
    0.00000E+00         0.00000E+00        -0.73148E+08
 
   -0.72712E+08         0.23227E+07         0.00000E+00
    0.23227E+07        -0.97342E+08         0.00000E+00
    0.00000E+00         0.00000E+00        -0.72751E+08
 
   -0.72381E+08         0.23257E+07         0.00000E+00
    0.23257E+07        -0.97465E+08         0.00000E+00
    0.00000E+00         0.00000E+00        -0.72355E+08
 
   -0.72078E+08         0.23160E+07         0.00000E+00
    0.23160E+07        -0.97538E+08         0.00000E+00
    0.00000E+00         0.00000E+00        -0.72049E+08
 
   -0.71801E+08         0.23034E+07         0.00000E+00
    0.23034E+07        -0.97559E+08         0.00000E+00
    0.00000E+00         0.00000E+00        -0.71815E+08
 
   -0.71542E+08         0.22911E+07         0.00000E+00
    0.22911E+07        -0.97567E+08         0.00000E+00
    0.00000E+00         0.00000E+00        -0.71575E+08
 
   -0.71287E+08         0.22833E+07         0.00000E+00
    0.22833E+07        -0.97570E+08         0.00000E+00
    0.00000E+00         0.00000E+00        -0.71329E+08
 
   -0.71032E+08         0.22795E+07         0.00000E+00
    0.22795E+07        -0.97572E+08         0.00000E+00
    0.00000E+00         0.00000E+00        -0.71077E+08
 
   -0.70775E+08         0.22784E+07         0.00000E+00
    0.22784E+07        -0.97575E+08         0.00000E+00
    0.00000E+00         0.00000E+00        -0.70820E+08
 
   -0.70516E+08         0.22789E+07         0.00000E+00
    0.22789E+07        -0.97579E+08         0.00000E+00
    0.00000E+00         0.00000E+00        -0.70559E+08
 
   -0.70255E+08         0.22802E+07         0.00000E+00
    0.22802E+07        -0.97584E+08         0.00000E+00
    0.00000E+00         0.00000E+00        -0.70295E+08
 
   -0.69991E+08         0.22815E+07         0.00000E+00
    0.22815E+07        -0.97590E+08         0.00000E+00
    0.00000E+00         0.00000E+00        -0.70027E+08
 
   -0.69726E+08         0.22824E+07         0.00000E+00
    0.22824E+07        -0.97596E+08         0.00000E+00
    0.00000E+00         0.00000E+00        -0.69757E+08
 
   -0.69459E+08         0.22823E+07         0.00000E+00
    0.22823E+07        -0.97602E+08         0.00000E+00
    0.00000E+00         0.00000E+00        -0.69484E+08
 
   -0.69190E+08         0.22811E+07         0.00000E+00
    0.22811E+07        -0.97609E+08         0.00000E+00
    0.00000E+00         0.00000E+00        -0.69210E+08
 
   -0.68920E+08         0.22782E+07         0.00000E+00
    0.22782E+07        -0.97617E+08         0.00000E+00
    0.00000E+00         0.00000E+00        -0.68934E+08
 
   -0.68649E+08         0.22733E+07         0.00000E+00
    0.22733E+07        -0.97626E+08         0.00000E+00
    0.00000E+00         0.00000E+00        -0.68657E+08
 
   -0.68378E+08         0.22663E+07         0.00000E+00
    0.22663E+07        -0.97636E+08         0.00000E+00
    0.00000E+00         0.00000E+00        -0.68379E+08
 
   -0.68107E+08         0.22567E+07         0.00000E+00
    0.22567E+07        -0.97647E+08         0.00000E+00
    0.00000E+00         0.00000E+00        -0.68100E+08
 
   -0.67835E+08         0.22443E+07         0.00000E+00
    0.22443E+07        -0.97661E+08         0.00000E+00
    0.00000E+00         0.00000E+00        -0.67821E+08
 
   -0.67565E+08         0.22288E+07         0.00000E+00
    0.22288E+07        -0.97677E+08         0.00000E+00
    0.00000E+00         0.00000E+00        -0.67541E+08
 
   -0.67295E+08         0.22097E+07         0.00000E+00
    0.22097E+07        -0.97695E+08         0.00000E+00
    0.00000E+00         0.00000E+00        -0.67261E+08
 
   -0.67029E+08         0.21871E+07         0.00000E+00
    0.21871E+07        -0.97716E+08         0.00000E+00
    0.00000E+00         0.00000E+00        -0.66982E+08
 
   -0.66768E+08         0.21613E+07         0.00000E+00
    0.21613E+07        -0.97738E+08         0.00000E+00
    0.00000E+00         0.00000E+00        -0.66702E+08
 
   -0.66516E+08         0.21309E+07         0.00000E+00
    0.21309E+07        -0.97737E+08         0.00000E+00
    0.00000E+00         0.00000E+00        -0.66454E+08
 
   -0.66273E+08         0.21003E+07         0.00000E+00
    0.21003E+07        -0.97719E+08         0.00000E+00
    0.00000E+00         0.00000E+00        -0.66229E+08
 
   -0.66037E+08         0.20727E+07         0.00000E+00
    0.20727E+07        -0.97703E+08         0.00000E+00
    0.00000E+00         0.00000E+00        -0.66004E+08
 
   -0.65805E+08         0.20486E+07         0.00000E+00
    0.20486E+07        -0.97689E+08         0.00000E+00
    0.00000E+00         0.00000E+00        -0.65779E+08
 
   -0.65575E+08         0.20277E+07         0.00000E+00
    0.20277E+07        -0.97677E+08         0.00000E+00
    0.00000E+00         0.00000E+00        -0.65555E+08
 
   -0.65347E+08         0.20094E+07         0.00000E+00
    0.20094E+07        -0.97668E+08         0.00000E+00
    0.00000E+00         0.00000E+00        -0.65332E+08
 
   -0.65120E+08         0.19934E+07         0.00000E+00
    0.19934E+07        -0.97661E+08         0.00000E+00
    0.00000E+00         0.00000E+00        -0.65109E+08
 
   -0.64895E+08         0.19791E+07         0.00000E+00
    0.19791E+07        -0.97654E+08         0.00000E+00
    0.00000E+00         0.00000E+00        -0.64886E+08
 
   -0.64671E+08         0.19664E+07         0.00000E+00
    0.19664E+07        -0.97649E+08         0.00000E+00
    0.00000E+00         0.00000E+00        -0.64664E+08
 
   -0.64447E+08         0.19549E+07         0.00000E+00
    0.19549E+07        -0.97645E+08         0.00000E+00
    0.00000E+00         0.00000E+00        -0.64443E+08
 
   -0.64227E+08         0.19442E+07         0.00000E+00
    0.19442E+07        -0.97640E+08         0.00000E+00
    0.00000E+00         0.00000E+00        -0.64224E+08
 
   -0.64027E+08         0.19323E+07         0.00000E+00
    0.19323E+07        -0.97617E+08         0.00000E+00
    0.00000E+00         0.00000E+00        -0.64026E+08
 
   -0.63838E+08         0.19200E+07         0.00000E+00
    0.19200E+07        -0.97586E+08         0.00000E+00
    0.00000E+00         0.00000E+00        -0.63837E+08
 
   -0.63650E+08         0.19083E+07         0.00000E+00
    0.19083E+07        -0.97555E+08         0.00000E+00
    0.00000E+00         0.00000E+00        -0.63650E+08
 
   -0.63462E+08         0.18972E+07         0.00000E+00
    0.18972E+07        -0.97524E+08         0.00000E+00
    0.00000E+00         0.00000E+00        -0.63463E+08
 
   -0.63275E+08         0.18864E+07         0.00000E+00
    0.18864E+07        -0.97494E+08         0.00000E+00
    0.00000E+00         0.00000E+00        -0.63277E+08
 
   -0.63089E+08         0.18761E+07         0.00000E+00
    0.18761E+07        -0.97464E+08         0.00000E+00
    0.00000E+00         0.00000E+00        -0.63091E+08
 
   -0.62904E+08         0.18660E+07         0.00000E+00
    0.18660E+07        -0.97434E+08         0.00000E+00
    0.00000E+00         0.00000E+00        -0.62906E+08
 
   -0.62719E+08         0.18561E+07         0.00000E+00
    0.18561E+07        -0.97405E+08         0.00000E+00
    0.00000E+00         0.00000E+00        -0.62721E+08
 
   -0.62534E+08         0.18464E+07         0.00000E+00
    0.18464E+07        -0.97376E+08         0.00000E+00
    0.00000E+00         0.00000E+00        -0.62536E+08
 
   -0.62350E+08         0.18368E+07         0.00000E+00
    0.18368E+07        -0.97348E+08         0.00000E+00
    0.00000E+00         0.00000E+00        -0.62352E+08
 
   -0.62166E+08         0.18273E+07         0.00000E+00
    0.18273E+07        -0.97320E+08         0.00000E+00
    0.00000E+00         0.00000E+00        -0.62168E+08
 
   -0.61983E+08         0.18178E+07         0.00000E+00
    0.18178E+07        -0.97293E+08         0.00000E+00
    0.00000E+00         0.00000E+00        -0.61985E+08
 
   -0.61800E+08         0.18083E+07         0.00000E+00
    0.18083E+07        -0.97266E+08         0.00000E+00
    0.00000E+00         0.00000E+00        -0.61801E+08
 
   -0.61617E+08         0.17988E+07         0.00000E+00
    0.17988E+07        -0.97240E+08         0.00000E+00
    0.00000E+00         0.00000E+00        -0.61618E+08
 
   -0.61435E+08         0.17891E+07         0.00000E+00
    0.17891E+07        -0.97215E+08         0.00000E+00
    0.00000E+00         0.00000E+00        -0.61435E+08
 
   -0.61252E+08         0.17793E+07         0.00000E+00
    0.17793E+07        -0.97190E+08         0.00000E+00
    0.00000E+00         0.00000E+00        -0.61252E+08
 
   -0.61070E+08         0.17693E+07         0.00000E+00
    0.17693E+07        -0.97166E+08         0.00000E+00
    0.00000E+00         0.00000E+00        -0.61070E+08
 
   -0.60889E+08         0.17590E+07         0.00000E+00
    0.17590E+07        -0.97144E+08         0.00000E+00
    0.00000E+00         0.00000E+00        -0.60887E+08
 
   -0.60707E+08         0.17484E+07         0.00000E+00
    0.17484E+07        -0.97122E+08         0.00000E+00
    0.00000E+00         0.00000E+00        -0.60705E+08
 
   -0.60526E+08         0.17373E+07         0.00000E+00
    0.17373E+07        -0.97101E+08         0.00000E+00
    0.00000E+00         0.00000E+00        -0.60522E+08
 
   -0.60345E+08         0.17258E+07         0.00000E+00
    0.17258E+07        -0.97082E+08         0.00000E+00
    0.00000E+00         0.00000E+00        -0.60340E+08
 
   -0.60164E+08         0.17137E+07         0.00000E+00
    0.17137E+07        -0.97063E+08         0.00000E+00
    0.00000E+00         0.00000E+00        -0.60157E+08
 
   -0.59983E+08         0.17009E+07         0.00000E+00
    0.17009E+07        -0.97046E+08         0.00000E+00
    0.00000E+00         0.00000E+00        -0.59975E+08
 
   -0.59803E+08         0.16873E+07         0.00000E+00
    0.16873E+07        -0.97031E+08         0.00000E+00
    0.00000E+00         0.00000E+00        -0.59792E+08
 
   -0.59623E+08         0.16728E+07         0.00000E+00
    0.16728E+07        -0.97017E+08         0.00000E+00
    0.00000E+00         0.00000E+00        -0.59610E+08
 
   -0.59444E+08         0.16572E+07         0.00000E+00
    0.16572E+07        -0.97006E+08         0.00000E+00
    0.00000E+00         0.00000E+00        -0.59428E+08
 
   -0.59265E+08         0.16403E+07         0.00000E+00
    0.16403E+07        -0.96996E+08         0.00000E+00
    0.00000E+00         0.00000E+00        -0.59246E+08
 
   -0.59086E+08         0.16219E+07         0.00000E+00
    0.16219E+07        -0.96989E+08         0.00000E+00
    0.00000E+00         0.00000E+00        -0.59064E+08
 
   -0.58909E+08         0.16019E+07         0.00000E+00
    0.16019E+07        -0.96984E+08         0.00000E+00
    0.00000E+00         0.00000E+00        -0.58882E+08
 
   -0.58732E+08         0.15800E+07         0.00000E+00
    0.15800E+07        -0.96982E+08         0.00000E+00
    0.00000E+00         0.00000E+00        -0.58701E+08
 
   -0.58556E+08         0.15560E+07         0.00000E+00
    0.15560E+07        -0.96983E+08         0.00000E+00
    0.00000E+00         0.00000E+00        -0.58520E+08
 
   -0.58382E+08         0.15295E+07         0.00000E+00
    0.15295E+07        -0.96988E+08         0.00000E+00
    0.00000E+00         0.00000E+00        -0.58339E+08
 
   -0.58208E+08         0.15004E+07         0.00000E+00
    0.15004E+07        -0.96996E+08         0.00000E+00
    0.00000E+00         0.00000E+00        -0.58159E+08
 
   -0.58036E+08         0.14683E+07         0.00000E+00
    0.14683E+07        -0.97008E+08         0.00000E+00
    0.00000E+00         0.00000E+00        -0.57980E+08
 
   -0.57865E+08         0.14331E+07         0.00000E+00
    0.14331E+07        -0.97025E+08         0.00000E+00
    0.00000E+00         0.00000E+00        -0.57802E+08
 
   -0.57696E+08         0.13945E+07         0.00000E+00
    0.13945E+07        -0.97046E+08         0.00000E+00
    0.00000E+00         0.00000E+00        -0.57625E+08
 
   -0.57529E+08         0.13523E+07         0.00000E+00
    0.13523E+07        -0.97071E+08         0.00000E+00
    0.00000E+00         0.00000E+00        -0.57449E+08
 
   -0.57362E+08         0.13065E+07         0.00000E+00
    0.13065E+07        -0.97102E+08         0.00000E+00
    0.00000E+00         0.00000E+00        -0.57274E+08
 
   -0.57197E+08         0.12570E+07         0.00000E+00
    0.12570E+07        -0.97136E+08         0.00000E+00
    0.00000E+00         0.00000E+00        -0.57101E+08
 
   -0.57033E+08         0.12041E+07         0.00000E+00
    0.12041E+07        -0.97174E+08         0.00000E+00
    0.00000E+00         0.00000E+00        -0.56929E+08
 
   -0.56870E+08         0.11478E+07         0.00000E+00
    0.11478E+07        -0.97215E+08         0.00000E+00
    0.00000E+00         0.00000E+00        -0.56758E+08
 
   -0.56706E+08         0.10886E+07         0.00000E+00
    0.10886E+07        -0.97257E+08         0.00000E+00
    0.00000E+00         0.00000E+00        -0.56587E+08
 
   -0.56541E+08         0.10267E+07         0.00000E+00
    0.10267E+07        -0.97299E+08         0.00000E+00
    0.00000E+00         0.00000E+00        -0.56416E+08
 
   -0.56374E+08         0.96232E+06         0.00000E+00
    0.96232E+06        -0.97337E+08         0.00000E+00
    0.00000E+00         0.00000E+00        -0.56243E+08
 
   -0.56205E+08         0.89545E+06         0.00000E+00
    0.89545E+06        -0.97369E+08         0.00000E+00
    0.00000E+00         0.00000E+00        -0.56066E+08
 
   -0.56032E+08         0.82529E+06         0.00000E+00
    0.82529E+06        -0.97390E+08         0.00000E+00
    0.00000E+00         0.00000E+00        -0.55883E+08
 
   -0.55855E+08         0.74988E+06         0.00000E+00
    0.74988E+06        -0.97398E+08         0.00000E+00
    0.00000E+00         0.00000E+00        -0.55690E+08
 
   -0.55675E+08         0.66552E+06         0.00000E+00
    0.66552E+06        -0.97387E+08         0.00000E+00
    0.00000E+00         0.00000E+00        -0.55482E+08
 
   -0.55493E+08         0.56632E+06         0.00000E+00
    0.56632E+06        -0.97353E+08         0.00000E+00
    0.00000E+00         0.00000E+00        -0.55254E+08
 
   -0.55313E+08         0.44087E+06         0.00000E+00
    0.44087E+06        -0.97288E+08         0.00000E+00
    0.00000E+00         0.00000E+00        -0.54996E+08
 
   -0.55149E+08         0.27952E+06         0.00000E+00
    0.27952E+06        -0.97181E+08         0.00000E+00
    0.00000E+00         0.00000E+00        -0.54684E+08
 
   -0.55041E+08         0.94702E+05         0.00000E+00
    0.94702E+05        -0.97047E+08         0.00000E+00
    0.00000E+00         0.00000E+00        -0.54295E+08
 
   -0.77227E+08         0.14711E+06         0.00000E+00
    0.14711E+06        -0.97501E+08         0.00000E+00
    0.00000E+00         0.00000E+00        -0.78463E+08
 
   -0.77094E+08         0.43380E+06         0.00000E+00
    0.43380E+06        -0.97179E+08         0.00000E+00
    0.00000E+00         0.00000E+00        -0.78049E+08
 
   -0.76862E+08         0.69775E+06         0.00000E+00
    0.69775E+06        -0.96954E+08         0.00000E+00
    0.00000E+00         0.00000E+00        -0.77635E+08
 
   -0.76570E+08         0.93152E+06         0.00000E+00
    0.93152E+06        -0.96813E+08         0.00000E+00
    0.00000E+00         0.00000E+00        -0.77221E+08
 
   -0.76244E+08         0.11387E+07         0.00000E+00
    0.11387E+07        -0.96738E+08         0.00000E+00
    0.00000E+00         0.00000E+00        -0.76809E+08
 
   -0.75900E+08         0.13248E+07         0.00000E+00
    0.13248E+07        -0.96712E+08         0.00000E+00
    0.00000E+00         0.00000E+00        -0.76397E+08
 
   -0.75546E+08         0.14929E+07         0.00000E+00
    0.14929E+07        -0.96722E+08         0.00000E+00
    0.00000E+00         0.00000E+00        -0.75985E+08
 
   -0.75186E+08         0.16447E+07         0.00000E+00
    0.16447E+07        -0.96758E+08         0.00000E+00
    0.00000E+00         0.00000E+00        -0.75576E+08
 
   -0.74824E+08         0.17809E+07         0.00000E+00
    0.17809E+07        -0.96813E+08         0.00000E+00
    0.00000E+00         0.00000E+00        -0.75167E+08
 
   -0.74462E+08         0.19015E+07         0.00000E+00
    0.19015E+07        -0.96881E+08         0.00000E+00
    0.00000E+00         0.00000E+00        -0.74760E+08
 
   -0.74101E+08         0.20064E+07         0.00000E+00
    0.20064E+07        -0.96959E+08         0.00000E+00
    0.00000E+00         0.00000E+00        -0.74354E+08
 
   -0.73743E+08         0.20950E+07         0.00000E+00
    0.20950E+07        -0.97044E+08         0.00000E+00
    0.00000E+00         0.00000E+00        -0.73951E+08
 
   -0.73388E+08         0.21668E+07         0.00000E+00
    0.21668E+07        -0.97136E+08         0.00000E+00
    0.00000E+00         0.00000E+00        -0.73549E+08
 
   -0.73039E+08         0.22208E+07         0.00000E+00
    0.22208E+07        -0.97236E+08         0.00000E+00
    0.00000E+00         0.00000E+00        -0.73148E+08
 
   -0.72698E+08         0.22548E+07         0.00000E+00
    0.22548E+07        -0.97346E+08         0.00000E+00
    0.00000E+00         0.00000E+00        -0.72751E+08
 
   -0.72373E+08         0.22630E+07         0.00000E+00
    0.22630E+07        -0.97463E+08         0.00000E+00
    0.00000E+00         0.00000E+00        -0.72355E+08
 
   -0.72066E+08         0.22567E+07         0.00000E+00
    0.22567E+07        -0.97538E+08         0.00000E+00
    0.00000E+00         0.00000E+00        -0.72036E+08
 
   -0.71786E+08         0.22503E+07         0.00000E+00
    0.22503E+07        -0.97556E+08         0.00000E+00
    0.00000E+00         0.00000E+00        -0.71801E+08
 
   -0.71523E+08         0.22396E+07         0.00000E+00
    0.22396E+07        -0.97565E+08         0.00000E+00
    0.00000E+00         0.00000E+00        -0.71560E+08
 
   -0.71266E+08         0.22322E+07         0.00000E+00
    0.22322E+07        -0.97568E+08         0.00000E+00
    0.00000E+00         0.00000E+00        -0.71313E+08
 
   -0.71009E+08         0.22283E+07         0.00000E+00
    0.22283E+07        -0.97572E+08         0.00000E+00
    0.00000E+00         0.00000E+00        -0.71060E+08
 
   -0.70752E+08         0.22268E+07         0.00000E+00
    0.22268E+07        -0.97575E+08         0.00000E+00
    0.00000E+00         0.00000E+00        -0.70803E+08
 
   -0.70493E+08         0.22269E+07         0.00000E+00
    0.22269E+07        -0.97580E+08         0.00000E+00
    0.00000E+00         0.00000E+00        -0.70542E+08
 
   -0.70232E+08         0.22277E+07         0.00000E+00
    0.22277E+07        -0.97584E+08         0.00000E+00
    0.00000E+00         0.00000E+00        -0.70277E+08
 
   -0.69969E+08         0.22287E+07         0.00000E+00
    0.22287E+07        -0.97590E+08         0.00000E+00
    0.00000E+00         0.00000E+00        -0.70010E+08
 
   -0.69704E+08         0.22292E+07         0.00000E+00
    0.22292E+07        -0.97596E+08         0.00000E+00
    0.00000E+00         0.00000E+00        -0.69739E+08
 
   -0.69438E+08         0.22288E+07         0.00000E+00
    0.22288E+07        -0.97602E+08         0.00000E+00
    0.00000E+00         0.00000E+00        -0.69467E+08
 
   -0.69170E+08         0.22273E+07         0.00000E+00
    0.22273E+07        -0.97609E+08         0.00000E+00
    0.00000E+00         0.00000E+00        -0.69193E+08
 
   -0.68902E+08         0.22242E+07         0.00000E+00
    0.22242E+07        -0.97616E+08         0.00000E+00
    0.00000E+00         0.00000E+00        -0.68917E+08
 
   -0.68633E+08         0.22193E+07         0.00000E+00
    0.22193E+07        -0.97625E+08         0.00000E+00
    0.00000E+00         0.00000E+00        -0.68641E+08
 
   -0.68363E+08         0.22122E+07         0.00000E+00
    0.22122E+07        -0.97634E+08         0.00000E+00
    0.00000E+00         0.00000E+00        -0.68363E+08
 
   -0.68093E+08         0.22026E+07         0.00000E+00
    0.22026E+07        -0.97645E+08         0.00000E+00
    0.00000E+00         0.00000E+00        -0.68085E+08
 
   -0.67824E+08         0.21903E+07         0.00000E+00
    0.21903E+07        -0.97658E+08         0.00000E+00
    0.00000E+00         0.00000E+00        -0.67806E+08
 
   -0.67555E+08         0.21750E+07         0.00000E+00
    0.21750E+07        -0.97673E+08         0.00000E+00
    0.00000E+00         0.00000E+00        -0.67527E+08
 
   -0.67288E+08         0.21563E+07         0.00000E+00
    0.21563E+07        -0.97691E+08         0.00000E+00
    0.00000E+00         0.00000E+00        -0.67248E+08
 
   -0.67023E+08         0.21344E+07         0.00000E+00
    0.21344E+07        -0.97711E+08         0.00000E+00
    0.00000E+00         0.00000E+00        -0.66969E+08
 
   -0.66765E+08         0.21103E+07         0.00000E+00
    0.21103E+07        -0.97733E+08         0.00000E+00
    0.00000E+00         0.00000E+00        -0.66690E+08
 
   -0.66514E+08         0.20814E+07         0.00000E+00
    0.20814E+07        -0.97731E+08         0.00000E+00
    0.00000E+00         0.00000E+00        -0.66444E+08
 
   -0.66270E+08         0.20524E+07         0.00000E+00
    0.20524E+07        -0.97713E+08         0.00000E+00
    0.00000E+00         0.00000E+00        -0.66219E+08
 
   -0.66033E+08         0.20258E+07         0.00000E+00
    0.20258E+07        -0.97697E+08         0.00000E+00
    0.00000E+00         0.00000E+00        -0.65994E+08
 
   -0.65800E+08         0.20024E+07         0.00000E+00
    0.20024E+07        -0.97684E+08         0.00000E+00
    0.00000E+00         0.00000E+00        -0.65770E+08
 
   -0.65570E+08         0.19819E+07         0.00000E+00
    0.19819E+07        -0.97674E+08         0.00000E+00
    0.00000E+00         0.00000E+00        -0.65546E+08
 
   -0.65341E+08         0.19639E+07         0.00000E+00
    0.19639E+07        -0.97665E+08         0.00000E+00
    0.00000E+00         0.00000E+00        -0.65323E+08
 
   -0.65115E+08         0.19481E+07         0.00000E+00
    0.19481E+07        -0.97658E+08         0.00000E+00
    0.00000E+00         0.00000E+00        -0.65101E+08
 
   -0.64889E+08         0.19341E+07         0.00000E+00
    0.19341E+07        -0.97652E+08         0.00000E+00
    0.00000E+00         0.00000E+00        -0.64879E+08
 
   -0.64665E+08         0.19216E+07         0.00000E+00
    0.19216E+07        -0.97647E+08         0.00000E+00
    0.00000E+00         0.00000E+00        -0.64657E+08
 
   -0.64441E+08         0.19104E+07         0.00000E+00
    0.19104E+07        -0.97643E+08         0.00000E+00
    0.00000E+00         0.00000E+00        -0.64436E+08
 
   -0.64222E+08         0.18999E+07         0.00000E+00
    0.18999E+07        -0.97638E+08         0.00000E+00
    0.00000E+00         0.00000E+00        -0.64218E+08
 
   -0.64022E+08         0.18882E+07         0.00000E+00
    0.18882E+07        -0.97616E+08         0.00000E+00
    0.00000E+00         0.00000E+00        -0.64020E+08
 
   -0.63832E+08         0.18761E+07         0.00000E+00
    0.18761E+07        -0.97584E+08         0.00000E+00
    0.00000E+00         0.00000E+00        -0.63832E+08
 
   -0.63644E+08         0.18647E+07         0.00000E+00
    0.18647E+07        -0.97554E+08         0.00000E+00
    0.00000E+00         0.00000E+00        -0.63644E+08
 
   -0.63457E+08         0.18538E+07         0.00000E+00
    0.18538E+07        -0.97523E+08         0.00000E+00
    0.00000E+00         0.00000E+00        -0.63458E+08
 
   -0.63270E+08         0.18433E+07         0.00000E+00
    0.18433E+07        -0.97493E+08         0.00000E+00
    0.00000E+00         0.00000E+00        -0.63272E+08
 
   -0.63084E+08         0.18331E+07         0.00000E+00
    0.18331E+07        -0.97463E+08         0.00000E+00
    0.00000E+00         0.00000E+00        -0.63086E+08
 
   -0.62899E+08         0.18233E+07         0.00000E+00
    0.18233E+07        -0.97434E+08         0.00000E+00
    0.00000E+00         0.00000E+00        -0.62901E+08
 
   -0.62714E+08         0.18136E+07         0.00000E+00
    0.18136E+07        -0.97405E+08         0.00000E+00
    0.00000E+00         0.00000E+00        -0.62716E+08
 
   -0.62529E+08         0.18041E+07         0.00000E+00
    0.18041E+07        -0.97376E+08         0.00000E+00
    0.00000E+00         0.00000E+00        -0.62532E+08
 
   -0.62346E+08         0.17948E+07         0.00000E+00
    0.17948E+07        -0.97348E+08         0.00000E+00
    0.00000E+00         0.00000E+00        -0.62348E+08
 
   -0.62162E+08         0.17855E+07         0.00000E+00
    0.17855E+07        -0.97320E+08         0.00000E+00
    0.00000E+00         0.00000E+00        -0.62164E+08
 
   -0.61979E+08         0.17763E+07         0.00000E+00
    0.17763E+07        -0.97293E+08         0.00000E+00
    0.00000E+00         0.00000E+00        -0.61981E+08
 
   -0.61796E+08         0.17670E+07         0.00000E+00
    0.17670E+07        -0.97266E+08         0.00000E+00
    0.00000E+00         0.00000E+00        -0.61798E+08
 
   -0.61613E+08         0.17577E+07         0.00000E+00
    0.17577E+07        -0.97240E+08         0.00000E+00
    0.00000E+00         0.00000E+00        -0.61614E+08
 
   -0.61431E+08         0.17482E+07         0.00000E+00
    0.17482E+07        -0.97215E+08         0.00000E+00
    0.00000E+00         0.00000E+00        -0.61432E+08
 
   -0.61249E+08         0.17387E+07         0.00000E+00
    0.17387E+07        -0.97191E+08         0.00000E+00
    0.00000E+00         0.00000E+00        -0.61249E+08
 
   -0.61067E+08         0.17289E+07         0.00000E+00
    0.17289E+07        -0.97167E+08         0.00000E+00
    0.00000E+00         0.00000E+00        -0.61066E+08
 
   -0.60885E+08         0.17188E+07         0.00000E+00
    0.17188E+07        -0.97144E+08         0.00000E+00
    0.00000E+00         0.00000E+00        -0.60884E+08
 
   -0.60704E+08         0.17084E+07         0.00000E+00
    0.17084E+07        -0.97122E+08         0.00000E+00
    0.00000E+00         0.00000E+00        -0.60701E+08
 
   -0.60523E+08         0.16977E+07         0.00000E+00
    0.16977E+07        -0.97101E+08         0.00000E+00
    0.00000E+00         0.00000E+00        -0.60518E+08
 
   -0.60342E+08         0.16864E+07         0.00000E+00
    0.16864E+07        -0.97082E+08         0.00000E+00
    0.00000E+00         0.00000E+00        -0.60336E+08
 
   -0.60161E+08         0.16746E+07         0.00000E+00
    0.16746E+07        -0.97064E+08         0.00000E+00
    0.00000E+00         0.00000E+00        -0.60153E+08
 
   -0.59981E+08         0.16621E+07         0.00000E+00
    0.16621E+07        -0.97047E+08         0.00000E+00
    0.00000E+00         0.00000E+00        -0.59971E+08
 
   -0.59800E+08         0.16488E+07         0.00000E+00
    0.16488E+07        -0.97031E+08         0.00000E+00
    0.00000E+00         0.00000E+00        -0.59788E+08
 
   -0.59621E+08         0.16346E+07         0.00000E+00
    0.16346E+07        -0.97017E+08         0.00000E+00
    0.00000E+00         0.00000E+00        -0.59606E+08
 
   -0.59441E+08         0.16193E+07         0.00000E+00
    0.16193E+07        -0.97005E+08         0.00000E+00
    0.00000E+00         0.00000E+00        -0.59423E+08
 
   -0.59263E+08         0.16028E+07         0.00000E+00
    0.16028E+07        -0.96995E+08         0.00000E+00
    0.00000E+00         0.00000E+00        -0.59241E+08
 
   -0.59085E+08         0.15849E+07         0.00000E+00
    0.15849E+07        -0.96988E+08         0.00000E+00
    0.00000E+00         0.00000E+00        -0.59058E+08
 
   -0.58907E+08         0.15653E+07         0.00000E+00
    0.15653E+07        -0.96982E+08         0.00000E+00
    0.00000E+00         0.00000E+00        -0.58876E+08
 
   -0.58731E+08         0.15439E+07         0.00000E+00
    0.15439E+07        -0.96980E+08         0.00000E+00
    0.00000E+00         0.00000E+00        -0.58694E+08
 
   -0.58555E+08         0.15203E+07         0.00000E+00
    0.15203E+07        -0.96980E+08         0.00000E+00
    0.00000E+00         0.00000E+00        -0.58513E+08
 
   -0.58381E+08         0.14944E+07         0.00000E+00
    0.14944E+07        -0.96984E+08         0.00000E+00
    0.00000E+00         0.00000E+00        -0.58331E+08
 
   -0.58208E+08         0.14658E+07         0.00000E+00
    0.14658E+07        -0.96992E+08         0.00000E+00
    0.00000E+00         0.00000E+00        -0.58151E+08
 
   -0.58036E+08         0.14344E+07         0.00000E+00
    0.14344E+07        -0.97003E+08         0.00000E+00
    0.00000E+00         0.00000E+00        -0.57971E+08
 
   -0.57866E+08         0.13997E+07         0.00000E+00
    0.13997E+07        -0.97019E+08         0.00000E+00
    0.00000E+00         0.00000E+00        -0.57791E+08
 
   -0.57697E+08         0.13617E+07         0.00000E+00
    0.13617E+07        -0.97039E+08         0.00000E+00
    0.00000E+00         0.00000E+00        -0.57613E+08
 
   -0.57530E+08         0.13201E+07         0.00000E+00
    0.13201E+07        -0.97064E+08         0.00000E+00
    0.00000E+00         0.00000E+00        -0.57436E+08
 
   -0.57364E+08         0.12749E+07         0.00000E+00
    0.12749E+07        -0.97093E+08         0.00000E+00
    0.00000E+00         0.00000E+00        -0.57260E+08
 
   -0.57200E+08         0.12259E+07         0.00000E+00
    0.12259E+07        -0.97126E+08         0.00000E+00
    0.00000E+00         0.00000E+00        -0.57086E+08
 
   -0.57036E+08         0.11734E+07         0.00000E+00
    0.11734E+07        -0.97164E+08         0.00000E+00
    0.00000E+00         0.00000E+00        -0.56912E+08
 
   -0.56873E+08         0.11173E+07         0.00000E+00
    0.11173E+07        -0.97204E+08         0.00000E+00
    0.00000E+00         0.00000E+00        -0.56740E+08
 
   -0.56710E+08         0.10582E+07         0.00000E+00
    0.10582E+07        -0.97245E+08         0.00000E+00
    0.00000E+00         0.00000E+00        -0.56568E+08
 
   -0.56546E+08         0.99611E+06         0.00000E+00
    0.99611E+06        -0.97285E+08         0.00000E+00
    0.00000E+00         0.00000E+00        -0.56396E+08
 
   -0.56380E+08         0.93140E+06         0.00000E+00
    0.93140E+06        -0.97323E+08         0.00000E+00
    0.00000E+00         0.00000E+00        -0.56222E+08
 
   -0.56211E+08         0.86395E+06         0.00000E+00
    0.86395E+06        -0.97354E+08         0.00000E+00
    0.00000E+00         0.00000E+00        -0.56043E+08
 
   -0.56039E+08         0.79302E+06         0.00000E+00
    0.79302E+06        -0.97374E+08         0.00000E+00
    0.00000E+00         0.00000E+00        -0.55858E+08
 
   -0.55863E+08         0.71674E+06         0.00000E+00
    0.71674E+06        -0.97380E+08         0.00000E+00
    0.00000E+00         0.00000E+00        -0.55663E+08
 
   -0.55685E+08         0.63165E+06         0.00000E+00
    0.63165E+06        -0.97366E+08         0.00000E+00
    0.00000E+00         0.00000E+00        -0.55451E+08
 
   -0.55506E+08         0.53183E+06         0.00000E+00
    0.53183E+06        -0.97328E+08         0.00000E+00
    0.00000E+00         0.00000E+00        -0.55217E+08
 
   -0.55331E+08         0.40728E+06         0.00000E+00
    0.40728E+06        -0.97257E+08         0.00000E+00
    0.00000E+00         0.00000E+00        -0.54948E+08
 
   -0.55177E+08         0.25364E+06         0.00000E+00
    0.25364E+06        -0.97146E+08         0.00000E+00
    0.00000E+00         0.00000E+00        -0.54623E+08
 
   -0.55081E+08         0.85003E+05         0.00000E+00
    0.85003E+05        -0.97011E+08         0.00000E+00
    0.00000E+00         0.00000E+00        -0.54223E+08
 
   -0.77078E+08         0.13408E+06         0.00000E+00
    0.13408E+06        -0.97557E+08         0.00000E+00
    0.00000E+00         0.00000E+00        -0.78463E+08
 
   -0.76959E+08         0.39767E+06         0.00000E+00
    0.39767E+06        -0.97233E+08         0.00000E+00
    0.00000E+00         0.00000E+00        -0.78049E+08
 
   -0.76744E+08         0.64567E+06         0.00000E+00
    0.64567E+06        -0.97002E+08         0.00000E+00
    0.00000E+00         0.00000E+00        -0.77635E+08
 
   -0.76467E+08         0.87033E+06         0.00000E+00
    0.87033E+06        -0.96856E+08         0.00000E+00
    0.00000E+00         0.00000E+00        -0.77221E+08
 
   -0.76154E+08         0.10724E+07         0.00000E+00
    0.10724E+07        -0.96777E+08         0.00000E+00
    0.00000E+00         0.00000E+00        -0.76809E+08
 
   -0.75821E+08         0.12556E+07         0.00000E+00
    0.12556E+07        -0.96747E+08         0.00000E+00
    0.00000E+00         0.00000E+00        -0.76397E+08
 
   -0.75476E+08         0.14222E+07         0.00000E+00
    0.14222E+07        -0.96754E+08         0.00000E+00
    0.00000E+00         0.00000E+00        -0.75985E+08
 
   -0.75124E+08         0.15732E+07         0.00000E+00
    0.15732E+07        -0.96787E+08         0.00000E+00
    0.00000E+00         0.00000E+00        -0.75576E+08
 
   -0.74770E+08         0.17091E+07         0.00000E+00
    0.17091E+07        -0.96838E+08         0.00000E+00
    0.00000E+00         0.00000E+00        -0.75167E+08
 
   -0.74415E+08         0.18298E+07         0.00000E+00
    0.18298E+07        -0.96903E+08         0.00000E+00
    0.00000E+00         0.00000E+00        -0.74760E+08
 
   -0.74061E+08         0.19350E+07         0.00000E+00
    0.19350E+07        -0.96978E+08         0.00000E+00
    0.00000E+00         0.00000E+00        -0.74354E+08
 
   -0.73709E+08         0.20243E+07         0.00000E+00
    0.20243E+07        -0.97060E+08         0.00000E+00
    0.00000E+00         0.00000E+00        -0.73951E+08
 
   -0.73361E+08         0.20970E+07         0.00000E+00
    0.20970E+07        -0.97149E+08         0.00000E+00
    0.00000E+00         0.00000E+00        -0.73549E+08
 
   -0.73018E+08         0.21524E+07         0.00000E+00
    0.21524E+07        -0.97245E+08         0.00000E+00
    0.00000E+00         0.00000E+00        -0.73148E+08
 
   -0.72683E+08         0.21882E+07         0.00000E+00
    0.21882E+07        -0.97351E+08         0.00000E+00
    0.00000E+00         0.00000E+00        -0.72751E+08
 
   -0.72362E+08         0.22006E+07         0.00000E+00
    0.22006E+07        -0.97462E+08         0.00000E+00
    0.00000E+00         0.00000E+00        -0.72355E+08
 
   -0.72054E+08         0.21967E+07         0.00000E+00
    0.21967E+07        -0.97538E+08         0.00000E+00
    0.00000E+00         0.00000E+00        -0.72026E+08
 
   -0.71772E+08         0.21964E+07         0.00000E+00
    0.21964E+07        -0.97554E+08         0.00000E+00
    0.00000E+00         0.00000E+00        -0.71788E+08
 
   -0.71505E+08         0.21875E+07         0.00000E+00
    0.21875E+07        -0.97563E+08         0.00000E+00
    0.00000E+00         0.00000E+00        -0.71545E+08
 
   -0.71246E+08         0.21808E+07         0.00000E+00
    0.21808E+07        -0.97567E+08         0.00000E+00
    0.00000E+00         0.00000E+00        -0.71297E+08
 
   -0.70988E+08         0.21769E+07         0.00000E+00
    0.21769E+07        -0.97571E+08         0.00000E+00
    0.00000E+00         0.00000E+00        -0.71044E+08
 
   -0.70730E+08         0.21752E+07         0.00000E+00
    0.21752E+07        -0.97575E+08         0.00000E+00
    0.00000E+00         0.00000E+00        -0.70786E+08
 
   -0.70471E+08         0.21749E+07         0.00000E+00
    0.21749E+07        -0.97580E+08         0.00000E+00
    0.00000E+00         0.00000E+00        -0.70525E+08
 
   -0.70210E+08         0.21754E+07         0.00000E+00
    0.21754E+07        -0.97585E+08         0.00000E+00
    0.00000E+00         0.00000E+00        -0.70260E+08
 
   -0.69947E+08         0.21759E+07         0.00000E+00
    0.21759E+07        -0.97590E+08         0.00000E+00
    0.00000E+00         0.00000E+00        -0.69992E+08
 
   -0.69683E+08         0.21761E+07         0.00000E+00
    0.21761E+07        -0.97596E+08         0.00000E+00
    0.00000E+00         0.00000E+00        -0.69722E+08
 
   -0.69418E+08         0.21756E+07         0.00000E+00
    0.21756E+07        -0.97602E+08         0.00000E+00
    0.00000E+00         0.00000E+00        -0.69450E+08
 
   -0.69152E+08         0.21738E+07         0.00000E+00
    0.21738E+07        -0.97609E+08         0.00000E+00
    0.00000E+00         0.00000E+00        -0.69176E+08
 
   -0.68884E+08         0.21706E+07         0.00000E+00
    0.21706E+07        -0.97616E+08         0.00000E+00
    0.00000E+00         0.00000E+00        -0.68901E+08
 
   -0.68616E+08         0.21655E+07         0.00000E+00
    0.21655E+07        -0.97624E+08         0.00000E+00
    0.00000E+00         0.00000E+00        -0.68625E+08
 
   -0.68348E+08         0.21584E+07         0.00000E+00
    0.21584E+07        -0.97633E+08         0.00000E+00
    0.00000E+00         0.00000E+00        -0.68347E+08
 
   -0.68080E+08         0.21489E+07         0.00000E+00
    0.21489E+07        -0.97643E+08         0.00000E+00
    0.00000E+00         0.00000E+00        -0.68070E+08
 
   -0.67812E+08         0.21367E+07         0.00000E+00
    0.21367E+07        -0.97655E+08         0.00000E+00
    0.00000E+00         0.00000E+00        -0.67792E+08
 
   -0.67545E+08         0.21215E+07         0.00000E+00
    0.21215E+07        -0.97670E+08         0.00000E+00
    0.00000E+00         0.00000E+00        -0.67513E+08
 
   -0.67280E+08         0.21033E+07         0.00000E+00
    0.21033E+07        -0.97687E+08         0.00000E+00
    0.00000E+00         0.00000E+00        -0.67235E+08
 
   -0.67018E+08         0.20822E+07         0.00000E+00
    0.20822E+07        -0.97707E+08         0.00000E+00
    0.00000E+00         0.00000E+00        -0.66956E+08
 
   -0.66761E+08         0.20594E+07         0.00000E+00
    0.20594E+07        -0.97728E+08         0.00000E+00
    0.00000E+00         0.00000E+00        -0.66679E+08
 
   -0.66511E+08         0.20319E+07         0.00000E+00
    0.20319E+07        -0.97725E+08         0.00000E+00
    0.00000E+00         0.00000E+00        -0.66433E+08
 
   -0.66267E+08         0.20044E+07         0.00000E+00
    0.20044E+07        -0.97707E+08         0.00000E+00
    0.00000E+00         0.00000E+00        -0.66209E+08
 
   -0.66029E+08         0.19788E+07         0.00000E+00
    0.19788E+07        -0.97693E+08         0.00000E+00
    0.00000E+00         0.00000E+00        -0.65985E+08
 
   -0.65796E+08         0.19560E+07         0.00000E+00
    0.19560E+07        -0.97680E+08         0.00000E+00
    0.00000E+00         0.00000E+00        -0.65761E+08
 
   -0.65565E+08         0.19360E+07         0.00000E+00
    0.19360E+07        -0.97670E+08         0.00000E+00
    0.00000E+00         0.00000E+00        -0.65538E+08
 
   -0.65336E+08         0.19184E+07         0.00000E+00
    0.19184E+07        -0.97661E+08         0.00000E+00
    0.00000E+00         0.00000E+00        -0.65315E+08
 
   -0.65109E+08         0.19029E+07         0.00000E+00
    0.19029E+07        -0.97655E+08         0.00000E+00
    0.00000E+00         0.00000E+00        -0.65093E+08
 
   -0.64883E+08         0.18891E+07         0.00000E+00
    0.18891E+07        -0.97649E+08         0.00000E+00
    0.00000E+00         0.00000E+00        -0.64871E+08
 
   -0.64659E+08         0.18769E+07         0.00000E+00
    0.18769E+07        -0.97645E+08         0.00000E+00
    0.00000E+00         0.00000E+00        -0.64650E+08
 
   -0.64436E+08         0.18658E+07         0.00000E+00
    0.18658E+07        -0.97641E+08         0.00000E+00
    0.00000E+00         0.00000E+00        -0.64429E+08
 
   -0.64216E+08         0.18555E+07         0.00000E+00
    0.18555E+07        -0.97636E+08         0.00000E+00
    0.00000E+00         0.00000E+00        -0.64212E+08
 
   -0.64016E+08         0.18441E+07         0.00000E+00
    0.18441E+07        -0.97614E+08         0.00000E+00
    0.00000E+00         0.00000E+00        -0.64014E+08
 
   -0.63827E+08         0.18323E+07         0.00000E+00
    0.18323E+07        -0.97583E+08         0.00000E+00
    0.00000E+00         0.00000E+00        -0.63826E+08
 
   -0.63639E+08         0.18211E+07         0.00000E+00
    0.18211E+07        -0.97552E+08         0.00000E+00
    0.00000E+00         0.00000E+00        -0.63639E+08
 
   -0.63452E+08         0.18104E+07         0.00000E+00
    0.18104E+07        -0.97522E+08         0.00000E+00
    0.00000E+00         0.00000E+00        -0.63453E+08
 
   -0.63265E+08         0.18002E+07         0.00000E+00
    0.18002E+07        -0.97492E+08         0.00000E+00
    0.00000E+00         0.00000E+00        -0.63267E+08
 
   -0.63079E+08         0.17903E+07         0.00000E+00
    0.17903E+07        -0.97462E+08         0.00000E+00
    0.00000E+00         0.00000E+00        -0.63082E+08
 
   -0.62894E+08         0.17806E+07         0.00000E+00
    0.17806E+07        -0.97433E+08         0.00000E+00
    0.00000E+00         0.00000E+00        -0.62897E+08
 
   -0.62709E+08         0.17712E+07         0.00000E+00
    0.17712E+07        -0.97404E+08         0.00000E+00
    0.00000E+00         0.00000E+00        -0.62712E+08
 
   -0.62525E+08         0.17620E+07         0.00000E+00
    0.17620E+07        -0.97376E+08         0.00000E+00
    0.00000E+00         0.00000E+00        -0.62528E+08
 
   -0.62341E+08         0.17528E+07         0.00000E+00
    0.17528E+07        -0.97347E+08         0.00000E+00
    0.00000E+00         0.00000E+00        -0.62344E+08
 
   -0.62158E+08         0.17438E+07         0.00000E+00
    0.17438E+07        -0.97320E+08         0.00000E+00
    0.00000E+00         0.00000E+00        -0.62160E+08
 
   -0.61975E+08         0.17347E+07         0.00000E+00
    0.17347E+07        -0.97293E+08         0.00000E+00
    0.00000E+00         0.00000E+00        -0.61977E+08
 
   -0.61792E+08         0.17257E+07         0.00000E+00
    0.17257E+07        -0.97266E+08         0.00000E+00
    0.00000E+00         0.00000E+00        -0.61794E+08
 
   -0.61609E+08         0.17166E+07         0.00000E+00
    0.17166E+07        -0.97241E+08         0.00000E+00
    0.00000E+00         0.00000E+00        -0.61611E+08
 
   -0.61427E+08         0.17074E+07         0.00000E+00
    0.17074E+07        -0.97215E+08         0.00000E+00
    0.00000E+00         0.00000E+00        -0.61428E+08
 
   -0.61245E+08         0.16980E+07         0.00000E+00
    0.16980E+07        -0.97191E+08         0.00000E+00
    0.00000E+00         0.00000E+00        -0.61245E+08
 
   -0.61063E+08         0.16885E+07         0.00000E+00
    0.16885E+07        -0.97167E+08         0.00000E+00
    0.00000E+00         0.00000E+00        -0.61063E+08
 
   -0.60882E+08         0.16787E+07         0.00000E+00
    0.16787E+07        -0.97145E+08         0.00000E+00
    0.00000E+00         0.00000E+00        -0.60880E+08
 
   -0.60701E+08         0.16685E+07         0.00000E+00
    0.16685E+07        -0.97123E+08         0.00000E+00
    0.00000E+00         0.00000E+00        -0.60697E+08
 
   -0.60520E+08         0.16580E+07         0.00000E+00
    0.16580E+07        -0.97102E+08         0.00000E+00
    0.00000E+00         0.00000E+00        -0.60515E+08
 
   -0.60339E+08         0.16470E+07         0.00000E+00
    0.16470E+07        -0.97082E+08         0.00000E+00
    0.00000E+00         0.00000E+00        -0.60332E+08
 
   -0.60158E+08         0.16355E+07         0.00000E+00
    0.16355E+07        -0.97064E+08         0.00000E+00
    0.00000E+00         0.00000E+00        -0.60150E+08
 
   -0.59978E+08         0.16233E+07         0.00000E+00
    0.16233E+07        -0.97047E+08         0.00000E+00
    0.00000E+00         0.00000E+00        -0.59967E+08
 
   -0.59798E+08         0.16103E+07         0.00000E+00
    0.16103E+07        -0.97031E+08         0.00000E+00
    0.00000E+00         0.00000E+00        -0.59784E+08
 
   -0.59618E+08         0.15964E+07         0.00000E+00
    0.15964E+07        -0.97017E+08         0.00000E+00
    0.00000E+00         0.00000E+00        -0.59602E+08
 
   -0.59439E+08         0.15815E+07         0.00000E+00
    0.15815E+07        -0.97005E+08         0.00000E+00
    0.00000E+00         0.00000E+00        -0.59419E+08
 
   -0.59261E+08         0.15654E+07         0.00000E+00
    0.15654E+07        -0.96994E+08         0.00000E+00
    0.00000E+00         0.00000E+00        -0.59236E+08
 
   -0.59083E+08         0.15479E+07         0.00000E+00
    0.15479E+07        -0.96986E+08         0.00000E+00
    0.00000E+00         0.00000E+00        -0.59053E+08
 
   -0.58906E+08         0.15287E+07         0.00000E+00
    0.15287E+07        -0.96981E+08         0.00000E+00
    0.00000E+00         0.00000E+00        -0.58870E+08
 
   -0.58730E+08         0.15078E+07         0.00000E+00
    0.15078E+07        -0.96978E+08         0.00000E+00
    0.00000E+00         0.00000E+00        -0.58688E+08
 
   -0.58554E+08         0.14847E+07         0.00000E+00
    0.14847E+07        -0.96978E+08         0.00000E+00
    0.00000E+00         0.00000E+00        -0.58506E+08
 
   -0.58380E+08         0.14593E+07         0.00000E+00
    0.14593E+07        -0.96981E+08         0.00000E+00
    0.00000E+00         0.00000E+00        -0.58324E+08
 
   -0.58207E+08         0.14313E+07         0.00000E+00
    0.14313E+07        -0.96988E+08         0.00000E+00
    0.00000E+00         0.00000E+00        -0.58142E+08
 
   -0.58036E+08         0.14004E+07         0.00000E+00
    0.14004E+07        -0.96998E+08         0.00000E+00
    0.00000E+00         0.00000E+00        -0.57961E+08
 
   -0.57866E+08         0.13664E+07         0.00000E+00
    0.13664E+07        -0.97013E+08         0.00000E+00
    0.00000E+00         0.00000E+00        -0.57781E+08
 
   -0.57698E+08         0.13290E+07         0.00000E+00
    0.13290E+07        -0.97033E+08         0.00000E+00
    0.00000E+00         0.00000E+00        -0.57602E+08
 
   -0.57531E+08         0.12880E+07         0.00000E+00
    0.12880E+07        -0.97056E+08         0.00000E+00
    0.00000E+00         0.00000E+00        -0.57424E+08
 
   -0.57366E+08         0.12433E+07         0.00000E+00
    0.12433E+07        -0.97085E+08         0.00000E+00
    0.00000E+00         0.00000E+00        -0.57247E+08
 
   -0.57202E+08         0.11949E+07         0.00000E+00
    0.11949E+07        -0.97117E+08         0.00000E+00
    0.00000E+00         0.00000E+00        -0.57071E+08
 
   -0.57039E+08         0.11427E+07         0.00000E+00
    0.11427E+07        -0.97153E+08         0.00000E+00
    0.00000E+00         0.00000E+00        -0.56896E+08
 
   -0.56877E+08         0.10869E+07         0.00000E+00
    0.10869E+07        -0.97192E+08         0.00000E+00
    0.00000E+00         0.00000E+00        -0.56723E+08
 
   -0.56714E+08         0.10278E+07         0.00000E+00
    0.10278E+07        -0.97232E+08         0.00000E+00
    0.00000E+00         0.00000E+00        -0.56550E+08
 
   -0.56551E+08         0.96562E+06         0.00000E+00
    0.96562E+06        -0.97272E+08         0.00000E+00
    0.00000E+00         0.00000E+00        -0.56376E+08
 
   -0.56385E+08         0.90056E+06         0.00000E+00
    0.90056E+06        -0.97309E+08         0.00000E+00
    0.00000E+00         0.00000E+00        -0.56200E+08
 
   -0.56217E+08         0.83253E+06         0.00000E+00
    0.83253E+06        -0.97338E+08         0.00000E+00
    0.00000E+00         0.00000E+00        -0.56021E+08
 
   -0.56046E+08         0.76088E+06         0.00000E+00
    0.76088E+06        -0.97358E+08         0.00000E+00
    0.00000E+00         0.00000E+00        -0.55834E+08
 
   -0.55872E+08         0.68385E+06         0.00000E+00
    0.68385E+06        -0.97362E+08         0.00000E+00
    0.00000E+00         0.00000E+00        -0.55635E+08
 
   -0.55695E+08         0.59819E+06         0.00000E+00
    0.59819E+06        -0.97346E+08         0.00000E+00
    0.00000E+00         0.00000E+00        -0.55420E+08
 
   -0.55519E+08         0.49814E+06         0.00000E+00
    0.49814E+06        -0.97304E+08         0.00000E+00
    0.00000E+00         0.00000E+00        -0.55180E+08
 
   -0.55350E+08         0.37564E+06         0.00000E+00
    0.37564E+06        -0.97227E+08         0.00000E+00
    0.00000E+00         0.00000E+00        -0.54901E+08
 
   -0.55207E+08         0.23048E+06         0.00000E+00
    0.23048E+06        -0.97113E+08         0.00000E+00
    0.00000E+00         0.00000E+00        -0.54563E+08
 
   -0.55120E+08         0.76622E+05         0.00000E+00
    0.76622E+05        -0.96979E+08         0.00000E+00
    0.00000E+00         0.00000E+00        -0.54155E+08
 
   -0.76937E+08         0.12233E+06         0.00000E+00
    0.12233E+06        -0.97608E+08         0.00000E+00
    0.00000E+00         0.00000E+00        -0.78463E+08
 
   -0.76827E+08         0.36457E+06         0.00000E+00
    0.36457E+06        -0.97283E+08         0.00000E+00
    0.00000E+00         0.00000E+00        -0.78049E+08
 
   -0.76627E+08         0.59684E+06         0.00000E+00
    0.59684E+06        -0.97048E+08         0.00000E+00
    0.00000E+00         0.00000E+00        -0.77635E+08
 
   -0.76365E+08         0.81185E+06         0.00000E+00
    0.81185E+06        -0.96898E+08         0.00000E+00
    0.00000E+00         0.00000E+00        -0.77221E+08
 
   -0.76064E+08         0.10084E+07         0.00000E+00
    0.10084E+07        -0.96815E+08         0.00000E+00
    0.00000E+00         0.00000E+00        -0.76809E+08
 
   -0.75741E+08         0.11883E+07         0.00000E+00
    0.11883E+07        -0.96782E+08         0.00000E+00
    0.00000E+00         0.00000E+00        -0.76397E+08
 
   -0.75405E+08         0.13531E+07         0.00000E+00
    0.13531E+07        -0.96785E+08         0.00000E+00
    0.00000E+00         0.00000E+00        -0.75985E+08
 
   -0.75062E+08         0.15033E+07         0.00000E+00
    0.15033E+07        -0.96815E+08         0.00000E+00
    0.00000E+00         0.00000E+00        -0.75576E+08
 
   -0.74715E+08         0.16388E+07         0.00000E+00
    0.16388E+07        -0.96864E+08         0.00000E+00
    0.00000E+00         0.00000E+00        -0.75167E+08
 
   -0.74367E+08         0.17595E+07         0.00000E+00
    0.17595E+07        -0.96926E+08         0.00000E+00
    0.00000E+00         0.00000E+00        -0.74760E+08
 
   -0.74020E+08         0.18650E+07         0.00000E+00
    0.18650E+07        -0.96997E+08         0.00000E+00
    0.00000E+00         0.00000E+00        -0.74354E+08
 
   -0.73674E+08         0.19548E+07         0.00000E+00
    0.19548E+07        -0.97076E+08         0.00000E+00
    0.00000E+00         0.00000E+00        -0.73951E+08
 
   -0.73333E+08         0.20285E+07         0.00000E+00
    0.20285E+07        -0.97162E+08         0.00000E+00
    0.00000E+00         0.00000E+00        -0.73549E+08
 
   -0.72996E+08         0.20852E+07         0.00000E+00
    0.20852E+07        -0.97255E+08         0.00000E+00
    0.00000E+00         0.00000E+00        -0.73148E+08
 
   -0.72667E+08         0.21227E+07         0.00000E+00
    0.21227E+07        -0.97356E+08         0.00000E+00
    0.00000E+00         0.00000E+00        -0.72751E+08
 
   -0.72350E+08         0.21389E+07         0.00000E+00
    0.21389E+07        -0.97463E+08         0.00000E+00
    0.00000E+00         0.00000E+00        -0.72355E+08
 
   -0.72044E+08         0.21365E+07         0.00000E+00
    0.21365E+07        -0.97537E+08         0.00000E+00
    0.00000E+00         0.00000E+00        -0.72020E+08
 
   -0.71758E+08         0.21416E+07         0.00000E+00
    0.21416E+07        -0.97553E+08         0.00000E+00
    0.00000E+00         0.00000E+00        -0.71775E+08
 
   -0.71488E+08         0.21349E+07         0.00000E+00
    0.21349E+07        -0.97561E+08         0.00000E+00
    0.00000E+00         0.00000E+00        -0.71531E+08
 
   -0.71226E+08         0.21290E+07         0.00000E+00
    0.21290E+07        -0.97566E+08         0.00000E+00
    0.00000E+00         0.00000E+00        -0.71282E+08
 
   -0.70967E+08         0.21252E+07         0.00000E+00
    0.21252E+07        -0.97571E+08         0.00000E+00
    0.00000E+00         0.00000E+00        -0.71028E+08
 
   -0.70709E+08         0.21235E+07         0.00000E+00
    0.21235E+07        -0.97575E+08         0.00000E+00
    0.00000E+00         0.00000E+00        -0.70770E+08
 
   -0.70449E+08         0.21229E+07         0.00000E+00
    0.21229E+07        -0.97580E+08         0.00000E+00
    0.00000E+00         0.00000E+00        -0.70508E+08
 
   -0.70189E+08         0.21231E+07         0.00000E+00
    0.21231E+07        -0.97585E+08         0.00000E+00
    0.00000E+00         0.00000E+00        -0.70243E+08
 
   -0.69927E+08         0.21233E+07         0.00000E+00
    0.21233E+07        -0.97590E+08         0.00000E+00
    0.00000E+00         0.00000E+00        -0.69975E+08
 
   -0.69663E+08         0.21233E+07         0.00000E+00
    0.21233E+07        -0.97596E+08         0.00000E+00
    0.00000E+00         0.00000E+00        -0.69705E+08
 
   -0.69399E+08         0.21225E+07         0.00000E+00
    0.21225E+07        -0.97602E+08         0.00000E+00
    0.00000E+00         0.00000E+00        -0.69433E+08
 
   -0.69133E+08         0.21205E+07         0.00000E+00
    0.21205E+07        -0.97608E+08         0.00000E+00
    0.00000E+00         0.00000E+00        -0.69160E+08
 
   -0.68867E+08         0.21172E+07         0.00000E+00
    0.21172E+07        -0.97615E+08         0.00000E+00
    0.00000E+00         0.00000E+00        -0.68885E+08
 
   -0.68600E+08         0.21121E+07         0.00000E+00
    0.21121E+07        -0.97622E+08         0.00000E+00
    0.00000E+00         0.00000E+00        -0.68609E+08
 
   -0.68334E+08         0.21049E+07         0.00000E+00
    0.21049E+07        -0.97631E+08         0.00000E+00
    0.00000E+00         0.00000E+00        -0.68332E+08
 
   -0.68067E+08         0.20954E+07         0.00000E+00
    0.20954E+07        -0.97641E+08         0.00000E+00
    0.00000E+00         0.00000E+00        -0.68055E+08
 
   -0.67801E+08         0.20834E+07         0.00000E+00
    0.20834E+07        -0.97653E+08         0.00000E+00
    0.00000E+00         0.00000E+00        -0.67777E+08
 
   -0.67536E+08         0.20685E+07         0.00000E+00
    0.20685E+07        -0.97667E+08         0.00000E+00
    0.00000E+00         0.00000E+00        -0.67500E+08
 
   -0.67273E+08         0.20507E+07         0.00000E+00
    0.20507E+07        -0.97683E+08         0.00000E+00
    0.00000E+00         0.00000E+00        -0.67222E+08
 
   -0.67012E+08         0.20305E+07         0.00000E+00
    0.20305E+07        -0.97702E+08         0.00000E+00
    0.00000E+00         0.00000E+00        -0.66944E+08
 
   -0.66757E+08         0.20088E+07         0.00000E+00
    0.20088E+07        -0.97723E+08         0.00000E+00
    0.00000E+00         0.00000E+00        -0.66668E+08
 
   -0.66507E+08         0.19824E+07         0.00000E+00
    0.19824E+07        -0.97719E+08         0.00000E+00
    0.00000E+00         0.00000E+00        -0.66423E+08
 
   -0.66263E+08         0.19563E+07         0.00000E+00
    0.19563E+07        -0.97702E+08         0.00000E+00
    0.00000E+00         0.00000E+00        -0.66199E+08
 
   -0.66025E+08         0.19317E+07         0.00000E+00
    0.19317E+07        -0.97688E+08         0.00000E+00
    0.00000E+00         0.00000E+00        -0.65975E+08
 
   -0.65791E+08         0.19095E+07         0.00000E+00
    0.19095E+07        -0.97676E+08         0.00000E+00
    0.00000E+00         0.00000E+00        -0.65752E+08
 
   -0.65560E+08         0.18900E+07         0.00000E+00
    0.18900E+07        -0.97666E+08         0.00000E+00
    0.00000E+00         0.00000E+00        -0.65529E+08
 
   -0.65331E+08         0.18728E+07         0.00000E+00
    0.18728E+07        -0.97658E+08         0.00000E+00
    0.00000E+00         0.00000E+00        -0.65307E+08
 
   -0.65103E+08         0.18576E+07         0.00000E+00
    0.18576E+07        -0.97652E+08         0.00000E+00
    0.00000E+00         0.00000E+00        -0.65085E+08
 
   -0.64877E+08         0.18441E+07         0.00000E+00
    0.18441E+07        -0.97647E+08         0.00000E+00
    0.00000E+00         0.00000E+00        -0.64864E+08
 
   -0.64653E+08         0.18321E+07         0.00000E+00
    0.18321E+07        -0.97642E+08         0.00000E+00
    0.00000E+00         0.00000E+00        -0.64643E+08
 
   -0.64430E+08         0.18213E+07         0.00000E+00
    0.18213E+07        -0.97639E+08         0.00000E+00
    0.00000E+00         0.00000E+00        -0.64423E+08
 
   -0.64211E+08         0.18112E+07         0.00000E+00
    0.18112E+07        -0.97634E+08         0.00000E+00
    0.00000E+00         0.00000E+00        -0.64206E+08
 
   -0.64011E+08         0.18000E+07         0.00000E+00
    0.18000E+07        -0.97612E+08         0.00000E+00
    0.00000E+00         0.00000E+00        -0.64008E+08
 
   -0.63822E+08         0.17885E+07         0.00000E+00
    0.17885E+07        -0.97581E+08         0.00000E+00
    0.00000E+00         0.00000E+00        -0.63821E+08
 
   -0.63634E+08         0.17775E+07         0.00000E+00
    0.17775E+07        -0.97551E+08         0.00000E+00
    0.00000E+00         0.00000E+00        -0.63634E+08
 
   -0.63447E+08         0.17671E+07         0.00000E+00
    0.17671E+07        -0.97521E+08         0.00000E+00
    0.00000E+00         0.00000E+00        -0.63448E+08
 
   -0.63260E+08         0.17571E+07         0.00000E+00
    0.17571E+07        -0.97491E+08         0.00000E+00
    0.00000E+00         0.00000E+00        -0.63262E+08
 
   -0.63075E+08         0.17474E+07         0.00000E+00
    0.17474E+07        -0.97461E+08         0.00000E+00
    0.00000E+00         0.00000E+00        -0.63077E+08
 
   -0.62889E+08         0.17380E+07         0.00000E+00
    0.17380E+07        -0.97432E+08         0.00000E+00
    0.00000E+00         0.00000E+00        -0.62892E+08
 
   -0.62705E+08         0.17289E+07         0.00000E+00
    0.17289E+07        -0.97404E+08         0.00000E+00
    0.00000E+00         0.00000E+00        -0.62708E+08
 
   -0.62521E+08         0.17198E+07         0.00000E+00
    0.17198E+07        -0.97375E+08         0.00000E+00
    0.00000E+00         0.00000E+00        -0.62524E+08
 
   -0.62337E+08         0.17109E+07         0.00000E+00
    0.17109E+07        -0.97347E+08         0.00000E+00
    0.00000E+00         0.00000E+00        -0.62340E+08
 
   -0.62153E+08         0.17021E+07         0.00000E+00
    0.17021E+07        -0.97320E+08         0.00000E+00
    0.00000E+00         0.00000E+00        -0.62157E+08
 
   -0.61971E+08         0.16933E+07         0.00000E+00
    0.16933E+07        -0.97293E+08         0.00000E+00
    0.00000E+00         0.00000E+00        -0.61973E+08
 
   -0.61788E+08         0.16844E+07         0.00000E+00
    0.16844E+07        -0.97267E+08         0.00000E+00
    0.00000E+00         0.00000E+00        -0.61790E+08
 
   -0.61605E+08         0.16756E+07         0.00000E+00
    0.16756E+07        -0.97241E+08         0.00000E+00
    0.00000E+00         0.00000E+00        -0.61607E+08
 
   -0.61423E+08         0.16666E+07         0.00000E+00
    0.16666E+07        -0.97216E+08         0.00000E+00
    0.00000E+00         0.00000E+00        -0.61425E+08
 
   -0.61242E+08         0.16574E+07         0.00000E+00
    0.16574E+07        -0.97191E+08         0.00000E+00
    0.00000E+00         0.00000E+00        -0.61242E+08
 
   -0.61060E+08         0.16481E+07         0.00000E+00
    0.16481E+07        -0.97168E+08         0.00000E+00
    0.00000E+00         0.00000E+00        -0.61059E+08
 
   -0.60879E+08         0.16385E+07         0.00000E+00
    0.16385E+07        -0.97145E+08         0.00000E+00
    0.00000E+00         0.00000E+00        -0.60877E+08
 
   -0.60697E+08         0.16286E+07         0.00000E+00
    0.16286E+07        -0.97123E+08         0.00000E+00
    0.00000E+00         0.00000E+00        -0.60694E+08
 
   -0.60516E+08         0.16184E+07         0.00000E+00
    0.16184E+07        -0.97102E+08         0.00000E+00
    0.00000E+00         0.00000E+00        -0.60512E+08
 
   -0.60336E+08         0.16077E+07         0.00000E+00
    0.16077E+07        -0.97083E+08         0.00000E+00
    0.00000E+00         0.00000E+00        -0.60329E+08
 
   -0.60155E+08         0.15964E+07         0.00000E+00
    0.15964E+07        -0.97064E+08         0.00000E+00
    0.00000E+00         0.00000E+00        -0.60146E+08
 
   -0.59975E+08         0.15845E+07         0.00000E+00
    0.15845E+07        -0.97047E+08         0.00000E+00
    0.00000E+00         0.00000E+00        -0.59963E+08
 
   -0.59795E+08         0.15718E+07         0.00000E+00
    0.15718E+07        -0.97031E+08         0.00000E+00
    0.00000E+00         0.00000E+00        -0.59780E+08
 
   -0.59616E+08         0.15583E+07         0.00000E+00
    0.15583E+07        -0.97017E+08         0.00000E+00
    0.00000E+00         0.00000E+00        -0.59597E+08
 
   -0.59437E+08         0.15437E+07         0.00000E+00
    0.15437E+07        -0.97004E+08         0.00000E+00
    0.00000E+00         0.00000E+00        -0.59414E+08
 
   -0.59259E+08         0.15280E+07         0.00000E+00
    0.15280E+07        -0.96994E+08         0.00000E+00
    0.00000E+00         0.00000E+00        -0.59231E+08
 
   -0.59081E+08         0.15108E+07         0.00000E+00
    0.15108E+07        -0.96985E+08         0.00000E+00
    0.00000E+00         0.00000E+00        -0.59048E+08
 
   -0.58904E+08         0.14921E+07         0.00000E+00
    0.14921E+07        -0.96979E+08         0.00000E+00
    0.00000E+00         0.00000E+00        -0.58865E+08
 
   -0.58728E+08         0.14717E+07         0.00000E+00
    0.14717E+07        -0.96976E+08         0.00000E+00
    0.00000E+00         0.00000E+00        -0.58682E+08
 
   -0.58553E+08         0.14491E+07         0.00000E+00
    0.14491E+07        -0.96975E+08         0.00000E+00
    0.00000E+00         0.00000E+00        -0.58499E+08
 
   -0.58380E+08         0.14243E+07         0.00000E+00
    0.14243E+07        -0.96978E+08         0.00000E+00
    0.00000E+00         0.00000E+00        -0.58316E+08
 
   -0.58207E+08         0.13969E+07         0.00000E+00
    0.13969E+07        -0.96984E+08         0.00000E+00
    0.00000E+00         0.00000E+00        -0.58134E+08
 
   -0.58036E+08         0.13666E+07         0.00000E+00
    0.13666E+07        -0.96994E+08         0.00000E+00
    0.00000E+00         0.00000E+00        -0.57952E+08
 
   -0.57867E+08         0.13332E+07         0.00000E+00
    0.13332E+07        -0.97008E+08         0.00000E+00
    0.00000E+00         0.00000E+00        -0.57771E+08
 
   -0.57699E+08         0.12964E+07         0.00000E+00
    0.12964E+07        -0.97026E+08         0.00000E+00
    0.00000E+00         0.00000E+00        -0.57591E+08
 
   -0.57533E+08         0.12560E+07         0.00000E+00
    0.12560E+07        -0.97049E+08         0.00000E+00
    0.00000E+00         0.00000E+00        -0.57411E+08
 
   -0.57368E+08         0.12118E+07         0.00000E+00
    0.12118E+07        -0.97076E+08         0.00000E+00
    0.00000E+00         0.00000E+00        -0.57233E+08
 
   -0.57205E+08         0.11639E+07         0.00000E+00
    0.11639E+07        -0.97108E+08         0.00000E+00
    0.00000E+00         0.00000E+00        -0.57056E+08
 
   -0.57043E+08         0.11121E+07         0.00000E+00
    0.11121E+07        -0.97143E+08         0.00000E+00
    0.00000E+00         0.00000E+00        -0.56880E+08
 
   -0.56881E+08         0.10566E+07         0.00000E+00
    0.10566E+07        -0.97181E+08         0.00000E+00
    0.00000E+00         0.00000E+00        -0.56705E+08
 
   -0.56719E+08         0.99754E+06         0.00000E+00
    0.99754E+06        -0.97220E+08         0.00000E+00
    0.00000E+00         0.00000E+00        -0.56531E+08
 
   -0.56556E+08         0.93522E+06         0.00000E+00
    0.93522E+06        -0.97259E+08         0.00000E+00
    0.00000E+00         0.00000E+00        -0.56356E+08
 
   -0.56391E+08         0.86980E+06         0.00000E+00
    0.86980E+06        -0.97294E+08         0.00000E+00
    0.00000E+00         0.00000E+00        -0.56179E+08
 
   -0.56224E+08         0.80124E+06         0.00000E+00
    0.80124E+06        -0.97323E+08         0.00000E+00
    0.00000E+00         0.00000E+00        -0.55997E+08
 
   -0.56054E+08         0.72892E+06         0.00000E+00
    0.72892E+06        -0.97341E+08         0.00000E+00
    0.00000E+00         0.00000E+00        -0.55808E+08
 
   -0.55881E+08         0.65126E+06         0.00000E+00
    0.65126E+06        -0.97344E+08         0.00000E+00
    0.00000E+00         0.00000E+00        -0.55607E+08
 
   -0.55707E+08         0.56519E+06         0.00000E+00
    0.56519E+06        -0.97326E+08         0.00000E+00
    0.00000E+00         0.00000E+00        -0.55388E+08
 
   -0.55535E+08         0.46541E+06         0.00000E+00
    0.46541E+06        -0.97280E+08         0.00000E+00
    0.00000E+00         0.00000E+00        -0.55141E+08
 
   -0.55372E+08         0.34598E+06         0.00000E+00
    0.34598E+06        -0.97199E+08         0.00000E+00
    0.00000E+00         0.00000E+00        -0.54853E+08
 
   -0.55237E+08         0.20964E+06         0.00000E+00
    0.20964E+06        -0.97083E+08         0.00000E+00
    0.00000E+00         0.00000E+00        -0.54506E+08
 
   -0.55159E+08         0.69274E+05         0.00000E+00
    0.69274E+05        -0.96950E+08         0.00000E+00
    0.00000E+00         0.00000E+00        -0.54092E+08
 
   -0.76800E+08         0.11159E+06         0.00000E+00
    0.11159E+06        -0.97655E+08         0.00000E+00
    0.00000E+00         0.00000E+00        -0.78463E+08
 
   -0.76700E+08         0.33398E+06         0.00000E+00
    0.33398E+06        -0.97329E+08         0.00000E+00
    0.00000E+00         0.00000E+00        -0.78049E+08
 
   -0.76512E+08         0.55091E+06         0.00000E+00
    0.55091E+06        -0.97092E+08         0.00000E+00
    0.00000E+00         0.00000E+00        -0.77635E+08
 
   -0.76263E+08         0.75595E+06         0.00000E+00
    0.75595E+06        -0.96939E+08         0.00000E+00
    0.00000E+00         0.00000E+00        -0.77221E+08
 
   -0.75974E+08         0.94653E+06         0.00000E+00
    0.94653E+06        -0.96852E+08         0.00000E+00
    0.00000E+00         0.00000E+00        -0.76809E+08
 
   -0.75661E+08         0.11230E+07         0.00000E+00
    0.11230E+07        -0.96816E+08         0.00000E+00
    0.00000E+00         0.00000E+00        -0.76397E+08
 
   -0.75334E+08         0.12858E+07         0.00000E+00
    0.12858E+07        -0.96817E+08         0.00000E+00
    0.00000E+00         0.00000E+00        -0.75985E+08
 
   -0.74999E+08         0.14349E+07         0.00000E+00
    0.14349E+07        -0.96844E+08         0.00000E+00
    0.00000E+00         0.00000E+00        -0.75576E+08
 
   -0.74660E+08         0.15700E+07         0.00000E+00
    0.15700E+07        -0.96890E+08         0.00000E+00
    0.00000E+00         0.00000E+00        -0.75167E+08
 
   -0.74319E+08         0.16906E+07         0.00000E+00
    0.16906E+07        -0.96949E+08         0.00000E+00
    0.00000E+00         0.00000E+00        -0.74760E+08
 
   -0.73979E+08         0.17964E+07         0.00000E+00
    0.17964E+07        -0.97017E+08         0.00000E+00
    0.00000E+00         0.00000E+00        -0.74354E+08
 
   -0.73640E+08         0.18867E+07         0.00000E+00
    0.18867E+07        -0.97093E+08         0.00000E+00
    0.00000E+00         0.00000E+00        -0.73951E+08
 
   -0.73304E+08         0.19612E+07         0.00000E+00
    0.19612E+07        -0.97175E+08         0.00000E+00
    0.00000E+00         0.00000E+00        -0.73549E+08
 
   -0.72974E+08         0.20191E+07         0.00000E+00
    0.20191E+07        -0.97264E+08         0.00000E+00
    0.00000E+00         0.00000E+00        -0.73148E+08
 
   -0.72650E+08         0.20583E+07         0.00000E+00
    0.20583E+07        -0.97361E+08         0.00000E+00
    0.00000E+00         0.00000E+00        -0.72751E+08
 
   -0.72337E+08         0.20774E+07         0.00000E+00
    0.20774E+07        -0.97465E+08         0.00000E+00
    0.00000E+00         0.00000E+00        -0.72355E+08
 
   -0.72032E+08         0.20766E+07         0.00000E+00
    0.20766E+07        -0.97538E+08         0.00000E+00
    0.00000E+00         0.00000E+00        -0.72015E+08
 
   -0.71745E+08         0.20859E+07         0.00000E+00
    0.20859E+07        -0.97552E+08         0.00000E+00
    0.00000E+00         0.00000E+00        -0.71762E+08
 
   -0.71472E+08         0.20818E+07         0.00000E+00
    0.20818E+07        -0.97560E+08         0.00000E+00
    0.00000E+00         0.00000E+00        -0.71517E+08
 
   -0.71208E+08         0.20768E+07         0.00000E+00
    0.20768E+07        -0.97565E+08         0.00000E+00
    0.00000E+00         0.00000E+00        -0.71267E+08
 
   -0.70948E+08         0.20734E+07         0.00000E+00
    0.20734E+07        -0.97570E+08         0.00000E+00
    0.00000E+00         0.00000E+00        -0.71012E+08
 
   -0.70688E+08         0.20716E+07         0.00000E+00
    0.20716E+07        -0.97575E+08         0.00000E+00
    0.00000E+00         0.00000E+00        -0.70753E+08
 
   -0.70429E+08         0.20710E+07         0.00000E+00
    0.20710E+07        -0.97580E+08         0.00000E+00
    0.00000E+00         0.00000E+00        -0.70491E+08
 
   -0.70168E+08         0.20709E+07         0.00000E+00
    0.20709E+07        -0.97585E+08         0.00000E+00
    0.00000E+00         0.00000E+00        -0.70226E+08
 
   -0.69907E+08         0.20709E+07         0.00000E+00
    0.20709E+07        -0.97590E+08         0.00000E+00
    0.00000E+00         0.00000E+00        -0.69958E+08
 
   -0.69644E+08         0.20706E+07         0.00000E+00
    0.20706E+07        -0.97596E+08         0.00000E+00
    0.00000E+00         0.00000E+00        -0.69688E+08
 
   -0.69380E+08         0.20695E+07         0.00000E+00
    0.20695E+07        -0.97602E+08         0.00000E+00
    0.00000E+00         0.00000E+00        -0.69417E+08
 
   -0.69116E+08         0.20675E+07         0.00000E+00
    0.20675E+07        -0.97608E+08         0.00000E+00
    0.00000E+00         0.00000E+00        -0.69143E+08
 
   -0.68851E+08         0.20640E+07         0.00000E+00
    0.20640E+07        -0.97614E+08         0.00000E+00
    0.00000E+00         0.00000E+00        -0.68869E+08
 
   -0.68585E+08         0.20588E+07         0.00000E+00
    0.20588E+07        -0.97621E+08         0.00000E+00
    0.00000E+00         0.00000E+00        -0.68593E+08
 
   -0.68320E+08         0.20517E+07         0.00000E+00
    0.20517E+07        -0.97629E+08         0.00000E+00
    0.00000E+00         0.00000E+00        -0.68317E+08
 
   -0.68055E+08         0.20423E+07         0.00000E+00
    0.20423E+07        -0.97639E+08         0.00000E+00
    0.00000E+00         0.00000E+00        -0.68040E+08
 
   -0.67790E+08         0.20304E+07         0.00000E+00
    0.20304E+07        -0.97650E+08         0.00000E+00
    0.00000E+00         0.00000E+00        -0.67763E+08
 
   -0.67527E+08         0.20158E+07         0.00000E+00
    0.20158E+07        -0.97664E+08         0.00000E+00
    0.00000E+00         0.00000E+00        -0.67486E+08
 
   -0.67265E+08         0.19985E+07         0.00000E+00
    0.19985E+07        -0.97680E+08         0.00000E+00
    0.00000E+00         0.00000E+00        -0.67209E+08
 
   -0.67007E+08         0.19790E+07         0.00000E+00
    0.19790E+07        -0.97698E+08         0.00000E+00
    0.00000E+00         0.00000E+00        -0.66932E+08
 
   -0.66753E+08         0.19584E+07         0.00000E+00
    0.19584E+07        -0.97718E+08         0.00000E+00
    0.00000E+00         0.00000E+00        -0.66657E+08
 
   -0.66503E+08         0.19331E+07         0.00000E+00
    0.19331E+07        -0.97714E+08         0.00000E+00
    0.00000E+00         0.00000E+00        -0.66413E+08
 
   -0.66260E+08         0.19081E+07         0.00000E+00
    0.19081E+07        -0.97697E+08         0.00000E+00
    0.00000E+00         0.00000E+00        -0.66189E+08
 
   -0.66021E+08         0.18844E+07         0.00000E+00
    0.18844E+07        -0.97683E+08         0.00000E+00
    0.00000E+00         0.00000E+00        -0.65966E+08
 
   -0.65786E+08         0.18630E+07         0.00000E+00
    0.18630E+07        -0.97672E+08         0.00000E+00
    0.00000E+00         0.00000E+00        -0.65743E+08
 
   -0.65555E+08         0.18439E+07         0.00000E+00
    0.18439E+07        -0.97663E+08         0.00000E+00
    0.00000E+00         0.00000E+00        -0.65521E+08
 
   -0.65325E+08         0.18271E+07         0.00000E+00
    0.18271E+07        -0.97655E+08         0.00000E+00
    0.00000E+00         0.00000E+00        -0.65299E+08
 
   -0.65098E+08         0.18123E+07         0.00000E+00
    0.18123E+07        -0.97649E+08         0.00000E+00
    0.00000E+00         0.00000E+00        -0.65077E+08
 
   -0.64872E+08         0.17991E+07         0.00000E+00
    0.17991E+07        -0.97644E+08         0.00000E+00
    0.00000E+00         0.00000E+00        -0.64856E+08
 
   -0.64648E+08         0.17874E+07         0.00000E+00
    0.17874E+07        -0.97640E+08         0.00000E+00
    0.00000E+00         0.00000E+00        -0.64636E+08
 
   -0.64424E+08         0.17768E+07         0.00000E+00
    0.17768E+07        -0.97637E+08         0.00000E+00
    0.00000E+00         0.00000E+00        -0.64416E+08
 
   -0.64205E+08         0.17669E+07         0.00000E+00
    0.17669E+07        -0.97632E+08         0.00000E+00
    0.00000E+00         0.00000E+00        -0.64200E+08
 
   -0.64006E+08         0.17559E+07         0.00000E+00
    0.17559E+07        -0.97610E+08         0.00000E+00
    0.00000E+00         0.00000E+00        -0.64003E+08
 
   -0.63817E+08         0.17447E+07         0.00000E+00
    0.17447E+07        -0.97579E+08         0.00000E+00
    0.00000E+00         0.00000E+00        -0.63816E+08
 
   -0.63629E+08         0.17340E+07         0.00000E+00
    0.17340E+07        -0.97549E+08         0.00000E+00
    0.00000E+00         0.00000E+00        -0.63629E+08
 
   -0.63442E+08         0.17239E+07         0.00000E+00
    0.17239E+07        -0.97519E+08         0.00000E+00
    0.00000E+00         0.00000E+00        -0.63443E+08
 
   -0.63256E+08         0.17141E+07         0.00000E+00
    0.17141E+07        -0.97490E+08         0.00000E+00
    0.00000E+00         0.00000E+00        -0.63258E+08
 
   -0.63070E+08         0.17047E+07         0.00000E+00
    0.17047E+07        -0.97461E+08         0.00000E+00
    0.00000E+00         0.00000E+00        -0.63073E+08
 
   -0.62885E+08         0.16955E+07         0.00000E+00
    0.16955E+07        -0.97432E+08         0.00000E+00
    0.00000E+00         0.00000E+00        -0.62888E+08
 
   -0.62700E+08         0.16865E+07         0.00000E+00
    0.16865E+07        -0.97403E+08         0.00000E+00
    0.00000E+00         0.00000E+00        -0.62704E+08
 
   -0.62516E+08         0.16777E+07         0.00000E+00
    0.16777E+07        -0.97375E+08         0.00000E+00
    0.00000E+00         0.00000E+00        -0.62520E+08
 
   -0.62333E+08         0.16690E+07         0.00000E+00
    0.16690E+07        -0.97347E+08         0.00000E+00
    0.00000E+00         0.00000E+00        -0.62336E+08
 
   -0.62149E+08         0.16604E+07         0.00000E+00
    0.16604E+07        -0.97320E+08         0.00000E+00
    0.00000E+00         0.00000E+00        -0.62153E+08
 
   -0.61967E+08         0.16518E+07         0.00000E+00
    0.16518E+07        -0.97293E+08         0.00000E+00
    0.00000E+00         0.00000E+00        -0.61970E+08
 
   -0.61784E+08         0.16432E+07         0.00000E+00
    0.16432E+07        -0.97267E+08         0.00000E+00
    0.00000E+00         0.00000E+00        -0.61787E+08
 
   -0.61602E+08         0.16346E+07         0.00000E+00
    0.16346E+07        -0.97241E+08         0.00000E+00
    0.00000E+00         0.00000E+00        -0.61604E+08
 
   -0.61420E+08         0.16258E+07         0.00000E+00
    0.16258E+07        -0.97216E+08         0.00000E+00
    0.00000E+00         0.00000E+00        -0.61421E+08
 
   -0.61238E+08         0.16169E+07         0.00000E+00
    0.16169E+07        -0.97192E+08         0.00000E+00
    0.00000E+00         0.00000E+00        -0.61239E+08
 
   -0.61057E+08         0.16078E+07         0.00000E+00
    0.16078E+07        -0.97168E+08         0.00000E+00
    0.00000E+00         0.00000E+00        -0.61056E+08
 
   -0.60875E+08         0.15985E+07         0.00000E+00
    0.15985E+07        -0.97145E+08         0.00000E+00
    0.00000E+00         0.00000E+00        -0.60874E+08
 
   -0.60694E+08         0.15888E+07         0.00000E+00
    0.15888E+07        -0.97124E+08         0.00000E+00
    0.00000E+00         0.00000E+00        -0.60691E+08
 
   -0.60514E+08         0.15788E+07         0.00000E+00
    0.15788E+07        -0.97103E+08         0.00000E+00
    0.00000E+00         0.00000E+00        -0.60508E+08
 
   -0.60333E+08         0.15683E+07         0.00000E+00
    0.15683E+07        -0.97083E+08         0.00000E+00
    0.00000E+00         0.00000E+00        -0.60325E+08
 
   -0.60153E+08         0.15573E+07         0.00000E+00
    0.15573E+07        -0.97064E+08         0.00000E+00
    0.00000E+00         0.00000E+00        -0.60143E+08
 
   -0.59973E+08         0.15457E+07         0.00000E+00
    0.15457E+07        -0.97047E+08         0.00000E+00
    0.00000E+00         0.00000E+00        -0.59960E+08
 
   -0.59793E+08         0.15334E+07         0.00000E+00
    0.15334E+07        -0.97031E+08         0.00000E+00
    0.00000E+00         0.00000E+00        -0.59777E+08
 
   -0.59614E+08         0.15201E+07         0.00000E+00
    0.15201E+07        -0.97017E+08         0.00000E+00
    0.00000E+00         0.00000E+00        -0.59593E+08
 
   -0.59435E+08         0.15059E+07         0.00000E+00
    0.15059E+07        -0.97004E+08         0.00000E+00
    0.00000E+00         0.00000E+00        -0.59410E+08
 
   -0.59257E+08         0.14906E+07         0.00000E+00
    0.14906E+07        -0.96993E+08         0.00000E+00
    0.00000E+00         0.00000E+00        -0.59227E+08
 
   -0.59080E+08         0.14739E+07         0.00000E+00
    0.14739E+07        -0.96984E+08         0.00000E+00
    0.00000E+00         0.00000E+00        -0.59043E+08
 
   -0.58903E+08         0.14556E+07         0.00000E+00
    0.14556E+07        -0.96978E+08         0.00000E+00
    0.00000E+00         0.00000E+00        -0.58860E+08
 
   -0.58727E+08         0.14356E+07         0.00000E+00
    0.14356E+07        -0.96974E+08         0.00000E+00
    0.00000E+00         0.00000E+00        -0.58676E+08
 
   -0.58552E+08         0.14136E+07         0.00000E+00
    0.14136E+07        -0.96973E+08         0.00000E+00
    0.00000E+00         0.00000E+00        -0.58492E+08
 
   -0.58379E+08         0.13893E+07         0.00000E+00
    0.13893E+07        -0.96975E+08         0.00000E+00
    0.00000E+00         0.00000E+00        -0.58309E+08
 
   -0.58207E+08         0.13624E+07         0.00000E+00
    0.13624E+07        -0.96980E+08         0.00000E+00
    0.00000E+00         0.00000E+00        -0.58126E+08
 
   -0.58036E+08         0.13327E+07         0.00000E+00
    0.13327E+07        -0.96989E+08         0.00000E+00
    0.00000E+00         0.00000E+00        -0.57943E+08
 
   -0.57867E+08         0.12999E+07         0.00000E+00
    0.12999E+07        -0.97002E+08         0.00000E+00
    0.00000E+00         0.00000E+00        -0.57761E+08
 
   -0.57700E+08         0.12638E+07         0.00000E+00
    0.12638E+07        -0.97020E+08         0.00000E+00
    0.00000E+00         0.00000E+00        -0.57580E+08
 
   -0.57534E+08         0.12240E+07         0.00000E+00
    0.12240E+07        -0.97042E+08         0.00000E+00
    0.00000E+00         0.00000E+00        -0.57399E+08
 
   -0.57370E+08         0.11804E+07         0.00000E+00
    0.11804E+07        -0.97068E+08         0.00000E+00
    0.00000E+00         0.00000E+00        -0.57220E+08
 
   -0.57207E+08         0.11330E+07         0.00000E+00
    0.11330E+07        -0.97098E+08         0.00000E+00
    0.00000E+00         0.00000E+00        -0.57042E+08
 
   -0.57046E+08         0.10816E+07         0.00000E+00
    0.10816E+07        -0.97132E+08         0.00000E+00
    0.00000E+00         0.00000E+00        -0.56864E+08
 
   -0.56885E+08         0.10263E+07         0.00000E+00
    0.10263E+07        -0.97169E+08         0.00000E+00
    0.00000E+00         0.00000E+00        -0.56688E+08
 
   -0.56723E+08         0.96736E+06         0.00000E+00
    0.96736E+06        -0.97208E+08         0.00000E+00
    0.00000E+00         0.00000E+00        -0.56512E+08
 
   -0.56561E+08         0.90492E+06         0.00000E+00
    0.90492E+06        -0.97245E+08         0.00000E+00
    0.00000E+00         0.00000E+00        -0.56335E+08
 
   -0.56398E+08         0.83917E+06         0.00000E+00
    0.83917E+06        -0.97280E+08         0.00000E+00
    0.00000E+00         0.00000E+00        -0.56157E+08
 
   -0.56232E+08         0.77010E+06         0.00000E+00
    0.77010E+06        -0.97308E+08         0.00000E+00
    0.00000E+00         0.00000E+00        -0.55974E+08
 
   -0.56063E+08         0.69718E+06         0.00000E+00
    0.69718E+06        -0.97325E+08         0.00000E+00
    0.00000E+00         0.00000E+00        -0.55783E+08
 
   -0.55892E+08         0.61900E+06         0.00000E+00
    0.61900E+06        -0.97326E+08         0.00000E+00
    0.00000E+00         0.00000E+00        -0.55579E+08
 
   -0.55720E+08         0.53274E+06         0.00000E+00
    0.53274E+06        -0.97306E+08         0.00000E+00
    0.00000E+00         0.00000E+00        -0.55355E+08
 
   -0.55551E+08         0.43376E+06         0.00000E+00
    0.43376E+06        -0.97257E+08         0.00000E+00
    0.00000E+00         0.00000E+00        -0.55103E+08
 
   -0.55394E+08         0.31821E+06         0.00000E+00
    0.31821E+06        -0.97173E+08         0.00000E+00
    0.00000E+00         0.00000E+00        -0.54806E+08
 
   -0.55269E+08         0.19078E+06         0.00000E+00
    0.19078E+06        -0.97056E+08         0.00000E+00
    0.00000E+00         0.00000E+00        -0.54451E+08
 
   -0.55197E+08         0.62749E+05         0.00000E+00
    0.62749E+05        -0.96924E+08         0.00000E+00
    0.00000E+00         0.00000E+00        -0.54033E+08
 
   -0.76669E+08         0.10166E+06         0.00000E+00
    0.10166E+06        -0.97698E+08         0.00000E+00
    0.00000E+00         0.00000E+00        -0.78463E+08
 
   -0.76575E+08         0.30548E+06         0.00000E+00
    0.30548E+06        -0.97371E+08         0.00000E+00
    0.00000E+00         0.00000E+00        -0.78049E+08
 
   -0.76399E+08         0.50753E+06         0.00000E+00
    0.50753E+06        -0.97133E+08         0.00000E+00
    0.00000E+00         0.00000E+00        -0.77635E+08
 
   -0.76162E+08         0.70245E+06         0.00000E+00
    0.70245E+06        -0.96977E+08         0.00000E+00
    0.00000E+00         0.00000E+00        -0.77221E+08
 
   -0.75883E+08         0.88680E+06         0.00000E+00
    0.88680E+06        -0.96888E+08         0.00000E+00
    0.00000E+00         0.00000E+00        -0.76809E+08
 
   -0.75580E+08         0.10596E+07         0.00000E+00
    0.10596E+07        -0.96850E+08         0.00000E+00
    0.00000E+00         0.00000E+00        -0.76397E+08
 
   -0.75262E+08         0.12202E+07         0.00000E+00
    0.12202E+07        -0.96848E+08         0.00000E+00
    0.00000E+00         0.00000E+00        -0.75985E+08
 
   -0.74935E+08         0.13682E+07         0.00000E+00
    0.13682E+07        -0.96872E+08         0.00000E+00
    0.00000E+00         0.00000E+00        -0.75576E+08
 
   -0.74604E+08         0.15027E+07         0.00000E+00
    0.15027E+07        -0.96915E+08         0.00000E+00
    0.00000E+00         0.00000E+00        -0.75167E+08
 
   -0.74270E+08         0.16232E+07         0.00000E+00
    0.16232E+07        -0.96971E+08         0.00000E+00
    0.00000E+00         0.00000E+00        -0.74760E+08
 
   -0.73937E+08         0.17291E+07         0.00000E+00
    0.17291E+07        -0.97037E+08         0.00000E+00
    0.00000E+00         0.00000E+00        -0.74354E+08
 
   -0.73605E+08         0.18199E+07         0.00000E+00
    0.18199E+07        -0.97109E+08         0.00000E+00
    0.00000E+00         0.00000E+00        -0.73951E+08
 
   -0.73275E+08         0.18952E+07         0.00000E+00
    0.18952E+07        -0.97188E+08         0.00000E+00
    0.00000E+00         0.00000E+00        -0.73549E+08
 
   -0.72950E+08         0.19541E+07         0.00000E+00
    0.19541E+07        -0.97274E+08         0.00000E+00
    0.00000E+00         0.00000E+00        -0.73148E+08
 
   -0.72631E+08         0.19950E+07         0.00000E+00
    0.19950E+07        -0.97367E+08         0.00000E+00
    0.00000E+00         0.00000E+00        -0.72751E+08
 
   -0.72322E+08         0.20163E+07         0.00000E+00
    0.20163E+07        -0.97468E+08         0.00000E+00
    0.00000E+00         0.00000E+00        -0.72355E+08
 
   -0.72020E+08         0.20171E+07         0.00000E+00
    0.20171E+07        -0.97539E+08         0.00000E+00
    0.00000E+00         0.00000E+00        -0.72010E+08
 
   -0.71732E+08         0.20295E+07         0.00000E+00
    0.20295E+07        -0.97552E+08         0.00000E+00
    0.00000E+00         0.00000E+00        -0.71750E+08
 
   -0.71457E+08         0.20282E+07         0.00000E+00
    0.20282E+07        -0.97559E+08         0.00000E+00
    0.00000E+00         0.00000E+00        -0.71504E+08
 
   -0.71191E+08         0.20243E+07         0.00000E+00
    0.20243E+07        -0.97565E+08         0.00000E+00
    0.00000E+00         0.00000E+00        -0.71252E+08
 
   -0.70929E+08         0.20214E+07         0.00000E+00
    0.20214E+07        -0.97570E+08         0.00000E+00
    0.00000E+00         0.00000E+00        -0.70997E+08
 
   -0.70669E+08         0.20197E+07         0.00000E+00
    0.20197E+07        -0.97574E+08         0.00000E+00
    0.00000E+00         0.00000E+00        -0.70738E+08
 
   -0.70409E+08         0.20189E+07         0.00000E+00
    0.20189E+07        -0.97579E+08         0.00000E+00
    0.00000E+00         0.00000E+00        -0.70475E+08
 
   -0.70149E+08         0.20187E+07         0.00000E+00
    0.20187E+07        -0.97585E+08         0.00000E+00
    0.00000E+00         0.00000E+00        -0.70210E+08
 
   -0.69887E+08         0.20185E+07         0.00000E+00
    0.20185E+07        -0.97590E+08         0.00000E+00
    0.00000E+00         0.00000E+00        -0.69942E+08
 
   -0.69625E+08         0.20180E+07         0.00000E+00
    0.20180E+07        -0.97596E+08         0.00000E+00
    0.00000E+00         0.00000E+00        -0.69672E+08
 
   -0.69362E+08         0.20168E+07         0.00000E+00
    0.20168E+07        -0.97601E+08         0.00000E+00
    0.00000E+00         0.00000E+00        -0.69400E+08
 
   -0.69099E+08         0.20146E+07         0.00000E+00
    0.20146E+07        -0.97607E+08         0.00000E+00
    0.00000E+00         0.00000E+00        -0.69127E+08
 
   -0.68834E+08         0.20111E+07         0.00000E+00
    0.20111E+07        -0.97613E+08         0.00000E+00
    0.00000E+00         0.00000E+00        -0.68853E+08
 
   -0.68570E+08         0.20059E+07         0.00000E+00
    0.20059E+07        -0.97620E+08         0.00000E+00
    0.00000E+00         0.00000E+00        -0.68578E+08
 
   -0.68306E+08         0.19988E+07         0.00000E+00
    0.19988E+07        -0.97628E+08         0.00000E+00
    0.00000E+00         0.00000E+00        -0.68302E+08
 
   -0.68042E+08         0.19895E+07         0.00000E+00
    0.19895E+07        -0.97637E+08         0.00000E+00
    0.00000E+00         0.00000E+00        -0.68026E+08
 
   -0.67779E+08         0.19777E+07         0.00000E+00
    0.19777E+07        -0.97647E+08         0.00000E+00
    0.00000E+00         0.00000E+00        -0.67750E+08
 
   -0.67518E+08         0.19634E+07         0.00000E+00
    0.19634E+07        -0.97660E+08         0.00000E+00
    0.00000E+00         0.00000E+00        -0.67473E+08
 
   -0.67258E+08         0.19466E+07         0.00000E+00
    0.19466E+07        -0.97676E+08         0.00000E+00
    0.00000E+00         0.00000E+00        -0.67196E+08
 
   -0.67001E+08         0.19279E+07         0.00000E+00
    0.19279E+07        -0.97694E+08         0.00000E+00
    0.00000E+00         0.00000E+00        -0.66920E+08
 
   -0.66748E+08         0.19082E+07         0.00000E+00
    0.19082E+07        -0.97713E+08         0.00000E+00
    0.00000E+00         0.00000E+00        -0.66646E+08
 
   -0.66499E+08         0.18838E+07         0.00000E+00
    0.18838E+07        -0.97709E+08         0.00000E+00
    0.00000E+00         0.00000E+00        -0.66403E+08
 
   -0.66256E+08         0.18598E+07         0.00000E+00
    0.18598E+07        -0.97692E+08         0.00000E+00
    0.00000E+00         0.00000E+00        -0.66180E+08
 
   -0.66017E+08         0.18371E+07         0.00000E+00
    0.18371E+07        -0.97679E+08         0.00000E+00
    0.00000E+00         0.00000E+00        -0.65957E+08
 
   -0.65782E+08         0.18163E+07         0.00000E+00
    0.18163E+07        -0.97668E+08         0.00000E+00
    0.00000E+00         0.00000E+00        -0.65734E+08
 
   -0.65550E+08         0.17978E+07         0.00000E+00
    0.17978E+07        -0.97659E+08         0.00000E+00
    0.00000E+00         0.00000E+00        -0.65512E+08
 
   -0.65320E+08         0.17814E+07         0.00000E+00
    0.17814E+07        -0.97652E+08         0.00000E+00
    0.00000E+00         0.00000E+00        -0.65291E+08
 
   -0.65092E+08         0.17669E+07         0.00000E+00
    0.17669E+07        -0.97646E+08         0.00000E+00
    0.00000E+00         0.00000E+00        -0.65070E+08
 
   -0.64867E+08         0.17541E+07         0.00000E+00
    0.17541E+07        -0.97642E+08         0.00000E+00
    0.00000E+00         0.00000E+00        -0.64849E+08
 
   -0.64642E+08         0.17426E+07         0.00000E+00
    0.17426E+07        -0.97638E+08         0.00000E+00
    0.00000E+00         0.00000E+00        -0.64629E+08
 
   -0.64419E+08         0.17323E+07         0.00000E+00
    0.17323E+07        -0.97635E+08         0.00000E+00
    0.00000E+00         0.00000E+00        -0.64410E+08
 
   -0.64200E+08         0.17226E+07         0.00000E+00
    0.17226E+07        -0.97630E+08         0.00000E+00
    0.00000E+00         0.00000E+00        -0.64194E+08
 
   -0.64001E+08         0.17119E+07         0.00000E+00
    0.17119E+07        -0.97608E+08         0.00000E+00
    0.00000E+00         0.00000E+00        -0.63997E+08
 
   -0.63812E+08         0.17010E+07         0.00000E+00
    0.17010E+07        -0.97578E+08         0.00000E+00
    0.00000E+00         0.00000E+00        -0.63810E+08
 
   -0.63624E+08         0.16906E+07         0.00000E+00
    0.16906E+07        -0.97548E+08         0.00000E+00
    0.00000E+00         0.00000E+00        -0.63624E+08
 
   -0.63437E+08         0.16807E+07         0.00000E+00
    0.16807E+07        -0.97518E+08         0.00000E+00
    0.00000E+00         0.00000E+00        -0.63438E+08
 
   -0.63251E+08         0.16711E+07         0.00000E+00
    0.16711E+07        -0.97489E+08         0.00000E+00
    0.00000E+00         0.00000E+00        -0.63253E+08
 
   -0.63065E+08         0.16619E+07         0.00000E+00
    0.16619E+07        -0.97460E+08         0.00000E+00
    0.00000E+00         0.00000E+00        -0.63068E+08
 
   -0.62880E+08         0.16530E+07         0.00000E+00
    0.16530E+07        -0.97431E+08         0.00000E+00
    0.00000E+00         0.00000E+00        -0.62884E+08
 
   -0.62696E+08         0.16443E+07         0.00000E+00
    0.16443E+07        -0.97403E+08         0.00000E+00
    0.00000E+00         0.00000E+00        -0.62700E+08
 
   -0.62512E+08         0.16357E+07         0.00000E+00
    0.16357E+07        -0.97375E+08         0.00000E+00
    0.00000E+00         0.00000E+00        -0.62516E+08
 
   -0.62329E+08         0.16272E+07         0.00000E+00
    0.16272E+07        -0.97347E+08         0.00000E+00
    0.00000E+00         0.00000E+00        -0.62333E+08
 
   -0.62145E+08         0.16188E+07         0.00000E+00
    0.16188E+07        -0.97320E+08         0.00000E+00
    0.00000E+00         0.00000E+00        -0.62149E+08
 
   -0.61963E+08         0.16104E+07         0.00000E+00
    0.16104E+07        -0.97293E+08         0.00000E+00
    0.00000E+00         0.00000E+00        -0.61966E+08
 
   -0.61780E+08         0.16020E+07         0.00000E+00
    0.16020E+07        -0.97267E+08         0.00000E+00
    0.00000E+00         0.00000E+00        -0.61784E+08
 
   -0.61598E+08         0.15936E+07         0.00000E+00
    0.15936E+07        -0.97241E+08         0.00000E+00
    0.00000E+00         0.00000E+00        -0.61601E+08
 
   -0.61416E+08         0.15851E+07         0.00000E+00
    0.15851E+07        -0.97216E+08         0.00000E+00
    0.00000E+00         0.00000E+00        -0.61418E+08
 
   -0.61235E+08         0.15764E+07         0.00000E+00
    0.15764E+07        -0.97192E+08         0.00000E+00
    0.00000E+00         0.00000E+00        -0.61236E+08
 
   -0.61053E+08         0.15675E+07         0.00000E+00
    0.15675E+07        -0.97169E+08         0.00000E+00
    0.00000E+00         0.00000E+00        -0.61053E+08
 
   -0.60872E+08         0.15584E+07         0.00000E+00
    0.15584E+07        -0.97146E+08         0.00000E+00
    0.00000E+00         0.00000E+00        -0.60870E+08
 
   -0.60691E+08         0.15490E+07         0.00000E+00
    0.15490E+07        -0.97124E+08         0.00000E+00
    0.00000E+00         0.00000E+00        -0.60688E+08
 
   -0.60511E+08         0.15392E+07         0.00000E+00
    0.15392E+07        -0.97103E+08         0.00000E+00
    0.00000E+00         0.00000E+00        -0.60505E+08
 
   -0.60330E+08         0.15290E+07         0.00000E+00
    0.15290E+07        -0.97083E+08         0.00000E+00
    0.00000E+00         0.00000E+00        -0.60322E+08
 
   -0.60150E+08         0.15183E+07         0.00000E+00
    0.15183E+07        -0.97065E+08         0.00000E+00
    0.00000E+00         0.00000E+00        -0.60139E+08
 
   -0.59970E+08         0.15070E+07         0.00000E+00
    0.15070E+07        -0.97047E+08         0.00000E+00
    0.00000E+00         0.00000E+00        -0.59956E+08
 
   -0.59791E+08         0.14949E+07         0.00000E+00
    0.14949E+07        -0.97031E+08         0.00000E+00
    0.00000E+00         0.00000E+00        -0.59773E+08
 
   -0.59612E+08         0.14820E+07         0.00000E+00
    0.14820E+07        -0.97017E+08         0.00000E+00
    0.00000E+00         0.00000E+00        -0.59590E+08
 
   -0.59433E+08         0.14682E+07         0.00000E+00
    0.14682E+07        -0.97004E+08         0.00000E+00
    0.00000E+00         0.00000E+00        -0.59406E+08
 
   -0.59255E+08         0.14532E+07         0.00000E+00
    0.14532E+07        -0.96992E+08         0.00000E+00
    0.00000E+00         0.00000E+00        -0.59222E+08
 
   -0.59078E+08         0.14369E+07         0.00000E+00
    0.14369E+07        -0.96983E+08         0.00000E+00
    0.00000E+00         0.00000E+00        -0.59038E+08
 
   -0.58901E+08         0.14191E+07         0.00000E+00
    0.14191E+07        -0.96976E+08         0.00000E+00
    0.00000E+00         0.00000E+00        -0.58854E+08
 
   -0.58726E+08         0.13995E+07         0.00000E+00
    0.13995E+07        -0.96972E+08         0.00000E+00
    0.00000E+00         0.00000E+00        -0.58670E+08
 
   -0.58552E+08         0.13780E+07         0.00000E+00
    0.13780E+07        -0.96970E+08         0.00000E+00
    0.00000E+00         0.00000E+00        -0.58486E+08
 
   -0.58378E+08         0.13543E+07         0.00000E+00
    0.13543E+07        -0.96972E+08         0.00000E+00
    0.00000E+00         0.00000E+00        -0.58302E+08
 
   -0.58207E+08         0.13280E+07         0.00000E+00
    0.13280E+07        -0.96976E+08         0.00000E+00
    0.00000E+00         0.00000E+00        -0.58118E+08
 
   -0.58036E+08         0.12989E+07         0.00000E+00
    0.12989E+07        -0.96985E+08         0.00000E+00
    0.00000E+00         0.00000E+00        -0.57935E+08
 
   -0.57868E+08         0.12668E+07         0.00000E+00
    0.12668E+07        -0.96997E+08         0.00000E+00
    0.00000E+00         0.00000E+00        -0.57752E+08
 
   -0.57701E+08         0.12312E+07         0.00000E+00
    0.12312E+07        -0.97014E+08         0.00000E+00
    0.00000E+00         0.00000E+00        -0.57569E+08
 
   -0.57536E+08         0.11921E+07         0.00000E+00
    0.11921E+07        -0.97034E+08         0.00000E+00
    0.00000E+00         0.00000E+00        -0.57388E+08
 
   -0.57372E+08         0.11491E+07         0.00000E+00
    0.11491E+07        -0.97060E+08         0.00000E+00
    0.00000E+00         0.00000E+00        -0.57207E+08
 
   -0.57210E+08         0.11021E+07         0.00000E+00
    0.11021E+07        -0.97089E+08         0.00000E+00
    0.00000E+00         0.00000E+00        -0.57027E+08
 
   -0.57049E+08         0.10511E+07         0.00000E+00
    0.10511E+07        -0.97122E+08         0.00000E+00
    0.00000E+00         0.00000E+00        -0.56849E+08
 
   -0.56889E+08         0.99616E+06         0.00000E+00
    0.99616E+06        -0.97158E+08         0.00000E+00
    0.00000E+00         0.00000E+00        -0.56671E+08
 
   -0.56728E+08         0.93730E+06         0.00000E+00
    0.93730E+06        -0.97195E+08         0.00000E+00
    0.00000E+00         0.00000E+00        -0.56493E+08
 
   -0.56567E+08         0.87475E+06         0.00000E+00
    0.87475E+06        -0.97232E+08         0.00000E+00
    0.00000E+00         0.00000E+00        -0.56315E+08
 
   -0.56405E+08         0.80870E+06         0.00000E+00
    0.80870E+06        -0.97266E+08         0.00000E+00
    0.00000E+00         0.00000E+00        -0.56134E+08
 
   -0.56240E+08         0.73915E+06         0.00000E+00
    0.73915E+06        -0.97293E+08         0.00000E+00
    0.00000E+00         0.00000E+00        -0.55949E+08
 
   -0.56072E+08         0.66570E+06         0.00000E+00
    0.66570E+06        -0.97309E+08         0.00000E+00
    0.00000E+00         0.00000E+00        -0.55756E+08
 
   -0.55903E+08         0.58712E+06         0.00000E+00
    0.58712E+06        -0.97308E+08         0.00000E+00
    0.00000E+00         0.00000E+00        -0.55549E+08
 
   -0.55734E+08         0.50092E+06         0.00000E+00
    0.50092E+06        -0.97286E+08         0.00000E+00
    0.00000E+00         0.00000E+00        -0.55322E+08
 
   -0.55569E+08         0.40326E+06         0.00000E+00
    0.40326E+06        -0.97234E+08         0.00000E+00
    0.00000E+00         0.00000E+00        -0.55064E+08
 
   -0.55418E+08         0.29222E+06         0.00000E+00
    0.29222E+06        -0.97149E+08         0.00000E+00
    0.00000E+00         0.00000E+00        -0.54760E+08
 
   -0.55300E+08         0.17360E+06         0.00000E+00
    0.17360E+06        -0.97032E+08         0.00000E+00
    0.00000E+00         0.00000E+00        -0.54398E+08
 
   -0.55234E+08         0.56889E+05         0.00000E+00
    0.56889E+05        -0.96901E+08         0.00000E+00
    0.00000E+00         0.00000E+00        -0.53976E+08
 
   -0.76542E+08         0.92394E+05         0.00000E+00
    0.92394E+05        -0.97737E+08         0.00000E+00
    0.00000E+00         0.00000E+00        -0.78463E+08
 
   -0.76454E+08         0.27872E+06         0.00000E+00
    0.27872E+06        -0.97410E+08         0.00000E+00
    0.00000E+00         0.00000E+00        -0.78049E+08
 
   -0.76287E+08         0.46641E+06         0.00000E+00
    0.46641E+06        -0.97172E+08         0.00000E+00
    0.00000E+00         0.00000E+00        -0.77635E+08
 
   -0.76061E+08         0.65120E+06         0.00000E+00
    0.65120E+06        -0.97014E+08         0.00000E+00
    0.00000E+00         0.00000E+00        -0.77221E+08
 
   -0.75793E+08         0.82912E+06         0.00000E+00
    0.82912E+06        -0.96923E+08         0.00000E+00
    0.00000E+00         0.00000E+00        -0.76809E+08
 
   -0.75499E+08         0.99798E+06         0.00000E+00
    0.99798E+06        -0.96883E+08         0.00000E+00
    0.00000E+00         0.00000E+00        -0.76397E+08
 
   -0.75190E+08         0.11564E+07         0.00000E+00
    0.11564E+07        -0.96878E+08         0.00000E+00
    0.00000E+00         0.00000E+00        -0.75985E+08
 
   -0.74872E+08         0.13030E+07         0.00000E+00
    0.13030E+07        -0.96900E+08         0.00000E+00
    0.00000E+00         0.00000E+00        -0.75576E+08
 
   -0.74548E+08         0.14368E+07         0.00000E+00
    0.14368E+07        -0.96941E+08         0.00000E+00
    0.00000E+00         0.00000E+00        -0.75167E+08
 
   -0.74222E+08         0.15571E+07         0.00000E+00
    0.15571E+07        -0.96994E+08         0.00000E+00
    0.00000E+00         0.00000E+00        -0.74760E+08
 
   -0.73895E+08         0.16631E+07         0.00000E+00
    0.16631E+07        -0.97056E+08         0.00000E+00
    0.00000E+00         0.00000E+00        -0.74354E+08
 
   -0.73569E+08         0.17543E+07         0.00000E+00
    0.17543E+07        -0.97126E+08         0.00000E+00
    0.00000E+00         0.00000E+00        -0.73951E+08
 
   -0.73246E+08         0.18303E+07         0.00000E+00
    0.18303E+07        -0.97202E+08         0.00000E+00
    0.00000E+00         0.00000E+00        -0.73549E+08
 
   -0.72926E+08         0.18902E+07         0.00000E+00
    0.18902E+07        -0.97284E+08         0.00000E+00
    0.00000E+00         0.00000E+00        -0.73148E+08
 
   -0.72612E+08         0.19325E+07         0.00000E+00
    0.19325E+07        -0.97374E+08         0.00000E+00
    0.00000E+00         0.00000E+00        -0.72751E+08
 
   -0.72306E+08         0.19557E+07         0.00000E+00
    0.19557E+07        -0.97470E+08         0.00000E+00
    0.00000E+00         0.00000E+00        -0.72355E+08
 
   -0.72006E+08         0.19580E+07         0.00000E+00
    0.19580E+07        -0.97540E+08         0.00000E+00
    0.00000E+00         0.00000E+00        -0.72005E+08
 
   -0.71718E+08         0.19729E+07         0.00000E+00
    0.19729E+07        -0.97553E+08         0.00000E+00
    0.00000E+00         0.00000E+00        -0.71738E+08
 
   -0.71441E+08         0.19741E+07         0.00000E+00
    0.19741E+07        -0.97559E+08         0.00000E+00
    0.00000E+00         0.00000E+00        -0.71491E+08
 
   -0.71174E+08         0.19715E+07         0.00000E+00
    0.19715E+07        -0.97564E+08         0.00000E+00
    0.00000E+00         0.00000E+00        -0.71238E+08
 
   -0.70911E+08         0.19693E+07         0.00000E+00
    0.19693E+07        -0.97569E+08         0.00000E+00
    0.00000E+00         0.00000E+00        -0.70982E+08
 
   -0.70650E+08         0.19677E+07         0.00000E+00
    0.19677E+07        -0.97574E+08         0.00000E+00
    0.00000E+00         0.00000E+00        -0.70722E+08
 
   -0.70390E+08         0.19669E+07         0.00000E+00
    0.19669E+07        -0.97579E+08         0.00000E+00
    0.00000E+00         0.00000E+00        -0.70459E+08
 
   -0.70130E+08         0.19665E+07         0.00000E+00
    0.19665E+07        -0.97585E+08         0.00000E+00
    0.00000E+00         0.00000E+00        -0.70194E+08
 
   -0.69869E+08         0.19662E+07         0.00000E+00
    0.19662E+07        -0.97590E+08         0.00000E+00
    0.00000E+00         0.00000E+00        -0.69926E+08
 
   -0.69607E+08         0.19655E+07         0.00000E+00
    0.19655E+07        -0.97595E+08         0.00000E+00
    0.00000E+00         0.00000E+00        -0.69656E+08
 
   -0.69345E+08         0.19642E+07         0.00000E+00
    0.19642E+07        -0.97601E+08         0.00000E+00
    0.00000E+00         0.00000E+00        -0.69384E+08
 
   -0.69082E+08         0.19619E+07         0.00000E+00
    0.19619E+07        -0.97606E+08         0.00000E+00
    0.00000E+00         0.00000E+00        -0.69111E+08
 
   -0.68819E+08         0.19583E+07         0.00000E+00
    0.19583E+07        -0.97612E+08         0.00000E+00
    0.00000E+00         0.00000E+00        -0.68838E+08
 
   -0.68556E+08         0.19531E+07         0.00000E+00
    0.19531E+07        -0.97619E+08         0.00000E+00
    0.00000E+00         0.00000E+00        -0.68563E+08
 
   -0.68293E+08         0.19461E+07         0.00000E+00
    0.19461E+07        -0.97626E+08         0.00000E+00
    0.00000E+00         0.00000E+00        -0.68288E+08
 
   -0.68030E+08         0.19369E+07         0.00000E+00
    0.19369E+07        -0.97635E+08         0.00000E+00
    0.00000E+00         0.00000E+00        -0.68012E+08
 
   -0.67769E+08         0.19254E+07         0.00000E+00
    0.19254E+07        -0.97645E+08         0.00000E+00
    0.00000E+00         0.00000E+00        -0.67736E+08
 
   -0.67509E+08         0.19114E+07         0.00000E+00
    0.19114E+07        -0.97657E+08         0.00000E+00
    0.00000E+00         0.00000E+00        -0.67460E+08
 
   -0.67250E+08         0.18951E+07         0.00000E+00
    0.18951E+07        -0.97672E+08         0.00000E+00
    0.00000E+00         0.00000E+00        -0.67184E+08
 
   -0.66995E+08         0.18770E+07         0.00000E+00
    0.18770E+07        -0.97690E+08         0.00000E+00
    0.00000E+00         0.00000E+00        -0.66908E+08
 
   -0.66743E+08         0.18581E+07         0.00000E+00
    0.18581E+07        -0.97709E+08         0.00000E+00
    0.00000E+00         0.00000E+00        -0.66636E+08
 
   -0.66495E+08         0.18346E+07         0.00000E+00
    0.18346E+07        -0.97705E+08         0.00000E+00
    0.00000E+00         0.00000E+00        -0.66394E+08
 
   -0.66251E+08         0.18115E+07         0.00000E+00
    0.18115E+07        -0.97688E+08         0.00000E+00
    0.00000E+00         0.00000E+00        -0.66171E+08
 
   -0.66012E+08         0.17897E+07         0.00000E+00
    0.17897E+07        -0.97674E+08         0.00000E+00
    0.00000E+00         0.00000E+00        -0.65948E+08
 
   -0.65777E+08         0.17696E+07         0.00000E+00
    0.17696E+07        -0.97664E+08         0.00000E+00
    0.00000E+00         0.00000E+00        -0.65726E+08
 
   -0.65545E+08         0.17516E+07         0.00000E+00
    0.17516E+07        -0.97656E+08         0.00000E+00
    0.00000E+00         0.00000E+00        -0.65504E+08
 
   -0.65315E+08         0.17357E+07         0.00000E+00
    0.17357E+07        -0.97649E+08         0.00000E+00
    0.00000E+00         0.00000E+00        -0.65283E+08
 
   -0.65087E+08         0.17216E+07         0.00000E+00
    0.17216E+07        -0.97643E+08         0.00000E+00
    0.00000E+00         0.00000E+00        -0.65062E+08
 
   -0.64861E+08         0.17091E+07         0.00000E+00
    0.17091E+07        -0.97639E+08         0.00000E+00
    0.00000E+00         0.00000E+00        -0.64842E+08
 
   -0.64637E+08         0.16979E+07         0.00000E+00
    0.16979E+07        -0.97636E+08         0.00000E+00
    0.00000E+00         0.00000E+00        -0.64623E+08
 
   -0.64414E+08         0.16878E+07         0.00000E+00
    0.16878E+07        -0.97633E+08         0.00000E+00
    0.00000E+00         0.00000E+00        -0.64404E+08
 
   -0.64195E+08         0.16784E+07         0.00000E+00
    0.16784E+07        -0.97628E+08         0.00000E+00
    0.00000E+00         0.00000E+00        -0.64188E+08
 
   -0.63996E+08         0.16680E+07         0.00000E+00
    0.16680E+07        -0.97606E+08         0.00000E+00
    0.00000E+00         0.00000E+00        -0.63992E+08
 
   -0.63807E+08         0.16573E+07         0.00000E+00
    0.16573E+07        -0.97576E+08         0.00000E+00
    0.00000E+00         0.00000E+00        -0.63805E+08
 
   -0.63620E+08         0.16472E+07         0.00000E+00
    0.16472E+07        -0.97547E+08         0.00000E+00
    0.00000E+00         0.00000E+00        -0.63619E+08
 
   -0.63433E+08         0.16375E+07         0.00000E+00
    0.16375E+07        -0.97517E+08         0.00000E+00
    0.00000E+00         0.00000E+00        -0.63434E+08
 
   -0.63247E+08         0.16282E+07         0.00000E+00
    0.16282E+07        -0.97488E+08         0.00000E+00
    0.00000E+00         0.00000E+00        -0.63249E+08
 
   -0.63061E+08         0.16193E+07         0.00000E+00
    0.16193E+07        -0.97459E+08         0.00000E+00
    0.00000E+00         0.00000E+00        -0.63064E+08
 
   -0.62876E+08         0.16106E+07         0.00000E+00
    0.16106E+07        -0.97430E+08         0.00000E+00
    0.00000E+00         0.00000E+00        -0.62880E+08
 
   -0.62692E+08         0.16020E+07         0.00000E+00
    0.16020E+07        -0.97402E+08         0.00000E+00
    0.00000E+00         0.00000E+00        -0.62696E+08
 
   -0.62508E+08         0.15937E+07         0.00000E+00
    0.15937E+07        -0.97374E+08         0.00000E+00
    0.00000E+00         0.00000E+00        -0.62512E+08
 
   -0.62325E+08         0.15854E+07         0.00000E+00
    0.15854E+07        -0.97347E+08         0.00000E+00
    0.00000E+00         0.00000E+00        -0.62329E+08
 
   -0.62142E+08         0.15772E+07         0.00000E+00
    0.15772E+07        -0.97320E+08         0.00000E+00
    0.00000E+00         0.00000E+00        -0.62146E+08
 
   -0.61959E+08         0.15691E+07         0.00000E+00
    0.15691E+07        -0.97293E+08         0.00000E+00
    0.00000E+00         0.00000E+00        -0.61963E+08
 
   -0.61777E+08         0.15609E+07         0.00000E+00
    0.15609E+07        -0.97267E+08         0.00000E+00
    0.00000E+00         0.00000E+00        -0.61780E+08
 
   -0.61595E+08         0.15527E+07         0.00000E+00
    0.15527E+07        -0.97242E+08         0.00000E+00
    0.00000E+00         0.00000E+00        -0.61598E+08
 
   -0.61413E+08         0.15444E+07         0.00000E+00
    0.15444E+07        -0.97217E+08         0.00000E+00
    0.00000E+00         0.00000E+00        -0.61415E+08
 
   -0.61231E+08         0.15359E+07         0.00000E+00
    0.15359E+07        -0.97193E+08         0.00000E+00
    0.00000E+00         0.00000E+00        -0.61233E+08
 
   -0.61050E+08         0.15273E+07         0.00000E+00
    0.15273E+07        -0.97169E+08         0.00000E+00
    0.00000E+00         0.00000E+00        -0.61050E+08
 
   -0.60869E+08         0.15184E+07         0.00000E+00
    0.15184E+07        -0.97146E+08         0.00000E+00
    0.00000E+00         0.00000E+00        -0.60867E+08
 
   -0.60688E+08         0.15092E+07         0.00000E+00
    0.15092E+07        -0.97125E+08         0.00000E+00
    0.00000E+00         0.00000E+00        -0.60685E+08
 
   -0.60508E+08         0.14997E+07         0.00000E+00
    0.14997E+07        -0.97104E+08         0.00000E+00
    0.00000E+00         0.00000E+00        -0.60502E+08
 
   -0.60327E+08         0.14897E+07         0.00000E+00
    0.14897E+07        -0.97084E+08         0.00000E+00
    0.00000E+00         0.00000E+00        -0.60319E+08
 
   -0.60147E+08         0.14793E+07         0.00000E+00
    0.14793E+07        -0.97065E+08         0.00000E+00
    0.00000E+00         0.00000E+00        -0.60136E+08
 
   -0.59968E+08         0.14683E+07         0.00000E+00
    0.14683E+07        -0.97048E+08         0.00000E+00
    0.00000E+00         0.00000E+00        -0.59953E+08
 
   -0.59788E+08         0.14565E+07         0.00000E+00
    0.14565E+07        -0.97031E+08         0.00000E+00
    0.00000E+00         0.00000E+00        -0.59770E+08
 
   -0.59610E+08         0.14440E+07         0.00000E+00
    0.14440E+07        -0.97016E+08         0.00000E+00
    0.00000E+00         0.00000E+00        -0.59586E+08
 
   -0.59431E+08         0.14305E+07         0.00000E+00
    0.14305E+07        -0.97003E+08         0.00000E+00
    0.00000E+00         0.00000E+00        -0.59402E+08
 
   -0.59253E+08         0.14158E+07         0.00000E+00
    0.14158E+07        -0.96992E+08         0.00000E+00
    0.00000E+00         0.00000E+00        -0.59218E+08
 
   -0.59076E+08         0.14000E+07         0.00000E+00
    0.14000E+07        -0.96982E+08         0.00000E+00
    0.00000E+00         0.00000E+00        -0.59034E+08
 
   -0.58900E+08         0.13826E+07         0.00000E+00
    0.13826E+07        -0.96975E+08         0.00000E+00
    0.00000E+00         0.00000E+00        -0.58849E+08
 
   -0.58725E+08         0.13635E+07         0.00000E+00
    0.13635E+07        -0.96970E+08         0.00000E+00
    0.00000E+00         0.00000E+00        -0.58665E+08
 
   -0.58551E+08         0.13425E+07         0.00000E+00
    0.13425E+07        -0.96968E+08         0.00000E+00
    0.00000E+00         0.00000E+00        -0.58480E+08
 
   -0.58378E+08         0.13193E+07         0.00000E+00
    0.13193E+07        -0.96969E+08         0.00000E+00
    0.00000E+00         0.00000E+00        -0.58295E+08
 
   -0.58206E+08         0.12937E+07         0.00000E+00
    0.12937E+07        -0.96973E+08         0.00000E+00
    0.00000E+00         0.00000E+00        -0.58111E+08
 
   -0.58036E+08         0.12652E+07         0.00000E+00
    0.12652E+07        -0.96980E+08         0.00000E+00
    0.00000E+00         0.00000E+00        -0.57926E+08
 
   -0.57868E+08         0.12336E+07         0.00000E+00
    0.12336E+07        -0.96992E+08         0.00000E+00
    0.00000E+00         0.00000E+00        -0.57742E+08
 
   -0.57702E+08         0.11987E+07         0.00000E+00
    0.11987E+07        -0.97007E+08         0.00000E+00
    0.00000E+00         0.00000E+00        -0.57559E+08
 
   -0.57537E+08         0.11602E+07         0.00000E+00
    0.11602E+07        -0.97027E+08         0.00000E+00
    0.00000E+00         0.00000E+00        -0.57376E+08
 
   -0.57374E+08         0.11178E+07         0.00000E+00
    0.11178E+07        -0.97052E+08         0.00000E+00
    0.00000E+00         0.00000E+00        -0.57194E+08
 
   -0.57213E+08         0.10714E+07         0.00000E+00
    0.10714E+07        -0.97080E+08         0.00000E+00
    0.00000E+00         0.00000E+00        -0.57013E+08
 
   -0.57052E+08         0.10208E+07         0.00000E+00
    0.10208E+07        -0.97112E+08         0.00000E+00
    0.00000E+00         0.00000E+00        -0.56833E+08
 
   -0.56893E+08         0.96611E+06         0.00000E+00
    0.96611E+06        -0.97147E+08         0.00000E+00
    0.00000E+00         0.00000E+00        -0.56653E+08
 
   -0.56733E+08         0.90737E+06         0.00000E+00
    0.90737E+06        -0.97183E+08         0.00000E+00
    0.00000E+00         0.00000E+00        -0.56474E+08
 
   -0.56573E+08         0.84474E+06         0.00000E+00
    0.84474E+06        -0.97219E+08         0.00000E+00
    0.00000E+00         0.00000E+00        -0.56294E+08
 
   -0.56412E+08         0.77841E+06         0.00000E+00
    0.77841E+06        -0.97251E+08         0.00000E+00
    0.00000E+00         0.00000E+00        -0.56112E+08
 
   -0.56248E+08         0.70844E+06         0.00000E+00
    0.70844E+06        -0.97277E+08         0.00000E+00
    0.00000E+00         0.00000E+00        -0.55925E+08
 
   -0.56082E+08         0.63453E+06         0.00000E+00
    0.63453E+06        -0.97292E+08         0.00000E+00
    0.00000E+00         0.00000E+00        -0.55729E+08
 
   -0.55915E+08         0.55568E+06         0.00000E+00
    0.55568E+06        -0.97291E+08         0.00000E+00
    0.00000E+00         0.00000E+00        -0.55519E+08
 
   -0.55749E+08         0.46979E+06         0.00000E+00
    0.46979E+06        -0.97266E+08         0.00000E+00
    0.00000E+00         0.00000E+00        -0.55288E+08
 
   -0.55588E+08         0.37396E+06         0.00000E+00
    0.37396E+06        -0.97213E+08         0.00000E+00
    0.00000E+00         0.00000E+00        -0.55024E+08
 
   -0.55444E+08         0.26788E+06         0.00000E+00
    0.26788E+06        -0.97126E+08         0.00000E+00
    0.00000E+00         0.00000E+00        -0.54714E+08
 
   -0.55333E+08         0.15787E+06         0.00000E+00
    0.15787E+06        -0.97010E+08         0.00000E+00
    0.00000E+00         0.00000E+00        -0.54347E+08
 
   -0.55271E+08         0.51573E+05         0.00000E+00
    0.51573E+05        -0.96880E+08         0.00000E+00
    0.00000E+00         0.00000E+00        -0.53923E+08
 
   -0.76418E+08         0.83673E+05         0.00000E+00
    0.83673E+05        -0.97772E+08         0.00000E+00
    0.00000E+00         0.00000E+00        -0.78463E+08
 
   -0.76335E+08         0.25345E+06         0.00000E+00
    0.25345E+06        -0.97446E+08         0.00000E+00
    0.00000E+00         0.00000E+00        -0.78049E+08
 
   -0.76177E+08         0.42730E+06         0.00000E+00
    0.42730E+06        -0.97208E+08         0.00000E+00
    0.00000E+00         0.00000E+00        -0.77635E+08
 
   -0.75960E+08         0.60204E+06         0.00000E+00
    0.60204E+06        -0.97050E+08         0.00000E+00
    0.00000E+00         0.00000E+00        -0.77221E+08
 
   -0.75702E+08         0.77341E+06         0.00000E+00
    0.77341E+06        -0.96958E+08         0.00000E+00
    0.00000E+00         0.00000E+00        -0.76809E+08
 
   -0.75418E+08         0.93824E+06         0.00000E+00
    0.93824E+06        -0.96915E+08         0.00000E+00
    0.00000E+00         0.00000E+00        -0.76397E+08
 
   -0.75118E+08         0.10942E+07         0.00000E+00
    0.10942E+07        -0.96909E+08         0.00000E+00
    0.00000E+00         0.00000E+00        -0.75985E+08
 
   -0.74808E+08         0.12394E+07         0.00000E+00
    0.12394E+07        -0.96928E+08         0.00000E+00
    0.00000E+00         0.00000E+00        -0.75576E+08
 
   -0.74492E+08         0.13725E+07         0.00000E+00
    0.13725E+07        -0.96966E+08         0.00000E+00
    0.00000E+00         0.00000E+00        -0.75167E+08
 
   -0.74173E+08         0.14924E+07         0.00000E+00
    0.14924E+07        -0.97017E+08         0.00000E+00
    0.00000E+00         0.00000E+00        -0.74760E+08
 
   -0.73853E+08         0.15984E+07         0.00000E+00
    0.15984E+07        -0.97076E+08         0.00000E+00
    0.00000E+00         0.00000E+00        -0.74354E+08
 
   -0.73533E+08         0.16899E+07         0.00000E+00
    0.16899E+07        -0.97143E+08         0.00000E+00
    0.00000E+00         0.00000E+00        -0.73951E+08
 
   -0.73216E+08         0.17665E+07         0.00000E+00
    0.17665E+07        -0.97216E+08         0.00000E+00
    0.00000E+00         0.00000E+00        -0.73549E+08
 
   -0.72901E+08         0.18273E+07         0.00000E+00
    0.18273E+07        -0.97295E+08         0.00000E+00
    0.00000E+00         0.00000E+00        -0.73148E+08
 
   -0.72592E+08         0.18708E+07         0.00000E+00
    0.18708E+07        -0.97381E+08         0.00000E+00
    0.00000E+00         0.00000E+00        -0.72751E+08
 
   -0.72289E+08         0.18955E+07         0.00000E+00
    0.18955E+07        -0.97473E+08         0.00000E+00
    0.00000E+00         0.00000E+00        -0.72355E+08
 
   -0.71992E+08         0.18993E+07         0.00000E+00
    0.18993E+07        -0.97542E+08         0.00000E+00
    0.00000E+00         0.00000E+00        -0.72000E+08
 
   -0.71705E+08         0.19161E+07         0.00000E+00
    0.19161E+07        -0.97555E+08         0.00000E+00
    0.00000E+00         0.00000E+00        -0.71727E+08
 
   -0.71427E+08         0.19197E+07         0.00000E+00
    0.19197E+07        -0.97558E+08         0.00000E+00
    0.00000E+00         0.00000E+00        -0.71478E+08
 
   -0.71158E+08         0.19185E+07         0.00000E+00
    0.19185E+07        -0.97564E+08         0.00000E+00
    0.00000E+00         0.00000E+00        -0.71225E+08
 
   -0.70894E+08         0.19169E+07         0.00000E+00
    0.19169E+07        -0.97569E+08         0.00000E+00
    0.00000E+00         0.00000E+00        -0.70967E+08
 
   -0.70633E+08         0.19157E+07         0.00000E+00
    0.19157E+07        -0.97574E+08         0.00000E+00
    0.00000E+00         0.00000E+00        -0.70707E+08
 
   -0.70372E+08         0.19149E+07         0.00000E+00
    0.19149E+07        -0.97579E+08         0.00000E+00
    0.00000E+00         0.00000E+00        -0.70444E+08
 
   -0.70112E+08         0.19144E+07         0.00000E+00
    0.19144E+07        -0.97585E+08         0.00000E+00
    0.00000E+00         0.00000E+00        -0.70178E+08
 
   -0.69851E+08         0.19139E+07         0.00000E+00
    0.19139E+07        -0.97590E+08         0.00000E+00
    0.00000E+00         0.00000E+00        -0.69910E+08
 
   -0.69590E+08         0.19132E+07         0.00000E+00
    0.19132E+07        -0.97595E+08         0.00000E+00
    0.00000E+00         0.00000E+00        -0.69640E+08
 
   -0.69328E+08         0.19118E+07         0.00000E+00
    0.19118E+07        -0.97601E+08         0.00000E+00
    0.00000E+00         0.00000E+00        -0.69368E+08
 
   -0.69066E+08         0.19094E+07         0.00000E+00
    0.19094E+07        -0.97606E+08         0.00000E+00
    0.00000E+00         0.00000E+00        -0.69096E+08
 
   -0.68804E+08         0.19058E+07         0.00000E+00
    0.19058E+07        -0.97611E+08         0.00000E+00
    0.00000E+00         0.00000E+00        -0.68822E+08
 
   -0.68542E+08         0.19006E+07         0.00000E+00
    0.19006E+07        -0.97617E+08         0.00000E+00
    0.00000E+00         0.00000E+00        -0.68548E+08
 
   -0.68280E+08         0.18937E+07         0.00000E+00
    0.18937E+07        -0.97624E+08         0.00000E+00
    0.00000E+00         0.00000E+00        -0.68273E+08
 
   -0.68019E+08         0.18847E+07         0.00000E+00
    0.18847E+07        -0.97632E+08         0.00000E+00
    0.00000E+00         0.00000E+00        -0.67998E+08
 
   -0.67759E+08         0.18734E+07         0.00000E+00
    0.18734E+07        -0.97642E+08         0.00000E+00
    0.00000E+00         0.00000E+00        -0.67723E+08
 
   -0.67500E+08         0.18597E+07         0.00000E+00
    0.18597E+07        -0.97654E+08         0.00000E+00
    0.00000E+00         0.00000E+00        -0.67447E+08
 
   -0.67243E+08         0.18438E+07         0.00000E+00
    0.18438E+07        -0.97669E+08         0.00000E+00
    0.00000E+00         0.00000E+00        -0.67171E+08
 
   -0.66989E+08         0.18264E+07         0.00000E+00
    0.18264E+07        -0.97687E+08         0.00000E+00
    0.00000E+00         0.00000E+00        -0.66896E+08
 
   -0.66738E+08         0.18082E+07         0.00000E+00
    0.18082E+07        -0.97705E+08         0.00000E+00
    0.00000E+00         0.00000E+00        -0.66625E+08
 
   -0.66491E+08         0.17854E+07         0.00000E+00
    0.17854E+07        -0.97700E+08         0.00000E+00
    0.00000E+00         0.00000E+00        -0.66384E+08
 
   -0.66247E+08         0.17633E+07         0.00000E+00
    0.17633E+07        -0.97683E+08         0.00000E+00
    0.00000E+00         0.00000E+00        -0.66161E+08
 
   -0.66008E+08         0.17422E+07         0.00000E+00
    0.17422E+07        -0.97670E+08         0.00000E+00
    0.00000E+00         0.00000E+00        -0.65939E+08
 
   -0.65772E+08         0.17229E+07         0.00000E+00
    0.17229E+07        -0.97660E+08         0.00000E+00
    0.00000E+00         0.00000E+00        -0.65717E+08
 
   -0.65540E+08         0.17054E+07         0.00000E+00
    0.17054E+07        -0.97652E+08         0.00000E+00
    0.00000E+00         0.00000E+00        -0.65496E+08
 
   -0.65310E+08         0.16899E+07         0.00000E+00
    0.16899E+07        -0.97646E+08         0.00000E+00
    0.00000E+00         0.00000E+00        -0.65275E+08
 
   -0.65082E+08         0.16762E+07         0.00000E+00
    0.16762E+07        -0.97641E+08         0.00000E+00
    0.00000E+00         0.00000E+00        -0.65055E+08
 
   -0.64856E+08         0.16641E+07         0.00000E+00
    0.16641E+07        -0.97637E+08         0.00000E+00
    0.00000E+00         0.00000E+00        -0.64836E+08
 
   -0.64632E+08         0.16532E+07         0.00000E+00
    0.16532E+07        -0.97634E+08         0.00000E+00
    0.00000E+00         0.00000E+00        -0.64616E+08
 
   -0.64409E+08         0.16434E+07         0.00000E+00
    0.16434E+07        -0.97631E+08         0.00000E+00
    0.00000E+00         0.00000E+00        -0.64398E+08
 
   -0.64190E+08         0.16342E+07         0.00000E+00
    0.16342E+07        -0.97626E+08         0.00000E+00
    0.00000E+00         0.00000E+00        -0.64183E+08
 
   -0.63991E+08         0.16240E+07         0.00000E+00
    0.16240E+07        -0.97605E+08         0.00000E+00
    0.00000E+00         0.00000E+00        -0.63987E+08
 
   -0.63803E+08         0.16136E+07         0.00000E+00
    0.16136E+07        -0.97575E+08         0.00000E+00
    0.00000E+00         0.00000E+00        -0.63800E+08
 
   -0.63615E+08         0.16038E+07         0.00000E+00
    0.16038E+07        -0.97545E+08         0.00000E+00
    0.00000E+00         0.00000E+00        -0.63615E+08
 
   -0.63428E+08         0.15944E+07         0.00000E+00
    0.15944E+07        -0.97516E+08         0.00000E+00
    0.00000E+00         0.00000E+00        -0.63429E+08
 
   -0.63242E+08         0.15854E+07         0.00000E+00
    0.15854E+07        -0.97487E+08         0.00000E+00
    0.00000E+00         0.00000E+00        -0.63244E+08
 
   -0.63057E+08         0.15766E+07         0.00000E+00
    0.15766E+07        -0.97458E+08         0.00000E+00
    0.00000E+00         0.00000E+00        -0.63060E+08
 
   -0.62872E+08         0.15682E+07         0.00000E+00
    0.15682E+07        -0.97430E+08         0.00000E+00
    0.00000E+00         0.00000E+00        -0.62876E+08
 
   -0.62688E+08         0.15599E+07         0.00000E+00
    0.15599E+07        -0.97402E+08         0.00000E+00
    0.00000E+00         0.00000E+00        -0.62692E+08
 
   -0.62504E+08         0.15517E+07         0.00000E+00
    0.15517E+07        -0.97374E+08         0.00000E+00
    0.00000E+00         0.00000E+00        -0.62509E+08
 
   -0.62321E+08         0.15437E+07         0.00000E+00
    0.15437E+07        -0.97347E+08         0.00000E+00
    0.00000E+00         0.00000E+00        -0.62326E+08
 
   -0.62138E+08         0.15357E+07         0.00000E+00
    0.15357E+07        -0.97320E+08         0.00000E+00
    0.00000E+00         0.00000E+00        -0.62143E+08
 
   -0.61955E+08         0.15278E+07         0.00000E+00
    0.15278E+07        -0.97293E+08         0.00000E+00
    0.00000E+00         0.00000E+00        -0.61960E+08
 
   -0.61773E+08         0.15198E+07         0.00000E+00
    0.15198E+07        -0.97267E+08         0.00000E+00
    0.00000E+00         0.00000E+00        -0.61777E+08
 
   -0.61591E+08         0.15118E+07         0.00000E+00
    0.15118E+07        -0.97242E+08         0.00000E+00
    0.00000E+00         0.00000E+00        -0.61595E+08
 
   -0.61409E+08         0.15037E+07         0.00000E+00
    0.15037E+07        -0.97217E+08         0.00000E+00
    0.00000E+00         0.00000E+00        -0.61412E+08
 
   -0.61228E+08         0.14955E+07         0.00000E+00
    0.14955E+07        -0.97193E+08         0.00000E+00
    0.00000E+00         0.00000E+00        -0.61230E+08
 
   -0.61047E+08         0.14870E+07         0.00000E+00
    0.14870E+07        -0.97170E+08         0.00000E+00
    0.00000E+00         0.00000E+00        -0.61047E+08
 
   -0.60866E+08         0.14784E+07         0.00000E+00
    0.14784E+07        -0.97147E+08         0.00000E+00
    0.00000E+00         0.00000E+00        -0.60865E+08
 
   -0.60685E+08         0.14695E+07         0.00000E+00
    0.14695E+07        -0.97125E+08         0.00000E+00
    0.00000E+00         0.00000E+00        -0.60682E+08
 
   -0.60505E+08         0.14602E+07         0.00000E+00
    0.14602E+07        -0.97104E+08         0.00000E+00
    0.00000E+00         0.00000E+00        -0.60499E+08
 
   -0.60325E+08         0.14505E+07         0.00000E+00
    0.14505E+07        -0.97084E+08         0.00000E+00
    0.00000E+00         0.00000E+00        -0.60316E+08
 
   -0.60145E+08         0.14403E+07         0.00000E+00
    0.14403E+07        -0.97065E+08         0.00000E+00
    0.00000E+00         0.00000E+00        -0.60133E+08
 
   -0.59965E+08         0.14296E+07         0.00000E+00
    0.14296E+07        -0.97048E+08         0.00000E+00
    0.00000E+00         0.00000E+00        -0.59950E+08
 
   -0.59786E+08         0.14181E+07         0.00000E+00
    0.14181E+07        -0.97031E+08         0.00000E+00
    0.00000E+00         0.00000E+00        -0.59766E+08
 
   -0.59608E+08         0.14059E+07         0.00000E+00
    0.14059E+07        -0.97016E+08         0.00000E+00
    0.00000E+00         0.00000E+00        -0.59582E+08
 
   -0.59429E+08         0.13928E+07         0.00000E+00
    0.13928E+07        -0.97003E+08         0.00000E+00
    0.00000E+00         0.00000E+00        -0.59398E+08
 
   -0.59252E+08         0.13785E+07         0.00000E+00
    0.13785E+07        -0.96991E+08         0.00000E+00
    0.00000E+00         0.00000E+00        -0.59214E+08
 
   -0.59075E+08         0.13630E+07         0.00000E+00
    0.13630E+07        -0.96981E+08         0.00000E+00
    0.00000E+00         0.00000E+00        -0.59029E+08
 
   -0.58899E+08         0.13461E+07         0.00000E+00
    0.13461E+07        -0.96974E+08         0.00000E+00
    0.00000E+00         0.00000E+00        -0.58844E+08
 
   -0.58724E+08         0.13276E+07         0.00000E+00
    0.13276E+07        -0.96968E+08         0.00000E+00
    0.00000E+00         0.00000E+00        -0.58659E+08
 
   -0.58550E+08         0.13071E+07         0.00000E+00
    0.13071E+07        -0.96966E+08         0.00000E+00
    0.00000E+00         0.00000E+00        -0.58474E+08
 
   -0.58377E+08         0.12844E+07         0.00000E+00
    0.12844E+07        -0.96966E+08         0.00000E+00
    0.00000E+00         0.00000E+00        -0.58289E+08
 
   -0.58206E+08         0.12593E+07         0.00000E+00
    0.12593E+07        -0.96969E+08         0.00000E+00
    0.00000E+00         0.00000E+00        -0.58103E+08
 
   -0.58037E+08         0.12315E+07         0.00000E+00
    0.12315E+07        -0.96976E+08         0.00000E+00
    0.00000E+00         0.00000E+00        -0.57918E+08
 
   -0.57869E+08         0.12006E+07         0.00000E+00
    0.12006E+07        -0.96987E+08         0.00000E+00
    0.00000E+00         0.00000E+00        -0.57733E+08
 
   -0.57703E+08         0.11663E+07         0.00000E+00
    0.11663E+07        -0.97002E+08         0.00000E+00
    0.00000E+00         0.00000E+00        -0.57549E+08
 
   -0.57539E+08         0.11284E+07         0.00000E+00
    0.11284E+07        -0.97020E+08         0.00000E+00
    0.00000E+00         0.00000E+00        -0.57365E+08
 
   -0.57376E+08         0.10866E+07         0.00000E+00
    0.10866E+07        -0.97044E+08         0.00000E+00
    0.00000E+00         0.00000E+00        -0.57181E+08
 
   -0.57215E+08         0.10407E+07         0.00000E+00
    0.10407E+07        -0.97071E+08         0.00000E+00
    0.00000E+00         0.00000E+00        -0.56999E+08
 
   -0.57056E+08         0.99059E+06         0.00000E+00
    0.99059E+06        -0.97102E+08         0.00000E+00
    0.00000E+00         0.00000E+00        -0.56817E+08
 
   -0.56897E+08         0.93620E+06         0.00000E+00
    0.93620E+06        -0.97135E+08         0.00000E+00
    0.00000E+00         0.00000E+00        -0.56636E+08
 
   -0.56739E+08         0.87759E+06         0.00000E+00
    0.87759E+06        -0.97171E+08         0.00000E+00
    0.00000E+00         0.00000E+00        -0.56455E+08
 
   -0.56580E+08         0.81491E+06         0.00000E+00
    0.81491E+06        -0.97205E+08         0.00000E+00
    0.00000E+00         0.00000E+00        -0.56273E+08
 
   -0.56419E+08         0.74834E+06         0.00000E+00
    0.74834E+06        -0.97237E+08         0.00000E+00
    0.00000E+00         0.00000E+00        -0.56089E+08
 
   -0.56257E+08         0.67799E+06         0.00000E+00
    0.67799E+06        -0.97262E+08         0.00000E+00
    0.00000E+00         0.00000E+00        -0.55900E+08
 
   -0.56093E+08         0.60371E+06         0.00000E+00
    0.60371E+06        -0.97276E+08         0.00000E+00
    0.00000E+00         0.00000E+00        -0.55702E+08
 
   -0.55928E+08         0.52474E+06         0.00000E+00
    0.52474E+06        -0.97273E+08         0.00000E+00
    0.00000E+00         0.00000E+00        -0.55489E+08
 
   -0.55765E+08         0.43943E+06         0.00000E+00
    0.43943E+06        -0.97248E+08         0.00000E+00
    0.00000E+00         0.00000E+00        -0.55254E+08
 
   -0.55608E+08         0.34587E+06         0.00000E+00
    0.34587E+06        -0.97193E+08         0.00000E+00
    0.00000E+00         0.00000E+00        -0.54985E+08
 
   -0.55470E+08         0.24506E+06         0.00000E+00
    0.24506E+06        -0.97105E+08         0.00000E+00
    0.00000E+00         0.00000E+00        -0.54669E+08
 
   -0.55365E+08         0.14336E+06         0.00000E+00
    0.14336E+06        -0.96990E+08         0.00000E+00
    0.00000E+00         0.00000E+00        -0.54298E+08
 
   -0.55308E+08         0.46707E+05         0.00000E+00
    0.46707E+05        -0.96861E+08         0.00000E+00
    0.00000E+00         0.00000E+00        -0.53872E+08
 
   -0.76298E+08         0.75406E+05         0.00000E+00
    0.75406E+05        -0.97804E+08         0.00000E+00
    0.00000E+00         0.00000E+00        -0.78463E+08
 
   -0.76219E+08         0.22945E+06         0.00000E+00
    0.22945E+06        -0.97479E+08         0.00000E+00
    0.00000E+00         0.00000E+00        -0.78049E+08
 
   -0.76068E+08         0.38997E+06         0.00000E+00
    0.38997E+06        -0.97242E+08         0.00000E+00
    0.00000E+00         0.00000E+00        -0.77635E+08
 
   -0.75860E+08         0.55483E+06         0.00000E+00
    0.55483E+06        -0.97084E+08         0.00000E+00
    0.00000E+00         0.00000E+00        -0.77221E+08
 
   -0.75612E+08         0.71962E+06         0.00000E+00
    0.71962E+06        -0.96991E+08         0.00000E+00
    0.00000E+00         0.00000E+00        -0.76809E+08
 
   -0.75337E+08         0.88031E+06         0.00000E+00
    0.88031E+06        -0.96947E+08         0.00000E+00
    0.00000E+00         0.00000E+00        -0.76397E+08
 
   -0.75045E+08         0.10337E+07         0.00000E+00
    0.10337E+07        -0.96939E+08         0.00000E+00
    0.00000E+00         0.00000E+00        -0.75985E+08
 
   -0.74743E+08         0.11774E+07         0.00000E+00
    0.11774E+07        -0.96956E+08         0.00000E+00
    0.00000E+00         0.00000E+00        -0.75576E+08
 
   -0.74435E+08         0.13096E+07         0.00000E+00
    0.13096E+07        -0.96991E+08         0.00000E+00
    0.00000E+00         0.00000E+00        -0.75167E+08
 
   -0.74123E+08         0.14291E+07         0.00000E+00
    0.14291E+07        -0.97039E+08         0.00000E+00
    0.00000E+00         0.00000E+00        -0.74760E+08
 
   -0.73810E+08         0.15351E+07         0.00000E+00
    0.15351E+07        -0.97096E+08         0.00000E+00
    0.00000E+00         0.00000E+00        -0.74354E+08
 
   -0.73497E+08         0.16268E+07         0.00000E+00
    0.16268E+07        -0.97160E+08         0.00000E+00
    0.00000E+00         0.00000E+00        -0.73951E+08
 
   -0.73185E+08         0.17038E+07         0.00000E+00
    0.17038E+07        -0.97229E+08         0.00000E+00
    0.00000E+00         0.00000E+00        -0.73549E+08
 
   -0.72876E+08         0.17653E+07         0.00000E+00
    0.17653E+07        -0.97305E+08         0.00000E+00
    0.00000E+00         0.00000E+00        -0.73148E+08
 
   -0.72571E+08         0.18100E+07         0.00000E+00
    0.18100E+07        -0.97388E+08         0.00000E+00
    0.00000E+00         0.00000E+00        -0.72751E+08
 
   -0.72272E+08         0.18359E+07         0.00000E+00
    0.18359E+07        -0.97476E+08         0.00000E+00
    0.00000E+00         0.00000E+00        -0.72355E+08
 
   -0.71977E+08         0.18411E+07         0.00000E+00
    0.18411E+07        -0.97544E+08         0.00000E+00
    0.00000E+00         0.00000E+00        -0.71995E+08
 
   -0.71691E+08         0.18592E+07         0.00000E+00
    0.18592E+07        -0.97557E+08         0.00000E+00
    0.00000E+00         0.00000E+00        -0.71717E+08
 
   -0.71412E+08         0.18649E+07         0.00000E+00
    0.18649E+07        -0.97558E+08         0.00000E+00
    0.00000E+00         0.00000E+00        -0.71466E+08
 
   -0.71142E+08         0.18653E+07         0.00000E+00
    0.18653E+07        -0.97563E+08         0.00000E+00
    0.00000E+00         0.00000E+00        -0.71211E+08
 
   -0.70877E+08         0.18644E+07         0.00000E+00
    0.18644E+07        -0.97569E+08         0.00000E+00
    0.00000E+00         0.00000E+00        -0.70953E+08
 
   -0.70616E+08         0.18635E+07         0.00000E+00
    0.18635E+07        -0.97574E+08         0.00000E+00
    0.00000E+00         0.00000E+00        -0.70692E+08
 
   -0.70355E+08         0.18628E+07         0.00000E+00
    0.18628E+07        -0.97579E+08         0.00000E+00
    0.00000E+00         0.00000E+00        -0.70428E+08
 
   -0.70094E+08         0.18623E+07         0.00000E+00
    0.18623E+07        -0.97585E+08         0.00000E+00
    0.00000E+00         0.00000E+00        -0.70162E+08
 
   -0.69834E+08         0.18618E+07         0.00000E+00
    0.18618E+07        -0.97590E+08         0.00000E+00
    0.00000E+00         0.00000E+00        -0.69894E+08
 
   -0.69573E+08         0.18609E+07         0.00000E+00
    0.18609E+07        -0.97595E+08         0.00000E+00
    0.00000E+00         0.00000E+00        -0.69624E+08
 
   -0.69312E+08         0.18594E+07         0.00000E+00
    0.18594E+07        -0.97600E+08         0.00000E+00
    0.00000E+00         0.00000E+00        -0.69353E+08
 
   -0.69051E+08         0.18571E+07         0.00000E+00
    0.18571E+07        -0.97605E+08         0.00000E+00
    0.00000E+00         0.00000E+00        -0.69081E+08
 
   -0.68789E+08         0.18535E+07         0.00000E+00
    0.18535E+07        -0.97611E+08         0.00000E+00
    0.00000E+00         0.00000E+00        -0.68807E+08
 
   -0.68528E+08         0.18484E+07         0.00000E+00
    0.18484E+07        -0.97616E+08         0.00000E+00
    0.00000E+00         0.00000E+00        -0.68533E+08
 
   -0.68267E+08         0.18415E+07         0.00000E+00
    0.18415E+07        -0.97623E+08         0.00000E+00
    0.00000E+00         0.00000E+00        -0.68259E+08
 
   -0.68008E+08         0.18326E+07         0.00000E+00
    0.18326E+07        -0.97630E+08         0.00000E+00
    0.00000E+00         0.00000E+00        -0.67984E+08
 
   -0.67749E+08         0.18216E+07         0.00000E+00
    0.18216E+07        -0.97640E+08         0.00000E+00
    0.00000E+00         0.00000E+00        -0.67709E+08
 
   -0.67491E+08         0.18082E+07         0.00000E+00
    0.18082E+07        -0.97651E+08         0.00000E+00
    0.00000E+00         0.00000E+00        -0.67434E+08
 
   -0.67236E+08         0.17928E+07         0.00000E+00
    0.17928E+07        -0.97666E+08         0.00000E+00
    0.00000E+00         0.00000E+00        -0.67159E+08
 
   -0.66983E+08         0.17760E+07         0.00000E+00
    0.17760E+07        -0.97683E+08         0.00000E+00
    0.00000E+00         0.00000E+00        -0.66885E+08
 
   -0.66733E+08         0.17584E+07         0.00000E+00
    0.17584E+07        -0.97701E+08         0.00000E+00
    0.00000E+00         0.00000E+00        -0.66615E+08
 
   -0.66486E+08         0.17364E+07         0.00000E+00
    0.17364E+07        -0.97696E+08         0.00000E+00
    0.00000E+00         0.00000E+00        -0.66375E+08
 
   -0.66243E+08         0.17150E+07         0.00000E+00
    0.17150E+07        -0.97679E+08         0.00000E+00
    0.00000E+00         0.00000E+00        -0.66152E+08
 
   -0.66003E+08         0.16947E+07         0.00000E+00
    0.16947E+07        -0.97666E+08         0.00000E+00
    0.00000E+00         0.00000E+00        -0.65930E+08
 
   -0.65768E+08         0.16760E+07         0.00000E+00
    0.16760E+07        -0.97657E+08         0.00000E+00
    0.00000E+00         0.00000E+00        -0.65709E+08
 
   -0.65535E+08         0.16592E+07         0.00000E+00
    0.16592E+07        -0.97649E+08         0.00000E+00
    0.00000E+00         0.00000E+00        -0.65488E+08
 
   -0.65305E+08         0.16442E+07         0.00000E+00
    0.16442E+07        -0.97643E+08         0.00000E+00
    0.00000E+00         0.00000E+00        -0.65268E+08
 
   -0.65077E+08         0.16309E+07         0.00000E+00
    0.16309E+07        -0.97638E+08         0.00000E+00
    0.00000E+00         0.00000E+00        -0.65048E+08
 
   -0.64851E+08         0.16190E+07         0.00000E+00
    0.16190E+07        -0.97635E+08         0.00000E+00
    0.00000E+00         0.00000E+00        -0.64829E+08
 
   -0.64627E+08         0.16085E+07         0.00000E+00
    0.16085E+07        -0.97632E+08         0.00000E+00
    0.00000E+00         0.00000E+00        -0.64610E+08
 
   -0.64404E+08         0.15990E+07         0.00000E+00
    0.15990E+07        -0.97629E+08         0.00000E+00
    0.00000E+00         0.00000E+00        -0.64392E+08
 
   -0.64186E+08         0.15900E+07         0.00000E+00
    0.15900E+07        -0.97625E+08         0.00000E+00
    0.00000E+00         0.00000E+00        -0.64177E+08
 
   -0.63987E+08         0.15801E+07         0.00000E+00
    0.15801E+07        -0.97603E+08         0.00000E+00
    0.00000E+00         0.00000E+00        -0.63982E+08
 
   -0.63798E+08         0.15700E+07         0.00000E+00
    0.15700E+07        -0.97573E+08         0.00000E+00
    0.00000E+00         0.00000E+00        -0.63796E+08
 
   -0.63611E+08         0.15604E+07         0.00000E+00
    0.15604E+07        -0.97544E+08         0.00000E+00
    0.00000E+00         0.00000E+00        -0.63610E+08
 
   -0.63424E+08         0.15513E+07         0.00000E+00
    0.15513E+07        -0.97515E+08         0.00000E+00
    0.00000E+00         0.00000E+00        -0.63425E+08
 
   -0.63238E+08         0.15425E+07         0.00000E+00
    0.15425E+07        -0.97486E+08         0.00000E+00
    0.00000E+00         0.00000E+00        -0.63240E+08
 
   -0.63053E+08         0.15340E+07         0.00000E+00
    0.15340E+07        -0.97457E+08         0.00000E+00
    0.00000E+00         0.00000E+00        -0.63056E+08
 
   -0.62868E+08         0.15258E+07         0.00000E+00
    0.15258E+07        -0.97429E+08         0.00000E+00
    0.00000E+00         0.00000E+00        -0.62872E+08
 
   -0.62684E+08         0.15177E+07         0.00000E+00
    0.15177E+07        -0.97401E+08         0.00000E+00
    0.00000E+00         0.00000E+00        -0.62689E+08
 
   -0.62500E+08         0.15098E+07         0.00000E+00
    0.15098E+07        -0.97374E+08         0.00000E+00
    0.00000E+00         0.00000E+00        -0.62505E+08
 
   -0.62317E+08         0.15020E+07         0.00000E+00
    0.15020E+07        -0.97346E+08         0.00000E+00
    0.00000E+00         0.00000E+00        -0.62322E+08
 
   -0.62134E+08         0.14942E+07         0.00000E+00
    0.14942E+07        -0.97320E+08         0.00000E+00
    0.00000E+00         0.00000E+00        -0.62139E+08
 
   -0.61952E+08         0.14865E+07         0.00000E+00
    0.14865E+07        -0.97293E+08         0.00000E+00
    0.00000E+00         0.00000E+00        -0.61957E+08
 
   -0.61770E+08         0.14788E+07         0.00000E+00
    0.14788E+07        -0.97267E+08         0.00000E+00
    0.00000E+00         0.00000E+00        -0.61774E+08
 
   -0.61588E+08         0.14710E+07         0.00000E+00
    0.14710E+07        -0.97242E+08         0.00000E+00
    0.00000E+00         0.00000E+00        -0.61592E+08
 
   -0.61406E+08         0.14631E+07         0.00000E+00
    0.14631E+07        -0.97217E+08         0.00000E+00
    0.00000E+00         0.00000E+00        -0.61409E+08
 
   -0.61225E+08         0.14551E+07         0.00000E+00
    0.14551E+07        -0.97193E+08         0.00000E+00
    0.00000E+00         0.00000E+00        -0.61227E+08
 
   -0.61044E+08         0.14469E+07         0.00000E+00
    0.14469E+07        -0.97170E+08         0.00000E+00
    0.00000E+00         0.00000E+00        -0.61044E+08
 
   -0.60863E+08         0.14384E+07         0.00000E+00
    0.14384E+07        -0.97147E+08         0.00000E+00
    0.00000E+00         0.00000E+00        -0.60862E+08
 
   -0.60683E+08         0.14297E+07         0.00000E+00
    0.14297E+07        -0.97126E+08         0.00000E+00
    0.00000E+00         0.00000E+00        -0.60679E+08
 
   -0.60502E+08         0.14207E+07         0.00000E+00
    0.14207E+07        -0.97105E+08         0.00000E+00
    0.00000E+00         0.00000E+00        -0.60496E+08
 
   -0.60322E+08         0.14113E+07         0.00000E+00
    0.14113E+07        -0.97085E+08         0.00000E+00
    0.00000E+00         0.00000E+00        -0.60313E+08
 
   -0.60143E+08         0.14014E+07         0.00000E+00
    0.14014E+07        -0.97066E+08         0.00000E+00
    0.00000E+00         0.00000E+00        -0.60130E+08
 
   -0.59963E+08         0.13909E+07         0.00000E+00
    0.13909E+07        -0.97048E+08         0.00000E+00
    0.00000E+00         0.00000E+00        -0.59947E+08
 
   -0.59784E+08         0.13798E+07         0.00000E+00
    0.13798E+07        -0.97032E+08         0.00000E+00
    0.00000E+00         0.00000E+00        -0.59763E+08
 
   -0.59606E+08         0.13679E+07         0.00000E+00
    0.13679E+07        -0.97016E+08         0.00000E+00
    0.00000E+00         0.00000E+00        -0.59579E+08
 
   -0.59427E+08         0.13551E+07         0.00000E+00
    0.13551E+07        -0.97003E+08         0.00000E+00
    0.00000E+00         0.00000E+00        -0.59395E+08
 
   -0.59250E+08         0.13412E+07         0.00000E+00
    0.13412E+07        -0.96991E+08         0.00000E+00
    0.00000E+00         0.00000E+00        -0.59210E+08
 
   -0.59073E+08         0.13262E+07         0.00000E+00
    0.13262E+07        -0.96981E+08         0.00000E+00
    0.00000E+00         0.00000E+00        -0.59025E+08
 
   -0.58898E+08         0.13097E+07         0.00000E+00
    0.13097E+07        -0.96973E+08         0.00000E+00
    0.00000E+00         0.00000E+00        -0.58840E+08
 
   -0.58723E+08         0.12916E+07         0.00000E+00
    0.12916E+07        -0.96967E+08         0.00000E+00
    0.00000E+00         0.00000E+00        -0.58654E+08
 
   -0.58549E+08         0.12716E+07         0.00000E+00
    0.12716E+07        -0.96964E+08         0.00000E+00
    0.00000E+00         0.00000E+00        -0.58468E+08
 
   -0.58377E+08         0.12495E+07         0.00000E+00
    0.12495E+07        -0.96963E+08         0.00000E+00
    0.00000E+00         0.00000E+00        -0.58282E+08
 
   -0.58206E+08         0.12250E+07         0.00000E+00
    0.12250E+07        -0.96966E+08         0.00000E+00
    0.00000E+00         0.00000E+00        -0.58096E+08
 
   -0.58037E+08         0.11978E+07         0.00000E+00
    0.11978E+07        -0.96972E+08         0.00000E+00
    0.00000E+00         0.00000E+00        -0.57910E+08
 
   -0.57869E+08         0.11676E+07         0.00000E+00
    0.11676E+07        -0.96982E+08         0.00000E+00
    0.00000E+00         0.00000E+00        -0.57724E+08
 
   -0.57704E+08         0.11339E+07         0.00000E+00
    0.11339E+07        -0.96996E+08         0.00000E+00
    0.00000E+00         0.00000E+00        -0.57539E+08
 
   -0.57540E+08         0.10967E+07         0.00000E+00
    0.10967E+07        -0.97014E+08         0.00000E+00
    0.00000E+00         0.00000E+00        -0.57353E+08
 
   -0.57378E+08         0.10555E+07         0.00000E+00
    0.10555E+07        -0.97036E+08         0.00000E+00
    0.00000E+00         0.00000E+00        -0.57169E+08
 
   -0.57218E+08         0.10101E+07         0.00000E+00
    0.10101E+07        -0.97062E+08         0.00000E+00
    0.00000E+00         0.00000E+00        -0.56985E+08
 
   -0.57059E+08         0.96048E+06         0.00000E+00
    0.96048E+06        -0.97092E+08         0.00000E+00
    0.00000E+00         0.00000E+00        -0.56802E+08
 
   -0.56901E+08         0.90642E+06         0.00000E+00
    0.90642E+06        -0.97124E+08         0.00000E+00
    0.00000E+00         0.00000E+00        -0.56619E+08
 
   -0.56744E+08         0.84798E+06         0.00000E+00
    0.84798E+06        -0.97158E+08         0.00000E+00
    0.00000E+00         0.00000E+00        -0.56436E+08
 
   -0.56586E+08         0.78528E+06         0.00000E+00
    0.78528E+06        -0.97192E+08         0.00000E+00
    0.00000E+00         0.00000E+00        -0.56252E+08
 
   -0.56427E+08         0.71852E+06         0.00000E+00
    0.71852E+06        -0.97223E+08         0.00000E+00
    0.00000E+00         0.00000E+00        -0.56066E+08
 
   -0.56267E+08         0.64786E+06         0.00000E+00
    0.64786E+06        -0.97247E+08         0.00000E+00
    0.00000E+00         0.00000E+00        -0.55874E+08
 
   -0.56105E+08         0.57330E+06         0.00000E+00
    0.57330E+06        -0.97260E+08         0.00000E+00
    0.00000E+00         0.00000E+00        -0.55674E+08
 
   -0.55942E+08         0.49434E+06         0.00000E+00
    0.49434E+06        -0.97256E+08         0.00000E+00
    0.00000E+00         0.00000E+00        -0.55458E+08
 
   -0.55782E+08         0.40988E+06         0.00000E+00
    0.40988E+06        -0.97229E+08         0.00000E+00
    0.00000E+00         0.00000E+00        -0.55219E+08
 
   -0.55630E+08         0.31897E+06         0.00000E+00
    0.31897E+06        -0.97174E+08         0.00000E+00
    0.00000E+00         0.00000E+00        -0.54946E+08
 
   -0.55497E+08         0.22362E+06         0.00000E+00
    0.22362E+06        -0.97086E+08         0.00000E+00
    0.00000E+00         0.00000E+00        -0.54625E+08
 
   -0.55398E+08         0.12991E+06         0.00000E+00
    0.12991E+06        -0.96972E+08         0.00000E+00
    0.00000E+00         0.00000E+00        -0.54250E+08
 
   -0.55344E+08         0.42218E+05         0.00000E+00
    0.42218E+05        -0.96845E+08         0.00000E+00
    0.00000E+00         0.00000E+00        -0.53823E+08
 
   -0.76181E+08         0.67521E+05         0.00000E+00
    0.67521E+05        -0.97832E+08         0.00000E+00
    0.00000E+00         0.00000E+00        -0.78463E+08
 
   -0.76105E+08         0.20654E+06         0.00000E+00
    0.20654E+06        -0.97509E+08         0.00000E+00
    0.00000E+00         0.00000E+00        -0.78049E+08
 
   -0.75961E+08         0.35423E+06         0.00000E+00
    0.35423E+06        -0.97274E+08         0.00000E+00
    0.00000E+00         0.00000E+00        -0.77635E+08
 
   -0.75761E+08         0.50943E+06         0.00000E+00
    0.50943E+06        -0.97116E+08         0.00000E+00
    0.00000E+00         0.00000E+00        -0.77221E+08
 
   -0.75522E+08         0.66767E+06         0.00000E+00
    0.66767E+06        -0.97023E+08         0.00000E+00
    0.00000E+00         0.00000E+00        -0.76809E+08
 
   -0.75256E+08         0.82417E+06         0.00000E+00
    0.82417E+06        -0.96978E+08         0.00000E+00
    0.00000E+00         0.00000E+00        -0.76397E+08
 
   -0.74973E+08         0.97496E+06         0.00000E+00
    0.97496E+06        -0.96968E+08         0.00000E+00
    0.00000E+00         0.00000E+00        -0.75985E+08
 
   -0.74679E+08         0.11170E+07         0.00000E+00
    0.11170E+07        -0.96984E+08         0.00000E+00
    0.00000E+00         0.00000E+00        -0.75576E+08
 
   -0.74379E+08         0.12483E+07         0.00000E+00
    0.12483E+07        -0.97016E+08         0.00000E+00
    0.00000E+00         0.00000E+00        -0.75167E+08
 
   -0.74074E+08         0.13672E+07         0.00000E+00
    0.13672E+07        -0.97062E+08         0.00000E+00
    0.00000E+00         0.00000E+00        -0.74760E+08
 
   -0.73767E+08         0.14730E+07         0.00000E+00
    0.14730E+07        -0.97116E+08         0.00000E+00
    0.00000E+00         0.00000E+00        -0.74354E+08
 
   -0.73460E+08         0.15648E+07         0.00000E+00
    0.15648E+07        -0.97177E+08         0.00000E+00
    0.00000E+00         0.00000E+00        -0.73951E+08
 
   -0.73154E+08         0.16422E+07         0.00000E+00
    0.16422E+07        -0.97243E+08         0.00000E+00
    0.00000E+00         0.00000E+00        -0.73549E+08
 
   -0.72850E+08         0.17043E+07         0.00000E+00
    0.17043E+07        -0.97316E+08         0.00000E+00
    0.00000E+00         0.00000E+00        -0.73148E+08
 
   -0.72550E+08         0.17499E+07         0.00000E+00
    0.17499E+07        -0.97395E+08         0.00000E+00
    0.00000E+00         0.00000E+00        -0.72751E+08
 
   -0.72254E+08         0.17769E+07         0.00000E+00
    0.17769E+07        -0.97479E+08         0.00000E+00
    0.00000E+00         0.00000E+00        -0.72355E+08
 
   -0.71962E+08         0.17833E+07         0.00000E+00
    0.17833E+07        -0.97546E+08         0.00000E+00
    0.00000E+00         0.00000E+00        -0.71991E+08
 
   -0.71677E+08         0.18024E+07         0.00000E+00
    0.18024E+07        -0.97559E+08         0.00000E+00
    0.00000E+00         0.00000E+00        -0.71706E+08
 
   -0.71398E+08         0.18100E+07         0.00000E+00
    0.18100E+07        -0.97559E+08         0.00000E+00
    0.00000E+00         0.00000E+00        -0.71454E+08
 
   -0.71127E+08         0.18118E+07         0.00000E+00
    0.18118E+07        -0.97563E+08         0.00000E+00
    0.00000E+00         0.00000E+00        -0.71198E+08
 
   -0.70862E+08         0.18118E+07         0.00000E+00
    0.18118E+07        -0.97568E+08         0.00000E+00
    0.00000E+00         0.00000E+00        -0.70939E+08
 
   -0.70599E+08         0.18112E+07         0.00000E+00
    0.18112E+07        -0.97574E+08         0.00000E+00
    0.00000E+00         0.00000E+00        -0.70678E+08
 
   -0.70338E+08         0.18107E+07         0.00000E+00
    0.18107E+07        -0.97579E+08         0.00000E+00
    0.00000E+00         0.00000E+00        -0.70413E+08
 
   -0.70078E+08         0.18102E+07         0.00000E+00
    0.18102E+07        -0.97584E+08         0.00000E+00
    0.00000E+00         0.00000E+00        -0.70147E+08
 
   -0.69817E+08         0.18096E+07         0.00000E+00
    0.18096E+07        -0.97590E+08         0.00000E+00
    0.00000E+00         0.00000E+00        -0.69879E+08
 
   -0.69557E+08         0.18088E+07         0.00000E+00
    0.18088E+07        -0.97595E+08         0.00000E+00
    0.00000E+00         0.00000E+00        -0.69609E+08
 
   -0.69296E+08         0.18073E+07         0.00000E+00
    0.18073E+07        -0.97600E+08         0.00000E+00
    0.00000E+00         0.00000E+00        -0.69338E+08
 
   -0.69036E+08         0.18049E+07         0.00000E+00
    0.18049E+07        -0.97605E+08         0.00000E+00
    0.00000E+00         0.00000E+00        -0.69066E+08
 
   -0.68775E+08         0.18013E+07         0.00000E+00
    0.18013E+07        -0.97610E+08         0.00000E+00
    0.00000E+00         0.00000E+00        -0.68793E+08
 
   -0.68515E+08         0.17963E+07         0.00000E+00
    0.17963E+07        -0.97615E+08         0.00000E+00
    0.00000E+00         0.00000E+00        -0.68519E+08
 
   -0.68255E+08         0.17895E+07         0.00000E+00
    0.17895E+07        -0.97621E+08         0.00000E+00
    0.00000E+00         0.00000E+00        -0.68245E+08
 
   -0.67996E+08         0.17809E+07         0.00000E+00
    0.17809E+07        -0.97629E+08         0.00000E+00
    0.00000E+00         0.00000E+00        -0.67971E+08
 
   -0.67739E+08         0.17701E+07         0.00000E+00
    0.17701E+07        -0.97637E+08         0.00000E+00
    0.00000E+00         0.00000E+00        -0.67696E+08
 
   -0.67483E+08         0.17571E+07         0.00000E+00
    0.17571E+07        -0.97648E+08         0.00000E+00
    0.00000E+00         0.00000E+00        -0.67422E+08
 
   -0.67228E+08         0.17421E+07         0.00000E+00
    0.17421E+07        -0.97662E+08         0.00000E+00
    0.00000E+00         0.00000E+00        -0.67147E+08
 
   -0.66977E+08         0.17258E+07         0.00000E+00
    0.17258E+07        -0.97680E+08         0.00000E+00
    0.00000E+00         0.00000E+00        -0.66873E+08
 
   -0.66727E+08         0.17088E+07         0.00000E+00
    0.17088E+07        -0.97697E+08         0.00000E+00
    0.00000E+00         0.00000E+00        -0.66604E+08
 
   -0.66481E+08         0.16874E+07         0.00000E+00
    0.16874E+07        -0.97691E+08         0.00000E+00
    0.00000E+00         0.00000E+00        -0.66365E+08
 
   -0.66238E+08         0.16668E+07         0.00000E+00
    0.16668E+07        -0.97675E+08         0.00000E+00
    0.00000E+00         0.00000E+00        -0.66143E+08
 
   -0.65999E+08         0.16472E+07         0.00000E+00
    0.16472E+07        -0.97662E+08         0.00000E+00
    0.00000E+00         0.00000E+00        -0.65922E+08
 
   -0.65763E+08         0.16292E+07         0.00000E+00
    0.16292E+07        -0.97653E+08         0.00000E+00
    0.00000E+00         0.00000E+00        -0.65701E+08
 
   -0.65530E+08         0.16129E+07         0.00000E+00
    0.16129E+07        -0.97646E+08         0.00000E+00
    0.00000E+00         0.00000E+00        -0.65481E+08
 
   -0.65300E+08         0.15984E+07         0.00000E+00
    0.15984E+07        -0.97640E+08         0.00000E+00
    0.00000E+00         0.00000E+00        -0.65261E+08
 
   -0.65072E+08         0.15855E+07         0.00000E+00
    0.15855E+07        -0.97636E+08         0.00000E+00
    0.00000E+00         0.00000E+00        -0.65041E+08
 
   -0.64846E+08         0.15740E+07         0.00000E+00
    0.15740E+07        -0.97632E+08         0.00000E+00
    0.00000E+00         0.00000E+00        -0.64822E+08
 
   -0.64622E+08         0.15638E+07         0.00000E+00
    0.15638E+07        -0.97630E+08         0.00000E+00
    0.00000E+00         0.00000E+00        -0.64604E+08
 
   -0.64399E+08         0.15545E+07         0.00000E+00
    0.15545E+07        -0.97628E+08         0.00000E+00
    0.00000E+00         0.00000E+00        -0.64386E+08
 
   -0.64181E+08         0.15458E+07         0.00000E+00
    0.15458E+07        -0.97623E+08         0.00000E+00
    0.00000E+00         0.00000E+00        -0.64172E+08
 
   -0.63982E+08         0.15362E+07         0.00000E+00
    0.15362E+07        -0.97601E+08         0.00000E+00
    0.00000E+00         0.00000E+00        -0.63977E+08
 
   -0.63794E+08         0.15264E+07         0.00000E+00
    0.15264E+07        -0.97572E+08         0.00000E+00
    0.00000E+00         0.00000E+00        -0.63791E+08
 
   -0.63606E+08         0.15171E+07         0.00000E+00
    0.15171E+07        -0.97543E+08         0.00000E+00
    0.00000E+00         0.00000E+00        -0.63606E+08
 
   -0.63420E+08         0.15083E+07         0.00000E+00
    0.15083E+07        -0.97514E+08         0.00000E+00
    0.00000E+00         0.00000E+00        -0.63421E+08
 
   -0.63234E+08         0.14997E+07         0.00000E+00
    0.14997E+07        -0.97485E+08         0.00000E+00
    0.00000E+00         0.00000E+00        -0.63236E+08
 
   -0.63049E+08         0.14915E+07         0.00000E+00
    0.14915E+07        -0.97457E+08         0.00000E+00
    0.00000E+00         0.00000E+00        -0.63052E+08
 
   -0.62864E+08         0.14835E+07         0.00000E+00
    0.14835E+07        -0.97429E+08         0.00000E+00
    0.00000E+00         0.00000E+00        -0.62868E+08
 
   -0.62680E+08         0.14756E+07         0.00000E+00
    0.14756E+07        -0.97401E+08         0.00000E+00
    0.00000E+00         0.00000E+00        -0.62685E+08
 
   -0.62496E+08         0.14679E+07         0.00000E+00
    0.14679E+07        -0.97373E+08         0.00000E+00
    0.00000E+00         0.00000E+00        -0.62502E+08
 
   -0.62313E+08         0.14603E+07         0.00000E+00
    0.14603E+07        -0.97346E+08         0.00000E+00
    0.00000E+00         0.00000E+00        -0.62319E+08
 
   -0.62131E+08         0.14528E+07         0.00000E+00
    0.14528E+07        -0.97320E+08         0.00000E+00
    0.00000E+00         0.00000E+00        -0.62136E+08
 
   -0.61948E+08         0.14453E+07         0.00000E+00
    0.14453E+07        -0.97293E+08         0.00000E+00
    0.00000E+00         0.00000E+00        -0.61954E+08
 
   -0.61766E+08         0.14377E+07         0.00000E+00
    0.14377E+07        -0.97268E+08         0.00000E+00
    0.00000E+00         0.00000E+00        -0.61771E+08
 
   -0.61584E+08         0.14302E+07         0.00000E+00
    0.14302E+07        -0.97242E+08         0.00000E+00
    0.00000E+00         0.00000E+00        -0.61589E+08
 
   -0.61403E+08         0.14225E+07         0.00000E+00
    0.14225E+07        -0.97218E+08         0.00000E+00
    0.00000E+00         0.00000E+00        -0.61406E+08
 
   -0.61222E+08         0.14147E+07         0.00000E+00
    0.14147E+07        -0.97194E+08         0.00000E+00
    0.00000E+00         0.00000E+00        -0.61224E+08
 
   -0.61041E+08         0.14067E+07         0.00000E+00
    0.14067E+07        -0.97171E+08         0.00000E+00
    0.00000E+00         0.00000E+00        -0.61042E+08
 
   -0.60860E+08         0.13985E+07         0.00000E+00
    0.13985E+07        -0.97148E+08         0.00000E+00
    0.00000E+00         0.00000E+00        -0.60859E+08
 
   -0.60680E+08         0.13900E+07         0.00000E+00
    0.13900E+07        -0.97126E+08         0.00000E+00
    0.00000E+00         0.00000E+00        -0.60676E+08
 
   -0.60500E+08         0.13813E+07         0.00000E+00
    0.13813E+07        -0.97105E+08         0.00000E+00
    0.00000E+00         0.00000E+00        -0.60494E+08
 
   -0.60320E+08         0.13721E+07         0.00000E+00
    0.13721E+07        -0.97085E+08         0.00000E+00
    0.00000E+00         0.00000E+00        -0.60311E+08
 
   -0.60140E+08         0.13624E+07         0.00000E+00
    0.13624E+07        -0.97066E+08         0.00000E+00
    0.00000E+00         0.00000E+00        -0.60127E+08
 
   -0.59961E+08         0.13523E+07         0.00000E+00
    0.13523E+07        -0.97048E+08         0.00000E+00
    0.00000E+00         0.00000E+00        -0.59944E+08
 
   -0.59782E+08         0.13414E+07         0.00000E+00
    0.13414E+07        -0.97032E+08         0.00000E+00
    0.00000E+00         0.00000E+00        -0.59760E+08
 
   -0.59604E+08         0.13299E+07         0.00000E+00
    0.13299E+07        -0.97016E+08         0.00000E+00
    0.00000E+00         0.00000E+00        -0.59576E+08
 
   -0.59426E+08         0.13174E+07         0.00000E+00
    0.13174E+07        -0.97003E+08         0.00000E+00
    0.00000E+00         0.00000E+00        -0.59391E+08
 
   -0.59248E+08         0.13039E+07         0.00000E+00
    0.13039E+07        -0.96990E+08         0.00000E+00
    0.00000E+00         0.00000E+00        -0.59206E+08
 
   -0.59072E+08         0.12893E+07         0.00000E+00
    0.12893E+07        -0.96980E+08         0.00000E+00
    0.00000E+00         0.00000E+00        -0.59021E+08
 
   -0.58896E+08         0.12733E+07         0.00000E+00
    0.12733E+07        -0.96971E+08         0.00000E+00
    0.00000E+00         0.00000E+00        -0.58835E+08
 
   -0.58722E+08         0.12557E+07         0.00000E+00
    0.12557E+07        -0.96965E+08         0.00000E+00
    0.00000E+00         0.00000E+00        -0.58649E+08
 
   -0.58548E+08         0.12362E+07         0.00000E+00
    0.12362E+07        -0.96962E+08         0.00000E+00
    0.00000E+00         0.00000E+00        -0.58463E+08
 
   -0.58376E+08         0.12147E+07         0.00000E+00
    0.12147E+07        -0.96961E+08         0.00000E+00
    0.00000E+00         0.00000E+00        -0.58276E+08
 
   -0.58206E+08         0.11908E+07         0.00000E+00
    0.11908E+07        -0.96963E+08         0.00000E+00
    0.00000E+00         0.00000E+00        -0.58089E+08
 
   -0.58037E+08         0.11642E+07         0.00000E+00
    0.11642E+07        -0.96968E+08         0.00000E+00
    0.00000E+00         0.00000E+00        -0.57902E+08
 
   -0.57870E+08         0.11346E+07         0.00000E+00
    0.11346E+07        -0.96977E+08         0.00000E+00
    0.00000E+00         0.00000E+00        -0.57716E+08
 
   -0.57705E+08         0.11016E+07         0.00000E+00
    0.11016E+07        -0.96990E+08         0.00000E+00
    0.00000E+00         0.00000E+00        -0.57529E+08
 
   -0.57542E+08         0.10650E+07         0.00000E+00
    0.10650E+07        -0.97007E+08         0.00000E+00
    0.00000E+00         0.00000E+00        -0.57342E+08
 
   -0.57380E+08         0.10245E+07         0.00000E+00
    0.10245E+07        -0.97028E+08         0.00000E+00
    0.00000E+00         0.00000E+00        -0.57156E+08
 
   -0.57221E+08         0.97969E+06         0.00000E+00
    0.97969E+06        -0.97053E+08         0.00000E+00
    0.00000E+00         0.00000E+00        -0.56971E+08
 
   -0.57063E+08         0.93050E+06         0.00000E+00
    0.93050E+06        -0.97082E+08         0.00000E+00
    0.00000E+00         0.00000E+00        -0.56786E+08
 
   -0.56906E+08         0.87679E+06         0.00000E+00
    0.87679E+06        -0.97113E+08         0.00000E+00
    0.00000E+00         0.00000E+00        -0.56601E+08
 
   -0.56750E+08         0.81856E+06         0.00000E+00
    0.81856E+06        -0.97146E+08         0.00000E+00
    0.00000E+00         0.00000E+00        -0.56417E+08
 
   -0.56593E+08         0.75589E+06         0.00000E+00
    0.75589E+06        -0.97179E+08         0.00000E+00
    0.00000E+00         0.00000E+00        -0.56231E+08
 
   -0.56436E+08         0.68898E+06         0.00000E+00
    0.68898E+06        -0.97208E+08         0.00000E+00
    0.00000E+00         0.00000E+00        -0.56042E+08
 
   -0.56277E+08         0.61809E+06         0.00000E+00
    0.61809E+06        -0.97232E+08         0.00000E+00
    0.00000E+00         0.00000E+00        -0.55848E+08
 
   -0.56117E+08         0.54333E+06         0.00000E+00
    0.54333E+06        -0.97244E+08         0.00000E+00
    0.00000E+00         0.00000E+00        -0.55645E+08
 
   -0.55957E+08         0.46455E+06         0.00000E+00
    0.46455E+06        -0.97239E+08         0.00000E+00
    0.00000E+00         0.00000E+00        -0.55427E+08
 
   -0.55800E+08         0.38119E+06         0.00000E+00
    0.38119E+06        -0.97212E+08         0.00000E+00
    0.00000E+00         0.00000E+00        -0.55184E+08
 
   -0.55652E+08         0.29323E+06         0.00000E+00
    0.29323E+06        -0.97155E+08         0.00000E+00
    0.00000E+00         0.00000E+00        -0.54906E+08
 
   -0.55525E+08         0.20342E+06         0.00000E+00
    0.20342E+06        -0.97068E+08         0.00000E+00
    0.00000E+00         0.00000E+00        -0.54582E+08
 
   -0.55431E+08         0.11737E+06         0.00000E+00
    0.11737E+06        -0.96956E+08         0.00000E+00
    0.00000E+00         0.00000E+00        -0.54204E+08
 
   -0.55380E+08         0.38046E+05         0.00000E+00
    0.38046E+05        -0.96830E+08         0.00000E+00
    0.00000E+00         0.00000E+00        -0.53776E+08
 
   -0.76066E+08         0.59960E+05         0.00000E+00
    0.59960E+05        -0.97858E+08         0.00000E+00
    0.00000E+00         0.00000E+00        -0.78463E+08
 
   -0.75993E+08         0.18456E+06         0.00000E+00
    0.18456E+06        -0.97536E+08         0.00000E+00
    0.00000E+00         0.00000E+00        -0.78049E+08
 
   -0.75855E+08         0.31991E+06         0.00000E+00
    0.31991E+06        -0.97303E+08         0.00000E+00
    0.00000E+00         0.00000E+00        -0.77635E+08
 
   -0.75663E+08         0.46572E+06         0.00000E+00
    0.46572E+06        -0.97147E+08         0.00000E+00
    0.00000E+00         0.00000E+00        -0.77221E+08
 
   -0.75432E+08         0.61750E+06         0.00000E+00
    0.61750E+06        -0.97054E+08         0.00000E+00
    0.00000E+00         0.00000E+00        -0.76809E+08
 
   -0.75175E+08         0.76979E+06         0.00000E+00
    0.76979E+06        -0.97009E+08         0.00000E+00
    0.00000E+00         0.00000E+00        -0.76397E+08
 
   -0.74900E+08         0.91789E+06         0.00000E+00
    0.91789E+06        -0.96998E+08         0.00000E+00
    0.00000E+00         0.00000E+00        -0.75985E+08
 
   -0.74615E+08         0.10582E+07         0.00000E+00
    0.10582E+07        -0.97011E+08         0.00000E+00
    0.00000E+00         0.00000E+00        -0.75576E+08
 
   -0.74322E+08         0.11884E+07         0.00000E+00
    0.11884E+07        -0.97041E+08         0.00000E+00
    0.00000E+00         0.00000E+00        -0.75167E+08
 
   -0.74025E+08         0.13067E+07         0.00000E+00
    0.13067E+07        -0.97084E+08         0.00000E+00
    0.00000E+00         0.00000E+00        -0.74760E+08
 
   -0.73725E+08         0.14122E+07         0.00000E+00
    0.14122E+07        -0.97136E+08         0.00000E+00
    0.00000E+00         0.00000E+00        -0.74354E+08
 
   -0.73424E+08         0.15041E+07         0.00000E+00
    0.15041E+07        -0.97194E+08         0.00000E+00
    0.00000E+00         0.00000E+00        -0.73951E+08
 
   -0.73123E+08         0.15817E+07         0.00000E+00
    0.15817E+07        -0.97257E+08         0.00000E+00
    0.00000E+00         0.00000E+00        -0.73549E+08
 
   -0.72824E+08         0.16443E+07         0.00000E+00
    0.16443E+07        -0.97327E+08         0.00000E+00
    0.00000E+00         0.00000E+00        -0.73148E+08
 
   -0.72528E+08         0.16906E+07         0.00000E+00
    0.16906E+07        -0.97402E+08         0.00000E+00
    0.00000E+00         0.00000E+00        -0.72751E+08
 
   -0.72235E+08         0.17185E+07         0.00000E+00
    0.17185E+07        -0.97483E+08         0.00000E+00
    0.00000E+00         0.00000E+00        -0.72355E+08
 
   -0.71946E+08         0.17260E+07         0.00000E+00
    0.17260E+07        -0.97548E+08         0.00000E+00
    0.00000E+00         0.00000E+00        -0.71987E+08
 
   -0.71663E+08         0.17457E+07         0.00000E+00
    0.17457E+07        -0.97562E+08         0.00000E+00
    0.00000E+00         0.00000E+00        -0.71696E+08
 
   -0.71384E+08         0.17549E+07         0.00000E+00
    0.17549E+07        -0.97560E+08         0.00000E+00
    0.00000E+00         0.00000E+00        -0.71443E+08
 
   -0.71112E+08         0.17582E+07         0.00000E+00
    0.17582E+07        -0.97564E+08         0.00000E+00
    0.00000E+00         0.00000E+00        -0.71186E+08
 
   -0.70846E+08         0.17590E+07         0.00000E+00
    0.17590E+07        -0.97568E+08         0.00000E+00
    0.00000E+00         0.00000E+00        -0.70926E+08
 
   -0.70584E+08         0.17589E+07         0.00000E+00
    0.17589E+07        -0.97574E+08         0.00000E+00
    0.00000E+00         0.00000E+00        -0.70663E+08
 
   -0.70322E+08         0.17585E+07         0.00000E+00
    0.17585E+07        -0.97579E+08         0.00000E+00
    0.00000E+00         0.00000E+00        -0.70398E+08
 
   -0.70062E+08         0.17581E+07         0.00000E+00
    0.17581E+07        -0.97584E+08         0.00000E+00
    0.00000E+00         0.00000E+00        -0.70132E+08
 
   -0.69802E+08         0.17576E+07         0.00000E+00
    0.17576E+07        -0.97590E+08         0.00000E+00
    0.00000E+00         0.00000E+00        -0.69863E+08
 
   -0.69541E+08         0.17567E+07         0.00000E+00
    0.17567E+07        -0.97595E+08         0.00000E+00
    0.00000E+00         0.00000E+00        -0.69593E+08
 
   -0.69281E+08         0.17552E+07         0.00000E+00
    0.17552E+07        -0.97599E+08         0.00000E+00
    0.00000E+00         0.00000E+00        -0.69323E+08
 
   -0.69021E+08         0.17528E+07         0.00000E+00
    0.17528E+07        -0.97604E+08         0.00000E+00
    0.00000E+00         0.00000E+00        -0.69051E+08
 
   -0.68762E+08         0.17493E+07         0.00000E+00
    0.17493E+07        -0.97609E+08         0.00000E+00
    0.00000E+00         0.00000E+00        -0.68778E+08
 
   -0.68502E+08         0.17444E+07         0.00000E+00
    0.17444E+07        -0.97614E+08         0.00000E+00
    0.00000E+00         0.00000E+00        -0.68505E+08
 
   -0.68243E+08         0.17378E+07         0.00000E+00
    0.17378E+07        -0.97620E+08         0.00000E+00
    0.00000E+00         0.00000E+00        -0.68231E+08
 
   -0.67986E+08         0.17293E+07         0.00000E+00
    0.17293E+07        -0.97627E+08         0.00000E+00
    0.00000E+00         0.00000E+00        -0.67957E+08
 
   -0.67729E+08         0.17188E+07         0.00000E+00
    0.17188E+07        -0.97635E+08         0.00000E+00
    0.00000E+00         0.00000E+00        -0.67684E+08
 
   -0.67474E+08         0.17061E+07         0.00000E+00
    0.17061E+07        -0.97646E+08         0.00000E+00
    0.00000E+00         0.00000E+00        -0.67410E+08
 
   -0.67221E+08         0.16916E+07         0.00000E+00
    0.16916E+07        -0.97659E+08         0.00000E+00
    0.00000E+00         0.00000E+00        -0.67136E+08
 
   -0.66970E+08         0.16758E+07         0.00000E+00
    0.16758E+07        -0.97677E+08         0.00000E+00
    0.00000E+00         0.00000E+00        -0.66862E+08
 
   -0.66722E+08         0.16593E+07         0.00000E+00
    0.16593E+07        -0.97693E+08         0.00000E+00
    0.00000E+00         0.00000E+00        -0.66594E+08
 
   -0.66476E+08         0.16385E+07         0.00000E+00
    0.16385E+07        -0.97687E+08         0.00000E+00
    0.00000E+00         0.00000E+00        -0.66356E+08
 
   -0.66234E+08         0.16186E+07         0.00000E+00
    0.16186E+07        -0.97671E+08         0.00000E+00
    0.00000E+00         0.00000E+00        -0.66135E+08
 
   -0.65994E+08         0.15997E+07         0.00000E+00
    0.15997E+07        -0.97659E+08         0.00000E+00
    0.00000E+00         0.00000E+00        -0.65914E+08
 
   -0.65758E+08         0.15823E+07         0.00000E+00
    0.15823E+07        -0.97650E+08         0.00000E+00
    0.00000E+00         0.00000E+00        -0.65693E+08
 
   -0.65525E+08         0.15666E+07         0.00000E+00
    0.15666E+07        -0.97643E+08         0.00000E+00
    0.00000E+00         0.00000E+00        -0.65473E+08
 
   -0.65295E+08         0.15525E+07         0.00000E+00
    0.15525E+07        -0.97638E+08         0.00000E+00
    0.00000E+00         0.00000E+00        -0.65253E+08
 
   -0.65067E+08         0.15401E+07         0.00000E+00
    0.15401E+07        -0.97633E+08         0.00000E+00
    0.00000E+00         0.00000E+00        -0.65034E+08
 
   -0.64841E+08         0.15290E+07         0.00000E+00
    0.15290E+07        -0.97630E+08         0.00000E+00
    0.00000E+00         0.00000E+00        -0.64816E+08
 
   -0.64617E+08         0.15191E+07         0.00000E+00
    0.15191E+07        -0.97628E+08         0.00000E+00
    0.00000E+00         0.00000E+00        -0.64598E+08
 
   -0.64394E+08         0.15102E+07         0.00000E+00
    0.15102E+07        -0.97626E+08         0.00000E+00
    0.00000E+00         0.00000E+00        -0.64380E+08
 
   -0.64177E+08         0.15017E+07         0.00000E+00
    0.15017E+07        -0.97621E+08         0.00000E+00
    0.00000E+00         0.00000E+00        -0.64167E+08
 
   -0.63978E+08         0.14924E+07         0.00000E+00
    0.14924E+07        -0.97600E+08         0.00000E+00
    0.00000E+00         0.00000E+00        -0.63972E+08
 
   -0.63790E+08         0.14829E+07         0.00000E+00
    0.14829E+07        -0.97571E+08         0.00000E+00
    0.00000E+00         0.00000E+00        -0.63786E+08
 
   -0.63602E+08         0.14739E+07         0.00000E+00
    0.14739E+07        -0.97542E+08         0.00000E+00
    0.00000E+00         0.00000E+00        -0.63601E+08
 
   -0.63416E+08         0.14653E+07         0.00000E+00
    0.14653E+07        -0.97513E+08         0.00000E+00
    0.00000E+00         0.00000E+00        -0.63417E+08
 
   -0.63230E+08         0.14570E+07         0.00000E+00
    0.14570E+07        -0.97484E+08         0.00000E+00
    0.00000E+00         0.00000E+00        -0.63232E+08
 
   -0.63045E+08         0.14490E+07         0.00000E+00
    0.14490E+07        -0.97456E+08         0.00000E+00
    0.00000E+00         0.00000E+00        -0.63048E+08
 
   -0.62860E+08         0.14412E+07         0.00000E+00
    0.14412E+07        -0.97428E+08         0.00000E+00
    0.00000E+00         0.00000E+00        -0.62865E+08
 
   -0.62676E+08         0.14336E+07         0.00000E+00
    0.14336E+07        -0.97400E+08         0.00000E+00
    0.00000E+00         0.00000E+00        -0.62682E+08
 
   -0.62493E+08         0.14261E+07         0.00000E+00
    0.14261E+07        -0.97373E+08         0.00000E+00
    0.00000E+00         0.00000E+00        -0.62499E+08
 
   -0.62310E+08         0.14187E+07         0.00000E+00
    0.14187E+07        -0.97346E+08         0.00000E+00
    0.00000E+00         0.00000E+00        -0.62316E+08
 
   -0.62127E+08         0.14114E+07         0.00000E+00
    0.14114E+07        -0.97320E+08         0.00000E+00
    0.00000E+00         0.00000E+00        -0.62133E+08
 
   -0.61945E+08         0.14041E+07         0.00000E+00
    0.14041E+07        -0.97294E+08         0.00000E+00
    0.00000E+00         0.00000E+00        -0.61951E+08
 
   -0.61763E+08         0.13968E+07         0.00000E+00
    0.13968E+07        -0.97268E+08         0.00000E+00
    0.00000E+00         0.00000E+00        -0.61768E+08
 
   -0.61581E+08         0.13894E+07         0.00000E+00
    0.13894E+07        -0.97243E+08         0.00000E+00
    0.00000E+00         0.00000E+00        -0.61586E+08
 
   -0.61400E+08         0.13819E+07         0.00000E+00
    0.13819E+07        -0.97218E+08         0.00000E+00
    0.00000E+00         0.00000E+00        -0.61404E+08
 
   -0.61219E+08         0.13743E+07         0.00000E+00
    0.13743E+07        -0.97194E+08         0.00000E+00
    0.00000E+00         0.00000E+00        -0.61221E+08
 
   -0.61038E+08         0.13666E+07         0.00000E+00
    0.13666E+07        -0.97171E+08         0.00000E+00
    0.00000E+00         0.00000E+00        -0.61039E+08
 
   -0.60858E+08         0.13586E+07         0.00000E+00
    0.13586E+07        -0.97149E+08         0.00000E+00
    0.00000E+00         0.00000E+00        -0.60856E+08
 
   -0.60677E+08         0.13504E+07         0.00000E+00
    0.13504E+07        -0.97127E+08         0.00000E+00
    0.00000E+00         0.00000E+00        -0.60674E+08
 
   -0.60497E+08         0.13418E+07         0.00000E+00
    0.13418E+07        -0.97106E+08         0.00000E+00
    0.00000E+00         0.00000E+00        -0.60491E+08
 
   -0.60317E+08         0.13329E+07         0.00000E+00
    0.13329E+07        -0.97086E+08         0.00000E+00
    0.00000E+00         0.00000E+00        -0.60308E+08
 
   -0.60138E+08         0.13235E+07         0.00000E+00
    0.13235E+07        -0.97067E+08         0.00000E+00
    0.00000E+00         0.00000E+00        -0.60125E+08
 
   -0.59959E+08         0.13136E+07         0.00000E+00
    0.13136E+07        -0.97049E+08         0.00000E+00
    0.00000E+00         0.00000E+00        -0.59941E+08
 
   -0.59780E+08         0.13031E+07         0.00000E+00
    0.13031E+07        -0.97032E+08         0.00000E+00
    0.00000E+00         0.00000E+00        -0.59757E+08
 
   -0.59602E+08         0.12919E+07         0.00000E+00
    0.12919E+07        -0.97017E+08         0.00000E+00
    0.00000E+00         0.00000E+00        -0.59572E+08
 
   -0.59424E+08         0.12798E+07         0.00000E+00
    0.12798E+07        -0.97003E+08         0.00000E+00
    0.00000E+00         0.00000E+00        -0.59388E+08
 
   -0.59247E+08         0.12667E+07         0.00000E+00
    0.12667E+07        -0.96990E+08         0.00000E+00
    0.00000E+00         0.00000E+00        -0.59203E+08
 
   -0.59071E+08         0.12525E+07         0.00000E+00
    0.12525E+07        -0.96979E+08         0.00000E+00
    0.00000E+00         0.00000E+00        -0.59017E+08
 
   -0.58895E+08         0.12369E+07         0.00000E+00
    0.12369E+07        -0.96970E+08         0.00000E+00
    0.00000E+00         0.00000E+00        -0.58831E+08
 
   -0.58721E+08         0.12197E+07         0.00000E+00
    0.12197E+07        -0.96964E+08         0.00000E+00
    0.00000E+00         0.00000E+00        -0.58644E+08
 
   -0.58548E+08         0.12008E+07         0.00000E+00
    0.12008E+07        -0.96960E+08         0.00000E+00
    0.00000E+00         0.00000E+00        -0.58457E+08
 
   -0.58376E+08         0.11799E+07         0.00000E+00
    0.11799E+07        -0.96958E+08         0.00000E+00
    0.00000E+00         0.00000E+00        -0.58270E+08
 
   -0.58206E+08         0.11566E+07         0.00000E+00
    0.11566E+07        -0.96959E+08         0.00000E+00
    0.00000E+00         0.00000E+00        -0.58083E+08
 
   -0.58037E+08         0.11306E+07         0.00000E+00
    0.11306E+07        -0.96964E+08         0.00000E+00
    0.00000E+00         0.00000E+00        -0.57895E+08
 
   -0.57870E+08         0.11016E+07         0.00000E+00
    0.11016E+07        -0.96972E+08         0.00000E+00
    0.00000E+00         0.00000E+00        -0.57707E+08
 
   -0.57706E+08         0.10694E+07         0.00000E+00
    0.10694E+07        -0.96984E+08         0.00000E+00
    0.00000E+00         0.00000E+00        -0.57519E+08
 
   -0.57543E+08         0.10334E+07         0.00000E+00
    0.10334E+07        -0.97000E+08         0.00000E+00
    0.00000E+00         0.00000E+00        -0.57332E+08
 
   -0.57382E+08         0.99352E+06         0.00000E+00
    0.99352E+06        -0.97020E+08         0.00000E+00
    0.00000E+00         0.00000E+00        -0.57144E+08
 
   -0.57224E+08         0.94933E+06         0.00000E+00
    0.94933E+06        -0.97044E+08         0.00000E+00
    0.00000E+00         0.00000E+00        -0.56957E+08
 
   -0.57067E+08         0.90066E+06         0.00000E+00
    0.90066E+06        -0.97072E+08         0.00000E+00
    0.00000E+00         0.00000E+00        -0.56771E+08
 
   -0.56911E+08         0.84734E+06         0.00000E+00
    0.84734E+06        -0.97102E+08         0.00000E+00
    0.00000E+00         0.00000E+00        -0.56584E+08
 
   -0.56755E+08         0.78935E+06         0.00000E+00
    0.78935E+06        -0.97134E+08         0.00000E+00
    0.00000E+00         0.00000E+00        -0.56398E+08
 
   -0.56600E+08         0.72675E+06         0.00000E+00
    0.72675E+06        -0.97165E+08         0.00000E+00
    0.00000E+00         0.00000E+00        -0.56210E+08
 
   -0.56445E+08         0.65977E+06         0.00000E+00
    0.65977E+06        -0.97194E+08         0.00000E+00
    0.00000E+00         0.00000E+00        -0.56019E+08
 
   -0.56288E+08         0.58871E+06         0.00000E+00
    0.58871E+06        -0.97217E+08         0.00000E+00
    0.00000E+00         0.00000E+00        -0.55822E+08
 
   -0.56131E+08         0.51386E+06         0.00000E+00
    0.51386E+06        -0.97228E+08         0.00000E+00
    0.00000E+00         0.00000E+00        -0.55616E+08
 
   -0.55973E+08         0.43541E+06         0.00000E+00
    0.43541E+06        -0.97223E+08         0.00000E+00
    0.00000E+00         0.00000E+00        -0.55395E+08
 
   -0.55820E+08         0.35338E+06         0.00000E+00
    0.35338E+06        -0.97195E+08         0.00000E+00
    0.00000E+00         0.00000E+00        -0.55149E+08
 
   -0.55676E+08         0.26861E+06         0.00000E+00
    0.26861E+06        -0.97138E+08         0.00000E+00
    0.00000E+00         0.00000E+00        -0.54867E+08
 
   -0.55554E+08         0.18435E+06         0.00000E+00
    0.18435E+06        -0.97052E+08         0.00000E+00
    0.00000E+00         0.00000E+00        -0.54540E+08
 
   -0.55464E+08         0.10563E+06         0.00000E+00
    0.10563E+06        -0.96942E+08         0.00000E+00
    0.00000E+00         0.00000E+00        -0.54160E+08
 
   -0.55416E+08         0.34144E+05         0.00000E+00
    0.34144E+05        -0.96817E+08         0.00000E+00
    0.00000E+00         0.00000E+00        -0.53731E+08
 
   -0.75954E+08         0.52673E+05         0.00000E+00
    0.52673E+05        -0.97881E+08         0.00000E+00
    0.00000E+00         0.00000E+00        -0.78463E+08
 
   -0.75883E+08         0.16340E+06         0.00000E+00
    0.16340E+06        -0.97561E+08         0.00000E+00
    0.00000E+00         0.00000E+00        -0.78049E+08
 
   -0.75750E+08         0.28688E+06         0.00000E+00
    0.28688E+06        -0.97330E+08         0.00000E+00
    0.00000E+00         0.00000E+00        -0.77635E+08
 
   -0.75565E+08         0.42360E+06         0.00000E+00
    0.42360E+06        -0.97176E+08         0.00000E+00
    0.00000E+00         0.00000E+00        -0.77221E+08
 
   -0.75342E+08         0.56904E+06         0.00000E+00
    0.56904E+06        -0.97084E+08         0.00000E+00
    0.00000E+00         0.00000E+00        -0.76809E+08
 
   -0.75093E+08         0.71715E+06         0.00000E+00
    0.71715E+06        -0.97039E+08         0.00000E+00
    0.00000E+00         0.00000E+00        -0.76397E+08
 
   -0.74827E+08         0.86250E+06         0.00000E+00
    0.86250E+06        -0.97026E+08         0.00000E+00
    0.00000E+00         0.00000E+00        -0.75985E+08
 
   -0.74550E+08         0.10010E+07         0.00000E+00
    0.10010E+07        -0.97038E+08         0.00000E+00
    0.00000E+00         0.00000E+00        -0.75576E+08
 
   -0.74265E+08         0.11300E+07         0.00000E+00
    0.11300E+07        -0.97066E+08         0.00000E+00
    0.00000E+00         0.00000E+00        -0.75167E+08
 
   -0.73975E+08         0.12476E+07         0.00000E+00
    0.12476E+07        -0.97106E+08         0.00000E+00
    0.00000E+00         0.00000E+00        -0.74760E+08
 
   -0.73682E+08         0.13527E+07         0.00000E+00
    0.13527E+07        -0.97155E+08         0.00000E+00
    0.00000E+00         0.00000E+00        -0.74354E+08
 
   -0.73387E+08         0.14445E+07         0.00000E+00
    0.14445E+07        -0.97211E+08         0.00000E+00
    0.00000E+00         0.00000E+00        -0.73951E+08
 
   -0.73092E+08         0.15222E+07         0.00000E+00
    0.15222E+07        -0.97272E+08         0.00000E+00
    0.00000E+00         0.00000E+00        -0.73549E+08
 
   -0.72798E+08         0.15851E+07         0.00000E+00
    0.15851E+07        -0.97338E+08         0.00000E+00
    0.00000E+00         0.00000E+00        -0.73148E+08
 
   -0.72505E+08         0.16320E+07         0.00000E+00
    0.16320E+07        -0.97410E+08         0.00000E+00
    0.00000E+00         0.00000E+00        -0.72751E+08
 
   -0.72216E+08         0.16608E+07         0.00000E+00
    0.16608E+07        -0.97486E+08         0.00000E+00
    0.00000E+00         0.00000E+00        -0.72355E+08
 
   -0.71930E+08         0.16692E+07         0.00000E+00
    0.16692E+07        -0.97550E+08         0.00000E+00
    0.00000E+00         0.00000E+00        -0.71983E+08
 
   -0.71648E+08         0.16892E+07         0.00000E+00
    0.16892E+07        -0.97565E+08         0.00000E+00
    0.00000E+00         0.00000E+00        -0.71687E+08
 
   -0.71370E+08         0.16998E+07         0.00000E+00
    0.16998E+07        -0.97561E+08         0.00000E+00
    0.00000E+00         0.00000E+00        -0.71431E+08
 
   -0.71098E+08         0.17045E+07         0.00000E+00
    0.17045E+07        -0.97564E+08         0.00000E+00
    0.00000E+00         0.00000E+00        -0.71173E+08
 
   -0.70832E+08         0.17062E+07         0.00000E+00
    0.17062E+07        -0.97568E+08         0.00000E+00
    0.00000E+00         0.00000E+00        -0.70912E+08
 
   -0.70568E+08         0.17065E+07         0.00000E+00
    0.17065E+07        -0.97574E+08         0.00000E+00
    0.00000E+00         0.00000E+00        -0.70649E+08
 
   -0.70307E+08         0.17064E+07         0.00000E+00
    0.17064E+07        -0.97579E+08         0.00000E+00
    0.00000E+00         0.00000E+00        -0.70384E+08
 
   -0.70046E+08         0.17061E+07         0.00000E+00
    0.17061E+07        -0.97584E+08         0.00000E+00
    0.00000E+00         0.00000E+00        -0.70117E+08
 
   -0.69786E+08         0.17056E+07         0.00000E+00
    0.17056E+07        -0.97589E+08         0.00000E+00
    0.00000E+00         0.00000E+00        -0.69848E+08
 
   -0.69526E+08         0.17047E+07         0.00000E+00
    0.17047E+07        -0.97594E+08         0.00000E+00
    0.00000E+00         0.00000E+00        -0.69579E+08
 
   -0.69267E+08         0.17032E+07         0.00000E+00
    0.17032E+07        -0.97599E+08         0.00000E+00
    0.00000E+00         0.00000E+00        -0.69308E+08
 
   -0.69007E+08         0.17009E+07         0.00000E+00
    0.17009E+07        -0.97604E+08         0.00000E+00
    0.00000E+00         0.00000E+00        -0.69036E+08
 
   -0.68748E+08         0.16975E+07         0.00000E+00
    0.16975E+07        -0.97608E+08         0.00000E+00
    0.00000E+00         0.00000E+00        -0.68764E+08
 
   -0.68490E+08         0.16926E+07         0.00000E+00
    0.16926E+07        -0.97613E+08         0.00000E+00
    0.00000E+00         0.00000E+00        -0.68491E+08
 
   -0.68232E+08         0.16862E+07         0.00000E+00
    0.16862E+07        -0.97618E+08         0.00000E+00
    0.00000E+00         0.00000E+00        -0.68218E+08
 
   -0.67975E+08         0.16780E+07         0.00000E+00
    0.16780E+07        -0.97625E+08         0.00000E+00
    0.00000E+00         0.00000E+00        -0.67944E+08
 
   -0.67720E+08         0.16677E+07         0.00000E+00
    0.16677E+07        -0.97633E+08         0.00000E+00
    0.00000E+00         0.00000E+00        -0.67671E+08
 
   -0.67466E+08         0.16554E+07         0.00000E+00
    0.16554E+07        -0.97643E+08         0.00000E+00
    0.00000E+00         0.00000E+00        -0.67397E+08
 
   -0.67214E+08         0.16413E+07         0.00000E+00
    0.16413E+07        -0.97656E+08         0.00000E+00
    0.00000E+00         0.00000E+00        -0.67124E+08
 
   -0.66964E+08         0.16260E+07         0.00000E+00
    0.16260E+07        -0.97673E+08         0.00000E+00
    0.00000E+00         0.00000E+00        -0.66851E+08
 
   -0.66716E+08         0.16099E+07         0.00000E+00
    0.16099E+07        -0.97689E+08         0.00000E+00
    0.00000E+00         0.00000E+00        -0.66585E+08
 
   -0.66471E+08         0.15897E+07         0.00000E+00
    0.15897E+07        -0.97683E+08         0.00000E+00
    0.00000E+00         0.00000E+00        -0.66347E+08
 
   -0.66229E+08         0.15704E+07         0.00000E+00
    0.15704E+07        -0.97667E+08         0.00000E+00
    0.00000E+00         0.00000E+00        -0.66126E+08
 
   -0.65990E+08         0.15522E+07         0.00000E+00
    0.15522E+07        -0.97655E+08         0.00000E+00
    0.00000E+00         0.00000E+00        -0.65905E+08
 
   -0.65754E+08         0.15354E+07         0.00000E+00
    0.15354E+07        -0.97646E+08         0.00000E+00
    0.00000E+00         0.00000E+00        -0.65685E+08
 
   -0.65521E+08         0.15203E+07         0.00000E+00
    0.15203E+07        -0.97640E+08         0.00000E+00
    0.00000E+00         0.00000E+00        -0.65465E+08
 
   -0.65290E+08         0.15067E+07         0.00000E+00
    0.15067E+07        -0.97635E+08         0.00000E+00
    0.00000E+00         0.00000E+00        -0.65246E+08
 
   -0.65062E+08         0.14947E+07         0.00000E+00
    0.14947E+07        -0.97631E+08         0.00000E+00
    0.00000E+00         0.00000E+00        -0.65028E+08
 
   -0.64837E+08         0.14840E+07         0.00000E+00
    0.14840E+07        -0.97628E+08         0.00000E+00
    0.00000E+00         0.00000E+00        -0.64809E+08
 
   -0.64612E+08         0.14744E+07         0.00000E+00
    0.14744E+07        -0.97626E+08         0.00000E+00
    0.00000E+00         0.00000E+00        -0.64592E+08
 
   -0.64390E+08         0.14658E+07         0.00000E+00
    0.14658E+07        -0.97624E+08         0.00000E+00
    0.00000E+00         0.00000E+00        -0.64375E+08
 
   -0.64172E+08         0.14576E+07         0.00000E+00
    0.14576E+07        -0.97619E+08         0.00000E+00
    0.00000E+00         0.00000E+00        -0.64162E+08
 
   -0.63974E+08         0.14486E+07         0.00000E+00
    0.14486E+07        -0.97598E+08         0.00000E+00
    0.00000E+00         0.00000E+00        -0.63967E+08
 
   -0.63786E+08         0.14394E+07         0.00000E+00
    0.14394E+07        -0.97569E+08         0.00000E+00
    0.00000E+00         0.00000E+00        -0.63782E+08
 
   -0.63598E+08         0.14306E+07         0.00000E+00
    0.14306E+07        -0.97540E+08         0.00000E+00
    0.00000E+00         0.00000E+00        -0.63597E+08
 
   -0.63412E+08         0.14223E+07         0.00000E+00
    0.14223E+07        -0.97512E+08         0.00000E+00
    0.00000E+00         0.00000E+00        -0.63413E+08
 
   -0.63226E+08         0.14143E+07         0.00000E+00
    0.14143E+07        -0.97483E+08         0.00000E+00
    0.00000E+00         0.00000E+00        -0.63228E+08
 
   -0.63041E+08         0.14065E+07         0.00000E+00
    0.14065E+07        -0.97455E+08         0.00000E+00
    0.00000E+00         0.00000E+00        -0.63045E+08
 
   -0.62857E+08         0.13990E+07         0.00000E+00
    0.13990E+07        -0.97428E+08         0.00000E+00
    0.00000E+00         0.00000E+00        -0.62861E+08
 
   -0.62673E+08         0.13916E+07         0.00000E+00
    0.13916E+07        -0.97400E+08         0.00000E+00
    0.00000E+00         0.00000E+00        -0.62678E+08
 
   -0.62489E+08         0.13843E+07         0.00000E+00
    0.13843E+07        -0.97373E+08         0.00000E+00
    0.00000E+00         0.00000E+00        -0.62495E+08
 
   -0.62306E+08         0.13771E+07         0.00000E+00
    0.13771E+07        -0.97346E+08         0.00000E+00
    0.00000E+00         0.00000E+00        -0.62313E+08
 
   -0.62124E+08         0.13700E+07         0.00000E+00
    0.13700E+07        -0.97320E+08         0.00000E+00
    0.00000E+00         0.00000E+00        -0.62130E+08
 
   -0.61942E+08         0.13629E+07         0.00000E+00
    0.13629E+07        -0.97294E+08         0.00000E+00
    0.00000E+00         0.00000E+00        -0.61948E+08
 
   -0.61760E+08         0.13558E+07         0.00000E+00
    0.13558E+07        -0.97268E+08         0.00000E+00
    0.00000E+00         0.00000E+00        -0.61766E+08
 
   -0.61578E+08         0.13487E+07         0.00000E+00
    0.13487E+07        -0.97243E+08         0.00000E+00
    0.00000E+00         0.00000E+00        -0.61583E+08
 
   -0.61397E+08         0.13414E+07         0.00000E+00
    0.13414E+07        -0.97219E+08         0.00000E+00
    0.00000E+00         0.00000E+00        -0.61401E+08
 
   -0.61216E+08         0.13340E+07         0.00000E+00
    0.13340E+07        -0.97195E+08         0.00000E+00
    0.00000E+00         0.00000E+00        -0.61219E+08
 
   -0.61035E+08         0.13265E+07         0.00000E+00
    0.13265E+07        -0.97172E+08         0.00000E+00
    0.00000E+00         0.00000E+00        -0.61037E+08
 
   -0.60855E+08         0.13188E+07         0.00000E+00
    0.13188E+07        -0.97149E+08         0.00000E+00
    0.00000E+00         0.00000E+00        -0.60854E+08
 
   -0.60675E+08         0.13108E+07         0.00000E+00
    0.13108E+07        -0.97127E+08         0.00000E+00
    0.00000E+00         0.00000E+00        -0.60671E+08
 
   -0.60495E+08         0.13025E+07         0.00000E+00
    0.13025E+07        -0.97106E+08         0.00000E+00
    0.00000E+00         0.00000E+00        -0.60488E+08
 
   -0.60315E+08         0.12938E+07         0.00000E+00
    0.12938E+07        -0.97086E+08         0.00000E+00
    0.00000E+00         0.00000E+00        -0.60305E+08
 
   -0.60136E+08         0.12847E+07         0.00000E+00
    0.12847E+07        -0.97067E+08         0.00000E+00
    0.00000E+00         0.00000E+00        -0.60122E+08
 
   -0.59957E+08         0.12751E+07         0.00000E+00
    0.12751E+07        -0.97049E+08         0.00000E+00
    0.00000E+00         0.00000E+00        -0.59938E+08
 
   -0.59778E+08         0.12648E+07         0.00000E+00
    0.12648E+07        -0.97032E+08         0.00000E+00
    0.00000E+00         0.00000E+00        -0.59754E+08
 
   -0.59600E+08         0.12539E+07         0.00000E+00
    0.12539E+07        -0.97017E+08         0.00000E+00
    0.00000E+00         0.00000E+00        -0.59569E+08
 
   -0.59422E+08         0.12422E+07         0.00000E+00
    0.12422E+07        -0.97002E+08         0.00000E+00
    0.00000E+00         0.00000E+00        -0.59384E+08
 
   -0.59245E+08         0.12295E+07         0.00000E+00
    0.12295E+07        -0.96990E+08         0.00000E+00
    0.00000E+00         0.00000E+00        -0.59199E+08
 
   -0.59069E+08         0.12156E+07         0.00000E+00
    0.12156E+07        -0.96979E+08         0.00000E+00
    0.00000E+00         0.00000E+00        -0.59013E+08
 
   -0.58894E+08         0.12005E+07         0.00000E+00
    0.12005E+07        -0.96970E+08         0.00000E+00
    0.00000E+00         0.00000E+00        -0.58827E+08
 
   -0.58720E+08         0.11839E+07         0.00000E+00
    0.11839E+07        -0.96962E+08         0.00000E+00
    0.00000E+00         0.00000E+00        -0.58640E+08
 
   -0.58547E+08         0.11655E+07         0.00000E+00
    0.11655E+07        -0.96958E+08         0.00000E+00
    0.00000E+00         0.00000E+00        -0.58452E+08
 
   -0.58375E+08         0.11451E+07         0.00000E+00
    0.11451E+07        -0.96956E+08         0.00000E+00
    0.00000E+00         0.00000E+00        -0.58264E+08
 
   -0.58205E+08         0.11224E+07         0.00000E+00
    0.11224E+07        -0.96956E+08         0.00000E+00
    0.00000E+00         0.00000E+00        -0.58076E+08
 
   -0.58037E+08         0.10971E+07         0.00000E+00
    0.10971E+07        -0.96960E+08         0.00000E+00
    0.00000E+00         0.00000E+00        -0.57887E+08
 
   -0.57871E+08         0.10688E+07         0.00000E+00
    0.10688E+07        -0.96968E+08         0.00000E+00
    0.00000E+00         0.00000E+00        -0.57699E+08
 
   -0.57707E+08         0.10372E+07         0.00000E+00
    0.10372E+07        -0.96979E+08         0.00000E+00
    0.00000E+00         0.00000E+00        -0.57510E+08
 
   -0.57545E+08         0.10019E+07         0.00000E+00
    0.10019E+07        -0.96994E+08         0.00000E+00
    0.00000E+00         0.00000E+00        -0.57321E+08
 
   -0.57385E+08         0.96267E+06         0.00000E+00
    0.96267E+06        -0.97013E+08         0.00000E+00
    0.00000E+00         0.00000E+00        -0.57132E+08
 
   -0.57227E+08         0.91910E+06         0.00000E+00
    0.91910E+06        -0.97036E+08         0.00000E+00
    0.00000E+00         0.00000E+00        -0.56944E+08
 
   -0.57070E+08         0.87096E+06         0.00000E+00
    0.87096E+06        -0.97062E+08         0.00000E+00
    0.00000E+00         0.00000E+00        -0.56755E+08
 
   -0.56915E+08         0.81807E+06         0.00000E+00
    0.81807E+06        -0.97091E+08         0.00000E+00
    0.00000E+00         0.00000E+00        -0.56567E+08
 
   -0.56761E+08         0.76036E+06         0.00000E+00
    0.76036E+06        -0.97122E+08         0.00000E+00
    0.00000E+00         0.00000E+00        -0.56378E+08
 
   -0.56608E+08         0.69790E+06         0.00000E+00
    0.69790E+06        -0.97152E+08         0.00000E+00
    0.00000E+00         0.00000E+00        -0.56188E+08
 
   -0.56454E+08         0.63091E+06         0.00000E+00
    0.63091E+06        -0.97180E+08         0.00000E+00
    0.00000E+00         0.00000E+00        -0.55995E+08
 
   -0.56299E+08         0.55976E+06         0.00000E+00
    0.55976E+06        -0.97201E+08         0.00000E+00
    0.00000E+00         0.00000E+00        -0.55796E+08
 
   -0.56144E+08         0.48495E+06         0.00000E+00
    0.48495E+06        -0.97212E+08         0.00000E+00
    0.00000E+00         0.00000E+00        -0.55587E+08
 
   -0.55990E+08         0.40697E+06         0.00000E+00
    0.40697E+06        -0.97206E+08         0.00000E+00
    0.00000E+00         0.00000E+00        -0.55362E+08
 
   -0.55840E+08         0.32648E+06         0.00000E+00
    0.32648E+06        -0.97178E+08         0.00000E+00
    0.00000E+00         0.00000E+00        -0.55113E+08
 
   -0.55701E+08         0.24506E+06         0.00000E+00
    0.24506E+06        -0.97123E+08         0.00000E+00
    0.00000E+00         0.00000E+00        -0.54829E+08
 
   -0.55583E+08         0.16630E+06         0.00000E+00
    0.16630E+06        -0.97038E+08         0.00000E+00
    0.00000E+00         0.00000E+00        -0.54498E+08
 
   -0.55497E+08         0.94566E+05         0.00000E+00
    0.94566E+05        -0.96930E+08         0.00000E+00
    0.00000E+00         0.00000E+00        -0.54118E+08
 
   -0.55452E+08         0.30474E+05         0.00000E+00
    0.30474E+05        -0.96806E+08         0.00000E+00
    0.00000E+00         0.00000E+00        -0.53688E+08
 
   -0.75843E+08         0.45621E+05         0.00000E+00
    0.45621E+05        -0.97901E+08         0.00000E+00
    0.00000E+00         0.00000E+00        -0.78463E+08
 
   -0.75775E+08         0.14295E+06         0.00000E+00
    0.14295E+06        -0.97583E+08         0.00000E+00
    0.00000E+00         0.00000E+00        -0.78049E+08
 
   -0.75646E+08         0.25501E+06         0.00000E+00
    0.25501E+06        -0.97355E+08         0.00000E+00
    0.00000E+00         0.00000E+00        -0.77635E+08
 
   -0.75467E+08         0.38298E+06         0.00000E+00
    0.38298E+06        -0.97204E+08         0.00000E+00
    0.00000E+00         0.00000E+00        -0.77221E+08
 
   -0.75252E+08         0.52226E+06         0.00000E+00
    0.52226E+06        -0.97113E+08         0.00000E+00
    0.00000E+00         0.00000E+00        -0.76809E+08
 
   -0.75012E+08         0.66622E+06         0.00000E+00
    0.66622E+06        -0.97068E+08         0.00000E+00
    0.00000E+00         0.00000E+00        -0.76397E+08
 
   -0.74755E+08         0.80879E+06         0.00000E+00
    0.80879E+06        -0.97055E+08         0.00000E+00
    0.00000E+00         0.00000E+00        -0.75985E+08
 
   -0.74486E+08         0.94545E+06         0.00000E+00
    0.94545E+06        -0.97065E+08         0.00000E+00
    0.00000E+00         0.00000E+00        -0.75576E+08
 
   -0.74208E+08         0.10731E+07         0.00000E+00
    0.10731E+07        -0.97091E+08         0.00000E+00
    0.00000E+00         0.00000E+00        -0.75167E+08
 
   -0.73925E+08         0.11899E+07         0.00000E+00
    0.11899E+07        -0.97129E+08         0.00000E+00
    0.00000E+00         0.00000E+00        -0.74760E+08
 
   -0.73639E+08         0.12945E+07         0.00000E+00
    0.12945E+07        -0.97175E+08         0.00000E+00
    0.00000E+00         0.00000E+00        -0.74354E+08
 
   -0.73350E+08         0.13860E+07         0.00000E+00
    0.13860E+07        -0.97228E+08         0.00000E+00
    0.00000E+00         0.00000E+00        -0.73951E+08
 
   -0.73060E+08         0.14638E+07         0.00000E+00
    0.14638E+07        -0.97286E+08         0.00000E+00
    0.00000E+00         0.00000E+00        -0.73549E+08
 
   -0.72771E+08         0.15269E+07         0.00000E+00
    0.15269E+07        -0.97349E+08         0.00000E+00
    0.00000E+00         0.00000E+00        -0.73148E+08
 
   -0.72482E+08         0.15741E+07         0.00000E+00
    0.15741E+07        -0.97418E+08         0.00000E+00
    0.00000E+00         0.00000E+00        -0.72751E+08
 
   -0.72197E+08         0.16037E+07         0.00000E+00
    0.16037E+07        -0.97490E+08         0.00000E+00
    0.00000E+00         0.00000E+00        -0.72355E+08
 
   -0.71914E+08         0.16130E+07         0.00000E+00
    0.16130E+07        -0.97553E+08         0.00000E+00
    0.00000E+00         0.00000E+00        -0.71979E+08
 
   -0.71634E+08         0.16329E+07         0.00000E+00
    0.16329E+07        -0.97568E+08         0.00000E+00
    0.00000E+00         0.00000E+00        -0.71677E+08
 
   -0.71356E+08         0.16447E+07         0.00000E+00
    0.16447E+07        -0.97563E+08         0.00000E+00
    0.00000E+00         0.00000E+00        -0.71420E+08
 
   -0.71084E+08         0.16508E+07         0.00000E+00
    0.16508E+07        -0.97565E+08         0.00000E+00
    0.00000E+00         0.00000E+00        -0.71161E+08
 
   -0.70817E+08         0.16533E+07         0.00000E+00
    0.16533E+07        -0.97569E+08         0.00000E+00
    0.00000E+00         0.00000E+00        -0.70899E+08
 
   -0.70554E+08         0.16540E+07         0.00000E+00
    0.16540E+07        -0.97574E+08         0.00000E+00
    0.00000E+00         0.00000E+00        -0.70635E+08
 
   -0.70292E+08         0.16542E+07         0.00000E+00
    0.16542E+07        -0.97579E+08         0.00000E+00
    0.00000E+00         0.00000E+00        -0.70370E+08
 
   -0.70032E+08         0.16540E+07         0.00000E+00
    0.16540E+07        -0.97584E+08         0.00000E+00
    0.00000E+00         0.00000E+00        -0.70102E+08
 
   -0.69772E+08         0.16536E+07         0.00000E+00
    0.16536E+07        -0.97589E+08         0.00000E+00
    0.00000E+00         0.00000E+00        -0.69834E+08
 
   -0.69512E+08         0.16528E+07         0.00000E+00
    0.16528E+07        -0.97594E+08         0.00000E+00
    0.00000E+00         0.00000E+00        -0.69564E+08
 
   -0.69253E+08         0.16514E+07         0.00000E+00
    0.16514E+07        -0.97599E+08         0.00000E+00
    0.00000E+00         0.00000E+00        -0.69293E+08
 
   -0.68994E+08         0.16491E+07         0.00000E+00
    0.16491E+07        -0.97603E+08         0.00000E+00
    0.00000E+00         0.00000E+00        -0.69022E+08
 
   -0.68736E+08         0.16458E+07         0.00000E+00
    0.16458E+07        -0.97607E+08         0.00000E+00
    0.00000E+00         0.00000E+00        -0.68750E+08
 
   -0.68478E+08         0.16411E+07         0.00000E+00
    0.16411E+07        -0.97612E+08         0.00000E+00
    0.00000E+00         0.00000E+00        -0.68477E+08
 
   -0.68221E+08         0.16349E+07         0.00000E+00
    0.16349E+07        -0.97617E+08         0.00000E+00
    0.00000E+00         0.00000E+00        -0.68204E+08
 
   -0.67965E+08         0.16269E+07         0.00000E+00
    0.16269E+07        -0.97623E+08         0.00000E+00
    0.00000E+00         0.00000E+00        -0.67931E+08
 
   -0.67710E+08         0.16169E+07         0.00000E+00
    0.16169E+07        -0.97631E+08         0.00000E+00
    0.00000E+00         0.00000E+00        -0.67658E+08
 
   -0.67458E+08         0.16050E+07         0.00000E+00
    0.16050E+07        -0.97640E+08         0.00000E+00
    0.00000E+00         0.00000E+00        -0.67386E+08
 
   -0.67207E+08         0.15913E+07         0.00000E+00
    0.15913E+07        -0.97653E+08         0.00000E+00
    0.00000E+00         0.00000E+00        -0.67113E+08
 
   -0.66958E+08         0.15763E+07         0.00000E+00
    0.15763E+07        -0.97670E+08         0.00000E+00
    0.00000E+00         0.00000E+00        -0.66840E+08
 
   -0.66711E+08         0.15606E+07         0.00000E+00
    0.15606E+07        -0.97686E+08         0.00000E+00
    0.00000E+00         0.00000E+00        -0.66575E+08
 
   -0.66466E+08         0.15410E+07         0.00000E+00
    0.15410E+07        -0.97679E+08         0.00000E+00
    0.00000E+00         0.00000E+00        -0.66338E+08
 
   -0.66224E+08         0.15223E+07         0.00000E+00
    0.15223E+07        -0.97663E+08         0.00000E+00
    0.00000E+00         0.00000E+00        -0.66118E+08
 
   -0.65985E+08         0.15047E+07         0.00000E+00
    0.15047E+07        -0.97652E+08         0.00000E+00
    0.00000E+00         0.00000E+00        -0.65897E+08
 
   -0.65749E+08         0.14885E+07         0.00000E+00
    0.14885E+07        -0.97643E+08         0.00000E+00
    0.00000E+00         0.00000E+00        -0.65677E+08
 
   -0.65516E+08         0.14739E+07         0.00000E+00
    0.14739E+07        -0.97637E+08         0.00000E+00
    0.00000E+00         0.00000E+00        -0.65458E+08
 
   -0.65286E+08         0.14609E+07         0.00000E+00
    0.14609E+07        -0.97632E+08         0.00000E+00
    0.00000E+00         0.00000E+00        -0.65239E+08
 
   -0.65058E+08         0.14493E+07         0.00000E+00
    0.14493E+07        -0.97629E+08         0.00000E+00
    0.00000E+00         0.00000E+00        -0.65021E+08
 
   -0.64832E+08         0.14390E+07         0.00000E+00
    0.14390E+07        -0.97626E+08         0.00000E+00
    0.00000E+00         0.00000E+00        -0.64803E+08
 
   -0.64608E+08         0.14298E+07         0.00000E+00
    0.14298E+07        -0.97624E+08         0.00000E+00
    0.00000E+00         0.00000E+00        -0.64586E+08
 
   -0.64386E+08         0.14215E+07         0.00000E+00
    0.14215E+07        -0.97623E+08         0.00000E+00
    0.00000E+00         0.00000E+00        -0.64369E+08
 
   -0.64168E+08         0.14136E+07         0.00000E+00
    0.14136E+07        -0.97618E+08         0.00000E+00
    0.00000E+00         0.00000E+00        -0.64157E+08
 
   -0.63970E+08         0.14048E+07         0.00000E+00
    0.14048E+07        -0.97597E+08         0.00000E+00
    0.00000E+00         0.00000E+00        -0.63962E+08
 
   -0.63782E+08         0.13959E+07         0.00000E+00
    0.13959E+07        -0.97568E+08         0.00000E+00
    0.00000E+00         0.00000E+00        -0.63777E+08
 
   -0.63594E+08         0.13875E+07         0.00000E+00
    0.13875E+07        -0.97539E+08         0.00000E+00
    0.00000E+00         0.00000E+00        -0.63593E+08
 
   -0.63408E+08         0.13794E+07         0.00000E+00
    0.13794E+07        -0.97511E+08         0.00000E+00
    0.00000E+00         0.00000E+00        -0.63409E+08
 
   -0.63222E+08         0.13716E+07         0.00000E+00
    0.13716E+07        -0.97483E+08         0.00000E+00
    0.00000E+00         0.00000E+00        -0.63225E+08
 
   -0.63037E+08         0.13641E+07         0.00000E+00
    0.13641E+07        -0.97455E+08         0.00000E+00
    0.00000E+00         0.00000E+00        -0.63041E+08
 
   -0.62853E+08         0.13568E+07         0.00000E+00
    0.13568E+07        -0.97427E+08         0.00000E+00
    0.00000E+00         0.00000E+00        -0.62858E+08
 
   -0.62669E+08         0.13496E+07         0.00000E+00
    0.13496E+07        -0.97400E+08         0.00000E+00
    0.00000E+00         0.00000E+00        -0.62675E+08
 
   -0.62486E+08         0.13426E+07         0.00000E+00
    0.13426E+07        -0.97373E+08         0.00000E+00
    0.00000E+00         0.00000E+00        -0.62492E+08
 
   -0.62303E+08         0.13356E+07         0.00000E+00
    0.13356E+07        -0.97346E+08         0.00000E+00
    0.00000E+00         0.00000E+00        -0.62310E+08
 
   -0.62120E+08         0.13287E+07         0.00000E+00
    0.13287E+07        -0.97320E+08         0.00000E+00
    0.00000E+00         0.00000E+00        -0.62127E+08
 
   -0.61938E+08         0.13218E+07         0.00000E+00
    0.13218E+07        -0.97294E+08         0.00000E+00
    0.00000E+00         0.00000E+00        -0.61945E+08
 
   -0.61757E+08         0.13149E+07         0.00000E+00
    0.13149E+07        -0.97268E+08         0.00000E+00
    0.00000E+00         0.00000E+00        -0.61763E+08
 
   -0.61575E+08         0.13080E+07         0.00000E+00
    0.13080E+07        -0.97243E+08         0.00000E+00
    0.00000E+00         0.00000E+00        -0.61581E+08
 
   -0.61394E+08         0.13009E+07         0.00000E+00
    0.13009E+07        -0.97219E+08         0.00000E+00
    0.00000E+00         0.00000E+00        -0.61399E+08
 
   -0.61213E+08         0.12938E+07         0.00000E+00
    0.12938E+07        -0.97195E+08         0.00000E+00
    0.00000E+00         0.00000E+00        -0.61216E+08
 
   -0.61033E+08         0.12864E+07         0.00000E+00
    0.12864E+07        -0.97172E+08         0.00000E+00
    0.00000E+00         0.00000E+00        -0.61034E+08
 
   -0.60852E+08         0.12789E+07         0.00000E+00
    0.12789E+07        -0.97150E+08         0.00000E+00
    0.00000E+00         0.00000E+00        -0.60852E+08
 
   -0.60672E+08         0.12712E+07         0.00000E+00
    0.12712E+07        -0.97128E+08         0.00000E+00
    0.00000E+00         0.00000E+00        -0.60669E+08
 
   -0.60492E+08         0.12631E+07         0.00000E+00
    0.12631E+07        -0.97107E+08         0.00000E+00
    0.00000E+00         0.00000E+00        -0.60486E+08
 
   -0.60313E+08         0.12547E+07         0.00000E+00
    0.12547E+07        -0.97087E+08         0.00000E+00
    0.00000E+00         0.00000E+00        -0.60303E+08
 
   -0.60133E+08         0.12458E+07         0.00000E+00
    0.12458E+07        -0.97068E+08         0.00000E+00
    0.00000E+00         0.00000E+00        -0.60119E+08
 
   -0.59955E+08         0.12365E+07         0.00000E+00
    0.12365E+07        -0.97050E+08         0.00000E+00
    0.00000E+00         0.00000E+00        -0.59936E+08
 
   -0.59776E+08         0.12266E+07         0.00000E+00
    0.12266E+07        -0.97033E+08         0.00000E+00
    0.00000E+00         0.00000E+00        -0.59751E+08
 
   -0.59598E+08         0.12160E+07         0.00000E+00
    0.12160E+07        -0.97017E+08         0.00000E+00
    0.00000E+00         0.00000E+00        -0.59567E+08
 
   -0.59421E+08         0.12046E+07         0.00000E+00
    0.12046E+07        -0.97002E+08         0.00000E+00
    0.00000E+00         0.00000E+00        -0.59381E+08
 
   -0.59244E+08         0.11923E+07         0.00000E+00
    0.11923E+07        -0.96990E+08         0.00000E+00
    0.00000E+00         0.00000E+00        -0.59196E+08
 
   -0.59068E+08         0.11788E+07         0.00000E+00
    0.11788E+07        -0.96978E+08         0.00000E+00
    0.00000E+00         0.00000E+00        -0.59009E+08
 
   -0.58893E+08         0.11642E+07         0.00000E+00
    0.11642E+07        -0.96969E+08         0.00000E+00
    0.00000E+00         0.00000E+00        -0.58823E+08
 
   -0.58719E+08         0.11480E+07         0.00000E+00
    0.11480E+07        -0.96961E+08         0.00000E+00
    0.00000E+00         0.00000E+00        -0.58635E+08
 
   -0.58546E+08         0.11301E+07         0.00000E+00
    0.11301E+07        -0.96956E+08         0.00000E+00
    0.00000E+00         0.00000E+00        -0.58447E+08
 
   -0.58375E+08         0.11103E+07         0.00000E+00
    0.11103E+07        -0.96953E+08         0.00000E+00
    0.00000E+00         0.00000E+00        -0.58259E+08
 
   -0.58205E+08         0.10882E+07         0.00000E+00
    0.10882E+07        -0.96954E+08         0.00000E+00
    0.00000E+00         0.00000E+00        -0.58070E+08
 
   -0.58038E+08         0.10635E+07         0.00000E+00
    0.10635E+07        -0.96957E+08         0.00000E+00
    0.00000E+00         0.00000E+00        -0.57880E+08
 
   -0.57872E+08         0.10359E+07         0.00000E+00
    0.10359E+07        -0.96963E+08         0.00000E+00
    0.00000E+00         0.00000E+00        -0.57691E+08
 
   -0.57708E+08         0.10050E+07         0.00000E+00
    0.10050E+07        -0.96974E+08         0.00000E+00
    0.00000E+00         0.00000E+00        -0.57501E+08
 
   -0.57546E+08         0.97049E+06         0.00000E+00
    0.97049E+06        -0.96988E+08         0.00000E+00
    0.00000E+00         0.00000E+00        -0.57311E+08
 
   -0.57387E+08         0.93191E+06         0.00000E+00
    0.93191E+06        -0.97006E+08         0.00000E+00
    0.00000E+00         0.00000E+00        -0.57120E+08
 
   -0.57230E+08         0.88898E+06         0.00000E+00
    0.88898E+06        -0.97027E+08         0.00000E+00
    0.00000E+00         0.00000E+00        -0.56930E+08
 
   -0.57074E+08         0.84141E+06         0.00000E+00
    0.84141E+06        -0.97052E+08         0.00000E+00
    0.00000E+00         0.00000E+00        -0.56740E+08
 
   -0.56920E+08         0.78899E+06         0.00000E+00
    0.78899E+06        -0.97080E+08         0.00000E+00
    0.00000E+00         0.00000E+00        -0.56550E+08
 
   -0.56768E+08         0.73162E+06         0.00000E+00
    0.73162E+06        -0.97110E+08         0.00000E+00
    0.00000E+00         0.00000E+00        -0.56359E+08
 
   -0.56616E+08         0.66937E+06         0.00000E+00
    0.66937E+06        -0.97139E+08         0.00000E+00
    0.00000E+00         0.00000E+00        -0.56166E+08
 
   -0.56464E+08         0.60244E+06         0.00000E+00
    0.60244E+06        -0.97166E+08         0.00000E+00
    0.00000E+00         0.00000E+00        -0.55971E+08
 
   -0.56311E+08         0.53130E+06         0.00000E+00
    0.53130E+06        -0.97187E+08         0.00000E+00
    0.00000E+00         0.00000E+00        -0.55769E+08
 
   -0.56159E+08         0.45662E+06         0.00000E+00
    0.45662E+06        -0.97197E+08         0.00000E+00
    0.00000E+00         0.00000E+00        -0.55557E+08
 
   -0.56008E+08         0.37927E+06         0.00000E+00
    0.37927E+06        -0.97191E+08         0.00000E+00
    0.00000E+00         0.00000E+00        -0.55330E+08
 
   -0.55861E+08         0.30049E+06         0.00000E+00
    0.30049E+06        -0.97163E+08         0.00000E+00
    0.00000E+00         0.00000E+00        -0.55077E+08
 
   -0.55727E+08         0.22252E+06         0.00000E+00
    0.22252E+06        -0.97108E+08         0.00000E+00
    0.00000E+00         0.00000E+00        -0.54790E+08
 
   -0.55613E+08         0.14916E+06         0.00000E+00
    0.14916E+06        -0.97025E+08         0.00000E+00
    0.00000E+00         0.00000E+00        -0.54458E+08
 
   -0.55531E+08         0.84110E+05         0.00000E+00
    0.84110E+05        -0.96919E+08         0.00000E+00
    0.00000E+00         0.00000E+00        -0.54076E+08
 
   -0.55487E+08         0.27004E+05         0.00000E+00
    0.27004E+05        -0.96797E+08         0.00000E+00
    0.00000E+00         0.00000E+00        -0.53647E+08
 
   -0.75734E+08         0.38769E+05         0.00000E+00
    0.38769E+05        -0.97918E+08         0.00000E+00
    0.00000E+00         0.00000E+00        -0.78463E+08
 
   -0.75668E+08         0.12314E+06         0.00000E+00
    0.12314E+06        -0.97603E+08         0.00000E+00
    0.00000E+00         0.00000E+00        -0.78049E+08
 
   -0.75543E+08         0.22420E+06         0.00000E+00
    0.22420E+06        -0.97378E+08         0.00000E+00
    0.00000E+00         0.00000E+00        -0.77635E+08
 
   -0.75370E+08         0.34377E+06         0.00000E+00
    0.34377E+06        -0.97230E+08         0.00000E+00
    0.00000E+00         0.00000E+00        -0.77221E+08
 
   -0.75163E+08         0.47710E+06         0.00000E+00
    0.47710E+06        -0.97141E+08         0.00000E+00
    0.00000E+00         0.00000E+00        -0.76809E+08
 
   -0.74931E+08         0.61699E+06         0.00000E+00
    0.61699E+06        -0.97096E+08         0.00000E+00
    0.00000E+00         0.00000E+00        -0.76397E+08
 
   -0.74682E+08         0.75676E+06         0.00000E+00
    0.75676E+06        -0.97082E+08         0.00000E+00
    0.00000E+00         0.00000E+00        -0.75985E+08
 
   -0.74421E+08         0.89145E+06         0.00000E+00
    0.89145E+06        -0.97091E+08         0.00000E+00
    0.00000E+00         0.00000E+00        -0.75576E+08
 
   -0.74151E+08         0.10177E+07         0.00000E+00
    0.10177E+07        -0.97115E+08         0.00000E+00
    0.00000E+00         0.00000E+00        -0.75167E+08
 
   -0.73876E+08         0.11335E+07         0.00000E+00
    0.11335E+07        -0.97151E+08         0.00000E+00
    0.00000E+00         0.00000E+00        -0.74760E+08
 
   -0.73596E+08         0.12375E+07         0.00000E+00
    0.12375E+07        -0.97195E+08         0.00000E+00
    0.00000E+00         0.00000E+00        -0.74354E+08
 
   -0.73313E+08         0.13287E+07         0.00000E+00
    0.13287E+07        -0.97244E+08         0.00000E+00
    0.00000E+00         0.00000E+00        -0.73951E+08
 
   -0.73028E+08         0.14063E+07         0.00000E+00
    0.14063E+07        -0.97300E+08         0.00000E+00
    0.00000E+00         0.00000E+00        -0.73549E+08
 
   -0.72744E+08         0.14695E+07         0.00000E+00
    0.14695E+07        -0.97360E+08         0.00000E+00
    0.00000E+00         0.00000E+00        -0.73148E+08
 
   -0.72459E+08         0.15170E+07         0.00000E+00
    0.15170E+07        -0.97425E+08         0.00000E+00
    0.00000E+00         0.00000E+00        -0.72751E+08
 
   -0.72177E+08         0.15472E+07         0.00000E+00
    0.15472E+07        -0.97494E+08         0.00000E+00
    0.00000E+00         0.00000E+00        -0.72355E+08
 
   -0.71897E+08         0.15573E+07         0.00000E+00
    0.15573E+07        -0.97555E+08         0.00000E+00
    0.00000E+00         0.00000E+00        -0.71975E+08
 
   -0.71619E+08         0.15768E+07         0.00000E+00
    0.15768E+07        -0.97571E+08         0.00000E+00
    0.00000E+00         0.00000E+00        -0.71668E+08
 
   -0.71342E+08         0.15896E+07         0.00000E+00
    0.15896E+07        -0.97564E+08         0.00000E+00
    0.00000E+00         0.00000E+00        -0.71410E+08
 
   -0.71070E+08         0.15970E+07         0.00000E+00
    0.15970E+07        -0.97566E+08         0.00000E+00
    0.00000E+00         0.00000E+00        -0.71149E+08
 
   -0.70804E+08         0.16003E+07         0.00000E+00
    0.16003E+07        -0.97569E+08         0.00000E+00
    0.00000E+00         0.00000E+00        -0.70886E+08
 
   -0.70540E+08         0.16015E+07         0.00000E+00
    0.16015E+07        -0.97574E+08         0.00000E+00
    0.00000E+00         0.00000E+00        -0.70622E+08
 
   -0.70278E+08         0.16019E+07         0.00000E+00
    0.16019E+07        -0.97579E+08         0.00000E+00
    0.00000E+00         0.00000E+00        -0.70355E+08
 
   -0.70017E+08         0.16020E+07         0.00000E+00
    0.16020E+07        -0.97584E+08         0.00000E+00
    0.00000E+00         0.00000E+00        -0.70088E+08
 
   -0.69757E+08         0.16017E+07         0.00000E+00
    0.16017E+07        -0.97589E+08         0.00000E+00
    0.00000E+00         0.00000E+00        -0.69819E+08
 
   -0.69498E+08         0.16010E+07         0.00000E+00
    0.16010E+07        -0.97594E+08         0.00000E+00
    0.00000E+00         0.00000E+00        -0.69549E+08
 
   -0.69239E+08         0.15996E+07         0.00000E+00
    0.15996E+07        -0.97598E+08         0.00000E+00
    0.00000E+00         0.00000E+00        -0.69279E+08
 
   -0.68981E+08         0.15974E+07         0.00000E+00
    0.15974E+07        -0.97602E+08         0.00000E+00
    0.00000E+00         0.00000E+00        -0.69007E+08
 
   -0.68723E+08         0.15942E+07         0.00000E+00
    0.15942E+07        -0.97606E+08         0.00000E+00
    0.00000E+00         0.00000E+00        -0.68736E+08
 
   -0.68466E+08         0.15897E+07         0.00000E+00
    0.15897E+07        -0.97611E+08         0.00000E+00
    0.00000E+00         0.00000E+00        -0.68464E+08
 
   -0.68210E+08         0.15837E+07         0.00000E+00
    0.15837E+07        -0.97615E+08         0.00000E+00
    0.00000E+00         0.00000E+00        -0.68191E+08
 
   -0.67955E+08         0.15759E+07         0.00000E+00
    0.15759E+07        -0.97621E+08         0.00000E+00
    0.00000E+00         0.00000E+00        -0.67919E+08
 
   -0.67701E+08         0.15663E+07         0.00000E+00
    0.15663E+07        -0.97628E+08         0.00000E+00
    0.00000E+00         0.00000E+00        -0.67646E+08
 
   -0.67450E+08         0.15547E+07         0.00000E+00
    0.15547E+07        -0.97638E+08         0.00000E+00
    0.00000E+00         0.00000E+00        -0.67374E+08
 
   -0.67200E+08         0.15414E+07         0.00000E+00
    0.15414E+07        -0.97651E+08         0.00000E+00
    0.00000E+00         0.00000E+00        -0.67101E+08
 
   -0.66951E+08         0.15268E+07         0.00000E+00
    0.15268E+07        -0.97667E+08         0.00000E+00
    0.00000E+00         0.00000E+00        -0.66829E+08
 
   -0.66705E+08         0.15115E+07         0.00000E+00
    0.15115E+07        -0.97682E+08         0.00000E+00
    0.00000E+00         0.00000E+00        -0.66565E+08
 
   -0.66461E+08         0.14924E+07         0.00000E+00
    0.14924E+07        -0.97675E+08         0.00000E+00
    0.00000E+00         0.00000E+00        -0.66330E+08
 
   -0.66219E+08         0.14742E+07         0.00000E+00
    0.14742E+07        -0.97660E+08         0.00000E+00
    0.00000E+00         0.00000E+00        -0.66109E+08
 
   -0.65980E+08         0.14572E+07         0.00000E+00
    0.14572E+07        -0.97648E+08         0.00000E+00
    0.00000E+00         0.00000E+00        -0.65889E+08
 
   -0.65744E+08         0.14416E+07         0.00000E+00
    0.14416E+07        -0.97640E+08         0.00000E+00
    0.00000E+00         0.00000E+00        -0.65670E+08
 
   -0.65511E+08         0.14276E+07         0.00000E+00
    0.14276E+07        -0.97634E+08         0.00000E+00
    0.00000E+00         0.00000E+00        -0.65451E+08
 
   -0.65281E+08         0.14151E+07         0.00000E+00
    0.14151E+07        -0.97630E+08         0.00000E+00
    0.00000E+00         0.00000E+00        -0.65232E+08
 
   -0.65053E+08         0.14040E+07         0.00000E+00
    0.14040E+07        -0.97627E+08         0.00000E+00
    0.00000E+00         0.00000E+00        -0.65014E+08
 
   -0.64827E+08         0.13941E+07         0.00000E+00
    0.13941E+07        -0.97624E+08         0.00000E+00
    0.00000E+00         0.00000E+00        -0.64797E+08
 
   -0.64603E+08         0.13852E+07         0.00000E+00
    0.13852E+07        -0.97622E+08         0.00000E+00
    0.00000E+00         0.00000E+00        -0.64580E+08
 
   -0.64381E+08         0.13771E+07         0.00000E+00
    0.13771E+07        -0.97621E+08         0.00000E+00
    0.00000E+00         0.00000E+00        -0.64364E+08
 
   -0.64164E+08         0.13695E+07         0.00000E+00
    0.13695E+07        -0.97616E+08         0.00000E+00
    0.00000E+00         0.00000E+00        -0.64152E+08
 
   -0.63966E+08         0.13611E+07         0.00000E+00
    0.13611E+07        -0.97595E+08         0.00000E+00
    0.00000E+00         0.00000E+00        -0.63958E+08
 
   -0.63778E+08         0.13525E+07         0.00000E+00
    0.13525E+07        -0.97567E+08         0.00000E+00
    0.00000E+00         0.00000E+00        -0.63773E+08
 
   -0.63591E+08         0.13443E+07         0.00000E+00
    0.13443E+07        -0.97538E+08         0.00000E+00
    0.00000E+00         0.00000E+00        -0.63589E+08
 
   -0.63404E+08         0.13365E+07         0.00000E+00
    0.13365E+07        -0.97510E+08         0.00000E+00
    0.00000E+00         0.00000E+00        -0.63405E+08
 
   -0.63219E+08         0.13290E+07         0.00000E+00
    0.13290E+07        -0.97482E+08         0.00000E+00
    0.00000E+00         0.00000E+00        -0.63221E+08
 
   -0.63034E+08         0.13217E+07         0.00000E+00
    0.13217E+07        -0.97454E+08         0.00000E+00
    0.00000E+00         0.00000E+00        -0.63038E+08
 
   -0.62850E+08         0.13146E+07         0.00000E+00
    0.13146E+07        -0.97427E+08         0.00000E+00
    0.00000E+00         0.00000E+00        -0.62855E+08
 
   -0.62666E+08         0.13077E+07         0.00000E+00
    0.13077E+07        -0.97399E+08         0.00000E+00
    0.00000E+00         0.00000E+00        -0.62672E+08
 
   -0.62483E+08         0.13008E+07         0.00000E+00
    0.13008E+07        -0.97372E+08         0.00000E+00
    0.00000E+00         0.00000E+00        -0.62489E+08
 
   -0.62300E+08         0.12941E+07         0.00000E+00
    0.12941E+07        -0.97346E+08         0.00000E+00
    0.00000E+00         0.00000E+00        -0.62307E+08
 
   -0.62117E+08         0.12874E+07         0.00000E+00
    0.12874E+07        -0.97320E+08         0.00000E+00
    0.00000E+00         0.00000E+00        -0.62125E+08
 
   -0.61935E+08         0.12807E+07         0.00000E+00
    0.12807E+07        -0.97294E+08         0.00000E+00
    0.00000E+00         0.00000E+00        -0.61943E+08
 
   -0.61754E+08         0.12740E+07         0.00000E+00
    0.12740E+07        -0.97269E+08         0.00000E+00
    0.00000E+00         0.00000E+00        -0.61761E+08
 
   -0.61572E+08         0.12673E+07         0.00000E+00
    0.12673E+07        -0.97244E+08         0.00000E+00
    0.00000E+00         0.00000E+00        -0.61578E+08
 
   -0.61391E+08         0.12605E+07         0.00000E+00
    0.12605E+07        -0.97220E+08         0.00000E+00
    0.00000E+00         0.00000E+00        -0.61396E+08
 
   -0.61210E+08         0.12535E+07         0.00000E+00
    0.12535E+07        -0.97196E+08         0.00000E+00
    0.00000E+00         0.00000E+00        -0.61214E+08
 
   -0.61030E+08         0.12464E+07         0.00000E+00
    0.12464E+07        -0.97173E+08         0.00000E+00
    0.00000E+00         0.00000E+00        -0.61032E+08
 
   -0.60850E+08         0.12391E+07         0.00000E+00
    0.12391E+07        -0.97150E+08         0.00000E+00
    0.00000E+00         0.00000E+00        -0.60849E+08
 
   -0.60670E+08         0.12316E+07         0.00000E+00
    0.12316E+07        -0.97129E+08         0.00000E+00
    0.00000E+00         0.00000E+00        -0.60667E+08
 
   -0.60490E+08         0.12238E+07         0.00000E+00
    0.12238E+07        -0.97108E+08         0.00000E+00
    0.00000E+00         0.00000E+00        -0.60484E+08
 
   -0.60310E+08         0.12156E+07         0.00000E+00
    0.12156E+07        -0.97088E+08         0.00000E+00
    0.00000E+00         0.00000E+00        -0.60301E+08
 
   -0.60131E+08         0.12070E+07         0.00000E+00
    0.12070E+07        -0.97068E+08         0.00000E+00
    0.00000E+00         0.00000E+00        -0.60117E+08
 
   -0.59953E+08         0.11980E+07         0.00000E+00
    0.11980E+07        -0.97050E+08         0.00000E+00
    0.00000E+00         0.00000E+00        -0.59933E+08
 
   -0.59774E+08         0.11883E+07         0.00000E+00
    0.11883E+07        -0.97033E+08         0.00000E+00
    0.00000E+00         0.00000E+00        -0.59749E+08
 
   -0.59596E+08         0.11781E+07         0.00000E+00
    0.11781E+07        -0.97017E+08         0.00000E+00
    0.00000E+00         0.00000E+00        -0.59564E+08
 
   -0.59419E+08         0.11670E+07         0.00000E+00
    0.11670E+07        -0.97003E+08         0.00000E+00
    0.00000E+00         0.00000E+00        -0.59378E+08
 
   -0.59243E+08         0.11551E+07         0.00000E+00
    0.11551E+07        -0.96989E+08         0.00000E+00
    0.00000E+00         0.00000E+00        -0.59192E+08
 
   -0.59067E+08         0.11421E+07         0.00000E+00
    0.11421E+07        -0.96978E+08         0.00000E+00
    0.00000E+00         0.00000E+00        -0.59006E+08
 
   -0.58892E+08         0.11278E+07         0.00000E+00
    0.11278E+07        -0.96968E+08         0.00000E+00
    0.00000E+00         0.00000E+00        -0.58819E+08
 
   -0.58718E+08         0.11122E+07         0.00000E+00
    0.11122E+07        -0.96960E+08         0.00000E+00
    0.00000E+00         0.00000E+00        -0.58631E+08
 
   -0.58546E+08         0.10948E+07         0.00000E+00
    0.10948E+07        -0.96954E+08         0.00000E+00
    0.00000E+00         0.00000E+00        -0.58442E+08
 
   -0.58375E+08         0.10756E+07         0.00000E+00
    0.10756E+07        -0.96951E+08         0.00000E+00
    0.00000E+00         0.00000E+00        -0.58253E+08
 
   -0.58205E+08         0.10541E+07         0.00000E+00
    0.10541E+07        -0.96951E+08         0.00000E+00
    0.00000E+00         0.00000E+00        -0.58064E+08
 
   -0.58038E+08         0.10301E+07         0.00000E+00
    0.10301E+07        -0.96953E+08         0.00000E+00
    0.00000E+00         0.00000E+00        -0.57873E+08
 
   -0.57872E+08         0.10032E+07         0.00000E+00
    0.10032E+07        -0.96959E+08         0.00000E+00
    0.00000E+00         0.00000E+00        -0.57683E+08
 
   -0.57709E+08         0.97297E+06         0.00000E+00
    0.97297E+06        -0.96969E+08         0.00000E+00
    0.00000E+00         0.00000E+00        -0.57492E+08
 
   -0.57548E+08         0.93913E+06         0.00000E+00
    0.93913E+06        -0.96982E+08         0.00000E+00
    0.00000E+00         0.00000E+00        -0.57300E+08
 
   -0.57389E+08         0.90125E+06         0.00000E+00
    0.90125E+06        -0.96998E+08         0.00000E+00
    0.00000E+00         0.00000E+00        -0.57109E+08
 
   -0.57233E+08         0.85899E+06         0.00000E+00
    0.85899E+06        -0.97019E+08         0.00000E+00
    0.00000E+00         0.00000E+00        -0.56917E+08
 
   -0.57078E+08         0.81202E+06         0.00000E+00
    0.81202E+06        -0.97043E+08         0.00000E+00
    0.00000E+00         0.00000E+00        -0.56725E+08
 
   -0.56925E+08         0.76012E+06         0.00000E+00
    0.76012E+06        -0.97069E+08         0.00000E+00
    0.00000E+00         0.00000E+00        -0.56533E+08
 
   -0.56774E+08         0.70315E+06         0.00000E+00
    0.70315E+06        -0.97098E+08         0.00000E+00
    0.00000E+00         0.00000E+00        -0.56340E+08
 
   -0.56624E+08         0.64116E+06         0.00000E+00
    0.64116E+06        -0.97126E+08         0.00000E+00
    0.00000E+00         0.00000E+00        -0.56145E+08
 
   -0.56474E+08         0.57439E+06         0.00000E+00
    0.57439E+06        -0.97152E+08         0.00000E+00
    0.00000E+00         0.00000E+00        -0.55946E+08
 
   -0.56324E+08         0.50337E+06         0.00000E+00
    0.50337E+06        -0.97172E+08         0.00000E+00
    0.00000E+00         0.00000E+00        -0.55742E+08
 
   -0.56174E+08         0.42894E+06         0.00000E+00
    0.42894E+06        -0.97181E+08         0.00000E+00
    0.00000E+00         0.00000E+00        -0.55527E+08
 
   -0.56026E+08         0.35235E+06         0.00000E+00
    0.35235E+06        -0.97175E+08         0.00000E+00
    0.00000E+00         0.00000E+00        -0.55297E+08
 
   -0.55884E+08         0.27541E+06         0.00000E+00
    0.27541E+06        -0.97148E+08         0.00000E+00
    0.00000E+00         0.00000E+00        -0.55042E+08
 
   -0.55753E+08         0.20096E+06         0.00000E+00
    0.20096E+06        -0.97094E+08         0.00000E+00
    0.00000E+00         0.00000E+00        -0.54752E+08
 
   -0.55644E+08         0.13287E+06         0.00000E+00
    0.13287E+06        -0.97014E+08         0.00000E+00
    0.00000E+00         0.00000E+00        -0.54418E+08
 
   -0.55565E+08         0.74184E+05         0.00000E+00
    0.74184E+05        -0.96910E+08         0.00000E+00
    0.00000E+00         0.00000E+00        -0.54036E+08
 
   -0.55523E+08         0.23708E+05         0.00000E+00
    0.23708E+05        -0.96789E+08         0.00000E+00
    0.00000E+00         0.00000E+00        -0.53607E+08
 
   -0.75626E+08         0.32090E+05         0.00000E+00
    0.32090E+05        -0.97932E+08         0.00000E+00
    0.00000E+00         0.00000E+00        -0.78463E+08
 
   -0.75562E+08         0.10387E+06         0.00000E+00
    0.10387E+06        -0.97620E+08         0.00000E+00
    0.00000E+00         0.00000E+00        -0.78049E+08
 
   -0.75441E+08         0.19438E+06         0.00000E+00
    0.19438E+06        -0.97400E+08         0.00000E+00
    0.00000E+00         0.00000E+00        -0.77635E+08
 
   -0.75274E+08         0.30591E+06         0.00000E+00
    0.30591E+06        -0.97255E+08         0.00000E+00
    0.00000E+00         0.00000E+00        -0.77221E+08
 
   -0.75074E+08         0.43353E+06         0.00000E+00
    0.43353E+06        -0.97169E+08         0.00000E+00
    0.00000E+00         0.00000E+00        -0.76809E+08
 
   -0.74850E+08         0.56944E+06         0.00000E+00
    0.56944E+06        -0.97124E+08         0.00000E+00
    0.00000E+00         0.00000E+00        -0.76397E+08
 
   -0.74610E+08         0.70640E+06         0.00000E+00
    0.70640E+06        -0.97110E+08         0.00000E+00
    0.00000E+00         0.00000E+00        -0.75985E+08
 
   -0.74357E+08         0.83905E+06         0.00000E+00
    0.83905E+06        -0.97117E+08         0.00000E+00
    0.00000E+00         0.00000E+00        -0.75576E+08
 
   -0.74095E+08         0.96384E+06         0.00000E+00
    0.96384E+06        -0.97139E+08         0.00000E+00
    0.00000E+00         0.00000E+00        -0.75167E+08
 
   -0.73826E+08         0.10786E+07         0.00000E+00
    0.10786E+07        -0.97173E+08         0.00000E+00
    0.00000E+00         0.00000E+00        -0.74760E+08
 
   -0.73553E+08         0.11818E+07         0.00000E+00
    0.11818E+07        -0.97214E+08         0.00000E+00
    0.00000E+00         0.00000E+00        -0.74354E+08
 
   -0.73276E+08         0.12725E+07         0.00000E+00
    0.12725E+07        -0.97261E+08         0.00000E+00
    0.00000E+00         0.00000E+00        -0.73951E+08
 
   -0.72997E+08         0.13499E+07         0.00000E+00
    0.13499E+07        -0.97314E+08         0.00000E+00
    0.00000E+00         0.00000E+00        -0.73549E+08
 
   -0.72716E+08         0.14130E+07         0.00000E+00
    0.14130E+07        -0.97371E+08         0.00000E+00
    0.00000E+00         0.00000E+00        -0.73148E+08
 
   -0.72436E+08         0.14606E+07         0.00000E+00
    0.14606E+07        -0.97433E+08         0.00000E+00
    0.00000E+00         0.00000E+00        -0.72751E+08
 
   -0.72157E+08         0.14913E+07         0.00000E+00
    0.14913E+07        -0.97498E+08         0.00000E+00
    0.00000E+00         0.00000E+00        -0.72355E+08
 
   -0.71880E+08         0.15022E+07         0.00000E+00
    0.15022E+07        -0.97558E+08         0.00000E+00
    0.00000E+00         0.00000E+00        -0.71971E+08
 
   -0.71604E+08         0.15210E+07         0.00000E+00
    0.15210E+07        -0.97574E+08         0.00000E+00
    0.00000E+00         0.00000E+00        -0.71659E+08
 
   -0.71328E+08         0.15347E+07         0.00000E+00
    0.15347E+07        -0.97567E+08         0.00000E+00
    0.00000E+00         0.00000E+00        -0.71399E+08
 
   -0.71057E+08         0.15433E+07         0.00000E+00
    0.15433E+07        -0.97567E+08         0.00000E+00
    0.00000E+00         0.00000E+00        -0.71137E+08
 
   -0.70790E+08         0.15473E+07         0.00000E+00
    0.15473E+07        -0.97569E+08         0.00000E+00
    0.00000E+00         0.00000E+00        -0.70874E+08
 
   -0.70526E+08         0.15490E+07         0.00000E+00
    0.15490E+07        -0.97574E+08         0.00000E+00
    0.00000E+00         0.00000E+00        -0.70608E+08
 
   -0.70264E+08         0.15497E+07         0.00000E+00
    0.15497E+07        -0.97579E+08         0.00000E+00
    0.00000E+00         0.00000E+00        -0.70342E+08
 
   -0.70004E+08         0.15499E+07         0.00000E+00
    0.15499E+07        -0.97584E+08         0.00000E+00
    0.00000E+00         0.00000E+00        -0.70074E+08
 
   -0.69744E+08         0.15498E+07         0.00000E+00
    0.15498E+07        -0.97589E+08         0.00000E+00
    0.00000E+00         0.00000E+00        -0.69805E+08
 
   -0.69485E+08         0.15492E+07         0.00000E+00
    0.15492E+07        -0.97594E+08         0.00000E+00
    0.00000E+00         0.00000E+00        -0.69535E+08
 
   -0.69226E+08         0.15479E+07         0.00000E+00
    0.15479E+07        -0.97598E+08         0.00000E+00
    0.00000E+00         0.00000E+00        -0.69264E+08
 
   -0.68968E+08         0.15459E+07         0.00000E+00
    0.15459E+07        -0.97602E+08         0.00000E+00
    0.00000E+00         0.00000E+00        -0.68993E+08
 
   -0.68711E+08         0.15428E+07         0.00000E+00
    0.15428E+07        -0.97606E+08         0.00000E+00
    0.00000E+00         0.00000E+00        -0.68722E+08
 
   -0.68455E+08         0.15384E+07         0.00000E+00
    0.15384E+07        -0.97610E+08         0.00000E+00
    0.00000E+00         0.00000E+00        -0.68450E+08
 
   -0.68199E+08         0.15326E+07         0.00000E+00
    0.15326E+07        -0.97614E+08         0.00000E+00
    0.00000E+00         0.00000E+00        -0.68178E+08
 
   -0.67945E+08         0.15252E+07         0.00000E+00
    0.15252E+07        -0.97619E+08         0.00000E+00
    0.00000E+00         0.00000E+00        -0.67906E+08
 
   -0.67693E+08         0.15158E+07         0.00000E+00
    0.15158E+07        -0.97626E+08         0.00000E+00
    0.00000E+00         0.00000E+00        -0.67634E+08
 
   -0.67442E+08         0.15046E+07         0.00000E+00
    0.15046E+07        -0.97635E+08         0.00000E+00
    0.00000E+00         0.00000E+00        -0.67362E+08
 
   -0.67192E+08         0.14917E+07         0.00000E+00
    0.14917E+07        -0.97648E+08         0.00000E+00
    0.00000E+00         0.00000E+00        -0.67090E+08
 
   -0.66945E+08         0.14775E+07         0.00000E+00
    0.14775E+07        -0.97664E+08         0.00000E+00
    0.00000E+00         0.00000E+00        -0.66819E+08
 
   -0.66699E+08         0.14625E+07         0.00000E+00
    0.14625E+07        -0.97678E+08         0.00000E+00
    0.00000E+00         0.00000E+00        -0.66556E+08
 
   -0.66456E+08         0.14438E+07         0.00000E+00
    0.14438E+07        -0.97672E+08         0.00000E+00
    0.00000E+00         0.00000E+00        -0.66321E+08
 
   -0.66214E+08         0.14261E+07         0.00000E+00
    0.14261E+07        -0.97656E+08         0.00000E+00
    0.00000E+00         0.00000E+00        -0.66101E+08
 
   -0.65976E+08         0.14097E+07         0.00000E+00
    0.14097E+07        -0.97645E+08         0.00000E+00
    0.00000E+00         0.00000E+00        -0.65881E+08
 
   -0.65740E+08         0.13947E+07         0.00000E+00
    0.13947E+07        -0.97637E+08         0.00000E+00
    0.00000E+00         0.00000E+00        -0.65662E+08
 
   -0.65507E+08         0.13813E+07         0.00000E+00
    0.13813E+07        -0.97632E+08         0.00000E+00
    0.00000E+00         0.00000E+00        -0.65444E+08
 
   -0.65277E+08         0.13693E+07         0.00000E+00
    0.13693E+07        -0.97628E+08         0.00000E+00
    0.00000E+00         0.00000E+00        -0.65226E+08
 
   -0.65049E+08         0.13586E+07         0.00000E+00
    0.13586E+07        -0.97625E+08         0.00000E+00
    0.00000E+00         0.00000E+00        -0.65008E+08
 
   -0.64823E+08         0.13491E+07         0.00000E+00
    0.13491E+07        -0.97623E+08         0.00000E+00
    0.00000E+00         0.00000E+00        -0.64791E+08
 
   -0.64599E+08         0.13406E+07         0.00000E+00
    0.13406E+07        -0.97621E+08         0.00000E+00
    0.00000E+00         0.00000E+00        -0.64575E+08
 
   -0.64377E+08         0.13329E+07         0.00000E+00
    0.13329E+07        -0.97619E+08         0.00000E+00
    0.00000E+00         0.00000E+00        -0.64359E+08
 
   -0.64160E+08         0.13255E+07         0.00000E+00
    0.13255E+07        -0.97615E+08         0.00000E+00
    0.00000E+00         0.00000E+00        -0.64147E+08
 
   -0.63963E+08         0.13174E+07         0.00000E+00
    0.13174E+07        -0.97594E+08         0.00000E+00
    0.00000E+00         0.00000E+00        -0.63954E+08
 
   -0.63774E+08         0.13091E+07         0.00000E+00
    0.13091E+07        -0.97565E+08         0.00000E+00
    0.00000E+00         0.00000E+00        -0.63769E+08
 
   -0.63587E+08         0.13012E+07         0.00000E+00
    0.13012E+07        -0.97537E+08         0.00000E+00
    0.00000E+00         0.00000E+00        -0.63585E+08
 
   -0.63401E+08         0.12936E+07         0.00000E+00
    0.12936E+07        -0.97509E+08         0.00000E+00
    0.00000E+00         0.00000E+00        -0.63401E+08
 
   -0.63215E+08         0.12864E+07         0.00000E+00
    0.12864E+07        -0.97481E+08         0.00000E+00
    0.00000E+00         0.00000E+00        -0.63218E+08
 
   -0.63030E+08         0.12793E+07         0.00000E+00
    0.12793E+07        -0.97453E+08         0.00000E+00
    0.00000E+00         0.00000E+00        -0.63034E+08
 
   -0.62846E+08         0.12725E+07         0.00000E+00
    0.12725E+07        -0.97426E+08         0.00000E+00
    0.00000E+00         0.00000E+00        -0.62852E+08
 
   -0.62662E+08         0.12658E+07         0.00000E+00
    0.12658E+07        -0.97399E+08         0.00000E+00
    0.00000E+00         0.00000E+00        -0.62669E+08
 
   -0.62479E+08         0.12592E+07         0.00000E+00
    0.12592E+07        -0.97372E+08         0.00000E+00
    0.00000E+00         0.00000E+00        -0.62486E+08
 
   -0.62297E+08         0.12526E+07         0.00000E+00
    0.12526E+07        -0.97346E+08         0.00000E+00
    0.00000E+00         0.00000E+00        -0.62304E+08
 
   -0.62114E+08         0.12462E+07         0.00000E+00
    0.12462E+07        -0.97320E+08         0.00000E+00
    0.00000E+00         0.00000E+00        -0.62122E+08
 
   -0.61932E+08         0.12397E+07         0.00000E+00
    0.12397E+07        -0.97294E+08         0.00000E+00
    0.00000E+00         0.00000E+00        -0.61940E+08
 
   -0.61751E+08         0.12332E+07         0.00000E+00
    0.12332E+07        -0.97269E+08         0.00000E+00
    0.00000E+00         0.00000E+00        -0.61758E+08
 
   -0.61569E+08         0.12267E+07         0.00000E+00
    0.12267E+07        -0.97244E+08         0.00000E+00
    0.00000E+00         0.00000E+00        -0.61576E+08
 
   -0.61389E+08         0.12200E+07         0.00000E+00
    0.12200E+07        -0.97220E+08         0.00000E+00
    0.00000E+00         0.00000E+00        -0.61394E+08
 
   -0.61208E+08         0.12133E+07         0.00000E+00
    0.12133E+07        -0.97196E+08         0.00000E+00
    0.00000E+00         0.00000E+00        -0.61212E+08
 
   -0.61027E+08         0.12064E+07         0.00000E+00
    0.12064E+07        -0.97173E+08         0.00000E+00
    0.00000E+00         0.00000E+00        -0.61030E+08
 
   -0.60847E+08         0.11993E+07         0.00000E+00
    0.11993E+07        -0.97151E+08         0.00000E+00
    0.00000E+00         0.00000E+00        -0.60847E+08
 
   -0.60667E+08         0.11920E+07         0.00000E+00
    0.11920E+07        -0.97129E+08         0.00000E+00
    0.00000E+00         0.00000E+00        -0.60665E+08
 
   -0.60488E+08         0.11845E+07         0.00000E+00
    0.11845E+07        -0.97108E+08         0.00000E+00
    0.00000E+00         0.00000E+00        -0.60482E+08
 
   -0.60308E+08         0.11765E+07         0.00000E+00
    0.11765E+07        -0.97088E+08         0.00000E+00
    0.00000E+00         0.00000E+00        -0.60298E+08
 
   -0.60129E+08         0.11682E+07         0.00000E+00
    0.11682E+07        -0.97069E+08         0.00000E+00
    0.00000E+00         0.00000E+00        -0.60115E+08
 
   -0.59951E+08         0.11595E+07         0.00000E+00
    0.11595E+07        -0.97051E+08         0.00000E+00
    0.00000E+00         0.00000E+00        -0.59931E+08
 
   -0.59773E+08         0.11501E+07         0.00000E+00
    0.11501E+07        -0.97033E+08         0.00000E+00
    0.00000E+00         0.00000E+00        -0.59746E+08
 
   -0.59595E+08         0.11402E+07         0.00000E+00
    0.11402E+07        -0.97017E+08         0.00000E+00
    0.00000E+00         0.00000E+00        -0.59561E+08
 
   -0.59418E+08         0.11295E+07         0.00000E+00
    0.11295E+07        -0.97003E+08         0.00000E+00
    0.00000E+00         0.00000E+00        -0.59376E+08
 
   -0.59241E+08         0.11179E+07         0.00000E+00
    0.11179E+07        -0.96989E+08         0.00000E+00
    0.00000E+00         0.00000E+00        -0.59189E+08
 
   -0.59066E+08         0.11053E+07         0.00000E+00
    0.11053E+07        -0.96977E+08         0.00000E+00
    0.00000E+00         0.00000E+00        -0.59002E+08
 
   -0.58891E+08         0.10915E+07         0.00000E+00
    0.10915E+07        -0.96967E+08         0.00000E+00
    0.00000E+00         0.00000E+00        -0.58815E+08
 
   -0.58717E+08         0.10764E+07         0.00000E+00
    0.10764E+07        -0.96959E+08         0.00000E+00
    0.00000E+00         0.00000E+00        -0.58627E+08
 
   -0.58545E+08         0.10596E+07         0.00000E+00
    0.10596E+07        -0.96953E+08         0.00000E+00
    0.00000E+00         0.00000E+00        -0.58438E+08
 
   -0.58374E+08         0.10409E+07         0.00000E+00
    0.10409E+07        -0.96949E+08         0.00000E+00
    0.00000E+00         0.00000E+00        -0.58248E+08
 
   -0.58205E+08         0.10200E+07         0.00000E+00
    0.10200E+07        -0.96948E+08         0.00000E+00
    0.00000E+00         0.00000E+00        -0.58058E+08
 
   -0.58038E+08         0.99665E+06         0.00000E+00
    0.99665E+06        -0.96950E+08         0.00000E+00
    0.00000E+00         0.00000E+00        -0.57867E+08
 
   -0.57873E+08         0.97042E+06         0.00000E+00
    0.97042E+06        -0.96955E+08         0.00000E+00
    0.00000E+00         0.00000E+00        -0.57675E+08
 
   -0.57710E+08         0.94095E+06         0.00000E+00
    0.94095E+06        -0.96964E+08         0.00000E+00
    0.00000E+00         0.00000E+00        -0.57483E+08
 
   -0.57550E+08         0.90784E+06         0.00000E+00
    0.90784E+06        -0.96976E+08         0.00000E+00
    0.00000E+00         0.00000E+00        -0.57290E+08
 
   -0.57391E+08         0.87069E+06         0.00000E+00
    0.87069E+06        -0.96991E+08         0.00000E+00
    0.00000E+00         0.00000E+00        -0.57098E+08
 
   -0.57236E+08         0.82913E+06         0.00000E+00
    0.82913E+06        -0.97011E+08         0.00000E+00
    0.00000E+00         0.00000E+00        -0.56904E+08
 
   -0.57082E+08         0.78281E+06         0.00000E+00
    0.78281E+06        -0.97033E+08         0.00000E+00
    0.00000E+00         0.00000E+00        -0.56711E+08
 
   -0.56931E+08         0.73147E+06         0.00000E+00
    0.73147E+06        -0.97059E+08         0.00000E+00
    0.00000E+00         0.00000E+00        -0.56516E+08
 
   -0.56781E+08         0.67496E+06         0.00000E+00
    0.67496E+06        -0.97086E+08         0.00000E+00
    0.00000E+00         0.00000E+00        -0.56321E+08
 
   -0.56632E+08         0.61332E+06         0.00000E+00
    0.61332E+06        -0.97113E+08         0.00000E+00
    0.00000E+00         0.00000E+00        -0.56123E+08
 
   -0.56484E+08         0.54680E+06         0.00000E+00
    0.54680E+06        -0.97138E+08         0.00000E+00
    0.00000E+00         0.00000E+00        -0.55922E+08
 
   -0.56337E+08         0.47599E+06         0.00000E+00
    0.47599E+06        -0.97157E+08         0.00000E+00
    0.00000E+00         0.00000E+00        -0.55715E+08
 
   -0.56190E+08         0.40193E+06         0.00000E+00
    0.40193E+06        -0.97166E+08         0.00000E+00
    0.00000E+00         0.00000E+00        -0.55497E+08
 
   -0.56046E+08         0.32623E+06         0.00000E+00
    0.32623E+06        -0.97161E+08         0.00000E+00
    0.00000E+00         0.00000E+00        -0.55264E+08
 
   -0.55907E+08         0.25124E+06         0.00000E+00
    0.25124E+06        -0.97134E+08         0.00000E+00
    0.00000E+00         0.00000E+00        -0.55006E+08
 
   -0.55781E+08         0.18032E+06         0.00000E+00
    0.18032E+06        -0.97082E+08         0.00000E+00
    0.00000E+00         0.00000E+00        -0.54714E+08
 
   -0.55675E+08         0.11734E+06         0.00000E+00
    0.11734E+06        -0.97003E+08         0.00000E+00
    0.00000E+00         0.00000E+00        -0.54379E+08
 
   -0.55599E+08         0.64727E+05         0.00000E+00
    0.64727E+05        -0.96902E+08         0.00000E+00
    0.00000E+00         0.00000E+00        -0.53997E+08
 
   -0.55559E+08         0.20563E+05         0.00000E+00
    0.20563E+05        -0.96782E+08         0.00000E+00
    0.00000E+00         0.00000E+00        -0.53568E+08
 
   -0.75519E+08         0.25559E+05         0.00000E+00
    0.25559E+05        -0.97944E+08         0.00000E+00
    0.00000E+00         0.00000E+00        -0.78463E+08
 
   -0.75457E+08         0.85107E+05         0.00000E+00
    0.85107E+05        -0.97634E+08         0.00000E+00
    0.00000E+00         0.00000E+00        -0.78049E+08
 
   -0.75339E+08         0.16547E+06         0.00000E+00
    0.16547E+06        -0.97419E+08         0.00000E+00
    0.00000E+00         0.00000E+00        -0.77635E+08
 
   -0.75178E+08         0.26937E+06         0.00000E+00
    0.26937E+06        -0.97279E+08         0.00000E+00
    0.00000E+00         0.00000E+00        -0.77221E+08
 
   -0.74985E+08         0.39154E+06         0.00000E+00
    0.39154E+06        -0.97195E+08         0.00000E+00
    0.00000E+00         0.00000E+00        -0.76809E+08
 
   -0.74769E+08         0.52358E+06         0.00000E+00
    0.52358E+06        -0.97151E+08         0.00000E+00
    0.00000E+00         0.00000E+00        -0.76397E+08
 
   -0.74537E+08         0.65772E+06         0.00000E+00
    0.65772E+06        -0.97137E+08         0.00000E+00
    0.00000E+00         0.00000E+00        -0.75985E+08
 
   -0.74293E+08         0.78824E+06         0.00000E+00
    0.78824E+06        -0.97143E+08         0.00000E+00
    0.00000E+00         0.00000E+00        -0.75576E+08
 
   -0.74038E+08         0.91142E+06         0.00000E+00
    0.91142E+06        -0.97163E+08         0.00000E+00
    0.00000E+00         0.00000E+00        -0.75167E+08
 
   -0.73777E+08         0.10249E+07         0.00000E+00
    0.10249E+07        -0.97194E+08         0.00000E+00
    0.00000E+00         0.00000E+00        -0.74760E+08
 
   -0.73510E+08         0.11273E+07         0.00000E+00
    0.11273E+07        -0.97233E+08         0.00000E+00
    0.00000E+00         0.00000E+00        -0.74354E+08
 
   -0.73239E+08         0.12174E+07         0.00000E+00
    0.12174E+07        -0.97278E+08         0.00000E+00
    0.00000E+00         0.00000E+00        -0.73951E+08
 
   -0.72965E+08         0.12944E+07         0.00000E+00
    0.12944E+07        -0.97328E+08         0.00000E+00
    0.00000E+00         0.00000E+00        -0.73549E+08
 
   -0.72689E+08         0.13573E+07         0.00000E+00
    0.13573E+07        -0.97382E+08         0.00000E+00
    0.00000E+00         0.00000E+00        -0.73148E+08
 
   -0.72413E+08         0.14049E+07         0.00000E+00
    0.14049E+07        -0.97441E+08         0.00000E+00
    0.00000E+00         0.00000E+00        -0.72751E+08
 
   -0.72136E+08         0.14360E+07         0.00000E+00
    0.14360E+07        -0.97503E+08         0.00000E+00
    0.00000E+00         0.00000E+00        -0.72355E+08
 
   -0.71862E+08         0.14478E+07         0.00000E+00
    0.14478E+07        -0.97560E+08         0.00000E+00
    0.00000E+00         0.00000E+00        -0.71968E+08
 
   -0.71588E+08         0.14653E+07         0.00000E+00
    0.14653E+07        -0.97577E+08         0.00000E+00
    0.00000E+00         0.00000E+00        -0.71651E+08
 
   -0.71314E+08         0.14801E+07         0.00000E+00
    0.14801E+07        -0.97569E+08         0.00000E+00
    0.00000E+00         0.00000E+00        -0.71389E+08
 
   -0.71044E+08         0.14897E+07         0.00000E+00
    0.14897E+07        -0.97568E+08         0.00000E+00
    0.00000E+00         0.00000E+00        -0.71126E+08
 
   -0.70777E+08         0.14942E+07         0.00000E+00
    0.14942E+07        -0.97570E+08         0.00000E+00
    0.00000E+00         0.00000E+00        -0.70861E+08
 
   -0.70513E+08         0.14964E+07         0.00000E+00
    0.14964E+07        -0.97574E+08         0.00000E+00
    0.00000E+00         0.00000E+00        -0.70595E+08
 
   -0.70251E+08         0.14974E+07         0.00000E+00
    0.14974E+07        -0.97579E+08         0.00000E+00
    0.00000E+00         0.00000E+00        -0.70328E+08
 
   -0.69990E+08         0.14979E+07         0.00000E+00
    0.14979E+07        -0.97584E+08         0.00000E+00
    0.00000E+00         0.00000E+00        -0.70060E+08
 
   -0.69731E+08         0.14979E+07         0.00000E+00
    0.14979E+07        -0.97589E+08         0.00000E+00
    0.00000E+00         0.00000E+00        -0.69791E+08
 
   -0.69472E+08         0.14975E+07         0.00000E+00
    0.14975E+07        -0.97594E+08         0.00000E+00
    0.00000E+00         0.00000E+00        -0.69521E+08
 
   -0.69214E+08         0.14963E+07         0.00000E+00
    0.14963E+07        -0.97598E+08         0.00000E+00
    0.00000E+00         0.00000E+00        -0.69250E+08
 
   -0.68956E+08         0.14944E+07         0.00000E+00
    0.14944E+07        -0.97601E+08         0.00000E+00
    0.00000E+00         0.00000E+00        -0.68980E+08
 
   -0.68700E+08         0.14914E+07         0.00000E+00
    0.14914E+07        -0.97605E+08         0.00000E+00
    0.00000E+00         0.00000E+00        -0.68708E+08
 
   -0.68444E+08         0.14873E+07         0.00000E+00
    0.14873E+07        -0.97609E+08         0.00000E+00
    0.00000E+00         0.00000E+00        -0.68437E+08
 
   -0.68189E+08         0.14817E+07         0.00000E+00
    0.14817E+07        -0.97613E+08         0.00000E+00
    0.00000E+00         0.00000E+00        -0.68165E+08
 
   -0.67936E+08         0.14745E+07         0.00000E+00
    0.14745E+07        -0.97618E+08         0.00000E+00
    0.00000E+00         0.00000E+00        -0.67894E+08
 
   -0.67684E+08         0.14655E+07         0.00000E+00
    0.14655E+07        -0.97624E+08         0.00000E+00
    0.00000E+00         0.00000E+00        -0.67622E+08
 
   -0.67434E+08         0.14547E+07         0.00000E+00
    0.14547E+07        -0.97633E+08         0.00000E+00
    0.00000E+00         0.00000E+00        -0.67351E+08
 
   -0.67185E+08         0.14421E+07         0.00000E+00
    0.14421E+07        -0.97645E+08         0.00000E+00
    0.00000E+00         0.00000E+00        -0.67080E+08
 
   -0.66939E+08         0.14282E+07         0.00000E+00
    0.14282E+07        -0.97661E+08         0.00000E+00
    0.00000E+00         0.00000E+00        -0.66809E+08
 
   -0.66694E+08         0.14135E+07         0.00000E+00
    0.14135E+07        -0.97675E+08         0.00000E+00
    0.00000E+00         0.00000E+00        -0.66546E+08
 
   -0.66450E+08         0.13953E+07         0.00000E+00
    0.13953E+07        -0.97668E+08         0.00000E+00
    0.00000E+00         0.00000E+00        -0.66313E+08
 
   -0.66209E+08         0.13781E+07         0.00000E+00
    0.13781E+07        -0.97653E+08         0.00000E+00
    0.00000E+00         0.00000E+00        -0.66093E+08
 
   -0.65971E+08         0.13623E+07         0.00000E+00
    0.13623E+07        -0.97642E+08         0.00000E+00
    0.00000E+00         0.00000E+00        -0.65874E+08
 
   -0.65735E+08         0.13479E+07         0.00000E+00
    0.13479E+07        -0.97635E+08         0.00000E+00
    0.00000E+00         0.00000E+00        -0.65655E+08
 
   -0.65502E+08         0.13350E+07         0.00000E+00
    0.13350E+07        -0.97629E+08         0.00000E+00
    0.00000E+00         0.00000E+00        -0.65437E+08
 
   -0.65272E+08         0.13235E+07         0.00000E+00
    0.13235E+07        -0.97626E+08         0.00000E+00
    0.00000E+00         0.00000E+00        -0.65219E+08
 
   -0.65044E+08         0.13133E+07         0.00000E+00
    0.13133E+07        -0.97623E+08         0.00000E+00
    0.00000E+00         0.00000E+00        -0.65002E+08
 
   -0.64819E+08         0.13042E+07         0.00000E+00
    0.13042E+07        -0.97621E+08         0.00000E+00
    0.00000E+00         0.00000E+00        -0.64785E+08
 
   -0.64595E+08         0.12960E+07         0.00000E+00
    0.12960E+07        -0.97619E+08         0.00000E+00
    0.00000E+00         0.00000E+00        -0.64569E+08
 
   -0.64373E+08         0.12886E+07         0.00000E+00
    0.12886E+07        -0.97618E+08         0.00000E+00
    0.00000E+00         0.00000E+00        -0.64353E+08
 
   -0.64157E+08         0.12815E+07         0.00000E+00
    0.12815E+07        -0.97613E+08         0.00000E+00
    0.00000E+00         0.00000E+00        -0.64142E+08
 
   -0.63959E+08         0.12737E+07         0.00000E+00
    0.12737E+07        -0.97592E+08         0.00000E+00
    0.00000E+00         0.00000E+00        -0.63949E+08
 
   -0.63771E+08         0.12657E+07         0.00000E+00
    0.12657E+07        -0.97564E+08         0.00000E+00
    0.00000E+00         0.00000E+00        -0.63765E+08
 
   -0.63584E+08         0.12581E+07         0.00000E+00
    0.12581E+07        -0.97536E+08         0.00000E+00
    0.00000E+00         0.00000E+00        -0.63581E+08
 
   -0.63398E+08         0.12508E+07         0.00000E+00
    0.12508E+07        -0.97508E+08         0.00000E+00
    0.00000E+00         0.00000E+00        -0.63397E+08
 
   -0.63212E+08         0.12438E+07         0.00000E+00
    0.12438E+07        -0.97480E+08         0.00000E+00
    0.00000E+00         0.00000E+00        -0.63214E+08
 
   -0.63027E+08         0.12370E+07         0.00000E+00
    0.12370E+07        -0.97453E+08         0.00000E+00
    0.00000E+00         0.00000E+00        -0.63031E+08
 
   -0.62843E+08         0.12304E+07         0.00000E+00
    0.12304E+07        -0.97426E+08         0.00000E+00
    0.00000E+00         0.00000E+00        -0.62848E+08
 
   -0.62659E+08         0.12239E+07         0.00000E+00
    0.12239E+07        -0.97399E+08         0.00000E+00
    0.00000E+00         0.00000E+00        -0.62666E+08
 
   -0.62476E+08         0.12175E+07         0.00000E+00
    0.12175E+07        -0.97372E+08         0.00000E+00
    0.00000E+00         0.00000E+00        -0.62484E+08
 
   -0.62294E+08         0.12112E+07         0.00000E+00
    0.12112E+07        -0.97346E+08         0.00000E+00
    0.00000E+00         0.00000E+00        -0.62302E+08
 
   -0.62111E+08         0.12049E+07         0.00000E+00
    0.12049E+07        -0.97320E+08         0.00000E+00
    0.00000E+00         0.00000E+00        -0.62120E+08
 
   -0.61929E+08         0.11987E+07         0.00000E+00
    0.11987E+07        -0.97294E+08         0.00000E+00
    0.00000E+00         0.00000E+00        -0.61938E+08
 
   -0.61748E+08         0.11924E+07         0.00000E+00
    0.11924E+07        -0.97269E+08         0.00000E+00
    0.00000E+00         0.00000E+00        -0.61756E+08
 
   -0.61567E+08         0.11861E+07         0.00000E+00
    0.11861E+07        -0.97245E+08         0.00000E+00
    0.00000E+00         0.00000E+00        -0.61574E+08
 
   -0.61386E+08         0.11796E+07         0.00000E+00
    0.11796E+07        -0.97220E+08         0.00000E+00
    0.00000E+00         0.00000E+00        -0.61392E+08
 
   -0.61205E+08         0.11731E+07         0.00000E+00
    0.11731E+07        -0.97197E+08         0.00000E+00
    0.00000E+00         0.00000E+00        -0.61210E+08
 
   -0.61025E+08         0.11665E+07         0.00000E+00
    0.11665E+07        -0.97174E+08         0.00000E+00
    0.00000E+00         0.00000E+00        -0.61028E+08
 
   -0.60845E+08         0.11596E+07         0.00000E+00
    0.11596E+07        -0.97151E+08         0.00000E+00
    0.00000E+00         0.00000E+00        -0.60845E+08
 
   -0.60665E+08         0.11525E+07         0.00000E+00
    0.11525E+07        -0.97130E+08         0.00000E+00
    0.00000E+00         0.00000E+00        -0.60663E+08
 
   -0.60486E+08         0.11452E+07         0.00000E+00
    0.11452E+07        -0.97109E+08         0.00000E+00
    0.00000E+00         0.00000E+00        -0.60480E+08
 
   -0.60306E+08         0.11375E+07         0.00000E+00
    0.11375E+07        -0.97089E+08         0.00000E+00
    0.00000E+00         0.00000E+00        -0.60296E+08
 
   -0.60127E+08         0.11295E+07         0.00000E+00
    0.11295E+07        -0.97070E+08         0.00000E+00
    0.00000E+00         0.00000E+00        -0.60113E+08
 
   -0.59949E+08         0.11210E+07         0.00000E+00
    0.11210E+07        -0.97051E+08         0.00000E+00
    0.00000E+00         0.00000E+00        -0.59929E+08
 
   -0.59771E+08         0.11119E+07         0.00000E+00
    0.11119E+07        -0.97034E+08         0.00000E+00
    0.00000E+00         0.00000E+00        -0.59744E+08
 
   -0.59593E+08         0.11023E+07         0.00000E+00
    0.11023E+07        -0.97018E+08         0.00000E+00
    0.00000E+00         0.00000E+00        -0.59559E+08
 
   -0.59416E+08         0.10920E+07         0.00000E+00
    0.10920E+07        -0.97003E+08         0.00000E+00
    0.00000E+00         0.00000E+00        -0.59373E+08
 
   -0.59240E+08         0.10808E+07         0.00000E+00
    0.10808E+07        -0.96989E+08         0.00000E+00
    0.00000E+00         0.00000E+00        -0.59186E+08
 
   -0.59065E+08         0.10686E+07         0.00000E+00
    0.10686E+07        -0.96977E+08         0.00000E+00
    0.00000E+00         0.00000E+00        -0.58999E+08
 
   -0.58890E+08         0.10553E+07         0.00000E+00
    0.10553E+07        -0.96967E+08         0.00000E+00
    0.00000E+00         0.00000E+00        -0.58811E+08
 
   -0.58717E+08         0.10406E+07         0.00000E+00
    0.10406E+07        -0.96958E+08         0.00000E+00
    0.00000E+00         0.00000E+00        -0.58623E+08
 
   -0.58545E+08         0.10243E+07         0.00000E+00
    0.10243E+07        -0.96952E+08         0.00000E+00
    0.00000E+00         0.00000E+00        -0.58433E+08
 
   -0.58374E+08         0.10062E+07         0.00000E+00
    0.10062E+07        -0.96947E+08         0.00000E+00
    0.00000E+00         0.00000E+00        -0.58243E+08
 
   -0.58205E+08         0.98596E+06         0.00000E+00
    0.98596E+06        -0.96946E+08         0.00000E+00
    0.00000E+00         0.00000E+00        -0.58052E+08
 
   -0.58039E+08         0.96326E+06         0.00000E+00
    0.96326E+06        -0.96947E+08         0.00000E+00
    0.00000E+00         0.00000E+00        -0.57860E+08
 
   -0.57874E+08         0.93774E+06         0.00000E+00
    0.93774E+06        -0.96951E+08         0.00000E+00
    0.00000E+00         0.00000E+00        -0.57668E+08
 
   -0.57711E+08         0.90900E+06         0.00000E+00
    0.90900E+06        -0.96959E+08         0.00000E+00
    0.00000E+00         0.00000E+00        -0.57475E+08
 
   -0.57551E+08         0.87664E+06         0.00000E+00
    0.87664E+06        -0.96970E+08         0.00000E+00
    0.00000E+00         0.00000E+00        -0.57281E+08
 
   -0.57394E+08         0.84024E+06         0.00000E+00
    0.84024E+06        -0.96984E+08         0.00000E+00
    0.00000E+00         0.00000E+00        -0.57086E+08
 
   -0.57239E+08         0.79940E+06         0.00000E+00
    0.79940E+06        -0.97003E+08         0.00000E+00
    0.00000E+00         0.00000E+00        -0.56891E+08
 
   -0.57086E+08         0.75377E+06         0.00000E+00
    0.75377E+06        -0.97024E+08         0.00000E+00
    0.00000E+00         0.00000E+00        -0.56696E+08
 
   -0.56936E+08         0.70305E+06         0.00000E+00
    0.70305E+06        -0.97048E+08         0.00000E+00
    0.00000E+00         0.00000E+00        -0.56499E+08
 
   -0.56788E+08         0.64708E+06         0.00000E+00
    0.64708E+06        -0.97074E+08         0.00000E+00
    0.00000E+00         0.00000E+00        -0.56302E+08
 
   -0.56641E+08         0.58586E+06         0.00000E+00
    0.58586E+06        -0.97100E+08         0.00000E+00
    0.00000E+00         0.00000E+00        -0.56101E+08
 
   -0.56495E+08         0.51968E+06         0.00000E+00
    0.51968E+06        -0.97124E+08         0.00000E+00
    0.00000E+00         0.00000E+00        -0.55897E+08
 
   -0.56350E+08         0.44921E+06         0.00000E+00
    0.44921E+06        -0.97143E+08         0.00000E+00
    0.00000E+00         0.00000E+00        -0.55687E+08
 
   -0.56207E+08         0.37565E+06         0.00000E+00
    0.37565E+06        -0.97152E+08         0.00000E+00
    0.00000E+00         0.00000E+00        -0.55467E+08
 
   -0.56066E+08         0.30095E+06         0.00000E+00
    0.30095E+06        -0.97146E+08         0.00000E+00
    0.00000E+00         0.00000E+00        -0.55230E+08
 
   -0.55932E+08         0.22799E+06         0.00000E+00
    0.22799E+06        -0.97121E+08         0.00000E+00
    0.00000E+00         0.00000E+00        -0.54970E+08
 
   -0.55809E+08         0.16055E+06         0.00000E+00
    0.16055E+06        -0.97070E+08         0.00000E+00
    0.00000E+00         0.00000E+00        -0.54676E+08
 
   -0.55707E+08         0.10250E+06         0.00000E+00
    0.10250E+06        -0.96995E+08         0.00000E+00
    0.00000E+00         0.00000E+00        -0.54341E+08
 
   -0.55634E+08         0.55687E+05         0.00000E+00
    0.55687E+05        -0.96895E+08         0.00000E+00
    0.00000E+00         0.00000E+00        -0.53959E+08
 
   -0.55595E+08         0.17552E+05         0.00000E+00
    0.17552E+05        -0.96777E+08         0.00000E+00
    0.00000E+00         0.00000E+00        -0.53531E+08
 
   -0.75414E+08         0.19155E+05         0.00000E+00
    0.19155E+05        -0.97953E+08         0.00000E+00
    0.00000E+00         0.00000E+00        -0.78463E+08
 
   -0.75352E+08         0.66789E+05         0.00000E+00
    0.66789E+05        -0.97647E+08         0.00000E+00
    0.00000E+00         0.00000E+00        -0.78049E+08
 
   -0.75238E+08         0.13743E+06         0.00000E+00
    0.13743E+06        -0.97437E+08         0.00000E+00
    0.00000E+00         0.00000E+00        -0.77635E+08
 
   -0.75082E+08         0.23409E+06         0.00000E+00
    0.23409E+06        -0.97301E+08         0.00000E+00
    0.00000E+00         0.00000E+00        -0.77221E+08
 
   -0.74896E+08         0.35109E+06         0.00000E+00
    0.35109E+06        -0.97220E+08         0.00000E+00
    0.00000E+00         0.00000E+00        -0.76809E+08
 
   -0.74689E+08         0.47939E+06         0.00000E+00
    0.47939E+06        -0.97178E+08         0.00000E+00
    0.00000E+00         0.00000E+00        -0.76397E+08
 
   -0.74465E+08         0.61071E+06         0.00000E+00
    0.61071E+06        -0.97163E+08         0.00000E+00
    0.00000E+00         0.00000E+00        -0.75985E+08
 
   -0.74229E+08         0.73903E+06         0.00000E+00
    0.73903E+06        -0.97168E+08         0.00000E+00
    0.00000E+00         0.00000E+00        -0.75576E+08
 
   -0.73982E+08         0.86049E+06         0.00000E+00
    0.86049E+06        -0.97187E+08         0.00000E+00
    0.00000E+00         0.00000E+00        -0.75167E+08
 
   -0.73728E+08         0.97267E+06         0.00000E+00
    0.97267E+06        -0.97216E+08         0.00000E+00
    0.00000E+00         0.00000E+00        -0.74760E+08
 
   -0.73467E+08         0.10740E+07         0.00000E+00
    0.10740E+07        -0.97253E+08         0.00000E+00
    0.00000E+00         0.00000E+00        -0.74354E+08
 
   -0.73202E+08         0.11634E+07         0.00000E+00
    0.11634E+07        -0.97295E+08         0.00000E+00
    0.00000E+00         0.00000E+00        -0.73951E+08
 
   -0.72933E+08         0.12399E+07         0.00000E+00
    0.12399E+07        -0.97342E+08         0.00000E+00
    0.00000E+00         0.00000E+00        -0.73549E+08
 
   -0.72662E+08         0.13025E+07         0.00000E+00
    0.13025E+07        -0.97393E+08         0.00000E+00
    0.00000E+00         0.00000E+00        -0.73148E+08
 
   -0.72389E+08         0.13499E+07         0.00000E+00
    0.13499E+07        -0.97449E+08         0.00000E+00
    0.00000E+00         0.00000E+00        -0.72751E+08
 
   -0.72116E+08         0.13811E+07         0.00000E+00
    0.13811E+07        -0.97507E+08         0.00000E+00
    0.00000E+00         0.00000E+00        -0.72355E+08
 
   -0.71845E+08         0.13940E+07         0.00000E+00
    0.13940E+07        -0.97563E+08         0.00000E+00
    0.00000E+00         0.00000E+00        -0.71965E+08
 
   -0.71573E+08         0.14098E+07         0.00000E+00
    0.14098E+07        -0.97580E+08         0.00000E+00
    0.00000E+00         0.00000E+00        -0.71642E+08
 
   -0.71300E+08         0.14258E+07         0.00000E+00
    0.14258E+07        -0.97572E+08         0.00000E+00
    0.00000E+00         0.00000E+00        -0.71379E+08
 
   -0.71031E+08         0.14361E+07         0.00000E+00
    0.14361E+07        -0.97569E+08         0.00000E+00
    0.00000E+00         0.00000E+00        -0.71114E+08
 
   -0.70764E+08         0.14412E+07         0.00000E+00
    0.14412E+07        -0.97571E+08         0.00000E+00
    0.00000E+00         0.00000E+00        -0.70849E+08
 
   -0.70500E+08         0.14438E+07         0.00000E+00
    0.14438E+07        -0.97574E+08         0.00000E+00
    0.00000E+00         0.00000E+00        -0.70582E+08
 
   -0.70238E+08         0.14452E+07         0.00000E+00
    0.14452E+07        -0.97579E+08         0.00000E+00
    0.00000E+00         0.00000E+00        -0.70314E+08
 
   -0.69978E+08         0.14459E+07         0.00000E+00
    0.14459E+07        -0.97584E+08         0.00000E+00
    0.00000E+00         0.00000E+00        -0.70046E+08
 
   -0.69718E+08         0.14461E+07         0.00000E+00
    0.14461E+07        -0.97589E+08         0.00000E+00
    0.00000E+00         0.00000E+00        -0.69777E+08
 
   -0.69460E+08         0.14458E+07         0.00000E+00
    0.14458E+07        -0.97593E+08         0.00000E+00
    0.00000E+00         0.00000E+00        -0.69507E+08
 
   -0.69202E+08         0.14448E+07         0.00000E+00
    0.14448E+07        -0.97597E+08         0.00000E+00
    0.00000E+00         0.00000E+00        -0.69237E+08
 
   -0.68945E+08         0.14430E+07         0.00000E+00
    0.14430E+07        -0.97601E+08         0.00000E+00
    0.00000E+00         0.00000E+00        -0.68966E+08
 
   -0.68689E+08         0.14402E+07         0.00000E+00
    0.14402E+07        -0.97604E+08         0.00000E+00
    0.00000E+00         0.00000E+00        -0.68695E+08
 
   -0.68433E+08         0.14363E+07         0.00000E+00
    0.14363E+07        -0.97608E+08         0.00000E+00
    0.00000E+00         0.00000E+00        -0.68424E+08
 
   -0.68179E+08         0.14310E+07         0.00000E+00
    0.14310E+07        -0.97612E+08         0.00000E+00
    0.00000E+00         0.00000E+00        -0.68153E+08
 
   -0.67926E+08         0.14241E+07         0.00000E+00
    0.14241E+07        -0.97616E+08         0.00000E+00
    0.00000E+00         0.00000E+00        -0.67882E+08
 
   -0.67675E+08         0.14154E+07         0.00000E+00
    0.14154E+07        -0.97622E+08         0.00000E+00
    0.00000E+00         0.00000E+00        -0.67611E+08
 
   -0.67426E+08         0.14049E+07         0.00000E+00
    0.14049E+07        -0.97631E+08         0.00000E+00
    0.00000E+00         0.00000E+00        -0.67340E+08
 
   -0.67178E+08         0.13927E+07         0.00000E+00
    0.13927E+07        -0.97642E+08         0.00000E+00
    0.00000E+00         0.00000E+00        -0.67069E+08
 
   -0.66932E+08         0.13791E+07         0.00000E+00
    0.13791E+07        -0.97659E+08         0.00000E+00
    0.00000E+00         0.00000E+00        -0.66798E+08
 
   -0.66688E+08         0.13647E+07         0.00000E+00
    0.13647E+07        -0.97672E+08         0.00000E+00
    0.00000E+00         0.00000E+00        -0.66537E+08
 
   -0.66445E+08         0.13469E+07         0.00000E+00
    0.13469E+07        -0.97664E+08         0.00000E+00
    0.00000E+00         0.00000E+00        -0.66304E+08
 
   -0.66204E+08         0.13302E+07         0.00000E+00
    0.13302E+07        -0.97650E+08         0.00000E+00
    0.00000E+00         0.00000E+00        -0.66085E+08
 
   -0.65966E+08         0.13149E+07         0.00000E+00
    0.13149E+07        -0.97639E+08         0.00000E+00
    0.00000E+00         0.00000E+00        -0.65866E+08
 
   -0.65731E+08         0.13010E+07         0.00000E+00
    0.13010E+07        -0.97632E+08         0.00000E+00
    0.00000E+00         0.00000E+00        -0.65648E+08
 
   -0.65498E+08         0.12887E+07         0.00000E+00
    0.12887E+07        -0.97627E+08         0.00000E+00
    0.00000E+00         0.00000E+00        -0.65430E+08
 
   -0.65268E+08         0.12777E+07         0.00000E+00
    0.12777E+07        -0.97623E+08         0.00000E+00
    0.00000E+00         0.00000E+00        -0.65213E+08
 
   -0.65040E+08         0.12679E+07         0.00000E+00
    0.12679E+07        -0.97621E+08         0.00000E+00
    0.00000E+00         0.00000E+00        -0.64996E+08
 
   -0.64814E+08         0.12593E+07         0.00000E+00
    0.12593E+07        -0.97619E+08         0.00000E+00
    0.00000E+00         0.00000E+00        -0.64779E+08
 
   -0.64591E+08         0.12515E+07         0.00000E+00
    0.12515E+07        -0.97618E+08         0.00000E+00
    0.00000E+00         0.00000E+00        -0.64564E+08
 
   -0.64369E+08         0.12444E+07         0.00000E+00
    0.12444E+07        -0.97617E+08         0.00000E+00
    0.00000E+00         0.00000E+00        -0.64348E+08
 
   -0.64153E+08         0.12376E+07         0.00000E+00
    0.12376E+07        -0.97612E+08         0.00000E+00
    0.00000E+00         0.00000E+00        -0.64138E+08
 
   -0.63956E+08         0.12300E+07         0.00000E+00
    0.12300E+07        -0.97591E+08         0.00000E+00
    0.00000E+00         0.00000E+00        -0.63945E+08
 
   -0.63768E+08         0.12224E+07         0.00000E+00
    0.12224E+07        -0.97563E+08         0.00000E+00
    0.00000E+00         0.00000E+00        -0.63761E+08
 
   -0.63580E+08         0.12151E+07         0.00000E+00
    0.12151E+07        -0.97535E+08         0.00000E+00
    0.00000E+00         0.00000E+00        -0.63577E+08
 
   -0.63394E+08         0.12080E+07         0.00000E+00
    0.12080E+07        -0.97507E+08         0.00000E+00
    0.00000E+00         0.00000E+00        -0.63394E+08
 
   -0.63209E+08         0.12013E+07         0.00000E+00
    0.12013E+07        -0.97480E+08         0.00000E+00
    0.00000E+00         0.00000E+00        -0.63211E+08
 
   -0.63024E+08         0.11947E+07         0.00000E+00
    0.11947E+07        -0.97452E+08         0.00000E+00
    0.00000E+00         0.00000E+00        -0.63028E+08
 
   -0.62840E+08         0.11883E+07         0.00000E+00
    0.11883E+07        -0.97425E+08         0.00000E+00
    0.00000E+00         0.00000E+00        -0.62845E+08
 
   -0.62656E+08         0.11821E+07         0.00000E+00
    0.11821E+07        -0.97398E+08         0.00000E+00
    0.00000E+00         0.00000E+00        -0.62663E+08
 
   -0.62473E+08         0.11759E+07         0.00000E+00
    0.11759E+07        -0.97372E+08         0.00000E+00
    0.00000E+00         0.00000E+00        -0.62481E+08
 
   -0.62291E+08         0.11698E+07         0.00000E+00
    0.11698E+07        -0.97346E+08         0.00000E+00
    0.00000E+00         0.00000E+00        -0.62299E+08
 
   -0.62109E+08         0.11637E+07         0.00000E+00
    0.11637E+07        -0.97320E+08         0.00000E+00
    0.00000E+00         0.00000E+00        -0.62117E+08
 
   -0.61927E+08         0.11577E+07         0.00000E+00
    0.11577E+07        -0.97294E+08         0.00000E+00
    0.00000E+00         0.00000E+00        -0.61935E+08
 
   -0.61745E+08         0.11516E+07         0.00000E+00
    0.11516E+07        -0.97269E+08         0.00000E+00
    0.00000E+00         0.00000E+00        -0.61754E+08
 
   -0.61564E+08         0.11455E+07         0.00000E+00
    0.11455E+07        -0.97245E+08         0.00000E+00
    0.00000E+00         0.00000E+00        -0.61572E+08
 
   -0.61383E+08         0.11393E+07         0.00000E+00
    0.11393E+07        -0.97221E+08         0.00000E+00
    0.00000E+00         0.00000E+00        -0.61390E+08
 
   -0.61203E+08         0.11330E+07         0.00000E+00
    0.11330E+07        -0.97197E+08         0.00000E+00
    0.00000E+00         0.00000E+00        -0.61208E+08
 
   -0.61023E+08         0.11265E+07         0.00000E+00
    0.11265E+07        -0.97174E+08         0.00000E+00
    0.00000E+00         0.00000E+00        -0.61026E+08
 
   -0.60843E+08         0.11199E+07         0.00000E+00
    0.11199E+07        -0.97152E+08         0.00000E+00
    0.00000E+00         0.00000E+00        -0.60843E+08
 
   -0.60663E+08         0.11130E+07         0.00000E+00
    0.11130E+07        -0.97130E+08         0.00000E+00
    0.00000E+00         0.00000E+00        -0.60661E+08
 
   -0.60483E+08         0.11059E+07         0.00000E+00
    0.11059E+07        -0.97110E+08         0.00000E+00
    0.00000E+00         0.00000E+00        -0.60478E+08
 
   -0.60304E+08         0.10985E+07         0.00000E+00
    0.10985E+07        -0.97089E+08         0.00000E+00
    0.00000E+00         0.00000E+00        -0.60294E+08
 
   -0.60126E+08         0.10907E+07         0.00000E+00
    0.10907E+07        -0.97070E+08         0.00000E+00
    0.00000E+00         0.00000E+00        -0.60111E+08
 
   -0.59947E+08         0.10825E+07         0.00000E+00
    0.10825E+07        -0.97052E+08         0.00000E+00
    0.00000E+00         0.00000E+00        -0.59926E+08
 
   -0.59769E+08         0.10738E+07         0.00000E+00
    0.10738E+07        -0.97034E+08         0.00000E+00
    0.00000E+00         0.00000E+00        -0.59742E+08
 
   -0.59592E+08         0.10645E+07         0.00000E+00
    0.10645E+07        -0.97018E+08         0.00000E+00
    0.00000E+00         0.00000E+00        -0.59556E+08
 
   -0.59415E+08         0.10545E+07         0.00000E+00
    0.10545E+07        -0.97003E+08         0.00000E+00
    0.00000E+00         0.00000E+00        -0.59370E+08
 
   -0.59239E+08         0.10437E+07         0.00000E+00
    0.10437E+07        -0.96989E+08         0.00000E+00
    0.00000E+00         0.00000E+00        -0.59184E+08
 
   -0.59064E+08         0.10319E+07         0.00000E+00
    0.10319E+07        -0.96977E+08         0.00000E+00
    0.00000E+00         0.00000E+00        -0.58996E+08
 
   -0.58889E+08         0.10190E+07         0.00000E+00
    0.10190E+07        -0.96966E+08         0.00000E+00
    0.00000E+00         0.00000E+00        -0.58808E+08
 
   -0.58716E+08         0.10048E+07         0.00000E+00
    0.10048E+07        -0.96957E+08         0.00000E+00
    0.00000E+00         0.00000E+00        -0.58619E+08
 
   -0.58544E+08         0.98907E+06         0.00000E+00
    0.98907E+06        -0.96950E+08         0.00000E+00
    0.00000E+00         0.00000E+00        -0.58429E+08
 
   -0.58374E+08         0.97155E+06         0.00000E+00
    0.97155E+06        -0.96946E+08         0.00000E+00
    0.00000E+00         0.00000E+00        -0.58238E+08
 
   -0.58205E+08         0.95194E+06         0.00000E+00
    0.95194E+06        -0.96943E+08         0.00000E+00
    0.00000E+00         0.00000E+00        -0.58047E+08
 
   -0.58039E+08         0.92991E+06         0.00000E+00
    0.92991E+06        -0.96944E+08         0.00000E+00
    0.00000E+00         0.00000E+00        -0.57854E+08
 
   -0.57875E+08         0.90510E+06         0.00000E+00
    0.90510E+06        -0.96947E+08         0.00000E+00
    0.00000E+00         0.00000E+00        -0.57661E+08
 
   -0.57713E+08         0.87711E+06         0.00000E+00
    0.87711E+06        -0.96954E+08         0.00000E+00
    0.00000E+00         0.00000E+00        -0.57466E+08
 
   -0.57553E+08         0.84551E+06         0.00000E+00
    0.84551E+06        -0.96964E+08         0.00000E+00
    0.00000E+00         0.00000E+00        -0.57271E+08
 
   -0.57396E+08         0.80989E+06         0.00000E+00
    0.80989E+06        -0.96978E+08         0.00000E+00
    0.00000E+00         0.00000E+00        -0.57075E+08
 
   -0.57242E+08         0.76982E+06         0.00000E+00
    0.76982E+06        -0.96995E+08         0.00000E+00
    0.00000E+00         0.00000E+00        -0.56879E+08
 
   -0.57090E+08         0.72492E+06         0.00000E+00
    0.72492E+06        -0.97015E+08         0.00000E+00
    0.00000E+00         0.00000E+00        -0.56681E+08
 
   -0.56941E+08         0.67487E+06         0.00000E+00
    0.67487E+06        -0.97038E+08         0.00000E+00
    0.00000E+00         0.00000E+00        -0.56483E+08
 
   -0.56795E+08         0.61950E+06         0.00000E+00
    0.61950E+06        -0.97063E+08         0.00000E+00
    0.00000E+00         0.00000E+00        -0.56283E+08
 
   -0.56650E+08         0.55881E+06         0.00000E+00
    0.55881E+06        -0.97088E+08         0.00000E+00
    0.00000E+00         0.00000E+00        -0.56080E+08
 
   -0.56506E+08         0.49308E+06         0.00000E+00
    0.49308E+06        -0.97110E+08         0.00000E+00
    0.00000E+00         0.00000E+00        -0.55873E+08
 
   -0.56364E+08         0.42306E+06         0.00000E+00
    0.42306E+06        -0.97128E+08         0.00000E+00
    0.00000E+00         0.00000E+00        -0.55659E+08
 
   -0.56224E+08         0.35012E+06         0.00000E+00
    0.35012E+06        -0.97137E+08         0.00000E+00
    0.00000E+00         0.00000E+00        -0.55436E+08
 
   -0.56087E+08         0.27653E+06         0.00000E+00
    0.27653E+06        -0.97132E+08         0.00000E+00
    0.00000E+00         0.00000E+00        -0.55197E+08
 
   -0.55957E+08         0.20564E+06         0.00000E+00
    0.20564E+06        -0.97108E+08         0.00000E+00
    0.00000E+00         0.00000E+00        -0.54934E+08
 
   -0.55838E+08         0.14162E+06         0.00000E+00
    0.14162E+06        -0.97060E+08         0.00000E+00
    0.00000E+00         0.00000E+00        -0.54639E+08
 
   -0.55740E+08         0.88304E+05         0.00000E+00
    0.88304E+05        -0.96987E+08         0.00000E+00
    0.00000E+00         0.00000E+00        -0.54303E+08
 
   -0.55669E+08         0.47022E+05         0.00000E+00
    0.47022E+05        -0.96890E+08         0.00000E+00
    0.00000E+00         0.00000E+00        -0.53922E+08
 
   -0.55632E+08         0.14660E+05         0.00000E+00
    0.14660E+05        -0.96773E+08         0.00000E+00
    0.00000E+00         0.00000E+00        -0.53494E+08
 
   -0.75308E+08         0.12862E+05         0.00000E+00
    0.12862E+05        -0.97960E+08         0.00000E+00
    0.00000E+00         0.00000E+00        -0.78463E+08
 
   -0.75248E+08         0.48881E+05         0.00000E+00
    0.48881E+05        -0.97658E+08         0.00000E+00
    0.00000E+00         0.00000E+00        -0.78049E+08
 
   -0.75137E+08         0.11022E+06         0.00000E+00
    0.11022E+06        -0.97453E+08         0.00000E+00
    0.00000E+00         0.00000E+00        -0.77635E+08
 
   -0.74986E+08         0.20008E+06         0.00000E+00
    0.20008E+06        -0.97322E+08         0.00000E+00
    0.00000E+00         0.00000E+00        -0.77221E+08
 
   -0.74808E+08         0.31220E+06         0.00000E+00
    0.31220E+06        -0.97245E+08         0.00000E+00
    0.00000E+00         0.00000E+00        -0.76809E+08
 
   -0.74608E+08         0.43689E+06         0.00000E+00
    0.43689E+06        -0.97204E+08         0.00000E+00
    0.00000E+00         0.00000E+00        -0.76397E+08
 
   -0.74393E+08         0.56538E+06         0.00000E+00
    0.56538E+06        -0.97189E+08         0.00000E+00
    0.00000E+00         0.00000E+00        -0.75985E+08
 
   -0.74165E+08         0.69142E+06         0.00000E+00
    0.69142E+06        -0.97193E+08         0.00000E+00
    0.00000E+00         0.00000E+00        -0.75576E+08
 
   -0.73926E+08         0.81103E+06         0.00000E+00
    0.81103E+06        -0.97210E+08         0.00000E+00
    0.00000E+00         0.00000E+00        -0.75167E+08
 
   -0.73679E+08         0.92174E+06         0.00000E+00
    0.92174E+06        -0.97237E+08         0.00000E+00
    0.00000E+00         0.00000E+00        -0.74760E+08
 
   -0.73424E+08         0.10219E+07         0.00000E+00
    0.10219E+07        -0.97272E+08         0.00000E+00
    0.00000E+00         0.00000E+00        -0.74354E+08
 
   -0.73165E+08         0.11105E+07         0.00000E+00
    0.11105E+07        -0.97311E+08         0.00000E+00
    0.00000E+00         0.00000E+00        -0.73951E+08
 
   -0.72901E+08         0.11863E+07         0.00000E+00
    0.11863E+07        -0.97356E+08         0.00000E+00
    0.00000E+00         0.00000E+00        -0.73549E+08
 
   -0.72634E+08         0.12485E+07         0.00000E+00
    0.12485E+07        -0.97404E+08         0.00000E+00
    0.00000E+00         0.00000E+00        -0.73148E+08
 
   -0.72366E+08         0.12957E+07         0.00000E+00
    0.12957E+07        -0.97457E+08         0.00000E+00
    0.00000E+00         0.00000E+00        -0.72751E+08
 
   -0.72096E+08         0.13266E+07         0.00000E+00
    0.13266E+07        -0.97512E+08         0.00000E+00
    0.00000E+00         0.00000E+00        -0.72355E+08
 
   -0.71827E+08         0.13410E+07         0.00000E+00
    0.13410E+07        -0.97565E+08         0.00000E+00
    0.00000E+00         0.00000E+00        -0.71962E+08
 
   -0.71557E+08         0.13546E+07         0.00000E+00
    0.13546E+07        -0.97583E+08         0.00000E+00
    0.00000E+00         0.00000E+00        -0.71634E+08
 
   -0.71286E+08         0.13720E+07         0.00000E+00
    0.13720E+07        -0.97575E+08         0.00000E+00
    0.00000E+00         0.00000E+00        -0.71369E+08
 
   -0.71018E+08         0.13826E+07         0.00000E+00
    0.13826E+07        -0.97571E+08         0.00000E+00
    0.00000E+00         0.00000E+00        -0.71103E+08
 
   -0.70752E+08         0.13881E+07         0.00000E+00
    0.13881E+07        -0.97571E+08         0.00000E+00
    0.00000E+00         0.00000E+00        -0.70837E+08
 
   -0.70488E+08         0.13912E+07         0.00000E+00
    0.13912E+07        -0.97575E+08         0.00000E+00
    0.00000E+00         0.00000E+00        -0.70569E+08
 
   -0.70226E+08         0.13929E+07         0.00000E+00
    0.13929E+07        -0.97579E+08         0.00000E+00
    0.00000E+00         0.00000E+00        -0.70301E+08
 
   -0.69965E+08         0.13939E+07         0.00000E+00
    0.13939E+07        -0.97584E+08         0.00000E+00
    0.00000E+00         0.00000E+00        -0.70032E+08
 
   -0.69706E+08         0.13943E+07         0.00000E+00
    0.13943E+07        -0.97589E+08         0.00000E+00
    0.00000E+00         0.00000E+00        -0.69763E+08
 
   -0.69448E+08         0.13942E+07         0.00000E+00
    0.13942E+07        -0.97593E+08         0.00000E+00
    0.00000E+00         0.00000E+00        -0.69493E+08
 
   -0.69190E+08         0.13934E+07         0.00000E+00
    0.13934E+07        -0.97597E+08         0.00000E+00
    0.00000E+00         0.00000E+00        -0.69223E+08
 
   -0.68934E+08         0.13917E+07         0.00000E+00
    0.13917E+07        -0.97600E+08         0.00000E+00
    0.00000E+00         0.00000E+00        -0.68953E+08
 
   -0.68678E+08         0.13891E+07         0.00000E+00
    0.13891E+07        -0.97604E+08         0.00000E+00
    0.00000E+00         0.00000E+00        -0.68682E+08
 
   -0.68423E+08         0.13854E+07         0.00000E+00
    0.13854E+07        -0.97607E+08         0.00000E+00
    0.00000E+00         0.00000E+00        -0.68411E+08
 
   -0.68169E+08         0.13804E+07         0.00000E+00
    0.13804E+07        -0.97610E+08         0.00000E+00
    0.00000E+00         0.00000E+00        -0.68141E+08
 
   -0.67917E+08         0.13738E+07         0.00000E+00
    0.13738E+07        -0.97615E+08         0.00000E+00
    0.00000E+00         0.00000E+00        -0.67870E+08
 
   -0.67667E+08         0.13655E+07         0.00000E+00
    0.13655E+07        -0.97620E+08         0.00000E+00
    0.00000E+00         0.00000E+00        -0.67599E+08
 
   -0.67418E+08         0.13553E+07         0.00000E+00
    0.13553E+07        -0.97628E+08         0.00000E+00
    0.00000E+00         0.00000E+00        -0.67329E+08
 
   -0.67171E+08         0.13434E+07         0.00000E+00
    0.13434E+07        -0.97640E+08         0.00000E+00
    0.00000E+00         0.00000E+00        -0.67058E+08
 
   -0.66926E+08         0.13302E+07         0.00000E+00
    0.13302E+07        -0.97656E+08         0.00000E+00
    0.00000E+00         0.00000E+00        -0.66788E+08
 
   -0.66682E+08         0.13160E+07         0.00000E+00
    0.13160E+07        -0.97668E+08         0.00000E+00
    0.00000E+00         0.00000E+00        -0.66528E+08
 
   -0.66440E+08         0.12986E+07         0.00000E+00
    0.12986E+07        -0.97661E+08         0.00000E+00
    0.00000E+00         0.00000E+00        -0.66296E+08
 
   -0.66199E+08         0.12823E+07         0.00000E+00
    0.12823E+07        -0.97647E+08         0.00000E+00
    0.00000E+00         0.00000E+00        -0.66077E+08
 
   -0.65961E+08         0.12675E+07         0.00000E+00
    0.12675E+07        -0.97636E+08         0.00000E+00
    0.00000E+00         0.00000E+00        -0.65859E+08
 
   -0.65726E+08         0.12542E+07         0.00000E+00
    0.12542E+07        -0.97629E+08         0.00000E+00
    0.00000E+00         0.00000E+00        -0.65641E+08
 
   -0.65493E+08         0.12424E+07         0.00000E+00
    0.12424E+07        -0.97625E+08         0.00000E+00
    0.00000E+00         0.00000E+00        -0.65423E+08
 
   -0.65263E+08         0.12319E+07         0.00000E+00
    0.12319E+07        -0.97621E+08         0.00000E+00
    0.00000E+00         0.00000E+00        -0.65206E+08
 
   -0.65036E+08         0.12226E+07         0.00000E+00
    0.12226E+07        -0.97619E+08         0.00000E+00
    0.00000E+00         0.00000E+00        -0.64990E+08
 
   -0.64810E+08         0.12144E+07         0.00000E+00
    0.12144E+07        -0.97618E+08         0.00000E+00
    0.00000E+00         0.00000E+00        -0.64774E+08
 
   -0.64587E+08         0.12069E+07         0.00000E+00
    0.12069E+07        -0.97616E+08         0.00000E+00
    0.00000E+00         0.00000E+00        -0.64558E+08
 
   -0.64365E+08         0.12002E+07         0.00000E+00
    0.12002E+07        -0.97615E+08         0.00000E+00
    0.00000E+00         0.00000E+00        -0.64343E+08
 
   -0.64149E+08         0.11937E+07         0.00000E+00
    0.11937E+07        -0.97611E+08         0.00000E+00
    0.00000E+00         0.00000E+00        -0.64133E+08
 
   -0.63952E+08         0.11864E+07         0.00000E+00
    0.11864E+07        -0.97590E+08         0.00000E+00
    0.00000E+00         0.00000E+00        -0.63941E+08
 
   -0.63764E+08         0.11791E+07         0.00000E+00
    0.11791E+07        -0.97562E+08         0.00000E+00
    0.00000E+00         0.00000E+00        -0.63757E+08
 
   -0.63577E+08         0.11720E+07         0.00000E+00
    0.11720E+07        -0.97534E+08         0.00000E+00
    0.00000E+00         0.00000E+00        -0.63574E+08
 
   -0.63391E+08         0.11653E+07         0.00000E+00
    0.11653E+07        -0.97506E+08         0.00000E+00
    0.00000E+00         0.00000E+00        -0.63390E+08
 
   -0.63206E+08         0.11588E+07         0.00000E+00
    0.11588E+07        -0.97479E+08         0.00000E+00
    0.00000E+00         0.00000E+00        -0.63208E+08
 
   -0.63021E+08         0.11525E+07         0.00000E+00
    0.11525E+07        -0.97452E+08         0.00000E+00
    0.00000E+00         0.00000E+00        -0.63025E+08
 
   -0.62837E+08         0.11463E+07         0.00000E+00
    0.11463E+07        -0.97425E+08         0.00000E+00
    0.00000E+00         0.00000E+00        -0.62843E+08
 
   -0.62653E+08         0.11403E+07         0.00000E+00
    0.11403E+07        -0.97398E+08         0.00000E+00
    0.00000E+00         0.00000E+00        -0.62660E+08
 
   -0.62470E+08         0.11343E+07         0.00000E+00
    0.11343E+07        -0.97372E+08         0.00000E+00
    0.00000E+00         0.00000E+00        -0.62478E+08
 
   -0.62288E+08         0.11284E+07         0.00000E+00
    0.11284E+07        -0.97346E+08         0.00000E+00
    0.00000E+00         0.00000E+00        -0.62297E+08
 
   -0.62106E+08         0.11226E+07         0.00000E+00
    0.11226E+07        -0.97320E+08         0.00000E+00
    0.00000E+00         0.00000E+00        -0.62115E+08
 
   -0.61924E+08         0.11167E+07         0.00000E+00
    0.11167E+07        -0.97295E+08         0.00000E+00
    0.00000E+00         0.00000E+00        -0.61933E+08
 
   -0.61743E+08         0.11109E+07         0.00000E+00
    0.11109E+07        -0.97270E+08         0.00000E+00
    0.00000E+00         0.00000E+00        -0.61751E+08
 
   -0.61562E+08         0.11049E+07         0.00000E+00
    0.11049E+07        -0.97245E+08         0.00000E+00
    0.00000E+00         0.00000E+00        -0.61570E+08
 
   -0.61381E+08         0.10990E+07         0.00000E+00
    0.10990E+07        -0.97221E+08         0.00000E+00
    0.00000E+00         0.00000E+00        -0.61388E+08
 
   -0.61200E+08         0.10929E+07         0.00000E+00
    0.10929E+07        -0.97198E+08         0.00000E+00
    0.00000E+00         0.00000E+00        -0.61206E+08
 
   -0.61020E+08         0.10866E+07         0.00000E+00
    0.10866E+07        -0.97175E+08         0.00000E+00
    0.00000E+00         0.00000E+00        -0.61024E+08
 
   -0.60840E+08         0.10802E+07         0.00000E+00
    0.10802E+07        -0.97153E+08         0.00000E+00
    0.00000E+00         0.00000E+00        -0.60841E+08
 
   -0.60661E+08         0.10736E+07         0.00000E+00
    0.10736E+07        -0.97131E+08         0.00000E+00
    0.00000E+00         0.00000E+00        -0.60659E+08
 
   -0.60481E+08         0.10667E+07         0.00000E+00
    0.10667E+07        -0.97110E+08         0.00000E+00
    0.00000E+00         0.00000E+00        -0.60476E+08
 
   -0.60302E+08         0.10595E+07         0.00000E+00
    0.10595E+07        -0.97090E+08         0.00000E+00
    0.00000E+00         0.00000E+00        -0.60293E+08
 
   -0.60124E+08         0.10520E+07         0.00000E+00
    0.10520E+07        -0.97071E+08         0.00000E+00
    0.00000E+00         0.00000E+00        -0.60109E+08
 
   -0.59945E+08         0.10441E+07         0.00000E+00
    0.10441E+07        -0.97052E+08         0.00000E+00
    0.00000E+00         0.00000E+00        -0.59924E+08
 
   -0.59768E+08         0.10357E+07         0.00000E+00
    0.10357E+07        -0.97035E+08         0.00000E+00
    0.00000E+00         0.00000E+00        -0.59740E+08
 
   -0.59590E+08         0.10267E+07         0.00000E+00
    0.10267E+07        -0.97019E+08         0.00000E+00
    0.00000E+00         0.00000E+00        -0.59554E+08
 
   -0.59414E+08         0.10170E+07         0.00000E+00
    0.10170E+07        -0.97003E+08         0.00000E+00
    0.00000E+00         0.00000E+00        -0.59368E+08
 
   -0.59238E+08         0.10066E+07         0.00000E+00
    0.10066E+07        -0.96989E+08         0.00000E+00
    0.00000E+00         0.00000E+00        -0.59181E+08
 
   -0.59063E+08         0.99521E+06         0.00000E+00
    0.99521E+06        -0.96977E+08         0.00000E+00
    0.00000E+00         0.00000E+00        -0.58993E+08
 
   -0.58888E+08         0.98277E+06         0.00000E+00
    0.98277E+06        -0.96966E+08         0.00000E+00
    0.00000E+00         0.00000E+00        -0.58805E+08
 
   -0.58716E+08         0.96906E+06         0.00000E+00
    0.96906E+06        -0.96957E+08         0.00000E+00
    0.00000E+00         0.00000E+00        -0.58615E+08
 
   -0.58544E+08         0.95387E+06         0.00000E+00
    0.95387E+06        -0.96949E+08         0.00000E+00
    0.00000E+00         0.00000E+00        -0.58425E+08
 
   -0.58374E+08         0.93693E+06         0.00000E+00
    0.93693E+06        -0.96944E+08         0.00000E+00
    0.00000E+00         0.00000E+00        -0.58234E+08
 
   -0.58206E+08         0.91795E+06         0.00000E+00
    0.91795E+06        -0.96941E+08         0.00000E+00
    0.00000E+00         0.00000E+00        -0.58041E+08
 
   -0.58039E+08         0.89660E+06         0.00000E+00
    0.89660E+06        -0.96941E+08         0.00000E+00
    0.00000E+00         0.00000E+00        -0.57848E+08
 
   -0.57875E+08         0.87251E+06         0.00000E+00
    0.87251E+06        -0.96944E+08         0.00000E+00
    0.00000E+00         0.00000E+00        -0.57654E+08
 
   -0.57714E+08         0.84528E+06         0.00000E+00
    0.84528E+06        -0.96950E+08         0.00000E+00
    0.00000E+00         0.00000E+00        -0.57458E+08
 
   -0.57555E+08         0.81447E+06         0.00000E+00
    0.81447E+06        -0.96959E+08         0.00000E+00
    0.00000E+00         0.00000E+00        -0.57262E+08
 
   -0.57399E+08         0.77965E+06         0.00000E+00
    0.77965E+06        -0.96971E+08         0.00000E+00
    0.00000E+00         0.00000E+00        -0.57065E+08
 
   -0.57245E+08         0.74038E+06         0.00000E+00
    0.74038E+06        -0.96987E+08         0.00000E+00
    0.00000E+00         0.00000E+00        -0.56867E+08
 
   -0.57095E+08         0.69626E+06         0.00000E+00
    0.69626E+06        -0.97006E+08         0.00000E+00
    0.00000E+00         0.00000E+00        -0.56667E+08
 
   -0.56947E+08         0.64695E+06         0.00000E+00
    0.64695E+06        -0.97028E+08         0.00000E+00
    0.00000E+00         0.00000E+00        -0.56466E+08
 
   -0.56802E+08         0.59226E+06         0.00000E+00
    0.59226E+06        -0.97051E+08         0.00000E+00
    0.00000E+00         0.00000E+00        -0.56264E+08
 
   -0.56659E+08         0.53218E+06         0.00000E+00
    0.53218E+06        -0.97075E+08         0.00000E+00
    0.00000E+00         0.00000E+00        -0.56058E+08
 
   -0.56518E+08         0.46702E+06         0.00000E+00
    0.46702E+06        -0.97097E+08         0.00000E+00
    0.00000E+00         0.00000E+00        -0.55848E+08
 
   -0.56379E+08         0.39758E+06         0.00000E+00
    0.39758E+06        -0.97114E+08         0.00000E+00
    0.00000E+00         0.00000E+00        -0.55632E+08
 
   -0.56242E+08         0.32538E+06         0.00000E+00
    0.32538E+06        -0.97123E+08         0.00000E+00
    0.00000E+00         0.00000E+00        -0.55405E+08
 
   -0.56109E+08         0.25300E+06         0.00000E+00
    0.25300E+06        -0.97119E+08         0.00000E+00
    0.00000E+00         0.00000E+00        -0.55163E+08
 
   -0.55983E+08         0.18420E+06         0.00000E+00
    0.18420E+06        -0.97096E+08         0.00000E+00
    0.00000E+00         0.00000E+00        -0.54898E+08
 
   -0.55868E+08         0.12350E+06         0.00000E+00
    0.12350E+06        -0.97051E+08         0.00000E+00
    0.00000E+00         0.00000E+00        -0.54602E+08
 
   -0.55773E+08         0.74700E+05         0.00000E+00
    0.74700E+05        -0.96980E+08         0.00000E+00
    0.00000E+00         0.00000E+00        -0.54266E+08
 
   -0.55704E+08         0.38695E+05         0.00000E+00
    0.38695E+05        -0.96886E+08         0.00000E+00
    0.00000E+00         0.00000E+00        -0.53886E+08
 
   -0.55668E+08         0.11872E+05         0.00000E+00
    0.11872E+05        -0.96770E+08         0.00000E+00
    0.00000E+00         0.00000E+00        -0.53459E+08
 
   -0.75203E+08         0.66653E+04         0.00000E+00
    0.66653E+04        -0.97964E+08         0.00000E+00
    0.00000E+00         0.00000E+00        -0.78463E+08
 
   -0.75145E+08         0.31354E+05         0.00000E+00
    0.31354E+05        -0.97666E+08         0.00000E+00
    0.00000E+00         0.00000E+00        -0.78049E+08
 
   -0.75036E+08         0.83821E+05         0.00000E+00
    0.83821E+05        -0.97467E+08         0.00000E+00
    0.00000E+00         0.00000E+00        -0.77635E+08
 
   -0.74891E+08         0.16732E+06         0.00000E+00
    0.16732E+06        -0.97342E+08         0.00000E+00
    0.00000E+00         0.00000E+00        -0.77221E+08
 
   -0.74720E+08         0.27487E+06         0.00000E+00
    0.27487E+06        -0.97268E+08         0.00000E+00
    0.00000E+00         0.00000E+00        -0.76809E+08
 
   -0.74528E+08         0.39608E+06         0.00000E+00
    0.39608E+06        -0.97229E+08         0.00000E+00
    0.00000E+00         0.00000E+00        -0.76397E+08
 
   -0.74322E+08         0.52174E+06         0.00000E+00
    0.52174E+06        -0.97214E+08         0.00000E+00
    0.00000E+00         0.00000E+00        -0.75985E+08
 
   -0.74102E+08         0.64541E+06         0.00000E+00
    0.64541E+06        -0.97217E+08         0.00000E+00
    0.00000E+00         0.00000E+00        -0.75576E+08
 
   -0.73870E+08         0.76306E+06         0.00000E+00
    0.76306E+06        -0.97233E+08         0.00000E+00
    0.00000E+00         0.00000E+00        -0.75167E+08
 
   -0.73630E+08         0.87216E+06         0.00000E+00
    0.87216E+06        -0.97258E+08         0.00000E+00
    0.00000E+00         0.00000E+00        -0.74760E+08
 
   -0.73382E+08         0.97109E+06         0.00000E+00
    0.97109E+06        -0.97290E+08         0.00000E+00
    0.00000E+00         0.00000E+00        -0.74354E+08
 
   -0.73128E+08         0.10586E+07         0.00000E+00
    0.10586E+07        -0.97328E+08         0.00000E+00
    0.00000E+00         0.00000E+00        -0.73951E+08
 
   -0.72869E+08         0.11337E+07         0.00000E+00
    0.11337E+07        -0.97370E+08         0.00000E+00
    0.00000E+00         0.00000E+00        -0.73549E+08
 
   -0.72607E+08         0.11953E+07         0.00000E+00
    0.11953E+07        -0.97415E+08         0.00000E+00
    0.00000E+00         0.00000E+00        -0.73148E+08
 
   -0.72342E+08         0.12422E+07         0.00000E+00
    0.12422E+07        -0.97465E+08         0.00000E+00
    0.00000E+00         0.00000E+00        -0.72751E+08
 
   -0.72076E+08         0.12728E+07         0.00000E+00
    0.12728E+07        -0.97517E+08         0.00000E+00
    0.00000E+00         0.00000E+00        -0.72355E+08
 
   -0.71811E+08         0.12884E+07         0.00000E+00
    0.12884E+07        -0.97567E+08         0.00000E+00
    0.00000E+00         0.00000E+00        -0.71961E+08
 
   -0.71542E+08         0.12996E+07         0.00000E+00
    0.12996E+07        -0.97587E+08         0.00000E+00
    0.00000E+00         0.00000E+00        -0.71628E+08
 
   -0.71273E+08         0.13185E+07         0.00000E+00
    0.13185E+07        -0.97577E+08         0.00000E+00
    0.00000E+00         0.00000E+00        -0.71359E+08
 
   -0.71006E+08         0.13291E+07         0.00000E+00
    0.13291E+07        -0.97572E+08         0.00000E+00
    0.00000E+00         0.00000E+00        -0.71092E+08
 
   -0.70740E+08         0.13351E+07         0.00000E+00
    0.13351E+07        -0.97572E+08         0.00000E+00
    0.00000E+00         0.00000E+00        -0.70824E+08
 
   -0.70476E+08         0.13386E+07         0.00000E+00
    0.13386E+07        -0.97575E+08         0.00000E+00
    0.00000E+00         0.00000E+00        -0.70556E+08
 
   -0.70214E+08         0.13407E+07         0.00000E+00
    0.13407E+07        -0.97580E+08         0.00000E+00
    0.00000E+00         0.00000E+00        -0.70288E+08
 
   -0.69954E+08         0.13419E+07         0.00000E+00
    0.13419E+07        -0.97585E+08         0.00000E+00
    0.00000E+00         0.00000E+00        -0.70019E+08
 
   -0.69694E+08         0.13426E+07         0.00000E+00
    0.13426E+07        -0.97589E+08         0.00000E+00
    0.00000E+00         0.00000E+00        -0.69749E+08
 
   -0.69436E+08         0.13426E+07         0.00000E+00
    0.13426E+07        -0.97593E+08         0.00000E+00
    0.00000E+00         0.00000E+00        -0.69480E+08
 
   -0.69179E+08         0.13420E+07         0.00000E+00
    0.13420E+07        -0.97597E+08         0.00000E+00
    0.00000E+00         0.00000E+00        -0.69210E+08
 
   -0.68923E+08         0.13405E+07         0.00000E+00
    0.13405E+07        -0.97600E+08         0.00000E+00
    0.00000E+00         0.00000E+00        -0.68939E+08
 
   -0.68667E+08         0.13381E+07         0.00000E+00
    0.13381E+07        -0.97603E+08         0.00000E+00
    0.00000E+00         0.00000E+00        -0.68669E+08
 
   -0.68413E+08         0.13346E+07         0.00000E+00
    0.13346E+07        -0.97606E+08         0.00000E+00
    0.00000E+00         0.00000E+00        -0.68399E+08
 
   -0.68160E+08         0.13298E+07         0.00000E+00
    0.13298E+07        -0.97609E+08         0.00000E+00
    0.00000E+00         0.00000E+00        -0.68128E+08
 
   -0.67909E+08         0.13236E+07         0.00000E+00
    0.13236E+07        -0.97613E+08         0.00000E+00
    0.00000E+00         0.00000E+00        -0.67858E+08
 
   -0.67659E+08         0.13156E+07         0.00000E+00
    0.13156E+07        -0.97619E+08         0.00000E+00
    0.00000E+00         0.00000E+00        -0.67588E+08
 
   -0.67411E+08         0.13059E+07         0.00000E+00
    0.13059E+07        -0.97626E+08         0.00000E+00
    0.00000E+00         0.00000E+00        -0.67318E+08
 
   -0.67165E+08         0.12943E+07         0.00000E+00
    0.12943E+07        -0.97637E+08         0.00000E+00
    0.00000E+00         0.00000E+00        -0.67048E+08
 
   -0.66920E+08         0.12813E+07         0.00000E+00
    0.12813E+07        -0.97653E+08         0.00000E+00
    0.00000E+00         0.00000E+00        -0.66779E+08
 
   -0.66676E+08         0.12674E+07         0.00000E+00
    0.12674E+07        -0.97665E+08         0.00000E+00
    0.00000E+00         0.00000E+00        -0.66519E+08
 
   -0.66434E+08         0.12504E+07         0.00000E+00
    0.12504E+07        -0.97658E+08         0.00000E+00
    0.00000E+00         0.00000E+00        -0.66288E+08
 
   -0.66194E+08         0.12345E+07         0.00000E+00
    0.12345E+07        -0.97643E+08         0.00000E+00
    0.00000E+00         0.00000E+00        -0.66069E+08
 
   -0.65957E+08         0.12202E+07         0.00000E+00
    0.12202E+07        -0.97634E+08         0.00000E+00
    0.00000E+00         0.00000E+00        -0.65851E+08
 
   -0.65721E+08         0.12074E+07         0.00000E+00
    0.12074E+07        -0.97627E+08         0.00000E+00
    0.00000E+00         0.00000E+00        -0.65634E+08
 
   -0.65489E+08         0.11961E+07         0.00000E+00
    0.11961E+07        -0.97622E+08         0.00000E+00
    0.00000E+00         0.00000E+00        -0.65417E+08
 
   -0.65259E+08         0.11862E+07         0.00000E+00
    0.11862E+07        -0.97619E+08         0.00000E+00
    0.00000E+00         0.00000E+00        -0.65200E+08
 
   -0.65032E+08         0.11774E+07         0.00000E+00
    0.11774E+07        -0.97617E+08         0.00000E+00
    0.00000E+00         0.00000E+00        -0.64984E+08
 
   -0.64806E+08         0.11695E+07         0.00000E+00
    0.11695E+07        -0.97616E+08         0.00000E+00
    0.00000E+00         0.00000E+00        -0.64768E+08
 
   -0.64583E+08         0.11624E+07         0.00000E+00
    0.11624E+07        -0.97615E+08         0.00000E+00
    0.00000E+00         0.00000E+00        -0.64553E+08
 
   -0.64362E+08         0.11560E+07         0.00000E+00
    0.11560E+07        -0.97614E+08         0.00000E+00
    0.00000E+00         0.00000E+00        -0.64339E+08
 
   -0.64146E+08         0.11498E+07         0.00000E+00
    0.11498E+07        -0.97609E+08         0.00000E+00
    0.00000E+00         0.00000E+00        -0.64129E+08
 
   -0.63949E+08         0.11429E+07         0.00000E+00
    0.11429E+07        -0.97588E+08         0.00000E+00
    0.00000E+00         0.00000E+00        -0.63937E+08
 
   -0.63761E+08         0.11358E+07         0.00000E+00
    0.11358E+07        -0.97561E+08         0.00000E+00
    0.00000E+00         0.00000E+00        -0.63754E+08
 
   -0.63574E+08         0.11291E+07         0.00000E+00
    0.11291E+07        -0.97533E+08         0.00000E+00
    0.00000E+00         0.00000E+00        -0.63570E+08
 
   -0.63388E+08         0.11226E+07         0.00000E+00
    0.11226E+07        -0.97506E+08         0.00000E+00
    0.00000E+00         0.00000E+00        -0.63387E+08
 
   -0.63203E+08         0.11163E+07         0.00000E+00
    0.11163E+07        -0.97478E+08         0.00000E+00
    0.00000E+00         0.00000E+00        -0.63204E+08
 
   -0.63018E+08         0.11103E+07         0.00000E+00
    0.11103E+07        -0.97451E+08         0.00000E+00
    0.00000E+00         0.00000E+00        -0.63022E+08
 
   -0.62834E+08         0.11043E+07         0.00000E+00
    0.11043E+07        -0.97424E+08         0.00000E+00
    0.00000E+00         0.00000E+00        -0.62840E+08
 
   -0.62651E+08         0.10985E+07         0.00000E+00
    0.10985E+07        -0.97398E+08         0.00000E+00
    0.00000E+00         0.00000E+00        -0.62658E+08
 
   -0.62468E+08         0.10928E+07         0.00000E+00
    0.10928E+07        -0.97372E+08         0.00000E+00
    0.00000E+00         0.00000E+00        -0.62476E+08
 
   -0.62285E+08         0.10871E+07         0.00000E+00
    0.10871E+07        -0.97346E+08         0.00000E+00
    0.00000E+00         0.00000E+00        -0.62294E+08
 
   -0.62103E+08         0.10815E+07         0.00000E+00
    0.10815E+07        -0.97320E+08         0.00000E+00
    0.00000E+00         0.00000E+00        -0.62113E+08
 
   -0.61921E+08         0.10758E+07         0.00000E+00
    0.10758E+07        -0.97295E+08         0.00000E+00
    0.00000E+00         0.00000E+00        -0.61931E+08
 
   -0.61740E+08         0.10701E+07         0.00000E+00
    0.10701E+07        -0.97270E+08         0.00000E+00
    0.00000E+00         0.00000E+00        -0.61749E+08
 
   -0.61559E+08         0.10644E+07         0.00000E+00
    0.10644E+07        -0.97246E+08         0.00000E+00
    0.00000E+00         0.00000E+00        -0.61568E+08
 
   -0.61379E+08         0.10587E+07         0.00000E+00
    0.10587E+07        -0.97222E+08         0.00000E+00
    0.00000E+00         0.00000E+00        -0.61386E+08
 
   -0.61198E+08         0.10528E+07         0.00000E+00
    0.10528E+07        -0.97198E+08         0.00000E+00
    0.00000E+00         0.00000E+00        -0.61204E+08
 
   -0.61018E+08         0.10467E+07         0.00000E+00
    0.10467E+07        -0.97176E+08         0.00000E+00
    0.00000E+00         0.00000E+00        -0.61022E+08
 
   -0.60838E+08         0.10405E+07         0.00000E+00
    0.10405E+07        -0.97153E+08         0.00000E+00
    0.00000E+00         0.00000E+00        -0.60840E+08
 
   -0.60659E+08         0.10342E+07         0.00000E+00
    0.10342E+07        -0.97132E+08         0.00000E+00
    0.00000E+00         0.00000E+00        -0.60657E+08
 
   -0.60479E+08         0.10275E+07         0.00000E+00
    0.10275E+07        -0.97111E+08         0.00000E+00
    0.00000E+00         0.00000E+00        -0.60474E+08
 
   -0.60301E+08         0.10206E+07         0.00000E+00
    0.10206E+07        -0.97091E+08         0.00000E+00
    0.00000E+00         0.00000E+00        -0.60291E+08
 
   -0.60122E+08         0.10133E+07         0.00000E+00
    0.10133E+07        -0.97072E+08         0.00000E+00
    0.00000E+00         0.00000E+00        -0.60107E+08
 
   -0.59944E+08         0.10057E+07         0.00000E+00
    0.10057E+07        -0.97053E+08         0.00000E+00
    0.00000E+00         0.00000E+00        -0.59923E+08
 
   -0.59766E+08         0.99755E+06         0.00000E+00
    0.99755E+06        -0.97036E+08         0.00000E+00
    0.00000E+00         0.00000E+00        -0.59738E+08
 
   -0.59589E+08         0.98887E+06         0.00000E+00
    0.98887E+06        -0.97019E+08         0.00000E+00
    0.00000E+00         0.00000E+00        -0.59552E+08
 
   -0.59412E+08         0.97956E+06         0.00000E+00
    0.97956E+06        -0.97004E+08         0.00000E+00
    0.00000E+00         0.00000E+00        -0.59366E+08
 
   -0.59237E+08         0.96950E+06         0.00000E+00
    0.96950E+06        -0.96990E+08         0.00000E+00
    0.00000E+00         0.00000E+00        -0.59179E+08
 
   -0.59062E+08         0.95855E+06         0.00000E+00
    0.95855E+06        -0.96977E+08         0.00000E+00
    0.00000E+00         0.00000E+00        -0.58991E+08
 
   -0.58888E+08         0.94656E+06         0.00000E+00
    0.94656E+06        -0.96966E+08         0.00000E+00
    0.00000E+00         0.00000E+00        -0.58802E+08
 
   -0.58715E+08         0.93335E+06         0.00000E+00
    0.93335E+06        -0.96956E+08         0.00000E+00
    0.00000E+00         0.00000E+00        -0.58612E+08
 
   -0.58544E+08         0.91869E+06         0.00000E+00
    0.91869E+06        -0.96948E+08         0.00000E+00
    0.00000E+00         0.00000E+00        -0.58421E+08
 
   -0.58374E+08         0.90233E+06         0.00000E+00
    0.90233E+06        -0.96943E+08         0.00000E+00
    0.00000E+00         0.00000E+00        -0.58229E+08
 
   -0.58206E+08         0.88399E+06         0.00000E+00
    0.88399E+06        -0.96939E+08         0.00000E+00
    0.00000E+00         0.00000E+00        -0.58036E+08
 
   -0.58040E+08         0.86333E+06         0.00000E+00
    0.86333E+06        -0.96938E+08         0.00000E+00
    0.00000E+00         0.00000E+00        -0.57842E+08
 
   -0.57876E+08         0.83997E+06         0.00000E+00
    0.83997E+06        -0.96940E+08         0.00000E+00
    0.00000E+00         0.00000E+00        -0.57647E+08
 
   -0.57715E+08         0.81351E+06         0.00000E+00
    0.81351E+06        -0.96945E+08         0.00000E+00
    0.00000E+00         0.00000E+00        -0.57450E+08
 
   -0.57557E+08         0.78351E+06         0.00000E+00
    0.78351E+06        -0.96954E+08         0.00000E+00
    0.00000E+00         0.00000E+00        -0.57253E+08
 
   -0.57401E+08         0.74952E+06         0.00000E+00
    0.74952E+06        -0.96965E+08         0.00000E+00
    0.00000E+00         0.00000E+00        -0.57054E+08
 
   -0.57249E+08         0.71109E+06         0.00000E+00
    0.71109E+06        -0.96980E+08         0.00000E+00
    0.00000E+00         0.00000E+00        -0.56854E+08
 
   -0.57099E+08         0.66780E+06         0.00000E+00
    0.66780E+06        -0.96998E+08         0.00000E+00
    0.00000E+00         0.00000E+00        -0.56653E+08
 
   -0.56953E+08         0.61929E+06         0.00000E+00
    0.61929E+06        -0.97018E+08         0.00000E+00
    0.00000E+00         0.00000E+00        -0.56450E+08
 
   -0.56809E+08         0.56536E+06         0.00000E+00
    0.56536E+06        -0.97040E+08         0.00000E+00
    0.00000E+00         0.00000E+00        -0.56245E+08
 
   -0.56668E+08         0.50600E+06         0.00000E+00
    0.50600E+06        -0.97063E+08         0.00000E+00
    0.00000E+00         0.00000E+00        -0.56036E+08
 
   -0.56530E+08         0.44153E+06         0.00000E+00
    0.44153E+06        -0.97084E+08         0.00000E+00
    0.00000E+00         0.00000E+00        -0.55823E+08
 
   -0.56394E+08         0.37280E+06         0.00000E+00
    0.37280E+06        -0.97100E+08         0.00000E+00
    0.00000E+00         0.00000E+00        -0.55604E+08
 
   -0.56261E+08         0.30147E+06         0.00000E+00
    0.30147E+06        -0.97109E+08         0.00000E+00
    0.00000E+00         0.00000E+00        -0.55374E+08
 
   -0.56132E+08         0.23038E+06         0.00000E+00
    0.23038E+06        -0.97105E+08         0.00000E+00
    0.00000E+00         0.00000E+00        -0.55129E+08
 
   -0.56010E+08         0.16366E+06         0.00000E+00
    0.16366E+06        -0.97085E+08         0.00000E+00
    0.00000E+00         0.00000E+00        -0.54862E+08
 
   -0.55899E+08         0.10615E+06         0.00000E+00
    0.10615E+06        -0.97042E+08         0.00000E+00
    0.00000E+00         0.00000E+00        -0.54565E+08
 
   -0.55807E+08         0.61650E+05         0.00000E+00
    0.61650E+05        -0.96975E+08         0.00000E+00
    0.00000E+00         0.00000E+00        -0.54230E+08
 
   -0.55740E+08         0.30674E+05         0.00000E+00
    0.30674E+05        -0.96883E+08         0.00000E+00
    0.00000E+00         0.00000E+00        -0.53850E+08
 
   -0.55705E+08         0.91794E+04         0.00000E+00
    0.91794E+04        -0.96769E+08         0.00000E+00
    0.00000E+00         0.00000E+00        -0.53424E+08
 
   -0.75099E+08         0.55359E+03         0.00000E+00
    0.55359E+03        -0.97965E+08         0.00000E+00
    0.00000E+00         0.00000E+00        -0.78463E+08
 
   -0.75041E+08         0.14192E+05         0.00000E+00
    0.14192E+05        -0.97672E+08         0.00000E+00
    0.00000E+00         0.00000E+00        -0.78049E+08
 
   -0.74936E+08         0.58239E+05         0.00000E+00
    0.58239E+05        -0.97480E+08         0.00000E+00
    0.00000E+00         0.00000E+00        -0.77635E+08
 
   -0.74796E+08         0.13583E+06         0.00000E+00
    0.13583E+06        -0.97361E+08         0.00000E+00
    0.00000E+00         0.00000E+00        -0.77221E+08
 
   -0.74631E+08         0.23913E+06         0.00000E+00
    0.23913E+06        -0.97291E+08         0.00000E+00
    0.00000E+00         0.00000E+00        -0.76809E+08
 
   -0.74449E+08         0.35698E+06         0.00000E+00
    0.35698E+06        -0.97254E+08         0.00000E+00
    0.00000E+00         0.00000E+00        -0.76397E+08
 
   -0.74250E+08         0.47980E+06         0.00000E+00
    0.47980E+06        -0.97239E+08         0.00000E+00
    0.00000E+00         0.00000E+00        -0.75985E+08
 
   -0.74039E+08         0.60101E+06         0.00000E+00
    0.60101E+06        -0.97241E+08         0.00000E+00
    0.00000E+00         0.00000E+00        -0.75576E+08
 
   -0.73815E+08         0.71655E+06         0.00000E+00
    0.71655E+06        -0.97256E+08         0.00000E+00
    0.00000E+00         0.00000E+00        -0.75167E+08
 
   -0.73582E+08         0.82392E+06         0.00000E+00
    0.82392E+06        -0.97279E+08         0.00000E+00
    0.00000E+00         0.00000E+00        -0.74760E+08
 
   -0.73340E+08         0.92143E+06         0.00000E+00
    0.92143E+06        -0.97309E+08         0.00000E+00
    0.00000E+00         0.00000E+00        -0.74354E+08
 
   -0.73092E+08         0.10078E+07         0.00000E+00
    0.10078E+07        -0.97344E+08         0.00000E+00
    0.00000E+00         0.00000E+00        -0.73951E+08
 
   -0.72838E+08         0.10820E+07         0.00000E+00
    0.10820E+07        -0.97383E+08         0.00000E+00
    0.00000E+00         0.00000E+00        -0.73549E+08
 
   -0.72580E+08         0.11430E+07         0.00000E+00
    0.11430E+07        -0.97426E+08         0.00000E+00
    0.00000E+00         0.00000E+00        -0.73148E+08
 
   -0.72319E+08         0.11894E+07         0.00000E+00
    0.11894E+07        -0.97473E+08         0.00000E+00
    0.00000E+00         0.00000E+00        -0.72751E+08
 
   -0.72056E+08         0.12198E+07         0.00000E+00
    0.12198E+07        -0.97521E+08         0.00000E+00
    0.00000E+00         0.00000E+00        -0.72355E+08
 
   -0.71794E+08         0.12363E+07         0.00000E+00
    0.12363E+07        -0.97570E+08         0.00000E+00
    0.00000E+00         0.00000E+00        -0.71961E+08
 
   -0.71528E+08         0.12452E+07         0.00000E+00
    0.12452E+07        -0.97590E+08         0.00000E+00
    0.00000E+00         0.00000E+00        -0.71624E+08
 
   -0.71260E+08         0.12651E+07         0.00000E+00
    0.12651E+07        -0.97580E+08         0.00000E+00
    0.00000E+00         0.00000E+00        -0.71349E+08
 
   -0.70994E+08         0.12758E+07         0.00000E+00
    0.12758E+07        -0.97574E+08         0.00000E+00
    0.00000E+00         0.00000E+00        -0.71081E+08
 
   -0.70728E+08         0.12822E+07         0.00000E+00
    0.12822E+07        -0.97573E+08         0.00000E+00
    0.00000E+00         0.00000E+00        -0.70813E+08
 
   -0.70465E+08         0.12860E+07         0.00000E+00
    0.12860E+07        -0.97576E+08         0.00000E+00
    0.00000E+00         0.00000E+00        -0.70544E+08
 
   -0.70203E+08         0.12884E+07         0.00000E+00
    0.12884E+07        -0.97580E+08         0.00000E+00
    0.00000E+00         0.00000E+00        -0.70275E+08
 
   -0.69942E+08         0.12900E+07         0.00000E+00
    0.12900E+07        -0.97585E+08         0.00000E+00
    0.00000E+00         0.00000E+00        -0.70005E+08
 
   -0.69683E+08         0.12909E+07         0.00000E+00
    0.12909E+07        -0.97589E+08         0.00000E+00
    0.00000E+00         0.00000E+00        -0.69736E+08
 
   -0.69425E+08         0.12911E+07         0.00000E+00
    0.12911E+07        -0.97593E+08         0.00000E+00
    0.00000E+00         0.00000E+00        -0.69466E+08
 
   -0.69168E+08         0.12907E+07         0.00000E+00
    0.12907E+07        -0.97597E+08         0.00000E+00
    0.00000E+00         0.00000E+00        -0.69196E+08
 
   -0.68912E+08         0.12894E+07         0.00000E+00
    0.12894E+07        -0.97600E+08         0.00000E+00
    0.00000E+00         0.00000E+00        -0.68926E+08
 
   -0.68657E+08         0.12872E+07         0.00000E+00
    0.12872E+07        -0.97602E+08         0.00000E+00
    0.00000E+00         0.00000E+00        -0.68656E+08
 
   -0.68404E+08         0.12839E+07         0.00000E+00
    0.12839E+07        -0.97605E+08         0.00000E+00
    0.00000E+00         0.00000E+00        -0.68386E+08
 
   -0.68151E+08         0.12794E+07         0.00000E+00
    0.12794E+07        -0.97608E+08         0.00000E+00
    0.00000E+00         0.00000E+00        -0.68116E+08
 
   -0.67900E+08         0.12735E+07         0.00000E+00
    0.12735E+07        -0.97612E+08         0.00000E+00
    0.00000E+00         0.00000E+00        -0.67846E+08
 
   -0.67651E+08         0.12659E+07         0.00000E+00
    0.12659E+07        -0.97617E+08         0.00000E+00
    0.00000E+00         0.00000E+00        -0.67577E+08
 
   -0.67403E+08         0.12565E+07         0.00000E+00
    0.12565E+07        -0.97624E+08         0.00000E+00
    0.00000E+00         0.00000E+00        -0.67307E+08
 
   -0.67158E+08         0.12453E+07         0.00000E+00
    0.12453E+07        -0.97635E+08         0.00000E+00
    0.00000E+00         0.00000E+00        -0.67038E+08
 
   -0.66914E+08         0.12326E+07         0.00000E+00
    0.12326E+07        -0.97650E+08         0.00000E+00
    0.00000E+00         0.00000E+00        -0.66769E+08
 
   -0.66671E+08         0.12188E+07         0.00000E+00
    0.12188E+07        -0.97662E+08         0.00000E+00
    0.00000E+00         0.00000E+00        -0.66511E+08
 
   -0.66429E+08         0.12022E+07         0.00000E+00
    0.12022E+07        -0.97654E+08         0.00000E+00
    0.00000E+00         0.00000E+00        -0.66280E+08
 
   -0.66189E+08         0.11867E+07         0.00000E+00
    0.11867E+07        -0.97640E+08         0.00000E+00
    0.00000E+00         0.00000E+00        -0.66062E+08
 
   -0.65952E+08         0.11729E+07         0.00000E+00
    0.11729E+07        -0.97631E+08         0.00000E+00
    0.00000E+00         0.00000E+00        -0.65844E+08
 
   -0.65717E+08         0.11607E+07         0.00000E+00
    0.11607E+07        -0.97625E+08         0.00000E+00
    0.00000E+00         0.00000E+00        -0.65627E+08
 
   -0.65484E+08         0.11499E+07         0.00000E+00
    0.11499E+07        -0.97620E+08         0.00000E+00
    0.00000E+00         0.00000E+00        -0.65410E+08
 
   -0.65255E+08         0.11405E+07         0.00000E+00
    0.11405E+07        -0.97618E+08         0.00000E+00
    0.00000E+00         0.00000E+00        -0.65194E+08
 
   -0.65028E+08         0.11321E+07         0.00000E+00
    0.11321E+07        -0.97616E+08         0.00000E+00
    0.00000E+00         0.00000E+00        -0.64978E+08
 
   -0.64803E+08         0.11247E+07         0.00000E+00
    0.11247E+07        -0.97615E+08         0.00000E+00
    0.00000E+00         0.00000E+00        -0.64763E+08
 
   -0.64579E+08         0.11180E+07         0.00000E+00
    0.11180E+07        -0.97614E+08         0.00000E+00
    0.00000E+00         0.00000E+00        -0.64548E+08
 
   -0.64358E+08         0.11119E+07         0.00000E+00
    0.11119E+07        -0.97613E+08         0.00000E+00
    0.00000E+00         0.00000E+00        -0.64334E+08
 
   -0.64143E+08         0.11059E+07         0.00000E+00
    0.11059E+07        -0.97608E+08         0.00000E+00
    0.00000E+00         0.00000E+00        -0.64125E+08
 
   -0.63946E+08         0.10993E+07         0.00000E+00
    0.10993E+07        -0.97587E+08         0.00000E+00
    0.00000E+00         0.00000E+00        -0.63933E+08
 
   -0.63758E+08         0.10926E+07         0.00000E+00
    0.10926E+07        -0.97560E+08         0.00000E+00
    0.00000E+00         0.00000E+00        -0.63750E+08
 
   -0.63571E+08         0.10861E+07         0.00000E+00
    0.10861E+07        -0.97532E+08         0.00000E+00
    0.00000E+00         0.00000E+00        -0.63567E+08
 
   -0.63385E+08         0.10799E+07         0.00000E+00
    0.10799E+07        -0.97505E+08         0.00000E+00
    0.00000E+00         0.00000E+00        -0.63384E+08
 
   -0.63200E+08         0.10739E+07         0.00000E+00
    0.10739E+07        -0.97478E+08         0.00000E+00
    0.00000E+00         0.00000E+00        -0.63201E+08
 
   -0.63015E+08         0.10681E+07         0.00000E+00
    0.10681E+07        -0.97451E+08         0.00000E+00
    0.00000E+00         0.00000E+00        -0.63019E+08
 
   -0.62831E+08         0.10624E+07         0.00000E+00
    0.10624E+07        -0.97424E+08         0.00000E+00
    0.00000E+00         0.00000E+00        -0.62837E+08
 
   -0.62648E+08         0.10568E+07         0.00000E+00
    0.10568E+07        -0.97398E+08         0.00000E+00
    0.00000E+00         0.00000E+00        -0.62655E+08
 
   -0.62465E+08         0.10513E+07         0.00000E+00
    0.10513E+07        -0.97372E+08         0.00000E+00
    0.00000E+00         0.00000E+00        -0.62474E+08
 
   -0.62283E+08         0.10458E+07         0.00000E+00
    0.10458E+07        -0.97346E+08         0.00000E+00
    0.00000E+00         0.00000E+00        -0.62292E+08
 
   -0.62101E+08         0.10404E+07         0.00000E+00
    0.10404E+07        -0.97320E+08         0.00000E+00
    0.00000E+00         0.00000E+00        -0.62110E+08
 
   -0.61919E+08         0.10349E+07         0.00000E+00
    0.10349E+07        -0.97295E+08         0.00000E+00
    0.00000E+00         0.00000E+00        -0.61929E+08
 
   -0.61738E+08         0.10295E+07         0.00000E+00
    0.10295E+07        -0.97270E+08         0.00000E+00
    0.00000E+00         0.00000E+00        -0.61747E+08
 
   -0.61557E+08         0.10240E+07         0.00000E+00
    0.10240E+07        -0.97246E+08         0.00000E+00
    0.00000E+00         0.00000E+00        -0.61566E+08
 
   -0.61376E+08         0.10184E+07         0.00000E+00
    0.10184E+07        -0.97222E+08         0.00000E+00
    0.00000E+00         0.00000E+00        -0.61384E+08
 
   -0.61196E+08         0.10127E+07         0.00000E+00
    0.10127E+07        -0.97199E+08         0.00000E+00
    0.00000E+00         0.00000E+00        -0.61202E+08
 
   -0.61016E+08         0.10069E+07         0.00000E+00
    0.10069E+07        -0.97176E+08         0.00000E+00
    0.00000E+00         0.00000E+00        -0.61020E+08
 
   -0.60836E+08         0.10009E+07         0.00000E+00
    0.10009E+07        -0.97154E+08         0.00000E+00
    0.00000E+00         0.00000E+00        -0.60838E+08
 
   -0.60657E+08         0.99475E+06         0.00000E+00
    0.99475E+06        -0.97133E+08         0.00000E+00
    0.00000E+00         0.00000E+00        -0.60656E+08
 
   -0.60478E+08         0.98835E+06         0.00000E+00
    0.98835E+06        -0.97112E+08         0.00000E+00
    0.00000E+00         0.00000E+00        -0.60473E+08
 
   -0.60299E+08         0.98168E+06         0.00000E+00
    0.98168E+06        -0.97092E+08         0.00000E+00
    0.00000E+00         0.00000E+00        -0.60289E+08
 
   -0.60120E+08         0.97468E+06         0.00000E+00
    0.97468E+06        -0.97072E+08         0.00000E+00
    0.00000E+00         0.00000E+00        -0.60105E+08
 
   -0.59942E+08         0.96729E+06         0.00000E+00
    0.96729E+06        -0.97054E+08         0.00000E+00
    0.00000E+00         0.00000E+00        -0.59921E+08
 
   -0.59765E+08         0.95946E+06         0.00000E+00
    0.95946E+06        -0.97036E+08         0.00000E+00
    0.00000E+00         0.00000E+00        -0.59736E+08
 
   -0.59588E+08         0.95111E+06         0.00000E+00
    0.95111E+06        -0.97020E+08         0.00000E+00
    0.00000E+00         0.00000E+00        -0.59550E+08
 
   -0.59411E+08         0.94215E+06         0.00000E+00
    0.94215E+06        -0.97004E+08         0.00000E+00
    0.00000E+00         0.00000E+00        -0.59363E+08
 
   -0.59236E+08         0.93246E+06         0.00000E+00
    0.93246E+06        -0.96990E+08         0.00000E+00
    0.00000E+00         0.00000E+00        -0.59176E+08
 
   -0.59061E+08         0.92192E+06         0.00000E+00
    0.92192E+06        -0.96977E+08         0.00000E+00
    0.00000E+00         0.00000E+00        -0.58988E+08
 
   -0.58887E+08         0.91038E+06         0.00000E+00
    0.91038E+06        -0.96965E+08         0.00000E+00
    0.00000E+00         0.00000E+00        -0.58799E+08
 
   -0.58715E+08         0.89766E+06         0.00000E+00
    0.89766E+06        -0.96956E+08         0.00000E+00
    0.00000E+00         0.00000E+00        -0.58609E+08
 
   -0.58543E+08         0.88353E+06         0.00000E+00
    0.88353E+06        -0.96947E+08         0.00000E+00
    0.00000E+00         0.00000E+00        -0.58417E+08
 
   -0.58374E+08         0.86777E+06         0.00000E+00
    0.86777E+06        -0.96941E+08         0.00000E+00
    0.00000E+00         0.00000E+00        -0.58225E+08
 
   -0.58206E+08         0.85006E+06         0.00000E+00
    0.85006E+06        -0.96937E+08         0.00000E+00
    0.00000E+00         0.00000E+00        -0.58031E+08
 
   -0.58040E+08         0.83009E+06         0.00000E+00
    0.83009E+06        -0.96936E+08         0.00000E+00
    0.00000E+00         0.00000E+00        -0.57836E+08
 
   -0.57877E+08         0.80748E+06         0.00000E+00
    0.80748E+06        -0.96937E+08         0.00000E+00
    0.00000E+00         0.00000E+00        -0.57640E+08
 
   -0.57717E+08         0.78181E+06         0.00000E+00
    0.78181E+06        -0.96941E+08         0.00000E+00
    0.00000E+00         0.00000E+00        -0.57443E+08
 
   -0.57559E+08         0.75264E+06         0.00000E+00
    0.75264E+06        -0.96949E+08         0.00000E+00
    0.00000E+00         0.00000E+00        -0.57244E+08
 
   -0.57404E+08         0.71951E+06         0.00000E+00
    0.71951E+06        -0.96959E+08         0.00000E+00
    0.00000E+00         0.00000E+00        -0.57044E+08
 
   -0.57252E+08         0.68196E+06         0.00000E+00
    0.68196E+06        -0.96973E+08         0.00000E+00
    0.00000E+00         0.00000E+00        -0.56842E+08
 
   -0.57104E+08         0.63954E+06         0.00000E+00
    0.63954E+06        -0.96989E+08         0.00000E+00
    0.00000E+00         0.00000E+00        -0.56639E+08
 
   -0.56959E+08         0.59191E+06         0.00000E+00
    0.59191E+06        -0.97008E+08         0.00000E+00
    0.00000E+00         0.00000E+00        -0.56434E+08
 
   -0.56817E+08         0.53882E+06         0.00000E+00
    0.53882E+06        -0.97029E+08         0.00000E+00
    0.00000E+00         0.00000E+00        -0.56226E+08
 
   -0.56678E+08         0.48028E+06         0.00000E+00
    0.48028E+06        -0.97051E+08         0.00000E+00
    0.00000E+00         0.00000E+00        -0.56015E+08
 
   -0.56542E+08         0.41662E+06         0.00000E+00
    0.41662E+06        -0.97071E+08         0.00000E+00
    0.00000E+00         0.00000E+00        -0.55799E+08
 
   -0.56409E+08         0.34873E+06         0.00000E+00
    0.34873E+06        -0.97087E+08         0.00000E+00
    0.00000E+00         0.00000E+00        -0.55576E+08
 
   -0.56280E+08         0.27841E+06         0.00000E+00
    0.27841E+06        -0.97096E+08         0.00000E+00
    0.00000E+00         0.00000E+00        -0.55343E+08
 
   -0.56155E+08         0.20868E+06         0.00000E+00
    0.20868E+06        -0.97093E+08         0.00000E+00
    0.00000E+00         0.00000E+00        -0.55095E+08
 
   -0.56037E+08         0.14403E+06         0.00000E+00
    0.14403E+06        -0.97074E+08         0.00000E+00
    0.00000E+00         0.00000E+00        -0.54826E+08
 
   -0.55930E+08         0.89562E+05         0.00000E+00
    0.89562E+05        -0.97034E+08         0.00000E+00
    0.00000E+00         0.00000E+00        -0.54528E+08
 
   -0.55841E+08         0.49121E+05         0.00000E+00
    0.49121E+05        -0.96970E+08         0.00000E+00
    0.00000E+00         0.00000E+00        -0.54194E+08
 
   -0.55777E+08         0.22935E+05         0.00000E+00
    0.22935E+05        -0.96882E+08         0.00000E+00
    0.00000E+00         0.00000E+00        -0.53815E+08
 
   -0.55743E+08         0.65715E+04         0.00000E+00
    0.65715E+04        -0.96768E+08         0.00000E+00
    0.00000E+00         0.00000E+00        -0.53390E+08
 
   -0.74993E+08        -0.54807E+04         0.00000E+00
   -0.54807E+04        -0.97965E+08         0.00000E+00
    0.00000E+00         0.00000E+00        -0.78463E+08
 
   -0.74937E+08        -0.26124E+04         0.00000E+00
   -0.26124E+04        -0.97677E+08         0.00000E+00
    0.00000E+00         0.00000E+00        -0.78049E+08
 
   -0.74835E+08         0.33486E+05         0.00000E+00
    0.33486E+05        -0.97492E+08         0.00000E+00
    0.00000E+00         0.00000E+00        -0.77635E+08
 
   -0.74700E+08         0.10564E+06         0.00000E+00
    0.10564E+06        -0.97379E+08         0.00000E+00
    0.00000E+00         0.00000E+00        -0.77221E+08
 
   -0.74544E+08         0.20499E+06         0.00000E+00
    0.20499E+06        -0.97313E+08         0.00000E+00
    0.00000E+00         0.00000E+00        -0.76809E+08
 
   -0.74369E+08         0.31961E+06         0.00000E+00
    0.31961E+06        -0.97278E+08         0.00000E+00
    0.00000E+00         0.00000E+00        -0.76397E+08
 
   -0.74180E+08         0.43956E+06         0.00000E+00
    0.43956E+06        -0.97264E+08         0.00000E+00
    0.00000E+00         0.00000E+00        -0.75985E+08
 
   -0.73976E+08         0.55821E+06         0.00000E+00
    0.55821E+06        -0.97265E+08         0.00000E+00
    0.00000E+00         0.00000E+00        -0.75576E+08
 
   -0.73761E+08         0.67152E+06         0.00000E+00
    0.67152E+06        -0.97278E+08         0.00000E+00
    0.00000E+00         0.00000E+00        -0.75167E+08
 
   -0.73534E+08         0.77699E+06         0.00000E+00
    0.77699E+06        -0.97299E+08         0.00000E+00
    0.00000E+00         0.00000E+00        -0.74760E+08
 
   -0.73299E+08         0.87294E+06         0.00000E+00
    0.87294E+06        -0.97327E+08         0.00000E+00
    0.00000E+00         0.00000E+00        -0.74354E+08
 
   -0.73056E+08         0.95806E+06         0.00000E+00
    0.95806E+06        -0.97360E+08         0.00000E+00
    0.00000E+00         0.00000E+00        -0.73951E+08
 
   -0.72807E+08         0.10313E+07         0.00000E+00
    0.10313E+07        -0.97397E+08         0.00000E+00
    0.00000E+00         0.00000E+00        -0.73549E+08
 
   -0.72553E+08         0.10914E+07         0.00000E+00
    0.10914E+07        -0.97437E+08         0.00000E+00
    0.00000E+00         0.00000E+00        -0.73148E+08
 
   -0.72296E+08         0.11373E+07         0.00000E+00
    0.11373E+07        -0.97480E+08         0.00000E+00
    0.00000E+00         0.00000E+00        -0.72751E+08
 
   -0.72037E+08         0.11676E+07         0.00000E+00
    0.11676E+07        -0.97525E+08         0.00000E+00
    0.00000E+00         0.00000E+00        -0.72355E+08
 
   -0.71778E+08         0.11845E+07         0.00000E+00
    0.11845E+07        -0.97572E+08         0.00000E+00
    0.00000E+00         0.00000E+00        -0.71961E+08
 
   -0.71514E+08         0.11914E+07         0.00000E+00
    0.11914E+07        -0.97593E+08         0.00000E+00
    0.00000E+00         0.00000E+00        -0.71619E+08
 
   -0.71248E+08         0.12117E+07         0.00000E+00
    0.12117E+07        -0.97583E+08         0.00000E+00
    0.00000E+00         0.00000E+00        -0.71340E+08
 
   -0.70982E+08         0.12226E+07         0.00000E+00
    0.12226E+07        -0.97575E+08         0.00000E+00
    0.00000E+00         0.00000E+00        -0.71070E+08
 
   -0.70717E+08         0.12292E+07         0.00000E+00
    0.12292E+07        -0.97574E+08         0.00000E+00
    0.00000E+00         0.00000E+00        -0.70801E+08
 
   -0.70453E+08         0.12334E+07         0.00000E+00
    0.12334E+07        -0.97577E+08         0.00000E+00
    0.00000E+00         0.00000E+00        -0.70531E+08
 
   -0.70191E+08         0.12362E+07         0.00000E+00
    0.12362E+07        -0.97581E+08         0.00000E+00
    0.00000E+00         0.00000E+00        -0.70262E+08
 
   -0.69931E+08         0.12381E+07         0.00000E+00
    0.12381E+07        -0.97585E+08         0.00000E+00
    0.00000E+00         0.00000E+00        -0.69992E+08
 
   -0.69672E+08         0.12392E+07         0.00000E+00
    0.12392E+07        -0.97589E+08         0.00000E+00
    0.00000E+00         0.00000E+00        -0.69723E+08
 
   -0.69415E+08         0.12397E+07         0.00000E+00
    0.12397E+07        -0.97593E+08         0.00000E+00
    0.00000E+00         0.00000E+00        -0.69453E+08
 
   -0.69158E+08         0.12394E+07         0.00000E+00
    0.12394E+07        -0.97597E+08         0.00000E+00
    0.00000E+00         0.00000E+00        -0.69183E+08
 
   -0.68902E+08         0.12383E+07         0.00000E+00
    0.12383E+07        -0.97599E+08         0.00000E+00
    0.00000E+00         0.00000E+00        -0.68914E+08
 
   -0.68648E+08         0.12363E+07         0.00000E+00
    0.12363E+07        -0.97602E+08         0.00000E+00
    0.00000E+00         0.00000E+00        -0.68644E+08
 
   -0.68394E+08         0.12333E+07         0.00000E+00
    0.12333E+07        -0.97604E+08         0.00000E+00
    0.00000E+00         0.00000E+00        -0.68374E+08
 
   -0.68142E+08         0.12291E+07         0.00000E+00
    0.12291E+07        -0.97607E+08         0.00000E+00
    0.00000E+00         0.00000E+00        -0.68105E+08
 
   -0.67892E+08         0.12236E+07         0.00000E+00
    0.12236E+07        -0.97611E+08         0.00000E+00
    0.00000E+00         0.00000E+00        -0.67835E+08
 
   -0.67643E+08         0.12163E+07         0.00000E+00
    0.12163E+07        -0.97615E+08         0.00000E+00
    0.00000E+00         0.00000E+00        -0.67566E+08
 
   -0.67396E+08         0.12073E+07         0.00000E+00
    0.12073E+07        -0.97622E+08         0.00000E+00
    0.00000E+00         0.00000E+00        -0.67297E+08
 
   -0.67151E+08         0.11964E+07         0.00000E+00
    0.11964E+07        -0.97632E+08         0.00000E+00
    0.00000E+00         0.00000E+00        -0.67028E+08
 
   -0.66908E+08         0.11839E+07         0.00000E+00
    0.11839E+07        -0.97648E+08         0.00000E+00
    0.00000E+00         0.00000E+00        -0.66760E+08
 
   -0.66665E+08         0.11704E+07         0.00000E+00
    0.11704E+07        -0.97659E+08         0.00000E+00
    0.00000E+00         0.00000E+00        -0.66502E+08
 
   -0.66424E+08         0.11541E+07         0.00000E+00
    0.11541E+07        -0.97651E+08         0.00000E+00
    0.00000E+00         0.00000E+00        -0.66272E+08
 
   -0.66184E+08         0.11390E+07         0.00000E+00
    0.11390E+07        -0.97638E+08         0.00000E+00
    0.00000E+00         0.00000E+00        -0.66054E+08
 
   -0.65947E+08         0.11256E+07         0.00000E+00
    0.11256E+07        -0.97628E+08         0.00000E+00
    0.00000E+00         0.00000E+00        -0.65837E+08
 
   -0.65712E+08         0.11139E+07         0.00000E+00
    0.11139E+07        -0.97622E+08         0.00000E+00
    0.00000E+00         0.00000E+00        -0.65620E+08
 
   -0.65480E+08         0.11037E+07         0.00000E+00
    0.11037E+07        -0.97618E+08         0.00000E+00
    0.00000E+00         0.00000E+00        -0.65404E+08
 
   -0.65251E+08         0.10948E+07         0.00000E+00
    0.10948E+07        -0.97616E+08         0.00000E+00
    0.00000E+00         0.00000E+00        -0.65188E+08
 
   -0.65024E+08         0.10869E+07         0.00000E+00
    0.10869E+07        -0.97614E+08         0.00000E+00
    0.00000E+00         0.00000E+00        -0.64973E+08
 
   -0.64799E+08         0.10799E+07         0.00000E+00
    0.10799E+07        -0.97613E+08         0.00000E+00
    0.00000E+00         0.00000E+00        -0.64758E+08
 
   -0.64576E+08         0.10736E+07         0.00000E+00
    0.10736E+07        -0.97612E+08         0.00000E+00
    0.00000E+00         0.00000E+00        -0.64543E+08
 
   -0.64355E+08         0.10678E+07         0.00000E+00
    0.10678E+07        -0.97612E+08         0.00000E+00
    0.00000E+00         0.00000E+00        -0.64329E+08
 
   -0.64140E+08         0.10621E+07         0.00000E+00
    0.10621E+07        -0.97607E+08         0.00000E+00
    0.00000E+00         0.00000E+00        -0.64121E+08
 
   -0.63944E+08         0.10558E+07         0.00000E+00
    0.10558E+07        -0.97586E+08         0.00000E+00
    0.00000E+00         0.00000E+00        -0.63930E+08
 
   -0.63756E+08         0.10494E+07         0.00000E+00
    0.10494E+07        -0.97558E+08         0.00000E+00
    0.00000E+00         0.00000E+00        -0.63746E+08
 
   -0.63569E+08         0.10432E+07         0.00000E+00
    0.10432E+07        -0.97531E+08         0.00000E+00
    0.00000E+00         0.00000E+00        -0.63564E+08
 
   -0.63383E+08         0.10373E+07         0.00000E+00
    0.10373E+07        -0.97504E+08         0.00000E+00
    0.00000E+00         0.00000E+00        -0.63381E+08
 
   -0.63197E+08         0.10315E+07         0.00000E+00
    0.10315E+07        -0.97477E+08         0.00000E+00
    0.00000E+00         0.00000E+00        -0.63198E+08
 
   -0.63013E+08         0.10259E+07         0.00000E+00
    0.10259E+07        -0.97450E+08         0.00000E+00
    0.00000E+00         0.00000E+00        -0.63016E+08
 
   -0.62829E+08         0.10204E+07         0.00000E+00
    0.10204E+07        -0.97424E+08         0.00000E+00
    0.00000E+00         0.00000E+00        -0.62834E+08
 
   -0.62645E+08         0.10151E+07         0.00000E+00
    0.10151E+07        -0.97397E+08         0.00000E+00
    0.00000E+00         0.00000E+00        -0.62653E+08
 
   -0.62463E+08         0.10098E+07         0.00000E+00
    0.10098E+07        -0.97371E+08         0.00000E+00
    0.00000E+00         0.00000E+00        -0.62471E+08
 
   -0.62280E+08         0.10045E+07         0.00000E+00
    0.10045E+07        -0.97346E+08         0.00000E+00
    0.00000E+00         0.00000E+00        -0.62290E+08
 
   -0.62098E+08         0.99929E+06         0.00000E+00
    0.99929E+06        -0.97320E+08         0.00000E+00
    0.00000E+00         0.00000E+00        -0.62108E+08
 
   -0.61917E+08         0.99406E+06         0.00000E+00
    0.99406E+06        -0.97295E+08         0.00000E+00
    0.00000E+00         0.00000E+00        -0.61927E+08
 
   -0.61735E+08         0.98881E+06         0.00000E+00
    0.98881E+06        -0.97271E+08         0.00000E+00
    0.00000E+00         0.00000E+00        -0.61746E+08
 
   -0.61555E+08         0.98351E+06         0.00000E+00
    0.98351E+06        -0.97247E+08         0.00000E+00
    0.00000E+00         0.00000E+00        -0.61564E+08
 
   -0.61374E+08         0.97814E+06         0.00000E+00
    0.97814E+06        -0.97223E+08         0.00000E+00
    0.00000E+00         0.00000E+00        -0.61383E+08
 
   -0.61194E+08         0.97267E+06         0.00000E+00
    0.97267E+06        -0.97200E+08         0.00000E+00
    0.00000E+00         0.00000E+00        -0.61201E+08
 
   -0.61014E+08         0.96707E+06         0.00000E+00
    0.96707E+06        -0.97177E+08         0.00000E+00
    0.00000E+00         0.00000E+00        -0.61019E+08
 
   -0.60834E+08         0.96132E+06         0.00000E+00
    0.96132E+06        -0.97155E+08         0.00000E+00
    0.00000E+00         0.00000E+00        -0.60837E+08
 
   -0.60655E+08         0.95538E+06         0.00000E+00
    0.95538E+06        -0.97133E+08         0.00000E+00
    0.00000E+00         0.00000E+00        -0.60654E+08
 
   -0.60476E+08         0.94922E+06         0.00000E+00
    0.94922E+06        -0.97113E+08         0.00000E+00
    0.00000E+00         0.00000E+00        -0.60471E+08
 
   -0.60297E+08         0.94279E+06         0.00000E+00
    0.94279E+06        -0.97092E+08         0.00000E+00
    0.00000E+00         0.00000E+00        -0.60288E+08
 
   -0.60119E+08         0.93605E+06         0.00000E+00
    0.93605E+06        -0.97073E+08         0.00000E+00
    0.00000E+00         0.00000E+00        -0.60104E+08
 
   -0.59941E+08         0.92894E+06         0.00000E+00
    0.92894E+06        -0.97055E+08         0.00000E+00
    0.00000E+00         0.00000E+00        -0.59919E+08
 
   -0.59763E+08         0.92141E+06         0.00000E+00
    0.92141E+06        -0.97037E+08         0.00000E+00
    0.00000E+00         0.00000E+00        -0.59734E+08
 
   -0.59587E+08         0.91338E+06         0.00000E+00
    0.91338E+06        -0.97020E+08         0.00000E+00
    0.00000E+00         0.00000E+00        -0.59548E+08
 
   -0.59410E+08         0.90476E+06         0.00000E+00
    0.90476E+06        -0.97005E+08         0.00000E+00
    0.00000E+00         0.00000E+00        -0.59361E+08
 
   -0.59235E+08         0.89544E+06         0.00000E+00
    0.89544E+06        -0.96990E+08         0.00000E+00
    0.00000E+00         0.00000E+00        -0.59174E+08
 
   -0.59060E+08         0.88531E+06         0.00000E+00
    0.88531E+06        -0.96977E+08         0.00000E+00
    0.00000E+00         0.00000E+00        -0.58985E+08
 
   -0.58887E+08         0.87422E+06         0.00000E+00
    0.87422E+06        -0.96965E+08         0.00000E+00
    0.00000E+00         0.00000E+00        -0.58796E+08
 
   -0.58714E+08         0.86199E+06         0.00000E+00
    0.86199E+06        -0.96955E+08         0.00000E+00
    0.00000E+00         0.00000E+00        -0.58605E+08
 
   -0.58543E+08         0.84841E+06         0.00000E+00
    0.84841E+06        -0.96947E+08         0.00000E+00
    0.00000E+00         0.00000E+00        -0.58414E+08
 
   -0.58374E+08         0.83323E+06         0.00000E+00
    0.83323E+06        -0.96940E+08         0.00000E+00
    0.00000E+00         0.00000E+00        -0.58221E+08
 
   -0.58206E+08         0.81617E+06         0.00000E+00
    0.81617E+06        -0.96936E+08         0.00000E+00
    0.00000E+00         0.00000E+00        -0.58027E+08
 
   -0.58041E+08         0.79690E+06         0.00000E+00
    0.79690E+06        -0.96934E+08         0.00000E+00
    0.00000E+00         0.00000E+00        -0.57831E+08
 
   -0.57878E+08         0.77503E+06         0.00000E+00
    0.77503E+06        -0.96934E+08         0.00000E+00
    0.00000E+00         0.00000E+00        -0.57634E+08
 
   -0.57718E+08         0.75017E+06         0.00000E+00
    0.75017E+06        -0.96938E+08         0.00000E+00
    0.00000E+00         0.00000E+00        -0.57436E+08
 
   -0.57561E+08         0.72186E+06         0.00000E+00
    0.72186E+06        -0.96944E+08         0.00000E+00
    0.00000E+00         0.00000E+00        -0.57236E+08
 
   -0.57406E+08         0.68962E+06         0.00000E+00
    0.68962E+06        -0.96953E+08         0.00000E+00
    0.00000E+00         0.00000E+00        -0.57034E+08
 
   -0.57256E+08         0.65298E+06         0.00000E+00
    0.65298E+06        -0.96966E+08         0.00000E+00
    0.00000E+00         0.00000E+00        -0.56831E+08
 
   -0.57108E+08         0.61150E+06         0.00000E+00
    0.61150E+06        -0.96981E+08         0.00000E+00
    0.00000E+00         0.00000E+00        -0.56626E+08
 
   -0.56964E+08         0.56480E+06         0.00000E+00
    0.56480E+06        -0.96999E+08         0.00000E+00
    0.00000E+00         0.00000E+00        -0.56418E+08
 
   -0.56824E+08         0.51265E+06         0.00000E+00
    0.51265E+06        -0.97019E+08         0.00000E+00
    0.00000E+00         0.00000E+00        -0.56208E+08
 
   -0.56688E+08         0.45504E+06         0.00000E+00
    0.45504E+06        -0.97039E+08         0.00000E+00
    0.00000E+00         0.00000E+00        -0.55993E+08
 
   -0.56554E+08         0.39231E+06         0.00000E+00
    0.39231E+06        -0.97058E+08         0.00000E+00
    0.00000E+00         0.00000E+00        -0.55774E+08
 
   -0.56425E+08         0.32542E+06         0.00000E+00
    0.32542E+06        -0.97073E+08         0.00000E+00
    0.00000E+00         0.00000E+00        -0.55548E+08
 
   -0.56299E+08         0.25622E+06         0.00000E+00
    0.25622E+06        -0.97082E+08         0.00000E+00
    0.00000E+00         0.00000E+00        -0.55311E+08
 
   -0.56179E+08         0.18794E+06         0.00000E+00
    0.18794E+06        -0.97081E+08         0.00000E+00
    0.00000E+00         0.00000E+00        -0.55061E+08
 
   -0.56065E+08         0.12530E+06         0.00000E+00
    0.12530E+06        -0.97064E+08         0.00000E+00
    0.00000E+00         0.00000E+00        -0.54790E+08
 
   -0.55963E+08         0.73715E+05         0.00000E+00
    0.73715E+05        -0.97027E+08         0.00000E+00
    0.00000E+00         0.00000E+00        -0.54492E+08
 
   -0.55876E+08         0.37090E+05         0.00000E+00
    0.37090E+05        -0.96967E+08         0.00000E+00
    0.00000E+00         0.00000E+00        -0.54158E+08
 
   -0.55814E+08         0.15456E+05         0.00000E+00
    0.15456E+05        -0.96881E+08         0.00000E+00
    0.00000E+00         0.00000E+00        -0.53781E+08
 
   -0.55780E+08         0.40408E+04         0.00000E+00
    0.40408E+04        -0.96769E+08         0.00000E+00
    0.00000E+00         0.00000E+00        -0.53357E+08
 
   -0.74888E+08        -0.11442E+05         0.00000E+00
   -0.11442E+05        -0.97962E+08         0.00000E+00
    0.00000E+00         0.00000E+00        -0.78463E+08
 
   -0.74833E+08        -0.19052E+05         0.00000E+00
   -0.19052E+05        -0.97679E+08         0.00000E+00
    0.00000E+00         0.00000E+00        -0.78049E+08
 
   -0.74734E+08         0.95982E+04         0.00000E+00
    0.95982E+04        -0.97502E+08         0.00000E+00
    0.00000E+00         0.00000E+00        -0.77635E+08
 
   -0.74605E+08         0.76808E+05         0.00000E+00
    0.76808E+05        -0.97396E+08         0.00000E+00
    0.00000E+00         0.00000E+00        -0.77221E+08
 
   -0.74456E+08         0.17252E+06         0.00000E+00
    0.17252E+06        -0.97335E+08         0.00000E+00
    0.00000E+00         0.00000E+00        -0.76809E+08
 
   -0.74290E+08         0.28401E+06         0.00000E+00
    0.28401E+06        -0.97301E+08         0.00000E+00
    0.00000E+00         0.00000E+00        -0.76397E+08
 
   -0.74110E+08         0.40105E+06         0.00000E+00
    0.40105E+06        -0.97287E+08         0.00000E+00
    0.00000E+00         0.00000E+00        -0.75985E+08
 
   -0.73915E+08         0.51702E+06         0.00000E+00
    0.51702E+06        -0.97288E+08         0.00000E+00
    0.00000E+00         0.00000E+00        -0.75576E+08
 
   -0.73707E+08         0.62794E+06         0.00000E+00
    0.62794E+06        -0.97299E+08         0.00000E+00
    0.00000E+00         0.00000E+00        -0.75167E+08
 
   -0.73487E+08         0.73138E+06         0.00000E+00
    0.73138E+06        -0.97319E+08         0.00000E+00
    0.00000E+00         0.00000E+00        -0.74760E+08
 
   -0.73258E+08         0.82561E+06         0.00000E+00
    0.82561E+06        -0.97345E+08         0.00000E+00
    0.00000E+00         0.00000E+00        -0.74354E+08
 
   -0.73020E+08         0.90932E+06         0.00000E+00
    0.90932E+06        -0.97376E+08         0.00000E+00
    0.00000E+00         0.00000E+00        -0.73951E+08
 
   -0.72776E+08         0.98137E+06         0.00000E+00
    0.98137E+06        -0.97410E+08         0.00000E+00
    0.00000E+00         0.00000E+00        -0.73549E+08
 
   -0.72526E+08         0.10406E+07         0.00000E+00
    0.10406E+07        -0.97448E+08         0.00000E+00
    0.00000E+00         0.00000E+00        -0.73148E+08
 
   -0.72272E+08         0.10859E+07         0.00000E+00
    0.10859E+07        -0.97488E+08         0.00000E+00
    0.00000E+00         0.00000E+00        -0.72751E+08
 
   -0.72017E+08         0.11162E+07         0.00000E+00
    0.11162E+07        -0.97530E+08         0.00000E+00
    0.00000E+00         0.00000E+00        -0.72355E+08
 
   -0.71761E+08         0.11331E+07         0.00000E+00
    0.11331E+07        -0.97575E+08         0.00000E+00
    0.00000E+00         0.00000E+00        -0.71961E+08
 
   -0.71500E+08         0.11382E+07         0.00000E+00
    0.11382E+07        -0.97595E+08         0.00000E+00
    0.00000E+00         0.00000E+00        -0.71615E+08
 
   -0.71235E+08         0.11584E+07         0.00000E+00
    0.11584E+07        -0.97586E+08         0.00000E+00
    0.00000E+00         0.00000E+00        -0.71330E+08
 
   -0.70970E+08         0.11695E+07         0.00000E+00
    0.11695E+07        -0.97577E+08         0.00000E+00
    0.00000E+00         0.00000E+00        -0.71059E+08
 
   -0.70705E+08         0.11764E+07         0.00000E+00
    0.11764E+07        -0.97575E+08         0.00000E+00
    0.00000E+00         0.00000E+00        -0.70789E+08
 
   -0.70442E+08         0.11809E+07         0.00000E+00
    0.11809E+07        -0.97577E+08         0.00000E+00
    0.00000E+00         0.00000E+00        -0.70519E+08
 
   -0.70181E+08         0.11840E+07         0.00000E+00
    0.11840E+07        -0.97581E+08         0.00000E+00
    0.00000E+00         0.00000E+00        -0.70249E+08
 
   -0.69921E+08         0.11862E+07         0.00000E+00
    0.11862E+07        -0.97585E+08         0.00000E+00
    0.00000E+00         0.00000E+00        -0.69979E+08
 
   -0.69662E+08         0.11876E+07         0.00000E+00
    0.11876E+07        -0.97590E+08         0.00000E+00
    0.00000E+00         0.00000E+00        -0.69710E+08
 
   -0.69405E+08         0.11883E+07         0.00000E+00
    0.11883E+07        -0.97593E+08         0.00000E+00
    0.00000E+00         0.00000E+00        -0.69440E+08
 
   -0.69148E+08         0.11882E+07         0.00000E+00
    0.11882E+07        -0.97596E+08         0.00000E+00
    0.00000E+00         0.00000E+00        -0.69170E+08
 
   -0.68893E+08         0.11873E+07         0.00000E+00
    0.11873E+07        -0.97599E+08         0.00000E+00
    0.00000E+00         0.00000E+00        -0.68901E+08
 
   -0.68638E+08         0.11856E+07         0.00000E+00
    0.11856E+07        -0.97601E+08         0.00000E+00
    0.00000E+00         0.00000E+00        -0.68631E+08
 
   -0.68385E+08         0.11828E+07         0.00000E+00
    0.11828E+07        -0.97604E+08         0.00000E+00
    0.00000E+00         0.00000E+00        -0.68362E+08
 
   -0.68134E+08         0.11789E+07         0.00000E+00
    0.11789E+07        -0.97606E+08         0.00000E+00
    0.00000E+00         0.00000E+00        -0.68093E+08
 
   -0.67884E+08         0.11737E+07         0.00000E+00
    0.11737E+07        -0.97609E+08         0.00000E+00
    0.00000E+00         0.00000E+00        -0.67824E+08
 
   -0.67635E+08         0.11669E+07         0.00000E+00
    0.11669E+07        -0.97614E+08         0.00000E+00
    0.00000E+00         0.00000E+00        -0.67555E+08
 
   -0.67389E+08         0.11582E+07         0.00000E+00
    0.11582E+07        -0.97620E+08         0.00000E+00
    0.00000E+00         0.00000E+00        -0.67287E+08
 
   -0.67145E+08         0.11476E+07         0.00000E+00
    0.11476E+07        -0.97630E+08         0.00000E+00
    0.00000E+00         0.00000E+00        -0.67018E+08
 
   -0.66901E+08         0.11354E+07         0.00000E+00
    0.11354E+07        -0.97645E+08         0.00000E+00
    0.00000E+00         0.00000E+00        -0.66750E+08
 
   -0.66659E+08         0.11220E+07         0.00000E+00
    0.11220E+07        -0.97656E+08         0.00000E+00
    0.00000E+00         0.00000E+00        -0.66494E+08
 
   -0.66418E+08         0.11060E+07         0.00000E+00
    0.11060E+07        -0.97648E+08         0.00000E+00
    0.00000E+00         0.00000E+00        -0.66265E+08
 
   -0.66179E+08         0.10914E+07         0.00000E+00
    0.10914E+07        -0.97635E+08         0.00000E+00
    0.00000E+00         0.00000E+00        -0.66047E+08
 
   -0.65942E+08         0.10785E+07         0.00000E+00
    0.10785E+07        -0.97626E+08         0.00000E+00
    0.00000E+00         0.00000E+00        -0.65830E+08
 
   -0.65708E+08         0.10673E+07         0.00000E+00
    0.10673E+07        -0.97620E+08         0.00000E+00
    0.00000E+00         0.00000E+00        -0.65614E+08
 
   -0.65476E+08         0.10576E+07         0.00000E+00
    0.10576E+07        -0.97617E+08         0.00000E+00
    0.00000E+00         0.00000E+00        -0.65398E+08
 
   -0.65247E+08         0.10492E+07         0.00000E+00
    0.10492E+07        -0.97614E+08         0.00000E+00
    0.00000E+00         0.00000E+00        -0.65182E+08
 
   -0.65020E+08         0.10418E+07         0.00000E+00
    0.10418E+07        -0.97613E+08         0.00000E+00
    0.00000E+00         0.00000E+00        -0.64967E+08
 
   -0.64795E+08         0.10352E+07         0.00000E+00
    0.10352E+07        -0.97612E+08         0.00000E+00
    0.00000E+00         0.00000E+00        -0.64752E+08
 
   -0.64572E+08         0.10292E+07         0.00000E+00
    0.10292E+07        -0.97611E+08         0.00000E+00
    0.00000E+00         0.00000E+00        -0.64538E+08
 
   -0.64351E+08         0.10237E+07         0.00000E+00
    0.10237E+07        -0.97611E+08         0.00000E+00
    0.00000E+00         0.00000E+00        -0.64325E+08
 
   -0.64137E+08         0.10184E+07         0.00000E+00
    0.10184E+07        -0.97606E+08         0.00000E+00
    0.00000E+00         0.00000E+00        -0.64117E+08
 
   -0.63941E+08         0.10123E+07         0.00000E+00
    0.10123E+07        -0.97585E+08         0.00000E+00
    0.00000E+00         0.00000E+00        -0.63926E+08
 
   -0.63753E+08         0.10062E+07         0.00000E+00
    0.10062E+07        -0.97557E+08         0.00000E+00
    0.00000E+00         0.00000E+00        -0.63743E+08
 
   -0.63566E+08         0.10003E+07         0.00000E+00
    0.10003E+07        -0.97530E+08         0.00000E+00
    0.00000E+00         0.00000E+00        -0.63560E+08
 
   -0.63380E+08         0.99464E+06         0.00000E+00
    0.99464E+06        -0.97503E+08         0.00000E+00
    0.00000E+00         0.00000E+00        -0.63378E+08
 
   -0.63195E+08         0.98914E+06         0.00000E+00
    0.98914E+06        -0.97476E+08         0.00000E+00
    0.00000E+00         0.00000E+00        -0.63196E+08
 
   -0.63010E+08         0.98378E+06         0.00000E+00
    0.98378E+06        -0.97450E+08         0.00000E+00
    0.00000E+00         0.00000E+00        -0.63014E+08
 
   -0.62826E+08         0.97854E+06         0.00000E+00
    0.97854E+06        -0.97423E+08         0.00000E+00
    0.00000E+00         0.00000E+00        -0.62832E+08
 
   -0.62643E+08         0.97339E+06         0.00000E+00
    0.97339E+06        -0.97397E+08         0.00000E+00
    0.00000E+00         0.00000E+00        -0.62650E+08
 
   -0.62460E+08         0.96831E+06         0.00000E+00
    0.96831E+06        -0.97371E+08         0.00000E+00
    0.00000E+00         0.00000E+00        -0.62469E+08
 
   -0.62278E+08         0.96327E+06         0.00000E+00
    0.96327E+06        -0.97346E+08         0.00000E+00
    0.00000E+00         0.00000E+00        -0.62288E+08
 
   -0.62096E+08         0.95825E+06         0.00000E+00
    0.95825E+06        -0.97321E+08         0.00000E+00
    0.00000E+00         0.00000E+00        -0.62106E+08
 
   -0.61914E+08         0.95323E+06         0.00000E+00
    0.95323E+06        -0.97296E+08         0.00000E+00
    0.00000E+00         0.00000E+00        -0.61925E+08
 
   -0.61733E+08         0.94818E+06         0.00000E+00
    0.94818E+06        -0.97271E+08         0.00000E+00
    0.00000E+00         0.00000E+00        -0.61744E+08
 
   -0.61552E+08         0.94309E+06         0.00000E+00
    0.94309E+06        -0.97247E+08         0.00000E+00
    0.00000E+00         0.00000E+00        -0.61563E+08
 
   -0.61372E+08         0.93792E+06         0.00000E+00
    0.93792E+06        -0.97223E+08         0.00000E+00
    0.00000E+00         0.00000E+00        -0.61381E+08
 
   -0.61192E+08         0.93267E+06         0.00000E+00
    0.93267E+06        -0.97200E+08         0.00000E+00
    0.00000E+00         0.00000E+00        -0.61199E+08
 
   -0.61012E+08         0.92728E+06         0.00000E+00
    0.92728E+06        -0.97178E+08         0.00000E+00
    0.00000E+00         0.00000E+00        -0.61017E+08
 
   -0.60832E+08         0.92175E+06         0.00000E+00
    0.92175E+06        -0.97156E+08         0.00000E+00
    0.00000E+00         0.00000E+00        -0.60835E+08
 
   -0.60653E+08         0.91604E+06         0.00000E+00
    0.91604E+06        -0.97134E+08         0.00000E+00
    0.00000E+00         0.00000E+00        -0.60653E+08
 
   -0.60474E+08         0.91011E+06         0.00000E+00
    0.91011E+06        -0.97113E+08         0.00000E+00
    0.00000E+00         0.00000E+00        -0.60470E+08
 
   -0.60296E+08         0.90393E+06         0.00000E+00
    0.90393E+06        -0.97093E+08         0.00000E+00
    0.00000E+00         0.00000E+00        -0.60286E+08
 
   -0.60117E+08         0.89745E+06         0.00000E+00
    0.89745E+06        -0.97074E+08         0.00000E+00
    0.00000E+00         0.00000E+00        -0.60102E+08
 
   -0.59940E+08         0.89062E+06         0.00000E+00
    0.89062E+06        -0.97055E+08         0.00000E+00
    0.00000E+00         0.00000E+00        -0.59918E+08
 
   -0.59762E+08         0.88338E+06         0.00000E+00
    0.88338E+06        -0.97038E+08         0.00000E+00
    0.00000E+00         0.00000E+00        -0.59732E+08
 
   -0.59586E+08         0.87567E+06         0.00000E+00
    0.87567E+06        -0.97021E+08         0.00000E+00
    0.00000E+00         0.00000E+00        -0.59546E+08
 
   -0.59409E+08         0.86739E+06         0.00000E+00
    0.86739E+06        -0.97005E+08         0.00000E+00
    0.00000E+00         0.00000E+00        -0.59360E+08
 
   -0.59234E+08         0.85845E+06         0.00000E+00
    0.85845E+06        -0.96991E+08         0.00000E+00
    0.00000E+00         0.00000E+00        -0.59172E+08
 
   -0.59060E+08         0.84873E+06         0.00000E+00
    0.84873E+06        -0.96977E+08         0.00000E+00
    0.00000E+00         0.00000E+00        -0.58983E+08
 
   -0.58886E+08         0.83809E+06         0.00000E+00
    0.83809E+06        -0.96965E+08         0.00000E+00
    0.00000E+00         0.00000E+00        -0.58793E+08
 
   -0.58714E+08         0.82635E+06         0.00000E+00
    0.82635E+06        -0.96955E+08         0.00000E+00
    0.00000E+00         0.00000E+00        -0.58602E+08
 
   -0.58543E+08         0.81330E+06         0.00000E+00
    0.81330E+06        -0.96946E+08         0.00000E+00
    0.00000E+00         0.00000E+00        -0.58410E+08
 
   -0.58374E+08         0.79872E+06         0.00000E+00
    0.79872E+06        -0.96939E+08         0.00000E+00
    0.00000E+00         0.00000E+00        -0.58217E+08
 
   -0.58207E+08         0.78231E+06         0.00000E+00
    0.78231E+06        -0.96934E+08         0.00000E+00
    0.00000E+00         0.00000E+00        -0.58022E+08
 
   -0.58042E+08         0.76374E+06         0.00000E+00
    0.76374E+06        -0.96932E+08         0.00000E+00
    0.00000E+00         0.00000E+00        -0.57826E+08
 
   -0.57879E+08         0.74264E+06         0.00000E+00
    0.74264E+06        -0.96931E+08         0.00000E+00
    0.00000E+00         0.00000E+00        -0.57628E+08
 
   -0.57719E+08         0.71860E+06         0.00000E+00
    0.71860E+06        -0.96934E+08         0.00000E+00
    0.00000E+00         0.00000E+00        -0.57428E+08
 
   -0.57563E+08         0.69116E+06         0.00000E+00
    0.69116E+06        -0.96939E+08         0.00000E+00
    0.00000E+00         0.00000E+00        -0.57227E+08
 
   -0.57409E+08         0.65984E+06         0.00000E+00
    0.65984E+06        -0.96948E+08         0.00000E+00
    0.00000E+00         0.00000E+00        -0.57024E+08
 
   -0.57259E+08         0.62416E+06         0.00000E+00
    0.62416E+06        -0.96959E+08         0.00000E+00
    0.00000E+00         0.00000E+00        -0.56819E+08
 
   -0.57113E+08         0.58367E+06         0.00000E+00
    0.58367E+06        -0.96973E+08         0.00000E+00
    0.00000E+00         0.00000E+00        -0.56612E+08
 
   -0.56971E+08         0.53799E+06         0.00000E+00
    0.53799E+06        -0.96990E+08         0.00000E+00
    0.00000E+00         0.00000E+00        -0.56402E+08
 
   -0.56832E+08         0.48687E+06         0.00000E+00
    0.48687E+06        -0.97008E+08         0.00000E+00
    0.00000E+00         0.00000E+00        -0.56189E+08
 
   -0.56698E+08         0.43029E+06         0.00000E+00
    0.43029E+06        -0.97027E+08         0.00000E+00
    0.00000E+00         0.00000E+00        -0.55972E+08
 
   -0.56567E+08         0.36863E+06         0.00000E+00
    0.36863E+06        -0.97046E+08         0.00000E+00
    0.00000E+00         0.00000E+00        -0.55750E+08
 
   -0.56441E+08         0.30287E+06         0.00000E+00
    0.30287E+06        -0.97061E+08         0.00000E+00
    0.00000E+00         0.00000E+00        -0.55520E+08
 
   -0.56320E+08         0.23493E+06         0.00000E+00
    0.23493E+06        -0.97069E+08         0.00000E+00
    0.00000E+00         0.00000E+00        -0.55280E+08
 
   -0.56203E+08         0.16816E+06         0.00000E+00
    0.16816E+06        -0.97069E+08         0.00000E+00
    0.00000E+00         0.00000E+00        -0.55026E+08
 
   -0.56094E+08         0.10750E+06         0.00000E+00
    0.10750E+06        -0.97054E+08         0.00000E+00
    0.00000E+00         0.00000E+00        -0.54754E+08
 
   -0.55996E+08         0.58602E+05         0.00000E+00
    0.58602E+05        -0.97021E+08         0.00000E+00
    0.00000E+00         0.00000E+00        -0.54455E+08
 
   -0.55912E+08         0.25538E+05         0.00000E+00
    0.25538E+05        -0.96964E+08         0.00000E+00
    0.00000E+00         0.00000E+00        -0.54123E+08
 
   -0.55851E+08         0.82208E+04         0.00000E+00
    0.82208E+04        -0.96882E+08         0.00000E+00
    0.00000E+00         0.00000E+00        -0.53747E+08
 
   -0.55819E+08         0.15806E+04         0.00000E+00
    0.15806E+04        -0.96771E+08         0.00000E+00
    0.00000E+00         0.00000E+00        -0.53324E+08
 
   -0.74781E+08        -0.17328E+05         0.00000E+00
   -0.17328E+05        -0.97956E+08         0.00000E+00
    0.00000E+00         0.00000E+00        -0.78463E+08
 
   -0.74727E+08        -0.35104E+05         0.00000E+00
   -0.35104E+05        -0.97680E+08         0.00000E+00
    0.00000E+00         0.00000E+00        -0.78049E+08
 
   -0.74632E+08        -0.13365E+05         0.00000E+00
   -0.13365E+05        -0.97511E+08         0.00000E+00
    0.00000E+00         0.00000E+00        -0.77635E+08
 
   -0.74510E+08         0.49399E+05         0.00000E+00
    0.49399E+05        -0.97413E+08         0.00000E+00
    0.00000E+00         0.00000E+00        -0.77221E+08
 
   -0.74369E+08         0.14176E+06         0.00000E+00
    0.14176E+06        -0.97356E+08         0.00000E+00
    0.00000E+00         0.00000E+00        -0.76809E+08
 
   -0.74212E+08         0.25020E+06         0.00000E+00
    0.25020E+06        -0.97324E+08         0.00000E+00
    0.00000E+00         0.00000E+00        -0.76397E+08
 
   -0.74040E+08         0.36428E+06         0.00000E+00
    0.36428E+06        -0.97311E+08         0.00000E+00
    0.00000E+00         0.00000E+00        -0.75985E+08
 
   -0.73854E+08         0.47743E+06         0.00000E+00
    0.47743E+06        -0.97310E+08         0.00000E+00
    0.00000E+00         0.00000E+00        -0.75576E+08
 
   -0.73653E+08         0.58583E+06         0.00000E+00
    0.58583E+06        -0.97321E+08         0.00000E+00
    0.00000E+00         0.00000E+00        -0.75167E+08
 
   -0.73440E+08         0.68707E+06         0.00000E+00
    0.68707E+06        -0.97339E+08         0.00000E+00
    0.00000E+00         0.00000E+00        -0.74760E+08
 
   -0.73217E+08         0.77944E+06         0.00000E+00
    0.77944E+06        -0.97363E+08         0.00000E+00
    0.00000E+00         0.00000E+00        -0.74354E+08
 
   -0.72985E+08         0.86159E+06         0.00000E+00
    0.86159E+06        -0.97391E+08         0.00000E+00
    0.00000E+00         0.00000E+00        -0.73951E+08
 
   -0.72745E+08         0.93235E+06         0.00000E+00
    0.93235E+06        -0.97423E+08         0.00000E+00
    0.00000E+00         0.00000E+00        -0.73549E+08
 
   -0.72500E+08         0.99061E+06         0.00000E+00
    0.99061E+06        -0.97458E+08         0.00000E+00
    0.00000E+00         0.00000E+00        -0.73148E+08
 
   -0.72250E+08         0.10352E+07         0.00000E+00
    0.10352E+07        -0.97495E+08         0.00000E+00
    0.00000E+00         0.00000E+00        -0.72751E+08
 
   -0.71997E+08         0.10654E+07         0.00000E+00
    0.10654E+07        -0.97534E+08         0.00000E+00
    0.00000E+00         0.00000E+00        -0.72355E+08
 
   -0.71744E+08         0.10821E+07         0.00000E+00
    0.10821E+07        -0.97577E+08         0.00000E+00
    0.00000E+00         0.00000E+00        -0.71961E+08
 
   -0.71486E+08         0.10857E+07         0.00000E+00
    0.10857E+07        -0.97598E+08         0.00000E+00
    0.00000E+00         0.00000E+00        -0.71611E+08
 
   -0.71223E+08         0.11053E+07         0.00000E+00
    0.11053E+07        -0.97589E+08         0.00000E+00
    0.00000E+00         0.00000E+00        -0.71320E+08
 
   -0.70958E+08         0.11165E+07         0.00000E+00
    0.11165E+07        -0.97579E+08         0.00000E+00
    0.00000E+00         0.00000E+00        -0.71048E+08
 
   -0.70694E+08         0.11236E+07         0.00000E+00
    0.11236E+07        -0.97576E+08         0.00000E+00
    0.00000E+00         0.00000E+00        -0.70777E+08
 
   -0.70432E+08         0.11284E+07         0.00000E+00
    0.11284E+07        -0.97578E+08         0.00000E+00
    0.00000E+00         0.00000E+00        -0.70507E+08
 
   -0.70170E+08         0.11318E+07         0.00000E+00
    0.11318E+07        -0.97582E+08         0.00000E+00
    0.00000E+00         0.00000E+00        -0.70236E+08
 
   -0.69910E+08         0.11343E+07         0.00000E+00
    0.11343E+07        -0.97586E+08         0.00000E+00
    0.00000E+00         0.00000E+00        -0.69966E+08
 
   -0.69652E+08         0.11360E+07         0.00000E+00
    0.11360E+07        -0.97590E+08         0.00000E+00
    0.00000E+00         0.00000E+00        -0.69697E+08
 
   -0.69395E+08         0.11369E+07         0.00000E+00
    0.11369E+07        -0.97593E+08         0.00000E+00
    0.00000E+00         0.00000E+00        -0.69427E+08
 
   -0.69139E+08         0.11371E+07         0.00000E+00
    0.11371E+07        -0.97596E+08         0.00000E+00
    0.00000E+00         0.00000E+00        -0.69158E+08
 
   -0.68884E+08         0.11364E+07         0.00000E+00
    0.11364E+07        -0.97599E+08         0.00000E+00
    0.00000E+00         0.00000E+00        -0.68888E+08
 
   -0.68630E+08         0.11348E+07         0.00000E+00
    0.11348E+07        -0.97601E+08         0.00000E+00
    0.00000E+00         0.00000E+00        -0.68619E+08
 
   -0.68377E+08         0.11323E+07         0.00000E+00
    0.11323E+07        -0.97603E+08         0.00000E+00
    0.00000E+00         0.00000E+00        -0.68350E+08
 
   -0.68125E+08         0.11288E+07         0.00000E+00
    0.11288E+07        -0.97605E+08         0.00000E+00
    0.00000E+00         0.00000E+00        -0.68082E+08
 
   -0.67876E+08         0.11239E+07         0.00000E+00
    0.11239E+07        -0.97608E+08         0.00000E+00
    0.00000E+00         0.00000E+00        -0.67813E+08
 
   -0.67628E+08         0.11175E+07         0.00000E+00
    0.11175E+07        -0.97612E+08         0.00000E+00
    0.00000E+00         0.00000E+00        -0.67545E+08
 
   -0.67382E+08         0.11092E+07         0.00000E+00
    0.11092E+07        -0.97618E+08         0.00000E+00
    0.00000E+00         0.00000E+00        -0.67277E+08
 
   -0.67138E+08         0.10989E+07         0.00000E+00
    0.10989E+07        -0.97628E+08         0.00000E+00
    0.00000E+00         0.00000E+00        -0.67009E+08
 
   -0.66895E+08         0.10869E+07         0.00000E+00
    0.10869E+07        -0.97643E+08         0.00000E+00
    0.00000E+00         0.00000E+00        -0.66741E+08
 
   -0.66654E+08         0.10737E+07         0.00000E+00
    0.10737E+07        -0.97653E+08         0.00000E+00
    0.00000E+00         0.00000E+00        -0.66486E+08
 
   -0.66413E+08         0.10580E+07         0.00000E+00
    0.10580E+07        -0.97645E+08         0.00000E+00
    0.00000E+00         0.00000E+00        -0.66257E+08
 
   -0.66174E+08         0.10437E+07         0.00000E+00
    0.10437E+07        -0.97632E+08         0.00000E+00
    0.00000E+00         0.00000E+00        -0.66040E+08
 
   -0.65937E+08         0.10313E+07         0.00000E+00
    0.10313E+07        -0.97624E+08         0.00000E+00
    0.00000E+00         0.00000E+00        -0.65823E+08
 
   -0.65703E+08         0.10206E+07         0.00000E+00
    0.10206E+07        -0.97618E+08         0.00000E+00
    0.00000E+00         0.00000E+00        -0.65607E+08
 
   -0.65471E+08         0.10115E+07         0.00000E+00
    0.10115E+07        -0.97615E+08         0.00000E+00
    0.00000E+00         0.00000E+00        -0.65392E+08
 
   -0.65242E+08         0.10036E+07         0.00000E+00
    0.10036E+07        -0.97613E+08         0.00000E+00
    0.00000E+00         0.00000E+00        -0.65176E+08
 
   -0.65016E+08         0.99667E+06         0.00000E+00
    0.99667E+06        -0.97612E+08         0.00000E+00
    0.00000E+00         0.00000E+00        -0.64962E+08
 
   -0.64792E+08         0.99047E+06         0.00000E+00
    0.99047E+06        -0.97611E+08         0.00000E+00
    0.00000E+00         0.00000E+00        -0.64747E+08
 
   -0.64569E+08         0.98486E+06         0.00000E+00
    0.98486E+06        -0.97610E+08         0.00000E+00
    0.00000E+00         0.00000E+00        -0.64534E+08
 
   -0.64348E+08         0.97970E+06         0.00000E+00
    0.97970E+06        -0.97610E+08         0.00000E+00
    0.00000E+00         0.00000E+00        -0.64320E+08
 
   -0.64134E+08         0.97462E+06         0.00000E+00
    0.97462E+06        -0.97604E+08         0.00000E+00
    0.00000E+00         0.00000E+00        -0.64113E+08
 
   -0.63938E+08         0.96890E+06         0.00000E+00
    0.96890E+06        -0.97584E+08         0.00000E+00
    0.00000E+00         0.00000E+00        -0.63923E+08
 
   -0.63750E+08         0.96307E+06         0.00000E+00
    0.96307E+06        -0.97556E+08         0.00000E+00
    0.00000E+00         0.00000E+00        -0.63740E+08
 
   -0.63564E+08         0.95746E+06         0.00000E+00
    0.95746E+06        -0.97529E+08         0.00000E+00
    0.00000E+00         0.00000E+00        -0.63557E+08
 
   -0.63378E+08         0.95205E+06         0.00000E+00
    0.95205E+06        -0.97503E+08         0.00000E+00
    0.00000E+00         0.00000E+00        -0.63375E+08
 
   -0.63192E+08         0.94680E+06         0.00000E+00
    0.94680E+06        -0.97476E+08         0.00000E+00
    0.00000E+00         0.00000E+00        -0.63193E+08
 
   -0.63008E+08         0.94169E+06         0.00000E+00
    0.94169E+06        -0.97449E+08         0.00000E+00
    0.00000E+00         0.00000E+00        -0.63011E+08
 
   -0.62824E+08         0.93668E+06         0.00000E+00
    0.93668E+06        -0.97423E+08         0.00000E+00
    0.00000E+00         0.00000E+00        -0.62830E+08
 
   -0.62641E+08         0.93175E+06         0.00000E+00
    0.93175E+06        -0.97397E+08         0.00000E+00
    0.00000E+00         0.00000E+00        -0.62648E+08
 
   -0.62458E+08         0.92688E+06         0.00000E+00
    0.92688E+06        -0.97371E+08         0.00000E+00
    0.00000E+00         0.00000E+00        -0.62467E+08
 
   -0.62276E+08         0.92205E+06         0.00000E+00
    0.92205E+06        -0.97346E+08         0.00000E+00
    0.00000E+00         0.00000E+00        -0.62286E+08
 
   -0.62094E+08         0.91724E+06         0.00000E+00
    0.91724E+06        -0.97321E+08         0.00000E+00
    0.00000E+00         0.00000E+00        -0.62105E+08
 
   -0.61912E+08         0.91242E+06         0.00000E+00
    0.91242E+06        -0.97296E+08         0.00000E+00
    0.00000E+00         0.00000E+00        -0.61923E+08
 
   -0.61731E+08         0.90758E+06         0.00000E+00
    0.90758E+06        -0.97271E+08         0.00000E+00
    0.00000E+00         0.00000E+00        -0.61742E+08
 
   -0.61550E+08         0.90269E+06         0.00000E+00
    0.90269E+06        -0.97247E+08         0.00000E+00
    0.00000E+00         0.00000E+00        -0.61561E+08
 
   -0.61370E+08         0.89774E+06         0.00000E+00
    0.89774E+06        -0.97224E+08         0.00000E+00
    0.00000E+00         0.00000E+00        -0.61380E+08
 
   -0.61190E+08         0.89269E+06         0.00000E+00
    0.89269E+06        -0.97201E+08         0.00000E+00
    0.00000E+00         0.00000E+00        -0.61198E+08
 
   -0.61010E+08         0.88752E+06         0.00000E+00
    0.88752E+06        -0.97178E+08         0.00000E+00
    0.00000E+00         0.00000E+00        -0.61016E+08
 
   -0.60831E+08         0.88221E+06         0.00000E+00
    0.88221E+06        -0.97156E+08         0.00000E+00
    0.00000E+00         0.00000E+00        -0.60834E+08
 
   -0.60651E+08         0.87673E+06         0.00000E+00
    0.87673E+06        -0.97135E+08         0.00000E+00
    0.00000E+00         0.00000E+00        -0.60651E+08
 
   -0.60473E+08         0.87104E+06         0.00000E+00
    0.87104E+06        -0.97114E+08         0.00000E+00
    0.00000E+00         0.00000E+00        -0.60468E+08
 
   -0.60294E+08         0.86510E+06         0.00000E+00
    0.86510E+06        -0.97094E+08         0.00000E+00
    0.00000E+00         0.00000E+00        -0.60285E+08
 
   -0.60116E+08         0.85888E+06         0.00000E+00
    0.85888E+06        -0.97075E+08         0.00000E+00
    0.00000E+00         0.00000E+00        -0.60101E+08
 
   -0.59938E+08         0.85233E+06         0.00000E+00
    0.85233E+06        -0.97056E+08         0.00000E+00
    0.00000E+00         0.00000E+00        -0.59916E+08
 
   -0.59761E+08         0.84539E+06         0.00000E+00
    0.84539E+06        -0.97039E+08         0.00000E+00
    0.00000E+00         0.00000E+00        -0.59731E+08
 
   -0.59584E+08         0.83799E+06         0.00000E+00
    0.83799E+06        -0.97022E+08         0.00000E+00
    0.00000E+00         0.00000E+00        -0.59545E+08
 
   -0.59409E+08         0.83005E+06         0.00000E+00
    0.83005E+06        -0.97006E+08         0.00000E+00
    0.00000E+00         0.00000E+00        -0.59358E+08
 
   -0.59233E+08         0.82149E+06         0.00000E+00
    0.82149E+06        -0.96991E+08         0.00000E+00
    0.00000E+00         0.00000E+00        -0.59170E+08
 
   -0.59059E+08         0.81218E+06         0.00000E+00
    0.81218E+06        -0.96978E+08         0.00000E+00
    0.00000E+00         0.00000E+00        -0.58981E+08
 
   -0.58886E+08         0.80198E+06         0.00000E+00
    0.80198E+06        -0.96966E+08         0.00000E+00
    0.00000E+00         0.00000E+00        -0.58791E+08
 
   -0.58714E+08         0.79073E+06         0.00000E+00
    0.79073E+06        -0.96955E+08         0.00000E+00
    0.00000E+00         0.00000E+00        -0.58600E+08
 
   -0.58543E+08         0.77823E+06         0.00000E+00
    0.77823E+06        -0.96946E+08         0.00000E+00
    0.00000E+00         0.00000E+00        -0.58407E+08
 
   -0.58374E+08         0.76424E+06         0.00000E+00
    0.76424E+06        -0.96938E+08         0.00000E+00
    0.00000E+00         0.00000E+00        -0.58213E+08
 
   -0.58207E+08         0.74848E+06         0.00000E+00
    0.74848E+06        -0.96933E+08         0.00000E+00
    0.00000E+00         0.00000E+00        -0.58018E+08
 
   -0.58043E+08         0.73062E+06         0.00000E+00
    0.73062E+06        -0.96930E+08         0.00000E+00
    0.00000E+00         0.00000E+00        -0.57821E+08
 
   -0.57880E+08         0.71030E+06         0.00000E+00
    0.71030E+06        -0.96929E+08         0.00000E+00
    0.00000E+00         0.00000E+00        -0.57622E+08
 
   -0.57721E+08         0.68710E+06         0.00000E+00
    0.68710E+06        -0.96931E+08         0.00000E+00
    0.00000E+00         0.00000E+00        -0.57422E+08
 
   -0.57565E+08         0.66055E+06         0.00000E+00
    0.66055E+06        -0.96935E+08         0.00000E+00
    0.00000E+00         0.00000E+00        -0.57219E+08
 
   -0.57412E+08         0.63019E+06         0.00000E+00
    0.63019E+06        -0.96942E+08         0.00000E+00
    0.00000E+00         0.00000E+00        -0.57015E+08
 
   -0.57263E+08         0.59551E+06         0.00000E+00
    0.59551E+06        -0.96953E+08         0.00000E+00
    0.00000E+00         0.00000E+00        -0.56808E+08
 
   -0.57118E+08         0.55607E+06         0.00000E+00
    0.55607E+06        -0.96966E+08         0.00000E+00
    0.00000E+00         0.00000E+00        -0.56599E+08
 
   -0.56977E+08         0.51147E+06         0.00000E+00
    0.51147E+06        -0.96981E+08         0.00000E+00
    0.00000E+00         0.00000E+00        -0.56387E+08
 
   -0.56840E+08         0.46146E+06         0.00000E+00
    0.46146E+06        -0.96998E+08         0.00000E+00
    0.00000E+00         0.00000E+00        -0.56171E+08
 
   -0.56708E+08         0.40604E+06         0.00000E+00
    0.40604E+06        -0.97016E+08         0.00000E+00
    0.00000E+00         0.00000E+00        -0.55951E+08
 
   -0.56580E+08         0.34559E+06         0.00000E+00
    0.34559E+06        -0.97033E+08         0.00000E+00
    0.00000E+00         0.00000E+00        -0.55725E+08
 
   -0.56458E+08         0.28110E+06         0.00000E+00
    0.28110E+06        -0.97048E+08         0.00000E+00
    0.00000E+00         0.00000E+00        -0.55492E+08
 
   -0.56340E+08         0.21456E+06         0.00000E+00
    0.21456E+06        -0.97057E+08         0.00000E+00
    0.00000E+00         0.00000E+00        -0.55249E+08
 
   -0.56228E+08         0.14937E+06         0.00000E+00
    0.14937E+06        -0.97057E+08         0.00000E+00
    0.00000E+00         0.00000E+00        -0.54992E+08
 
   -0.56124E+08         0.90624E+05         0.00000E+00
    0.90624E+05        -0.97045E+08         0.00000E+00
    0.00000E+00         0.00000E+00        -0.54718E+08
 
   -0.56029E+08         0.44226E+05         0.00000E+00
    0.44226E+05        -0.97015E+08         0.00000E+00
    0.00000E+00         0.00000E+00        -0.54419E+08
 
   -0.55949E+08         0.14455E+05         0.00000E+00
    0.14455E+05        -0.96963E+08         0.00000E+00
    0.00000E+00         0.00000E+00        -0.54087E+08
 
   -0.55890E+08         0.12160E+04         0.00000E+00
    0.12160E+04        -0.96883E+08         0.00000E+00
    0.00000E+00         0.00000E+00        -0.53714E+08
 
   -0.55858E+08        -0.81459E+03         0.00000E+00
   -0.81459E+03        -0.96774E+08         0.00000E+00
    0.00000E+00         0.00000E+00        -0.53292E+08
 
   -0.74674E+08        -0.23134E+05         0.00000E+00
   -0.23134E+05        -0.97949E+08         0.00000E+00
    0.00000E+00         0.00000E+00        -0.78463E+08
 
   -0.74621E+08        -0.50728E+05         0.00000E+00
   -0.50728E+05        -0.97679E+08         0.00000E+00
    0.00000E+00         0.00000E+00        -0.78049E+08
 
   -0.74530E+08        -0.35318E+05         0.00000E+00
   -0.35318E+05        -0.97520E+08         0.00000E+00
    0.00000E+00         0.00000E+00        -0.77635E+08
 
   -0.74414E+08         0.23504E+05         0.00000E+00
    0.23504E+05        -0.97429E+08         0.00000E+00
    0.00000E+00         0.00000E+00        -0.77221E+08
 
   -0.74282E+08         0.11279E+06         0.00000E+00
    0.11279E+06        -0.97376E+08         0.00000E+00
    0.00000E+00         0.00000E+00        -0.76809E+08
 
   -0.74134E+08         0.21824E+06         0.00000E+00
    0.21824E+06        -0.97347E+08         0.00000E+00
    0.00000E+00         0.00000E+00        -0.76397E+08
 
   -0.73971E+08         0.32926E+06         0.00000E+00
    0.32926E+06        -0.97333E+08         0.00000E+00
    0.00000E+00         0.00000E+00        -0.75985E+08
 
   -0.73793E+08         0.43946E+06         0.00000E+00
    0.43946E+06        -0.97332E+08         0.00000E+00
    0.00000E+00         0.00000E+00        -0.75576E+08
 
   -0.73600E+08         0.54517E+06         0.00000E+00
    0.54517E+06        -0.97342E+08         0.00000E+00
    0.00000E+00         0.00000E+00        -0.75167E+08
 
   -0.73395E+08         0.64406E+06         0.00000E+00
    0.64406E+06        -0.97358E+08         0.00000E+00
    0.00000E+00         0.00000E+00        -0.74760E+08
 
   -0.73177E+08         0.73441E+06         0.00000E+00
    0.73441E+06        -0.97380E+08         0.00000E+00
    0.00000E+00         0.00000E+00        -0.74354E+08
 
   -0.72950E+08         0.81485E+06         0.00000E+00
    0.81485E+06        -0.97406E+08         0.00000E+00
    0.00000E+00         0.00000E+00        -0.73951E+08
 
   -0.72715E+08         0.88420E+06         0.00000E+00
    0.88420E+06        -0.97436E+08         0.00000E+00
    0.00000E+00         0.00000E+00        -0.73549E+08
 
   -0.72474E+08         0.94133E+06         0.00000E+00
    0.94133E+06        -0.97468E+08         0.00000E+00
    0.00000E+00         0.00000E+00        -0.73148E+08
 
   -0.72227E+08         0.98515E+06         0.00000E+00
    0.98515E+06        -0.97503E+08         0.00000E+00
    0.00000E+00         0.00000E+00        -0.72751E+08
 
   -0.71978E+08         0.10151E+07         0.00000E+00
    0.10151E+07        -0.97539E+08         0.00000E+00
    0.00000E+00         0.00000E+00        -0.72355E+08
 
   -0.71727E+08         0.10316E+07         0.00000E+00
    0.10316E+07        -0.97579E+08         0.00000E+00
    0.00000E+00         0.00000E+00        -0.71961E+08
 
   -0.71471E+08         0.10337E+07         0.00000E+00
    0.10337E+07        -0.97600E+08         0.00000E+00
    0.00000E+00         0.00000E+00        -0.71607E+08
 
   -0.71210E+08         0.10525E+07         0.00000E+00
    0.10525E+07        -0.97592E+08         0.00000E+00
    0.00000E+00         0.00000E+00        -0.71310E+08
 
   -0.70947E+08         0.10637E+07         0.00000E+00
    0.10637E+07        -0.97580E+08         0.00000E+00
    0.00000E+00         0.00000E+00        -0.71038E+08
 
   -0.70683E+08         0.10709E+07         0.00000E+00
    0.10709E+07        -0.97578E+08         0.00000E+00
    0.00000E+00         0.00000E+00        -0.70766E+08
 
   -0.70421E+08         0.10760E+07         0.00000E+00
    0.10760E+07        -0.97579E+08         0.00000E+00
    0.00000E+00         0.00000E+00        -0.70494E+08
 
   -0.70160E+08         0.10797E+07         0.00000E+00
    0.10797E+07        -0.97582E+08         0.00000E+00
    0.00000E+00         0.00000E+00        -0.70224E+08
 
   -0.69900E+08         0.10825E+07         0.00000E+00
    0.10825E+07        -0.97586E+08         0.00000E+00
    0.00000E+00         0.00000E+00        -0.69954E+08
 
   -0.69642E+08         0.10845E+07         0.00000E+00
    0.10845E+07        -0.97590E+08         0.00000E+00
    0.00000E+00         0.00000E+00        -0.69684E+08
 
   -0.69385E+08         0.10856E+07         0.00000E+00
    0.10856E+07        -0.97593E+08         0.00000E+00
    0.00000E+00         0.00000E+00        -0.69414E+08
 
   -0.69130E+08         0.10860E+07         0.00000E+00
    0.10860E+07        -0.97596E+08         0.00000E+00
    0.00000E+00         0.00000E+00        -0.69145E+08
 
   -0.68875E+08         0.10855E+07         0.00000E+00
    0.10855E+07        -0.97599E+08         0.00000E+00
    0.00000E+00         0.00000E+00        -0.68876E+08
 
   -0.68621E+08         0.10842E+07         0.00000E+00
    0.10842E+07        -0.97601E+08         0.00000E+00
    0.00000E+00         0.00000E+00        -0.68607E+08
 
   -0.68369E+08         0.10820E+07         0.00000E+00
    0.10820E+07        -0.97603E+08         0.00000E+00
    0.00000E+00         0.00000E+00        -0.68339E+08
 
   -0.68117E+08         0.10787E+07         0.00000E+00
    0.10787E+07        -0.97605E+08         0.00000E+00
    0.00000E+00         0.00000E+00        -0.68070E+08
 
   -0.67868E+08         0.10742E+07         0.00000E+00
    0.10742E+07        -0.97607E+08         0.00000E+00
    0.00000E+00         0.00000E+00        -0.67802E+08
 
   -0.67621E+08         0.10681E+07         0.00000E+00
    0.10681E+07        -0.97611E+08         0.00000E+00
    0.00000E+00         0.00000E+00        -0.67534E+08
 
   -0.67375E+08         0.10603E+07         0.00000E+00
    0.10603E+07        -0.97616E+08         0.00000E+00
    0.00000E+00         0.00000E+00        -0.67267E+08
 
   -0.67131E+08         0.10503E+07         0.00000E+00
    0.10503E+07        -0.97626E+08         0.00000E+00
    0.00000E+00         0.00000E+00        -0.66999E+08
 
   -0.66889E+08         0.10385E+07         0.00000E+00
    0.10385E+07        -0.97640E+08         0.00000E+00
    0.00000E+00         0.00000E+00        -0.66732E+08
 
   -0.66648E+08         0.10254E+07         0.00000E+00
    0.10254E+07        -0.97650E+08         0.00000E+00
    0.00000E+00         0.00000E+00        -0.66478E+08
 
   -0.66408E+08         0.10101E+07         0.00000E+00
    0.10101E+07        -0.97642E+08         0.00000E+00
    0.00000E+00         0.00000E+00        -0.66250E+08
 
   -0.66169E+08         0.99619E+06         0.00000E+00
    0.99619E+06        -0.97629E+08         0.00000E+00
    0.00000E+00         0.00000E+00        -0.66033E+08
 
   -0.65933E+08         0.98421E+06         0.00000E+00
    0.98421E+06        -0.97621E+08         0.00000E+00
    0.00000E+00         0.00000E+00        -0.65817E+08
 
   -0.65699E+08         0.97408E+06         0.00000E+00
    0.97408E+06        -0.97616E+08         0.00000E+00
    0.00000E+00         0.00000E+00        -0.65601E+08
 
   -0.65467E+08         0.96548E+06         0.00000E+00
    0.96548E+06        -0.97613E+08         0.00000E+00
    0.00000E+00         0.00000E+00        -0.65386E+08
 
   -0.65239E+08         0.95809E+06         0.00000E+00
    0.95809E+06        -0.97611E+08         0.00000E+00
    0.00000E+00         0.00000E+00        -0.65171E+08
 
   -0.65012E+08         0.95160E+06         0.00000E+00
    0.95160E+06        -0.97610E+08         0.00000E+00
    0.00000E+00         0.00000E+00        -0.64956E+08
 
   -0.64788E+08         0.94581E+06         0.00000E+00
    0.94581E+06        -0.97610E+08         0.00000E+00
    0.00000E+00         0.00000E+00        -0.64742E+08
 
   -0.64566E+08         0.94056E+06         0.00000E+00
    0.94056E+06        -0.97609E+08         0.00000E+00
    0.00000E+00         0.00000E+00        -0.64529E+08
 
   -0.64345E+08         0.93572E+06         0.00000E+00
    0.93572E+06        -0.97609E+08         0.00000E+00
    0.00000E+00         0.00000E+00        -0.64316E+08
 
   -0.64131E+08         0.93092E+06         0.00000E+00
    0.93092E+06        -0.97603E+08         0.00000E+00
    0.00000E+00         0.00000E+00        -0.64109E+08
 
   -0.63936E+08         0.92550E+06         0.00000E+00
    0.92550E+06        -0.97583E+08         0.00000E+00
    0.00000E+00         0.00000E+00        -0.63919E+08
 
   -0.63748E+08         0.91997E+06         0.00000E+00
    0.91997E+06        -0.97555E+08         0.00000E+00
    0.00000E+00         0.00000E+00        -0.63737E+08
 
   -0.63561E+08         0.91465E+06         0.00000E+00
    0.91465E+06        -0.97529E+08         0.00000E+00
    0.00000E+00         0.00000E+00        -0.63554E+08
 
   -0.63375E+08         0.90950E+06         0.00000E+00
    0.90950E+06        -0.97502E+08         0.00000E+00
    0.00000E+00         0.00000E+00        -0.63372E+08
 
   -0.63190E+08         0.90450E+06         0.00000E+00
    0.90450E+06        -0.97475E+08         0.00000E+00
    0.00000E+00         0.00000E+00        -0.63190E+08
 
   -0.63006E+08         0.89962E+06         0.00000E+00
    0.89962E+06        -0.97449E+08         0.00000E+00
    0.00000E+00         0.00000E+00        -0.63009E+08
 
   -0.62822E+08         0.89484E+06         0.00000E+00
    0.89484E+06        -0.97423E+08         0.00000E+00
    0.00000E+00         0.00000E+00        -0.62827E+08
 
   -0.62639E+08         0.89013E+06         0.00000E+00
    0.89013E+06        -0.97397E+08         0.00000E+00
    0.00000E+00         0.00000E+00        -0.62646E+08
 
   -0.62456E+08         0.88548E+06         0.00000E+00
    0.88548E+06        -0.97371E+08         0.00000E+00
    0.00000E+00         0.00000E+00        -0.62465E+08
 
   -0.62273E+08         0.88086E+06         0.00000E+00
    0.88086E+06        -0.97346E+08         0.00000E+00
    0.00000E+00         0.00000E+00        -0.62284E+08
 
   -0.62092E+08         0.87625E+06         0.00000E+00
    0.87625E+06        -0.97321E+08         0.00000E+00
    0.00000E+00         0.00000E+00        -0.62103E+08
 
   -0.61910E+08         0.87164E+06         0.00000E+00
    0.87164E+06        -0.97296E+08         0.00000E+00
    0.00000E+00         0.00000E+00        -0.61922E+08
 
   -0.61729E+08         0.86701E+06         0.00000E+00
    0.86701E+06        -0.97272E+08         0.00000E+00
    0.00000E+00         0.00000E+00        -0.61741E+08
 
   -0.61548E+08         0.86233E+06         0.00000E+00
    0.86233E+06        -0.97248E+08         0.00000E+00
    0.00000E+00         0.00000E+00        -0.61559E+08
 
   -0.61368E+08         0.85758E+06         0.00000E+00
    0.85758E+06        -0.97224E+08         0.00000E+00
    0.00000E+00         0.00000E+00        -0.61378E+08
 
   -0.61188E+08         0.85274E+06         0.00000E+00
    0.85274E+06        -0.97201E+08         0.00000E+00
    0.00000E+00         0.00000E+00        -0.61197E+08
 
   -0.61008E+08         0.84779E+06         0.00000E+00
    0.84779E+06        -0.97179E+08         0.00000E+00
    0.00000E+00         0.00000E+00        -0.61015E+08
 
   -0.60829E+08         0.84270E+06         0.00000E+00
    0.84270E+06        -0.97157E+08         0.00000E+00
    0.00000E+00         0.00000E+00        -0.60833E+08
 
   -0.60650E+08         0.83744E+06         0.00000E+00
    0.83744E+06        -0.97136E+08         0.00000E+00
    0.00000E+00         0.00000E+00        -0.60650E+08
 
   -0.60471E+08         0.83199E+06         0.00000E+00
    0.83199E+06        -0.97115E+08         0.00000E+00
    0.00000E+00         0.00000E+00        -0.60467E+08
 
   -0.60293E+08         0.82630E+06         0.00000E+00
    0.82630E+06        -0.97095E+08         0.00000E+00
    0.00000E+00         0.00000E+00        -0.60284E+08
 
   -0.60115E+08         0.82034E+06         0.00000E+00
    0.82034E+06        -0.97076E+08         0.00000E+00
    0.00000E+00         0.00000E+00        -0.60100E+08
 
   -0.59937E+08         0.81406E+06         0.00000E+00
    0.81406E+06        -0.97057E+08         0.00000E+00
    0.00000E+00         0.00000E+00        -0.59915E+08
 
   -0.59760E+08         0.80742E+06         0.00000E+00
    0.80742E+06        -0.97039E+08         0.00000E+00
    0.00000E+00         0.00000E+00        -0.59729E+08
 
   -0.59584E+08         0.80034E+06         0.00000E+00
    0.80034E+06        -0.97023E+08         0.00000E+00
    0.00000E+00         0.00000E+00        -0.59543E+08
 
   -0.59408E+08         0.79275E+06         0.00000E+00
    0.79275E+06        -0.97007E+08         0.00000E+00
    0.00000E+00         0.00000E+00        -0.59356E+08
 
   -0.59233E+08         0.78455E+06         0.00000E+00
    0.78455E+06        -0.96992E+08         0.00000E+00
    0.00000E+00         0.00000E+00        -0.59168E+08
 
   -0.59059E+08         0.77565E+06         0.00000E+00
    0.77565E+06        -0.96978E+08         0.00000E+00
    0.00000E+00         0.00000E+00        -0.58979E+08
 
   -0.58885E+08         0.76590E+06         0.00000E+00
    0.76590E+06        -0.96966E+08         0.00000E+00
    0.00000E+00         0.00000E+00        -0.58789E+08
 
   -0.58714E+08         0.75514E+06         0.00000E+00
    0.75514E+06        -0.96955E+08         0.00000E+00
    0.00000E+00         0.00000E+00        -0.58597E+08
 
   -0.58543E+08         0.74318E+06         0.00000E+00
    0.74318E+06        -0.96945E+08         0.00000E+00
    0.00000E+00         0.00000E+00        -0.58404E+08
 
   -0.58375E+08         0.72979E+06         0.00000E+00
    0.72979E+06        -0.96938E+08         0.00000E+00
    0.00000E+00         0.00000E+00        -0.58210E+08
 
   -0.58208E+08         0.71468E+06         0.00000E+00
    0.71468E+06        -0.96932E+08         0.00000E+00
    0.00000E+00         0.00000E+00        -0.58014E+08
 
   -0.58043E+08         0.69755E+06         0.00000E+00
    0.69755E+06        -0.96928E+08         0.00000E+00
    0.00000E+00         0.00000E+00        -0.57816E+08
 
   -0.57882E+08         0.67801E+06         0.00000E+00
    0.67801E+06        -0.96926E+08         0.00000E+00
    0.00000E+00         0.00000E+00        -0.57617E+08
 
   -0.57723E+08         0.65566E+06         0.00000E+00
    0.65566E+06        -0.96927E+08         0.00000E+00
    0.00000E+00         0.00000E+00        -0.57415E+08
 
   -0.57567E+08         0.63004E+06         0.00000E+00
    0.63004E+06        -0.96931E+08         0.00000E+00
    0.00000E+00         0.00000E+00        -0.57212E+08
 
   -0.57415E+08         0.60066E+06         0.00000E+00
    0.60066E+06        -0.96937E+08         0.00000E+00
    0.00000E+00         0.00000E+00        -0.57006E+08
 
   -0.57267E+08         0.56703E+06         0.00000E+00
    0.56703E+06        -0.96947E+08         0.00000E+00
    0.00000E+00         0.00000E+00        -0.56797E+08
 
   -0.57123E+08         0.52869E+06         0.00000E+00
    0.52869E+06        -0.96958E+08         0.00000E+00
    0.00000E+00         0.00000E+00        -0.56586E+08
 
   -0.56983E+08         0.48525E+06         0.00000E+00
    0.48525E+06        -0.96973E+08         0.00000E+00
    0.00000E+00         0.00000E+00        -0.56372E+08
 
   -0.56848E+08         0.43646E+06         0.00000E+00
    0.43646E+06        -0.96989E+08         0.00000E+00
    0.00000E+00         0.00000E+00        -0.56153E+08
 
   -0.56718E+08         0.38231E+06         0.00000E+00
    0.38231E+06        -0.97005E+08         0.00000E+00
    0.00000E+00         0.00000E+00        -0.55930E+08
 
   -0.56594E+08         0.32320E+06         0.00000E+00
    0.32320E+06        -0.97022E+08         0.00000E+00
    0.00000E+00         0.00000E+00        -0.55701E+08
 
   -0.56474E+08         0.26013E+06         0.00000E+00
    0.26013E+06        -0.97036E+08         0.00000E+00
    0.00000E+00         0.00000E+00        -0.55464E+08
 
   -0.56361E+08         0.19511E+06         0.00000E+00
    0.19511E+06        -0.97045E+08         0.00000E+00
    0.00000E+00         0.00000E+00        -0.55218E+08
 
   -0.56254E+08         0.13158E+06         0.00000E+00
    0.13158E+06        -0.97047E+08         0.00000E+00
    0.00000E+00         0.00000E+00        -0.54958E+08
 
   -0.56154E+08         0.74700E+05         0.00000E+00
    0.74700E+05        -0.97037E+08         0.00000E+00
    0.00000E+00         0.00000E+00        -0.54682E+08
 
   -0.56064E+08         0.30595E+05         0.00000E+00
    0.30595E+05        -0.97010E+08         0.00000E+00
    0.00000E+00         0.00000E+00        -0.54383E+08
 
   -0.55986E+08         0.38375E+04         0.00000E+00
    0.38375E+04        -0.96962E+08         0.00000E+00
    0.00000E+00         0.00000E+00        -0.54052E+08
 
   -0.55929E+08        -0.55677E+04         0.00000E+00
   -0.55677E+04        -0.96886E+08         0.00000E+00
    0.00000E+00         0.00000E+00        -0.53681E+08
 
   -0.55897E+08        -0.31496E+04         0.00000E+00
   -0.31496E+04        -0.96779E+08         0.00000E+00
    0.00000E+00         0.00000E+00        -0.53261E+08
 
   -0.74564E+08        -0.28843E+05         0.00000E+00
   -0.28843E+05        -0.97939E+08         0.00000E+00
    0.00000E+00         0.00000E+00        -0.78463E+08
 
   -0.74514E+08        -0.65861E+05         0.00000E+00
   -0.65861E+05        -0.97677E+08         0.00000E+00
    0.00000E+00         0.00000E+00        -0.78049E+08
 
   -0.74427E+08        -0.56147E+05         0.00000E+00
   -0.56147E+05        -0.97527E+08         0.00000E+00
    0.00000E+00         0.00000E+00        -0.77635E+08
 
   -0.74318E+08        -0.76748E+03         0.00000E+00
   -0.76748E+03        -0.97444E+08         0.00000E+00
    0.00000E+00         0.00000E+00        -0.77221E+08
 
   -0.74195E+08         0.85664E+05         0.00000E+00
    0.85664E+05        -0.97396E+08         0.00000E+00
    0.00000E+00         0.00000E+00        -0.76809E+08
 
   -0.74057E+08         0.18814E+06         0.00000E+00
    0.18814E+06        -0.97368E+08         0.00000E+00
    0.00000E+00         0.00000E+00        -0.76397E+08
 
   -0.73903E+08         0.29602E+06         0.00000E+00
    0.29602E+06        -0.97355E+08         0.00000E+00
    0.00000E+00         0.00000E+00        -0.75985E+08
 
   -0.73734E+08         0.40310E+06         0.00000E+00
    0.40310E+06        -0.97354E+08         0.00000E+00
    0.00000E+00         0.00000E+00        -0.75576E+08
 
   -0.73548E+08         0.50595E+06         0.00000E+00
    0.50595E+06        -0.97362E+08         0.00000E+00
    0.00000E+00         0.00000E+00        -0.75167E+08
 
   -0.73349E+08         0.60232E+06         0.00000E+00
    0.60232E+06        -0.97377E+08         0.00000E+00
    0.00000E+00         0.00000E+00        -0.74760E+08
 
   -0.73138E+08         0.69049E+06         0.00000E+00
    0.69049E+06        -0.97397E+08         0.00000E+00
    0.00000E+00         0.00000E+00        -0.74354E+08
 
   -0.72916E+08         0.76908E+06         0.00000E+00
    0.76908E+06        -0.97421E+08         0.00000E+00
    0.00000E+00         0.00000E+00        -0.73951E+08
 
   -0.72686E+08         0.83688E+06         0.00000E+00
    0.83688E+06        -0.97448E+08         0.00000E+00
    0.00000E+00         0.00000E+00        -0.73549E+08
 
   -0.72448E+08         0.89278E+06         0.00000E+00
    0.89278E+06        -0.97478E+08         0.00000E+00
    0.00000E+00         0.00000E+00        -0.73148E+08
 
   -0.72205E+08         0.93576E+06         0.00000E+00
    0.93576E+06        -0.97510E+08         0.00000E+00
    0.00000E+00         0.00000E+00        -0.72751E+08
 
   -0.71958E+08         0.96542E+06         0.00000E+00
    0.96542E+06        -0.97544E+08         0.00000E+00
    0.00000E+00         0.00000E+00        -0.72355E+08
 
   -0.71709E+08         0.98148E+06         0.00000E+00
    0.98148E+06        -0.97581E+08         0.00000E+00
    0.00000E+00         0.00000E+00        -0.71961E+08
 
   -0.71456E+08         0.98226E+06         0.00000E+00
    0.98226E+06        -0.97601E+08         0.00000E+00
    0.00000E+00         0.00000E+00        -0.71602E+08
 
   -0.71198E+08         0.10000E+07         0.00000E+00
    0.10000E+07        -0.97594E+08         0.00000E+00
    0.00000E+00         0.00000E+00        -0.71301E+08
 
   -0.70935E+08         0.10109E+07         0.00000E+00
    0.10109E+07        -0.97582E+08         0.00000E+00
    0.00000E+00         0.00000E+00        -0.71027E+08
 
   -0.70673E+08         0.10184E+07         0.00000E+00
    0.10184E+07        -0.97579E+08         0.00000E+00
    0.00000E+00         0.00000E+00        -0.70754E+08
 
   -0.70411E+08         0.10237E+07         0.00000E+00
    0.10237E+07        -0.97580E+08         0.00000E+00
    0.00000E+00         0.00000E+00        -0.70482E+08
 
   -0.70150E+08         0.10277E+07         0.00000E+00
    0.10277E+07        -0.97583E+08         0.00000E+00
    0.00000E+00         0.00000E+00        -0.70211E+08
 
   -0.69891E+08         0.10308E+07         0.00000E+00
    0.10308E+07        -0.97587E+08         0.00000E+00
    0.00000E+00         0.00000E+00        -0.69941E+08
 
   -0.69633E+08         0.10330E+07         0.00000E+00
    0.10330E+07        -0.97590E+08         0.00000E+00
    0.00000E+00         0.00000E+00        -0.69671E+08
 
   -0.69376E+08         0.10344E+07         0.00000E+00
    0.10344E+07        -0.97594E+08         0.00000E+00
    0.00000E+00         0.00000E+00        -0.69402E+08
 
   -0.69121E+08         0.10349E+07         0.00000E+00
    0.10349E+07        -0.97596E+08         0.00000E+00
    0.00000E+00         0.00000E+00        -0.69133E+08
 
   -0.68866E+08         0.10347E+07         0.00000E+00
    0.10347E+07        -0.97599E+08         0.00000E+00
    0.00000E+00         0.00000E+00        -0.68864E+08
 
   -0.68613E+08         0.10336E+07         0.00000E+00
    0.10336E+07        -0.97600E+08         0.00000E+00
    0.00000E+00         0.00000E+00        -0.68596E+08
 
   -0.68361E+08         0.10316E+07         0.00000E+00
    0.10316E+07        -0.97602E+08         0.00000E+00
    0.00000E+00         0.00000E+00        -0.68327E+08
 
   -0.68110E+08         0.10286E+07         0.00000E+00
    0.10286E+07        -0.97604E+08         0.00000E+00
    0.00000E+00         0.00000E+00        -0.68059E+08
 
   -0.67861E+08         0.10245E+07         0.00000E+00
    0.10245E+07        -0.97606E+08         0.00000E+00
    0.00000E+00         0.00000E+00        -0.67792E+08
 
   -0.67613E+08         0.10189E+07         0.00000E+00
    0.10189E+07        -0.97609E+08         0.00000E+00
    0.00000E+00         0.00000E+00        -0.67524E+08
 
   -0.67368E+08         0.10114E+07         0.00000E+00
    0.10114E+07        -0.97615E+08         0.00000E+00
    0.00000E+00         0.00000E+00        -0.67257E+08
 
   -0.67125E+08         0.10018E+07         0.00000E+00
    0.10018E+07        -0.97624E+08         0.00000E+00
    0.00000E+00         0.00000E+00        -0.66990E+08
 
   -0.66883E+08         0.99024E+06         0.00000E+00
    0.99024E+06        -0.97638E+08         0.00000E+00
    0.00000E+00         0.00000E+00        -0.66724E+08
 
   -0.66642E+08         0.97724E+06         0.00000E+00
    0.97724E+06        -0.97647E+08         0.00000E+00
    0.00000E+00         0.00000E+00        -0.66470E+08
 
   -0.66402E+08         0.96222E+06         0.00000E+00
    0.96222E+06        -0.97639E+08         0.00000E+00
    0.00000E+00         0.00000E+00        -0.66242E+08
 
   -0.66164E+08         0.94869E+06         0.00000E+00
    0.94869E+06        -0.97627E+08         0.00000E+00
    0.00000E+00         0.00000E+00        -0.66026E+08
 
   -0.65928E+08         0.93718E+06         0.00000E+00
    0.93718E+06        -0.97619E+08         0.00000E+00
    0.00000E+00         0.00000E+00        -0.65810E+08
 
   -0.65694E+08         0.92757E+06         0.00000E+00
    0.92757E+06        -0.97614E+08         0.00000E+00
    0.00000E+00         0.00000E+00        -0.65595E+08
 
   -0.65463E+08         0.91951E+06         0.00000E+00
    0.91951E+06        -0.97612E+08         0.00000E+00
    0.00000E+00         0.00000E+00        -0.65380E+08
 
   -0.65235E+08         0.91262E+06         0.00000E+00
    0.91262E+06        -0.97610E+08         0.00000E+00
    0.00000E+00         0.00000E+00        -0.65165E+08
 
   -0.65009E+08         0.90659E+06         0.00000E+00
    0.90659E+06        -0.97609E+08         0.00000E+00
    0.00000E+00         0.00000E+00        -0.64951E+08
 
   -0.64785E+08         0.90120E+06         0.00000E+00
    0.90120E+06        -0.97608E+08         0.00000E+00
    0.00000E+00         0.00000E+00        -0.64738E+08
 
   -0.64563E+08         0.89630E+06         0.00000E+00
    0.89630E+06        -0.97608E+08         0.00000E+00
    0.00000E+00         0.00000E+00        -0.64525E+08
 
   -0.64342E+08         0.89177E+06         0.00000E+00
    0.89177E+06        -0.97608E+08         0.00000E+00
    0.00000E+00         0.00000E+00        -0.64312E+08
 
   -0.64129E+08         0.88725E+06         0.00000E+00
    0.88725E+06        -0.97602E+08         0.00000E+00
    0.00000E+00         0.00000E+00        -0.64105E+08
 
   -0.63934E+08         0.88213E+06         0.00000E+00
    0.88213E+06        -0.97581E+08         0.00000E+00
    0.00000E+00         0.00000E+00        -0.63916E+08
 
   -0.63746E+08         0.87690E+06         0.00000E+00
    0.87690E+06        -0.97555E+08         0.00000E+00
    0.00000E+00         0.00000E+00        -0.63734E+08
 
   -0.63559E+08         0.87186E+06         0.00000E+00
    0.87186E+06        -0.97528E+08         0.00000E+00
    0.00000E+00         0.00000E+00        -0.63551E+08
 
   -0.63373E+08         0.86697E+06         0.00000E+00
    0.86697E+06        -0.97501E+08         0.00000E+00
    0.00000E+00         0.00000E+00        -0.63369E+08
 
   -0.63188E+08         0.86222E+06         0.00000E+00
    0.86222E+06        -0.97475E+08         0.00000E+00
    0.00000E+00         0.00000E+00        -0.63188E+08
 
   -0.63004E+08         0.85758E+06         0.00000E+00
    0.85758E+06        -0.97449E+08         0.00000E+00
    0.00000E+00         0.00000E+00        -0.63006E+08
 
   -0.62820E+08         0.85302E+06         0.00000E+00
    0.85302E+06        -0.97423E+08         0.00000E+00
    0.00000E+00         0.00000E+00        -0.62825E+08
 
   -0.62636E+08         0.84854E+06         0.00000E+00
    0.84854E+06        -0.97397E+08         0.00000E+00
    0.00000E+00         0.00000E+00        -0.62644E+08
 
   -0.62454E+08         0.84410E+06         0.00000E+00
    0.84410E+06        -0.97371E+08         0.00000E+00
    0.00000E+00         0.00000E+00        -0.62463E+08
 
   -0.62271E+08         0.83969E+06         0.00000E+00
    0.83969E+06        -0.97346E+08         0.00000E+00
    0.00000E+00         0.00000E+00        -0.62282E+08
 
   -0.62090E+08         0.83530E+06         0.00000E+00
    0.83530E+06        -0.97321E+08         0.00000E+00
    0.00000E+00         0.00000E+00        -0.62101E+08
 
   -0.61908E+08         0.83089E+06         0.00000E+00
    0.83089E+06        -0.97296E+08         0.00000E+00
    0.00000E+00         0.00000E+00        -0.61920E+08
 
   -0.61727E+08         0.82646E+06         0.00000E+00
    0.82646E+06        -0.97272E+08         0.00000E+00
    0.00000E+00         0.00000E+00        -0.61739E+08
 
   -0.61547E+08         0.82199E+06         0.00000E+00
    0.82199E+06        -0.97248E+08         0.00000E+00
    0.00000E+00         0.00000E+00        -0.61558E+08
 
   -0.61366E+08         0.81745E+06         0.00000E+00
    0.81745E+06        -0.97225E+08         0.00000E+00
    0.00000E+00         0.00000E+00        -0.61377E+08
 
   -0.61186E+08         0.81282E+06         0.00000E+00
    0.81282E+06        -0.97202E+08         0.00000E+00
    0.00000E+00         0.00000E+00        -0.61195E+08
 
   -0.61007E+08         0.80809E+06         0.00000E+00
    0.80809E+06        -0.97180E+08         0.00000E+00
    0.00000E+00         0.00000E+00        -0.61014E+08
 
   -0.60827E+08         0.80322E+06         0.00000E+00
    0.80322E+06        -0.97158E+08         0.00000E+00
    0.00000E+00         0.00000E+00        -0.60831E+08
 
   -0.60648E+08         0.79819E+06         0.00000E+00
    0.79819E+06        -0.97137E+08         0.00000E+00
    0.00000E+00         0.00000E+00        -0.60649E+08
 
   -0.60470E+08         0.79297E+06         0.00000E+00
    0.79297E+06        -0.97116E+08         0.00000E+00
    0.00000E+00         0.00000E+00        -0.60466E+08
 
   -0.60291E+08         0.78753E+06         0.00000E+00
    0.78753E+06        -0.97096E+08         0.00000E+00
    0.00000E+00         0.00000E+00        -0.60283E+08
 
   -0.60114E+08         0.78183E+06         0.00000E+00
    0.78183E+06        -0.97077E+08         0.00000E+00
    0.00000E+00         0.00000E+00        -0.60098E+08
 
   -0.59936E+08         0.77583E+06         0.00000E+00
    0.77583E+06        -0.97058E+08         0.00000E+00
    0.00000E+00         0.00000E+00        -0.59914E+08
 
   -0.59759E+08         0.76948E+06         0.00000E+00
    0.76948E+06        -0.97040E+08         0.00000E+00
    0.00000E+00         0.00000E+00        -0.59728E+08
 
   -0.59583E+08         0.76271E+06         0.00000E+00
    0.76271E+06        -0.97023E+08         0.00000E+00
    0.00000E+00         0.00000E+00        -0.59542E+08
 
   -0.59407E+08         0.75547E+06         0.00000E+00
    0.75547E+06        -0.97008E+08         0.00000E+00
    0.00000E+00         0.00000E+00        -0.59355E+08
 
   -0.59232E+08         0.74765E+06         0.00000E+00
    0.74765E+06        -0.96993E+08         0.00000E+00
    0.00000E+00         0.00000E+00        -0.59166E+08
 
   -0.59058E+08         0.73915E+06         0.00000E+00
    0.73915E+06        -0.96979E+08         0.00000E+00
    0.00000E+00         0.00000E+00        -0.58977E+08
 
   -0.58885E+08         0.72985E+06         0.00000E+00
    0.72985E+06        -0.96966E+08         0.00000E+00
    0.00000E+00         0.00000E+00        -0.58786E+08
 
   -0.58714E+08         0.71958E+06         0.00000E+00
    0.71958E+06        -0.96955E+08         0.00000E+00
    0.00000E+00         0.00000E+00        -0.58595E+08
 
   -0.58543E+08         0.70816E+06         0.00000E+00
    0.70816E+06        -0.96945E+08         0.00000E+00
    0.00000E+00         0.00000E+00        -0.58401E+08
 
   -0.58375E+08         0.69537E+06         0.00000E+00
    0.69537E+06        -0.96937E+08         0.00000E+00
    0.00000E+00         0.00000E+00        -0.58206E+08
 
   -0.58209E+08         0.68092E+06         0.00000E+00
    0.68092E+06        -0.96931E+08         0.00000E+00
    0.00000E+00         0.00000E+00        -0.58010E+08
 
   -0.58044E+08         0.66451E+06         0.00000E+00
    0.66451E+06        -0.96926E+08         0.00000E+00
    0.00000E+00         0.00000E+00        -0.57812E+08
 
   -0.57883E+08         0.64577E+06         0.00000E+00
    0.64577E+06        -0.96924E+08         0.00000E+00
    0.00000E+00         0.00000E+00        -0.57611E+08
 
   -0.57724E+08         0.62429E+06         0.00000E+00
    0.62429E+06        -0.96924E+08         0.00000E+00
    0.00000E+00         0.00000E+00        -0.57409E+08
 
   -0.57569E+08         0.59961E+06         0.00000E+00
    0.59961E+06        -0.96927E+08         0.00000E+00
    0.00000E+00         0.00000E+00        -0.57204E+08
 
   -0.57418E+08         0.57125E+06         0.00000E+00
    0.57125E+06        -0.96933E+08         0.00000E+00
    0.00000E+00         0.00000E+00        -0.56997E+08
 
   -0.57271E+08         0.53872E+06         0.00000E+00
    0.53872E+06        -0.96941E+08         0.00000E+00
    0.00000E+00         0.00000E+00        -0.56787E+08
 
   -0.57128E+08         0.50155E+06         0.00000E+00
    0.50155E+06        -0.96951E+08         0.00000E+00
    0.00000E+00         0.00000E+00        -0.56573E+08
 
   -0.56990E+08         0.45934E+06         0.00000E+00
    0.45934E+06        -0.96964E+08         0.00000E+00
    0.00000E+00         0.00000E+00        -0.56357E+08
 
   -0.56857E+08         0.41186E+06         0.00000E+00
    0.41186E+06        -0.96979E+08         0.00000E+00
    0.00000E+00         0.00000E+00        -0.56136E+08
 
   -0.56729E+08         0.35910E+06         0.00000E+00
    0.35910E+06        -0.96995E+08         0.00000E+00
    0.00000E+00         0.00000E+00        -0.55909E+08
 
   -0.56607E+08         0.30146E+06         0.00000E+00
    0.30146E+06        -0.97010E+08         0.00000E+00
    0.00000E+00         0.00000E+00        -0.55677E+08
 
   -0.56492E+08         0.23997E+06         0.00000E+00
    0.23997E+06        -0.97024E+08         0.00000E+00
    0.00000E+00         0.00000E+00        -0.55437E+08
 
   -0.56382E+08         0.17662E+06         0.00000E+00
    0.17662E+06        -0.97033E+08         0.00000E+00
    0.00000E+00         0.00000E+00        -0.55186E+08
 
   -0.56280E+08         0.11482E+06         0.00000E+00
    0.11482E+06        -0.97036E+08         0.00000E+00
    0.00000E+00         0.00000E+00        -0.54924E+08
 
   -0.56185E+08         0.59749E+05         0.00000E+00
    0.59749E+05        -0.97028E+08         0.00000E+00
    0.00000E+00         0.00000E+00        -0.54646E+08
 
   -0.56099E+08         0.17727E+05         0.00000E+00
    0.17727E+05        -0.97006E+08         0.00000E+00
    0.00000E+00         0.00000E+00        -0.54346E+08
 
   -0.56024E+08        -0.63122E+04         0.00000E+00
   -0.63122E+04        -0.96962E+08         0.00000E+00
    0.00000E+00         0.00000E+00        -0.54017E+08
 
   -0.55968E+08        -0.12136E+05         0.00000E+00
   -0.12136E+05        -0.96889E+08         0.00000E+00
    0.00000E+00         0.00000E+00        -0.53648E+08
 
   -0.55938E+08        -0.54282E+04         0.00000E+00
   -0.54282E+04        -0.96784E+08         0.00000E+00
    0.00000E+00         0.00000E+00        -0.53230E+08
 
   -0.74453E+08        -0.34429E+05         0.00000E+00
   -0.34429E+05        -0.97927E+08         0.00000E+00
    0.00000E+00         0.00000E+00        -0.78463E+08
 
   -0.74404E+08        -0.80406E+05         0.00000E+00
   -0.80406E+05        -0.97673E+08         0.00000E+00
    0.00000E+00         0.00000E+00        -0.78049E+08
 
   -0.74323E+08        -0.75703E+05         0.00000E+00
   -0.75703E+05        -0.97534E+08         0.00000E+00
    0.00000E+00         0.00000E+00        -0.77635E+08
 
   -0.74222E+08        -0.23287E+05         0.00000E+00
   -0.23287E+05        -0.97458E+08         0.00000E+00
    0.00000E+00         0.00000E+00        -0.77221E+08
 
   -0.74109E+08         0.60483E+05         0.00000E+00
    0.60483E+05        -0.97415E+08         0.00000E+00
    0.00000E+00         0.00000E+00        -0.76809E+08
 
   -0.73980E+08         0.15998E+06         0.00000E+00
    0.15998E+06        -0.97389E+08         0.00000E+00
    0.00000E+00         0.00000E+00        -0.76397E+08
 
   -0.73836E+08         0.26455E+06         0.00000E+00
    0.26455E+06        -0.97376E+08         0.00000E+00
    0.00000E+00         0.00000E+00        -0.75985E+08
 
   -0.73675E+08         0.36834E+06         0.00000E+00
    0.36834E+06        -0.97375E+08         0.00000E+00
    0.00000E+00         0.00000E+00        -0.75576E+08
 
   -0.73497E+08         0.46816E+06         0.00000E+00
    0.46816E+06        -0.97382E+08         0.00000E+00
    0.00000E+00         0.00000E+00        -0.75167E+08
 
   -0.73305E+08         0.56185E+06         0.00000E+00
    0.56185E+06        -0.97395E+08         0.00000E+00
    0.00000E+00         0.00000E+00        -0.74760E+08
 
   -0.73100E+08         0.64768E+06         0.00000E+00
    0.64768E+06        -0.97414E+08         0.00000E+00
    0.00000E+00         0.00000E+00        -0.74354E+08
 
   -0.72883E+08         0.72426E+06         0.00000E+00
    0.72426E+06        -0.97436E+08         0.00000E+00
    0.00000E+00         0.00000E+00        -0.73951E+08
 
   -0.72657E+08         0.79037E+06         0.00000E+00
    0.79037E+06        -0.97461E+08         0.00000E+00
    0.00000E+00         0.00000E+00        -0.73549E+08
 
   -0.72423E+08         0.84493E+06         0.00000E+00
    0.84493E+06        -0.97488E+08         0.00000E+00
    0.00000E+00         0.00000E+00        -0.73148E+08
 
   -0.72182E+08         0.88697E+06         0.00000E+00
    0.88697E+06        -0.97517E+08         0.00000E+00
    0.00000E+00         0.00000E+00        -0.72751E+08
 
   -0.71938E+08         0.91617E+06         0.00000E+00
    0.91617E+06        -0.97548E+08         0.00000E+00
    0.00000E+00         0.00000E+00        -0.72355E+08
 
   -0.71692E+08         0.93185E+06         0.00000E+00
    0.93185E+06        -0.97582E+08         0.00000E+00
    0.00000E+00         0.00000E+00        -0.71961E+08
 
   -0.71442E+08         0.93139E+06         0.00000E+00
    0.93139E+06        -0.97603E+08         0.00000E+00
    0.00000E+00         0.00000E+00        -0.71598E+08
 
   -0.71185E+08         0.94779E+06         0.00000E+00
    0.94779E+06        -0.97597E+08         0.00000E+00
    0.00000E+00         0.00000E+00        -0.71291E+08
 
   -0.70924E+08         0.95832E+06         0.00000E+00
    0.95832E+06        -0.97584E+08         0.00000E+00
    0.00000E+00         0.00000E+00        -0.71016E+08
 
   -0.70662E+08         0.96597E+06         0.00000E+00
    0.96597E+06        -0.97580E+08         0.00000E+00
    0.00000E+00         0.00000E+00        -0.70742E+08
 
   -0.70401E+08         0.97152E+06         0.00000E+00
    0.97152E+06        -0.97581E+08         0.00000E+00
    0.00000E+00         0.00000E+00        -0.70470E+08
 
   -0.70141E+08         0.97575E+06         0.00000E+00
    0.97575E+06        -0.97584E+08         0.00000E+00
    0.00000E+00         0.00000E+00        -0.70199E+08
 
   -0.69882E+08         0.97911E+06         0.00000E+00
    0.97911E+06        -0.97587E+08         0.00000E+00
    0.00000E+00         0.00000E+00        -0.69928E+08
 
   -0.69624E+08         0.98159E+06         0.00000E+00
    0.98159E+06        -0.97591E+08         0.00000E+00
    0.00000E+00         0.00000E+00        -0.69659E+08
 
   -0.69368E+08         0.98320E+06         0.00000E+00
    0.98320E+06        -0.97594E+08         0.00000E+00
    0.00000E+00         0.00000E+00        -0.69389E+08
 
   -0.69113E+08         0.98396E+06         0.00000E+00
    0.98396E+06        -0.97596E+08         0.00000E+00
    0.00000E+00         0.00000E+00        -0.69121E+08
 
   -0.68858E+08         0.98389E+06         0.00000E+00
    0.98389E+06        -0.97598E+08         0.00000E+00
    0.00000E+00         0.00000E+00        -0.68852E+08
 
   -0.68605E+08         0.98302E+06         0.00000E+00
    0.98302E+06        -0.97600E+08         0.00000E+00
    0.00000E+00         0.00000E+00        -0.68584E+08
 
   -0.68353E+08         0.98131E+06         0.00000E+00
    0.98131E+06        -0.97602E+08         0.00000E+00
    0.00000E+00         0.00000E+00        -0.68316E+08
 
   -0.68102E+08         0.97866E+06         0.00000E+00
    0.97866E+06        -0.97603E+08         0.00000E+00
    0.00000E+00         0.00000E+00        -0.68049E+08
 
   -0.67853E+08         0.97489E+06         0.00000E+00
    0.97489E+06        -0.97605E+08         0.00000E+00
    0.00000E+00         0.00000E+00        -0.67781E+08
 
   -0.67606E+08         0.96968E+06         0.00000E+00
    0.96968E+06        -0.97608E+08         0.00000E+00
    0.00000E+00         0.00000E+00        -0.67514E+08
 
   -0.67362E+08         0.96264E+06         0.00000E+00
    0.96264E+06        -0.97613E+08         0.00000E+00
    0.00000E+00         0.00000E+00        -0.67248E+08
 
   -0.67119E+08         0.95341E+06         0.00000E+00
    0.95341E+06        -0.97621E+08         0.00000E+00
    0.00000E+00         0.00000E+00        -0.66981E+08
 
   -0.66877E+08         0.94202E+06         0.00000E+00
    0.94202E+06        -0.97635E+08         0.00000E+00
    0.00000E+00         0.00000E+00        -0.66715E+08
 
   -0.66637E+08         0.92913E+06         0.00000E+00
    0.92913E+06        -0.97644E+08         0.00000E+00
    0.00000E+00         0.00000E+00        -0.66462E+08
 
   -0.66397E+08         0.91440E+06         0.00000E+00
    0.91440E+06        -0.97636E+08         0.00000E+00
    0.00000E+00         0.00000E+00        -0.66235E+08
 
   -0.66159E+08         0.90124E+06         0.00000E+00
    0.90124E+06        -0.97624E+08         0.00000E+00
    0.00000E+00         0.00000E+00        -0.66019E+08
 
   -0.65923E+08         0.89020E+06         0.00000E+00
    0.89020E+06        -0.97617E+08         0.00000E+00
    0.00000E+00         0.00000E+00        -0.65804E+08
 
   -0.65690E+08         0.88113E+06         0.00000E+00
    0.88113E+06        -0.97613E+08         0.00000E+00
    0.00000E+00         0.00000E+00        -0.65589E+08
 
   -0.65459E+08         0.87361E+06         0.00000E+00
    0.87361E+06        -0.97610E+08         0.00000E+00
    0.00000E+00         0.00000E+00        -0.65374E+08
 
   -0.65231E+08         0.86721E+06         0.00000E+00
    0.86721E+06        -0.97609E+08         0.00000E+00
    0.00000E+00         0.00000E+00        -0.65160E+08
 
   -0.65005E+08         0.86163E+06         0.00000E+00
    0.86163E+06        -0.97608E+08         0.00000E+00
    0.00000E+00         0.00000E+00        -0.64946E+08
 
   -0.64782E+08         0.85664E+06         0.00000E+00
    0.85664E+06        -0.97607E+08         0.00000E+00
    0.00000E+00         0.00000E+00        -0.64733E+08
 
   -0.64560E+08         0.85209E+06         0.00000E+00
    0.85209E+06        -0.97607E+08         0.00000E+00
    0.00000E+00         0.00000E+00        -0.64520E+08
 
   -0.64340E+08         0.84787E+06         0.00000E+00
    0.84787E+06        -0.97607E+08         0.00000E+00
    0.00000E+00         0.00000E+00        -0.64308E+08
 
   -0.64127E+08         0.84362E+06         0.00000E+00
    0.84362E+06        -0.97601E+08         0.00000E+00
    0.00000E+00         0.00000E+00        -0.64102E+08
 
   -0.63932E+08         0.83880E+06         0.00000E+00
    0.83880E+06        -0.97580E+08         0.00000E+00
    0.00000E+00         0.00000E+00        -0.63913E+08
 
   -0.63744E+08         0.83387E+06         0.00000E+00
    0.83387E+06        -0.97554E+08         0.00000E+00
    0.00000E+00         0.00000E+00        -0.63731E+08
 
   -0.63557E+08         0.82910E+06         0.00000E+00
    0.82910E+06        -0.97527E+08         0.00000E+00
    0.00000E+00         0.00000E+00        -0.63549E+08
 
   -0.63371E+08         0.82448E+06         0.00000E+00
    0.82448E+06        -0.97501E+08         0.00000E+00
    0.00000E+00         0.00000E+00        -0.63367E+08
 
   -0.63186E+08         0.81997E+06         0.00000E+00
    0.81997E+06        -0.97474E+08         0.00000E+00
    0.00000E+00         0.00000E+00        -0.63185E+08
 
   -0.63002E+08         0.81556E+06         0.00000E+00
    0.81556E+06        -0.97448E+08         0.00000E+00
    0.00000E+00         0.00000E+00        -0.63004E+08
 
   -0.62818E+08         0.81124E+06         0.00000E+00
    0.81124E+06        -0.97422E+08         0.00000E+00
    0.00000E+00         0.00000E+00        -0.62823E+08
 
   -0.62635E+08         0.80697E+06         0.00000E+00
    0.80697E+06        -0.97397E+08         0.00000E+00
    0.00000E+00         0.00000E+00        -0.62642E+08
 
   -0.62452E+08         0.80275E+06         0.00000E+00
    0.80275E+06        -0.97371E+08         0.00000E+00
    0.00000E+00         0.00000E+00        -0.62461E+08
 
   -0.62270E+08         0.79855E+06         0.00000E+00
    0.79855E+06        -0.97346E+08         0.00000E+00
    0.00000E+00         0.00000E+00        -0.62280E+08
 
   -0.62088E+08         0.79436E+06         0.00000E+00
    0.79436E+06        -0.97321E+08         0.00000E+00
    0.00000E+00         0.00000E+00        -0.62100E+08
 
   -0.61906E+08         0.79017E+06         0.00000E+00
    0.79017E+06        -0.97297E+08         0.00000E+00
    0.00000E+00         0.00000E+00        -0.61919E+08
 
   -0.61725E+08         0.78595E+06         0.00000E+00
    0.78595E+06        -0.97273E+08         0.00000E+00
    0.00000E+00         0.00000E+00        -0.61738E+08
 
   -0.61545E+08         0.78168E+06         0.00000E+00
    0.78168E+06        -0.97249E+08         0.00000E+00
    0.00000E+00         0.00000E+00        -0.61557E+08
 
   -0.61365E+08         0.77735E+06         0.00000E+00
    0.77735E+06        -0.97226E+08         0.00000E+00
    0.00000E+00         0.00000E+00        -0.61376E+08
 
   -0.61185E+08         0.77293E+06         0.00000E+00
    0.77293E+06        -0.97203E+08         0.00000E+00
    0.00000E+00         0.00000E+00        -0.61194E+08
 
   -0.61005E+08         0.76841E+06         0.00000E+00
    0.76841E+06        -0.97180E+08         0.00000E+00
    0.00000E+00         0.00000E+00        -0.61013E+08
 
   -0.60826E+08         0.76376E+06         0.00000E+00
    0.76376E+06        -0.97159E+08         0.00000E+00
    0.00000E+00         0.00000E+00        -0.60830E+08
 
   -0.60647E+08         0.75896E+06         0.00000E+00
    0.75896E+06        -0.97137E+08         0.00000E+00
    0.00000E+00         0.00000E+00        -0.60648E+08
 
   -0.60468E+08         0.75398E+06         0.00000E+00
    0.75398E+06        -0.97117E+08         0.00000E+00
    0.00000E+00         0.00000E+00        -0.60465E+08
 
   -0.60290E+08         0.74878E+06         0.00000E+00
    0.74878E+06        -0.97097E+08         0.00000E+00
    0.00000E+00         0.00000E+00        -0.60282E+08
 
   -0.60112E+08         0.74335E+06         0.00000E+00
    0.74335E+06        -0.97078E+08         0.00000E+00
    0.00000E+00         0.00000E+00        -0.60097E+08
 
   -0.59935E+08         0.73762E+06         0.00000E+00
    0.73762E+06        -0.97059E+08         0.00000E+00
    0.00000E+00         0.00000E+00        -0.59913E+08
 
   -0.59758E+08         0.73157E+06         0.00000E+00
    0.73157E+06        -0.97041E+08         0.00000E+00
    0.00000E+00         0.00000E+00        -0.59727E+08
 
   -0.59582E+08         0.72512E+06         0.00000E+00
    0.72512E+06        -0.97024E+08         0.00000E+00
    0.00000E+00         0.00000E+00        -0.59541E+08
 
   -0.59406E+08         0.71822E+06         0.00000E+00
    0.71822E+06        -0.97008E+08         0.00000E+00
    0.00000E+00         0.00000E+00        -0.59353E+08
 
   -0.59232E+08         0.71077E+06         0.00000E+00
    0.71077E+06        -0.96993E+08         0.00000E+00
    0.00000E+00         0.00000E+00        -0.59165E+08
 
   -0.59058E+08         0.70268E+06         0.00000E+00
    0.70268E+06        -0.96980E+08         0.00000E+00
    0.00000E+00         0.00000E+00        -0.58975E+08
 
   -0.58885E+08         0.69382E+06         0.00000E+00
    0.69382E+06        -0.96967E+08         0.00000E+00
    0.00000E+00         0.00000E+00        -0.58784E+08
 
   -0.58714E+08         0.68405E+06         0.00000E+00
    0.68405E+06        -0.96955E+08         0.00000E+00
    0.00000E+00         0.00000E+00        -0.58592E+08
 
   -0.58544E+08         0.67318E+06         0.00000E+00
    0.67318E+06        -0.96945E+08         0.00000E+00
    0.00000E+00         0.00000E+00        -0.58399E+08
 
   -0.58375E+08         0.66098E+06         0.00000E+00
    0.66098E+06        -0.96937E+08         0.00000E+00
    0.00000E+00         0.00000E+00        -0.58203E+08
 
   -0.58209E+08         0.64720E+06         0.00000E+00
    0.64720E+06        -0.96930E+08         0.00000E+00
    0.00000E+00         0.00000E+00        -0.58006E+08
 
   -0.58045E+08         0.63152E+06         0.00000E+00
    0.63152E+06        -0.96925E+08         0.00000E+00
    0.00000E+00         0.00000E+00        -0.57807E+08
 
   -0.57884E+08         0.61359E+06         0.00000E+00
    0.61359E+06        -0.96922E+08         0.00000E+00
    0.00000E+00         0.00000E+00        -0.57606E+08
 
   -0.57726E+08         0.59299E+06         0.00000E+00
    0.59299E+06        -0.96922E+08         0.00000E+00
    0.00000E+00         0.00000E+00        -0.57403E+08
 
   -0.57572E+08         0.56928E+06         0.00000E+00
    0.56928E+06        -0.96924E+08         0.00000E+00
    0.00000E+00         0.00000E+00        -0.57197E+08
 
   -0.57421E+08         0.54198E+06         0.00000E+00
    0.54198E+06        -0.96928E+08         0.00000E+00
    0.00000E+00         0.00000E+00        -0.56988E+08
 
   -0.57274E+08         0.51059E+06         0.00000E+00
    0.51059E+06        -0.96935E+08         0.00000E+00
    0.00000E+00         0.00000E+00        -0.56776E+08
 
   -0.57133E+08         0.47464E+06         0.00000E+00
    0.47464E+06        -0.96945E+08         0.00000E+00
    0.00000E+00         0.00000E+00        -0.56561E+08
 
   -0.56996E+08         0.43375E+06         0.00000E+00
    0.43375E+06        -0.96957E+08         0.00000E+00
    0.00000E+00         0.00000E+00        -0.56342E+08
 
   -0.56865E+08         0.38767E+06         0.00000E+00
    0.38767E+06        -0.96970E+08         0.00000E+00
    0.00000E+00         0.00000E+00        -0.56118E+08
 
   -0.56740E+08         0.33641E+06         0.00000E+00
    0.33641E+06        -0.96985E+08         0.00000E+00
    0.00000E+00         0.00000E+00        -0.55889E+08
 
   -0.56621E+08         0.28039E+06         0.00000E+00
    0.28039E+06        -0.96999E+08         0.00000E+00
    0.00000E+00         0.00000E+00        -0.55653E+08
 
   -0.56509E+08         0.22062E+06         0.00000E+00
    0.22062E+06        -0.97012E+08         0.00000E+00
    0.00000E+00         0.00000E+00        -0.55409E+08
 
   -0.56404E+08         0.15908E+06         0.00000E+00
    0.15908E+06        -0.97022E+08         0.00000E+00
    0.00000E+00         0.00000E+00        -0.55156E+08
 
   -0.56306E+08         0.99100E+05         0.00000E+00
    0.99100E+05        -0.97026E+08         0.00000E+00
    0.00000E+00         0.00000E+00        -0.54890E+08
 
   -0.56216E+08         0.45797E+05         0.00000E+00
    0.45797E+05        -0.97021E+08         0.00000E+00
    0.00000E+00         0.00000E+00        -0.54609E+08
 
   -0.56134E+08         0.56464E+04         0.00000E+00
    0.56464E+04        -0.97002E+08         0.00000E+00
    0.00000E+00         0.00000E+00        -0.54310E+08
 
   -0.56063E+08        -0.15983E+05         0.00000E+00
   -0.15983E+05        -0.96962E+08         0.00000E+00
    0.00000E+00         0.00000E+00        -0.53982E+08
 
   -0.56009E+08        -0.18492E+05         0.00000E+00
   -0.18492E+05        -0.96893E+08         0.00000E+00
    0.00000E+00         0.00000E+00        -0.53616E+08
 
   -0.55979E+08        -0.76536E+04         0.00000E+00
   -0.76536E+04        -0.96790E+08         0.00000E+00
    0.00000E+00         0.00000E+00        -0.53199E+08
 
   -0.74339E+08        -0.39847E+05         0.00000E+00
   -0.39847E+05        -0.97913E+08         0.00000E+00
    0.00000E+00         0.00000E+00        -0.78463E+08
 
   -0.74293E+08        -0.94230E+05         0.00000E+00
   -0.94230E+05        -0.97668E+08         0.00000E+00
    0.00000E+00         0.00000E+00        -0.78049E+08
 
   -0.74218E+08        -0.93796E+05         0.00000E+00
   -0.93796E+05        -0.97540E+08         0.00000E+00
    0.00000E+00         0.00000E+00        -0.77635E+08
 
   -0.74126E+08        -0.43904E+05         0.00000E+00
   -0.43904E+05        -0.97472E+08         0.00000E+00
    0.00000E+00         0.00000E+00        -0.77221E+08
 
   -0.74023E+08         0.37335E+05         0.00000E+00
    0.37335E+05        -0.97433E+08         0.00000E+00
    0.00000E+00         0.00000E+00        -0.76809E+08
 
   -0.73905E+08         0.13378E+06         0.00000E+00
    0.13378E+06        -0.97410E+08         0.00000E+00
    0.00000E+00         0.00000E+00        -0.76397E+08
 
   -0.73770E+08         0.23489E+06         0.00000E+00
    0.23489E+06        -0.97397E+08         0.00000E+00
    0.00000E+00         0.00000E+00        -0.75985E+08
 
   -0.73617E+08         0.33520E+06         0.00000E+00
    0.33520E+06        -0.97395E+08         0.00000E+00
    0.00000E+00         0.00000E+00        -0.75576E+08
 
   -0.73447E+08         0.43180E+06         0.00000E+00
    0.43180E+06        -0.97401E+08         0.00000E+00
    0.00000E+00         0.00000E+00        -0.75167E+08
 
   -0.73262E+08         0.52263E+06         0.00000E+00
    0.52263E+06        -0.97413E+08         0.00000E+00
    0.00000E+00         0.00000E+00        -0.74760E+08
 
   -0.73062E+08         0.60596E+06         0.00000E+00
    0.60596E+06        -0.97430E+08         0.00000E+00
    0.00000E+00         0.00000E+00        -0.74354E+08
 
   -0.72850E+08         0.68037E+06         0.00000E+00
    0.68037E+06        -0.97450E+08         0.00000E+00
    0.00000E+00         0.00000E+00        -0.73951E+08
 
   -0.72628E+08         0.74466E+06         0.00000E+00
    0.74466E+06        -0.97473E+08         0.00000E+00
    0.00000E+00         0.00000E+00        -0.73549E+08
 
   -0.72398E+08         0.79775E+06         0.00000E+00
    0.79775E+06        -0.97498E+08         0.00000E+00
    0.00000E+00         0.00000E+00        -0.73148E+08
 
   -0.72161E+08         0.83875E+06         0.00000E+00
    0.83875E+06        -0.97524E+08         0.00000E+00
    0.00000E+00         0.00000E+00        -0.72751E+08
 
   -0.71919E+08         0.86735E+06         0.00000E+00
    0.86735E+06        -0.97553E+08         0.00000E+00
    0.00000E+00         0.00000E+00        -0.72355E+08
 
   -0.71675E+08         0.88265E+06         0.00000E+00
    0.88265E+06        -0.97584E+08         0.00000E+00
    0.00000E+00         0.00000E+00        -0.71961E+08
 
   -0.71427E+08         0.88110E+06         0.00000E+00
    0.88110E+06        -0.97604E+08         0.00000E+00
    0.00000E+00         0.00000E+00        -0.71594E+08
 
   -0.71172E+08         0.89583E+06         0.00000E+00
    0.89583E+06        -0.97600E+08         0.00000E+00
    0.00000E+00         0.00000E+00        -0.71281E+08
 
   -0.70912E+08         0.90593E+06         0.00000E+00
    0.90593E+06        -0.97586E+08         0.00000E+00
    0.00000E+00         0.00000E+00        -0.71005E+08
 
   -0.70651E+08         0.91374E+06         0.00000E+00
    0.91374E+06        -0.97581E+08         0.00000E+00
    0.00000E+00         0.00000E+00        -0.70731E+08
 
   -0.70391E+08         0.91941E+06         0.00000E+00
    0.91941E+06        -0.97582E+08         0.00000E+00
    0.00000E+00         0.00000E+00        -0.70458E+08
 
   -0.70131E+08         0.92388E+06         0.00000E+00
    0.92388E+06        -0.97584E+08         0.00000E+00
    0.00000E+00         0.00000E+00        -0.70187E+08
 
   -0.69873E+08         0.92751E+06         0.00000E+00
    0.92751E+06        -0.97588E+08         0.00000E+00
    0.00000E+00         0.00000E+00        -0.69916E+08
 
   -0.69616E+08         0.93025E+06         0.00000E+00
    0.93025E+06        -0.97591E+08         0.00000E+00
    0.00000E+00         0.00000E+00        -0.69646E+08
 
   -0.69360E+08         0.93207E+06         0.00000E+00
    0.93207E+06        -0.97594E+08         0.00000E+00
    0.00000E+00         0.00000E+00        -0.69377E+08
 
   -0.69105E+08         0.93302E+06         0.00000E+00
    0.93302E+06        -0.97596E+08         0.00000E+00
    0.00000E+00         0.00000E+00        -0.69108E+08
 
   -0.68851E+08         0.93316E+06         0.00000E+00
    0.93316E+06        -0.97598E+08         0.00000E+00
    0.00000E+00         0.00000E+00        -0.68840E+08
 
   -0.68598E+08         0.93250E+06         0.00000E+00
    0.93250E+06        -0.97600E+08         0.00000E+00
    0.00000E+00         0.00000E+00        -0.68572E+08
 
   -0.68346E+08         0.93105E+06         0.00000E+00
    0.93105E+06        -0.97601E+08         0.00000E+00
    0.00000E+00         0.00000E+00        -0.68305E+08
 
   -0.68095E+08         0.92871E+06         0.00000E+00
    0.92871E+06        -0.97603E+08         0.00000E+00
    0.00000E+00         0.00000E+00        -0.68038E+08
 
   -0.67846E+08         0.92531E+06         0.00000E+00
    0.92531E+06        -0.97604E+08         0.00000E+00
    0.00000E+00         0.00000E+00        -0.67771E+08
 
   -0.67600E+08         0.92053E+06         0.00000E+00
    0.92053E+06        -0.97607E+08         0.00000E+00
    0.00000E+00         0.00000E+00        -0.67505E+08
 
   -0.67355E+08         0.91392E+06         0.00000E+00
    0.91392E+06        -0.97611E+08         0.00000E+00
    0.00000E+00         0.00000E+00        -0.67238E+08
 
   -0.67112E+08         0.90505E+06         0.00000E+00
    0.90505E+06        -0.97619E+08         0.00000E+00
    0.00000E+00         0.00000E+00        -0.66972E+08
 
   -0.66871E+08         0.89389E+06         0.00000E+00
    0.89389E+06        -0.97633E+08         0.00000E+00
    0.00000E+00         0.00000E+00        -0.66707E+08
 
   -0.66631E+08         0.88108E+06         0.00000E+00
    0.88108E+06        -0.97641E+08         0.00000E+00
    0.00000E+00         0.00000E+00        -0.66454E+08
 
   -0.66392E+08         0.86664E+06         0.00000E+00
    0.86664E+06        -0.97633E+08         0.00000E+00
    0.00000E+00         0.00000E+00        -0.66228E+08
 
   -0.66154E+08         0.85385E+06         0.00000E+00
    0.85385E+06        -0.97622E+08         0.00000E+00
    0.00000E+00         0.00000E+00        -0.66013E+08
 
   -0.65918E+08         0.84329E+06         0.00000E+00
    0.84329E+06        -0.97615E+08         0.00000E+00
    0.00000E+00         0.00000E+00        -0.65797E+08
 
   -0.65685E+08         0.83476E+06         0.00000E+00
    0.83476E+06        -0.97611E+08         0.00000E+00
    0.00000E+00         0.00000E+00        -0.65583E+08
 
   -0.65455E+08         0.82777E+06         0.00000E+00
    0.82777E+06        -0.97609E+08         0.00000E+00
    0.00000E+00         0.00000E+00        -0.65368E+08
 
   -0.65227E+08         0.82188E+06         0.00000E+00
    0.82188E+06        -0.97608E+08         0.00000E+00
    0.00000E+00         0.00000E+00        -0.65154E+08
 
   -0.65002E+08         0.81674E+06         0.00000E+00
    0.81674E+06        -0.97607E+08         0.00000E+00
    0.00000E+00         0.00000E+00        -0.64941E+08
 
   -0.64778E+08         0.81213E+06         0.00000E+00
    0.81213E+06        -0.97607E+08         0.00000E+00
    0.00000E+00         0.00000E+00        -0.64728E+08
 
   -0.64557E+08         0.80792E+06         0.00000E+00
    0.80792E+06        -0.97606E+08         0.00000E+00
    0.00000E+00         0.00000E+00        -0.64516E+08
 
   -0.64337E+08         0.80400E+06         0.00000E+00
    0.80400E+06        -0.97606E+08         0.00000E+00
    0.00000E+00         0.00000E+00        -0.64304E+08
 
   -0.64124E+08         0.80003E+06         0.00000E+00
    0.80003E+06        -0.97600E+08         0.00000E+00
    0.00000E+00         0.00000E+00        -0.64099E+08
 
   -0.63930E+08         0.79550E+06         0.00000E+00
    0.79550E+06        -0.97579E+08         0.00000E+00
    0.00000E+00         0.00000E+00        -0.63910E+08
 
   -0.63742E+08         0.79086E+06         0.00000E+00
    0.79086E+06        -0.97553E+08         0.00000E+00
    0.00000E+00         0.00000E+00        -0.63728E+08
 
   -0.63555E+08         0.78637E+06         0.00000E+00
    0.78637E+06        -0.97526E+08         0.00000E+00
    0.00000E+00         0.00000E+00        -0.63546E+08
 
   -0.63369E+08         0.78201E+06         0.00000E+00
    0.78201E+06        -0.97500E+08         0.00000E+00
    0.00000E+00         0.00000E+00        -0.63364E+08
 
   -0.63184E+08         0.77775E+06         0.00000E+00
    0.77775E+06        -0.97474E+08         0.00000E+00
    0.00000E+00         0.00000E+00        -0.63183E+08
 
   -0.63000E+08         0.77358E+06         0.00000E+00
    0.77358E+06        -0.97448E+08         0.00000E+00
    0.00000E+00         0.00000E+00        -0.63002E+08
 
   -0.62816E+08         0.76948E+06         0.00000E+00
    0.76948E+06        -0.97422E+08         0.00000E+00
    0.00000E+00         0.00000E+00        -0.62821E+08
 
   -0.62633E+08         0.76543E+06         0.00000E+00
    0.76543E+06        -0.97397E+08         0.00000E+00
    0.00000E+00         0.00000E+00        -0.62640E+08
 
   -0.62450E+08         0.76142E+06         0.00000E+00
    0.76142E+06        -0.97371E+08         0.00000E+00
    0.00000E+00         0.00000E+00        -0.62459E+08
 
   -0.62268E+08         0.75744E+06         0.00000E+00
    0.75744E+06        -0.97346E+08         0.00000E+00
    0.00000E+00         0.00000E+00        -0.62279E+08
 
   -0.62086E+08         0.75346E+06         0.00000E+00
    0.75346E+06        -0.97322E+08         0.00000E+00
    0.00000E+00         0.00000E+00        -0.62098E+08
 
   -0.61905E+08         0.74947E+06         0.00000E+00
    0.74947E+06        -0.97297E+08         0.00000E+00
    0.00000E+00         0.00000E+00        -0.61917E+08
 
   -0.61724E+08         0.74545E+06         0.00000E+00
    0.74545E+06        -0.97273E+08         0.00000E+00
    0.00000E+00         0.00000E+00        -0.61737E+08
 
   -0.61543E+08         0.74139E+06         0.00000E+00
    0.74139E+06        -0.97249E+08         0.00000E+00
    0.00000E+00         0.00000E+00        -0.61556E+08
 
   -0.61363E+08         0.73727E+06         0.00000E+00
    0.73727E+06        -0.97226E+08         0.00000E+00
    0.00000E+00         0.00000E+00        -0.61375E+08
 
   -0.61183E+08         0.73306E+06         0.00000E+00
    0.73306E+06        -0.97203E+08         0.00000E+00
    0.00000E+00         0.00000E+00        -0.61193E+08
 
   -0.61004E+08         0.72876E+06         0.00000E+00
    0.72876E+06        -0.97181E+08         0.00000E+00
    0.00000E+00         0.00000E+00        -0.61012E+08
 
   -0.60824E+08         0.72433E+06         0.00000E+00
    0.72433E+06        -0.97159E+08         0.00000E+00
    0.00000E+00         0.00000E+00        -0.60830E+08
 
   -0.60646E+08         0.71976E+06         0.00000E+00
    0.71976E+06        -0.97138E+08         0.00000E+00
    0.00000E+00         0.00000E+00        -0.60647E+08
 
   -0.60467E+08         0.71502E+06         0.00000E+00
    0.71502E+06        -0.97118E+08         0.00000E+00
    0.00000E+00         0.00000E+00        -0.60464E+08
 
   -0.60289E+08         0.71007E+06         0.00000E+00
    0.71007E+06        -0.97098E+08         0.00000E+00
    0.00000E+00         0.00000E+00        -0.60281E+08
 
   -0.60111E+08         0.70490E+06         0.00000E+00
    0.70490E+06        -0.97079E+08         0.00000E+00
    0.00000E+00         0.00000E+00        -0.60096E+08
 
   -0.59934E+08         0.69945E+06         0.00000E+00
    0.69945E+06        -0.97060E+08         0.00000E+00
    0.00000E+00         0.00000E+00        -0.59912E+08
 
   -0.59757E+08         0.69369E+06         0.00000E+00
    0.69369E+06        -0.97042E+08         0.00000E+00
    0.00000E+00         0.00000E+00        -0.59726E+08
 
   -0.59581E+08         0.68756E+06         0.00000E+00
    0.68756E+06        -0.97025E+08         0.00000E+00
    0.00000E+00         0.00000E+00        -0.59539E+08
 
   -0.59406E+08         0.68100E+06         0.00000E+00
    0.68100E+06        -0.97009E+08         0.00000E+00
    0.00000E+00         0.00000E+00        -0.59352E+08
 
   -0.59231E+08         0.67392E+06         0.00000E+00
    0.67392E+06        -0.96994E+08         0.00000E+00
    0.00000E+00         0.00000E+00        -0.59163E+08
 
   -0.59058E+08         0.66624E+06         0.00000E+00
    0.66624E+06        -0.96980E+08         0.00000E+00
    0.00000E+00         0.00000E+00        -0.58974E+08
 
   -0.58885E+08         0.65783E+06         0.00000E+00
    0.65783E+06        -0.96967E+08         0.00000E+00
    0.00000E+00         0.00000E+00        -0.58783E+08
 
   -0.58714E+08         0.64855E+06         0.00000E+00
    0.64855E+06        -0.96956E+08         0.00000E+00
    0.00000E+00         0.00000E+00        -0.58590E+08
 
   -0.58544E+08         0.63822E+06         0.00000E+00
    0.63822E+06        -0.96945E+08         0.00000E+00
    0.00000E+00         0.00000E+00        -0.58396E+08
 
   -0.58376E+08         0.62662E+06         0.00000E+00
    0.62662E+06        -0.96937E+08         0.00000E+00
    0.00000E+00         0.00000E+00        -0.58200E+08
 
   -0.58210E+08         0.61351E+06         0.00000E+00
    0.61351E+06        -0.96929E+08         0.00000E+00
    0.00000E+00         0.00000E+00        -0.58003E+08
 
   -0.58047E+08         0.59857E+06         0.00000E+00
    0.59857E+06        -0.96924E+08         0.00000E+00
    0.00000E+00         0.00000E+00        -0.57803E+08
 
   -0.57886E+08         0.58146E+06         0.00000E+00
    0.58146E+06        -0.96921E+08         0.00000E+00
    0.00000E+00         0.00000E+00        -0.57601E+08
 
   -0.57728E+08         0.56177E+06         0.00000E+00
    0.56177E+06        -0.96919E+08         0.00000E+00
    0.00000E+00         0.00000E+00        -0.57397E+08
 
   -0.57574E+08         0.53905E+06         0.00000E+00
    0.53905E+06        -0.96921E+08         0.00000E+00
    0.00000E+00         0.00000E+00        -0.57190E+08
 
   -0.57424E+08         0.51283E+06         0.00000E+00
    0.51283E+06        -0.96924E+08         0.00000E+00
    0.00000E+00         0.00000E+00        -0.56980E+08
 
   -0.57279E+08         0.48263E+06         0.00000E+00
    0.48263E+06        -0.96930E+08         0.00000E+00
    0.00000E+00         0.00000E+00        -0.56766E+08
 
   -0.57138E+08         0.44797E+06         0.00000E+00
    0.44797E+06        -0.96939E+08         0.00000E+00
    0.00000E+00         0.00000E+00        -0.56549E+08
 
   -0.57003E+08         0.40847E+06         0.00000E+00
    0.40847E+06        -0.96949E+08         0.00000E+00
    0.00000E+00         0.00000E+00        -0.56328E+08
 
   -0.56874E+08         0.36389E+06         0.00000E+00
    0.36389E+06        -0.96962E+08         0.00000E+00
    0.00000E+00         0.00000E+00        -0.56101E+08
 
   -0.56751E+08         0.31426E+06         0.00000E+00
    0.31426E+06        -0.96975E+08         0.00000E+00
    0.00000E+00         0.00000E+00        -0.55869E+08
 
   -0.56635E+08         0.25998E+06         0.00000E+00
    0.25998E+06        -0.96989E+08         0.00000E+00
    0.00000E+00         0.00000E+00        -0.55630E+08
 
   -0.56526E+08         0.20209E+06         0.00000E+00
    0.20209E+06        -0.97001E+08         0.00000E+00
    0.00000E+00         0.00000E+00        -0.55382E+08
 
   -0.56426E+08         0.14250E+06         0.00000E+00
    0.14250E+06        -0.97011E+08         0.00000E+00
    0.00000E+00         0.00000E+00        -0.55125E+08
 
   -0.56333E+08         0.84436E+05         0.00000E+00
    0.84436E+05        -0.97016E+08         0.00000E+00
    0.00000E+00         0.00000E+00        -0.54856E+08
 
   -0.56248E+08         0.32876E+05         0.00000E+00
    0.32876E+05        -0.97013E+08         0.00000E+00
    0.00000E+00         0.00000E+00        -0.54573E+08
 
   -0.56171E+08        -0.56112E+04         0.00000E+00
   -0.56112E+04        -0.96998E+08         0.00000E+00
    0.00000E+00         0.00000E+00        -0.54273E+08
 
   -0.56103E+08        -0.25155E+05         0.00000E+00
   -0.25155E+05        -0.96963E+08         0.00000E+00
    0.00000E+00         0.00000E+00        -0.53947E+08
 
   -0.56050E+08        -0.24634E+05         0.00000E+00
   -0.24634E+05        -0.96898E+08         0.00000E+00
    0.00000E+00         0.00000E+00        -0.53583E+08
 
   -0.56021E+08        -0.98282E+04         0.00000E+00
   -0.98282E+04        -0.96797E+08         0.00000E+00
    0.00000E+00         0.00000E+00        -0.53168E+08
 
   -0.74222E+08        -0.45026E+05         0.00000E+00
   -0.45026E+05        -0.97897E+08         0.00000E+00
    0.00000E+00         0.00000E+00        -0.78463E+08
 
   -0.74179E+08        -0.10715E+06         0.00000E+00
   -0.10715E+06        -0.97661E+08         0.00000E+00
    0.00000E+00         0.00000E+00        -0.78049E+08
 
   -0.74111E+08        -0.11019E+06         0.00000E+00
   -0.11019E+06        -0.97545E+08         0.00000E+00
    0.00000E+00         0.00000E+00        -0.77635E+08
 
   -0.74030E+08        -0.62453E+05         0.00000E+00
   -0.62453E+05        -0.97486E+08         0.00000E+00
    0.00000E+00         0.00000E+00        -0.77221E+08
 
   -0.73938E+08         0.16318E+05         0.00000E+00
    0.16318E+05        -0.97451E+08         0.00000E+00
    0.00000E+00         0.00000E+00        -0.76809E+08
 
   -0.73830E+08         0.10960E+06         0.00000E+00
    0.10960E+06        -0.97429E+08         0.00000E+00
    0.00000E+00         0.00000E+00        -0.76397E+08
 
   -0.73705E+08         0.20704E+06         0.00000E+00
    0.20704E+06        -0.97417E+08         0.00000E+00
    0.00000E+00         0.00000E+00        -0.75985E+08
 
   -0.73561E+08         0.30365E+06         0.00000E+00
    0.30365E+06        -0.97414E+08         0.00000E+00
    0.00000E+00         0.00000E+00        -0.75576E+08
 
   -0.73398E+08         0.39686E+06         0.00000E+00
    0.39686E+06        -0.97419E+08         0.00000E+00
    0.00000E+00         0.00000E+00        -0.75167E+08
 
   -0.73219E+08         0.48465E+06         0.00000E+00
    0.48465E+06        -0.97430E+08         0.00000E+00
    0.00000E+00         0.00000E+00        -0.74760E+08
 
   -0.73025E+08         0.56531E+06         0.00000E+00
    0.56531E+06        -0.97445E+08         0.00000E+00
    0.00000E+00         0.00000E+00        -0.74354E+08
 
   -0.72819E+08         0.63740E+06         0.00000E+00
    0.63740E+06        -0.97464E+08         0.00000E+00
    0.00000E+00         0.00000E+00        -0.73951E+08
 
   -0.72601E+08         0.69972E+06         0.00000E+00
    0.69972E+06        -0.97484E+08         0.00000E+00
    0.00000E+00         0.00000E+00        -0.73549E+08
 
   -0.72374E+08         0.75122E+06         0.00000E+00
    0.75122E+06        -0.97507E+08         0.00000E+00
    0.00000E+00         0.00000E+00        -0.73148E+08
 
   -0.72139E+08         0.79107E+06         0.00000E+00
    0.79107E+06        -0.97531E+08         0.00000E+00
    0.00000E+00         0.00000E+00        -0.72751E+08
 
   -0.71900E+08         0.81891E+06         0.00000E+00
    0.81891E+06        -0.97557E+08         0.00000E+00
    0.00000E+00         0.00000E+00        -0.72355E+08
 
   -0.71657E+08         0.83385E+06         0.00000E+00
    0.83385E+06        -0.97585E+08         0.00000E+00
    0.00000E+00         0.00000E+00        -0.71961E+08
 
   -0.71412E+08         0.83140E+06         0.00000E+00
    0.83140E+06        -0.97605E+08         0.00000E+00
    0.00000E+00         0.00000E+00        -0.71589E+08
 
   -0.71159E+08         0.84411E+06         0.00000E+00
    0.84411E+06        -0.97602E+08         0.00000E+00
    0.00000E+00         0.00000E+00        -0.71271E+08
 
   -0.70901E+08         0.85378E+06         0.00000E+00
    0.85378E+06        -0.97587E+08         0.00000E+00
    0.00000E+00         0.00000E+00        -0.70994E+08
 
   -0.70641E+08         0.86171E+06         0.00000E+00
    0.86171E+06        -0.97583E+08         0.00000E+00
    0.00000E+00         0.00000E+00        -0.70719E+08
 
   -0.70381E+08         0.86741E+06         0.00000E+00
    0.86741E+06        -0.97583E+08         0.00000E+00
    0.00000E+00         0.00000E+00        -0.70446E+08
 
   -0.70122E+08         0.87210E+06         0.00000E+00
    0.87210E+06        -0.97585E+08         0.00000E+00
    0.00000E+00         0.00000E+00        -0.70174E+08
 
   -0.69864E+08         0.87600E+06         0.00000E+00
    0.87600E+06        -0.97589E+08         0.00000E+00
    0.00000E+00         0.00000E+00        -0.69904E+08
 
   -0.69608E+08         0.87898E+06         0.00000E+00
    0.87898E+06        -0.97592E+08         0.00000E+00
    0.00000E+00         0.00000E+00        -0.69634E+08
 
   -0.69352E+08         0.88101E+06         0.00000E+00
    0.88101E+06        -0.97594E+08         0.00000E+00
    0.00000E+00         0.00000E+00        -0.69365E+08
 
   -0.69097E+08         0.88214E+06         0.00000E+00
    0.88214E+06        -0.97597E+08         0.00000E+00
    0.00000E+00         0.00000E+00        -0.69097E+08
 
   -0.68843E+08         0.88246E+06         0.00000E+00
    0.88246E+06        -0.97598E+08         0.00000E+00
    0.00000E+00         0.00000E+00        -0.68829E+08
 
   -0.68590E+08         0.88202E+06         0.00000E+00
    0.88202E+06        -0.97600E+08         0.00000E+00
    0.00000E+00         0.00000E+00        -0.68561E+08
 
   -0.68339E+08         0.88082E+06         0.00000E+00
    0.88082E+06        -0.97601E+08         0.00000E+00
    0.00000E+00         0.00000E+00        -0.68294E+08
 
   -0.68088E+08         0.87879E+06         0.00000E+00
    0.87879E+06        -0.97602E+08         0.00000E+00
    0.00000E+00         0.00000E+00        -0.68027E+08
 
   -0.67840E+08         0.87576E+06         0.00000E+00
    0.87576E+06        -0.97604E+08         0.00000E+00
    0.00000E+00         0.00000E+00        -0.67761E+08
 
   -0.67593E+08         0.87140E+06         0.00000E+00
    0.87140E+06        -0.97606E+08         0.00000E+00
    0.00000E+00         0.00000E+00        -0.67495E+08
 
   -0.67348E+08         0.86524E+06         0.00000E+00
    0.86524E+06        -0.97610E+08         0.00000E+00
    0.00000E+00         0.00000E+00        -0.67229E+08
 
   -0.67106E+08         0.85676E+06         0.00000E+00
    0.85676E+06        -0.97617E+08         0.00000E+00
    0.00000E+00         0.00000E+00        -0.66964E+08
 
   -0.66865E+08         0.84581E+06         0.00000E+00
    0.84581E+06        -0.97630E+08         0.00000E+00
    0.00000E+00         0.00000E+00        -0.66699E+08
 
   -0.66625E+08         0.83309E+06         0.00000E+00
    0.83309E+06        -0.97639E+08         0.00000E+00
    0.00000E+00         0.00000E+00        -0.66447E+08
 
   -0.66386E+08         0.81892E+06         0.00000E+00
    0.81892E+06        -0.97631E+08         0.00000E+00
    0.00000E+00         0.00000E+00        -0.66221E+08
 
   -0.66149E+08         0.80651E+06         0.00000E+00
    0.80651E+06        -0.97620E+08         0.00000E+00
    0.00000E+00         0.00000E+00        -0.66006E+08
 
   -0.65913E+08         0.79644E+06         0.00000E+00
    0.79644E+06        -0.97613E+08         0.00000E+00
    0.00000E+00         0.00000E+00        -0.65791E+08
 
   -0.65681E+08         0.78846E+06         0.00000E+00
    0.78846E+06        -0.97610E+08         0.00000E+00
    0.00000E+00         0.00000E+00        -0.65577E+08
 
   -0.65451E+08         0.78201E+06         0.00000E+00
    0.78201E+06        -0.97608E+08         0.00000E+00
    0.00000E+00         0.00000E+00        -0.65363E+08
 
   -0.65224E+08         0.77661E+06         0.00000E+00
    0.77661E+06        -0.97607E+08         0.00000E+00
    0.00000E+00         0.00000E+00        -0.65149E+08
 
   -0.64999E+08         0.77190E+06         0.00000E+00
    0.77190E+06        -0.97606E+08         0.00000E+00
    0.00000E+00         0.00000E+00        -0.64936E+08
 
   -0.64775E+08         0.76768E+06         0.00000E+00
    0.76768E+06        -0.97606E+08         0.00000E+00
    0.00000E+00         0.00000E+00        -0.64724E+08
 
   -0.64554E+08         0.76380E+06         0.00000E+00
    0.76380E+06        -0.97606E+08         0.00000E+00
    0.00000E+00         0.00000E+00        -0.64512E+08
 
   -0.64334E+08         0.76018E+06         0.00000E+00
    0.76018E+06        -0.97605E+08         0.00000E+00
    0.00000E+00         0.00000E+00        -0.64300E+08
 
   -0.64122E+08         0.75648E+06         0.00000E+00
    0.75648E+06        -0.97600E+08         0.00000E+00
    0.00000E+00         0.00000E+00        -0.64095E+08
 
   -0.63928E+08         0.75224E+06         0.00000E+00
    0.75224E+06        -0.97578E+08         0.00000E+00
    0.00000E+00         0.00000E+00        -0.63907E+08
 
   -0.63740E+08         0.74789E+06         0.00000E+00
    0.74789E+06        -0.97552E+08         0.00000E+00
    0.00000E+00         0.00000E+00        -0.63725E+08
 
   -0.63553E+08         0.74367E+06         0.00000E+00
    0.74367E+06        -0.97526E+08         0.00000E+00
    0.00000E+00         0.00000E+00        -0.63543E+08
 
   -0.63368E+08         0.73956E+06         0.00000E+00
    0.73956E+06        -0.97500E+08         0.00000E+00
    0.00000E+00         0.00000E+00        -0.63362E+08
 
   -0.63182E+08         0.73555E+06         0.00000E+00
    0.73555E+06        -0.97474E+08         0.00000E+00
    0.00000E+00         0.00000E+00        -0.63181E+08
 
   -0.62998E+08         0.73161E+06         0.00000E+00
    0.73161E+06        -0.97448E+08         0.00000E+00
    0.00000E+00         0.00000E+00        -0.63000E+08
 
   -0.62814E+08         0.72774E+06         0.00000E+00
    0.72774E+06        -0.97422E+08         0.00000E+00
    0.00000E+00         0.00000E+00        -0.62819E+08
 
   -0.62631E+08         0.72391E+06         0.00000E+00
    0.72391E+06        -0.97397E+08         0.00000E+00
    0.00000E+00         0.00000E+00        -0.62638E+08
 
   -0.62448E+08         0.72012E+06         0.00000E+00
    0.72012E+06        -0.97371E+08         0.00000E+00
    0.00000E+00         0.00000E+00        -0.62458E+08
 
   -0.62266E+08         0.71634E+06         0.00000E+00
    0.71634E+06        -0.97346E+08         0.00000E+00
    0.00000E+00         0.00000E+00        -0.62277E+08
 
   -0.62084E+08         0.71257E+06         0.00000E+00
    0.71257E+06        -0.97322E+08         0.00000E+00
    0.00000E+00         0.00000E+00        -0.62097E+08
 
   -0.61903E+08         0.70879E+06         0.00000E+00
    0.70879E+06        -0.97298E+08         0.00000E+00
    0.00000E+00         0.00000E+00        -0.61916E+08
 
   -0.61722E+08         0.70498E+06         0.00000E+00
    0.70498E+06        -0.97274E+08         0.00000E+00
    0.00000E+00         0.00000E+00        -0.61735E+08
 
   -0.61542E+08         0.70113E+06         0.00000E+00
    0.70113E+06        -0.97250E+08         0.00000E+00
    0.00000E+00         0.00000E+00        -0.61555E+08
 
   -0.61362E+08         0.69722E+06         0.00000E+00
    0.69722E+06        -0.97227E+08         0.00000E+00
    0.00000E+00         0.00000E+00        -0.61374E+08
 
   -0.61182E+08         0.69322E+06         0.00000E+00
    0.69322E+06        -0.97204E+08         0.00000E+00
    0.00000E+00         0.00000E+00        -0.61192E+08
 
   -0.61002E+08         0.68914E+06         0.00000E+00
    0.68914E+06        -0.97182E+08         0.00000E+00
    0.00000E+00         0.00000E+00        -0.61011E+08
 
   -0.60823E+08         0.68493E+06         0.00000E+00
    0.68493E+06        -0.97160E+08         0.00000E+00
    0.00000E+00         0.00000E+00        -0.60829E+08
 
   -0.60644E+08         0.68059E+06         0.00000E+00
    0.68059E+06        -0.97139E+08         0.00000E+00
    0.00000E+00         0.00000E+00        -0.60646E+08
 
   -0.60466E+08         0.67609E+06         0.00000E+00
    0.67609E+06        -0.97119E+08         0.00000E+00
    0.00000E+00         0.00000E+00        -0.60463E+08
 
   -0.60288E+08         0.67139E+06         0.00000E+00
    0.67139E+06        -0.97099E+08         0.00000E+00
    0.00000E+00         0.00000E+00        -0.60280E+08
 
   -0.60110E+08         0.66648E+06         0.00000E+00
    0.66648E+06        -0.97080E+08         0.00000E+00
    0.00000E+00         0.00000E+00        -0.60096E+08
 
   -0.59933E+08         0.66131E+06         0.00000E+00
    0.66131E+06        -0.97061E+08         0.00000E+00
    0.00000E+00         0.00000E+00        -0.59911E+08
 
   -0.59757E+08         0.65585E+06         0.00000E+00
    0.65585E+06        -0.97043E+08         0.00000E+00
    0.00000E+00         0.00000E+00        -0.59725E+08
 
   -0.59581E+08         0.65003E+06         0.00000E+00
    0.65003E+06        -0.97026E+08         0.00000E+00
    0.00000E+00         0.00000E+00        -0.59538E+08
 
   -0.59405E+08         0.64381E+06         0.00000E+00
    0.64381E+06        -0.97010E+08         0.00000E+00
    0.00000E+00         0.00000E+00        -0.59351E+08
 
   -0.59231E+08         0.63711E+06         0.00000E+00
    0.63711E+06        -0.96995E+08         0.00000E+00
    0.00000E+00         0.00000E+00        -0.59162E+08
 
   -0.59057E+08         0.62983E+06         0.00000E+00
    0.62983E+06        -0.96981E+08         0.00000E+00
    0.00000E+00         0.00000E+00        -0.58972E+08
 
   -0.58885E+08         0.62187E+06         0.00000E+00
    0.62187E+06        -0.96968E+08         0.00000E+00
    0.00000E+00         0.00000E+00        -0.58781E+08
 
   -0.58714E+08         0.61308E+06         0.00000E+00
    0.61308E+06        -0.96956E+08         0.00000E+00
    0.00000E+00         0.00000E+00        -0.58588E+08
 
   -0.58544E+08         0.60329E+06         0.00000E+00
    0.60329E+06        -0.96946E+08         0.00000E+00
    0.00000E+00         0.00000E+00        -0.58394E+08
 
   -0.58377E+08         0.59230E+06         0.00000E+00
    0.59230E+06        -0.96937E+08         0.00000E+00
    0.00000E+00         0.00000E+00        -0.58198E+08
 
   -0.58211E+08         0.57986E+06         0.00000E+00
    0.57986E+06        -0.96929E+08         0.00000E+00
    0.00000E+00         0.00000E+00        -0.58000E+08
 
   -0.58048E+08         0.56567E+06         0.00000E+00
    0.56567E+06        -0.96923E+08         0.00000E+00
    0.00000E+00         0.00000E+00        -0.57799E+08
 
   -0.57887E+08         0.54939E+06         0.00000E+00
    0.54939E+06        -0.96919E+08         0.00000E+00
    0.00000E+00         0.00000E+00        -0.57597E+08
 
   -0.57730E+08         0.53062E+06         0.00000E+00
    0.53062E+06        -0.96917E+08         0.00000E+00
    0.00000E+00         0.00000E+00        -0.57391E+08
 
   -0.57577E+08         0.50892E+06         0.00000E+00
    0.50892E+06        -0.96918E+08         0.00000E+00
    0.00000E+00         0.00000E+00        -0.57183E+08
 
   -0.57427E+08         0.48382E+06         0.00000E+00
    0.48382E+06        -0.96920E+08         0.00000E+00
    0.00000E+00         0.00000E+00        -0.56972E+08
 
   -0.57283E+08         0.45484E+06         0.00000E+00
    0.45484E+06        -0.96925E+08         0.00000E+00
    0.00000E+00         0.00000E+00        -0.56757E+08
 
   -0.57143E+08         0.42153E+06         0.00000E+00
    0.42153E+06        -0.96933E+08         0.00000E+00
    0.00000E+00         0.00000E+00        -0.56538E+08
 
   -0.57010E+08         0.38350E+06         0.00000E+00
    0.38350E+06        -0.96942E+08         0.00000E+00
    0.00000E+00         0.00000E+00        -0.56314E+08
 
   -0.56882E+08         0.34053E+06         0.00000E+00
    0.34053E+06        -0.96954E+08         0.00000E+00
    0.00000E+00         0.00000E+00        -0.56085E+08
 
   -0.56762E+08         0.29264E+06         0.00000E+00
    0.29264E+06        -0.96966E+08         0.00000E+00
    0.00000E+00         0.00000E+00        -0.55850E+08
 
   -0.56649E+08         0.24025E+06         0.00000E+00
    0.24025E+06        -0.96979E+08         0.00000E+00
    0.00000E+00         0.00000E+00        -0.55607E+08
 
   -0.56544E+08         0.18437E+06         0.00000E+00
    0.18437E+06        -0.96991E+08         0.00000E+00
    0.00000E+00         0.00000E+00        -0.55356E+08
 
   -0.56448E+08         0.12688E+06         0.00000E+00
    0.12688E+06        -0.97001E+08         0.00000E+00
    0.00000E+00         0.00000E+00        -0.55095E+08
 
   -0.56360E+08         0.70841E+05         0.00000E+00
    0.70841E+05        -0.97006E+08         0.00000E+00
    0.00000E+00         0.00000E+00        -0.54822E+08
 
   -0.56280E+08         0.21019E+05         0.00000E+00
    0.21019E+05        -0.97006E+08         0.00000E+00
    0.00000E+00         0.00000E+00        -0.54537E+08
 
   -0.56208E+08        -0.16002E+05         0.00000E+00
   -0.16002E+05        -0.96995E+08         0.00000E+00
    0.00000E+00         0.00000E+00        -0.54236E+08
 
   -0.56144E+08        -0.33800E+05         0.00000E+00
   -0.33800E+05        -0.96964E+08         0.00000E+00
    0.00000E+00         0.00000E+00        -0.53912E+08
 
   -0.56093E+08        -0.30556E+05         0.00000E+00
   -0.30556E+05        -0.96904E+08         0.00000E+00
    0.00000E+00         0.00000E+00        -0.53550E+08
 
   -0.56064E+08        -0.11954E+05         0.00000E+00
   -0.11954E+05        -0.96805E+08         0.00000E+00
    0.00000E+00         0.00000E+00        -0.53138E+08
 
   -0.74100E+08        -0.49853E+05         0.00000E+00
   -0.49853E+05        -0.97878E+08         0.00000E+00
    0.00000E+00         0.00000E+00        -0.78463E+08
 
   -0.74063E+08        -0.11890E+06         0.00000E+00
   -0.11890E+06        -0.97654E+08         0.00000E+00
    0.00000E+00         0.00000E+00        -0.78049E+08
 
   -0.74004E+08        -0.12460E+06         0.00000E+00
   -0.12460E+06        -0.97550E+08         0.00000E+00
    0.00000E+00         0.00000E+00        -0.77635E+08
 
   -0.73934E+08        -0.78756E+05         0.00000E+00
   -0.78756E+05        -0.97499E+08         0.00000E+00
    0.00000E+00         0.00000E+00        -0.77221E+08
 
   -0.73853E+08        -0.24680E+04         0.00000E+00
   -0.24680E+04        -0.97469E+08         0.00000E+00
    0.00000E+00         0.00000E+00        -0.76809E+08
 
   -0.73757E+08         0.87486E+05         0.00000E+00
    0.87486E+05        -0.97448E+08         0.00000E+00
    0.00000E+00         0.00000E+00        -0.76397E+08
 
   -0.73641E+08         0.18100E+06         0.00000E+00
    0.18100E+06        -0.97436E+08         0.00000E+00
    0.00000E+00         0.00000E+00        -0.75985E+08
 
   -0.73506E+08         0.27370E+06         0.00000E+00
    0.27370E+06        -0.97433E+08         0.00000E+00
    0.00000E+00         0.00000E+00        -0.75576E+08
 
   -0.73351E+08         0.36331E+06         0.00000E+00
    0.36331E+06        -0.97437E+08         0.00000E+00
    0.00000E+00         0.00000E+00        -0.75167E+08
 
   -0.73178E+08         0.44789E+06         0.00000E+00
    0.44789E+06        -0.97447E+08         0.00000E+00
    0.00000E+00         0.00000E+00        -0.74760E+08
 
   -0.72990E+08         0.52570E+06         0.00000E+00
    0.52570E+06        -0.97460E+08         0.00000E+00
    0.00000E+00         0.00000E+00        -0.74354E+08
 
   -0.72788E+08         0.59531E+06         0.00000E+00
    0.59531E+06        -0.97477E+08         0.00000E+00
    0.00000E+00         0.00000E+00        -0.73951E+08
 
   -0.72574E+08         0.65551E+06         0.00000E+00
    0.65551E+06        -0.97495E+08         0.00000E+00
    0.00000E+00         0.00000E+00        -0.73549E+08
 
   -0.72350E+08         0.70530E+06         0.00000E+00
    0.70530E+06        -0.97516E+08         0.00000E+00
    0.00000E+00         0.00000E+00        -0.73148E+08
 
   -0.72118E+08         0.74388E+06         0.00000E+00
    0.74388E+06        -0.97538E+08         0.00000E+00
    0.00000E+00         0.00000E+00        -0.72751E+08
 
   -0.71881E+08         0.77082E+06         0.00000E+00
    0.77082E+06        -0.97562E+08         0.00000E+00
    0.00000E+00         0.00000E+00        -0.72355E+08
 
   -0.71640E+08         0.78536E+06         0.00000E+00
    0.78536E+06        -0.97587E+08         0.00000E+00
    0.00000E+00         0.00000E+00        -0.71961E+08
 
   -0.71397E+08         0.78233E+06         0.00000E+00
    0.78233E+06        -0.97605E+08         0.00000E+00
    0.00000E+00         0.00000E+00        -0.71585E+08
 
   -0.71146E+08         0.79258E+06         0.00000E+00
    0.79258E+06        -0.97603E+08         0.00000E+00
    0.00000E+00         0.00000E+00        -0.71261E+08
 
   -0.70889E+08         0.80196E+06         0.00000E+00
    0.80196E+06        -0.97589E+08         0.00000E+00
    0.00000E+00         0.00000E+00        -0.70983E+08
 
   -0.70631E+08         0.80989E+06         0.00000E+00
    0.80989E+06        -0.97584E+08         0.00000E+00
    0.00000E+00         0.00000E+00        -0.70707E+08
 
   -0.70372E+08         0.81553E+06         0.00000E+00
    0.81553E+06        -0.97584E+08         0.00000E+00
    0.00000E+00         0.00000E+00        -0.70434E+08
 
   -0.70113E+08         0.82043E+06         0.00000E+00
    0.82043E+06        -0.97586E+08         0.00000E+00
    0.00000E+00         0.00000E+00        -0.70162E+08
 
   -0.69856E+08         0.82459E+06         0.00000E+00
    0.82459E+06        -0.97589E+08         0.00000E+00
    0.00000E+00         0.00000E+00        -0.69891E+08
 
   -0.69600E+08         0.82779E+06         0.00000E+00
    0.82779E+06        -0.97592E+08         0.00000E+00
    0.00000E+00         0.00000E+00        -0.69622E+08
 
   -0.69344E+08         0.83000E+06         0.00000E+00
    0.83000E+06        -0.97595E+08         0.00000E+00
    0.00000E+00         0.00000E+00        -0.69353E+08
 
   -0.69090E+08         0.83131E+06         0.00000E+00
    0.83131E+06        -0.97597E+08         0.00000E+00
    0.00000E+00         0.00000E+00        -0.69085E+08
 
   -0.68836E+08         0.83181E+06         0.00000E+00
    0.83181E+06        -0.97598E+08         0.00000E+00
    0.00000E+00         0.00000E+00        -0.68817E+08
 
   -0.68584E+08         0.83157E+06         0.00000E+00
    0.83157E+06        -0.97600E+08         0.00000E+00
    0.00000E+00         0.00000E+00        -0.68550E+08
 
   -0.68332E+08         0.83061E+06         0.00000E+00
    0.83061E+06        -0.97601E+08         0.00000E+00
    0.00000E+00         0.00000E+00        -0.68284E+08
 
   -0.68082E+08         0.82888E+06         0.00000E+00
    0.82888E+06        -0.97602E+08         0.00000E+00
    0.00000E+00         0.00000E+00        -0.68017E+08
 
   -0.67833E+08         0.82622E+06         0.00000E+00
    0.82622E+06        -0.97603E+08         0.00000E+00
    0.00000E+00         0.00000E+00        -0.67751E+08
 
   -0.67587E+08         0.82230E+06         0.00000E+00
    0.82230E+06        -0.97605E+08         0.00000E+00
    0.00000E+00         0.00000E+00        -0.67486E+08
 
   -0.67342E+08         0.81660E+06         0.00000E+00
    0.81660E+06        -0.97609E+08         0.00000E+00
    0.00000E+00         0.00000E+00        -0.67220E+08
 
   -0.67100E+08         0.80851E+06         0.00000E+00
    0.80851E+06        -0.97615E+08         0.00000E+00
    0.00000E+00         0.00000E+00        -0.66955E+08
 
   -0.66859E+08         0.79780E+06         0.00000E+00
    0.79780E+06        -0.97628E+08         0.00000E+00
    0.00000E+00         0.00000E+00        -0.66691E+08
 
   -0.66620E+08         0.78515E+06         0.00000E+00
    0.78515E+06        -0.97636E+08         0.00000E+00
    0.00000E+00         0.00000E+00        -0.66439E+08
 
   -0.66381E+08         0.77126E+06         0.00000E+00
    0.77126E+06        -0.97628E+08         0.00000E+00
    0.00000E+00         0.00000E+00        -0.66215E+08
 
   -0.66144E+08         0.75924E+06         0.00000E+00
    0.75924E+06        -0.97618E+08         0.00000E+00
    0.00000E+00         0.00000E+00        -0.66000E+08
 
   -0.65909E+08         0.74968E+06         0.00000E+00
    0.74968E+06        -0.97612E+08         0.00000E+00
    0.00000E+00         0.00000E+00        -0.65785E+08
 
   -0.65676E+08         0.74225E+06         0.00000E+00
    0.74225E+06        -0.97608E+08         0.00000E+00
    0.00000E+00         0.00000E+00        -0.65571E+08
 
   -0.65447E+08         0.73634E+06         0.00000E+00
    0.73634E+06        -0.97607E+08         0.00000E+00
    0.00000E+00         0.00000E+00        -0.65357E+08
 
   -0.65220E+08         0.73141E+06         0.00000E+00
    0.73141E+06        -0.97606E+08         0.00000E+00
    0.00000E+00         0.00000E+00        -0.65144E+08
 
   -0.64995E+08         0.72713E+06         0.00000E+00
    0.72713E+06        -0.97605E+08         0.00000E+00
    0.00000E+00         0.00000E+00        -0.64932E+08
 
   -0.64773E+08         0.72328E+06         0.00000E+00
    0.72328E+06        -0.97605E+08         0.00000E+00
    0.00000E+00         0.00000E+00        -0.64719E+08
 
   -0.64552E+08         0.71973E+06         0.00000E+00
    0.71973E+06        -0.97605E+08         0.00000E+00
    0.00000E+00         0.00000E+00        -0.64508E+08
 
   -0.64332E+08         0.71640E+06         0.00000E+00
    0.71640E+06        -0.97605E+08         0.00000E+00
    0.00000E+00         0.00000E+00        -0.64296E+08
 
   -0.64120E+08         0.71297E+06         0.00000E+00
    0.71297E+06        -0.97599E+08         0.00000E+00
    0.00000E+00         0.00000E+00        -0.64092E+08
 
   -0.63926E+08         0.70901E+06         0.00000E+00
    0.70901E+06        -0.97578E+08         0.00000E+00
    0.00000E+00         0.00000E+00        -0.63904E+08
 
   -0.63739E+08         0.70495E+06         0.00000E+00
    0.70495E+06        -0.97551E+08         0.00000E+00
    0.00000E+00         0.00000E+00        -0.63722E+08
 
   -0.63552E+08         0.70100E+06         0.00000E+00
    0.70100E+06        -0.97525E+08         0.00000E+00
    0.00000E+00         0.00000E+00        -0.63541E+08
 
   -0.63366E+08         0.69715E+06         0.00000E+00
    0.69715E+06        -0.97499E+08         0.00000E+00
    0.00000E+00         0.00000E+00        -0.63360E+08
 
   -0.63181E+08         0.69338E+06         0.00000E+00
    0.69338E+06        -0.97473E+08         0.00000E+00
    0.00000E+00         0.00000E+00        -0.63179E+08
 
   -0.62996E+08         0.68967E+06         0.00000E+00
    0.68967E+06        -0.97447E+08         0.00000E+00
    0.00000E+00         0.00000E+00        -0.62998E+08
 
   -0.62813E+08         0.68602E+06         0.00000E+00
    0.68602E+06        -0.97422E+08         0.00000E+00
    0.00000E+00         0.00000E+00        -0.62817E+08
 
   -0.62629E+08         0.68242E+06         0.00000E+00
    0.68242E+06        -0.97397E+08         0.00000E+00
    0.00000E+00         0.00000E+00        -0.62637E+08
 
   -0.62447E+08         0.67884E+06         0.00000E+00
    0.67884E+06        -0.97371E+08         0.00000E+00
    0.00000E+00         0.00000E+00        -0.62456E+08
 
   -0.62265E+08         0.67527E+06         0.00000E+00
    0.67527E+06        -0.97347E+08         0.00000E+00
    0.00000E+00         0.00000E+00        -0.62276E+08
 
   -0.62083E+08         0.67171E+06         0.00000E+00
    0.67171E+06        -0.97322E+08         0.00000E+00
    0.00000E+00         0.00000E+00        -0.62095E+08
 
   -0.61902E+08         0.66814E+06         0.00000E+00
    0.66814E+06        -0.97298E+08         0.00000E+00
    0.00000E+00         0.00000E+00        -0.61915E+08
 
   -0.61721E+08         0.66454E+06         0.00000E+00
    0.66454E+06        -0.97274E+08         0.00000E+00
    0.00000E+00         0.00000E+00        -0.61734E+08
 
   -0.61540E+08         0.66089E+06         0.00000E+00
    0.66089E+06        -0.97251E+08         0.00000E+00
    0.00000E+00         0.00000E+00        -0.61554E+08
 
   -0.61360E+08         0.65719E+06         0.00000E+00
    0.65719E+06        -0.97228E+08         0.00000E+00
    0.00000E+00         0.00000E+00        -0.61373E+08
 
   -0.61180E+08         0.65341E+06         0.00000E+00
    0.65341E+06        -0.97205E+08         0.00000E+00
    0.00000E+00         0.00000E+00        -0.61191E+08
 
   -0.61001E+08         0.64954E+06         0.00000E+00
    0.64954E+06        -0.97183E+08         0.00000E+00
    0.00000E+00         0.00000E+00        -0.61010E+08
 
   -0.60822E+08         0.64556E+06         0.00000E+00
    0.64556E+06        -0.97161E+08         0.00000E+00
    0.00000E+00         0.00000E+00        -0.60828E+08
 
   -0.60643E+08         0.64145E+06         0.00000E+00
    0.64145E+06        -0.97140E+08         0.00000E+00
    0.00000E+00         0.00000E+00        -0.60646E+08
 
   -0.60465E+08         0.63718E+06         0.00000E+00
    0.63718E+06        -0.97120E+08         0.00000E+00
    0.00000E+00         0.00000E+00        -0.60463E+08
 
   -0.60287E+08         0.63274E+06         0.00000E+00
    0.63274E+06        -0.97100E+08         0.00000E+00
    0.00000E+00         0.00000E+00        -0.60279E+08
 
   -0.60110E+08         0.62809E+06         0.00000E+00
    0.62809E+06        -0.97081E+08         0.00000E+00
    0.00000E+00         0.00000E+00        -0.60095E+08
 
   -0.59933E+08         0.62320E+06         0.00000E+00
    0.62320E+06        -0.97062E+08         0.00000E+00
    0.00000E+00         0.00000E+00        -0.59910E+08
 
   -0.59756E+08         0.61803E+06         0.00000E+00
    0.61803E+06        -0.97045E+08         0.00000E+00
    0.00000E+00         0.00000E+00        -0.59724E+08
 
   -0.59580E+08         0.61254E+06         0.00000E+00
    0.61254E+06        -0.97028E+08         0.00000E+00
    0.00000E+00         0.00000E+00        -0.59538E+08
 
   -0.59405E+08         0.60666E+06         0.00000E+00
    0.60666E+06        -0.97011E+08         0.00000E+00
    0.00000E+00         0.00000E+00        -0.59350E+08
 
   -0.59231E+08         0.60033E+06         0.00000E+00
    0.60033E+06        -0.96996E+08         0.00000E+00
    0.00000E+00         0.00000E+00        -0.59161E+08
 
   -0.59057E+08         0.59346E+06         0.00000E+00
    0.59346E+06        -0.96982E+08         0.00000E+00
    0.00000E+00         0.00000E+00        -0.58971E+08
 
   -0.58885E+08         0.58594E+06         0.00000E+00
    0.58594E+06        -0.96969E+08         0.00000E+00
    0.00000E+00         0.00000E+00        -0.58779E+08
 
   -0.58714E+08         0.57764E+06         0.00000E+00
    0.57764E+06        -0.96957E+08         0.00000E+00
    0.00000E+00         0.00000E+00        -0.58586E+08
 
   -0.58545E+08         0.56840E+06         0.00000E+00
    0.56840E+06        -0.96946E+08         0.00000E+00
    0.00000E+00         0.00000E+00        -0.58392E+08
 
   -0.58377E+08         0.55802E+06         0.00000E+00
    0.55802E+06        -0.96937E+08         0.00000E+00
    0.00000E+00         0.00000E+00        -0.58195E+08
 
   -0.58212E+08         0.54625E+06         0.00000E+00
    0.54625E+06        -0.96929E+08         0.00000E+00
    0.00000E+00         0.00000E+00        -0.57996E+08
 
   -0.58049E+08         0.53282E+06         0.00000E+00
    0.53282E+06        -0.96923E+08         0.00000E+00
    0.00000E+00         0.00000E+00        -0.57796E+08
 
   -0.57889E+08         0.51737E+06         0.00000E+00
    0.51737E+06        -0.96918E+08         0.00000E+00
    0.00000E+00         0.00000E+00        -0.57592E+08
 
   -0.57732E+08         0.49954E+06         0.00000E+00
    0.49954E+06        -0.96916E+08         0.00000E+00
    0.00000E+00         0.00000E+00        -0.57386E+08
 
   -0.57579E+08         0.47888E+06         0.00000E+00
    0.47888E+06        -0.96915E+08         0.00000E+00
    0.00000E+00         0.00000E+00        -0.57177E+08
 
   -0.57431E+08         0.45494E+06         0.00000E+00
    0.45494E+06        -0.96917E+08         0.00000E+00
    0.00000E+00         0.00000E+00        -0.56964E+08
 
   -0.57287E+08         0.42724E+06         0.00000E+00
    0.42724E+06        -0.96921E+08         0.00000E+00
    0.00000E+00         0.00000E+00        -0.56747E+08
 
   -0.57149E+08         0.39534E+06         0.00000E+00
    0.39534E+06        -0.96927E+08         0.00000E+00
    0.00000E+00         0.00000E+00        -0.56526E+08
 
   -0.57017E+08         0.35886E+06         0.00000E+00
    0.35886E+06        -0.96936E+08         0.00000E+00
    0.00000E+00         0.00000E+00        -0.56300E+08
 
   -0.56891E+08         0.31759E+06         0.00000E+00
    0.31759E+06        -0.96946E+08         0.00000E+00
    0.00000E+00         0.00000E+00        -0.56069E+08
 
   -0.56773E+08         0.27155E+06         0.00000E+00
    0.27155E+06        -0.96957E+08         0.00000E+00
    0.00000E+00         0.00000E+00        -0.55830E+08
 
   -0.56664E+08         0.22118E+06         0.00000E+00
    0.22118E+06        -0.96969E+08         0.00000E+00
    0.00000E+00         0.00000E+00        -0.55584E+08
 
   -0.56562E+08         0.16747E+06         0.00000E+00
    0.16747E+06        -0.96981E+08         0.00000E+00
    0.00000E+00         0.00000E+00        -0.55329E+08
 
   -0.56470E+08         0.11222E+06         0.00000E+00
    0.11222E+06        -0.96991E+08         0.00000E+00
    0.00000E+00         0.00000E+00        -0.55065E+08
 
   -0.56387E+08         0.58325E+05         0.00000E+00
    0.58325E+05        -0.96997E+08         0.00000E+00
    0.00000E+00         0.00000E+00        -0.54789E+08
 
   -0.56313E+08         0.10261E+05         0.00000E+00
    0.10261E+05        -0.96999E+08         0.00000E+00
    0.00000E+00         0.00000E+00        -0.54501E+08
 
   -0.56245E+08        -0.25471E+05         0.00000E+00
   -0.25471E+05        -0.96991E+08         0.00000E+00
    0.00000E+00         0.00000E+00        -0.54199E+08
 
   -0.56185E+08        -0.41879E+05         0.00000E+00
   -0.41879E+05        -0.96966E+08         0.00000E+00
    0.00000E+00         0.00000E+00        -0.53876E+08
 
   -0.56136E+08        -0.36249E+05         0.00000E+00
   -0.36249E+05        -0.96910E+08         0.00000E+00
    0.00000E+00         0.00000E+00        -0.53517E+08
 
   -0.56107E+08        -0.14032E+05         0.00000E+00
   -0.14032E+05        -0.96814E+08         0.00000E+00
    0.00000E+00         0.00000E+00        -0.53107E+08
 
   -0.73974E+08        -0.54150E+05         0.00000E+00
   -0.54150E+05        -0.97859E+08         0.00000E+00
    0.00000E+00         0.00000E+00        -0.78463E+08
 
   -0.73944E+08        -0.12913E+06         0.00000E+00
   -0.12913E+06        -0.97646E+08         0.00000E+00
    0.00000E+00         0.00000E+00        -0.78049E+08
 
   -0.73896E+08        -0.13668E+06         0.00000E+00
   -0.13668E+06        -0.97555E+08         0.00000E+00
    0.00000E+00         0.00000E+00        -0.77635E+08
 
   -0.73839E+08        -0.92628E+05         0.00000E+00
   -0.92628E+05        -0.97512E+08         0.00000E+00
    0.00000E+00         0.00000E+00        -0.77221E+08
 
   -0.73770E+08        -0.18919E+05         0.00000E+00
   -0.18919E+05        -0.97486E+08         0.00000E+00
    0.00000E+00         0.00000E+00        -0.76809E+08
 
   -0.73685E+08         0.67471E+05         0.00000E+00
    0.67471E+05        -0.97466E+08         0.00000E+00
    0.00000E+00         0.00000E+00        -0.76397E+08
 
   -0.73579E+08         0.15678E+06         0.00000E+00
    0.15678E+06        -0.97454E+08         0.00000E+00
    0.00000E+00         0.00000E+00        -0.75985E+08
 
   -0.73452E+08         0.24533E+06         0.00000E+00
    0.24533E+06        -0.97451E+08         0.00000E+00
    0.00000E+00         0.00000E+00        -0.75576E+08
 
   -0.73304E+08         0.33115E+06         0.00000E+00
    0.33115E+06        -0.97454E+08         0.00000E+00
    0.00000E+00         0.00000E+00        -0.75167E+08
 
   -0.73138E+08         0.41233E+06         0.00000E+00
    0.41233E+06        -0.97463E+08         0.00000E+00
    0.00000E+00         0.00000E+00        -0.74760E+08
 
   -0.72955E+08         0.48712E+06         0.00000E+00
    0.48712E+06        -0.97475E+08         0.00000E+00
    0.00000E+00         0.00000E+00        -0.74354E+08
 
   -0.72758E+08         0.55408E+06         0.00000E+00
    0.55408E+06        -0.97490E+08         0.00000E+00
    0.00000E+00         0.00000E+00        -0.73951E+08
 
   -0.72548E+08         0.61202E+06         0.00000E+00
    0.61202E+06        -0.97506E+08         0.00000E+00
    0.00000E+00         0.00000E+00        -0.73549E+08
 
   -0.72327E+08         0.65996E+06         0.00000E+00
    0.65996E+06        -0.97525E+08         0.00000E+00
    0.00000E+00         0.00000E+00        -0.73148E+08
 
   -0.72098E+08         0.69716E+06         0.00000E+00
    0.69716E+06        -0.97544E+08         0.00000E+00
    0.00000E+00         0.00000E+00        -0.72751E+08
 
   -0.71863E+08         0.72306E+06         0.00000E+00
    0.72306E+06        -0.97566E+08         0.00000E+00
    0.00000E+00         0.00000E+00        -0.72355E+08
 
   -0.71623E+08         0.73709E+06         0.00000E+00
    0.73709E+06        -0.97588E+08         0.00000E+00
    0.00000E+00         0.00000E+00        -0.71961E+08
 
   -0.71381E+08         0.73392E+06         0.00000E+00
    0.73392E+06        -0.97605E+08         0.00000E+00
    0.00000E+00         0.00000E+00        -0.71580E+08
 
   -0.71132E+08         0.74117E+06         0.00000E+00
    0.74117E+06        -0.97605E+08         0.00000E+00
    0.00000E+00         0.00000E+00        -0.71250E+08
 
   -0.70877E+08         0.75060E+06         0.00000E+00
    0.75060E+06        -0.97591E+08         0.00000E+00
    0.00000E+00         0.00000E+00        -0.70972E+08
 
   -0.70621E+08         0.75826E+06         0.00000E+00
    0.75826E+06        -0.97585E+08         0.00000E+00
    0.00000E+00         0.00000E+00        -0.70696E+08
 
   -0.70362E+08         0.76378E+06         0.00000E+00
    0.76378E+06        -0.97585E+08         0.00000E+00
    0.00000E+00         0.00000E+00        -0.70422E+08
 
   -0.70105E+08         0.76890E+06         0.00000E+00
    0.76890E+06        -0.97587E+08         0.00000E+00
    0.00000E+00         0.00000E+00        -0.70150E+08
 
   -0.69848E+08         0.77329E+06         0.00000E+00
    0.77329E+06        -0.97590E+08         0.00000E+00
    0.00000E+00         0.00000E+00        -0.69879E+08
 
   -0.69592E+08         0.77669E+06         0.00000E+00
    0.77669E+06        -0.97593E+08         0.00000E+00
    0.00000E+00         0.00000E+00        -0.69610E+08
 
   -0.69337E+08         0.77907E+06         0.00000E+00
    0.77907E+06        -0.97595E+08         0.00000E+00
    0.00000E+00         0.00000E+00        -0.69341E+08
 
   -0.69083E+08         0.78053E+06         0.00000E+00
    0.78053E+06        -0.97597E+08         0.00000E+00
    0.00000E+00         0.00000E+00        -0.69073E+08
 
   -0.68830E+08         0.78119E+06         0.00000E+00
    0.78119E+06        -0.97598E+08         0.00000E+00
    0.00000E+00         0.00000E+00        -0.68806E+08
 
   -0.68577E+08         0.78114E+06         0.00000E+00
    0.78114E+06        -0.97599E+08         0.00000E+00
    0.00000E+00         0.00000E+00        -0.68539E+08
 
   -0.68326E+08         0.78042E+06         0.00000E+00
    0.78042E+06        -0.97600E+08         0.00000E+00
    0.00000E+00         0.00000E+00        -0.68273E+08
 
   -0.68076E+08         0.77898E+06         0.00000E+00
    0.77898E+06        -0.97601E+08         0.00000E+00
    0.00000E+00         0.00000E+00        -0.68007E+08
 
   -0.67827E+08         0.77668E+06         0.00000E+00
    0.77668E+06        -0.97602E+08         0.00000E+00
    0.00000E+00         0.00000E+00        -0.67742E+08
 
   -0.67580E+08         0.77319E+06         0.00000E+00
    0.77319E+06        -0.97604E+08         0.00000E+00
    0.00000E+00         0.00000E+00        -0.67476E+08
 
   -0.67336E+08         0.76797E+06         0.00000E+00
    0.76797E+06        -0.97607E+08         0.00000E+00
    0.00000E+00         0.00000E+00        -0.67212E+08
 
   -0.67094E+08         0.76031E+06         0.00000E+00
    0.76031E+06        -0.97614E+08         0.00000E+00
    0.00000E+00         0.00000E+00        -0.66947E+08
 
   -0.66853E+08         0.74985E+06         0.00000E+00
    0.74985E+06        -0.97625E+08         0.00000E+00
    0.00000E+00         0.00000E+00        -0.66683E+08
 
   -0.66614E+08         0.73727E+06         0.00000E+00
    0.73727E+06        -0.97633E+08         0.00000E+00
    0.00000E+00         0.00000E+00        -0.66432E+08
 
   -0.66375E+08         0.72365E+06         0.00000E+00
    0.72365E+06        -0.97625E+08         0.00000E+00
    0.00000E+00         0.00000E+00        -0.66208E+08
 
   -0.66138E+08         0.71202E+06         0.00000E+00
    0.71202E+06        -0.97615E+08         0.00000E+00
    0.00000E+00         0.00000E+00        -0.65993E+08
 
   -0.65904E+08         0.70299E+06         0.00000E+00
    0.70299E+06        -0.97610E+08         0.00000E+00
    0.00000E+00         0.00000E+00        -0.65779E+08
 
   -0.65672E+08         0.69613E+06         0.00000E+00
    0.69613E+06        -0.97607E+08         0.00000E+00
    0.00000E+00         0.00000E+00        -0.65565E+08
 
   -0.65443E+08         0.69075E+06         0.00000E+00
    0.69075E+06        -0.97606E+08         0.00000E+00
    0.00000E+00         0.00000E+00        -0.65352E+08
 
   -0.65217E+08         0.68630E+06         0.00000E+00
    0.68630E+06        -0.97605E+08         0.00000E+00
    0.00000E+00         0.00000E+00        -0.65139E+08
 
   -0.64992E+08         0.68243E+06         0.00000E+00
    0.68243E+06        -0.97604E+08         0.00000E+00
    0.00000E+00         0.00000E+00        -0.64927E+08
 
   -0.64770E+08         0.67895E+06         0.00000E+00
    0.67895E+06        -0.97604E+08         0.00000E+00
    0.00000E+00         0.00000E+00        -0.64715E+08
 
   -0.64549E+08         0.67572E+06         0.00000E+00
    0.67572E+06        -0.97604E+08         0.00000E+00
    0.00000E+00         0.00000E+00        -0.64504E+08
 
   -0.64330E+08         0.67266E+06         0.00000E+00
    0.67266E+06        -0.97604E+08         0.00000E+00
    0.00000E+00         0.00000E+00        -0.64293E+08
 
   -0.64119E+08         0.66949E+06         0.00000E+00
    0.66949E+06        -0.97598E+08         0.00000E+00
    0.00000E+00         0.00000E+00        -0.64089E+08
 
   -0.63925E+08         0.66581E+06         0.00000E+00
    0.66581E+06        -0.97577E+08         0.00000E+00
    0.00000E+00         0.00000E+00        -0.63901E+08
 
   -0.63737E+08         0.66204E+06         0.00000E+00
    0.66204E+06        -0.97551E+08         0.00000E+00
    0.00000E+00         0.00000E+00        -0.63720E+08
 
   -0.63550E+08         0.65836E+06         0.00000E+00
    0.65836E+06        -0.97525E+08         0.00000E+00
    0.00000E+00         0.00000E+00        -0.63539E+08
 
   -0.63365E+08         0.65476E+06         0.00000E+00
    0.65476E+06        -0.97499E+08         0.00000E+00
    0.00000E+00         0.00000E+00        -0.63357E+08
 
   -0.63179E+08         0.65123E+06         0.00000E+00
    0.65123E+06        -0.97473E+08         0.00000E+00
    0.00000E+00         0.00000E+00        -0.63177E+08
 
   -0.62995E+08         0.64776E+06         0.00000E+00
    0.64776E+06        -0.97447E+08         0.00000E+00
    0.00000E+00         0.00000E+00        -0.62996E+08
 
   -0.62811E+08         0.64433E+06         0.00000E+00
    0.64433E+06        -0.97422E+08         0.00000E+00
    0.00000E+00         0.00000E+00        -0.62815E+08
 
   -0.62628E+08         0.64094E+06         0.00000E+00
    0.64094E+06        -0.97397E+08         0.00000E+00
    0.00000E+00         0.00000E+00        -0.62635E+08
 
   -0.62445E+08         0.63758E+06         0.00000E+00
    0.63758E+06        -0.97372E+08         0.00000E+00
    0.00000E+00         0.00000E+00        -0.62455E+08
 
   -0.62263E+08         0.63423E+06         0.00000E+00
    0.63423E+06        -0.97347E+08         0.00000E+00
    0.00000E+00         0.00000E+00        -0.62274E+08
 
   -0.62081E+08         0.63087E+06         0.00000E+00
    0.63087E+06        -0.97322E+08         0.00000E+00
    0.00000E+00         0.00000E+00        -0.62094E+08
 
   -0.61900E+08         0.62751E+06         0.00000E+00
    0.62751E+06        -0.97298E+08         0.00000E+00
    0.00000E+00         0.00000E+00        -0.61914E+08
 
   -0.61719E+08         0.62411E+06         0.00000E+00
    0.62411E+06        -0.97275E+08         0.00000E+00
    0.00000E+00         0.00000E+00        -0.61733E+08
 
   -0.61539E+08         0.62068E+06         0.00000E+00
    0.62068E+06        -0.97251E+08         0.00000E+00
    0.00000E+00         0.00000E+00        -0.61553E+08
 
   -0.61359E+08         0.61719E+06         0.00000E+00
    0.61719E+06        -0.97228E+08         0.00000E+00
    0.00000E+00         0.00000E+00        -0.61372E+08
 
   -0.61179E+08         0.61362E+06         0.00000E+00
    0.61362E+06        -0.97206E+08         0.00000E+00
    0.00000E+00         0.00000E+00        -0.61191E+08
 
   -0.61000E+08         0.60997E+06         0.00000E+00
    0.60997E+06        -0.97184E+08         0.00000E+00
    0.00000E+00         0.00000E+00        -0.61009E+08
 
   -0.60821E+08         0.60622E+06         0.00000E+00
    0.60622E+06        -0.97162E+08         0.00000E+00
    0.00000E+00         0.00000E+00        -0.60827E+08
 
   -0.60642E+08         0.60234E+06         0.00000E+00
    0.60234E+06        -0.97141E+08         0.00000E+00
    0.00000E+00         0.00000E+00        -0.60645E+08
 
   -0.60464E+08         0.59831E+06         0.00000E+00
    0.59831E+06        -0.97121E+08         0.00000E+00
    0.00000E+00         0.00000E+00        -0.60462E+08
 
   -0.60286E+08         0.59412E+06         0.00000E+00
    0.59412E+06        -0.97101E+08         0.00000E+00
    0.00000E+00         0.00000E+00        -0.60279E+08
 
   -0.60109E+08         0.58974E+06         0.00000E+00
    0.58974E+06        -0.97082E+08         0.00000E+00
    0.00000E+00         0.00000E+00        -0.60094E+08
 
   -0.59932E+08         0.58513E+06         0.00000E+00
    0.58513E+06        -0.97063E+08         0.00000E+00
    0.00000E+00         0.00000E+00        -0.59909E+08
 
   -0.59756E+08         0.58025E+06         0.00000E+00
    0.58025E+06        -0.97046E+08         0.00000E+00
    0.00000E+00         0.00000E+00        -0.59724E+08
 
   -0.59580E+08         0.57508E+06         0.00000E+00
    0.57508E+06        -0.97029E+08         0.00000E+00
    0.00000E+00         0.00000E+00        -0.59537E+08
 
   -0.59405E+08         0.56954E+06         0.00000E+00
    0.56954E+06        -0.97013E+08         0.00000E+00
    0.00000E+00         0.00000E+00        -0.59349E+08
 
   -0.59231E+08         0.56359E+06         0.00000E+00
    0.56359E+06        -0.96997E+08         0.00000E+00
    0.00000E+00         0.00000E+00        -0.59160E+08
 
   -0.59058E+08         0.55712E+06         0.00000E+00
    0.55712E+06        -0.96983E+08         0.00000E+00
    0.00000E+00         0.00000E+00        -0.58970E+08
 
   -0.58885E+08         0.55005E+06         0.00000E+00
    0.55005E+06        -0.96970E+08         0.00000E+00
    0.00000E+00         0.00000E+00        -0.58778E+08
 
   -0.58715E+08         0.54224E+06         0.00000E+00
    0.54224E+06        -0.96958E+08         0.00000E+00
    0.00000E+00         0.00000E+00        -0.58585E+08
 
   -0.58546E+08         0.53355E+06         0.00000E+00
    0.53355E+06        -0.96947E+08         0.00000E+00
    0.00000E+00         0.00000E+00        -0.58390E+08
 
   -0.58378E+08         0.52377E+06         0.00000E+00
    0.52377E+06        -0.96937E+08         0.00000E+00
    0.00000E+00         0.00000E+00        -0.58193E+08
 
   -0.58213E+08         0.51268E+06         0.00000E+00
    0.51268E+06        -0.96929E+08         0.00000E+00
    0.00000E+00         0.00000E+00        -0.57994E+08
 
   -0.58051E+08         0.50001E+06         0.00000E+00
    0.50001E+06        -0.96922E+08         0.00000E+00
    0.00000E+00         0.00000E+00        -0.57792E+08
 
   -0.57891E+08         0.48542E+06         0.00000E+00
    0.48542E+06        -0.96917E+08         0.00000E+00
    0.00000E+00         0.00000E+00        -0.57588E+08
 
   -0.57735E+08         0.46854E+06         0.00000E+00
    0.46854E+06        -0.96914E+08         0.00000E+00
    0.00000E+00         0.00000E+00        -0.57381E+08
 
   -0.57582E+08         0.44895E+06         0.00000E+00
    0.44895E+06        -0.96913E+08         0.00000E+00
    0.00000E+00         0.00000E+00        -0.57171E+08
 
   -0.57434E+08         0.42620E+06         0.00000E+00
    0.42620E+06        -0.96914E+08         0.00000E+00
    0.00000E+00         0.00000E+00        -0.56957E+08
 
   -0.57291E+08         0.39983E+06         0.00000E+00
    0.39983E+06        -0.96917E+08         0.00000E+00
    0.00000E+00         0.00000E+00        -0.56738E+08
 
   -0.57154E+08         0.36940E+06         0.00000E+00
    0.36940E+06        -0.96922E+08         0.00000E+00
    0.00000E+00         0.00000E+00        -0.56515E+08
 
   -0.57024E+08         0.33455E+06         0.00000E+00
    0.33455E+06        -0.96930E+08         0.00000E+00
    0.00000E+00         0.00000E+00        -0.56287E+08
 
   -0.56900E+08         0.29507E+06         0.00000E+00
    0.29507E+06        -0.96939E+08         0.00000E+00
    0.00000E+00         0.00000E+00        -0.56053E+08
 
   -0.56785E+08         0.25100E+06         0.00000E+00
    0.25100E+06        -0.96949E+08         0.00000E+00
    0.00000E+00         0.00000E+00        -0.55811E+08
 
   -0.56678E+08         0.20278E+06         0.00000E+00
    0.20278E+06        -0.96960E+08         0.00000E+00
    0.00000E+00         0.00000E+00        -0.55562E+08
 
   -0.56580E+08         0.15138E+06         0.00000E+00
    0.15138E+06        -0.96971E+08         0.00000E+00
    0.00000E+00         0.00000E+00        -0.55303E+08
 
   -0.56493E+08         0.98514E+05         0.00000E+00
    0.98514E+05        -0.96981E+08         0.00000E+00
    0.00000E+00         0.00000E+00        -0.55035E+08
 
   -0.56415E+08         0.46892E+05         0.00000E+00
    0.46892E+05        -0.96989E+08         0.00000E+00
    0.00000E+00         0.00000E+00        -0.54755E+08
 
   -0.56346E+08         0.63862E+03         0.00000E+00
    0.63862E+03        -0.96992E+08         0.00000E+00
    0.00000E+00         0.00000E+00        -0.54465E+08
 
   -0.56284E+08        -0.33955E+05         0.00000E+00
   -0.33955E+05        -0.96988E+08         0.00000E+00
    0.00000E+00         0.00000E+00        -0.54161E+08
 
   -0.56228E+08        -0.49340E+05         0.00000E+00
   -0.49340E+05        -0.96968E+08         0.00000E+00
    0.00000E+00         0.00000E+00        -0.53839E+08
 
   -0.56181E+08        -0.41697E+05         0.00000E+00
   -0.41697E+05        -0.96917E+08         0.00000E+00
    0.00000E+00         0.00000E+00        -0.53484E+08
 
   -0.56153E+08        -0.16063E+05         0.00000E+00
   -0.16063E+05        -0.96824E+08         0.00000E+00
    0.00000E+00         0.00000E+00        -0.53076E+08
 
   -0.73842E+08        -0.57629E+05         0.00000E+00
   -0.57629E+05        -0.97837E+08         0.00000E+00
    0.00000E+00         0.00000E+00        -0.78463E+08
 
   -0.73821E+08        -0.13738E+06         0.00000E+00
   -0.13738E+06        -0.97637E+08         0.00000E+00
    0.00000E+00         0.00000E+00        -0.78049E+08
 
   -0.73786E+08        -0.14603E+06         0.00000E+00
   -0.14603E+06        -0.97559E+08         0.00000E+00
    0.00000E+00         0.00000E+00        -0.77635E+08
 
   -0.73743E+08        -0.10389E+06         0.00000E+00
   -0.10389E+06        -0.97524E+08         0.00000E+00
    0.00000E+00         0.00000E+00        -0.77221E+08
 
   -0.73687E+08        -0.32928E+05         0.00000E+00
   -0.32928E+05        -0.97502E+08         0.00000E+00
    0.00000E+00         0.00000E+00        -0.76809E+08
 
   -0.73614E+08         0.49589E+05         0.00000E+00
    0.49589E+05        -0.97484E+08         0.00000E+00
    0.00000E+00         0.00000E+00        -0.76397E+08
 
   -0.73518E+08         0.13437E+06         0.00000E+00
    0.13437E+06        -0.97472E+08         0.00000E+00
    0.00000E+00         0.00000E+00        -0.75985E+08
 
   -0.73399E+08         0.21853E+06         0.00000E+00
    0.21853E+06        -0.97468E+08         0.00000E+00
    0.00000E+00         0.00000E+00        -0.75576E+08
 
   -0.73259E+08         0.30037E+06         0.00000E+00
    0.30037E+06        -0.97470E+08         0.00000E+00
    0.00000E+00         0.00000E+00        -0.75167E+08
 
   -0.73099E+08         0.37796E+06         0.00000E+00
    0.37796E+06        -0.97478E+08         0.00000E+00
    0.00000E+00         0.00000E+00        -0.74760E+08
 
   -0.72922E+08         0.44955E+06         0.00000E+00
    0.44955E+06        -0.97489E+08         0.00000E+00
    0.00000E+00         0.00000E+00        -0.74354E+08
 
   -0.72729E+08         0.51368E+06         0.00000E+00
    0.51368E+06        -0.97502E+08         0.00000E+00
    0.00000E+00         0.00000E+00        -0.73951E+08
 
   -0.72522E+08         0.56921E+06         0.00000E+00
    0.56921E+06        -0.97517E+08         0.00000E+00
    0.00000E+00         0.00000E+00        -0.73549E+08
 
   -0.72305E+08         0.61517E+06         0.00000E+00
    0.61517E+06        -0.97533E+08         0.00000E+00
    0.00000E+00         0.00000E+00        -0.73148E+08
 
   -0.72078E+08         0.65086E+06         0.00000E+00
    0.65086E+06        -0.97551E+08         0.00000E+00
    0.00000E+00         0.00000E+00        -0.72751E+08
 
   -0.71844E+08         0.67565E+06         0.00000E+00
    0.67565E+06        -0.97570E+08         0.00000E+00
    0.00000E+00         0.00000E+00        -0.72355E+08
 
   -0.71606E+08         0.68885E+06         0.00000E+00
    0.68885E+06        -0.97590E+08         0.00000E+00
    0.00000E+00         0.00000E+00        -0.71961E+08
 
   -0.71365E+08         0.68620E+06         0.00000E+00
    0.68620E+06        -0.97604E+08         0.00000E+00
    0.00000E+00         0.00000E+00        -0.71575E+08
 
   -0.71118E+08         0.68979E+06         0.00000E+00
    0.68979E+06        -0.97606E+08         0.00000E+00
    0.00000E+00         0.00000E+00        -0.71240E+08
 
   -0.70866E+08         0.69990E+06         0.00000E+00
    0.69990E+06        -0.97593E+08         0.00000E+00
    0.00000E+00         0.00000E+00        -0.70960E+08
 
   -0.70611E+08         0.70677E+06         0.00000E+00
    0.70677E+06        -0.97586E+08         0.00000E+00
    0.00000E+00         0.00000E+00        -0.70684E+08
 
   -0.70353E+08         0.71219E+06         0.00000E+00
    0.71219E+06        -0.97586E+08         0.00000E+00
    0.00000E+00         0.00000E+00        -0.70410E+08
 
   -0.70096E+08         0.71752E+06         0.00000E+00
    0.71752E+06        -0.97588E+08         0.00000E+00
    0.00000E+00         0.00000E+00        -0.70138E+08
 
   -0.69840E+08         0.72211E+06         0.00000E+00
    0.72211E+06        -0.97591E+08         0.00000E+00
    0.00000E+00         0.00000E+00        -0.69867E+08
 
   -0.69585E+08         0.72568E+06         0.00000E+00
    0.72568E+06        -0.97593E+08         0.00000E+00
    0.00000E+00         0.00000E+00        -0.69598E+08
 
   -0.69331E+08         0.72820E+06         0.00000E+00
    0.72820E+06        -0.97596E+08         0.00000E+00
    0.00000E+00         0.00000E+00        -0.69329E+08
 
   -0.69077E+08         0.72980E+06         0.00000E+00
    0.72980E+06        -0.97597E+08         0.00000E+00
    0.00000E+00         0.00000E+00        -0.69062E+08
 
   -0.68824E+08         0.73062E+06         0.00000E+00
    0.73062E+06        -0.97598E+08         0.00000E+00
    0.00000E+00         0.00000E+00        -0.68795E+08
 
   -0.68571E+08         0.73074E+06         0.00000E+00
    0.73074E+06        -0.97599E+08         0.00000E+00
    0.00000E+00         0.00000E+00        -0.68529E+08
 
   -0.68320E+08         0.73024E+06         0.00000E+00
    0.73024E+06        -0.97600E+08         0.00000E+00
    0.00000E+00         0.00000E+00        -0.68263E+08
 
   -0.68070E+08         0.72908E+06         0.00000E+00
    0.72908E+06        -0.97601E+08         0.00000E+00
    0.00000E+00         0.00000E+00        -0.67997E+08
 
   -0.67821E+08         0.72713E+06         0.00000E+00
    0.72713E+06        -0.97602E+08         0.00000E+00
    0.00000E+00         0.00000E+00        -0.67732E+08
 
   -0.67574E+08         0.72408E+06         0.00000E+00
    0.72408E+06        -0.97603E+08         0.00000E+00
    0.00000E+00         0.00000E+00        -0.67468E+08
 
   -0.67330E+08         0.71935E+06         0.00000E+00
    0.71935E+06        -0.97606E+08         0.00000E+00
    0.00000E+00         0.00000E+00        -0.67203E+08
 
   -0.67088E+08         0.71214E+06         0.00000E+00
    0.71214E+06        -0.97612E+08         0.00000E+00
    0.00000E+00         0.00000E+00        -0.66939E+08
 
   -0.66848E+08         0.70195E+06         0.00000E+00
    0.70195E+06        -0.97623E+08         0.00000E+00
    0.00000E+00         0.00000E+00        -0.66675E+08
 
   -0.66608E+08         0.68943E+06         0.00000E+00
    0.68943E+06        -0.97630E+08         0.00000E+00
    0.00000E+00         0.00000E+00        -0.66425E+08
 
   -0.66370E+08         0.67608E+06         0.00000E+00
    0.67608E+06        -0.97623E+08         0.00000E+00
    0.00000E+00         0.00000E+00        -0.66201E+08
 
   -0.66133E+08         0.66487E+06         0.00000E+00
    0.66487E+06        -0.97613E+08         0.00000E+00
    0.00000E+00         0.00000E+00        -0.65987E+08
 
   -0.65899E+08         0.65639E+06         0.00000E+00
    0.65639E+06        -0.97608E+08         0.00000E+00
    0.00000E+00         0.00000E+00        -0.65773E+08
 
   -0.65668E+08         0.65010E+06         0.00000E+00
    0.65010E+06        -0.97606E+08         0.00000E+00
    0.00000E+00         0.00000E+00        -0.65560E+08
 
   -0.65439E+08         0.64526E+06         0.00000E+00
    0.64526E+06        -0.97605E+08         0.00000E+00
    0.00000E+00         0.00000E+00        -0.65347E+08
 
   -0.65213E+08         0.64127E+06         0.00000E+00
    0.64127E+06        -0.97604E+08         0.00000E+00
    0.00000E+00         0.00000E+00        -0.65134E+08
 
   -0.64989E+08         0.63781E+06         0.00000E+00
    0.63781E+06        -0.97604E+08         0.00000E+00
    0.00000E+00         0.00000E+00        -0.64922E+08
 
   -0.64767E+08         0.63467E+06         0.00000E+00
    0.63467E+06        -0.97604E+08         0.00000E+00
    0.00000E+00         0.00000E+00        -0.64711E+08
 
   -0.64547E+08         0.63175E+06         0.00000E+00
    0.63175E+06        -0.97604E+08         0.00000E+00
    0.00000E+00         0.00000E+00        -0.64500E+08
 
   -0.64328E+08         0.62897E+06         0.00000E+00
    0.62897E+06        -0.97604E+08         0.00000E+00
    0.00000E+00         0.00000E+00        -0.64289E+08
 
   -0.64117E+08         0.62605E+06         0.00000E+00
    0.62605E+06        -0.97597E+08         0.00000E+00
    0.00000E+00         0.00000E+00        -0.64086E+08
 
   -0.63923E+08         0.62265E+06         0.00000E+00
    0.62265E+06        -0.97576E+08         0.00000E+00
    0.00000E+00         0.00000E+00        -0.63899E+08
 
   -0.63736E+08         0.61916E+06         0.00000E+00
    0.61916E+06        -0.97550E+08         0.00000E+00
    0.00000E+00         0.00000E+00        -0.63717E+08
 
   -0.63549E+08         0.61574E+06         0.00000E+00
    0.61574E+06        -0.97524E+08         0.00000E+00
    0.00000E+00         0.00000E+00        -0.63536E+08
 
   -0.63363E+08         0.61239E+06         0.00000E+00
    0.61239E+06        -0.97498E+08         0.00000E+00
    0.00000E+00         0.00000E+00        -0.63355E+08
 
   -0.63178E+08         0.60910E+06         0.00000E+00
    0.60910E+06        -0.97473E+08         0.00000E+00
    0.00000E+00         0.00000E+00        -0.63175E+08
 
   -0.62994E+08         0.60586E+06         0.00000E+00
    0.60586E+06        -0.97447E+08         0.00000E+00
    0.00000E+00         0.00000E+00        -0.62994E+08
 
   -0.62810E+08         0.60266E+06         0.00000E+00
    0.60266E+06        -0.97422E+08         0.00000E+00
    0.00000E+00         0.00000E+00        -0.62814E+08
 
   -0.62627E+08         0.59949E+06         0.00000E+00
    0.59949E+06        -0.97397E+08         0.00000E+00
    0.00000E+00         0.00000E+00        -0.62634E+08
 
   -0.62444E+08         0.59634E+06         0.00000E+00
    0.59634E+06        -0.97372E+08         0.00000E+00
    0.00000E+00         0.00000E+00        -0.62453E+08
 
   -0.62262E+08         0.59320E+06         0.00000E+00
    0.59320E+06        -0.97347E+08         0.00000E+00
    0.00000E+00         0.00000E+00        -0.62273E+08
 
   -0.62080E+08         0.59006E+06         0.00000E+00
    0.59006E+06        -0.97323E+08         0.00000E+00
    0.00000E+00         0.00000E+00        -0.62093E+08
 
   -0.61899E+08         0.58690E+06         0.00000E+00
    0.58690E+06        -0.97299E+08         0.00000E+00
    0.00000E+00         0.00000E+00        -0.61913E+08
 
   -0.61718E+08         0.58371E+06         0.00000E+00
    0.58371E+06        -0.97275E+08         0.00000E+00
    0.00000E+00         0.00000E+00        -0.61732E+08
 
   -0.61538E+08         0.58049E+06         0.00000E+00
    0.58049E+06        -0.97252E+08         0.00000E+00
    0.00000E+00         0.00000E+00        -0.61552E+08
 
   -0.61358E+08         0.57721E+06         0.00000E+00
    0.57721E+06        -0.97229E+08         0.00000E+00
    0.00000E+00         0.00000E+00        -0.61371E+08
 
   -0.61178E+08         0.57386E+06         0.00000E+00
    0.57386E+06        -0.97206E+08         0.00000E+00
    0.00000E+00         0.00000E+00        -0.61190E+08
 
   -0.60999E+08         0.57043E+06         0.00000E+00
    0.57043E+06        -0.97185E+08         0.00000E+00
    0.00000E+00         0.00000E+00        -0.61009E+08
 
   -0.60820E+08         0.56690E+06         0.00000E+00
    0.56690E+06        -0.97163E+08         0.00000E+00
    0.00000E+00         0.00000E+00        -0.60827E+08
 
   -0.60641E+08         0.56326E+06         0.00000E+00
    0.56326E+06        -0.97142E+08         0.00000E+00
    0.00000E+00         0.00000E+00        -0.60644E+08
 
   -0.60463E+08         0.55948E+06         0.00000E+00
    0.55948E+06        -0.97122E+08         0.00000E+00
    0.00000E+00         0.00000E+00        -0.60462E+08
 
   -0.60285E+08         0.55554E+06         0.00000E+00
    0.55554E+06        -0.97102E+08         0.00000E+00
    0.00000E+00         0.00000E+00        -0.60278E+08
 
   -0.60108E+08         0.55142E+06         0.00000E+00
    0.55142E+06        -0.97083E+08         0.00000E+00
    0.00000E+00         0.00000E+00        -0.60094E+08
 
   -0.59931E+08         0.54708E+06         0.00000E+00
    0.54708E+06        -0.97065E+08         0.00000E+00
    0.00000E+00         0.00000E+00        -0.59909E+08
 
   -0.59755E+08         0.54251E+06         0.00000E+00
    0.54251E+06        -0.97047E+08         0.00000E+00
    0.00000E+00         0.00000E+00        -0.59723E+08
 
   -0.59580E+08         0.53765E+06         0.00000E+00
    0.53765E+06        -0.97030E+08         0.00000E+00
    0.00000E+00         0.00000E+00        -0.59536E+08
 
   -0.59405E+08         0.53246E+06         0.00000E+00
    0.53246E+06        -0.97014E+08         0.00000E+00
    0.00000E+00         0.00000E+00        -0.59348E+08
 
   -0.59231E+08         0.52688E+06         0.00000E+00
    0.52688E+06        -0.96999E+08         0.00000E+00
    0.00000E+00         0.00000E+00        -0.59159E+08
 
   -0.59058E+08         0.52082E+06         0.00000E+00
    0.52082E+06        -0.96984E+08         0.00000E+00
    0.00000E+00         0.00000E+00        -0.58969E+08
 
   -0.58886E+08         0.51419E+06         0.00000E+00
    0.51419E+06        -0.96971E+08         0.00000E+00
    0.00000E+00         0.00000E+00        -0.58777E+08
 
   -0.58715E+08         0.50688E+06         0.00000E+00
    0.50688E+06        -0.96959E+08         0.00000E+00
    0.00000E+00         0.00000E+00        -0.58583E+08
 
   -0.58546E+08         0.49873E+06         0.00000E+00
    0.49873E+06        -0.96948E+08         0.00000E+00
    0.00000E+00         0.00000E+00        -0.58388E+08
 
   -0.58379E+08         0.48957E+06         0.00000E+00
    0.48957E+06        -0.96938E+08         0.00000E+00
    0.00000E+00         0.00000E+00        -0.58191E+08
 
   -0.58214E+08         0.47916E+06         0.00000E+00
    0.47916E+06        -0.96929E+08         0.00000E+00
    0.00000E+00         0.00000E+00        -0.57991E+08
 
   -0.58052E+08         0.46725E+06         0.00000E+00
    0.46725E+06        -0.96922E+08         0.00000E+00
    0.00000E+00         0.00000E+00        -0.57789E+08
 
   -0.57893E+08         0.45352E+06         0.00000E+00
    0.45352E+06        -0.96917E+08         0.00000E+00
    0.00000E+00         0.00000E+00        -0.57584E+08
 
   -0.57737E+08         0.43761E+06         0.00000E+00
    0.43761E+06        -0.96913E+08         0.00000E+00
    0.00000E+00         0.00000E+00        -0.57376E+08
 
   -0.57585E+08         0.41912E+06         0.00000E+00
    0.41912E+06        -0.96911E+08         0.00000E+00
    0.00000E+00         0.00000E+00        -0.57165E+08
 
   -0.57438E+08         0.39759E+06         0.00000E+00
    0.39759E+06        -0.96911E+08         0.00000E+00
    0.00000E+00         0.00000E+00        -0.56949E+08
 
   -0.57296E+08         0.37260E+06         0.00000E+00
    0.37260E+06        -0.96914E+08         0.00000E+00
    0.00000E+00         0.00000E+00        -0.56730E+08
 
   -0.57160E+08         0.34370E+06         0.00000E+00
    0.34370E+06        -0.96918E+08         0.00000E+00
    0.00000E+00         0.00000E+00        -0.56505E+08
 
   -0.57031E+08         0.31055E+06         0.00000E+00
    0.31055E+06        -0.96924E+08         0.00000E+00
    0.00000E+00         0.00000E+00        -0.56274E+08
 
   -0.56910E+08         0.27297E+06         0.00000E+00
    0.27297E+06        -0.96932E+08         0.00000E+00
    0.00000E+00         0.00000E+00        -0.56037E+08
 
   -0.56797E+08         0.23099E+06         0.00000E+00
    0.23099E+06        -0.96942E+08         0.00000E+00
    0.00000E+00         0.00000E+00        -0.55793E+08
 
   -0.56693E+08         0.18505E+06         0.00000E+00
    0.18505E+06        -0.96952E+08         0.00000E+00
    0.00000E+00         0.00000E+00        -0.55540E+08
 
   -0.56599E+08         0.13609E+06         0.00000E+00
    0.13609E+06        -0.96963E+08         0.00000E+00
    0.00000E+00         0.00000E+00        -0.55278E+08
 
   -0.56515E+08         0.85751E+05         0.00000E+00
    0.85751E+05        -0.96972E+08         0.00000E+00
    0.00000E+00         0.00000E+00        -0.55006E+08
 
   -0.56442E+08         0.36541E+05         0.00000E+00
    0.36541E+05        -0.96981E+08         0.00000E+00
    0.00000E+00         0.00000E+00        -0.54722E+08
 
   -0.56379E+08        -0.78150E+04         0.00000E+00
   -0.78150E+04        -0.96986E+08         0.00000E+00
    0.00000E+00         0.00000E+00        -0.54428E+08
 
   -0.56323E+08        -0.41382E+05         0.00000E+00
   -0.41382E+05        -0.96985E+08         0.00000E+00
    0.00000E+00         0.00000E+00        -0.54123E+08
 
   -0.56271E+08        -0.56120E+05         0.00000E+00
   -0.56120E+05        -0.96970E+08         0.00000E+00
    0.00000E+00         0.00000E+00        -0.53802E+08
 
   -0.56226E+08        -0.46878E+05         0.00000E+00
   -0.46878E+05        -0.96925E+08         0.00000E+00
    0.00000E+00         0.00000E+00        -0.53450E+08
 
   -0.56199E+08        -0.18046E+05         0.00000E+00
   -0.18046E+05        -0.96834E+08         0.00000E+00
    0.00000E+00         0.00000E+00        -0.53045E+08
 
   -0.73702E+08        -0.59821E+05         0.00000E+00
   -0.59821E+05        -0.97815E+08         0.00000E+00
    0.00000E+00         0.00000E+00        -0.78463E+08
 
   -0.73694E+08        -0.14300E+06         0.00000E+00
   -0.14300E+06        -0.97628E+08         0.00000E+00
    0.00000E+00         0.00000E+00        -0.78049E+08
 
   -0.73676E+08        -0.15224E+06         0.00000E+00
   -0.15224E+06        -0.97564E+08         0.00000E+00
    0.00000E+00         0.00000E+00        -0.77635E+08
 
   -0.73649E+08        -0.11237E+06         0.00000E+00
   -0.11237E+06        -0.97536E+08         0.00000E+00
    0.00000E+00         0.00000E+00        -0.77221E+08
 
   -0.73606E+08        -0.44385E+05         0.00000E+00
   -0.44385E+05        -0.97517E+08         0.00000E+00
    0.00000E+00         0.00000E+00        -0.76809E+08
 
   -0.73545E+08         0.33855E+05         0.00000E+00
    0.33855E+05        -0.97500E+08         0.00000E+00
    0.00000E+00         0.00000E+00        -0.76397E+08
 
   -0.73459E+08         0.11375E+06         0.00000E+00
    0.11375E+06        -0.97488E+08         0.00000E+00
    0.00000E+00         0.00000E+00        -0.75985E+08
 
   -0.73348E+08         0.19329E+06         0.00000E+00
    0.19329E+06        -0.97484E+08         0.00000E+00
    0.00000E+00         0.00000E+00        -0.75576E+08
 
   -0.73215E+08         0.27094E+06         0.00000E+00
    0.27094E+06        -0.97486E+08         0.00000E+00
    0.00000E+00         0.00000E+00        -0.75167E+08
 
   -0.73061E+08         0.34476E+06         0.00000E+00
    0.34476E+06        -0.97493E+08         0.00000E+00
    0.00000E+00         0.00000E+00        -0.74760E+08
 
   -0.72889E+08         0.41295E+06         0.00000E+00
    0.41295E+06        -0.97502E+08         0.00000E+00
    0.00000E+00         0.00000E+00        -0.74354E+08
 
   -0.72701E+08         0.47409E+06         0.00000E+00
    0.47409E+06        -0.97514E+08         0.00000E+00
    0.00000E+00         0.00000E+00        -0.73951E+08
 
   -0.72498E+08         0.52704E+06         0.00000E+00
    0.52704E+06        -0.97527E+08         0.00000E+00
    0.00000E+00         0.00000E+00        -0.73549E+08
 
   -0.72283E+08         0.57090E+06         0.00000E+00
    0.57090E+06        -0.97541E+08         0.00000E+00
    0.00000E+00         0.00000E+00        -0.73148E+08
 
   -0.72059E+08         0.60494E+06         0.00000E+00
    0.60494E+06        -0.97557E+08         0.00000E+00
    0.00000E+00         0.00000E+00        -0.72751E+08
 
   -0.71827E+08         0.62860E+06         0.00000E+00
    0.62860E+06        -0.97573E+08         0.00000E+00
    0.00000E+00         0.00000E+00        -0.72355E+08
 
   -0.71589E+08         0.64056E+06         0.00000E+00
    0.64056E+06        -0.97591E+08         0.00000E+00
    0.00000E+00         0.00000E+00        -0.71961E+08
 
   -0.71349E+08         0.63920E+06         0.00000E+00
    0.63920E+06        -0.97605E+08         0.00000E+00
    0.00000E+00         0.00000E+00        -0.71571E+08
 
   -0.71106E+08         0.63859E+06         0.00000E+00
    0.63859E+06        -0.97606E+08         0.00000E+00
    0.00000E+00         0.00000E+00        -0.71232E+08
 
   -0.70855E+08         0.64974E+06         0.00000E+00
    0.64974E+06        -0.97595E+08         0.00000E+00
    0.00000E+00         0.00000E+00        -0.70949E+08
 
   -0.70601E+08         0.65538E+06         0.00000E+00
    0.65538E+06        -0.97587E+08         0.00000E+00
    0.00000E+00         0.00000E+00        -0.70672E+08
 
   -0.70344E+08         0.66079E+06         0.00000E+00
    0.66079E+06        -0.97587E+08         0.00000E+00
    0.00000E+00         0.00000E+00        -0.70398E+08
 
   -0.70088E+08         0.66629E+06         0.00000E+00
    0.66629E+06        -0.97589E+08         0.00000E+00
    0.00000E+00         0.00000E+00        -0.70125E+08
 
   -0.69833E+08         0.67107E+06         0.00000E+00
    0.67107E+06        -0.97592E+08         0.00000E+00
    0.00000E+00         0.00000E+00        -0.69855E+08
 
   -0.69578E+08         0.67477E+06         0.00000E+00
    0.67477E+06        -0.97594E+08         0.00000E+00
    0.00000E+00         0.00000E+00        -0.69586E+08
 
   -0.69324E+08         0.67741E+06         0.00000E+00
    0.67741E+06        -0.97596E+08         0.00000E+00
    0.00000E+00         0.00000E+00        -0.69318E+08
 
   -0.69071E+08         0.67913E+06         0.00000E+00
    0.67913E+06        -0.97597E+08         0.00000E+00
    0.00000E+00         0.00000E+00        -0.69051E+08
 
   -0.68818E+08         0.68007E+06         0.00000E+00
    0.68007E+06        -0.97599E+08         0.00000E+00
    0.00000E+00         0.00000E+00        -0.68784E+08
 
   -0.68566E+08         0.68036E+06         0.00000E+00
    0.68036E+06        -0.97599E+08         0.00000E+00
    0.00000E+00         0.00000E+00        -0.68518E+08
 
   -0.68314E+08         0.68006E+06         0.00000E+00
    0.68006E+06        -0.97600E+08         0.00000E+00
    0.00000E+00         0.00000E+00        -0.68253E+08
 
   -0.68064E+08         0.67916E+06         0.00000E+00
    0.67916E+06        -0.97601E+08         0.00000E+00
    0.00000E+00         0.00000E+00        -0.67988E+08
 
   -0.67815E+08         0.67756E+06         0.00000E+00
    0.67756E+06        -0.97601E+08         0.00000E+00
    0.00000E+00         0.00000E+00        -0.67723E+08
 
   -0.67568E+08         0.67494E+06         0.00000E+00
    0.67494E+06        -0.97603E+08         0.00000E+00
    0.00000E+00         0.00000E+00        -0.67459E+08
 
   -0.67324E+08         0.67071E+06         0.00000E+00
    0.67071E+06        -0.97605E+08         0.00000E+00
    0.00000E+00         0.00000E+00        -0.67195E+08
 
   -0.67082E+08         0.66399E+06         0.00000E+00
    0.66399E+06        -0.97610E+08         0.00000E+00
    0.00000E+00         0.00000E+00        -0.66931E+08
 
   -0.66842E+08         0.65409E+06         0.00000E+00
    0.65409E+06        -0.97621E+08         0.00000E+00
    0.00000E+00         0.00000E+00        -0.66668E+08
 
   -0.66603E+08         0.64164E+06         0.00000E+00
    0.64164E+06        -0.97628E+08         0.00000E+00
    0.00000E+00         0.00000E+00        -0.66418E+08
 
   -0.66364E+08         0.62856E+06         0.00000E+00
    0.62856E+06        -0.97620E+08         0.00000E+00
    0.00000E+00         0.00000E+00        -0.66195E+08
 
   -0.66128E+08         0.61779E+06         0.00000E+00
    0.61779E+06        -0.97612E+08         0.00000E+00
    0.00000E+00         0.00000E+00        -0.65981E+08
 
   -0.65894E+08         0.60988E+06         0.00000E+00
    0.60988E+06        -0.97607E+08         0.00000E+00
    0.00000E+00         0.00000E+00        -0.65767E+08
 
   -0.65664E+08         0.60419E+06         0.00000E+00
    0.60419E+06        -0.97605E+08         0.00000E+00
    0.00000E+00         0.00000E+00        -0.65554E+08
 
   -0.65436E+08         0.59986E+06         0.00000E+00
    0.59986E+06        -0.97604E+08         0.00000E+00
    0.00000E+00         0.00000E+00        -0.65342E+08
 
   -0.65210E+08         0.59633E+06         0.00000E+00
    0.59633E+06        -0.97603E+08         0.00000E+00
    0.00000E+00         0.00000E+00        -0.65130E+08
 
   -0.64987E+08         0.59326E+06         0.00000E+00
    0.59326E+06        -0.97603E+08         0.00000E+00
    0.00000E+00         0.00000E+00        -0.64918E+08
 
   -0.64765E+08         0.59046E+06         0.00000E+00
    0.59046E+06        -0.97603E+08         0.00000E+00
    0.00000E+00         0.00000E+00        -0.64707E+08
 
   -0.64545E+08         0.58783E+06         0.00000E+00
    0.58783E+06        -0.97603E+08         0.00000E+00
    0.00000E+00         0.00000E+00        -0.64496E+08
 
   -0.64326E+08         0.58532E+06         0.00000E+00
    0.58532E+06        -0.97603E+08         0.00000E+00
    0.00000E+00         0.00000E+00        -0.64286E+08
 
   -0.64116E+08         0.58265E+06         0.00000E+00
    0.58265E+06        -0.97596E+08         0.00000E+00
    0.00000E+00         0.00000E+00        -0.64083E+08
 
   -0.63922E+08         0.57953E+06         0.00000E+00
    0.57953E+06        -0.97575E+08         0.00000E+00
    0.00000E+00         0.00000E+00        -0.63896E+08
 
   -0.63735E+08         0.57631E+06         0.00000E+00
    0.57631E+06        -0.97549E+08         0.00000E+00
    0.00000E+00         0.00000E+00        -0.63715E+08
 
   -0.63548E+08         0.57315E+06         0.00000E+00
    0.57315E+06        -0.97523E+08         0.00000E+00
    0.00000E+00         0.00000E+00        -0.63534E+08
 
   -0.63362E+08         0.57005E+06         0.00000E+00
    0.57005E+06        -0.97498E+08         0.00000E+00
    0.00000E+00         0.00000E+00        -0.63353E+08
 
   -0.63177E+08         0.56699E+06         0.00000E+00
    0.56699E+06        -0.97472E+08         0.00000E+00
    0.00000E+00         0.00000E+00        -0.63173E+08
 
   -0.62992E+08         0.56398E+06         0.00000E+00
    0.56398E+06        -0.97447E+08         0.00000E+00
    0.00000E+00         0.00000E+00        -0.62992E+08
 
   -0.62809E+08         0.56101E+06         0.00000E+00
    0.56101E+06        -0.97422E+08         0.00000E+00
    0.00000E+00         0.00000E+00        -0.62812E+08
 
   -0.62625E+08         0.55806E+06         0.00000E+00
    0.55806E+06        -0.97397E+08         0.00000E+00
    0.00000E+00         0.00000E+00        -0.62632E+08
 
   -0.62443E+08         0.55512E+06         0.00000E+00
    0.55512E+06        -0.97372E+08         0.00000E+00
    0.00000E+00         0.00000E+00        -0.62452E+08
 
   -0.62261E+08         0.55219E+06         0.00000E+00
    0.55219E+06        -0.97347E+08         0.00000E+00
    0.00000E+00         0.00000E+00        -0.62272E+08
 
   -0.62079E+08         0.54926E+06         0.00000E+00
    0.54926E+06        -0.97323E+08         0.00000E+00
    0.00000E+00         0.00000E+00        -0.62092E+08
 
   -0.61898E+08         0.54631E+06         0.00000E+00
    0.54631E+06        -0.97299E+08         0.00000E+00
    0.00000E+00         0.00000E+00        -0.61912E+08
 
   -0.61717E+08         0.54334E+06         0.00000E+00
    0.54334E+06        -0.97276E+08         0.00000E+00
    0.00000E+00         0.00000E+00        -0.61732E+08
 
   -0.61537E+08         0.54032E+06         0.00000E+00
    0.54032E+06        -0.97252E+08         0.00000E+00
    0.00000E+00         0.00000E+00        -0.61551E+08
 
   -0.61357E+08         0.53726E+06         0.00000E+00
    0.53726E+06        -0.97230E+08         0.00000E+00
    0.00000E+00         0.00000E+00        -0.61371E+08
 
   -0.61177E+08         0.53413E+06         0.00000E+00
    0.53413E+06        -0.97207E+08         0.00000E+00
    0.00000E+00         0.00000E+00        -0.61190E+08
 
   -0.60998E+08         0.53092E+06         0.00000E+00
    0.53092E+06        -0.97185E+08         0.00000E+00
    0.00000E+00         0.00000E+00        -0.61008E+08
 
   -0.60819E+08         0.52762E+06         0.00000E+00
    0.52762E+06        -0.97164E+08         0.00000E+00
    0.00000E+00         0.00000E+00        -0.60826E+08
 
   -0.60640E+08         0.52421E+06         0.00000E+00
    0.52421E+06        -0.97143E+08         0.00000E+00
    0.00000E+00         0.00000E+00        -0.60644E+08
 
   -0.60462E+08         0.52067E+06         0.00000E+00
    0.52067E+06        -0.97123E+08         0.00000E+00
    0.00000E+00         0.00000E+00        -0.60461E+08
 
   -0.60285E+08         0.51698E+06         0.00000E+00
    0.51698E+06        -0.97103E+08         0.00000E+00
    0.00000E+00         0.00000E+00        -0.60278E+08
 
   -0.60107E+08         0.51313E+06         0.00000E+00
    0.51313E+06        -0.97084E+08         0.00000E+00
    0.00000E+00         0.00000E+00        -0.60093E+08
 
   -0.59931E+08         0.50908E+06         0.00000E+00
    0.50908E+06        -0.97066E+08         0.00000E+00
    0.00000E+00         0.00000E+00        -0.59908E+08
 
   -0.59755E+08         0.50480E+06         0.00000E+00
    0.50480E+06        -0.97048E+08         0.00000E+00
    0.00000E+00         0.00000E+00        -0.59723E+08
 
   -0.59579E+08         0.50027E+06         0.00000E+00
    0.50027E+06        -0.97031E+08         0.00000E+00
    0.00000E+00         0.00000E+00        -0.59536E+08
 
   -0.59405E+08         0.49542E+06         0.00000E+00
    0.49542E+06        -0.97015E+08         0.00000E+00
    0.00000E+00         0.00000E+00        -0.59348E+08
 
   -0.59231E+08         0.49021E+06         0.00000E+00
    0.49021E+06        -0.97000E+08         0.00000E+00
    0.00000E+00         0.00000E+00        -0.59158E+08
 
   -0.59058E+08         0.48455E+06         0.00000E+00
    0.48455E+06        -0.96986E+08         0.00000E+00
    0.00000E+00         0.00000E+00        -0.58968E+08
 
   -0.58886E+08         0.47837E+06         0.00000E+00
    0.47837E+06        -0.96972E+08         0.00000E+00
    0.00000E+00         0.00000E+00        -0.58776E+08
 
   -0.58716E+08         0.47155E+06         0.00000E+00
    0.47155E+06        -0.96960E+08         0.00000E+00
    0.00000E+00         0.00000E+00        -0.58582E+08
 
   -0.58547E+08         0.46395E+06         0.00000E+00
    0.46395E+06        -0.96949E+08         0.00000E+00
    0.00000E+00         0.00000E+00        -0.58386E+08
 
   -0.58380E+08         0.45540E+06         0.00000E+00
    0.45540E+06        -0.96938E+08         0.00000E+00
    0.00000E+00         0.00000E+00        -0.58188E+08
 
   -0.58216E+08         0.44568E+06         0.00000E+00
    0.44568E+06        -0.96930E+08         0.00000E+00
    0.00000E+00         0.00000E+00        -0.57988E+08
 
   -0.58054E+08         0.43455E+06         0.00000E+00
    0.43455E+06        -0.96922E+08         0.00000E+00
    0.00000E+00         0.00000E+00        -0.57786E+08
 
   -0.57895E+08         0.42170E+06         0.00000E+00
    0.42170E+06        -0.96916E+08         0.00000E+00
    0.00000E+00         0.00000E+00        -0.57580E+08
 
   -0.57739E+08         0.40677E+06         0.00000E+00
    0.40677E+06        -0.96912E+08         0.00000E+00
    0.00000E+00         0.00000E+00        -0.57372E+08
 
   -0.57588E+08         0.38939E+06         0.00000E+00
    0.38939E+06        -0.96910E+08         0.00000E+00
    0.00000E+00         0.00000E+00        -0.57159E+08
 
   -0.57442E+08         0.36913E+06         0.00000E+00
    0.36913E+06        -0.96909E+08         0.00000E+00
    0.00000E+00         0.00000E+00        -0.56943E+08
 
   -0.57301E+08         0.34555E+06         0.00000E+00
    0.34555E+06        -0.96910E+08         0.00000E+00
    0.00000E+00         0.00000E+00        -0.56721E+08
 
   -0.57166E+08         0.31825E+06         0.00000E+00
    0.31825E+06        -0.96914E+08         0.00000E+00
    0.00000E+00         0.00000E+00        -0.56495E+08
 
   -0.57038E+08         0.28689E+06         0.00000E+00
    0.28689E+06        -0.96919E+08         0.00000E+00
    0.00000E+00         0.00000E+00        -0.56262E+08
 
   -0.56919E+08         0.25129E+06         0.00000E+00
    0.25129E+06        -0.96926E+08         0.00000E+00
    0.00000E+00         0.00000E+00        -0.56023E+08
 
   -0.56808E+08         0.21150E+06         0.00000E+00
    0.21150E+06        -0.96935E+08         0.00000E+00
    0.00000E+00         0.00000E+00        -0.55775E+08
 
   -0.56707E+08         0.16797E+06         0.00000E+00
    0.16797E+06        -0.96944E+08         0.00000E+00
    0.00000E+00         0.00000E+00        -0.55519E+08
 
   -0.56617E+08         0.12159E+06         0.00000E+00
    0.12159E+06        -0.96954E+08         0.00000E+00
    0.00000E+00         0.00000E+00        -0.55253E+08
 
   -0.56538E+08         0.73918E+05         0.00000E+00
    0.73918E+05        -0.96964E+08         0.00000E+00
    0.00000E+00         0.00000E+00        -0.54977E+08
 
   -0.56470E+08         0.27265E+05         0.00000E+00
    0.27265E+05        -0.96973E+08         0.00000E+00
    0.00000E+00         0.00000E+00        -0.54690E+08
 
   -0.56412E+08        -0.15072E+05         0.00000E+00
   -0.15072E+05        -0.96980E+08         0.00000E+00
    0.00000E+00         0.00000E+00        -0.54392E+08
 
   -0.56362E+08        -0.47669E+05         0.00000E+00
   -0.47669E+05        -0.96982E+08         0.00000E+00
    0.00000E+00         0.00000E+00        -0.54085E+08
 
   -0.56315E+08        -0.62136E+05         0.00000E+00
   -0.62136E+05        -0.96972E+08         0.00000E+00
    0.00000E+00         0.00000E+00        -0.53765E+08
 
   -0.56273E+08        -0.51762E+05         0.00000E+00
   -0.51762E+05        -0.96932E+08         0.00000E+00
    0.00000E+00         0.00000E+00        -0.53416E+08
 
   -0.56246E+08        -0.19980E+05         0.00000E+00
   -0.19980E+05        -0.96845E+08         0.00000E+00
    0.00000E+00         0.00000E+00        -0.53014E+08
 
   -0.73552E+08        -0.59939E+05         0.00000E+00
   -0.59939E+05        -0.97792E+08         0.00000E+00
    0.00000E+00         0.00000E+00        -0.78463E+08
 
   -0.73565E+08        -0.14514E+06         0.00000E+00
   -0.14514E+06        -0.97619E+08         0.00000E+00
    0.00000E+00         0.00000E+00        -0.78049E+08
 
   -0.73566E+08        -0.15484E+06         0.00000E+00
   -0.15484E+06        -0.97568E+08         0.00000E+00
    0.00000E+00         0.00000E+00        -0.77635E+08
 
   -0.73555E+08        -0.11792E+06         0.00000E+00
   -0.11792E+06        -0.97547E+08         0.00000E+00
    0.00000E+00         0.00000E+00        -0.77221E+08
 
   -0.73527E+08        -0.53168E+05         0.00000E+00
   -0.53168E+05        -0.97532E+08         0.00000E+00
    0.00000E+00         0.00000E+00        -0.76809E+08
 
   -0.73477E+08         0.20260E+05         0.00000E+00
    0.20260E+05        -0.97516E+08         0.00000E+00
    0.00000E+00         0.00000E+00        -0.76397E+08
 
   -0.73401E+08         0.94906E+05         0.00000E+00
    0.94906E+05        -0.97504E+08         0.00000E+00
    0.00000E+00         0.00000E+00        -0.75985E+08
 
   -0.73298E+08         0.16958E+06         0.00000E+00
    0.16958E+06        -0.97499E+08         0.00000E+00
    0.00000E+00         0.00000E+00        -0.75576E+08
 
   -0.73172E+08         0.24285E+06         0.00000E+00
    0.24285E+06        -0.97501E+08         0.00000E+00
    0.00000E+00         0.00000E+00        -0.75167E+08
 
   -0.73025E+08         0.31271E+06         0.00000E+00
    0.31271E+06        -0.97506E+08         0.00000E+00
    0.00000E+00         0.00000E+00        -0.74760E+08
 
   -0.72858E+08         0.37732E+06         0.00000E+00
    0.37732E+06        -0.97515E+08         0.00000E+00
    0.00000E+00         0.00000E+00        -0.74354E+08
 
   -0.72674E+08         0.43527E+06         0.00000E+00
    0.43527E+06        -0.97525E+08         0.00000E+00
    0.00000E+00         0.00000E+00        -0.73951E+08
 
   -0.72475E+08         0.48549E+06         0.00000E+00
    0.48549E+06        -0.97536E+08         0.00000E+00
    0.00000E+00         0.00000E+00        -0.73549E+08
 
   -0.72262E+08         0.52710E+06         0.00000E+00
    0.52710E+06        -0.97549E+08         0.00000E+00
    0.00000E+00         0.00000E+00        -0.73148E+08
 
   -0.72040E+08         0.55938E+06         0.00000E+00
    0.55938E+06        -0.97562E+08         0.00000E+00
    0.00000E+00         0.00000E+00        -0.72751E+08
 
   -0.71809E+08         0.58178E+06         0.00000E+00
    0.58178E+06        -0.97577E+08         0.00000E+00
    0.00000E+00         0.00000E+00        -0.72355E+08
 
   -0.71573E+08         0.59259E+06         0.00000E+00
    0.59259E+06        -0.97592E+08         0.00000E+00
    0.00000E+00         0.00000E+00        -0.71961E+08
 
   -0.71336E+08         0.59256E+06         0.00000E+00
    0.59256E+06        -0.97606E+08         0.00000E+00
    0.00000E+00         0.00000E+00        -0.71570E+08
 
   -0.71094E+08         0.58804E+06         0.00000E+00
    0.58804E+06        -0.97606E+08         0.00000E+00
    0.00000E+00         0.00000E+00        -0.71227E+08
 
   -0.70844E+08         0.59958E+06         0.00000E+00
    0.59958E+06        -0.97596E+08         0.00000E+00
    0.00000E+00         0.00000E+00        -0.70937E+08
 
   -0.70591E+08         0.60421E+06         0.00000E+00
    0.60421E+06        -0.97588E+08         0.00000E+00
    0.00000E+00         0.00000E+00        -0.70660E+08
 
   -0.70335E+08         0.60958E+06         0.00000E+00
    0.60958E+06        -0.97588E+08         0.00000E+00
    0.00000E+00         0.00000E+00        -0.70386E+08
 
   -0.70080E+08         0.61524E+06         0.00000E+00
    0.61524E+06        -0.97590E+08         0.00000E+00
    0.00000E+00         0.00000E+00        -0.70113E+08
 
   -0.69826E+08         0.62017E+06         0.00000E+00
    0.62017E+06        -0.97593E+08         0.00000E+00
    0.00000E+00         0.00000E+00        -0.69843E+08
 
   -0.69572E+08         0.62397E+06         0.00000E+00
    0.62397E+06        -0.97595E+08         0.00000E+00
    0.00000E+00         0.00000E+00        -0.69574E+08
 
   -0.69319E+08         0.62670E+06         0.00000E+00
    0.62670E+06        -0.97596E+08         0.00000E+00
    0.00000E+00         0.00000E+00        -0.69306E+08
 
   -0.69065E+08         0.62851E+06         0.00000E+00
    0.62851E+06        -0.97598E+08         0.00000E+00
    0.00000E+00         0.00000E+00        -0.69039E+08
 
   -0.68813E+08         0.62956E+06         0.00000E+00
    0.62956E+06        -0.97599E+08         0.00000E+00
    0.00000E+00         0.00000E+00        -0.68773E+08
 
   -0.68561E+08         0.62999E+06         0.00000E+00
    0.62999E+06        -0.97599E+08         0.00000E+00
    0.00000E+00         0.00000E+00        -0.68508E+08
 
   -0.68309E+08         0.62987E+06         0.00000E+00
    0.62987E+06        -0.97600E+08         0.00000E+00
    0.00000E+00         0.00000E+00        -0.68243E+08
 
   -0.68059E+08         0.62923E+06         0.00000E+00
    0.62923E+06        -0.97600E+08         0.00000E+00
    0.00000E+00         0.00000E+00        -0.67978E+08
 
   -0.67810E+08         0.62795E+06         0.00000E+00
    0.62795E+06        -0.97601E+08         0.00000E+00
    0.00000E+00         0.00000E+00        -0.67714E+08
 
   -0.67563E+08         0.62575E+06         0.00000E+00
    0.62575E+06        -0.97602E+08         0.00000E+00
    0.00000E+00         0.00000E+00        -0.67450E+08
 
   -0.67318E+08         0.62205E+06         0.00000E+00
    0.62205E+06        -0.97604E+08         0.00000E+00
    0.00000E+00         0.00000E+00        -0.67187E+08
 
   -0.67076E+08         0.61585E+06         0.00000E+00
    0.61585E+06        -0.97609E+08         0.00000E+00
    0.00000E+00         0.00000E+00        -0.66924E+08
 
   -0.66836E+08         0.60628E+06         0.00000E+00
    0.60628E+06        -0.97619E+08         0.00000E+00
    0.00000E+00         0.00000E+00        -0.66661E+08
 
   -0.66597E+08         0.59388E+06         0.00000E+00
    0.59388E+06        -0.97625E+08         0.00000E+00
    0.00000E+00         0.00000E+00        -0.66412E+08
 
   -0.66359E+08         0.58109E+06         0.00000E+00
    0.58109E+06        -0.97618E+08         0.00000E+00
    0.00000E+00         0.00000E+00        -0.66189E+08
 
   -0.66123E+08         0.57078E+06         0.00000E+00
    0.57078E+06        -0.97610E+08         0.00000E+00
    0.00000E+00         0.00000E+00        -0.65975E+08
 
   -0.65890E+08         0.56348E+06         0.00000E+00
    0.56348E+06        -0.97606E+08         0.00000E+00
    0.00000E+00         0.00000E+00        -0.65762E+08
 
   -0.65660E+08         0.55839E+06         0.00000E+00
    0.55839E+06        -0.97604E+08         0.00000E+00
    0.00000E+00         0.00000E+00        -0.65549E+08
 
   -0.65432E+08         0.55458E+06         0.00000E+00
    0.55458E+06        -0.97603E+08         0.00000E+00
    0.00000E+00         0.00000E+00        -0.65337E+08
 
   -0.65207E+08         0.55148E+06         0.00000E+00
    0.55148E+06        -0.97603E+08         0.00000E+00
    0.00000E+00         0.00000E+00        -0.65125E+08
 
   -0.64984E+08         0.54878E+06         0.00000E+00
    0.54878E+06        -0.97603E+08         0.00000E+00
    0.00000E+00         0.00000E+00        -0.64914E+08
 
   -0.64763E+08         0.54631E+06         0.00000E+00
    0.54631E+06        -0.97603E+08         0.00000E+00
    0.00000E+00         0.00000E+00        -0.64703E+08
 
   -0.64543E+08         0.54397E+06         0.00000E+00
    0.54397E+06        -0.97603E+08         0.00000E+00
    0.00000E+00         0.00000E+00        -0.64492E+08
 
   -0.64324E+08         0.54172E+06         0.00000E+00
    0.54172E+06        -0.97603E+08         0.00000E+00
    0.00000E+00         0.00000E+00        -0.64282E+08
 
   -0.64114E+08         0.53929E+06         0.00000E+00
    0.53929E+06        -0.97596E+08         0.00000E+00
    0.00000E+00         0.00000E+00        -0.64080E+08
 
   -0.63921E+08         0.53643E+06         0.00000E+00
    0.53643E+06        -0.97574E+08         0.00000E+00
    0.00000E+00         0.00000E+00        -0.63894E+08
 
   -0.63734E+08         0.53348E+06         0.00000E+00
    0.53348E+06        -0.97549E+08         0.00000E+00
    0.00000E+00         0.00000E+00        -0.63713E+08
 
   -0.63547E+08         0.53058E+06         0.00000E+00
    0.53058E+06        -0.97523E+08         0.00000E+00
    0.00000E+00         0.00000E+00        -0.63532E+08
 
   -0.63361E+08         0.52772E+06         0.00000E+00
    0.52772E+06        -0.97497E+08         0.00000E+00
    0.00000E+00         0.00000E+00        -0.63351E+08
 
   -0.63176E+08         0.52491E+06         0.00000E+00
    0.52491E+06        -0.97472E+08         0.00000E+00
    0.00000E+00         0.00000E+00        -0.63171E+08
 
   -0.62991E+08         0.52213E+06         0.00000E+00
    0.52213E+06        -0.97447E+08         0.00000E+00
    0.00000E+00         0.00000E+00        -0.62991E+08
 
   -0.62808E+08         0.51937E+06         0.00000E+00
    0.51937E+06        -0.97422E+08         0.00000E+00
    0.00000E+00         0.00000E+00        -0.62811E+08
 
   -0.62624E+08         0.51664E+06         0.00000E+00
    0.51664E+06        -0.97397E+08         0.00000E+00
    0.00000E+00         0.00000E+00        -0.62631E+08
 
   -0.62442E+08         0.51392E+06         0.00000E+00
    0.51392E+06        -0.97372E+08         0.00000E+00
    0.00000E+00         0.00000E+00        -0.62451E+08
 
   -0.62260E+08         0.51120E+06         0.00000E+00
    0.51120E+06        -0.97348E+08         0.00000E+00
    0.00000E+00         0.00000E+00        -0.62271E+08
 
   -0.62078E+08         0.50848E+06         0.00000E+00
    0.50848E+06        -0.97323E+08         0.00000E+00
    0.00000E+00         0.00000E+00        -0.62091E+08
 
   -0.61897E+08         0.50574E+06         0.00000E+00
    0.50574E+06        -0.97300E+08         0.00000E+00
    0.00000E+00         0.00000E+00        -0.61911E+08
 
   -0.61716E+08         0.50298E+06         0.00000E+00
    0.50298E+06        -0.97276E+08         0.00000E+00
    0.00000E+00         0.00000E+00        -0.61731E+08
 
   -0.61535E+08         0.50018E+06         0.00000E+00
    0.50018E+06        -0.97253E+08         0.00000E+00
    0.00000E+00         0.00000E+00        -0.61551E+08
 
   -0.61356E+08         0.49733E+06         0.00000E+00
    0.49733E+06        -0.97230E+08         0.00000E+00
    0.00000E+00         0.00000E+00        -0.61370E+08
 
   -0.61176E+08         0.49442E+06         0.00000E+00
    0.49442E+06        -0.97208E+08         0.00000E+00
    0.00000E+00         0.00000E+00        -0.61189E+08
 
   -0.60997E+08         0.49143E+06         0.00000E+00
    0.49143E+06        -0.97186E+08         0.00000E+00
    0.00000E+00         0.00000E+00        -0.61008E+08
 
   -0.60818E+08         0.48836E+06         0.00000E+00
    0.48836E+06        -0.97165E+08         0.00000E+00
    0.00000E+00         0.00000E+00        -0.60826E+08
 
   -0.60640E+08         0.48518E+06         0.00000E+00
    0.48518E+06        -0.97144E+08         0.00000E+00
    0.00000E+00         0.00000E+00        -0.60644E+08
 
   -0.60462E+08         0.48189E+06         0.00000E+00
    0.48189E+06        -0.97124E+08         0.00000E+00
    0.00000E+00         0.00000E+00        -0.60461E+08
 
   -0.60284E+08         0.47846E+06         0.00000E+00
    0.47846E+06        -0.97104E+08         0.00000E+00
    0.00000E+00         0.00000E+00        -0.60277E+08
 
   -0.60107E+08         0.47487E+06         0.00000E+00
    0.47487E+06        -0.97086E+08         0.00000E+00
    0.00000E+00         0.00000E+00        -0.60093E+08
 
   -0.59930E+08         0.47111E+06         0.00000E+00
    0.47111E+06        -0.97067E+08         0.00000E+00
    0.00000E+00         0.00000E+00        -0.59908E+08
 
   -0.59754E+08         0.46713E+06         0.00000E+00
    0.46713E+06        -0.97050E+08         0.00000E+00
    0.00000E+00         0.00000E+00        -0.59722E+08
 
   -0.59579E+08         0.46292E+06         0.00000E+00
    0.46292E+06        -0.97033E+08         0.00000E+00
    0.00000E+00         0.00000E+00        -0.59535E+08
 
   -0.59405E+08         0.45842E+06         0.00000E+00
    0.45842E+06        -0.97017E+08         0.00000E+00
    0.00000E+00         0.00000E+00        -0.59347E+08
 
   -0.59231E+08         0.45358E+06         0.00000E+00
    0.45358E+06        -0.97001E+08         0.00000E+00
    0.00000E+00         0.00000E+00        -0.59158E+08
 
   -0.59058E+08         0.44833E+06         0.00000E+00
    0.44833E+06        -0.96987E+08         0.00000E+00
    0.00000E+00         0.00000E+00        -0.58967E+08
 
   -0.58887E+08         0.44260E+06         0.00000E+00
    0.44260E+06        -0.96974E+08         0.00000E+00
    0.00000E+00         0.00000E+00        -0.58775E+08
 
   -0.58717E+08         0.43627E+06         0.00000E+00
    0.43627E+06        -0.96961E+08         0.00000E+00
    0.00000E+00         0.00000E+00        -0.58581E+08
 
   -0.58548E+08         0.42922E+06         0.00000E+00
    0.42922E+06        -0.96950E+08         0.00000E+00
    0.00000E+00         0.00000E+00        -0.58385E+08
 
   -0.58382E+08         0.42128E+06         0.00000E+00
    0.42128E+06        -0.96939E+08         0.00000E+00
    0.00000E+00         0.00000E+00        -0.58187E+08
 
   -0.58217E+08         0.41226E+06         0.00000E+00
    0.41226E+06        -0.96930E+08         0.00000E+00
    0.00000E+00         0.00000E+00        -0.57986E+08
 
   -0.58056E+08         0.40190E+06         0.00000E+00
    0.40190E+06        -0.96922E+08         0.00000E+00
    0.00000E+00         0.00000E+00        -0.57783E+08
 
   -0.57897E+08         0.38993E+06         0.00000E+00
    0.38993E+06        -0.96916E+08         0.00000E+00
    0.00000E+00         0.00000E+00        -0.57577E+08
 
   -0.57742E+08         0.37601E+06         0.00000E+00
    0.37601E+06        -0.96911E+08         0.00000E+00
    0.00000E+00         0.00000E+00        -0.57367E+08
 
   -0.57591E+08         0.35977E+06         0.00000E+00
    0.35977E+06        -0.96908E+08         0.00000E+00
    0.00000E+00         0.00000E+00        -0.57154E+08
 
   -0.57445E+08         0.34081E+06         0.00000E+00
    0.34081E+06        -0.96907E+08         0.00000E+00
    0.00000E+00         0.00000E+00        -0.56936E+08
 
   -0.57305E+08         0.31870E+06         0.00000E+00
    0.31870E+06        -0.96908E+08         0.00000E+00
    0.00000E+00         0.00000E+00        -0.56713E+08
 
   -0.57172E+08         0.29305E+06         0.00000E+00
    0.29305E+06        -0.96910E+08         0.00000E+00
    0.00000E+00         0.00000E+00        -0.56485E+08
 
   -0.57046E+08         0.26355E+06         0.00000E+00
    0.26355E+06        -0.96915E+08         0.00000E+00
    0.00000E+00         0.00000E+00        -0.56250E+08
 
   -0.56928E+08         0.23002E+06         0.00000E+00
    0.23002E+06        -0.96921E+08         0.00000E+00
    0.00000E+00         0.00000E+00        -0.56008E+08
 
   -0.56820E+08         0.19255E+06         0.00000E+00
    0.19255E+06        -0.96929E+08         0.00000E+00
    0.00000E+00         0.00000E+00        -0.55758E+08
 
   -0.56722E+08         0.15154E+06         0.00000E+00
    0.15154E+06        -0.96937E+08         0.00000E+00
    0.00000E+00         0.00000E+00        -0.55498E+08
 
   -0.56636E+08         0.10787E+06         0.00000E+00
    0.10787E+06        -0.96947E+08         0.00000E+00
    0.00000E+00         0.00000E+00        -0.55229E+08
 
   -0.56561E+08         0.63003E+05         0.00000E+00
    0.63003E+05        -0.96956E+08         0.00000E+00
    0.00000E+00         0.00000E+00        -0.54949E+08
 
   -0.56498E+08         0.19051E+05         0.00000E+00
    0.19051E+05        -0.96966E+08         0.00000E+00
    0.00000E+00         0.00000E+00        -0.54658E+08
 
   -0.56446E+08        -0.21112E+05         0.00000E+00
   -0.21112E+05        -0.96974E+08         0.00000E+00
    0.00000E+00         0.00000E+00        -0.54357E+08
 
   -0.56402E+08        -0.52731E+05         0.00000E+00
   -0.52731E+05        -0.96979E+08         0.00000E+00
    0.00000E+00         0.00000E+00        -0.54047E+08
 
   -0.56360E+08        -0.67286E+05         0.00000E+00
   -0.67286E+05        -0.96974E+08         0.00000E+00
    0.00000E+00         0.00000E+00        -0.53726E+08
 
   -0.56322E+08        -0.56308E+05         0.00000E+00
   -0.56308E+05        -0.96940E+08         0.00000E+00
    0.00000E+00         0.00000E+00        -0.53380E+08
 
   -0.56296E+08        -0.21864E+05         0.00000E+00
   -0.21864E+05        -0.96857E+08         0.00000E+00
    0.00000E+00         0.00000E+00        -0.52982E+08
 
   -0.73390E+08        -0.56640E+05         0.00000E+00
   -0.56640E+05        -0.97769E+08         0.00000E+00
    0.00000E+00         0.00000E+00        -0.78463E+08
 
   -0.73432E+08        -0.14267E+06         0.00000E+00
   -0.14267E+06        -0.97609E+08         0.00000E+00
    0.00000E+00         0.00000E+00        -0.78049E+08
 
   -0.73455E+08        -0.15350E+06         0.00000E+00
   -0.15350E+06        -0.97572E+08         0.00000E+00
    0.00000E+00         0.00000E+00        -0.77635E+08
 
   -0.73462E+08        -0.12041E+06         0.00000E+00
   -0.12041E+06        -0.97557E+08         0.00000E+00
    0.00000E+00         0.00000E+00        -0.77221E+08
 
   -0.73450E+08        -0.59144E+05         0.00000E+00
   -0.59144E+05        -0.97546E+08         0.00000E+00
    0.00000E+00         0.00000E+00        -0.76809E+08
 
   -0.73412E+08         0.87481E+04         0.00000E+00
    0.87481E+04        -0.97530E+08         0.00000E+00
    0.00000E+00         0.00000E+00        -0.76397E+08
 
   -0.73345E+08         0.77820E+05         0.00000E+00
    0.77820E+05        -0.97518E+08         0.00000E+00
    0.00000E+00         0.00000E+00        -0.75985E+08
 
   -0.73251E+08         0.14739E+06         0.00000E+00
    0.14739E+06        -0.97514E+08         0.00000E+00
    0.00000E+00         0.00000E+00        -0.75576E+08
 
   -0.73132E+08         0.21610E+06         0.00000E+00
    0.21610E+06        -0.97515E+08         0.00000E+00
    0.00000E+00         0.00000E+00        -0.75167E+08
 
   -0.72990E+08         0.28178E+06         0.00000E+00
    0.28178E+06        -0.97520E+08         0.00000E+00
    0.00000E+00         0.00000E+00        -0.74760E+08
 
   -0.72829E+08         0.34261E+06         0.00000E+00
    0.34261E+06        -0.97527E+08         0.00000E+00
    0.00000E+00         0.00000E+00        -0.74354E+08
 
   -0.72649E+08         0.39720E+06         0.00000E+00
    0.39720E+06        -0.97535E+08         0.00000E+00
    0.00000E+00         0.00000E+00        -0.73951E+08
 
   -0.72452E+08         0.44452E+06         0.00000E+00
    0.44452E+06        -0.97545E+08         0.00000E+00
    0.00000E+00         0.00000E+00        -0.73549E+08
 
   -0.72243E+08         0.48373E+06         0.00000E+00
    0.48373E+06        -0.97556E+08         0.00000E+00
    0.00000E+00         0.00000E+00        -0.73148E+08
 
   -0.72022E+08         0.51416E+06         0.00000E+00
    0.51416E+06        -0.97567E+08         0.00000E+00
    0.00000E+00         0.00000E+00        -0.72751E+08
 
   -0.71793E+08         0.53512E+06         0.00000E+00
    0.53512E+06        -0.97580E+08         0.00000E+00
    0.00000E+00         0.00000E+00        -0.72355E+08
 
   -0.71558E+08         0.54525E+06         0.00000E+00
    0.54525E+06        -0.97593E+08         0.00000E+00
    0.00000E+00         0.00000E+00        -0.71961E+08
 
   -0.71323E+08         0.54594E+06         0.00000E+00
    0.54594E+06        -0.97605E+08         0.00000E+00
    0.00000E+00         0.00000E+00        -0.71570E+08
 
   -0.71082E+08         0.53819E+06         0.00000E+00
    0.53819E+06        -0.97607E+08         0.00000E+00
    0.00000E+00         0.00000E+00        -0.71221E+08
 
   -0.70834E+08         0.54932E+06         0.00000E+00
    0.54932E+06        -0.97597E+08         0.00000E+00
    0.00000E+00         0.00000E+00        -0.70925E+08
 
   -0.70581E+08         0.55326E+06         0.00000E+00
    0.55326E+06        -0.97589E+08         0.00000E+00
    0.00000E+00         0.00000E+00        -0.70648E+08
 
   -0.70327E+08         0.55859E+06         0.00000E+00
    0.55859E+06        -0.97589E+08         0.00000E+00
    0.00000E+00         0.00000E+00        -0.70373E+08
 
   -0.70073E+08         0.56441E+06         0.00000E+00
    0.56441E+06        -0.97591E+08         0.00000E+00
    0.00000E+00         0.00000E+00        -0.70101E+08
 
   -0.69819E+08         0.56943E+06         0.00000E+00
    0.56943E+06        -0.97593E+08         0.00000E+00
    0.00000E+00         0.00000E+00        -0.69831E+08
 
   -0.69566E+08         0.57329E+06         0.00000E+00
    0.57329E+06        -0.97595E+08         0.00000E+00
    0.00000E+00         0.00000E+00        -0.69562E+08
 
   -0.69313E+08         0.57607E+06         0.00000E+00
    0.57607E+06        -0.97597E+08         0.00000E+00
    0.00000E+00         0.00000E+00        -0.69295E+08
 
   -0.69060E+08         0.57794E+06         0.00000E+00
    0.57794E+06        -0.97598E+08         0.00000E+00
    0.00000E+00         0.00000E+00        -0.69028E+08
 
   -0.68808E+08         0.57908E+06         0.00000E+00
    0.57908E+06        -0.97599E+08         0.00000E+00
    0.00000E+00         0.00000E+00        -0.68763E+08
 
   -0.68556E+08         0.57963E+06         0.00000E+00
    0.57963E+06        -0.97599E+08         0.00000E+00
    0.00000E+00         0.00000E+00        -0.68498E+08
 
   -0.68304E+08         0.57968E+06         0.00000E+00
    0.57968E+06        -0.97600E+08         0.00000E+00
    0.00000E+00         0.00000E+00        -0.68233E+08
 
   -0.68054E+08         0.57926E+06         0.00000E+00
    0.57926E+06        -0.97600E+08         0.00000E+00
    0.00000E+00         0.00000E+00        -0.67969E+08
 
   -0.67805E+08         0.57829E+06         0.00000E+00
    0.57829E+06        -0.97601E+08         0.00000E+00
    0.00000E+00         0.00000E+00        -0.67705E+08
 
   -0.67557E+08         0.57650E+06         0.00000E+00
    0.57650E+06        -0.97601E+08         0.00000E+00
    0.00000E+00         0.00000E+00        -0.67442E+08
 
   -0.67312E+08         0.57333E+06         0.00000E+00
    0.57333E+06        -0.97603E+08         0.00000E+00
    0.00000E+00         0.00000E+00        -0.67179E+08
 
   -0.67070E+08         0.56769E+06         0.00000E+00
    0.56769E+06        -0.97607E+08         0.00000E+00
    0.00000E+00         0.00000E+00        -0.66916E+08
 
   -0.66830E+08         0.55849E+06         0.00000E+00
    0.55849E+06        -0.97616E+08         0.00000E+00
    0.00000E+00         0.00000E+00        -0.66654E+08
 
   -0.66591E+08         0.54617E+06         0.00000E+00
    0.54617E+06        -0.97622E+08         0.00000E+00
    0.00000E+00         0.00000E+00        -0.66405E+08
 
   -0.66353E+08         0.53367E+06         0.00000E+00
    0.53367E+06        -0.97616E+08         0.00000E+00
    0.00000E+00         0.00000E+00        -0.66182E+08
 
   -0.66118E+08         0.52386E+06         0.00000E+00
    0.52386E+06        -0.97608E+08         0.00000E+00
    0.00000E+00         0.00000E+00        -0.65969E+08
 
   -0.65885E+08         0.51721E+06         0.00000E+00
    0.51721E+06        -0.97605E+08         0.00000E+00
    0.00000E+00         0.00000E+00        -0.65756E+08
 
   -0.65655E+08         0.51272E+06         0.00000E+00
    0.51272E+06        -0.97603E+08         0.00000E+00
    0.00000E+00         0.00000E+00        -0.65544E+08
 
   -0.65429E+08         0.50941E+06         0.00000E+00
    0.50941E+06        -0.97602E+08         0.00000E+00
    0.00000E+00         0.00000E+00        -0.65332E+08
 
   -0.65204E+08         0.50673E+06         0.00000E+00
    0.50673E+06        -0.97602E+08         0.00000E+00
    0.00000E+00         0.00000E+00        -0.65121E+08
 
   -0.64982E+08         0.50439E+06         0.00000E+00
    0.50439E+06        -0.97602E+08         0.00000E+00
    0.00000E+00         0.00000E+00        -0.64910E+08
 
   -0.64761E+08         0.50223E+06         0.00000E+00
    0.50223E+06        -0.97602E+08         0.00000E+00
    0.00000E+00         0.00000E+00        -0.64699E+08
 
   -0.64541E+08         0.50016E+06         0.00000E+00
    0.50016E+06        -0.97602E+08         0.00000E+00
    0.00000E+00         0.00000E+00        -0.64489E+08
 
   -0.64323E+08         0.49815E+06         0.00000E+00
    0.49815E+06        -0.97602E+08         0.00000E+00
    0.00000E+00         0.00000E+00        -0.64279E+08
 
   -0.64113E+08         0.49597E+06         0.00000E+00
    0.49597E+06        -0.97595E+08         0.00000E+00
    0.00000E+00         0.00000E+00        -0.64077E+08
 
   -0.63920E+08         0.49337E+06         0.00000E+00
    0.49337E+06        -0.97574E+08         0.00000E+00
    0.00000E+00         0.00000E+00        -0.63892E+08
 
   -0.63733E+08         0.49068E+06         0.00000E+00
    0.49068E+06        -0.97548E+08         0.00000E+00
    0.00000E+00         0.00000E+00        -0.63711E+08
 
   -0.63546E+08         0.48804E+06         0.00000E+00
    0.48804E+06        -0.97523E+08         0.00000E+00
    0.00000E+00         0.00000E+00        -0.63530E+08
 
   -0.63360E+08         0.48542E+06         0.00000E+00
    0.48542E+06        -0.97497E+08         0.00000E+00
    0.00000E+00         0.00000E+00        -0.63350E+08
 
   -0.63175E+08         0.48284E+06         0.00000E+00
    0.48284E+06        -0.97472E+08         0.00000E+00
    0.00000E+00         0.00000E+00        -0.63169E+08
 
   -0.62990E+08         0.48029E+06         0.00000E+00
    0.48029E+06        -0.97447E+08         0.00000E+00
    0.00000E+00         0.00000E+00        -0.62989E+08
 
   -0.62807E+08         0.47776E+06         0.00000E+00
    0.47776E+06        -0.97422E+08         0.00000E+00
    0.00000E+00         0.00000E+00        -0.62809E+08
 
   -0.62623E+08         0.47524E+06         0.00000E+00
    0.47524E+06        -0.97397E+08         0.00000E+00
    0.00000E+00         0.00000E+00        -0.62630E+08
 
   -0.62441E+08         0.47274E+06         0.00000E+00
    0.47274E+06        -0.97372E+08         0.00000E+00
    0.00000E+00         0.00000E+00        -0.62450E+08
 
   -0.62259E+08         0.47023E+06         0.00000E+00
    0.47023E+06        -0.97348E+08         0.00000E+00
    0.00000E+00         0.00000E+00        -0.62270E+08
 
   -0.62077E+08         0.46772E+06         0.00000E+00
    0.46772E+06        -0.97324E+08         0.00000E+00
    0.00000E+00         0.00000E+00        -0.62090E+08
 
   -0.61896E+08         0.46520E+06         0.00000E+00
    0.46520E+06        -0.97300E+08         0.00000E+00
    0.00000E+00         0.00000E+00        -0.61910E+08
 
   -0.61715E+08         0.46264E+06         0.00000E+00
    0.46264E+06        -0.97277E+08         0.00000E+00
    0.00000E+00         0.00000E+00        -0.61730E+08
 
   -0.61535E+08         0.46006E+06         0.00000E+00
    0.46006E+06        -0.97254E+08         0.00000E+00
    0.00000E+00         0.00000E+00        -0.61550E+08
 
   -0.61355E+08         0.45742E+06         0.00000E+00
    0.45742E+06        -0.97231E+08         0.00000E+00
    0.00000E+00         0.00000E+00        -0.61370E+08
 
   -0.61175E+08         0.45473E+06         0.00000E+00
    0.45473E+06        -0.97209E+08         0.00000E+00
    0.00000E+00         0.00000E+00        -0.61189E+08
 
   -0.60996E+08         0.45197E+06         0.00000E+00
    0.45197E+06        -0.97187E+08         0.00000E+00
    0.00000E+00         0.00000E+00        -0.61007E+08
 
   -0.60817E+08         0.44913E+06         0.00000E+00
    0.44913E+06        -0.97166E+08         0.00000E+00
    0.00000E+00         0.00000E+00        -0.60826E+08
 
   -0.60639E+08         0.44619E+06         0.00000E+00
    0.44619E+06        -0.97145E+08         0.00000E+00
    0.00000E+00         0.00000E+00        -0.60644E+08
 
   -0.60461E+08         0.44314E+06         0.00000E+00
    0.44314E+06        -0.97125E+08         0.00000E+00
    0.00000E+00         0.00000E+00        -0.60461E+08
 
   -0.60283E+08         0.43997E+06         0.00000E+00
    0.43997E+06        -0.97106E+08         0.00000E+00
    0.00000E+00         0.00000E+00        -0.60277E+08
 
   -0.60107E+08         0.43666E+06         0.00000E+00
    0.43666E+06        -0.97087E+08         0.00000E+00
    0.00000E+00         0.00000E+00        -0.60093E+08
 
   -0.59930E+08         0.43318E+06         0.00000E+00
    0.43318E+06        -0.97069E+08         0.00000E+00
    0.00000E+00         0.00000E+00        -0.59908E+08
 
   -0.59754E+08         0.42950E+06         0.00000E+00
    0.42950E+06        -0.97051E+08         0.00000E+00
    0.00000E+00         0.00000E+00        -0.59722E+08
 
   -0.59579E+08         0.42561E+06         0.00000E+00
    0.42561E+06        -0.97034E+08         0.00000E+00
    0.00000E+00         0.00000E+00        -0.59535E+08
 
   -0.59405E+08         0.42145E+06         0.00000E+00
    0.42145E+06        -0.97018E+08         0.00000E+00
    0.00000E+00         0.00000E+00        -0.59347E+08
 
   -0.59231E+08         0.41699E+06         0.00000E+00
    0.41699E+06        -0.97003E+08         0.00000E+00
    0.00000E+00         0.00000E+00        -0.59157E+08
 
   -0.59059E+08         0.41215E+06         0.00000E+00
    0.41215E+06        -0.96989E+08         0.00000E+00
    0.00000E+00         0.00000E+00        -0.58966E+08
 
   -0.58887E+08         0.40686E+06         0.00000E+00
    0.40686E+06        -0.96975E+08         0.00000E+00
    0.00000E+00         0.00000E+00        -0.58774E+08
 
   -0.58718E+08         0.40103E+06         0.00000E+00
    0.40103E+06        -0.96962E+08         0.00000E+00
    0.00000E+00         0.00000E+00        -0.58580E+08
 
   -0.58549E+08         0.39453E+06         0.00000E+00
    0.39453E+06        -0.96951E+08         0.00000E+00
    0.00000E+00         0.00000E+00        -0.58383E+08
 
   -0.58383E+08         0.38721E+06         0.00000E+00
    0.38721E+06        -0.96940E+08         0.00000E+00
    0.00000E+00         0.00000E+00        -0.58185E+08
 
   -0.58219E+08         0.37888E+06         0.00000E+00
    0.37888E+06        -0.96931E+08         0.00000E+00
    0.00000E+00         0.00000E+00        -0.57984E+08
 
   -0.58057E+08         0.36931E+06         0.00000E+00
    0.36931E+06        -0.96923E+08         0.00000E+00
    0.00000E+00         0.00000E+00        -0.57781E+08
 
   -0.57899E+08         0.35824E+06         0.00000E+00
    0.35824E+06        -0.96916E+08         0.00000E+00
    0.00000E+00         0.00000E+00        -0.57574E+08
 
   -0.57745E+08         0.34534E+06         0.00000E+00
    0.34534E+06        -0.96911E+08         0.00000E+00
    0.00000E+00         0.00000E+00        -0.57363E+08
 
   -0.57594E+08         0.33027E+06         0.00000E+00
    0.33027E+06        -0.96908E+08         0.00000E+00
    0.00000E+00         0.00000E+00        -0.57149E+08
 
   -0.57449E+08         0.31263E+06         0.00000E+00
    0.31263E+06        -0.96906E+08         0.00000E+00
    0.00000E+00         0.00000E+00        -0.56930E+08
 
   -0.57310E+08         0.29203E+06         0.00000E+00
    0.29203E+06        -0.96906E+08         0.00000E+00
    0.00000E+00         0.00000E+00        -0.56706E+08
 
   -0.57178E+08         0.26810E+06         0.00000E+00
    0.26810E+06        -0.96907E+08         0.00000E+00
    0.00000E+00         0.00000E+00        -0.56476E+08
 
   -0.57054E+08         0.24053E+06         0.00000E+00
    0.24053E+06        -0.96911E+08         0.00000E+00
    0.00000E+00         0.00000E+00        -0.56239E+08
 
   -0.56938E+08         0.20918E+06         0.00000E+00
    0.20918E+06        -0.96916E+08         0.00000E+00
    0.00000E+00         0.00000E+00        -0.55994E+08
 
   -0.56832E+08         0.17412E+06         0.00000E+00
    0.17412E+06        -0.96923E+08         0.00000E+00
    0.00000E+00         0.00000E+00        -0.55741E+08
 
   -0.56737E+08         0.13575E+06         0.00000E+00
    0.13575E+06        -0.96931E+08         0.00000E+00
    0.00000E+00         0.00000E+00        -0.55478E+08
 
   -0.56654E+08         0.94923E+05         0.00000E+00
    0.94923E+05        -0.96940E+08         0.00000E+00
    0.00000E+00         0.00000E+00        -0.55205E+08
 
   -0.56584E+08         0.52989E+05         0.00000E+00
    0.52989E+05        -0.96949E+08         0.00000E+00
    0.00000E+00         0.00000E+00        -0.54921E+08
 
   -0.56526E+08         0.11879E+05         0.00000E+00
    0.11879E+05        -0.96959E+08         0.00000E+00
    0.00000E+00         0.00000E+00        -0.54626E+08
 
   -0.56480E+08        -0.25927E+05         0.00000E+00
   -0.25927E+05        -0.96968E+08         0.00000E+00
    0.00000E+00         0.00000E+00        -0.54321E+08
 
   -0.56442E+08        -0.56477E+05         0.00000E+00
   -0.56477E+05        -0.96976E+08         0.00000E+00
    0.00000E+00         0.00000E+00        -0.54008E+08
 
   -0.56407E+08        -0.71448E+05         0.00000E+00
   -0.71448E+05        -0.96975E+08         0.00000E+00
    0.00000E+00         0.00000E+00        -0.53687E+08
 
   -0.56371E+08        -0.60463E+05         0.00000E+00
   -0.60463E+05        -0.96949E+08         0.00000E+00
    0.00000E+00         0.00000E+00        -0.53344E+08
 
   -0.56346E+08        -0.23692E+05         0.00000E+00
   -0.23692E+05        -0.96870E+08         0.00000E+00
    0.00000E+00         0.00000E+00        -0.52949E+08
 
   -0.73232E+08        -0.50808E+05         0.00000E+00
   -0.50808E+05        -0.97741E+08         0.00000E+00
    0.00000E+00         0.00000E+00        -0.78474E+08
 
   -0.73299E+08        -0.13347E+06         0.00000E+00
   -0.13347E+06        -0.97608E+08         0.00000E+00
    0.00000E+00         0.00000E+00        -0.78049E+08
 
   -0.73345E+08        -0.14881E+06         0.00000E+00
   -0.14881E+06        -0.97572E+08         0.00000E+00
    0.00000E+00         0.00000E+00        -0.77635E+08
 
   -0.73371E+08        -0.11922E+06         0.00000E+00
   -0.11922E+06        -0.97568E+08         0.00000E+00
    0.00000E+00         0.00000E+00        -0.77221E+08
 
   -0.73375E+08        -0.62383E+05         0.00000E+00
   -0.62383E+05        -0.97559E+08         0.00000E+00
    0.00000E+00         0.00000E+00        -0.76809E+08
 
   -0.73349E+08        -0.70800E+03         0.00000E+00
   -0.70800E+03        -0.97543E+08         0.00000E+00
    0.00000E+00         0.00000E+00        -0.76397E+08
 
   -0.73291E+08         0.62449E+05         0.00000E+00
    0.62449E+05        -0.97532E+08         0.00000E+00
    0.00000E+00         0.00000E+00        -0.75985E+08
 
   -0.73205E+08         0.12670E+06         0.00000E+00
    0.12670E+06        -0.97527E+08         0.00000E+00
    0.00000E+00         0.00000E+00        -0.75576E+08
 
   -0.73093E+08         0.19065E+06         0.00000E+00
    0.19065E+06        -0.97528E+08         0.00000E+00
    0.00000E+00         0.00000E+00        -0.75167E+08
 
   -0.72957E+08         0.25196E+06         0.00000E+00
    0.25196E+06        -0.97532E+08         0.00000E+00
    0.00000E+00         0.00000E+00        -0.74760E+08
 
   -0.72801E+08         0.30880E+06         0.00000E+00
    0.30880E+06        -0.97538E+08         0.00000E+00
    0.00000E+00         0.00000E+00        -0.74354E+08
 
   -0.72625E+08         0.35984E+06         0.00000E+00
    0.35984E+06        -0.97545E+08         0.00000E+00
    0.00000E+00         0.00000E+00        -0.73951E+08
 
   -0.72431E+08         0.40409E+06         0.00000E+00
    0.40409E+06        -0.97553E+08         0.00000E+00
    0.00000E+00         0.00000E+00        -0.73549E+08
 
   -0.72224E+08         0.44076E+06         0.00000E+00
    0.44076E+06        -0.97563E+08         0.00000E+00
    0.00000E+00         0.00000E+00        -0.73148E+08
 
   -0.72004E+08         0.46920E+06         0.00000E+00
    0.46920E+06        -0.97572E+08         0.00000E+00
    0.00000E+00         0.00000E+00        -0.72751E+08
 
   -0.71776E+08         0.48867E+06         0.00000E+00
    0.48867E+06        -0.97583E+08         0.00000E+00
    0.00000E+00         0.00000E+00        -0.72355E+08
 
   -0.71543E+08         0.49830E+06         0.00000E+00
    0.49830E+06        -0.97594E+08         0.00000E+00
    0.00000E+00         0.00000E+00        -0.71961E+08
 
   -0.71309E+08         0.49937E+06         0.00000E+00
    0.49937E+06        -0.97605E+08         0.00000E+00
    0.00000E+00         0.00000E+00        -0.71570E+08
 
   -0.71070E+08         0.48904E+06         0.00000E+00
    0.48904E+06        -0.97607E+08         0.00000E+00
    0.00000E+00         0.00000E+00        -0.71215E+08
 
   -0.70823E+08         0.49909E+06         0.00000E+00
    0.49909E+06        -0.97598E+08         0.00000E+00
    0.00000E+00         0.00000E+00        -0.70913E+08
 
   -0.70571E+08         0.50250E+06         0.00000E+00
    0.50250E+06        -0.97590E+08         0.00000E+00
    0.00000E+00         0.00000E+00        -0.70636E+08
 
   -0.70318E+08         0.50785E+06         0.00000E+00
    0.50785E+06        -0.97590E+08         0.00000E+00
    0.00000E+00         0.00000E+00        -0.70361E+08
 
   -0.70065E+08         0.51379E+06         0.00000E+00
    0.51379E+06        -0.97592E+08         0.00000E+00
    0.00000E+00         0.00000E+00        -0.70089E+08
 
   -0.69813E+08         0.51885E+06         0.00000E+00
    0.51885E+06        -0.97594E+08         0.00000E+00
    0.00000E+00         0.00000E+00        -0.69819E+08
 
   -0.69561E+08         0.52273E+06         0.00000E+00
    0.52273E+06        -0.97596E+08         0.00000E+00
    0.00000E+00         0.00000E+00        -0.69551E+08
 
   -0.69308E+08         0.52552E+06         0.00000E+00
    0.52552E+06        -0.97597E+08         0.00000E+00
    0.00000E+00         0.00000E+00        -0.69284E+08
 
   -0.69056E+08         0.52742E+06         0.00000E+00
    0.52742E+06        -0.97598E+08         0.00000E+00
    0.00000E+00         0.00000E+00        -0.69018E+08
 
   -0.68803E+08         0.52862E+06         0.00000E+00
    0.52862E+06        -0.97599E+08         0.00000E+00
    0.00000E+00         0.00000E+00        -0.68752E+08
 
   -0.68551E+08         0.52927E+06         0.00000E+00
    0.52927E+06        -0.97599E+08         0.00000E+00
    0.00000E+00         0.00000E+00        -0.68488E+08
 
   -0.68300E+08         0.52947E+06         0.00000E+00
    0.52947E+06        -0.97600E+08         0.00000E+00
    0.00000E+00         0.00000E+00        -0.68224E+08
 
   -0.68049E+08         0.52926E+06         0.00000E+00
    0.52926E+06        -0.97600E+08         0.00000E+00
    0.00000E+00         0.00000E+00        -0.67960E+08
 
   -0.67800E+08         0.52857E+06         0.00000E+00
    0.52857E+06        -0.97600E+08         0.00000E+00
    0.00000E+00         0.00000E+00        -0.67697E+08
 
   -0.67552E+08         0.52718E+06         0.00000E+00
    0.52718E+06        -0.97601E+08         0.00000E+00
    0.00000E+00         0.00000E+00        -0.67434E+08
 
   -0.67306E+08         0.52453E+06         0.00000E+00
    0.52453E+06        -0.97602E+08         0.00000E+00
    0.00000E+00         0.00000E+00        -0.67171E+08
 
   -0.67063E+08         0.51950E+06         0.00000E+00
    0.51950E+06        -0.97606E+08         0.00000E+00
    0.00000E+00         0.00000E+00        -0.66909E+08
 
   -0.66823E+08         0.51073E+06         0.00000E+00
    0.51073E+06        -0.97614E+08         0.00000E+00
    0.00000E+00         0.00000E+00        -0.66647E+08
 
   -0.66585E+08         0.49849E+06         0.00000E+00
    0.49849E+06        -0.97620E+08         0.00000E+00
    0.00000E+00         0.00000E+00        -0.66399E+08
 
   -0.66347E+08         0.48630E+06         0.00000E+00
    0.48630E+06        -0.97613E+08         0.00000E+00
    0.00000E+00         0.00000E+00        -0.66176E+08
 
   -0.66112E+08         0.47704E+06         0.00000E+00
    0.47704E+06        -0.97606E+08         0.00000E+00
    0.00000E+00         0.00000E+00        -0.65964E+08
 
   -0.65880E+08         0.47107E+06         0.00000E+00
    0.47107E+06        -0.97604E+08         0.00000E+00
    0.00000E+00         0.00000E+00        -0.65751E+08
 
   -0.65651E+08         0.46718E+06         0.00000E+00
    0.46718E+06        -0.97602E+08         0.00000E+00
    0.00000E+00         0.00000E+00        -0.65539E+08
 
   -0.65425E+08         0.46436E+06         0.00000E+00
    0.46436E+06        -0.97602E+08         0.00000E+00
    0.00000E+00         0.00000E+00        -0.65327E+08
 
   -0.65201E+08         0.46209E+06         0.00000E+00
    0.46209E+06        -0.97602E+08         0.00000E+00
    0.00000E+00         0.00000E+00        -0.65116E+08
 
   -0.64979E+08         0.46008E+06         0.00000E+00
    0.46008E+06        -0.97602E+08         0.00000E+00
    0.00000E+00         0.00000E+00        -0.64906E+08
 
   -0.64759E+08         0.45821E+06         0.00000E+00
    0.45821E+06        -0.97602E+08         0.00000E+00
    0.00000E+00         0.00000E+00        -0.64695E+08
 
   -0.64539E+08         0.45641E+06         0.00000E+00
    0.45641E+06        -0.97602E+08         0.00000E+00
    0.00000E+00         0.00000E+00        -0.64485E+08
 
   -0.64321E+08         0.45464E+06         0.00000E+00
    0.45464E+06        -0.97602E+08         0.00000E+00
    0.00000E+00         0.00000E+00        -0.64276E+08
 
   -0.64112E+08         0.45268E+06         0.00000E+00
    0.45268E+06        -0.97595E+08         0.00000E+00
    0.00000E+00         0.00000E+00        -0.64075E+08
 
   -0.63919E+08         0.45034E+06         0.00000E+00
    0.45034E+06        -0.97573E+08         0.00000E+00
    0.00000E+00         0.00000E+00        -0.63889E+08
 
   -0.63732E+08         0.44791E+06         0.00000E+00
    0.44791E+06        -0.97548E+08         0.00000E+00
    0.00000E+00         0.00000E+00        -0.63709E+08
 
   -0.63545E+08         0.44552E+06         0.00000E+00
    0.44552E+06        -0.97522E+08         0.00000E+00
    0.00000E+00         0.00000E+00        -0.63528E+08
 
   -0.63359E+08         0.44314E+06         0.00000E+00
    0.44314E+06        -0.97497E+08         0.00000E+00
    0.00000E+00         0.00000E+00        -0.63348E+08
 
   -0.63174E+08         0.44080E+06         0.00000E+00
    0.44080E+06        -0.97472E+08         0.00000E+00
    0.00000E+00         0.00000E+00        -0.63168E+08
 
   -0.62990E+08         0.43847E+06         0.00000E+00
    0.43847E+06        -0.97447E+08         0.00000E+00
    0.00000E+00         0.00000E+00        -0.62988E+08
 
   -0.62806E+08         0.43616E+06         0.00000E+00
    0.43616E+06        -0.97422E+08         0.00000E+00
    0.00000E+00         0.00000E+00        -0.62808E+08
 
   -0.62623E+08         0.43386E+06         0.00000E+00
    0.43386E+06        -0.97397E+08         0.00000E+00
    0.00000E+00         0.00000E+00        -0.62628E+08
 
   -0.62440E+08         0.43157E+06         0.00000E+00
    0.43157E+06        -0.97372E+08         0.00000E+00
    0.00000E+00         0.00000E+00        -0.62449E+08
 
   -0.62258E+08         0.42928E+06         0.00000E+00
    0.42928E+06        -0.97348E+08         0.00000E+00
    0.00000E+00         0.00000E+00        -0.62269E+08
 
   -0.62076E+08         0.42698E+06         0.00000E+00
    0.42698E+06        -0.97324E+08         0.00000E+00
    0.00000E+00         0.00000E+00        -0.62090E+08
 
   -0.61895E+08         0.42467E+06         0.00000E+00
    0.42467E+06        -0.97301E+08         0.00000E+00
    0.00000E+00         0.00000E+00        -0.61910E+08
 
   -0.61714E+08         0.42233E+06         0.00000E+00
    0.42233E+06        -0.97277E+08         0.00000E+00
    0.00000E+00         0.00000E+00        -0.61730E+08
 
   -0.61534E+08         0.41996E+06         0.00000E+00
    0.41996E+06        -0.97254E+08         0.00000E+00
    0.00000E+00         0.00000E+00        -0.61550E+08
 
   -0.61354E+08         0.41754E+06         0.00000E+00
    0.41754E+06        -0.97232E+08         0.00000E+00
    0.00000E+00         0.00000E+00        -0.61369E+08
 
   -0.61174E+08         0.41507E+06         0.00000E+00
    0.41507E+06        -0.97210E+08         0.00000E+00
    0.00000E+00         0.00000E+00        -0.61188E+08
 
   -0.60995E+08         0.41254E+06         0.00000E+00
    0.41254E+06        -0.97188E+08         0.00000E+00
    0.00000E+00         0.00000E+00        -0.61007E+08
 
   -0.60816E+08         0.40993E+06         0.00000E+00
    0.40993E+06        -0.97167E+08         0.00000E+00
    0.00000E+00         0.00000E+00        -0.60826E+08
 
   -0.60638E+08         0.40723E+06         0.00000E+00
    0.40723E+06        -0.97146E+08         0.00000E+00
    0.00000E+00         0.00000E+00        -0.60643E+08
 
   -0.60460E+08         0.40443E+06         0.00000E+00
    0.40443E+06        -0.97126E+08         0.00000E+00
    0.00000E+00         0.00000E+00        -0.60461E+08
 
   -0.60283E+08         0.40152E+06         0.00000E+00
    0.40152E+06        -0.97107E+08         0.00000E+00
    0.00000E+00         0.00000E+00        -0.60277E+08
 
   -0.60106E+08         0.39848E+06         0.00000E+00
    0.39848E+06        -0.97088E+08         0.00000E+00
    0.00000E+00         0.00000E+00        -0.60093E+08
 
   -0.59930E+08         0.39528E+06         0.00000E+00
    0.39528E+06        -0.97070E+08         0.00000E+00
    0.00000E+00         0.00000E+00        -0.59908E+08
 
   -0.59754E+08         0.39191E+06         0.00000E+00
    0.39191E+06        -0.97053E+08         0.00000E+00
    0.00000E+00         0.00000E+00        -0.59722E+08
 
   -0.59579E+08         0.38834E+06         0.00000E+00
    0.38834E+06        -0.97036E+08         0.00000E+00
    0.00000E+00         0.00000E+00        -0.59535E+08
 
   -0.59405E+08         0.38453E+06         0.00000E+00
    0.38453E+06        -0.97020E+08         0.00000E+00
    0.00000E+00         0.00000E+00        -0.59346E+08
 
   -0.59232E+08         0.38044E+06         0.00000E+00
    0.38044E+06        -0.97005E+08         0.00000E+00
    0.00000E+00         0.00000E+00        -0.59157E+08
 
   -0.59059E+08         0.37601E+06         0.00000E+00
    0.37601E+06        -0.96990E+08         0.00000E+00
    0.00000E+00         0.00000E+00        -0.58966E+08
 
   -0.58888E+08         0.37118E+06         0.00000E+00
    0.37118E+06        -0.96977E+08         0.00000E+00
    0.00000E+00         0.00000E+00        -0.58773E+08
 
   -0.58719E+08         0.36584E+06         0.00000E+00
    0.36584E+06        -0.96964E+08         0.00000E+00
    0.00000E+00         0.00000E+00        -0.58579E+08
 
   -0.58550E+08         0.35989E+06         0.00000E+00
    0.35989E+06        -0.96952E+08         0.00000E+00
    0.00000E+00         0.00000E+00        -0.58382E+08
 
   -0.58384E+08         0.35319E+06         0.00000E+00
    0.35319E+06        -0.96942E+08         0.00000E+00
    0.00000E+00         0.00000E+00        -0.58184E+08
 
   -0.58221E+08         0.34556E+06         0.00000E+00
    0.34556E+06        -0.96932E+08         0.00000E+00
    0.00000E+00         0.00000E+00        -0.57982E+08
 
   -0.58059E+08         0.33678E+06         0.00000E+00
    0.33678E+06        -0.96924E+08         0.00000E+00
    0.00000E+00         0.00000E+00        -0.57778E+08
 
   -0.57902E+08         0.32662E+06         0.00000E+00
    0.32662E+06        -0.96917E+08         0.00000E+00
    0.00000E+00         0.00000E+00        -0.57571E+08
 
   -0.57748E+08         0.31476E+06         0.00000E+00
    0.31476E+06        -0.96911E+08         0.00000E+00
    0.00000E+00         0.00000E+00        -0.57360E+08
 
   -0.57598E+08         0.30087E+06         0.00000E+00
    0.30087E+06        -0.96907E+08         0.00000E+00
    0.00000E+00         0.00000E+00        -0.57145E+08
 
   -0.57454E+08         0.28459E+06         0.00000E+00
    0.28459E+06        -0.96905E+08         0.00000E+00
    0.00000E+00         0.00000E+00        -0.56924E+08
 
   -0.57315E+08         0.26555E+06         0.00000E+00
    0.26555E+06        -0.96904E+08         0.00000E+00
    0.00000E+00         0.00000E+00        -0.56699E+08
 
   -0.57184E+08         0.24340E+06         0.00000E+00
    0.24340E+06        -0.96905E+08         0.00000E+00
    0.00000E+00         0.00000E+00        -0.56467E+08
 
   -0.57061E+08         0.21785E+06         0.00000E+00
    0.21785E+06        -0.96908E+08         0.00000E+00
    0.00000E+00         0.00000E+00        -0.56228E+08
 
   -0.56948E+08         0.18876E+06         0.00000E+00
    0.18876E+06        -0.96912E+08         0.00000E+00
    0.00000E+00         0.00000E+00        -0.55981E+08
 
   -0.56844E+08         0.15621E+06         0.00000E+00
    0.15621E+06        -0.96918E+08         0.00000E+00
    0.00000E+00         0.00000E+00        -0.55725E+08
 
   -0.56753E+08         0.12061E+06         0.00000E+00
    0.12061E+06        -0.96926E+08         0.00000E+00
    0.00000E+00         0.00000E+00        -0.55459E+08
 
   -0.56673E+08         0.82737E+05         0.00000E+00
    0.82737E+05        -0.96934E+08         0.00000E+00
    0.00000E+00         0.00000E+00        -0.55182E+08
 
   -0.56607E+08         0.43861E+05         0.00000E+00
    0.43861E+05        -0.96943E+08         0.00000E+00
    0.00000E+00         0.00000E+00        -0.54894E+08
 
   -0.56554E+08         0.57266E+04         0.00000E+00
    0.57266E+04        -0.96953E+08         0.00000E+00
    0.00000E+00         0.00000E+00        -0.54595E+08
 
   -0.56514E+08        -0.29526E+05         0.00000E+00
   -0.29526E+05        -0.96963E+08         0.00000E+00
    0.00000E+00         0.00000E+00        -0.54286E+08
 
   -0.56482E+08        -0.58824E+05         0.00000E+00
   -0.58824E+05        -0.96972E+08         0.00000E+00
    0.00000E+00         0.00000E+00        -0.53969E+08
 
   -0.56454E+08        -0.74469E+05         0.00000E+00
   -0.74469E+05        -0.96976E+08         0.00000E+00
    0.00000E+00         0.00000E+00        -0.53646E+08
 
   -0.56423E+08        -0.64153E+05         0.00000E+00
   -0.64153E+05        -0.96957E+08         0.00000E+00
    0.00000E+00         0.00000E+00        -0.53306E+08
 
   -0.56399E+08        -0.25459E+05         0.00000E+00
   -0.25459E+05        -0.96883E+08         0.00000E+00
    0.00000E+00         0.00000E+00        -0.52916E+08
 
   -0.73126E+08        -0.47679E+05         0.00000E+00
   -0.47679E+05        -0.97710E+08         0.00000E+00
    0.00000E+00         0.00000E+00        -0.78519E+08
 
   -0.73164E+08        -0.11974E+06         0.00000E+00
   -0.11974E+06        -0.97613E+08         0.00000E+00
    0.00000E+00         0.00000E+00        -0.78049E+08
 
   -0.73234E+08        -0.14076E+06         0.00000E+00
   -0.14076E+06        -0.97568E+08         0.00000E+00
    0.00000E+00         0.00000E+00        -0.77635E+08
 
   -0.73283E+08        -0.11357E+06         0.00000E+00
   -0.11357E+06        -0.97579E+08         0.00000E+00
    0.00000E+00         0.00000E+00        -0.77221E+08
 
   -0.73303E+08        -0.63152E+05         0.00000E+00
   -0.63152E+05        -0.97570E+08         0.00000E+00
    0.00000E+00         0.00000E+00        -0.76809E+08
 
   -0.73288E+08        -0.80962E+04         0.00000E+00
   -0.80962E+04        -0.97555E+08         0.00000E+00
    0.00000E+00         0.00000E+00        -0.76397E+08
 
   -0.73239E+08         0.48719E+05         0.00000E+00
    0.48719E+05        -0.97544E+08         0.00000E+00
    0.00000E+00         0.00000E+00        -0.75985E+08
 
   -0.73160E+08         0.10749E+06         0.00000E+00
    0.10749E+06        -0.97540E+08         0.00000E+00
    0.00000E+00         0.00000E+00        -0.75576E+08
 
   -0.73055E+08         0.16650E+06         0.00000E+00
    0.16650E+06        -0.97540E+08         0.00000E+00
    0.00000E+00         0.00000E+00        -0.75167E+08
 
   -0.72926E+08         0.22322E+06         0.00000E+00
    0.22322E+06        -0.97543E+08         0.00000E+00
    0.00000E+00         0.00000E+00        -0.74760E+08
 
   -0.72774E+08         0.27586E+06         0.00000E+00
    0.27586E+06        -0.97548E+08         0.00000E+00
    0.00000E+00         0.00000E+00        -0.74354E+08
 
   -0.72602E+08         0.32314E+06         0.00000E+00
    0.32314E+06        -0.97554E+08         0.00000E+00
    0.00000E+00         0.00000E+00        -0.73951E+08
 
   -0.72411E+08         0.36415E+06         0.00000E+00
    0.36415E+06        -0.97561E+08         0.00000E+00
    0.00000E+00         0.00000E+00        -0.73549E+08
 
   -0.72206E+08         0.39813E+06         0.00000E+00
    0.39813E+06        -0.97569E+08         0.00000E+00
    0.00000E+00         0.00000E+00        -0.73148E+08
 
   -0.71988E+08         0.42447E+06         0.00000E+00
    0.42447E+06        -0.97577E+08         0.00000E+00
    0.00000E+00         0.00000E+00        -0.72751E+08
 
   -0.71760E+08         0.44241E+06         0.00000E+00
    0.44241E+06        -0.97586E+08         0.00000E+00
    0.00000E+00         0.00000E+00        -0.72355E+08
 
   -0.71528E+08         0.45155E+06         0.00000E+00
    0.45155E+06        -0.97595E+08         0.00000E+00
    0.00000E+00         0.00000E+00        -0.71961E+08
 
   -0.71294E+08         0.45284E+06         0.00000E+00
    0.45284E+06        -0.97604E+08         0.00000E+00
    0.00000E+00         0.00000E+00        -0.71570E+08
 
   -0.71057E+08         0.44059E+06         0.00000E+00
    0.44059E+06        -0.97607E+08         0.00000E+00
    0.00000E+00         0.00000E+00        -0.71209E+08
 
   -0.70812E+08         0.44897E+06         0.00000E+00
    0.44897E+06        -0.97598E+08         0.00000E+00
    0.00000E+00         0.00000E+00        -0.70901E+08
 
   -0.70561E+08         0.45194E+06         0.00000E+00
    0.45194E+06        -0.97591E+08         0.00000E+00
    0.00000E+00         0.00000E+00        -0.70623E+08
 
   -0.70310E+08         0.45742E+06         0.00000E+00
    0.45742E+06        -0.97592E+08         0.00000E+00
    0.00000E+00         0.00000E+00        -0.70349E+08
 
   -0.70058E+08         0.46342E+06         0.00000E+00
    0.46342E+06        -0.97593E+08         0.00000E+00
    0.00000E+00         0.00000E+00        -0.70077E+08
 
   -0.69807E+08         0.46846E+06         0.00000E+00
    0.46846E+06        -0.97595E+08         0.00000E+00
    0.00000E+00         0.00000E+00        -0.69807E+08
 
   -0.69555E+08         0.47230E+06         0.00000E+00
    0.47230E+06        -0.97597E+08         0.00000E+00
    0.00000E+00         0.00000E+00        -0.69539E+08
 
   -0.69304E+08         0.47506E+06         0.00000E+00
    0.47506E+06        -0.97598E+08         0.00000E+00
    0.00000E+00         0.00000E+00        -0.69273E+08
 
   -0.69051E+08         0.47696E+06         0.00000E+00
    0.47696E+06        -0.97599E+08         0.00000E+00
    0.00000E+00         0.00000E+00        -0.69007E+08
 
   -0.68799E+08         0.47820E+06         0.00000E+00
    0.47820E+06        -0.97599E+08         0.00000E+00
    0.00000E+00         0.00000E+00        -0.68742E+08
 
   -0.68547E+08         0.47892E+06         0.00000E+00
    0.47892E+06        -0.97600E+08         0.00000E+00
    0.00000E+00         0.00000E+00        -0.68478E+08
 
   -0.68296E+08         0.47924E+06         0.00000E+00
    0.47924E+06        -0.97600E+08         0.00000E+00
    0.00000E+00         0.00000E+00        -0.68214E+08
 
   -0.68045E+08         0.47921E+06         0.00000E+00
    0.47921E+06        -0.97600E+08         0.00000E+00
    0.00000E+00         0.00000E+00        -0.67951E+08
 
   -0.67795E+08         0.47878E+06         0.00000E+00
    0.47878E+06        -0.97600E+08         0.00000E+00
    0.00000E+00         0.00000E+00        -0.67688E+08
 
   -0.67547E+08         0.47776E+06         0.00000E+00
    0.47776E+06        -0.97601E+08         0.00000E+00
    0.00000E+00         0.00000E+00        -0.67426E+08
 
   -0.67301E+08         0.47564E+06         0.00000E+00
    0.47564E+06        -0.97602E+08         0.00000E+00
    0.00000E+00         0.00000E+00        -0.67164E+08
 
   -0.67057E+08         0.47125E+06         0.00000E+00
    0.47125E+06        -0.97604E+08         0.00000E+00
    0.00000E+00         0.00000E+00        -0.66902E+08
 
   -0.66817E+08         0.46297E+06         0.00000E+00
    0.46297E+06        -0.97612E+08         0.00000E+00
    0.00000E+00         0.00000E+00        -0.66640E+08
 
   -0.66579E+08         0.45085E+06         0.00000E+00
    0.45085E+06        -0.97617E+08         0.00000E+00
    0.00000E+00         0.00000E+00        -0.66393E+08
 
   -0.66341E+08         0.43898E+06         0.00000E+00
    0.43898E+06        -0.97611E+08         0.00000E+00
    0.00000E+00         0.00000E+00        -0.66170E+08
 
   -0.66107E+08         0.43034E+06         0.00000E+00
    0.43034E+06        -0.97605E+08         0.00000E+00
    0.00000E+00         0.00000E+00        -0.65958E+08
 
   -0.65875E+08         0.42508E+06         0.00000E+00
    0.42508E+06        -0.97603E+08         0.00000E+00
    0.00000E+00         0.00000E+00        -0.65746E+08
 
   -0.65648E+08         0.42179E+06         0.00000E+00
    0.42179E+06        -0.97602E+08         0.00000E+00
    0.00000E+00         0.00000E+00        -0.65534E+08
 
   -0.65422E+08         0.41944E+06         0.00000E+00
    0.41944E+06        -0.97601E+08         0.00000E+00
    0.00000E+00         0.00000E+00        -0.65323E+08
 
   -0.65199E+08         0.41754E+06         0.00000E+00
    0.41754E+06        -0.97601E+08         0.00000E+00
    0.00000E+00         0.00000E+00        -0.65112E+08
 
   -0.64977E+08         0.41586E+06         0.00000E+00
    0.41586E+06        -0.97601E+08         0.00000E+00
    0.00000E+00         0.00000E+00        -0.64902E+08
 
   -0.64757E+08         0.41426E+06         0.00000E+00
    0.41426E+06        -0.97601E+08         0.00000E+00
    0.00000E+00         0.00000E+00        -0.64692E+08
 
   -0.64538E+08         0.41271E+06         0.00000E+00
    0.41271E+06        -0.97601E+08         0.00000E+00
    0.00000E+00         0.00000E+00        -0.64482E+08
 
   -0.64320E+08         0.41116E+06         0.00000E+00
    0.41116E+06        -0.97601E+08         0.00000E+00
    0.00000E+00         0.00000E+00        -0.64273E+08
 
   -0.64111E+08         0.40943E+06         0.00000E+00
    0.40943E+06        -0.97594E+08         0.00000E+00
    0.00000E+00         0.00000E+00        -0.64072E+08
 
   -0.63919E+08         0.40734E+06         0.00000E+00
    0.40734E+06        -0.97572E+08         0.00000E+00
    0.00000E+00         0.00000E+00        -0.63887E+08
 
   -0.63731E+08         0.40517E+06         0.00000E+00
    0.40517E+06        -0.97547E+08         0.00000E+00
    0.00000E+00         0.00000E+00        -0.63707E+08
 
   -0.63545E+08         0.40302E+06         0.00000E+00
    0.40302E+06        -0.97522E+08         0.00000E+00
    0.00000E+00         0.00000E+00        -0.63526E+08
 
   -0.63359E+08         0.40088E+06         0.00000E+00
    0.40088E+06        -0.97497E+08         0.00000E+00
    0.00000E+00         0.00000E+00        -0.63346E+08
 
   -0.63174E+08         0.39876E+06         0.00000E+00
    0.39876E+06        -0.97471E+08         0.00000E+00
    0.00000E+00         0.00000E+00        -0.63166E+08
 
   -0.62989E+08         0.39666E+06         0.00000E+00
    0.39666E+06        -0.97446E+08         0.00000E+00
    0.00000E+00         0.00000E+00        -0.62986E+08
 
   -0.62805E+08         0.39458E+06         0.00000E+00
    0.39458E+06        -0.97422E+08         0.00000E+00
    0.00000E+00         0.00000E+00        -0.62807E+08
 
   -0.62622E+08         0.39250E+06         0.00000E+00
    0.39250E+06        -0.97397E+08         0.00000E+00
    0.00000E+00         0.00000E+00        -0.62627E+08
 
   -0.62439E+08         0.39042E+06         0.00000E+00
    0.39042E+06        -0.97373E+08         0.00000E+00
    0.00000E+00         0.00000E+00        -0.62448E+08
 
   -0.62257E+08         0.38834E+06         0.00000E+00
    0.38834E+06        -0.97349E+08         0.00000E+00
    0.00000E+00         0.00000E+00        -0.62268E+08
 
   -0.62075E+08         0.38626E+06         0.00000E+00
    0.38626E+06        -0.97325E+08         0.00000E+00
    0.00000E+00         0.00000E+00        -0.62089E+08
 
   -0.61894E+08         0.38416E+06         0.00000E+00
    0.38416E+06        -0.97301E+08         0.00000E+00
    0.00000E+00         0.00000E+00        -0.61909E+08
 
   -0.61713E+08         0.38203E+06         0.00000E+00
    0.38203E+06        -0.97278E+08         0.00000E+00
    0.00000E+00         0.00000E+00        -0.61729E+08
 
   -0.61533E+08         0.37988E+06         0.00000E+00
    0.37988E+06        -0.97255E+08         0.00000E+00
    0.00000E+00         0.00000E+00        -0.61549E+08
 
   -0.61353E+08         0.37768E+06         0.00000E+00
    0.37768E+06        -0.97233E+08         0.00000E+00
    0.00000E+00         0.00000E+00        -0.61369E+08
 
   -0.61174E+08         0.37543E+06         0.00000E+00
    0.37543E+06        -0.97211E+08         0.00000E+00
    0.00000E+00         0.00000E+00        -0.61188E+08
 
   -0.60995E+08         0.37313E+06         0.00000E+00
    0.37313E+06        -0.97189E+08         0.00000E+00
    0.00000E+00         0.00000E+00        -0.61007E+08
 
   -0.60816E+08         0.37075E+06         0.00000E+00
    0.37075E+06        -0.97168E+08         0.00000E+00
    0.00000E+00         0.00000E+00        -0.60826E+08
 
   -0.60638E+08         0.36830E+06         0.00000E+00
    0.36830E+06        -0.97148E+08         0.00000E+00
    0.00000E+00         0.00000E+00        -0.60643E+08
 
   -0.60460E+08         0.36575E+06         0.00000E+00
    0.36575E+06        -0.97128E+08         0.00000E+00
    0.00000E+00         0.00000E+00        -0.60461E+08
 
   -0.60283E+08         0.36310E+06         0.00000E+00
    0.36310E+06        -0.97108E+08         0.00000E+00
    0.00000E+00         0.00000E+00        -0.60277E+08
 
   -0.60106E+08         0.36033E+06         0.00000E+00
    0.36033E+06        -0.97090E+08         0.00000E+00
    0.00000E+00         0.00000E+00        -0.60093E+08
 
   -0.59930E+08         0.35743E+06         0.00000E+00
    0.35743E+06        -0.97072E+08         0.00000E+00
    0.00000E+00         0.00000E+00        -0.59908E+08
 
   -0.59754E+08         0.35436E+06         0.00000E+00
    0.35436E+06        -0.97054E+08         0.00000E+00
    0.00000E+00         0.00000E+00        -0.59722E+08
 
   -0.59579E+08         0.35112E+06         0.00000E+00
    0.35112E+06        -0.97037E+08         0.00000E+00
    0.00000E+00         0.00000E+00        -0.59535E+08
 
   -0.59405E+08         0.34766E+06         0.00000E+00
    0.34766E+06        -0.97021E+08         0.00000E+00
    0.00000E+00         0.00000E+00        -0.59346E+08
 
   -0.59232E+08         0.34394E+06         0.00000E+00
    0.34394E+06        -0.97006E+08         0.00000E+00
    0.00000E+00         0.00000E+00        -0.59157E+08
 
   -0.59060E+08         0.33992E+06         0.00000E+00
    0.33992E+06        -0.96992E+08         0.00000E+00
    0.00000E+00         0.00000E+00        -0.58965E+08
 
   -0.58889E+08         0.33554E+06         0.00000E+00
    0.33554E+06        -0.96978E+08         0.00000E+00
    0.00000E+00         0.00000E+00        -0.58773E+08
 
   -0.58720E+08         0.33070E+06         0.00000E+00
    0.33070E+06        -0.96966E+08         0.00000E+00
    0.00000E+00         0.00000E+00        -0.58578E+08
 
   -0.58552E+08         0.32530E+06         0.00000E+00
    0.32530E+06        -0.96954E+08         0.00000E+00
    0.00000E+00         0.00000E+00        -0.58381E+08
 
   -0.58386E+08         0.31922E+06         0.00000E+00
    0.31922E+06        -0.96943E+08         0.00000E+00
    0.00000E+00         0.00000E+00        -0.58182E+08
 
   -0.58222E+08         0.31229E+06         0.00000E+00
    0.31229E+06        -0.96934E+08         0.00000E+00
    0.00000E+00         0.00000E+00        -0.57981E+08
 
   -0.58062E+08         0.30432E+06         0.00000E+00
    0.30432E+06        -0.96925E+08         0.00000E+00
    0.00000E+00         0.00000E+00        -0.57776E+08
 
   -0.57904E+08         0.29507E+06         0.00000E+00
    0.29507E+06        -0.96918E+08         0.00000E+00
    0.00000E+00         0.00000E+00        -0.57568E+08
 
   -0.57751E+08         0.28426E+06         0.00000E+00
    0.28426E+06        -0.96912E+08         0.00000E+00
    0.00000E+00         0.00000E+00        -0.57356E+08
 
   -0.57602E+08         0.27159E+06         0.00000E+00
    0.27159E+06        -0.96907E+08         0.00000E+00
    0.00000E+00         0.00000E+00        -0.57140E+08
 
   -0.57458E+08         0.25671E+06         0.00000E+00
    0.25671E+06        -0.96904E+08         0.00000E+00
    0.00000E+00         0.00000E+00        -0.56919E+08
 
   -0.57321E+08         0.23927E+06         0.00000E+00
    0.23927E+06        -0.96903E+08         0.00000E+00
    0.00000E+00         0.00000E+00        -0.56692E+08
 
   -0.57191E+08         0.21895E+06         0.00000E+00
    0.21895E+06        -0.96903E+08         0.00000E+00
    0.00000E+00         0.00000E+00        -0.56459E+08
 
   -0.57069E+08         0.19549E+06         0.00000E+00
    0.19549E+06        -0.96905E+08         0.00000E+00
    0.00000E+00         0.00000E+00        -0.56218E+08
 
   -0.56957E+08         0.16875E+06         0.00000E+00
    0.16875E+06        -0.96909E+08         0.00000E+00
    0.00000E+00         0.00000E+00        -0.55968E+08
 
   -0.56857E+08         0.13882E+06         0.00000E+00
    0.13882E+06        -0.96914E+08         0.00000E+00
    0.00000E+00         0.00000E+00        -0.55709E+08
 
   -0.56768E+08         0.10609E+06         0.00000E+00
    0.10609E+06        -0.96921E+08         0.00000E+00
    0.00000E+00         0.00000E+00        -0.55440E+08
 
   -0.56692E+08         0.71299E+05         0.00000E+00
    0.71299E+05        -0.96929E+08         0.00000E+00
    0.00000E+00         0.00000E+00        -0.55160E+08
 
   -0.56630E+08         0.35604E+05         0.00000E+00
    0.35604E+05        -0.96938E+08         0.00000E+00
    0.00000E+00         0.00000E+00        -0.54868E+08
 
   -0.56582E+08         0.56894E+03         0.00000E+00
    0.56894E+03        -0.96947E+08         0.00000E+00
    0.00000E+00         0.00000E+00        -0.54564E+08
 
   -0.56547E+08        -0.31935E+05         0.00000E+00
   -0.31935E+05        -0.96958E+08         0.00000E+00
    0.00000E+00         0.00000E+00        -0.54251E+08
 
   -0.56523E+08        -0.59699E+05         0.00000E+00
   -0.59699E+05        -0.96968E+08         0.00000E+00
    0.00000E+00         0.00000E+00        -0.53930E+08
 
   -0.56502E+08        -0.76170E+05         0.00000E+00
   -0.76170E+05        -0.96977E+08         0.00000E+00
    0.00000E+00         0.00000E+00        -0.53605E+08
 
   -0.56476E+08        -0.67281E+05         0.00000E+00
   -0.67281E+05        -0.96964E+08         0.00000E+00
    0.00000E+00         0.00000E+00        -0.53267E+08
 
   -0.56453E+08        -0.27158E+05         0.00000E+00
   -0.27158E+05        -0.96897E+08         0.00000E+00
    0.00000E+00         0.00000E+00        -0.52881E+08
 
   -0.73031E+08        -0.50487E+05         0.00000E+00
   -0.50487E+05        -0.97682E+08         0.00000E+00
    0.00000E+00         0.00000E+00        -0.78576E+08
 
   -0.73032E+08        -0.10684E+06         0.00000E+00
   -0.10684E+06        -0.97614E+08         0.00000E+00
    0.00000E+00         0.00000E+00        -0.78055E+08
 
   -0.73124E+08        -0.12731E+06         0.00000E+00
   -0.12731E+06        -0.97570E+08         0.00000E+00
    0.00000E+00         0.00000E+00        -0.77635E+08
 
   -0.73199E+08        -0.10360E+06         0.00000E+00
   -0.10360E+06        -0.97587E+08         0.00000E+00
    0.00000E+00         0.00000E+00        -0.77221E+08
 
   -0.73234E+08        -0.61509E+05         0.00000E+00
   -0.61509E+05        -0.97580E+08         0.00000E+00
    0.00000E+00         0.00000E+00        -0.76809E+08
 
   -0.73230E+08        -0.13524E+05         0.00000E+00
   -0.13524E+05        -0.97566E+08         0.00000E+00
    0.00000E+00         0.00000E+00        -0.76397E+08
 
   -0.73189E+08         0.36576E+05         0.00000E+00
    0.36576E+05        -0.97555E+08         0.00000E+00
    0.00000E+00         0.00000E+00        -0.75985E+08
 
   -0.73118E+08         0.89762E+05         0.00000E+00
    0.89762E+05        -0.97551E+08         0.00000E+00
    0.00000E+00         0.00000E+00        -0.75576E+08
 
   -0.73020E+08         0.14362E+06         0.00000E+00
    0.14362E+06        -0.97551E+08         0.00000E+00
    0.00000E+00         0.00000E+00        -0.75167E+08
 
   -0.72897E+08         0.19555E+06         0.00000E+00
    0.19555E+06        -0.97554E+08         0.00000E+00
    0.00000E+00         0.00000E+00        -0.74760E+08
 
   -0.72749E+08         0.24376E+06         0.00000E+00
    0.24376E+06        -0.97558E+08         0.00000E+00
    0.00000E+00         0.00000E+00        -0.74354E+08
 
   -0.72581E+08         0.28709E+06         0.00000E+00
    0.28709E+06        -0.97563E+08         0.00000E+00
    0.00000E+00         0.00000E+00        -0.73951E+08
 
   -0.72393E+08         0.32466E+06         0.00000E+00
    0.32466E+06        -0.97568E+08         0.00000E+00
    0.00000E+00         0.00000E+00        -0.73549E+08
 
   -0.72189E+08         0.35580E+06         0.00000E+00
    0.35580E+06        -0.97575E+08         0.00000E+00
    0.00000E+00         0.00000E+00        -0.73148E+08
 
   -0.71972E+08         0.37992E+06         0.00000E+00
    0.37992E+06        -0.97581E+08         0.00000E+00
    0.00000E+00         0.00000E+00        -0.72751E+08
 
   -0.71745E+08         0.39630E+06         0.00000E+00
    0.39630E+06        -0.97589E+08         0.00000E+00
    0.00000E+00         0.00000E+00        -0.72355E+08
 
   -0.71513E+08         0.40485E+06         0.00000E+00
    0.40485E+06        -0.97596E+08         0.00000E+00
    0.00000E+00         0.00000E+00        -0.71961E+08
 
   -0.71279E+08         0.40630E+06         0.00000E+00
    0.40630E+06        -0.97604E+08         0.00000E+00
    0.00000E+00         0.00000E+00        -0.71570E+08
 
   -0.71044E+08         0.39284E+06         0.00000E+00
    0.39284E+06        -0.97606E+08         0.00000E+00
    0.00000E+00         0.00000E+00        -0.71203E+08
 
   -0.70801E+08         0.39899E+06         0.00000E+00
    0.39899E+06        -0.97599E+08         0.00000E+00
    0.00000E+00         0.00000E+00        -0.70889E+08
 
   -0.70551E+08         0.40166E+06         0.00000E+00
    0.40166E+06        -0.97592E+08         0.00000E+00
    0.00000E+00         0.00000E+00        -0.70611E+08
 
   -0.70301E+08         0.40733E+06         0.00000E+00
    0.40733E+06        -0.97593E+08         0.00000E+00
    0.00000E+00         0.00000E+00        -0.70337E+08
 
   -0.70052E+08         0.41330E+06         0.00000E+00
    0.41330E+06        -0.97595E+08         0.00000E+00
    0.00000E+00         0.00000E+00        -0.70065E+08
 
   -0.69802E+08         0.41826E+06         0.00000E+00
    0.41826E+06        -0.97596E+08         0.00000E+00
    0.00000E+00         0.00000E+00        -0.69796E+08
 
   -0.69551E+08         0.42200E+06         0.00000E+00
    0.42200E+06        -0.97597E+08         0.00000E+00
    0.00000E+00         0.00000E+00        -0.69528E+08
 
   -0.69299E+08         0.42469E+06         0.00000E+00
    0.42469E+06        -0.97598E+08         0.00000E+00
    0.00000E+00         0.00000E+00        -0.69262E+08
 
   -0.69048E+08         0.42655E+06         0.00000E+00
    0.42655E+06        -0.97599E+08         0.00000E+00
    0.00000E+00         0.00000E+00        -0.68996E+08
 
   -0.68796E+08         0.42779E+06         0.00000E+00
    0.42779E+06        -0.97599E+08         0.00000E+00
    0.00000E+00         0.00000E+00        -0.68732E+08
 
   -0.68544E+08         0.42857E+06         0.00000E+00
    0.42857E+06        -0.97600E+08         0.00000E+00
    0.00000E+00         0.00000E+00        -0.68468E+08
 
   -0.68292E+08         0.42899E+06         0.00000E+00
    0.42899E+06        -0.97600E+08         0.00000E+00
    0.00000E+00         0.00000E+00        -0.68205E+08
 
   -0.68041E+08         0.42911E+06         0.00000E+00
    0.42911E+06        -0.97600E+08         0.00000E+00
    0.00000E+00         0.00000E+00        -0.67943E+08
 
   -0.67791E+08         0.42891E+06         0.00000E+00
    0.42891E+06        -0.97600E+08         0.00000E+00
    0.00000E+00         0.00000E+00        -0.67680E+08
 
   -0.67542E+08         0.42822E+06         0.00000E+00
    0.42822E+06        -0.97600E+08         0.00000E+00
    0.00000E+00         0.00000E+00        -0.67418E+08
 
   -0.67295E+08         0.42661E+06         0.00000E+00
    0.42661E+06        -0.97601E+08         0.00000E+00
    0.00000E+00         0.00000E+00        -0.67157E+08
 
   -0.67051E+08         0.42292E+06         0.00000E+00
    0.42292E+06        -0.97603E+08         0.00000E+00
    0.00000E+00         0.00000E+00        -0.66895E+08
 
   -0.66811E+08         0.41521E+06         0.00000E+00
    0.41521E+06        -0.97610E+08         0.00000E+00
    0.00000E+00         0.00000E+00        -0.66634E+08
 
   -0.66572E+08         0.40324E+06         0.00000E+00
    0.40324E+06        -0.97615E+08         0.00000E+00
    0.00000E+00         0.00000E+00        -0.66387E+08
 
   -0.66335E+08         0.39173E+06         0.00000E+00
    0.39173E+06        -0.97609E+08         0.00000E+00
    0.00000E+00         0.00000E+00        -0.66165E+08
 
   -0.66101E+08         0.38376E+06         0.00000E+00
    0.38376E+06        -0.97604E+08         0.00000E+00
    0.00000E+00         0.00000E+00        -0.65952E+08
 
   -0.65871E+08         0.37926E+06         0.00000E+00
    0.37926E+06        -0.97602E+08         0.00000E+00
    0.00000E+00         0.00000E+00        -0.65741E+08
 
   -0.65644E+08         0.37657E+06         0.00000E+00
    0.37657E+06        -0.97601E+08         0.00000E+00
    0.00000E+00         0.00000E+00        -0.65529E+08
 
   -0.65419E+08         0.37466E+06         0.00000E+00
    0.37466E+06        -0.97601E+08         0.00000E+00
    0.00000E+00         0.00000E+00        -0.65318E+08
 
   -0.65196E+08         0.37311E+06         0.00000E+00
    0.37311E+06        -0.97601E+08         0.00000E+00
    0.00000E+00         0.00000E+00        -0.65108E+08
 
   -0.64975E+08         0.37172E+06         0.00000E+00
    0.37172E+06        -0.97601E+08         0.00000E+00
    0.00000E+00         0.00000E+00        -0.64898E+08
 
   -0.64755E+08         0.37038E+06         0.00000E+00
    0.37038E+06        -0.97601E+08         0.00000E+00
    0.00000E+00         0.00000E+00        -0.64688E+08
 
   -0.64537E+08         0.36906E+06         0.00000E+00
    0.36906E+06        -0.97601E+08         0.00000E+00
    0.00000E+00         0.00000E+00        -0.64479E+08
 
   -0.64319E+08         0.36773E+06         0.00000E+00
    0.36773E+06        -0.97601E+08         0.00000E+00
    0.00000E+00         0.00000E+00        -0.64270E+08
 
   -0.64111E+08         0.36621E+06         0.00000E+00
    0.36621E+06        -0.97593E+08         0.00000E+00
    0.00000E+00         0.00000E+00        -0.64070E+08
 
   -0.63919E+08         0.36437E+06         0.00000E+00
    0.36437E+06        -0.97572E+08         0.00000E+00
    0.00000E+00         0.00000E+00        -0.63885E+08
 
   -0.63731E+08         0.36245E+06         0.00000E+00
    0.36245E+06        -0.97547E+08         0.00000E+00
    0.00000E+00         0.00000E+00        -0.63705E+08
 
   -0.63544E+08         0.36054E+06         0.00000E+00
    0.36054E+06        -0.97521E+08         0.00000E+00
    0.00000E+00         0.00000E+00        -0.63525E+08
 
   -0.63358E+08         0.35864E+06         0.00000E+00
    0.35864E+06        -0.97496E+08         0.00000E+00
    0.00000E+00         0.00000E+00        -0.63345E+08
 
   -0.63173E+08         0.35675E+06         0.00000E+00
    0.35675E+06        -0.97471E+08         0.00000E+00
    0.00000E+00         0.00000E+00        -0.63165E+08
 
   -0.62988E+08         0.35487E+06         0.00000E+00
    0.35487E+06        -0.97446E+08         0.00000E+00
    0.00000E+00         0.00000E+00        -0.62985E+08
 
   -0.62805E+08         0.35301E+06         0.00000E+00
    0.35301E+06        -0.97422E+08         0.00000E+00
    0.00000E+00         0.00000E+00        -0.62806E+08
 
   -0.62621E+08         0.35114E+06         0.00000E+00
    0.35114E+06        -0.97397E+08         0.00000E+00
    0.00000E+00         0.00000E+00        -0.62626E+08
 
   -0.62439E+08         0.34928E+06         0.00000E+00
    0.34928E+06        -0.97373E+08         0.00000E+00
    0.00000E+00         0.00000E+00        -0.62447E+08
 
   -0.62256E+08         0.34742E+06         0.00000E+00
    0.34742E+06        -0.97349E+08         0.00000E+00
    0.00000E+00         0.00000E+00        -0.62268E+08
 
   -0.62075E+08         0.34555E+06         0.00000E+00
    0.34555E+06        -0.97325E+08         0.00000E+00
    0.00000E+00         0.00000E+00        -0.62088E+08
 
   -0.61893E+08         0.34366E+06         0.00000E+00
    0.34366E+06        -0.97302E+08         0.00000E+00
    0.00000E+00         0.00000E+00        -0.61909E+08
 
   -0.61713E+08         0.34175E+06         0.00000E+00
    0.34175E+06        -0.97279E+08         0.00000E+00
    0.00000E+00         0.00000E+00        -0.61729E+08
 
   -0.61532E+08         0.33982E+06         0.00000E+00
    0.33982E+06        -0.97256E+08         0.00000E+00
    0.00000E+00         0.00000E+00        -0.61549E+08
 
   -0.61352E+08         0.33784E+06         0.00000E+00
    0.33784E+06        -0.97234E+08         0.00000E+00
    0.00000E+00         0.00000E+00        -0.61369E+08
 
   -0.61173E+08         0.33582E+06         0.00000E+00
    0.33582E+06        -0.97212E+08         0.00000E+00
    0.00000E+00         0.00000E+00        -0.61188E+08
 
   -0.60994E+08         0.33374E+06         0.00000E+00
    0.33374E+06        -0.97190E+08         0.00000E+00
    0.00000E+00         0.00000E+00        -0.61007E+08
 
   -0.60815E+08         0.33161E+06         0.00000E+00
    0.33161E+06        -0.97169E+08         0.00000E+00
    0.00000E+00         0.00000E+00        -0.60826E+08
 
   -0.60637E+08         0.32940E+06         0.00000E+00
    0.32940E+06        -0.97149E+08         0.00000E+00
    0.00000E+00         0.00000E+00        -0.60644E+08
 
   -0.60460E+08         0.32711E+06         0.00000E+00
    0.32711E+06        -0.97129E+08         0.00000E+00
    0.00000E+00         0.00000E+00        -0.60461E+08
 
   -0.60282E+08         0.32472E+06         0.00000E+00
    0.32472E+06        -0.97110E+08         0.00000E+00
    0.00000E+00         0.00000E+00        -0.60277E+08
 
   -0.60106E+08         0.32223E+06         0.00000E+00
    0.32223E+06        -0.97091E+08         0.00000E+00
    0.00000E+00         0.00000E+00        -0.60093E+08
 
   -0.59930E+08         0.31961E+06         0.00000E+00
    0.31961E+06        -0.97073E+08         0.00000E+00
    0.00000E+00         0.00000E+00        -0.59908E+08
 
   -0.59754E+08         0.31686E+06         0.00000E+00
    0.31686E+06        -0.97056E+08         0.00000E+00
    0.00000E+00         0.00000E+00        -0.59722E+08
 
   -0.59580E+08         0.31394E+06         0.00000E+00
    0.31394E+06        -0.97039E+08         0.00000E+00
    0.00000E+00         0.00000E+00        -0.59535E+08
 
   -0.59406E+08         0.31083E+06         0.00000E+00
    0.31083E+06        -0.97023E+08         0.00000E+00
    0.00000E+00         0.00000E+00        -0.59346E+08
 
   -0.59233E+08         0.30749E+06         0.00000E+00
    0.30749E+06        -0.97008E+08         0.00000E+00
    0.00000E+00         0.00000E+00        -0.59156E+08
 
   -0.59061E+08         0.30388E+06         0.00000E+00
    0.30388E+06        -0.96994E+08         0.00000E+00
    0.00000E+00         0.00000E+00        -0.58965E+08
 
   -0.58890E+08         0.29995E+06         0.00000E+00
    0.29995E+06        -0.96980E+08         0.00000E+00
    0.00000E+00         0.00000E+00        -0.58772E+08
 
   -0.58721E+08         0.29560E+06         0.00000E+00
    0.29560E+06        -0.96968E+08         0.00000E+00
    0.00000E+00         0.00000E+00        -0.58577E+08
 
   -0.58553E+08         0.29076E+06         0.00000E+00
    0.29076E+06        -0.96956E+08         0.00000E+00
    0.00000E+00         0.00000E+00        -0.58380E+08
 
   -0.58388E+08         0.28531E+06         0.00000E+00
    0.28531E+06        -0.96945E+08         0.00000E+00
    0.00000E+00         0.00000E+00        -0.58181E+08
 
   -0.58224E+08         0.27909E+06         0.00000E+00
    0.27909E+06        -0.96935E+08         0.00000E+00
    0.00000E+00         0.00000E+00        -0.57979E+08
 
   -0.58064E+08         0.27192E+06         0.00000E+00
    0.27192E+06        -0.96927E+08         0.00000E+00
    0.00000E+00         0.00000E+00        -0.57774E+08
 
   -0.57907E+08         0.26360E+06         0.00000E+00
    0.26360E+06        -0.96919E+08         0.00000E+00
    0.00000E+00         0.00000E+00        -0.57566E+08
 
   -0.57754E+08         0.25386E+06         0.00000E+00
    0.25386E+06        -0.96913E+08         0.00000E+00
    0.00000E+00         0.00000E+00        -0.57353E+08
 
   -0.57605E+08         0.24243E+06         0.00000E+00
    0.24243E+06        -0.96908E+08         0.00000E+00
    0.00000E+00         0.00000E+00        -0.57136E+08
 
   -0.57462E+08         0.22897E+06         0.00000E+00
    0.22897E+06        -0.96904E+08         0.00000E+00
    0.00000E+00         0.00000E+00        -0.56914E+08
 
   -0.57326E+08         0.21319E+06         0.00000E+00
    0.21319E+06        -0.96902E+08         0.00000E+00
    0.00000E+00         0.00000E+00        -0.56686E+08
 
   -0.57197E+08         0.19476E+06         0.00000E+00
    0.19476E+06        -0.96902E+08         0.00000E+00
    0.00000E+00         0.00000E+00        -0.56451E+08
 
   -0.57077E+08         0.17345E+06         0.00000E+00
    0.17345E+06        -0.96903E+08         0.00000E+00
    0.00000E+00         0.00000E+00        -0.56208E+08
 
   -0.56967E+08         0.14916E+06         0.00000E+00
    0.14916E+06        -0.96906E+08         0.00000E+00
    0.00000E+00         0.00000E+00        -0.55956E+08
 
   -0.56869E+08         0.12195E+06         0.00000E+00
    0.12195E+06        -0.96911E+08         0.00000E+00
    0.00000E+00         0.00000E+00        -0.55694E+08
 
   -0.56783E+08         0.92199E+05         0.00000E+00
    0.92199E+05        -0.96917E+08         0.00000E+00
    0.00000E+00         0.00000E+00        -0.55422E+08
 
   -0.56711E+08         0.60599E+05         0.00000E+00
    0.60599E+05        -0.96924E+08         0.00000E+00
    0.00000E+00         0.00000E+00        -0.55138E+08
 
   -0.56654E+08         0.28202E+05         0.00000E+00
    0.28202E+05        -0.96933E+08         0.00000E+00
    0.00000E+00         0.00000E+00        -0.54842E+08
 
   -0.56611E+08        -0.36165E+04         0.00000E+00
   -0.36165E+04        -0.96942E+08         0.00000E+00
    0.00000E+00         0.00000E+00        -0.54534E+08
 
   -0.56581E+08        -0.33197E+05         0.00000E+00
   -0.33197E+05        -0.96953E+08         0.00000E+00
    0.00000E+00         0.00000E+00        -0.54216E+08
 
   -0.56564E+08        -0.59058E+05         0.00000E+00
   -0.59058E+05        -0.96965E+08         0.00000E+00
    0.00000E+00         0.00000E+00        -0.53890E+08
 
   -0.56550E+08        -0.76340E+05         0.00000E+00
   -0.76340E+05        -0.96976E+08         0.00000E+00
    0.00000E+00         0.00000E+00        -0.53562E+08
 
   -0.56531E+08        -0.69716E+05         0.00000E+00
   -0.69716E+05        -0.96971E+08         0.00000E+00
    0.00000E+00         0.00000E+00        -0.53226E+08
 
   -0.56510E+08        -0.28777E+05         0.00000E+00
   -0.28777E+05        -0.96911E+08         0.00000E+00
    0.00000E+00         0.00000E+00        -0.52845E+08
 
   -0.72941E+08        -0.51526E+05         0.00000E+00
   -0.51526E+05        -0.97650E+08         0.00000E+00
    0.00000E+00         0.00000E+00        -0.78636E+08
 
   -0.72936E+08        -0.99934E+05         0.00000E+00
   -0.99934E+05        -0.97607E+08         0.00000E+00
    0.00000E+00         0.00000E+00        -0.78088E+08
 
   -0.73013E+08        -0.10764E+06         0.00000E+00
   -0.10764E+06        -0.97591E+08         0.00000E+00
    0.00000E+00         0.00000E+00        -0.77635E+08
 
   -0.73120E+08        -0.90341E+05         0.00000E+00
   -0.90341E+05        -0.97586E+08         0.00000E+00
    0.00000E+00         0.00000E+00        -0.77221E+08
 
   -0.73169E+08        -0.56951E+05         0.00000E+00
   -0.56951E+05        -0.97591E+08         0.00000E+00
    0.00000E+00         0.00000E+00        -0.76809E+08
 
   -0.73174E+08        -0.17459E+05         0.00000E+00
   -0.17459E+05        -0.97574E+08         0.00000E+00
    0.00000E+00         0.00000E+00        -0.76397E+08
 
   -0.73142E+08         0.26115E+05         0.00000E+00
    0.26115E+05        -0.97565E+08         0.00000E+00
    0.00000E+00         0.00000E+00        -0.75985E+08
 
   -0.73078E+08         0.73446E+05         0.00000E+00
    0.73446E+05        -0.97561E+08         0.00000E+00
    0.00000E+00         0.00000E+00        -0.75576E+08
 
   -0.72987E+08         0.12203E+06         0.00000E+00
    0.12203E+06        -0.97561E+08         0.00000E+00
    0.00000E+00         0.00000E+00        -0.75167E+08
 
   -0.72869E+08         0.16890E+06         0.00000E+00
    0.16890E+06        -0.97563E+08         0.00000E+00
    0.00000E+00         0.00000E+00        -0.74760E+08
 
   -0.72726E+08         0.21247E+06         0.00000E+00
    0.21247E+06        -0.97567E+08         0.00000E+00
    0.00000E+00         0.00000E+00        -0.74354E+08
 
   -0.72561E+08         0.25163E+06         0.00000E+00
    0.25163E+06        -0.97571E+08         0.00000E+00
    0.00000E+00         0.00000E+00        -0.73951E+08
 
   -0.72375E+08         0.28558E+06         0.00000E+00
    0.28558E+06        -0.97575E+08         0.00000E+00
    0.00000E+00         0.00000E+00        -0.73549E+08
 
   -0.72173E+08         0.31373E+06         0.00000E+00
    0.31373E+06        -0.97580E+08         0.00000E+00
    0.00000E+00         0.00000E+00        -0.73148E+08
 
   -0.71957E+08         0.33550E+06         0.00000E+00
    0.33550E+06        -0.97585E+08         0.00000E+00
    0.00000E+00         0.00000E+00        -0.72751E+08
 
   -0.71731E+08         0.35029E+06         0.00000E+00
    0.35029E+06        -0.97591E+08         0.00000E+00
    0.00000E+00         0.00000E+00        -0.72355E+08
 
   -0.71498E+08         0.35809E+06         0.00000E+00
    0.35809E+06        -0.97597E+08         0.00000E+00
    0.00000E+00         0.00000E+00        -0.71961E+08
 
   -0.71264E+08         0.35965E+06         0.00000E+00
    0.35965E+06        -0.97603E+08         0.00000E+00
    0.00000E+00         0.00000E+00        -0.71570E+08
 
   -0.71029E+08         0.34584E+06         0.00000E+00
    0.34584E+06        -0.97605E+08         0.00000E+00
    0.00000E+00         0.00000E+00        -0.71197E+08
 
   -0.70789E+08         0.34915E+06         0.00000E+00
    0.34915E+06        -0.97599E+08         0.00000E+00
    0.00000E+00         0.00000E+00        -0.70876E+08
 
   -0.70541E+08         0.35178E+06         0.00000E+00
    0.35178E+06        -0.97593E+08         0.00000E+00
    0.00000E+00         0.00000E+00        -0.70598E+08
 
   -0.70293E+08         0.35763E+06         0.00000E+00
    0.35763E+06        -0.97594E+08         0.00000E+00
    0.00000E+00         0.00000E+00        -0.70324E+08
 
   -0.70045E+08         0.36347E+06         0.00000E+00
    0.36347E+06        -0.97596E+08         0.00000E+00
    0.00000E+00         0.00000E+00        -0.70053E+08
 
   -0.69797E+08         0.36827E+06         0.00000E+00
    0.36827E+06        -0.97597E+08         0.00000E+00
    0.00000E+00         0.00000E+00        -0.69784E+08
 
   -0.69547E+08         0.37183E+06         0.00000E+00
    0.37183E+06        -0.97598E+08         0.00000E+00
    0.00000E+00         0.00000E+00        -0.69517E+08
 
   -0.69296E+08         0.37440E+06         0.00000E+00
    0.37440E+06        -0.97599E+08         0.00000E+00
    0.00000E+00         0.00000E+00        -0.69251E+08
 
   -0.69044E+08         0.37620E+06         0.00000E+00
    0.37620E+06        -0.97599E+08         0.00000E+00
    0.00000E+00         0.00000E+00        -0.68986E+08
 
   -0.68792E+08         0.37742E+06         0.00000E+00
    0.37742E+06        -0.97600E+08         0.00000E+00
    0.00000E+00         0.00000E+00        -0.68722E+08
 
   -0.68541E+08         0.37821E+06         0.00000E+00
    0.37821E+06        -0.97600E+08         0.00000E+00
    0.00000E+00         0.00000E+00        -0.68459E+08
 
   -0.68289E+08         0.37870E+06         0.00000E+00
    0.37870E+06        -0.97600E+08         0.00000E+00
    0.00000E+00         0.00000E+00        -0.68196E+08
 
   -0.68038E+08         0.37894E+06         0.00000E+00
    0.37894E+06        -0.97600E+08         0.00000E+00
    0.00000E+00         0.00000E+00        -0.67934E+08
 
   -0.67787E+08         0.37894E+06         0.00000E+00
    0.37894E+06        -0.97600E+08         0.00000E+00
    0.00000E+00         0.00000E+00        -0.67672E+08
 
   -0.67538E+08         0.37855E+06         0.00000E+00
    0.37855E+06        -0.97600E+08         0.00000E+00
    0.00000E+00         0.00000E+00        -0.67411E+08
 
   -0.67290E+08         0.37743E+06         0.00000E+00
    0.37743E+06        -0.97601E+08         0.00000E+00
    0.00000E+00         0.00000E+00        -0.67149E+08
 
   -0.67045E+08         0.37446E+06         0.00000E+00
    0.37446E+06        -0.97602E+08         0.00000E+00
    0.00000E+00         0.00000E+00        -0.66888E+08
 
   -0.66804E+08         0.36743E+06         0.00000E+00
    0.36743E+06        -0.97608E+08         0.00000E+00
    0.00000E+00         0.00000E+00        -0.66628E+08
 
   -0.66566E+08         0.35565E+06         0.00000E+00
    0.35565E+06        -0.97612E+08         0.00000E+00
    0.00000E+00         0.00000E+00        -0.66381E+08
 
   -0.66329E+08         0.34455E+06         0.00000E+00
    0.34455E+06        -0.97607E+08         0.00000E+00
    0.00000E+00         0.00000E+00        -0.66159E+08
 
   -0.66096E+08         0.33736E+06         0.00000E+00
    0.33736E+06        -0.97603E+08         0.00000E+00
    0.00000E+00         0.00000E+00        -0.65947E+08
 
   -0.65866E+08         0.33364E+06         0.00000E+00
    0.33364E+06        -0.97601E+08         0.00000E+00
    0.00000E+00         0.00000E+00        -0.65736E+08
 
   -0.65640E+08         0.33151E+06         0.00000E+00
    0.33151E+06        -0.97601E+08         0.00000E+00
    0.00000E+00         0.00000E+00        -0.65525E+08
 
   -0.65416E+08         0.33001E+06         0.00000E+00
    0.33001E+06        -0.97601E+08         0.00000E+00
    0.00000E+00         0.00000E+00        -0.65314E+08
 
   -0.65194E+08         0.32878E+06         0.00000E+00
    0.32878E+06        -0.97601E+08         0.00000E+00
    0.00000E+00         0.00000E+00        -0.65104E+08
 
   -0.64973E+08         0.32766E+06         0.00000E+00
    0.32766E+06        -0.97601E+08         0.00000E+00
    0.00000E+00         0.00000E+00        -0.64894E+08
 
   -0.64754E+08         0.32657E+06         0.00000E+00
    0.32657E+06        -0.97601E+08         0.00000E+00
    0.00000E+00         0.00000E+00        -0.64685E+08
 
   -0.64536E+08         0.32546E+06         0.00000E+00
    0.32546E+06        -0.97601E+08         0.00000E+00
    0.00000E+00         0.00000E+00        -0.64476E+08
 
   -0.64318E+08         0.32433E+06         0.00000E+00
    0.32433E+06        -0.97601E+08         0.00000E+00
    0.00000E+00         0.00000E+00        -0.64267E+08
 
   -0.64110E+08         0.32302E+06         0.00000E+00
    0.32302E+06        -0.97593E+08         0.00000E+00
    0.00000E+00         0.00000E+00        -0.64068E+08
 
   -0.63918E+08         0.32142E+06         0.00000E+00
    0.32142E+06        -0.97571E+08         0.00000E+00
    0.00000E+00         0.00000E+00        -0.63883E+08
 
   -0.63731E+08         0.31975E+06         0.00000E+00
    0.31975E+06        -0.97546E+08         0.00000E+00
    0.00000E+00         0.00000E+00        -0.63703E+08
 
   -0.63544E+08         0.31808E+06         0.00000E+00
    0.31808E+06        -0.97521E+08         0.00000E+00
    0.00000E+00         0.00000E+00        -0.63523E+08
 
   -0.63358E+08         0.31641E+06         0.00000E+00
    0.31641E+06        -0.97496E+08         0.00000E+00
    0.00000E+00         0.00000E+00        -0.63343E+08
 
   -0.63173E+08         0.31475E+06         0.00000E+00
    0.31475E+06        -0.97471E+08         0.00000E+00
    0.00000E+00         0.00000E+00        -0.63164E+08
 
   -0.62988E+08         0.31310E+06         0.00000E+00
    0.31310E+06        -0.97446E+08         0.00000E+00
    0.00000E+00         0.00000E+00        -0.62984E+08
 
   -0.62804E+08         0.31145E+06         0.00000E+00
    0.31145E+06        -0.97422E+08         0.00000E+00
    0.00000E+00         0.00000E+00        -0.62805E+08
 
   -0.62621E+08         0.30980E+06         0.00000E+00
    0.30980E+06        -0.97397E+08         0.00000E+00
    0.00000E+00         0.00000E+00        -0.62626E+08
 
   -0.62438E+08         0.30816E+06         0.00000E+00
    0.30816E+06        -0.97373E+08         0.00000E+00
    0.00000E+00         0.00000E+00        -0.62446E+08
 
   -0.62256E+08         0.30651E+06         0.00000E+00
    0.30651E+06        -0.97349E+08         0.00000E+00
    0.00000E+00         0.00000E+00        -0.62267E+08
 
   -0.62074E+08         0.30486E+06         0.00000E+00
    0.30486E+06        -0.97326E+08         0.00000E+00
    0.00000E+00         0.00000E+00        -0.62088E+08
 
   -0.61893E+08         0.30319E+06         0.00000E+00
    0.30319E+06        -0.97302E+08         0.00000E+00
    0.00000E+00         0.00000E+00        -0.61908E+08
 
   -0.61712E+08         0.30149E+06         0.00000E+00
    0.30149E+06        -0.97279E+08         0.00000E+00
    0.00000E+00         0.00000E+00        -0.61729E+08
 
   -0.61532E+08         0.29977E+06         0.00000E+00
    0.29977E+06        -0.97257E+08         0.00000E+00
    0.00000E+00         0.00000E+00        -0.61549E+08
 
   -0.61352E+08         0.29802E+06         0.00000E+00
    0.29802E+06        -0.97234E+08         0.00000E+00
    0.00000E+00         0.00000E+00        -0.61369E+08
 
   -0.61173E+08         0.29623E+06         0.00000E+00
    0.29623E+06        -0.97213E+08         0.00000E+00
    0.00000E+00         0.00000E+00        -0.61188E+08
 
   -0.60994E+08         0.29439E+06         0.00000E+00
    0.29439E+06        -0.97191E+08         0.00000E+00
    0.00000E+00         0.00000E+00        -0.61007E+08
 
   -0.60815E+08         0.29249E+06         0.00000E+00
    0.29249E+06        -0.97170E+08         0.00000E+00
    0.00000E+00         0.00000E+00        -0.60826E+08
 
   -0.60637E+08         0.29053E+06         0.00000E+00
    0.29053E+06        -0.97150E+08         0.00000E+00
    0.00000E+00         0.00000E+00        -0.60644E+08
 
   -0.60459E+08         0.28849E+06         0.00000E+00
    0.28849E+06        -0.97130E+08         0.00000E+00
    0.00000E+00         0.00000E+00        -0.60461E+08
 
   -0.60282E+08         0.28637E+06         0.00000E+00
    0.28637E+06        -0.97111E+08         0.00000E+00
    0.00000E+00         0.00000E+00        -0.60278E+08
 
   -0.60106E+08         0.28416E+06         0.00000E+00
    0.28416E+06        -0.97093E+08         0.00000E+00
    0.00000E+00         0.00000E+00        -0.60093E+08
 
   -0.59930E+08         0.28184E+06         0.00000E+00
    0.28184E+06        -0.97075E+08         0.00000E+00
    0.00000E+00         0.00000E+00        -0.59908E+08
 
   -0.59755E+08         0.27939E+06         0.00000E+00
    0.27939E+06        -0.97057E+08         0.00000E+00
    0.00000E+00         0.00000E+00        -0.59722E+08
 
   -0.59580E+08         0.27680E+06         0.00000E+00
    0.27680E+06        -0.97041E+08         0.00000E+00
    0.00000E+00         0.00000E+00        -0.59535E+08
 
   -0.59406E+08         0.27405E+06         0.00000E+00
    0.27405E+06        -0.97025E+08         0.00000E+00
    0.00000E+00         0.00000E+00        -0.59346E+08
 
   -0.59233E+08         0.27109E+06         0.00000E+00
    0.27109E+06        -0.97010E+08         0.00000E+00
    0.00000E+00         0.00000E+00        -0.59156E+08
 
   -0.59062E+08         0.26790E+06         0.00000E+00
    0.26790E+06        -0.96996E+08         0.00000E+00
    0.00000E+00         0.00000E+00        -0.58965E+08
 
   -0.58891E+08         0.26441E+06         0.00000E+00
    0.26441E+06        -0.96982E+08         0.00000E+00
    0.00000E+00         0.00000E+00        -0.58772E+08
 
   -0.58722E+08         0.26057E+06         0.00000E+00
    0.26057E+06        -0.96970E+08         0.00000E+00
    0.00000E+00         0.00000E+00        -0.58577E+08
 
   -0.58555E+08         0.25629E+06         0.00000E+00
    0.25629E+06        -0.96958E+08         0.00000E+00
    0.00000E+00         0.00000E+00        -0.58380E+08
 
   -0.58390E+08         0.25146E+06         0.00000E+00
    0.25146E+06        -0.96947E+08         0.00000E+00
    0.00000E+00         0.00000E+00        -0.58180E+08
 
   -0.58227E+08         0.24595E+06         0.00000E+00
    0.24595E+06        -0.96937E+08         0.00000E+00
    0.00000E+00         0.00000E+00        -0.57978E+08
 
   -0.58066E+08         0.23960E+06         0.00000E+00
    0.23960E+06        -0.96928E+08         0.00000E+00
    0.00000E+00         0.00000E+00        -0.57773E+08
 
   -0.57910E+08         0.23221E+06         0.00000E+00
    0.23221E+06        -0.96921E+08         0.00000E+00
    0.00000E+00         0.00000E+00        -0.57564E+08
 
   -0.57757E+08         0.22356E+06         0.00000E+00
    0.22356E+06        -0.96914E+08         0.00000E+00
    0.00000E+00         0.00000E+00        -0.57350E+08
 
   -0.57609E+08         0.21338E+06         0.00000E+00
    0.21338E+06        -0.96909E+08         0.00000E+00
    0.00000E+00         0.00000E+00        -0.57133E+08
 
   -0.57467E+08         0.20139E+06         0.00000E+00
    0.20139E+06        -0.96905E+08         0.00000E+00
    0.00000E+00         0.00000E+00        -0.56909E+08
 
   -0.57332E+08         0.18730E+06         0.00000E+00
    0.18730E+06        -0.96902E+08         0.00000E+00
    0.00000E+00         0.00000E+00        -0.56680E+08
 
   -0.57204E+08         0.17082E+06         0.00000E+00
    0.17082E+06        -0.96901E+08         0.00000E+00
    0.00000E+00         0.00000E+00        -0.56443E+08
 
   -0.57086E+08         0.15175E+06         0.00000E+00
    0.15175E+06        -0.96902E+08         0.00000E+00
    0.00000E+00         0.00000E+00        -0.56198E+08
 
   -0.56978E+08         0.12998E+06         0.00000E+00
    0.12998E+06        -0.96904E+08         0.00000E+00
    0.00000E+00         0.00000E+00        -0.55944E+08
 
   -0.56882E+08         0.10559E+06         0.00000E+00
    0.10559E+06        -0.96908E+08         0.00000E+00
    0.00000E+00         0.00000E+00        -0.55680E+08
 
   -0.56799E+08         0.78927E+05         0.00000E+00
    0.78927E+05        -0.96914E+08         0.00000E+00
    0.00000E+00         0.00000E+00        -0.55405E+08
 
   -0.56730E+08         0.50626E+05         0.00000E+00
    0.50626E+05        -0.96921E+08         0.00000E+00
    0.00000E+00         0.00000E+00        -0.55117E+08
 
   -0.56677E+08         0.21642E+05         0.00000E+00
    0.21642E+05        -0.96929E+08         0.00000E+00
    0.00000E+00         0.00000E+00        -0.54817E+08
 
   -0.56639E+08        -0.68466E+04         0.00000E+00
   -0.68466E+04        -0.96938E+08         0.00000E+00
    0.00000E+00         0.00000E+00        -0.54505E+08
 
   -0.56615E+08        -0.33369E+05         0.00000E+00
   -0.33369E+05        -0.96949E+08         0.00000E+00
    0.00000E+00         0.00000E+00        -0.54182E+08
 
   -0.56604E+08        -0.56901E+05         0.00000E+00
   -0.56901E+05        -0.96961E+08         0.00000E+00
    0.00000E+00         0.00000E+00        -0.53851E+08
 
   -0.56599E+08        -0.74737E+05         0.00000E+00
   -0.74737E+05        -0.96975E+08         0.00000E+00
    0.00000E+00         0.00000E+00        -0.53518E+08
 
   -0.56588E+08        -0.71271E+05         0.00000E+00
   -0.71271E+05        -0.96978E+08         0.00000E+00
    0.00000E+00         0.00000E+00        -0.53183E+08
 
   -0.56570E+08        -0.30307E+05         0.00000E+00
   -0.30307E+05        -0.96925E+08         0.00000E+00
    0.00000E+00         0.00000E+00        -0.52807E+08
 
   -0.72860E+08        -0.49227E+05         0.00000E+00
   -0.49227E+05        -0.97626E+08         0.00000E+00
    0.00000E+00         0.00000E+00        -0.78699E+08
 
   -0.72861E+08        -0.97871E+05         0.00000E+00
   -0.97871E+05        -0.97594E+08         0.00000E+00
    0.00000E+00         0.00000E+00        -0.78141E+08
 
   -0.72935E+08        -0.83702E+05         0.00000E+00
   -0.83702E+05        -0.97605E+08         0.00000E+00
    0.00000E+00         0.00000E+00        -0.77656E+08
 
   -0.73046E+08        -0.74641E+05         0.00000E+00
   -0.74641E+05        -0.97599E+08         0.00000E+00
    0.00000E+00         0.00000E+00        -0.77221E+08
 
   -0.73108E+08        -0.50080E+05         0.00000E+00
   -0.50080E+05        -0.97595E+08         0.00000E+00
    0.00000E+00         0.00000E+00        -0.76809E+08
 
   -0.73121E+08        -0.19866E+05         0.00000E+00
   -0.19866E+05        -0.97582E+08         0.00000E+00
    0.00000E+00         0.00000E+00        -0.76397E+08
 
   -0.73096E+08         0.17219E+05         0.00000E+00
    0.17219E+05        -0.97573E+08         0.00000E+00
    0.00000E+00         0.00000E+00        -0.75985E+08
 
   -0.73040E+08         0.58560E+05         0.00000E+00
    0.58560E+05        -0.97570E+08         0.00000E+00
    0.00000E+00         0.00000E+00        -0.75576E+08
 
   -0.72956E+08         0.10170E+06         0.00000E+00
    0.10170E+06        -0.97570E+08         0.00000E+00
    0.00000E+00         0.00000E+00        -0.75167E+08
 
   -0.72843E+08         0.14325E+06         0.00000E+00
    0.14325E+06        -0.97572E+08         0.00000E+00
    0.00000E+00         0.00000E+00        -0.74760E+08
 
   -0.72705E+08         0.18195E+06         0.00000E+00
    0.18195E+06        -0.97574E+08         0.00000E+00
    0.00000E+00         0.00000E+00        -0.74354E+08
 
   -0.72543E+08         0.21671E+06         0.00000E+00
    0.21671E+06        -0.97577E+08         0.00000E+00
    0.00000E+00         0.00000E+00        -0.73951E+08
 
   -0.72360E+08         0.24686E+06         0.00000E+00
    0.24686E+06        -0.97581E+08         0.00000E+00
    0.00000E+00         0.00000E+00        -0.73549E+08
 
   -0.72158E+08         0.27185E+06         0.00000E+00
    0.27185E+06        -0.97585E+08         0.00000E+00
    0.00000E+00         0.00000E+00        -0.73148E+08
 
   -0.71943E+08         0.29116E+06         0.00000E+00
    0.29116E+06        -0.97589E+08         0.00000E+00
    0.00000E+00         0.00000E+00        -0.72751E+08
 
   -0.71717E+08         0.30430E+06         0.00000E+00
    0.30430E+06        -0.97593E+08         0.00000E+00
    0.00000E+00         0.00000E+00        -0.72355E+08
 
   -0.71484E+08         0.31122E+06         0.00000E+00
    0.31122E+06        -0.97598E+08         0.00000E+00
    0.00000E+00         0.00000E+00        -0.71961E+08
 
   -0.71248E+08         0.31267E+06         0.00000E+00
    0.31267E+06        -0.97603E+08         0.00000E+00
    0.00000E+00         0.00000E+00        -0.71570E+08
 
   -0.71014E+08         0.29962E+06         0.00000E+00
    0.29962E+06        -0.97603E+08         0.00000E+00
    0.00000E+00         0.00000E+00        -0.71190E+08
 
   -0.70776E+08         0.29943E+06         0.00000E+00
    0.29943E+06        -0.97598E+08         0.00000E+00
    0.00000E+00         0.00000E+00        -0.70863E+08
 
   -0.70531E+08         0.30252E+06         0.00000E+00
    0.30252E+06        -0.97594E+08         0.00000E+00
    0.00000E+00         0.00000E+00        -0.70586E+08
 
   -0.70286E+08         0.30830E+06         0.00000E+00
    0.30830E+06        -0.97595E+08         0.00000E+00
    0.00000E+00         0.00000E+00        -0.70312E+08
 
   -0.70039E+08         0.31393E+06         0.00000E+00
    0.31393E+06        -0.97597E+08         0.00000E+00
    0.00000E+00         0.00000E+00        -0.70041E+08
 
   -0.69792E+08         0.31848E+06         0.00000E+00
    0.31848E+06        -0.97598E+08         0.00000E+00
    0.00000E+00         0.00000E+00        -0.69772E+08
 
   -0.69543E+08         0.32180E+06         0.00000E+00
    0.32180E+06        -0.97598E+08         0.00000E+00
    0.00000E+00         0.00000E+00        -0.69506E+08
 
   -0.69292E+08         0.32421E+06         0.00000E+00
    0.32421E+06        -0.97599E+08         0.00000E+00
    0.00000E+00         0.00000E+00        -0.69240E+08
 
   -0.69041E+08         0.32590E+06         0.00000E+00
    0.32590E+06        -0.97599E+08         0.00000E+00
    0.00000E+00         0.00000E+00        -0.68976E+08
 
   -0.68790E+08         0.32706E+06         0.00000E+00
    0.32706E+06        -0.97600E+08         0.00000E+00
    0.00000E+00         0.00000E+00        -0.68713E+08
 
   -0.68538E+08         0.32785E+06         0.00000E+00
    0.32785E+06        -0.97600E+08         0.00000E+00
    0.00000E+00         0.00000E+00        -0.68450E+08
 
   -0.68286E+08         0.32838E+06         0.00000E+00
    0.32838E+06        -0.97600E+08         0.00000E+00
    0.00000E+00         0.00000E+00        -0.68188E+08
 
   -0.68035E+08         0.32871E+06         0.00000E+00
    0.32871E+06        -0.97600E+08         0.00000E+00
    0.00000E+00         0.00000E+00        -0.67926E+08
 
   -0.67784E+08         0.32886E+06         0.00000E+00
    0.32886E+06        -0.97600E+08         0.00000E+00
    0.00000E+00         0.00000E+00        -0.67665E+08
 
   -0.67534E+08         0.32874E+06         0.00000E+00
    0.32874E+06        -0.97600E+08         0.00000E+00
    0.00000E+00         0.00000E+00        -0.67404E+08
 
   -0.67285E+08         0.32805E+06         0.00000E+00
    0.32805E+06        -0.97600E+08         0.00000E+00
    0.00000E+00         0.00000E+00        -0.67143E+08
 
   -0.67039E+08         0.32583E+06         0.00000E+00
    0.32583E+06        -0.97601E+08         0.00000E+00
    0.00000E+00         0.00000E+00        -0.66882E+08
 
   -0.66797E+08         0.31960E+06         0.00000E+00
    0.31960E+06        -0.97606E+08         0.00000E+00
    0.00000E+00         0.00000E+00        -0.66622E+08
 
   -0.66559E+08         0.30809E+06         0.00000E+00
    0.30809E+06        -0.97609E+08         0.00000E+00
    0.00000E+00         0.00000E+00        -0.66375E+08
 
   -0.66322E+08         0.29746E+06         0.00000E+00
    0.29746E+06        -0.97605E+08         0.00000E+00
    0.00000E+00         0.00000E+00        -0.66153E+08
 
   -0.66090E+08         0.29114E+06         0.00000E+00
    0.29114E+06        -0.97602E+08         0.00000E+00
    0.00000E+00         0.00000E+00        -0.65942E+08
 
   -0.65862E+08         0.28824E+06         0.00000E+00
    0.28824E+06        -0.97601E+08         0.00000E+00
    0.00000E+00         0.00000E+00        -0.65731E+08
 
   -0.65636E+08         0.28663E+06         0.00000E+00
    0.28663E+06        -0.97601E+08         0.00000E+00
    0.00000E+00         0.00000E+00        -0.65520E+08
 
   -0.65413E+08         0.28550E+06         0.00000E+00
    0.28550E+06        -0.97601E+08         0.00000E+00
    0.00000E+00         0.00000E+00        -0.65310E+08
 
   -0.65192E+08         0.28457E+06         0.00000E+00
    0.28457E+06        -0.97601E+08         0.00000E+00
    0.00000E+00         0.00000E+00        -0.65100E+08
 
   -0.64972E+08         0.28370E+06         0.00000E+00
    0.28370E+06        -0.97601E+08         0.00000E+00
    0.00000E+00         0.00000E+00        -0.64891E+08
 
   -0.64753E+08         0.28282E+06         0.00000E+00
    0.28282E+06        -0.97601E+08         0.00000E+00
    0.00000E+00         0.00000E+00        -0.64681E+08
 
   -0.64535E+08         0.28192E+06         0.00000E+00
    0.28192E+06        -0.97601E+08         0.00000E+00
    0.00000E+00         0.00000E+00        -0.64473E+08
 
   -0.64318E+08         0.28098E+06         0.00000E+00
    0.28098E+06        -0.97601E+08         0.00000E+00
    0.00000E+00         0.00000E+00        -0.64265E+08
 
   -0.64110E+08         0.27987E+06         0.00000E+00
    0.27987E+06        -0.97593E+08         0.00000E+00
    0.00000E+00         0.00000E+00        -0.64065E+08
 
   -0.63918E+08         0.27850E+06         0.00000E+00
    0.27850E+06        -0.97571E+08         0.00000E+00
    0.00000E+00         0.00000E+00        -0.63882E+08
 
   -0.63731E+08         0.27707E+06         0.00000E+00
    0.27707E+06        -0.97546E+08         0.00000E+00
    0.00000E+00         0.00000E+00        -0.63701E+08
 
   -0.63544E+08         0.27563E+06         0.00000E+00
    0.27563E+06        -0.97521E+08         0.00000E+00
    0.00000E+00         0.00000E+00        -0.63521E+08
 
   -0.63358E+08         0.27420E+06         0.00000E+00
    0.27420E+06        -0.97496E+08         0.00000E+00
    0.00000E+00         0.00000E+00        -0.63342E+08
 
   -0.63172E+08         0.27276E+06         0.00000E+00
    0.27276E+06        -0.97471E+08         0.00000E+00
    0.00000E+00         0.00000E+00        -0.63162E+08
 
   -0.62988E+08         0.27133E+06         0.00000E+00
    0.27133E+06        -0.97446E+08         0.00000E+00
    0.00000E+00         0.00000E+00        -0.62983E+08
 
   -0.62804E+08         0.26990E+06         0.00000E+00
    0.26990E+06        -0.97422E+08         0.00000E+00
    0.00000E+00         0.00000E+00        -0.62804E+08
 
   -0.62620E+08         0.26848E+06         0.00000E+00
    0.26848E+06        -0.97398E+08         0.00000E+00
    0.00000E+00         0.00000E+00        -0.62625E+08
 
   -0.62438E+08         0.26705E+06         0.00000E+00
    0.26705E+06        -0.97374E+08         0.00000E+00
    0.00000E+00         0.00000E+00        -0.62446E+08
 
   -0.62255E+08         0.26562E+06         0.00000E+00
    0.26562E+06        -0.97350E+08         0.00000E+00
    0.00000E+00         0.00000E+00        -0.62267E+08
 
   -0.62074E+08         0.26418E+06         0.00000E+00
    0.26418E+06        -0.97326E+08         0.00000E+00
    0.00000E+00         0.00000E+00        -0.62087E+08
 
   -0.61892E+08         0.26272E+06         0.00000E+00
    0.26272E+06        -0.97303E+08         0.00000E+00
    0.00000E+00         0.00000E+00        -0.61908E+08
 
   -0.61712E+08         0.26125E+06         0.00000E+00
    0.26125E+06        -0.97280E+08         0.00000E+00
    0.00000E+00         0.00000E+00        -0.61729E+08
 
   -0.61531E+08         0.25975E+06         0.00000E+00
    0.25975E+06        -0.97257E+08         0.00000E+00
    0.00000E+00         0.00000E+00        -0.61549E+08
 
   -0.61352E+08         0.25823E+06         0.00000E+00
    0.25823E+06        -0.97235E+08         0.00000E+00
    0.00000E+00         0.00000E+00        -0.61369E+08
 
   -0.61172E+08         0.25666E+06         0.00000E+00
    0.25666E+06        -0.97214E+08         0.00000E+00
    0.00000E+00         0.00000E+00        -0.61188E+08
 
   -0.60993E+08         0.25506E+06         0.00000E+00
    0.25506E+06        -0.97192E+08         0.00000E+00
    0.00000E+00         0.00000E+00        -0.61007E+08
 
   -0.60815E+08         0.25340E+06         0.00000E+00
    0.25340E+06        -0.97172E+08         0.00000E+00
    0.00000E+00         0.00000E+00        -0.60826E+08
 
   -0.60637E+08         0.25169E+06         0.00000E+00
    0.25169E+06        -0.97151E+08         0.00000E+00
    0.00000E+00         0.00000E+00        -0.60644E+08
 
   -0.60459E+08         0.24991E+06         0.00000E+00
    0.24991E+06        -0.97132E+08         0.00000E+00
    0.00000E+00         0.00000E+00        -0.60461E+08
 
   -0.60282E+08         0.24806E+06         0.00000E+00
    0.24806E+06        -0.97113E+08         0.00000E+00
    0.00000E+00         0.00000E+00        -0.60278E+08
 
   -0.60106E+08         0.24613E+06         0.00000E+00
    0.24613E+06        -0.97094E+08         0.00000E+00
    0.00000E+00         0.00000E+00        -0.60094E+08
 
   -0.59930E+08         0.24411E+06         0.00000E+00
    0.24411E+06        -0.97076E+08         0.00000E+00
    0.00000E+00         0.00000E+00        -0.59909E+08
 
   -0.59755E+08         0.24198E+06         0.00000E+00
    0.24198E+06        -0.97059E+08         0.00000E+00
    0.00000E+00         0.00000E+00        -0.59722E+08
 
   -0.59580E+08         0.23972E+06         0.00000E+00
    0.23972E+06        -0.97043E+08         0.00000E+00
    0.00000E+00         0.00000E+00        -0.59535E+08
 
   -0.59407E+08         0.23732E+06         0.00000E+00
    0.23732E+06        -0.97027E+08         0.00000E+00
    0.00000E+00         0.00000E+00        -0.59347E+08
 
   -0.59234E+08         0.23474E+06         0.00000E+00
    0.23474E+06        -0.97012E+08         0.00000E+00
    0.00000E+00         0.00000E+00        -0.59157E+08
 
   -0.59063E+08         0.23196E+06         0.00000E+00
    0.23196E+06        -0.96998E+08         0.00000E+00
    0.00000E+00         0.00000E+00        -0.58965E+08
 
   -0.58892E+08         0.22893E+06         0.00000E+00
    0.22893E+06        -0.96984E+08         0.00000E+00
    0.00000E+00         0.00000E+00        -0.58772E+08
 
   -0.58724E+08         0.22559E+06         0.00000E+00
    0.22559E+06        -0.96972E+08         0.00000E+00
    0.00000E+00         0.00000E+00        -0.58577E+08
 
   -0.58557E+08         0.22187E+06         0.00000E+00
    0.22187E+06        -0.96960E+08         0.00000E+00
    0.00000E+00         0.00000E+00        -0.58379E+08
 
   -0.58392E+08         0.21767E+06         0.00000E+00
    0.21767E+06        -0.96949E+08         0.00000E+00
    0.00000E+00         0.00000E+00        -0.58180E+08
 
   -0.58229E+08         0.21288E+06         0.00000E+00
    0.21288E+06        -0.96939E+08         0.00000E+00
    0.00000E+00         0.00000E+00        -0.57977E+08
 
   -0.58069E+08         0.20735E+06         0.00000E+00
    0.20735E+06        -0.96930E+08         0.00000E+00
    0.00000E+00         0.00000E+00        -0.57771E+08
 
   -0.57913E+08         0.20091E+06         0.00000E+00
    0.20091E+06        -0.96922E+08         0.00000E+00
    0.00000E+00         0.00000E+00        -0.57562E+08
 
   -0.57761E+08         0.19336E+06         0.00000E+00
    0.19336E+06        -0.96916E+08         0.00000E+00
    0.00000E+00         0.00000E+00        -0.57348E+08
 
   -0.57613E+08         0.18446E+06         0.00000E+00
    0.18446E+06        -0.96910E+08         0.00000E+00
    0.00000E+00         0.00000E+00        -0.57129E+08
 
   -0.57472E+08         0.17397E+06         0.00000E+00
    0.17397E+06        -0.96906E+08         0.00000E+00
    0.00000E+00         0.00000E+00        -0.56905E+08
 
   -0.57337E+08         0.16160E+06         0.00000E+00
    0.16160E+06        -0.96903E+08         0.00000E+00
    0.00000E+00         0.00000E+00        -0.56674E+08
 
   -0.57211E+08         0.14713E+06         0.00000E+00
    0.14713E+06        -0.96901E+08         0.00000E+00
    0.00000E+00         0.00000E+00        -0.56436E+08
 
   -0.57094E+08         0.13036E+06         0.00000E+00
    0.13036E+06        -0.96902E+08         0.00000E+00
    0.00000E+00         0.00000E+00        -0.56190E+08
 
   -0.56988E+08         0.11121E+06         0.00000E+00
    0.11121E+06        -0.96903E+08         0.00000E+00
    0.00000E+00         0.00000E+00        -0.55933E+08
 
   -0.56894E+08         0.89738E+05         0.00000E+00
    0.89738E+05        -0.96907E+08         0.00000E+00
    0.00000E+00         0.00000E+00        -0.55667E+08
 
   -0.56814E+08         0.66269E+05         0.00000E+00
    0.66269E+05        -0.96912E+08         0.00000E+00
    0.00000E+00         0.00000E+00        -0.55388E+08
 
   -0.56749E+08         0.41373E+05         0.00000E+00
    0.41373E+05        -0.96918E+08         0.00000E+00
    0.00000E+00         0.00000E+00        -0.55097E+08
 
   -0.56700E+08         0.15908E+05         0.00000E+00
    0.15908E+05        -0.96926E+08         0.00000E+00
    0.00000E+00         0.00000E+00        -0.54793E+08
 
   -0.56667E+08        -0.91313E+04         0.00000E+00
   -0.91313E+04        -0.96935E+08         0.00000E+00
    0.00000E+00         0.00000E+00        -0.54477E+08
 
   -0.56649E+08        -0.32507E+05         0.00000E+00
   -0.32507E+05        -0.96946E+08         0.00000E+00
    0.00000E+00         0.00000E+00        -0.54149E+08
 
   -0.56645E+08        -0.53291E+05         0.00000E+00
   -0.53291E+05        -0.96958E+08         0.00000E+00
    0.00000E+00         0.00000E+00        -0.53812E+08
 
   -0.56649E+08        -0.71106E+05         0.00000E+00
   -0.71106E+05        -0.96973E+08         0.00000E+00
    0.00000E+00         0.00000E+00        -0.53473E+08
 
   -0.56646E+08        -0.71686E+05         0.00000E+00
   -0.71686E+05        -0.96983E+08         0.00000E+00
    0.00000E+00         0.00000E+00        -0.53137E+08
 
   -0.56632E+08        -0.31740E+05         0.00000E+00
   -0.31740E+05        -0.96940E+08         0.00000E+00
    0.00000E+00         0.00000E+00        -0.52767E+08
 
   -0.72791E+08        -0.47062E+05         0.00000E+00
   -0.47062E+05        -0.97610E+08         0.00000E+00
    0.00000E+00         0.00000E+00        -0.78768E+08
 
   -0.72819E+08        -0.91388E+05         0.00000E+00
   -0.91388E+05        -0.97575E+08         0.00000E+00
    0.00000E+00         0.00000E+00        -0.78215E+08
 
   -0.72875E+08        -0.65023E+05         0.00000E+00
   -0.65023E+05        -0.97612E+08         0.00000E+00
    0.00000E+00         0.00000E+00        -0.77690E+08
 
   -0.72976E+08        -0.55114E+05         0.00000E+00
   -0.55114E+05        -0.97620E+08         0.00000E+00
    0.00000E+00         0.00000E+00        -0.77221E+08
 
   -0.73052E+08        -0.42988E+05         0.00000E+00
   -0.42988E+05        -0.97593E+08         0.00000E+00
    0.00000E+00         0.00000E+00        -0.76809E+08
 
   -0.73070E+08        -0.20041E+05         0.00000E+00
   -0.20041E+05        -0.97590E+08         0.00000E+00
    0.00000E+00         0.00000E+00        -0.76397E+08
 
   -0.73053E+08         0.94749E+04         0.00000E+00
    0.94749E+04        -0.97579E+08         0.00000E+00
    0.00000E+00         0.00000E+00        -0.75985E+08
 
   -0.73004E+08         0.45266E+05         0.00000E+00
    0.45266E+05        -0.97579E+08         0.00000E+00
    0.00000E+00         0.00000E+00        -0.75576E+08
 
   -0.72927E+08         0.82581E+05         0.00000E+00
    0.82581E+05        -0.97578E+08         0.00000E+00
    0.00000E+00         0.00000E+00        -0.75167E+08
 
   -0.72820E+08         0.11860E+06         0.00000E+00
    0.11860E+06        -0.97580E+08         0.00000E+00
    0.00000E+00         0.00000E+00        -0.74760E+08
 
   -0.72686E+08         0.15217E+06         0.00000E+00
    0.15217E+06        -0.97581E+08         0.00000E+00
    0.00000E+00         0.00000E+00        -0.74354E+08
 
   -0.72526E+08         0.18231E+06         0.00000E+00
    0.18231E+06        -0.97584E+08         0.00000E+00
    0.00000E+00         0.00000E+00        -0.73951E+08
 
   -0.72345E+08         0.20845E+06         0.00000E+00
    0.20845E+06        -0.97586E+08         0.00000E+00
    0.00000E+00         0.00000E+00        -0.73549E+08
 
   -0.72145E+08         0.23011E+06         0.00000E+00
    0.23011E+06        -0.97589E+08         0.00000E+00
    0.00000E+00         0.00000E+00        -0.73148E+08
 
   -0.71930E+08         0.24685E+06         0.00000E+00
    0.24685E+06        -0.97592E+08         0.00000E+00
    0.00000E+00         0.00000E+00        -0.72751E+08
 
   -0.71703E+08         0.25824E+06         0.00000E+00
    0.25824E+06        -0.97595E+08         0.00000E+00
    0.00000E+00         0.00000E+00        -0.72355E+08
 
   -0.71470E+08         0.26427E+06         0.00000E+00
    0.26427E+06        -0.97598E+08         0.00000E+00
    0.00000E+00         0.00000E+00        -0.71961E+08
 
   -0.71233E+08         0.26507E+06         0.00000E+00
    0.26507E+06        -0.97603E+08         0.00000E+00
    0.00000E+00         0.00000E+00        -0.71570E+08
 
   -0.70998E+08         0.25422E+06         0.00000E+00
    0.25422E+06        -0.97601E+08         0.00000E+00
    0.00000E+00         0.00000E+00        -0.71184E+08
 
   -0.70761E+08         0.24980E+06         0.00000E+00
    0.24980E+06        -0.97597E+08         0.00000E+00
    0.00000E+00         0.00000E+00        -0.70850E+08
 
   -0.70521E+08         0.25418E+06         0.00000E+00
    0.25418E+06        -0.97596E+08         0.00000E+00
    0.00000E+00         0.00000E+00        -0.70573E+08
 
   -0.70278E+08         0.25928E+06         0.00000E+00
    0.25928E+06        -0.97596E+08         0.00000E+00
    0.00000E+00         0.00000E+00        -0.70299E+08
 
   -0.70034E+08         0.26476E+06         0.00000E+00
    0.26476E+06        -0.97598E+08         0.00000E+00
    0.00000E+00         0.00000E+00        -0.70029E+08
 
   -0.69788E+08         0.26890E+06         0.00000E+00
    0.26890E+06        -0.97598E+08         0.00000E+00
    0.00000E+00         0.00000E+00        -0.69761E+08
 
   -0.69539E+08         0.27191E+06         0.00000E+00
    0.27191E+06        -0.97599E+08         0.00000E+00
    0.00000E+00         0.00000E+00        -0.69495E+08
 
   -0.69290E+08         0.27410E+06         0.00000E+00
    0.27410E+06        -0.97599E+08         0.00000E+00
    0.00000E+00         0.00000E+00        -0.69230E+08
 
   -0.69039E+08         0.27565E+06         0.00000E+00
    0.27565E+06        -0.97600E+08         0.00000E+00
    0.00000E+00         0.00000E+00        -0.68966E+08
 
   -0.68788E+08         0.27672E+06         0.00000E+00
    0.27672E+06        -0.97600E+08         0.00000E+00
    0.00000E+00         0.00000E+00        -0.68703E+08
 
   -0.68536E+08         0.27748E+06         0.00000E+00
    0.27748E+06        -0.97600E+08         0.00000E+00
    0.00000E+00         0.00000E+00        -0.68441E+08
 
   -0.68284E+08         0.27801E+06         0.00000E+00
    0.27801E+06        -0.97600E+08         0.00000E+00
    0.00000E+00         0.00000E+00        -0.68179E+08
 
   -0.68032E+08         0.27841E+06         0.00000E+00
    0.27841E+06        -0.97600E+08         0.00000E+00
    0.00000E+00         0.00000E+00        -0.67918E+08
 
   -0.67781E+08         0.27867E+06         0.00000E+00
    0.27867E+06        -0.97600E+08         0.00000E+00
    0.00000E+00         0.00000E+00        -0.67657E+08
 
   -0.67530E+08         0.27875E+06         0.00000E+00
    0.27875E+06        -0.97600E+08         0.00000E+00
    0.00000E+00         0.00000E+00        -0.67396E+08
 
   -0.67280E+08         0.27844E+06         0.00000E+00
    0.27844E+06        -0.97600E+08         0.00000E+00
    0.00000E+00         0.00000E+00        -0.67136E+08
 
   -0.67033E+08         0.27697E+06         0.00000E+00
    0.27697E+06        -0.97601E+08         0.00000E+00
    0.00000E+00         0.00000E+00        -0.66876E+08
 
   -0.66790E+08         0.27168E+06         0.00000E+00
    0.27168E+06        -0.97604E+08         0.00000E+00
    0.00000E+00         0.00000E+00        -0.66616E+08
 
   -0.66551E+08         0.26056E+06         0.00000E+00
    0.26056E+06        -0.97607E+08         0.00000E+00
    0.00000E+00         0.00000E+00        -0.66370E+08
 
   -0.66315E+08         0.25049E+06         0.00000E+00
    0.25049E+06        -0.97604E+08         0.00000E+00
    0.00000E+00         0.00000E+00        -0.66148E+08
 
   -0.66084E+08         0.24518E+06         0.00000E+00
    0.24518E+06        -0.97601E+08         0.00000E+00
    0.00000E+00         0.00000E+00        -0.65937E+08
 
   -0.65857E+08         0.24309E+06         0.00000E+00
    0.24309E+06        -0.97601E+08         0.00000E+00
    0.00000E+00         0.00000E+00        -0.65726E+08
 
   -0.65633E+08         0.24195E+06         0.00000E+00
    0.24195E+06        -0.97600E+08         0.00000E+00
    0.00000E+00         0.00000E+00        -0.65516E+08
 
   -0.65411E+08         0.24114E+06         0.00000E+00
    0.24114E+06        -0.97600E+08         0.00000E+00
    0.00000E+00         0.00000E+00        -0.65306E+08
 
   -0.65190E+08         0.24047E+06         0.00000E+00
    0.24047E+06        -0.97600E+08         0.00000E+00
    0.00000E+00         0.00000E+00        -0.65096E+08
 
   -0.64970E+08         0.23982E+06         0.00000E+00
    0.23982E+06        -0.97600E+08         0.00000E+00
    0.00000E+00         0.00000E+00        -0.64887E+08
 
   -0.64752E+08         0.23914E+06         0.00000E+00
    0.23914E+06        -0.97600E+08         0.00000E+00
    0.00000E+00         0.00000E+00        -0.64678E+08
 
   -0.64534E+08         0.23843E+06         0.00000E+00
    0.23843E+06        -0.97601E+08         0.00000E+00
    0.00000E+00         0.00000E+00        -0.64470E+08
 
   -0.64317E+08         0.23767E+06         0.00000E+00
    0.23767E+06        -0.97601E+08         0.00000E+00
    0.00000E+00         0.00000E+00        -0.64262E+08
 
   -0.64110E+08         0.23675E+06         0.00000E+00
    0.23675E+06        -0.97592E+08         0.00000E+00
    0.00000E+00         0.00000E+00        -0.64063E+08
 
   -0.63918E+08         0.23561E+06         0.00000E+00
    0.23561E+06        -0.97570E+08         0.00000E+00
    0.00000E+00         0.00000E+00        -0.63880E+08
 
   -0.63731E+08         0.23441E+06         0.00000E+00
    0.23441E+06        -0.97545E+08         0.00000E+00
    0.00000E+00         0.00000E+00        -0.63700E+08
 
   -0.63544E+08         0.23320E+06         0.00000E+00
    0.23320E+06        -0.97521E+08         0.00000E+00
    0.00000E+00         0.00000E+00        -0.63520E+08
 
   -0.63358E+08         0.23199E+06         0.00000E+00
    0.23199E+06        -0.97496E+08         0.00000E+00
    0.00000E+00         0.00000E+00        -0.63340E+08
 
   -0.63172E+08         0.23078E+06         0.00000E+00
    0.23078E+06        -0.97471E+08         0.00000E+00
    0.00000E+00         0.00000E+00        -0.63161E+08
 
   -0.62988E+08         0.22958E+06         0.00000E+00
    0.22958E+06        -0.97447E+08         0.00000E+00
    0.00000E+00         0.00000E+00        -0.62982E+08
 
   -0.62804E+08         0.22837E+06         0.00000E+00
    0.22837E+06        -0.97422E+08         0.00000E+00
    0.00000E+00         0.00000E+00        -0.62803E+08
 
   -0.62620E+08         0.22716E+06         0.00000E+00
    0.22716E+06        -0.97398E+08         0.00000E+00
    0.00000E+00         0.00000E+00        -0.62624E+08
 
   -0.62437E+08         0.22595E+06         0.00000E+00
    0.22595E+06        -0.97374E+08         0.00000E+00
    0.00000E+00         0.00000E+00        -0.62445E+08
 
   -0.62255E+08         0.22474E+06         0.00000E+00
    0.22474E+06        -0.97350E+08         0.00000E+00
    0.00000E+00         0.00000E+00        -0.62266E+08
 
   -0.62073E+08         0.22351E+06         0.00000E+00
    0.22351E+06        -0.97327E+08         0.00000E+00
    0.00000E+00         0.00000E+00        -0.62087E+08
 
   -0.61892E+08         0.22228E+06         0.00000E+00
    0.22228E+06        -0.97304E+08         0.00000E+00
    0.00000E+00         0.00000E+00        -0.61908E+08
 
   -0.61711E+08         0.22102E+06         0.00000E+00
    0.22102E+06        -0.97281E+08         0.00000E+00
    0.00000E+00         0.00000E+00        -0.61729E+08
 
   -0.61531E+08         0.21975E+06         0.00000E+00
    0.21975E+06        -0.97258E+08         0.00000E+00
    0.00000E+00         0.00000E+00        -0.61549E+08
 
   -0.61351E+08         0.21845E+06         0.00000E+00
    0.21845E+06        -0.97236E+08         0.00000E+00
    0.00000E+00         0.00000E+00        -0.61369E+08
 
   -0.61172E+08         0.21712E+06         0.00000E+00
    0.21712E+06        -0.97215E+08         0.00000E+00
    0.00000E+00         0.00000E+00        -0.61189E+08
 
   -0.60993E+08         0.21575E+06         0.00000E+00
    0.21575E+06        -0.97193E+08         0.00000E+00
    0.00000E+00         0.00000E+00        -0.61008E+08
 
   -0.60815E+08         0.21434E+06         0.00000E+00
    0.21434E+06        -0.97173E+08         0.00000E+00
    0.00000E+00         0.00000E+00        -0.60826E+08
 
   -0.60637E+08         0.21288E+06         0.00000E+00
    0.21288E+06        -0.97153E+08         0.00000E+00
    0.00000E+00         0.00000E+00        -0.60644E+08
 
   -0.60459E+08         0.21137E+06         0.00000E+00
    0.21137E+06        -0.97133E+08         0.00000E+00
    0.00000E+00         0.00000E+00        -0.60462E+08
 
   -0.60282E+08         0.20979E+06         0.00000E+00
    0.20979E+06        -0.97114E+08         0.00000E+00
    0.00000E+00         0.00000E+00        -0.60278E+08
 
   -0.60106E+08         0.20815E+06         0.00000E+00
    0.20815E+06        -0.97096E+08         0.00000E+00
    0.00000E+00         0.00000E+00        -0.60094E+08
 
   -0.59930E+08         0.20642E+06         0.00000E+00
    0.20642E+06        -0.97078E+08         0.00000E+00
    0.00000E+00         0.00000E+00        -0.59909E+08
 
   -0.59755E+08         0.20460E+06         0.00000E+00
    0.20460E+06        -0.97061E+08         0.00000E+00
    0.00000E+00         0.00000E+00        -0.59723E+08
 
   -0.59581E+08         0.20268E+06         0.00000E+00
    0.20268E+06        -0.97045E+08         0.00000E+00
    0.00000E+00         0.00000E+00        -0.59535E+08
 
   -0.59408E+08         0.20064E+06         0.00000E+00
    0.20064E+06        -0.97029E+08         0.00000E+00
    0.00000E+00         0.00000E+00        -0.59347E+08
 
   -0.59235E+08         0.19845E+06         0.00000E+00
    0.19845E+06        -0.97014E+08         0.00000E+00
    0.00000E+00         0.00000E+00        -0.59157E+08
 
   -0.59064E+08         0.19609E+06         0.00000E+00
    0.19609E+06        -0.97000E+08         0.00000E+00
    0.00000E+00         0.00000E+00        -0.58965E+08
 
   -0.58894E+08         0.19351E+06         0.00000E+00
    0.19351E+06        -0.96987E+08         0.00000E+00
    0.00000E+00         0.00000E+00        -0.58772E+08
 
   -0.58725E+08         0.19068E+06         0.00000E+00
    0.19068E+06        -0.96974E+08         0.00000E+00
    0.00000E+00         0.00000E+00        -0.58577E+08
 
   -0.58558E+08         0.18752E+06         0.00000E+00
    0.18752E+06        -0.96962E+08         0.00000E+00
    0.00000E+00         0.00000E+00        -0.58379E+08
 
   -0.58394E+08         0.18395E+06         0.00000E+00
    0.18395E+06        -0.96952E+08         0.00000E+00
    0.00000E+00         0.00000E+00        -0.58179E+08
 
   -0.58231E+08         0.17988E+06         0.00000E+00
    0.17988E+06        -0.96942E+08         0.00000E+00
    0.00000E+00         0.00000E+00        -0.57976E+08
 
   -0.58072E+08         0.17518E+06         0.00000E+00
    0.17518E+06        -0.96933E+08         0.00000E+00
    0.00000E+00         0.00000E+00        -0.57770E+08
 
   -0.57916E+08         0.16970E+06         0.00000E+00
    0.16970E+06        -0.96925E+08         0.00000E+00
    0.00000E+00         0.00000E+00        -0.57560E+08
 
   -0.57764E+08         0.16327E+06         0.00000E+00
    0.16327E+06        -0.96918E+08         0.00000E+00
    0.00000E+00         0.00000E+00        -0.57346E+08
 
   -0.57617E+08         0.15567E+06         0.00000E+00
    0.15567E+06        -0.96912E+08         0.00000E+00
    0.00000E+00         0.00000E+00        -0.57126E+08
 
   -0.57477E+08         0.14670E+06         0.00000E+00
    0.14670E+06        -0.96907E+08         0.00000E+00
    0.00000E+00         0.00000E+00        -0.56901E+08
 
   -0.57343E+08         0.13611E+06         0.00000E+00
    0.13611E+06        -0.96904E+08         0.00000E+00
    0.00000E+00         0.00000E+00        -0.56669E+08
 
   -0.57218E+08         0.12371E+06         0.00000E+00
    0.12371E+06        -0.96902E+08         0.00000E+00
    0.00000E+00         0.00000E+00        -0.56430E+08
 
   -0.57102E+08         0.10931E+06         0.00000E+00
    0.10931E+06        -0.96902E+08         0.00000E+00
    0.00000E+00         0.00000E+00        -0.56181E+08
 
   -0.56998E+08         0.92847E+05         0.00000E+00
    0.92847E+05        -0.96903E+08         0.00000E+00
    0.00000E+00         0.00000E+00        -0.55923E+08
 
   -0.56907E+08         0.74392E+05         0.00000E+00
    0.74392E+05        -0.96906E+08         0.00000E+00
    0.00000E+00         0.00000E+00        -0.55654E+08
 
   -0.56830E+08         0.54220E+05         0.00000E+00
    0.54220E+05        -0.96911E+08         0.00000E+00
    0.00000E+00         0.00000E+00        -0.55372E+08
 
   -0.56769E+08         0.32835E+05         0.00000E+00
    0.32835E+05        -0.96917E+08         0.00000E+00
    0.00000E+00         0.00000E+00        -0.55078E+08
 
   -0.56724E+08         0.10985E+05         0.00000E+00
    0.10985E+05        -0.96924E+08         0.00000E+00
    0.00000E+00         0.00000E+00        -0.54770E+08
 
   -0.56696E+08        -0.10477E+05         0.00000E+00
   -0.10477E+05        -0.96933E+08         0.00000E+00
    0.00000E+00         0.00000E+00        -0.54449E+08
 
   -0.56684E+08        -0.30647E+05         0.00000E+00
   -0.30647E+05        -0.96943E+08         0.00000E+00
    0.00000E+00         0.00000E+00        -0.54117E+08
 
   -0.56685E+08        -0.48374E+05         0.00000E+00
   -0.48374E+05        -0.96954E+08         0.00000E+00
    0.00000E+00         0.00000E+00        -0.53774E+08
 
   -0.56698E+08        -0.65205E+05         0.00000E+00
   -0.65205E+05        -0.96969E+08         0.00000E+00
    0.00000E+00         0.00000E+00        -0.53428E+08
 
   -0.56707E+08        -0.70575E+05         0.00000E+00
   -0.70575E+05        -0.96986E+08         0.00000E+00
    0.00000E+00         0.00000E+00        -0.53088E+08
 
   -0.56698E+08        -0.33083E+05         0.00000E+00
   -0.33083E+05        -0.96954E+08         0.00000E+00
    0.00000E+00         0.00000E+00        -0.52725E+08
 
   -0.72736E+08        -0.45706E+05         0.00000E+00
   -0.45706E+05        -0.97592E+08         0.00000E+00
    0.00000E+00         0.00000E+00        -0.78842E+08
 
   -0.72782E+08        -0.79745E+05         0.00000E+00
   -0.79745E+05        -0.97570E+08         0.00000E+00
    0.00000E+00         0.00000E+00        -0.78293E+08
 
   -0.72843E+08        -0.52083E+05         0.00000E+00
   -0.52083E+05        -0.97613E+08         0.00000E+00
    0.00000E+00         0.00000E+00        -0.77741E+08
 
   -0.72925E+08        -0.33230E+05         0.00000E+00
   -0.33230E+05        -0.97631E+08         0.00000E+00
    0.00000E+00         0.00000E+00        -0.77233E+08
 
   -0.73000E+08        -0.36193E+05         0.00000E+00
   -0.36193E+05        -0.97598E+08         0.00000E+00
    0.00000E+00         0.00000E+00        -0.76809E+08
 
   -0.73022E+08        -0.18413E+05         0.00000E+00
   -0.18413E+05        -0.97595E+08         0.00000E+00
    0.00000E+00         0.00000E+00        -0.76397E+08
 
   -0.73012E+08         0.29595E+04         0.00000E+00
    0.29595E+04        -0.97586E+08         0.00000E+00
    0.00000E+00         0.00000E+00        -0.75985E+08
 
   -0.72971E+08         0.33579E+05         0.00000E+00
    0.33579E+05        -0.97586E+08         0.00000E+00
    0.00000E+00         0.00000E+00        -0.75576E+08
 
   -0.72900E+08         0.64635E+05         0.00000E+00
    0.64635E+05        -0.97585E+08         0.00000E+00
    0.00000E+00         0.00000E+00        -0.75167E+08
 
   -0.72799E+08         0.94915E+05         0.00000E+00
    0.94915E+05        -0.97586E+08         0.00000E+00
    0.00000E+00         0.00000E+00        -0.74760E+08
 
   -0.72669E+08         0.12308E+06         0.00000E+00
    0.12308E+06        -0.97587E+08         0.00000E+00
    0.00000E+00         0.00000E+00        -0.74354E+08
 
   -0.72512E+08         0.14836E+06         0.00000E+00
    0.14836E+06        -0.97589E+08         0.00000E+00
    0.00000E+00         0.00000E+00        -0.73951E+08
 
   -0.72332E+08         0.17029E+06         0.00000E+00
    0.17029E+06        -0.97590E+08         0.00000E+00
    0.00000E+00         0.00000E+00        -0.73549E+08
 
   -0.72133E+08         0.18846E+06         0.00000E+00
    0.18846E+06        -0.97592E+08         0.00000E+00
    0.00000E+00         0.00000E+00        -0.73148E+08
 
   -0.71917E+08         0.20250E+06         0.00000E+00
    0.20250E+06        -0.97594E+08         0.00000E+00
    0.00000E+00         0.00000E+00        -0.72751E+08
 
   -0.71690E+08         0.21204E+06         0.00000E+00
    0.21204E+06        -0.97597E+08         0.00000E+00
    0.00000E+00         0.00000E+00        -0.72355E+08
 
   -0.71456E+08         0.21715E+06         0.00000E+00
    0.21715E+06        -0.97599E+08         0.00000E+00
    0.00000E+00         0.00000E+00        -0.71961E+08
 
   -0.71218E+08         0.21703E+06         0.00000E+00
    0.21703E+06        -0.97602E+08         0.00000E+00
    0.00000E+00         0.00000E+00        -0.71570E+08
 
   -0.70983E+08         0.20932E+06         0.00000E+00
    0.20932E+06        -0.97600E+08         0.00000E+00
    0.00000E+00         0.00000E+00        -0.71181E+08
 
   -0.70750E+08         0.20073E+06         0.00000E+00
    0.20073E+06        -0.97596E+08         0.00000E+00
    0.00000E+00         0.00000E+00        -0.70842E+08
 
   -0.70511E+08         0.20644E+06         0.00000E+00
    0.20644E+06        -0.97596E+08         0.00000E+00
    0.00000E+00         0.00000E+00        -0.70560E+08
 
   -0.70271E+08         0.21069E+06         0.00000E+00
    0.21069E+06        -0.97597E+08         0.00000E+00
    0.00000E+00         0.00000E+00        -0.70287E+08
 
   -0.70029E+08         0.21594E+06         0.00000E+00
    0.21594E+06        -0.97599E+08         0.00000E+00
    0.00000E+00         0.00000E+00        -0.70017E+08
 
   -0.69784E+08         0.21952E+06         0.00000E+00
    0.21952E+06        -0.97599E+08         0.00000E+00
    0.00000E+00         0.00000E+00        -0.69749E+08
 
   -0.69537E+08         0.22217E+06         0.00000E+00
    0.22217E+06        -0.97599E+08         0.00000E+00
    0.00000E+00         0.00000E+00        -0.69484E+08
 
   -0.69288E+08         0.22409E+06         0.00000E+00
    0.22409E+06        -0.97600E+08         0.00000E+00
    0.00000E+00         0.00000E+00        -0.69219E+08
 
   -0.69037E+08         0.22545E+06         0.00000E+00
    0.22545E+06        -0.97600E+08         0.00000E+00
    0.00000E+00         0.00000E+00        -0.68956E+08
 
   -0.68786E+08         0.22640E+06         0.00000E+00
    0.22640E+06        -0.97600E+08         0.00000E+00
    0.00000E+00         0.00000E+00        -0.68694E+08
 
   -0.68534E+08         0.22709E+06         0.00000E+00
    0.22709E+06        -0.97600E+08         0.00000E+00
    0.00000E+00         0.00000E+00        -0.68432E+08
 
   -0.68282E+08         0.22761E+06         0.00000E+00
    0.22761E+06        -0.97600E+08         0.00000E+00
    0.00000E+00         0.00000E+00        -0.68171E+08
 
   -0.68030E+08         0.22802E+06         0.00000E+00
    0.22802E+06        -0.97600E+08         0.00000E+00
    0.00000E+00         0.00000E+00        -0.67910E+08
 
   -0.67778E+08         0.22836E+06         0.00000E+00
    0.22836E+06        -0.97600E+08         0.00000E+00
    0.00000E+00         0.00000E+00        -0.67650E+08
 
   -0.67526E+08         0.22859E+06         0.00000E+00
    0.22859E+06        -0.97600E+08         0.00000E+00
    0.00000E+00         0.00000E+00        -0.67390E+08
 
   -0.67276E+08         0.22857E+06         0.00000E+00
    0.22857E+06        -0.97600E+08         0.00000E+00
    0.00000E+00         0.00000E+00        -0.67130E+08
 
   -0.67027E+08         0.22782E+06         0.00000E+00
    0.22782E+06        -0.97600E+08         0.00000E+00
    0.00000E+00         0.00000E+00        -0.66870E+08
 
   -0.66783E+08         0.22363E+06         0.00000E+00
    0.22363E+06        -0.97603E+08         0.00000E+00
    0.00000E+00         0.00000E+00        -0.66611E+08
 
   -0.66543E+08         0.21306E+06         0.00000E+00
    0.21306E+06        -0.97605E+08         0.00000E+00
    0.00000E+00         0.00000E+00        -0.66364E+08
 
   -0.66308E+08         0.20368E+06         0.00000E+00
    0.20368E+06        -0.97602E+08         0.00000E+00
    0.00000E+00         0.00000E+00        -0.66143E+08
 
   -0.66078E+08         0.19951E+06         0.00000E+00
    0.19951E+06        -0.97601E+08         0.00000E+00
    0.00000E+00         0.00000E+00        -0.65932E+08
 
   -0.65853E+08         0.19820E+06         0.00000E+00
    0.19820E+06        -0.97600E+08         0.00000E+00
    0.00000E+00         0.00000E+00        -0.65721E+08
 
   -0.65630E+08         0.19746E+06         0.00000E+00
    0.19746E+06        -0.97600E+08         0.00000E+00
    0.00000E+00         0.00000E+00        -0.65511E+08
 
   -0.65409E+08         0.19694E+06         0.00000E+00
    0.19694E+06        -0.97600E+08         0.00000E+00
    0.00000E+00         0.00000E+00        -0.65302E+08
 
   -0.65189E+08         0.19649E+06         0.00000E+00
    0.19649E+06        -0.97600E+08         0.00000E+00
    0.00000E+00         0.00000E+00        -0.65092E+08
 
   -0.64969E+08         0.19603E+06         0.00000E+00
    0.19603E+06        -0.97600E+08         0.00000E+00
    0.00000E+00         0.00000E+00        -0.64884E+08
 
   -0.64751E+08         0.19553E+06         0.00000E+00
    0.19553E+06        -0.97600E+08         0.00000E+00
    0.00000E+00         0.00000E+00        -0.64675E+08
 
   -0.64533E+08         0.19498E+06         0.00000E+00
    0.19498E+06        -0.97600E+08         0.00000E+00
    0.00000E+00         0.00000E+00        -0.64467E+08
 
   -0.64317E+08         0.19439E+06         0.00000E+00
    0.19439E+06        -0.97600E+08         0.00000E+00
    0.00000E+00         0.00000E+00        -0.64259E+08
 
   -0.64110E+08         0.19366E+06         0.00000E+00
    0.19366E+06        -0.97592E+08         0.00000E+00
    0.00000E+00         0.00000E+00        -0.64061E+08
 
   -0.63919E+08         0.19274E+06         0.00000E+00
    0.19274E+06        -0.97570E+08         0.00000E+00
    0.00000E+00         0.00000E+00        -0.63878E+08
 
   -0.63731E+08         0.19177E+06         0.00000E+00
    0.19177E+06        -0.97545E+08         0.00000E+00
    0.00000E+00         0.00000E+00        -0.63698E+08
 
   -0.63544E+08         0.19079E+06         0.00000E+00
    0.19079E+06        -0.97520E+08         0.00000E+00
    0.00000E+00         0.00000E+00        -0.63519E+08
 
   -0.63358E+08         0.18981E+06         0.00000E+00
    0.18981E+06        -0.97496E+08         0.00000E+00
    0.00000E+00         0.00000E+00        -0.63339E+08
 
   -0.63172E+08         0.18882E+06         0.00000E+00
    0.18882E+06        -0.97471E+08         0.00000E+00
    0.00000E+00         0.00000E+00        -0.63160E+08
 
   -0.62988E+08         0.18783E+06         0.00000E+00
    0.18783E+06        -0.97447E+08         0.00000E+00
    0.00000E+00         0.00000E+00        -0.62981E+08
 
   -0.62804E+08         0.18684E+06         0.00000E+00
    0.18684E+06        -0.97422E+08         0.00000E+00
    0.00000E+00         0.00000E+00        -0.62802E+08
 
   -0.62620E+08         0.18585E+06         0.00000E+00
    0.18585E+06        -0.97398E+08         0.00000E+00
    0.00000E+00         0.00000E+00        -0.62624E+08
 
   -0.62437E+08         0.18486E+06         0.00000E+00
    0.18486E+06        -0.97374E+08         0.00000E+00
    0.00000E+00         0.00000E+00        -0.62445E+08
 
   -0.62255E+08         0.18386E+06         0.00000E+00
    0.18386E+06        -0.97351E+08         0.00000E+00
    0.00000E+00         0.00000E+00        -0.62266E+08
 
   -0.62073E+08         0.18286E+06         0.00000E+00
    0.18286E+06        -0.97327E+08         0.00000E+00
    0.00000E+00         0.00000E+00        -0.62087E+08
 
   -0.61892E+08         0.18184E+06         0.00000E+00
    0.18184E+06        -0.97304E+08         0.00000E+00
    0.00000E+00         0.00000E+00        -0.61908E+08
 
   -0.61711E+08         0.18081E+06         0.00000E+00
    0.18081E+06        -0.97281E+08         0.00000E+00
    0.00000E+00         0.00000E+00        -0.61729E+08
 
   -0.61531E+08         0.17976E+06         0.00000E+00
    0.17976E+06        -0.97259E+08         0.00000E+00
    0.00000E+00         0.00000E+00        -0.61549E+08
 
   -0.61351E+08         0.17869E+06         0.00000E+00
    0.17869E+06        -0.97237E+08         0.00000E+00
    0.00000E+00         0.00000E+00        -0.61369E+08
 
   -0.61172E+08         0.17760E+06         0.00000E+00
    0.17760E+06        -0.97216E+08         0.00000E+00
    0.00000E+00         0.00000E+00        -0.61189E+08
 
   -0.60993E+08         0.17647E+06         0.00000E+00
    0.17647E+06        -0.97195E+08         0.00000E+00
    0.00000E+00         0.00000E+00        -0.61008E+08
 
   -0.60814E+08         0.17531E+06         0.00000E+00
    0.17531E+06        -0.97174E+08         0.00000E+00
    0.00000E+00         0.00000E+00        -0.60827E+08
 
   -0.60637E+08         0.17410E+06         0.00000E+00
    0.17410E+06        -0.97154E+08         0.00000E+00
    0.00000E+00         0.00000E+00        -0.60645E+08
 
   -0.60459E+08         0.17286E+06         0.00000E+00
    0.17286E+06        -0.97135E+08         0.00000E+00
    0.00000E+00         0.00000E+00        -0.60462E+08
 
   -0.60282E+08         0.17156E+06         0.00000E+00
    0.17156E+06        -0.97116E+08         0.00000E+00
    0.00000E+00         0.00000E+00        -0.60279E+08
 
   -0.60106E+08         0.17020E+06         0.00000E+00
    0.17020E+06        -0.97097E+08         0.00000E+00
    0.00000E+00         0.00000E+00        -0.60095E+08
 
   -0.59931E+08         0.16878E+06         0.00000E+00
    0.16878E+06        -0.97080E+08         0.00000E+00
    0.00000E+00         0.00000E+00        -0.59910E+08
 
   -0.59756E+08         0.16728E+06         0.00000E+00
    0.16728E+06        -0.97063E+08         0.00000E+00
    0.00000E+00         0.00000E+00        -0.59723E+08
 
   -0.59582E+08         0.16570E+06         0.00000E+00
    0.16570E+06        -0.97047E+08         0.00000E+00
    0.00000E+00         0.00000E+00        -0.59536E+08
 
   -0.59408E+08         0.16402E+06         0.00000E+00
    0.16402E+06        -0.97031E+08         0.00000E+00
    0.00000E+00         0.00000E+00        -0.59347E+08
 
   -0.59236E+08         0.16222E+06         0.00000E+00
    0.16222E+06        -0.97016E+08         0.00000E+00
    0.00000E+00         0.00000E+00        -0.59157E+08
 
   -0.59065E+08         0.16028E+06         0.00000E+00
    0.16028E+06        -0.97002E+08         0.00000E+00
    0.00000E+00         0.00000E+00        -0.58965E+08
 
   -0.58895E+08         0.15816E+06         0.00000E+00
    0.15816E+06        -0.96989E+08         0.00000E+00
    0.00000E+00         0.00000E+00        -0.58772E+08
 
   -0.58727E+08         0.15583E+06         0.00000E+00
    0.15583E+06        -0.96977E+08         0.00000E+00
    0.00000E+00         0.00000E+00        -0.58577E+08
 
   -0.58560E+08         0.15323E+06         0.00000E+00
    0.15323E+06        -0.96965E+08         0.00000E+00
    0.00000E+00         0.00000E+00        -0.58379E+08
 
   -0.58396E+08         0.15030E+06         0.00000E+00
    0.15030E+06        -0.96954E+08         0.00000E+00
    0.00000E+00         0.00000E+00        -0.58179E+08
 
   -0.58234E+08         0.14696E+06         0.00000E+00
    0.14696E+06        -0.96944E+08         0.00000E+00
    0.00000E+00         0.00000E+00        -0.57975E+08
 
   -0.58075E+08         0.14309E+06         0.00000E+00
    0.14309E+06        -0.96935E+08         0.00000E+00
    0.00000E+00         0.00000E+00        -0.57769E+08
 
   -0.57919E+08         0.13858E+06         0.00000E+00
    0.13858E+06        -0.96927E+08         0.00000E+00
    0.00000E+00         0.00000E+00        -0.57559E+08
 
   -0.57768E+08         0.13328E+06         0.00000E+00
    0.13328E+06        -0.96920E+08         0.00000E+00
    0.00000E+00         0.00000E+00        -0.57344E+08
 
   -0.57622E+08         0.12701E+06         0.00000E+00
    0.12701E+06        -0.96914E+08         0.00000E+00
    0.00000E+00         0.00000E+00        -0.57124E+08
 
   -0.57482E+08         0.11959E+06         0.00000E+00
    0.11959E+06        -0.96909E+08         0.00000E+00
    0.00000E+00         0.00000E+00        -0.56898E+08
 
   -0.57349E+08         0.11083E+06         0.00000E+00
    0.11083E+06        -0.96906E+08         0.00000E+00
    0.00000E+00         0.00000E+00        -0.56665E+08
 
   -0.57225E+08         0.10054E+06         0.00000E+00
    0.10054E+06        -0.96903E+08         0.00000E+00
    0.00000E+00         0.00000E+00        -0.56424E+08
 
   -0.57111E+08         0.88581E+05         0.00000E+00
    0.88581E+05        -0.96903E+08         0.00000E+00
    0.00000E+00         0.00000E+00        -0.56174E+08
 
   -0.57009E+08         0.74898E+05         0.00000E+00
    0.74898E+05        -0.96904E+08         0.00000E+00
    0.00000E+00         0.00000E+00        -0.55913E+08
 
   -0.56920E+08         0.59552E+05         0.00000E+00
    0.59552E+05        -0.96906E+08         0.00000E+00
    0.00000E+00         0.00000E+00        -0.55642E+08
 
   -0.56846E+08         0.42778E+05         0.00000E+00
    0.42778E+05        -0.96910E+08         0.00000E+00
    0.00000E+00         0.00000E+00        -0.55357E+08
 
   -0.56788E+08         0.25010E+05         0.00000E+00
    0.25010E+05        -0.96916E+08         0.00000E+00
    0.00000E+00         0.00000E+00        -0.55059E+08
 
   -0.56748E+08         0.68612E+04         0.00000E+00
    0.68612E+04        -0.96923E+08         0.00000E+00
    0.00000E+00         0.00000E+00        -0.54747E+08
 
   -0.56724E+08        -0.10899E+05         0.00000E+00
   -0.10899E+05        -0.96932E+08         0.00000E+00
    0.00000E+00         0.00000E+00        -0.54422E+08
 
   -0.56718E+08        -0.27777E+05         0.00000E+00
   -0.27777E+05        -0.96941E+08         0.00000E+00
    0.00000E+00         0.00000E+00        -0.54085E+08
 
   -0.56726E+08        -0.42376E+05         0.00000E+00
   -0.42376E+05        -0.96952E+08         0.00000E+00
    0.00000E+00         0.00000E+00        -0.53737E+08
 
   -0.56747E+08        -0.56881E+05         0.00000E+00
   -0.56881E+05        -0.96965E+08         0.00000E+00
    0.00000E+00         0.00000E+00        -0.53382E+08
 
   -0.56769E+08        -0.67359E+05         0.00000E+00
   -0.67359E+05        -0.96986E+08         0.00000E+00
    0.00000E+00         0.00000E+00        -0.53036E+08
 
   -0.56767E+08        -0.34380E+05         0.00000E+00
   -0.34380E+05        -0.96969E+08         0.00000E+00
    0.00000E+00         0.00000E+00        -0.52679E+08
 
   -0.72696E+08        -0.44129E+05         0.00000E+00
   -0.44129E+05        -0.97571E+08         0.00000E+00
    0.00000E+00         0.00000E+00        -0.78924E+08
 
   -0.72758E+08        -0.64088E+05         0.00000E+00
   -0.64088E+05        -0.97580E+08         0.00000E+00
    0.00000E+00         0.00000E+00        -0.78375E+08
 
   -0.72837E+08        -0.38110E+05         0.00000E+00
   -0.38110E+05        -0.97605E+08         0.00000E+00
    0.00000E+00         0.00000E+00        -0.77808E+08
 
   -0.72896E+08        -0.17273E+05         0.00000E+00
   -0.17273E+05        -0.97634E+08         0.00000E+00
    0.00000E+00         0.00000E+00        -0.77258E+08
 
   -0.72952E+08        -0.28836E+05         0.00000E+00
   -0.28836E+05        -0.97611E+08         0.00000E+00
    0.00000E+00         0.00000E+00        -0.76809E+08
 
   -0.72977E+08        -0.16423E+05         0.00000E+00
   -0.16423E+05        -0.97594E+08         0.00000E+00
    0.00000E+00         0.00000E+00        -0.76397E+08
 
   -0.72973E+08        -0.17350E+04         0.00000E+00
   -0.17350E+04        -0.97592E+08         0.00000E+00
    0.00000E+00         0.00000E+00        -0.75985E+08
 
   -0.72940E+08         0.23343E+05         0.00000E+00
    0.23343E+05        -0.97591E+08         0.00000E+00
    0.00000E+00         0.00000E+00        -0.75576E+08
 
   -0.72876E+08         0.47897E+05         0.00000E+00
    0.47897E+05        -0.97591E+08         0.00000E+00
    0.00000E+00         0.00000E+00        -0.75167E+08
 
   -0.72780E+08         0.72157E+05         0.00000E+00
    0.72157E+05        -0.97591E+08         0.00000E+00
    0.00000E+00         0.00000E+00        -0.74760E+08
 
   -0.72654E+08         0.94638E+05         0.00000E+00
    0.94638E+05        -0.97592E+08         0.00000E+00
    0.00000E+00         0.00000E+00        -0.74354E+08
 
   -0.72500E+08         0.11483E+06         0.00000E+00
    0.11483E+06        -0.97593E+08         0.00000E+00
    0.00000E+00         0.00000E+00        -0.73951E+08
 
   -0.72321E+08         0.13233E+06         0.00000E+00
    0.13233E+06        -0.97594E+08         0.00000E+00
    0.00000E+00         0.00000E+00        -0.73549E+08
 
   -0.72122E+08         0.14682E+06         0.00000E+00
    0.14682E+06        -0.97595E+08         0.00000E+00
    0.00000E+00         0.00000E+00        -0.73148E+08
 
   -0.71906E+08         0.15803E+06         0.00000E+00
    0.15803E+06        -0.97597E+08         0.00000E+00
    0.00000E+00         0.00000E+00        -0.72751E+08
 
   -0.71678E+08         0.16567E+06         0.00000E+00
    0.16567E+06        -0.97598E+08         0.00000E+00
    0.00000E+00         0.00000E+00        -0.72355E+08
 
   -0.71442E+08         0.16965E+06         0.00000E+00
    0.16965E+06        -0.97600E+08         0.00000E+00
    0.00000E+00         0.00000E+00        -0.71961E+08
 
   -0.71203E+08         0.16914E+06         0.00000E+00
    0.16914E+06        -0.97601E+08         0.00000E+00
    0.00000E+00         0.00000E+00        -0.71570E+08
 
   -0.70969E+08         0.16439E+06         0.00000E+00
    0.16439E+06        -0.97600E+08         0.00000E+00
    0.00000E+00         0.00000E+00        -0.71181E+08
 
   -0.70738E+08         0.15274E+06         0.00000E+00
    0.15274E+06        -0.97596E+08         0.00000E+00
    0.00000E+00         0.00000E+00        -0.70835E+08
 
   -0.70502E+08         0.15869E+06         0.00000E+00
    0.15869E+06        -0.97596E+08         0.00000E+00
    0.00000E+00         0.00000E+00        -0.70546E+08
 
   -0.70265E+08         0.16277E+06         0.00000E+00
    0.16277E+06        -0.97599E+08         0.00000E+00
    0.00000E+00         0.00000E+00        -0.70274E+08
 
   -0.70025E+08         0.16744E+06         0.00000E+00
    0.16744E+06        -0.97599E+08         0.00000E+00
    0.00000E+00         0.00000E+00        -0.70005E+08
 
   -0.69781E+08         0.17035E+06         0.00000E+00
    0.17035E+06        -0.97600E+08         0.00000E+00
    0.00000E+00         0.00000E+00        -0.69738E+08
 
   -0.69535E+08         0.17257E+06         0.00000E+00
    0.17257E+06        -0.97600E+08         0.00000E+00
    0.00000E+00         0.00000E+00        -0.69473E+08
 
   -0.69286E+08         0.17417E+06         0.00000E+00
    0.17417E+06        -0.97600E+08         0.00000E+00
    0.00000E+00         0.00000E+00        -0.69209E+08
 
   -0.69036E+08         0.17529E+06         0.00000E+00
    0.17529E+06        -0.97600E+08         0.00000E+00
    0.00000E+00         0.00000E+00        -0.68947E+08
 
   -0.68785E+08         0.17610E+06         0.00000E+00
    0.17610E+06        -0.97600E+08         0.00000E+00
    0.00000E+00         0.00000E+00        -0.68685E+08
 
   -0.68533E+08         0.17669E+06         0.00000E+00
    0.17669E+06        -0.97600E+08         0.00000E+00
    0.00000E+00         0.00000E+00        -0.68424E+08
 
   -0.68281E+08         0.17715E+06         0.00000E+00
    0.17715E+06        -0.97600E+08         0.00000E+00
    0.00000E+00         0.00000E+00        -0.68163E+08
 
   -0.68028E+08         0.17755E+06         0.00000E+00
    0.17755E+06        -0.97600E+08         0.00000E+00
    0.00000E+00         0.00000E+00        -0.67903E+08
 
   -0.67776E+08         0.17791E+06         0.00000E+00
    0.17791E+06        -0.97600E+08         0.00000E+00
    0.00000E+00         0.00000E+00        -0.67643E+08
 
   -0.67523E+08         0.17823E+06         0.00000E+00
    0.17823E+06        -0.97600E+08         0.00000E+00
    0.00000E+00         0.00000E+00        -0.67383E+08
 
   -0.67271E+08         0.17841E+06         0.00000E+00
    0.17841E+06        -0.97600E+08         0.00000E+00
    0.00000E+00         0.00000E+00        -0.67124E+08
 
   -0.67021E+08         0.17827E+06         0.00000E+00
    0.17827E+06        -0.97600E+08         0.00000E+00
    0.00000E+00         0.00000E+00        -0.66864E+08
 
   -0.66775E+08         0.17537E+06         0.00000E+00
    0.17537E+06        -0.97601E+08         0.00000E+00
    0.00000E+00         0.00000E+00        -0.66605E+08
 
   -0.66535E+08         0.16558E+06         0.00000E+00
    0.16558E+06        -0.97602E+08         0.00000E+00
    0.00000E+00         0.00000E+00        -0.66359E+08
 
   -0.66300E+08         0.15709E+06         0.00000E+00
    0.15709E+06        -0.97601E+08         0.00000E+00
    0.00000E+00         0.00000E+00        -0.66138E+08
 
   -0.66072E+08         0.15423E+06         0.00000E+00
    0.15423E+06        -0.97600E+08         0.00000E+00
    0.00000E+00         0.00000E+00        -0.65927E+08
 
   -0.65848E+08         0.15360E+06         0.00000E+00
    0.15360E+06        -0.97600E+08         0.00000E+00
    0.00000E+00         0.00000E+00        -0.65717E+08
 
   -0.65627E+08         0.15317E+06         0.00000E+00
    0.15317E+06        -0.97600E+08         0.00000E+00
    0.00000E+00         0.00000E+00        -0.65507E+08
 
   -0.65407E+08         0.15288E+06         0.00000E+00
    0.15288E+06        -0.97600E+08         0.00000E+00
    0.00000E+00         0.00000E+00        -0.65298E+08
 
   -0.65187E+08         0.15262E+06         0.00000E+00
    0.15262E+06        -0.97600E+08         0.00000E+00
    0.00000E+00         0.00000E+00        -0.65089E+08
 
   -0.64968E+08         0.15232E+06         0.00000E+00
    0.15232E+06        -0.97600E+08         0.00000E+00
    0.00000E+00         0.00000E+00        -0.64880E+08
 
   -0.64750E+08         0.15198E+06         0.00000E+00
    0.15198E+06        -0.97600E+08         0.00000E+00
    0.00000E+00         0.00000E+00        -0.64672E+08
 
   -0.64533E+08         0.15158E+06         0.00000E+00
    0.15158E+06        -0.97600E+08         0.00000E+00
    0.00000E+00         0.00000E+00        -0.64464E+08
 
   -0.64317E+08         0.15115E+06         0.00000E+00
    0.15115E+06        -0.97600E+08         0.00000E+00
    0.00000E+00         0.00000E+00        -0.64257E+08
 
   -0.64110E+08         0.15059E+06         0.00000E+00
    0.15059E+06        -0.97592E+08         0.00000E+00
    0.00000E+00         0.00000E+00        -0.64059E+08
 
   -0.63919E+08         0.14989E+06         0.00000E+00
    0.14989E+06        -0.97570E+08         0.00000E+00
    0.00000E+00         0.00000E+00        -0.63877E+08
 
   -0.63731E+08         0.14914E+06         0.00000E+00
    0.14914E+06        -0.97545E+08         0.00000E+00
    0.00000E+00         0.00000E+00        -0.63697E+08
 
   -0.63544E+08         0.14839E+06         0.00000E+00
    0.14839E+06        -0.97520E+08         0.00000E+00
    0.00000E+00         0.00000E+00        -0.63517E+08
 
   -0.63358E+08         0.14763E+06         0.00000E+00
    0.14763E+06        -0.97496E+08         0.00000E+00
    0.00000E+00         0.00000E+00        -0.63338E+08
 
   -0.63173E+08         0.14686E+06         0.00000E+00
    0.14686E+06        -0.97471E+08         0.00000E+00
    0.00000E+00         0.00000E+00        -0.63159E+08
 
   -0.62988E+08         0.14609E+06         0.00000E+00
    0.14609E+06        -0.97447E+08         0.00000E+00
    0.00000E+00         0.00000E+00        -0.62980E+08
 
   -0.62804E+08         0.14532E+06         0.00000E+00
    0.14532E+06        -0.97423E+08         0.00000E+00
    0.00000E+00         0.00000E+00        -0.62802E+08
 
   -0.62620E+08         0.14455E+06         0.00000E+00
    0.14455E+06        -0.97399E+08         0.00000E+00
    0.00000E+00         0.00000E+00        -0.62623E+08
 
   -0.62437E+08         0.14378E+06         0.00000E+00
    0.14378E+06        -0.97375E+08         0.00000E+00
    0.00000E+00         0.00000E+00        -0.62444E+08
 
   -0.62255E+08         0.14300E+06         0.00000E+00
    0.14300E+06        -0.97351E+08         0.00000E+00
    0.00000E+00         0.00000E+00        -0.62266E+08
 
   -0.62073E+08         0.14222E+06         0.00000E+00
    0.14222E+06        -0.97328E+08         0.00000E+00
    0.00000E+00         0.00000E+00        -0.62087E+08
 
   -0.61892E+08         0.14142E+06         0.00000E+00
    0.14142E+06        -0.97305E+08         0.00000E+00
    0.00000E+00         0.00000E+00        -0.61908E+08
 
   -0.61711E+08         0.14062E+06         0.00000E+00
    0.14062E+06        -0.97282E+08         0.00000E+00
    0.00000E+00         0.00000E+00        -0.61729E+08
 
   -0.61531E+08         0.13979E+06         0.00000E+00
    0.13979E+06        -0.97260E+08         0.00000E+00
    0.00000E+00         0.00000E+00        -0.61549E+08
 
   -0.61351E+08         0.13896E+06         0.00000E+00
    0.13896E+06        -0.97238E+08         0.00000E+00
    0.00000E+00         0.00000E+00        -0.61370E+08
 
   -0.61172E+08         0.13810E+06         0.00000E+00
    0.13810E+06        -0.97217E+08         0.00000E+00
    0.00000E+00         0.00000E+00        -0.61189E+08
 
   -0.60993E+08         0.13721E+06         0.00000E+00
    0.13721E+06        -0.97196E+08         0.00000E+00
    0.00000E+00         0.00000E+00        -0.61009E+08
 
   -0.60814E+08         0.13630E+06         0.00000E+00
    0.13630E+06        -0.97175E+08         0.00000E+00
    0.00000E+00         0.00000E+00        -0.60827E+08
 
   -0.60637E+08         0.13536E+06         0.00000E+00
    0.13536E+06        -0.97155E+08         0.00000E+00
    0.00000E+00         0.00000E+00        -0.60646E+08
 
   -0.60459E+08         0.13438E+06         0.00000E+00
    0.13438E+06        -0.97136E+08         0.00000E+00
    0.00000E+00         0.00000E+00        -0.60463E+08
 
   -0.60283E+08         0.13336E+06         0.00000E+00
    0.13336E+06        -0.97117E+08         0.00000E+00
    0.00000E+00         0.00000E+00        -0.60280E+08
 
   -0.60107E+08         0.13230E+06         0.00000E+00
    0.13230E+06        -0.97099E+08         0.00000E+00
    0.00000E+00         0.00000E+00        -0.60095E+08
 
   -0.59931E+08         0.13118E+06         0.00000E+00
    0.13118E+06        -0.97082E+08         0.00000E+00
    0.00000E+00         0.00000E+00        -0.59910E+08
 
   -0.59756E+08         0.13001E+06         0.00000E+00
    0.13001E+06        -0.97065E+08         0.00000E+00
    0.00000E+00         0.00000E+00        -0.59724E+08
 
   -0.59582E+08         0.12877E+06         0.00000E+00
    0.12877E+06        -0.97049E+08         0.00000E+00
    0.00000E+00         0.00000E+00        -0.59537E+08
 
   -0.59409E+08         0.12745E+06         0.00000E+00
    0.12745E+06        -0.97033E+08         0.00000E+00
    0.00000E+00         0.00000E+00        -0.59348E+08
 
   -0.59237E+08         0.12604E+06         0.00000E+00
    0.12604E+06        -0.97019E+08         0.00000E+00
    0.00000E+00         0.00000E+00        -0.59158E+08
 
   -0.59066E+08         0.12452E+06         0.00000E+00
    0.12452E+06        -0.97005E+08         0.00000E+00
    0.00000E+00         0.00000E+00        -0.58966E+08
 
   -0.58897E+08         0.12287E+06         0.00000E+00
    0.12287E+06        -0.96992E+08         0.00000E+00
    0.00000E+00         0.00000E+00        -0.58772E+08
 
   -0.58729E+08         0.12105E+06         0.00000E+00
    0.12105E+06        -0.96979E+08         0.00000E+00
    0.00000E+00         0.00000E+00        -0.58577E+08
 
   -0.58563E+08         0.11902E+06         0.00000E+00
    0.11902E+06        -0.96968E+08         0.00000E+00
    0.00000E+00         0.00000E+00        -0.58379E+08
 
   -0.58398E+08         0.11673E+06         0.00000E+00
    0.11673E+06        -0.96957E+08         0.00000E+00
    0.00000E+00         0.00000E+00        -0.58178E+08
 
   -0.58237E+08         0.11412E+06         0.00000E+00
    0.11412E+06        -0.96947E+08         0.00000E+00
    0.00000E+00         0.00000E+00        -0.57975E+08
 
   -0.58078E+08         0.11109E+06         0.00000E+00
    0.11109E+06        -0.96938E+08         0.00000E+00
    0.00000E+00         0.00000E+00        -0.57768E+08
 
   -0.57923E+08         0.10756E+06         0.00000E+00
    0.10756E+06        -0.96930E+08         0.00000E+00
    0.00000E+00         0.00000E+00        -0.57557E+08
 
   -0.57772E+08         0.10341E+06         0.00000E+00
    0.10341E+06        -0.96923E+08         0.00000E+00
    0.00000E+00         0.00000E+00        -0.57342E+08
 
   -0.57627E+08         0.98484E+05         0.00000E+00
    0.98484E+05        -0.96917E+08         0.00000E+00
    0.00000E+00         0.00000E+00        -0.57121E+08
 
   -0.57487E+08         0.92649E+05         0.00000E+00
    0.92649E+05        -0.96912E+08         0.00000E+00
    0.00000E+00         0.00000E+00        -0.56895E+08
 
   -0.57355E+08         0.85745E+05         0.00000E+00
    0.85745E+05        -0.96908E+08         0.00000E+00
    0.00000E+00         0.00000E+00        -0.56661E+08
 
   -0.57233E+08         0.77627E+05         0.00000E+00
    0.77627E+05        -0.96906E+08         0.00000E+00
    0.00000E+00         0.00000E+00        -0.56419E+08
 
   -0.57120E+08         0.68181E+05         0.00000E+00
    0.68181E+05        -0.96905E+08         0.00000E+00
    0.00000E+00         0.00000E+00        -0.56167E+08
 
   -0.57020E+08         0.57359E+05         0.00000E+00
    0.57359E+05        -0.96905E+08         0.00000E+00
    0.00000E+00         0.00000E+00        -0.55905E+08
 
   -0.56933E+08         0.45216E+05         0.00000E+00
    0.45216E+05        -0.96907E+08         0.00000E+00
    0.00000E+00         0.00000E+00        -0.55630E+08
 
   -0.56862E+08         0.31940E+05         0.00000E+00
    0.31940E+05        -0.96911E+08         0.00000E+00
    0.00000E+00         0.00000E+00        -0.55343E+08
 
   -0.56808E+08         0.17896E+05         0.00000E+00
    0.17896E+05        -0.96917E+08         0.00000E+00
    0.00000E+00         0.00000E+00        -0.55042E+08
 
   -0.56772E+08         0.35406E+04         0.00000E+00
    0.35406E+04        -0.96923E+08         0.00000E+00
    0.00000E+00         0.00000E+00        -0.54726E+08
 
   -0.56753E+08        -0.10436E+05         0.00000E+00
   -0.10436E+05        -0.96931E+08         0.00000E+00
    0.00000E+00         0.00000E+00        -0.54396E+08
 
   -0.56752E+08        -0.23822E+05         0.00000E+00
   -0.23822E+05        -0.96940E+08         0.00000E+00
    0.00000E+00         0.00000E+00        -0.54053E+08
 
   -0.56767E+08        -0.35549E+05         0.00000E+00
   -0.35549E+05        -0.96951E+08         0.00000E+00
    0.00000E+00         0.00000E+00        -0.53700E+08
 
   -0.56796E+08        -0.46218E+05         0.00000E+00
   -0.46218E+05        -0.96961E+08         0.00000E+00
    0.00000E+00         0.00000E+00        -0.53336E+08
 
   -0.56832E+08        -0.61130E+05         0.00000E+00
   -0.61130E+05        -0.96984E+08         0.00000E+00
    0.00000E+00         0.00000E+00        -0.52981E+08
 
   -0.56842E+08        -0.35766E+05         0.00000E+00
   -0.35766E+05        -0.96982E+08         0.00000E+00
    0.00000E+00         0.00000E+00        -0.52629E+08
 
   -0.72678E+08        -0.42505E+05         0.00000E+00
   -0.42505E+05        -0.97551E+08         0.00000E+00
    0.00000E+00         0.00000E+00        -0.79015E+08
 
   -0.72751E+08        -0.45571E+05         0.00000E+00
   -0.45571E+05        -0.97593E+08         0.00000E+00
    0.00000E+00         0.00000E+00        -0.78460E+08
 
   -0.72830E+08        -0.22925E+05         0.00000E+00
   -0.22925E+05        -0.97597E+08         0.00000E+00
    0.00000E+00         0.00000E+00        -0.77872E+08
 
   -0.72861E+08        -0.10011E+05         0.00000E+00
   -0.10011E+05        -0.97637E+08         0.00000E+00
    0.00000E+00         0.00000E+00        -0.77282E+08
 
   -0.72905E+08        -0.19565E+05         0.00000E+00
   -0.19565E+05        -0.97623E+08         0.00000E+00
    0.00000E+00         0.00000E+00        -0.76809E+08
 
   -0.72933E+08        -0.14993E+05         0.00000E+00
   -0.14993E+05        -0.97592E+08         0.00000E+00
    0.00000E+00         0.00000E+00        -0.76397E+08
 
   -0.72936E+08        -0.41501E+04         0.00000E+00
   -0.41501E+04        -0.97596E+08         0.00000E+00
    0.00000E+00         0.00000E+00        -0.75985E+08
 
   -0.72912E+08         0.14467E+05         0.00000E+00
    0.14467E+05        -0.97595E+08         0.00000E+00
    0.00000E+00         0.00000E+00        -0.75576E+08
 
   -0.72854E+08         0.32370E+05         0.00000E+00
    0.32370E+05        -0.97595E+08         0.00000E+00
    0.00000E+00         0.00000E+00        -0.75167E+08
 
   -0.72763E+08         0.50296E+05         0.00000E+00
    0.50296E+05        -0.97595E+08         0.00000E+00
    0.00000E+00         0.00000E+00        -0.74760E+08
 
   -0.72641E+08         0.66805E+05         0.00000E+00
    0.66805E+05        -0.97596E+08         0.00000E+00
    0.00000E+00         0.00000E+00        -0.74354E+08
 
   -0.72489E+08         0.81644E+05         0.00000E+00
    0.81644E+05        -0.97596E+08         0.00000E+00
    0.00000E+00         0.00000E+00        -0.73951E+08
 
   -0.72312E+08         0.94497E+05         0.00000E+00
    0.94497E+05        -0.97597E+08         0.00000E+00
    0.00000E+00         0.00000E+00        -0.73549E+08
 
   -0.72113E+08         0.10515E+06         0.00000E+00
    0.10515E+06        -0.97598E+08         0.00000E+00
    0.00000E+00         0.00000E+00        -0.73148E+08
 
   -0.71896E+08         0.11337E+06         0.00000E+00
    0.11337E+06        -0.97598E+08         0.00000E+00
    0.00000E+00         0.00000E+00        -0.72751E+08
 
   -0.71667E+08         0.11903E+06         0.00000E+00
    0.11903E+06        -0.97599E+08         0.00000E+00
    0.00000E+00         0.00000E+00        -0.72355E+08
 
   -0.71429E+08         0.12179E+06         0.00000E+00
    0.12179E+06        -0.97600E+08         0.00000E+00
    0.00000E+00         0.00000E+00        -0.71961E+08
 
   -0.71189E+08         0.12126E+06         0.00000E+00
    0.12126E+06        -0.97600E+08         0.00000E+00
    0.00000E+00         0.00000E+00        -0.71570E+08
 
   -0.70954E+08         0.11912E+06         0.00000E+00
    0.11912E+06        -0.97599E+08         0.00000E+00
    0.00000E+00         0.00000E+00        -0.71181E+08
 
   -0.70724E+08         0.10606E+06         0.00000E+00
    0.10606E+06        -0.97595E+08         0.00000E+00
    0.00000E+00         0.00000E+00        -0.70828E+08
 
   -0.70493E+08         0.11113E+06         0.00000E+00
    0.11113E+06        -0.97596E+08         0.00000E+00
    0.00000E+00         0.00000E+00        -0.70533E+08
 
   -0.70258E+08         0.11556E+06         0.00000E+00
    0.11556E+06        -0.97600E+08         0.00000E+00
    0.00000E+00         0.00000E+00        -0.70261E+08
 
   -0.70021E+08         0.11924E+06         0.00000E+00
    0.11924E+06        -0.97600E+08         0.00000E+00
    0.00000E+00         0.00000E+00        -0.69993E+08
 
   -0.69779E+08         0.12139E+06         0.00000E+00
    0.12139E+06        -0.97600E+08         0.00000E+00
    0.00000E+00         0.00000E+00        -0.69727E+08
 
   -0.69533E+08         0.12312E+06         0.00000E+00
    0.12312E+06        -0.97600E+08         0.00000E+00
    0.00000E+00         0.00000E+00        -0.69462E+08
 
   -0.69285E+08         0.12432E+06         0.00000E+00
    0.12432E+06        -0.97600E+08         0.00000E+00
    0.00000E+00         0.00000E+00        -0.69199E+08
 
   -0.69035E+08         0.12519E+06         0.00000E+00
    0.12519E+06        -0.97600E+08         0.00000E+00
    0.00000E+00         0.00000E+00        -0.68937E+08
 
   -0.68784E+08         0.12581E+06         0.00000E+00
    0.12581E+06        -0.97600E+08         0.00000E+00
    0.00000E+00         0.00000E+00        -0.68676E+08
 
   -0.68532E+08         0.12627E+06         0.00000E+00
    0.12627E+06        -0.97600E+08         0.00000E+00
    0.00000E+00         0.00000E+00        -0.68415E+08
 
   -0.68280E+08         0.12665E+06         0.00000E+00
    0.12665E+06        -0.97600E+08         0.00000E+00
    0.00000E+00         0.00000E+00        -0.68155E+08
 
   -0.68027E+08         0.12699E+06         0.00000E+00
    0.12699E+06        -0.97600E+08         0.00000E+00
    0.00000E+00         0.00000E+00        -0.67896E+08
 
   -0.67774E+08         0.12733E+06         0.00000E+00
    0.12733E+06        -0.97600E+08         0.00000E+00
    0.00000E+00         0.00000E+00        -0.67636E+08
 
   -0.67521E+08         0.12767E+06         0.00000E+00
    0.12767E+06        -0.97600E+08         0.00000E+00
    0.00000E+00         0.00000E+00        -0.67377E+08
 
   -0.67267E+08         0.12794E+06         0.00000E+00
    0.12794E+06        -0.97600E+08         0.00000E+00
    0.00000E+00         0.00000E+00        -0.67118E+08
 
   -0.67015E+08         0.12823E+06         0.00000E+00
    0.12823E+06        -0.97600E+08         0.00000E+00
    0.00000E+00         0.00000E+00        -0.66859E+08
 
   -0.66766E+08         0.12679E+06         0.00000E+00
    0.12679E+06        -0.97600E+08         0.00000E+00
    0.00000E+00         0.00000E+00        -0.66600E+08
 
   -0.66525E+08         0.11813E+06         0.00000E+00
    0.11813E+06        -0.97600E+08         0.00000E+00
    0.00000E+00         0.00000E+00        -0.66354E+08
 
   -0.66292E+08         0.11082E+06         0.00000E+00
    0.11082E+06        -0.97600E+08         0.00000E+00
    0.00000E+00         0.00000E+00        -0.66132E+08
 
   -0.66066E+08         0.10941E+06         0.00000E+00
    0.10941E+06        -0.97600E+08         0.00000E+00
    0.00000E+00         0.00000E+00        -0.65922E+08
 
   -0.65844E+08         0.10929E+06         0.00000E+00
    0.10929E+06        -0.97600E+08         0.00000E+00
    0.00000E+00         0.00000E+00        -0.65712E+08
 
   -0.65624E+08         0.10909E+06         0.00000E+00
    0.10909E+06        -0.97600E+08         0.00000E+00
    0.00000E+00         0.00000E+00        -0.65503E+08
 
   -0.65405E+08         0.10899E+06         0.00000E+00
    0.10899E+06        -0.97600E+08         0.00000E+00
    0.00000E+00         0.00000E+00        -0.65294E+08
 
   -0.65186E+08         0.10886E+06         0.00000E+00
    0.10886E+06        -0.97600E+08         0.00000E+00
    0.00000E+00         0.00000E+00        -0.65085E+08
 
   -0.64968E+08         0.10870E+06         0.00000E+00
    0.10870E+06        -0.97600E+08         0.00000E+00
    0.00000E+00         0.00000E+00        -0.64877E+08
 
   -0.64750E+08         0.10849E+06         0.00000E+00
    0.10849E+06        -0.97600E+08         0.00000E+00
    0.00000E+00         0.00000E+00        -0.64669E+08
 
   -0.64533E+08         0.10823E+06         0.00000E+00
    0.10823E+06        -0.97600E+08         0.00000E+00
    0.00000E+00         0.00000E+00        -0.64462E+08
 
   -0.64317E+08         0.10794E+06         0.00000E+00
    0.10794E+06        -0.97600E+08         0.00000E+00
    0.00000E+00         0.00000E+00        -0.64255E+08
 
   -0.64111E+08         0.10755E+06         0.00000E+00
    0.10755E+06        -0.97591E+08         0.00000E+00
    0.00000E+00         0.00000E+00        -0.64058E+08
 
   -0.63920E+08         0.10706E+06         0.00000E+00
    0.10706E+06        -0.97569E+08         0.00000E+00
    0.00000E+00         0.00000E+00        -0.63875E+08
 
   -0.63732E+08         0.10653E+06         0.00000E+00
    0.10653E+06        -0.97545E+08         0.00000E+00
    0.00000E+00         0.00000E+00        -0.63695E+08
 
   -0.63545E+08         0.10600E+06         0.00000E+00
    0.10600E+06        -0.97520E+08         0.00000E+00
    0.00000E+00         0.00000E+00        -0.63516E+08
 
   -0.63359E+08         0.10546E+06         0.00000E+00
    0.10546E+06        -0.97496E+08         0.00000E+00
    0.00000E+00         0.00000E+00        -0.63337E+08
 
   -0.63173E+08         0.10491E+06         0.00000E+00
    0.10491E+06        -0.97471E+08         0.00000E+00
    0.00000E+00         0.00000E+00        -0.63158E+08
 
   -0.62988E+08         0.10436E+06         0.00000E+00
    0.10436E+06        -0.97447E+08         0.00000E+00
    0.00000E+00         0.00000E+00        -0.62980E+08
 
   -0.62804E+08         0.10381E+06         0.00000E+00
    0.10381E+06        -0.97423E+08         0.00000E+00
    0.00000E+00         0.00000E+00        -0.62801E+08
 
   -0.62620E+08         0.10326E+06         0.00000E+00
    0.10326E+06        -0.97399E+08         0.00000E+00
    0.00000E+00         0.00000E+00        -0.62623E+08
 
   -0.62437E+08         0.10270E+06         0.00000E+00
    0.10270E+06        -0.97375E+08         0.00000E+00
    0.00000E+00         0.00000E+00        -0.62444E+08
 
   -0.62255E+08         0.10215E+06         0.00000E+00
    0.10215E+06        -0.97352E+08         0.00000E+00
    0.00000E+00         0.00000E+00        -0.62266E+08
 
   -0.62073E+08         0.10158E+06         0.00000E+00
    0.10158E+06        -0.97328E+08         0.00000E+00
    0.00000E+00         0.00000E+00        -0.62087E+08
 
   -0.61892E+08         0.10101E+06         0.00000E+00
    0.10101E+06        -0.97306E+08         0.00000E+00
    0.00000E+00         0.00000E+00        -0.61908E+08
 
   -0.61711E+08         0.10043E+06         0.00000E+00
    0.10043E+06        -0.97283E+08         0.00000E+00
    0.00000E+00         0.00000E+00        -0.61729E+08
 
   -0.61531E+08         0.99842E+05         0.00000E+00
    0.99842E+05        -0.97261E+08         0.00000E+00
    0.00000E+00         0.00000E+00        -0.61550E+08
 
   -0.61351E+08         0.99239E+05         0.00000E+00
    0.99239E+05        -0.97239E+08         0.00000E+00
    0.00000E+00         0.00000E+00        -0.61370E+08
 
   -0.61172E+08         0.98620E+05         0.00000E+00
    0.98620E+05        -0.97218E+08         0.00000E+00
    0.00000E+00         0.00000E+00        -0.61190E+08
 
   -0.60993E+08         0.97983E+05         0.00000E+00
    0.97983E+05        -0.97197E+08         0.00000E+00
    0.00000E+00         0.00000E+00        -0.61009E+08
 
   -0.60814E+08         0.97326E+05         0.00000E+00
    0.97326E+05        -0.97177E+08         0.00000E+00
    0.00000E+00         0.00000E+00        -0.60828E+08
 
   -0.60637E+08         0.96646E+05         0.00000E+00
    0.96646E+05        -0.97157E+08         0.00000E+00
    0.00000E+00         0.00000E+00        -0.60646E+08
 
   -0.60460E+08         0.95940E+05         0.00000E+00
    0.95940E+05        -0.97138E+08         0.00000E+00
    0.00000E+00         0.00000E+00        -0.60464E+08
 
   -0.60283E+08         0.95205E+05         0.00000E+00
    0.95205E+05        -0.97119E+08         0.00000E+00
    0.00000E+00         0.00000E+00        -0.60280E+08
 
   -0.60107E+08         0.94438E+05         0.00000E+00
    0.94438E+05        -0.97101E+08         0.00000E+00
    0.00000E+00         0.00000E+00        -0.60096E+08
 
   -0.59932E+08         0.93634E+05         0.00000E+00
    0.93634E+05        -0.97084E+08         0.00000E+00
    0.00000E+00         0.00000E+00        -0.59911E+08
 
   -0.59757E+08         0.92789E+05         0.00000E+00
    0.92789E+05        -0.97067E+08         0.00000E+00
    0.00000E+00         0.00000E+00        -0.59725E+08
 
   -0.59583E+08         0.91896E+05         0.00000E+00
    0.91896E+05        -0.97051E+08         0.00000E+00
    0.00000E+00         0.00000E+00        -0.59537E+08
 
   -0.59410E+08         0.90947E+05         0.00000E+00
    0.90947E+05        -0.97036E+08         0.00000E+00
    0.00000E+00         0.00000E+00        -0.59349E+08
 
   -0.59239E+08         0.89933E+05         0.00000E+00
    0.89933E+05        -0.97021E+08         0.00000E+00
    0.00000E+00         0.00000E+00        -0.59158E+08
 
   -0.59068E+08         0.88841E+05         0.00000E+00
    0.88841E+05        -0.97007E+08         0.00000E+00
    0.00000E+00         0.00000E+00        -0.58966E+08
 
   -0.58899E+08         0.87651E+05         0.00000E+00
    0.87651E+05        -0.96994E+08         0.00000E+00
    0.00000E+00         0.00000E+00        -0.58773E+08
 
   -0.58731E+08         0.86343E+05         0.00000E+00
    0.86343E+05        -0.96982E+08         0.00000E+00
    0.00000E+00         0.00000E+00        -0.58577E+08
 
   -0.58565E+08         0.84886E+05         0.00000E+00
    0.84886E+05        -0.96971E+08         0.00000E+00
    0.00000E+00         0.00000E+00        -0.58379E+08
 
   -0.58401E+08         0.83243E+05         0.00000E+00
    0.83243E+05        -0.96960E+08         0.00000E+00
    0.00000E+00         0.00000E+00        -0.58178E+08
 
   -0.58240E+08         0.81364E+05         0.00000E+00
    0.81364E+05        -0.96950E+08         0.00000E+00
    0.00000E+00         0.00000E+00        -0.57975E+08
 
   -0.58081E+08         0.79190E+05         0.00000E+00
    0.79190E+05        -0.96941E+08         0.00000E+00
    0.00000E+00         0.00000E+00        -0.57768E+08
 
   -0.57927E+08         0.76648E+05         0.00000E+00
    0.76648E+05        -0.96933E+08         0.00000E+00
    0.00000E+00         0.00000E+00        -0.57556E+08
 
   -0.57776E+08         0.73650E+05         0.00000E+00
    0.73650E+05        -0.96926E+08         0.00000E+00
    0.00000E+00         0.00000E+00        -0.57341E+08
 
   -0.57631E+08         0.70096E+05         0.00000E+00
    0.70096E+05        -0.96920E+08         0.00000E+00
    0.00000E+00         0.00000E+00        -0.57119E+08
 
   -0.57493E+08         0.65875E+05         0.00000E+00
    0.65875E+05        -0.96915E+08         0.00000E+00
    0.00000E+00         0.00000E+00        -0.56892E+08
 
   -0.57362E+08         0.60872E+05         0.00000E+00
    0.60872E+05        -0.96911E+08         0.00000E+00
    0.00000E+00         0.00000E+00        -0.56657E+08
 
   -0.57240E+08         0.54978E+05         0.00000E+00
    0.54978E+05        -0.96909E+08         0.00000E+00
    0.00000E+00         0.00000E+00        -0.56414E+08
 
   -0.57129E+08         0.48110E+05         0.00000E+00
    0.48110E+05        -0.96907E+08         0.00000E+00
    0.00000E+00         0.00000E+00        -0.56161E+08
 
   -0.57031E+08         0.40231E+05         0.00000E+00
    0.40231E+05        -0.96908E+08         0.00000E+00
    0.00000E+00         0.00000E+00        -0.55896E+08
 
   -0.56947E+08         0.31385E+05         0.00000E+00
    0.31385E+05        -0.96910E+08         0.00000E+00
    0.00000E+00         0.00000E+00        -0.55620E+08
 
   -0.56879E+08         0.21710E+05         0.00000E+00
    0.21710E+05        -0.96913E+08         0.00000E+00
    0.00000E+00         0.00000E+00        -0.55329E+08
 
   -0.56828E+08         0.11483E+05         0.00000E+00
    0.11483E+05        -0.96918E+08         0.00000E+00
    0.00000E+00         0.00000E+00        -0.55025E+08
 
   -0.56796E+08         0.10488E+04         0.00000E+00
    0.10488E+04        -0.96925E+08         0.00000E+00
    0.00000E+00         0.00000E+00        -0.54705E+08
 
   -0.56782E+08        -0.91512E+04         0.00000E+00
   -0.91512E+04        -0.96932E+08         0.00000E+00
    0.00000E+00         0.00000E+00        -0.54371E+08
 
   -0.56787E+08        -0.18690E+05         0.00000E+00
   -0.18690E+05        -0.96940E+08         0.00000E+00
    0.00000E+00         0.00000E+00        -0.54023E+08
 
   -0.56809E+08        -0.27995E+05         0.00000E+00
   -0.27995E+05        -0.96950E+08         0.00000E+00
    0.00000E+00         0.00000E+00        -0.53663E+08
 
   -0.56844E+08        -0.33823E+05         0.00000E+00
   -0.33823E+05        -0.96957E+08         0.00000E+00
    0.00000E+00         0.00000E+00        -0.53292E+08
 
   -0.56894E+08        -0.50440E+05         0.00000E+00
   -0.50440E+05        -0.96977E+08         0.00000E+00
    0.00000E+00         0.00000E+00        -0.52923E+08
 
   -0.56923E+08        -0.37552E+05         0.00000E+00
   -0.37552E+05        -0.96995E+08         0.00000E+00
    0.00000E+00         0.00000E+00        -0.52573E+08
 
   -0.72689E+08        -0.43439E+05         0.00000E+00
   -0.43439E+05        -0.97531E+08         0.00000E+00
    0.00000E+00         0.00000E+00        -0.79117E+08
 
   -0.72764E+08        -0.24543E+05         0.00000E+00
   -0.24543E+05        -0.97609E+08         0.00000E+00
    0.00000E+00         0.00000E+00        -0.78548E+08
 
   -0.72823E+08        -0.11197E+05         0.00000E+00
   -0.11197E+05        -0.97591E+08         0.00000E+00
    0.00000E+00         0.00000E+00        -0.77934E+08
 
   -0.72833E+08        -0.93419E+04         0.00000E+00
   -0.93419E+04        -0.97636E+08         0.00000E+00
    0.00000E+00         0.00000E+00        -0.77314E+08
 
   -0.72858E+08        -0.88070E+04         0.00000E+00
   -0.88070E+04        -0.97632E+08         0.00000E+00
    0.00000E+00         0.00000E+00        -0.76809E+08
 
   -0.72890E+08        -0.13846E+05         0.00000E+00
   -0.13846E+05        -0.97589E+08         0.00000E+00
    0.00000E+00         0.00000E+00        -0.76397E+08
 
   -0.72902E+08        -0.40158E+04         0.00000E+00
   -0.40158E+04        -0.97601E+08         0.00000E+00
    0.00000E+00         0.00000E+00        -0.75985E+08
 
   -0.72887E+08         0.68476E+04         0.00000E+00
    0.68476E+04        -0.97598E+08         0.00000E+00
    0.00000E+00         0.00000E+00        -0.75576E+08
 
   -0.72835E+08         0.18084E+05         0.00000E+00
    0.18084E+05        -0.97598E+08         0.00000E+00
    0.00000E+00         0.00000E+00        -0.75167E+08
 
   -0.72750E+08         0.29288E+05         0.00000E+00
    0.29288E+05        -0.97598E+08         0.00000E+00
    0.00000E+00         0.00000E+00        -0.74760E+08
 
   -0.72630E+08         0.39533E+05         0.00000E+00
    0.39533E+05        -0.97598E+08         0.00000E+00
    0.00000E+00         0.00000E+00        -0.74354E+08
 
   -0.72481E+08         0.48762E+05         0.00000E+00
    0.48762E+05        -0.97599E+08         0.00000E+00
    0.00000E+00         0.00000E+00        -0.73951E+08
 
   -0.72304E+08         0.56740E+05         0.00000E+00
    0.56740E+05        -0.97599E+08         0.00000E+00
    0.00000E+00         0.00000E+00        -0.73549E+08
 
   -0.72105E+08         0.63356E+05         0.00000E+00
    0.63356E+05        -0.97599E+08         0.00000E+00
    0.00000E+00         0.00000E+00        -0.73148E+08
 
   -0.71887E+08         0.68460E+05         0.00000E+00
    0.68460E+05        -0.97599E+08         0.00000E+00
    0.00000E+00         0.00000E+00        -0.72751E+08
 
   -0.71656E+08         0.72022E+05         0.00000E+00
    0.72022E+05        -0.97600E+08         0.00000E+00
    0.00000E+00         0.00000E+00        -0.72355E+08
 
   -0.71416E+08         0.73621E+05         0.00000E+00
    0.73621E+05        -0.97600E+08         0.00000E+00
    0.00000E+00         0.00000E+00        -0.71961E+08
 
   -0.71174E+08         0.73066E+05         0.00000E+00
    0.73066E+05        -0.97600E+08         0.00000E+00
    0.00000E+00         0.00000E+00        -0.71570E+08
 
   -0.70936E+08         0.73302E+05         0.00000E+00
    0.73302E+05        -0.97599E+08         0.00000E+00
    0.00000E+00         0.00000E+00        -0.71181E+08
 
   -0.70708E+08         0.60839E+05         0.00000E+00
    0.60839E+05        -0.97594E+08         0.00000E+00
    0.00000E+00         0.00000E+00        -0.70821E+08
 
   -0.70483E+08         0.64132E+05         0.00000E+00
    0.64132E+05        -0.97596E+08         0.00000E+00
    0.00000E+00         0.00000E+00        -0.70519E+08
 
   -0.70253E+08         0.69156E+05         0.00000E+00
    0.69156E+05        -0.97601E+08         0.00000E+00
    0.00000E+00         0.00000E+00        -0.70249E+08
 
   -0.70018E+08         0.71269E+05         0.00000E+00
    0.71269E+05        -0.97600E+08         0.00000E+00
    0.00000E+00         0.00000E+00        -0.69981E+08
 
   -0.69777E+08         0.72651E+05         0.00000E+00
    0.72651E+05        -0.97600E+08         0.00000E+00
    0.00000E+00         0.00000E+00        -0.69715E+08
 
   -0.69532E+08         0.73800E+05         0.00000E+00
    0.73800E+05        -0.97600E+08         0.00000E+00
    0.00000E+00         0.00000E+00        -0.69452E+08
 
   -0.69284E+08         0.74562E+05         0.00000E+00
    0.74562E+05        -0.97600E+08         0.00000E+00
    0.00000E+00         0.00000E+00        -0.69189E+08
 
   -0.69035E+08         0.75124E+05         0.00000E+00
    0.75124E+05        -0.97600E+08         0.00000E+00
    0.00000E+00         0.00000E+00        -0.68928E+08
 
   -0.68784E+08         0.75526E+05         0.00000E+00
    0.75526E+05        -0.97600E+08         0.00000E+00
    0.00000E+00         0.00000E+00        -0.68667E+08
 
   -0.68532E+08         0.75836E+05         0.00000E+00
    0.75836E+05        -0.97600E+08         0.00000E+00
    0.00000E+00         0.00000E+00        -0.68407E+08
 
   -0.68280E+08         0.76095E+05         0.00000E+00
    0.76095E+05        -0.97600E+08         0.00000E+00
    0.00000E+00         0.00000E+00        -0.68148E+08
 
   -0.68027E+08         0.76342E+05         0.00000E+00
    0.76342E+05        -0.97600E+08         0.00000E+00
    0.00000E+00         0.00000E+00        -0.67889E+08
 
   -0.67773E+08         0.76596E+05         0.00000E+00
    0.76596E+05        -0.97600E+08         0.00000E+00
    0.00000E+00         0.00000E+00        -0.67630E+08
 
   -0.67519E+08         0.76898E+05         0.00000E+00
    0.76898E+05        -0.97600E+08         0.00000E+00
    0.00000E+00         0.00000E+00        -0.67371E+08
 
   -0.67264E+08         0.77173E+05         0.00000E+00
    0.77173E+05        -0.97600E+08         0.00000E+00
    0.00000E+00         0.00000E+00        -0.67112E+08
 
   -0.67009E+08         0.77577E+05         0.00000E+00
    0.77577E+05        -0.97600E+08         0.00000E+00
    0.00000E+00         0.00000E+00        -0.66854E+08
 
   -0.66757E+08         0.77699E+05         0.00000E+00
    0.77699E+05        -0.97599E+08         0.00000E+00
    0.00000E+00         0.00000E+00        -0.66595E+08
 
   -0.66514E+08         0.70722E+05         0.00000E+00
    0.70722E+05        -0.97598E+08         0.00000E+00
    0.00000E+00         0.00000E+00        -0.66349E+08
 
   -0.66283E+08         0.65027E+05         0.00000E+00
    0.65027E+05        -0.97599E+08         0.00000E+00
    0.00000E+00         0.00000E+00        -0.66128E+08
 
   -0.66060E+08         0.65155E+05         0.00000E+00
    0.65155E+05        -0.97600E+08         0.00000E+00
    0.00000E+00         0.00000E+00        -0.65918E+08
 
   -0.65841E+08         0.65253E+05         0.00000E+00
    0.65253E+05        -0.97600E+08         0.00000E+00
    0.00000E+00         0.00000E+00        -0.65708E+08
 
   -0.65622E+08         0.65228E+05         0.00000E+00
    0.65228E+05        -0.97600E+08         0.00000E+00
    0.00000E+00         0.00000E+00        -0.65499E+08
 
   -0.65403E+08         0.65248E+05         0.00000E+00
    0.65248E+05        -0.97600E+08         0.00000E+00
    0.00000E+00         0.00000E+00        -0.65290E+08
 
   -0.65185E+08         0.65217E+05         0.00000E+00
    0.65217E+05        -0.97600E+08         0.00000E+00
    0.00000E+00         0.00000E+00        -0.65082E+08
 
   -0.64967E+08         0.65155E+05         0.00000E+00
    0.65155E+05        -0.97600E+08         0.00000E+00
    0.00000E+00         0.00000E+00        -0.64874E+08
 
   -0.64750E+08         0.65054E+05         0.00000E+00
    0.65054E+05        -0.97600E+08         0.00000E+00
    0.00000E+00         0.00000E+00        -0.64667E+08
 
   -0.64533E+08         0.64919E+05         0.00000E+00
    0.64919E+05        -0.97600E+08         0.00000E+00
    0.00000E+00         0.00000E+00        -0.64459E+08
 
   -0.64317E+08         0.64755E+05         0.00000E+00
    0.64755E+05        -0.97600E+08         0.00000E+00
    0.00000E+00         0.00000E+00        -0.64253E+08
 
   -0.64111E+08         0.64534E+05         0.00000E+00
    0.64534E+05        -0.97591E+08         0.00000E+00
    0.00000E+00         0.00000E+00        -0.64056E+08
 
   -0.63920E+08         0.64244E+05         0.00000E+00
    0.64244E+05        -0.97569E+08         0.00000E+00
    0.00000E+00         0.00000E+00        -0.63874E+08
 
   -0.63732E+08         0.63933E+05         0.00000E+00
    0.63933E+05        -0.97545E+08         0.00000E+00
    0.00000E+00         0.00000E+00        -0.63694E+08
 
   -0.63545E+08         0.63615E+05         0.00000E+00
    0.63615E+05        -0.97520E+08         0.00000E+00
    0.00000E+00         0.00000E+00        -0.63515E+08
 
   -0.63359E+08         0.63291E+05         0.00000E+00
    0.63291E+05        -0.97496E+08         0.00000E+00
    0.00000E+00         0.00000E+00        -0.63336E+08
 
   -0.63173E+08         0.62964E+05         0.00000E+00
    0.62964E+05        -0.97471E+08         0.00000E+00
    0.00000E+00         0.00000E+00        -0.63158E+08
 
   -0.62989E+08         0.62635E+05         0.00000E+00
    0.62635E+05        -0.97447E+08         0.00000E+00
    0.00000E+00         0.00000E+00        -0.62979E+08
 
   -0.62804E+08         0.62305E+05         0.00000E+00
    0.62305E+05        -0.97423E+08         0.00000E+00
    0.00000E+00         0.00000E+00        -0.62801E+08
 
   -0.62621E+08         0.61972E+05         0.00000E+00
    0.61972E+05        -0.97399E+08         0.00000E+00
    0.00000E+00         0.00000E+00        -0.62622E+08
 
   -0.62438E+08         0.61637E+05         0.00000E+00
    0.61637E+05        -0.97376E+08         0.00000E+00
    0.00000E+00         0.00000E+00        -0.62444E+08
 
   -0.62255E+08         0.61300E+05         0.00000E+00
    0.61300E+05        -0.97352E+08         0.00000E+00
    0.00000E+00         0.00000E+00        -0.62266E+08
 
   -0.62073E+08         0.60959E+05         0.00000E+00
    0.60959E+05        -0.97329E+08         0.00000E+00
    0.00000E+00         0.00000E+00        -0.62087E+08
 
   -0.61892E+08         0.60614E+05         0.00000E+00
    0.60614E+05        -0.97306E+08         0.00000E+00
    0.00000E+00         0.00000E+00        -0.61908E+08
 
   -0.61711E+08         0.60263E+05         0.00000E+00
    0.60263E+05        -0.97284E+08         0.00000E+00
    0.00000E+00         0.00000E+00        -0.61729E+08
 
   -0.61531E+08         0.59906E+05         0.00000E+00
    0.59906E+05        -0.97262E+08         0.00000E+00
    0.00000E+00         0.00000E+00        -0.61550E+08
 
   -0.61351E+08         0.59540E+05         0.00000E+00
    0.59540E+05        -0.97240E+08         0.00000E+00
    0.00000E+00         0.00000E+00        -0.61371E+08
 
   -0.61172E+08         0.59164E+05         0.00000E+00
    0.59164E+05        -0.97219E+08         0.00000E+00
    0.00000E+00         0.00000E+00        -0.61190E+08
 
   -0.60993E+08         0.58777E+05         0.00000E+00
    0.58777E+05        -0.97198E+08         0.00000E+00
    0.00000E+00         0.00000E+00        -0.61010E+08
 
   -0.60815E+08         0.58378E+05         0.00000E+00
    0.58378E+05        -0.97178E+08         0.00000E+00
    0.00000E+00         0.00000E+00        -0.60829E+08
 
   -0.60637E+08         0.57965E+05         0.00000E+00
    0.57965E+05        -0.97158E+08         0.00000E+00
    0.00000E+00         0.00000E+00        -0.60647E+08
 
   -0.60460E+08         0.57536E+05         0.00000E+00
    0.57536E+05        -0.97139E+08         0.00000E+00
    0.00000E+00         0.00000E+00        -0.60465E+08
 
   -0.60283E+08         0.57089E+05         0.00000E+00
    0.57089E+05        -0.97121E+08         0.00000E+00
    0.00000E+00         0.00000E+00        -0.60281E+08
 
   -0.60107E+08         0.56623E+05         0.00000E+00
    0.56623E+05        -0.97103E+08         0.00000E+00
    0.00000E+00         0.00000E+00        -0.60097E+08
 
   -0.59932E+08         0.56134E+05         0.00000E+00
    0.56134E+05        -0.97086E+08         0.00000E+00
    0.00000E+00         0.00000E+00        -0.59912E+08
 
   -0.59758E+08         0.55621E+05         0.00000E+00
    0.55621E+05        -0.97069E+08         0.00000E+00
    0.00000E+00         0.00000E+00        -0.59726E+08
 
   -0.59584E+08         0.55079E+05         0.00000E+00
    0.55079E+05        -0.97053E+08         0.00000E+00
    0.00000E+00         0.00000E+00        -0.59538E+08
 
   -0.59412E+08         0.54503E+05         0.00000E+00
    0.54503E+05        -0.97038E+08         0.00000E+00
    0.00000E+00         0.00000E+00        -0.59349E+08
 
   -0.59240E+08         0.53889E+05         0.00000E+00
    0.53889E+05        -0.97024E+08         0.00000E+00
    0.00000E+00         0.00000E+00        -0.59159E+08
 
   -0.59070E+08         0.53226E+05         0.00000E+00
    0.53226E+05        -0.97010E+08         0.00000E+00
    0.00000E+00         0.00000E+00        -0.58967E+08
 
   -0.58900E+08         0.52507E+05         0.00000E+00
    0.52507E+05        -0.96997E+08         0.00000E+00
    0.00000E+00         0.00000E+00        -0.58773E+08
 
   -0.58733E+08         0.51715E+05         0.00000E+00
    0.51715E+05        -0.96985E+08         0.00000E+00
    0.00000E+00         0.00000E+00        -0.58578E+08
 
   -0.58567E+08         0.50834E+05         0.00000E+00
    0.50834E+05        -0.96974E+08         0.00000E+00
    0.00000E+00         0.00000E+00        -0.58379E+08
 
   -0.58404E+08         0.49839E+05         0.00000E+00
    0.49839E+05        -0.96963E+08         0.00000E+00
    0.00000E+00         0.00000E+00        -0.58179E+08
 
   -0.58243E+08         0.48702E+05         0.00000E+00
    0.48702E+05        -0.96954E+08         0.00000E+00
    0.00000E+00         0.00000E+00        -0.57975E+08
 
   -0.58085E+08         0.47384E+05         0.00000E+00
    0.47384E+05        -0.96945E+08         0.00000E+00
    0.00000E+00         0.00000E+00        -0.57767E+08
 
   -0.57930E+08         0.45841E+05         0.00000E+00
    0.45841E+05        -0.96937E+08         0.00000E+00
    0.00000E+00         0.00000E+00        -0.57556E+08
 
   -0.57781E+08         0.44018E+05         0.00000E+00
    0.44018E+05        -0.96930E+08         0.00000E+00
    0.00000E+00         0.00000E+00        -0.57340E+08
 
   -0.57636E+08         0.41852E+05         0.00000E+00
    0.41852E+05        -0.96924E+08         0.00000E+00
    0.00000E+00         0.00000E+00        -0.57118E+08
 
   -0.57499E+08         0.39274E+05         0.00000E+00
    0.39274E+05        -0.96919E+08         0.00000E+00
    0.00000E+00         0.00000E+00        -0.56890E+08
 
   -0.57369E+08         0.36210E+05         0.00000E+00
    0.36210E+05        -0.96915E+08         0.00000E+00
    0.00000E+00         0.00000E+00        -0.56654E+08
 
   -0.57248E+08         0.32593E+05         0.00000E+00
    0.32593E+05        -0.96912E+08         0.00000E+00
    0.00000E+00         0.00000E+00        -0.56409E+08
 
   -0.57139E+08         0.28369E+05         0.00000E+00
    0.28369E+05        -0.96911E+08         0.00000E+00
    0.00000E+00         0.00000E+00        -0.56155E+08
 
   -0.57042E+08         0.23516E+05         0.00000E+00
    0.23516E+05        -0.96911E+08         0.00000E+00
    0.00000E+00         0.00000E+00        -0.55889E+08
 
   -0.56960E+08         0.18056E+05         0.00000E+00
    0.18056E+05        -0.96913E+08         0.00000E+00
    0.00000E+00         0.00000E+00        -0.55610E+08
 
   -0.56895E+08         0.12097E+05         0.00000E+00
    0.12097E+05        -0.96916E+08         0.00000E+00
    0.00000E+00         0.00000E+00        -0.55317E+08
 
   -0.56848E+08         0.57622E+04         0.00000E+00
    0.57622E+04        -0.96921E+08         0.00000E+00
    0.00000E+00         0.00000E+00        -0.55009E+08
 
   -0.56820E+08        -0.59199E+03         0.00000E+00
   -0.59199E+03        -0.96927E+08         0.00000E+00
    0.00000E+00         0.00000E+00        -0.54686E+08
 
   -0.56811E+08        -0.70476E+04         0.00000E+00
   -0.70476E+04        -0.96934E+08         0.00000E+00
    0.00000E+00         0.00000E+00        -0.54347E+08
 
   -0.56821E+08        -0.12486E+05         0.00000E+00
   -0.12486E+05        -0.96942E+08         0.00000E+00
    0.00000E+00         0.00000E+00        -0.53993E+08
 
   -0.56850E+08        -0.19224E+05         0.00000E+00
   -0.19224E+05        -0.96950E+08         0.00000E+00
    0.00000E+00         0.00000E+00        -0.53627E+08
 
   -0.56894E+08        -0.21361E+05         0.00000E+00
   -0.21361E+05        -0.96957E+08         0.00000E+00
    0.00000E+00         0.00000E+00        -0.53250E+08
 
   -0.56954E+08        -0.32930E+05         0.00000E+00
   -0.32930E+05        -0.96964E+08         0.00000E+00
    0.00000E+00         0.00000E+00        -0.52862E+08
 
   -0.57012E+08        -0.40388E+05         0.00000E+00
   -0.40388E+05        -0.97005E+08         0.00000E+00
    0.00000E+00         0.00000E+00        -0.52509E+08
 
   -0.72745E+08        -0.52212E+05         0.00000E+00
   -0.52212E+05        -0.97509E+08         0.00000E+00
    0.00000E+00         0.00000E+00        -0.79236E+08
 
   -0.72797E+08        -0.17808E+04         0.00000E+00
   -0.17808E+04        -0.97631E+08         0.00000E+00
    0.00000E+00         0.00000E+00        -0.78634E+08
 
   -0.72810E+08        -0.71975E+04         0.00000E+00
   -0.71975E+04        -0.97586E+08         0.00000E+00
    0.00000E+00         0.00000E+00        -0.77992E+08
 
   -0.72818E+08        -0.11522E+05         0.00000E+00
   -0.11522E+05        -0.97635E+08         0.00000E+00
    0.00000E+00         0.00000E+00        -0.77356E+08
 
   -0.72809E+08        -0.40756E+03         0.00000E+00
   -0.40756E+03        -0.97637E+08         0.00000E+00
    0.00000E+00         0.00000E+00        -0.76810E+08
 
   -0.72846E+08        -0.11337E+05         0.00000E+00
   -0.11337E+05        -0.97588E+08         0.00000E+00
    0.00000E+00         0.00000E+00        -0.76397E+08
 
   -0.72872E+08        -0.11857E+04         0.00000E+00
   -0.11857E+04        -0.97603E+08         0.00000E+00
    0.00000E+00         0.00000E+00        -0.75985E+08
 
   -0.72864E+08         0.26280E+03         0.00000E+00
    0.26280E+03        -0.97599E+08         0.00000E+00
    0.00000E+00         0.00000E+00        -0.75576E+08
 
   -0.72820E+08         0.51771E+04         0.00000E+00
    0.51771E+04        -0.97600E+08         0.00000E+00
    0.00000E+00         0.00000E+00        -0.75167E+08
 
   -0.72739E+08         0.90262E+04         0.00000E+00
    0.90262E+04        -0.97600E+08         0.00000E+00
    0.00000E+00         0.00000E+00        -0.74760E+08
 
   -0.72623E+08         0.12798E+05         0.00000E+00
    0.12798E+05        -0.97600E+08         0.00000E+00
    0.00000E+00         0.00000E+00        -0.74354E+08
 
   -0.72475E+08         0.16111E+05         0.00000E+00
    0.16111E+05        -0.97600E+08         0.00000E+00
    0.00000E+00         0.00000E+00        -0.73951E+08
 
   -0.72298E+08         0.18993E+05         0.00000E+00
    0.18993E+05        -0.97600E+08         0.00000E+00
    0.00000E+00         0.00000E+00        -0.73549E+08
 
   -0.72098E+08         0.21379E+05         0.00000E+00
    0.21379E+05        -0.97600E+08         0.00000E+00
    0.00000E+00         0.00000E+00        -0.73148E+08
 
   -0.71879E+08         0.23218E+05         0.00000E+00
    0.23218E+05        -0.97600E+08         0.00000E+00
    0.00000E+00         0.00000E+00        -0.72751E+08
 
   -0.71646E+08         0.24521E+05         0.00000E+00
    0.24521E+05        -0.97600E+08         0.00000E+00
    0.00000E+00         0.00000E+00        -0.72355E+08
 
   -0.71404E+08         0.25129E+05         0.00000E+00
    0.25129E+05        -0.97600E+08         0.00000E+00
    0.00000E+00         0.00000E+00        -0.71961E+08
 
   -0.71160E+08         0.24362E+05         0.00000E+00
    0.24362E+05        -0.97600E+08         0.00000E+00
    0.00000E+00         0.00000E+00        -0.71570E+08
 
   -0.70917E+08         0.26492E+05         0.00000E+00
    0.26492E+05        -0.97599E+08         0.00000E+00
    0.00000E+00         0.00000E+00        -0.71181E+08
 
   -0.70688E+08         0.17332E+05         0.00000E+00
    0.17332E+05        -0.97592E+08         0.00000E+00
    0.00000E+00         0.00000E+00        -0.70814E+08
 
   -0.70473E+08         0.18102E+05         0.00000E+00
    0.18102E+05        -0.97596E+08         0.00000E+00
    0.00000E+00         0.00000E+00        -0.70506E+08
 
   -0.70250E+08         0.23703E+05         0.00000E+00
    0.23703E+05        -0.97602E+08         0.00000E+00
    0.00000E+00         0.00000E+00        -0.70236E+08
 
   -0.70015E+08         0.23354E+05         0.00000E+00
    0.23354E+05        -0.97600E+08         0.00000E+00
    0.00000E+00         0.00000E+00        -0.69969E+08
 
   -0.69776E+08         0.24220E+05         0.00000E+00
    0.24220E+05        -0.97601E+08         0.00000E+00
    0.00000E+00         0.00000E+00        -0.69704E+08
 
   -0.69532E+08         0.24577E+05         0.00000E+00
    0.24577E+05        -0.97601E+08         0.00000E+00
    0.00000E+00         0.00000E+00        -0.69441E+08
 
   -0.69285E+08         0.24890E+05         0.00000E+00
    0.24890E+05        -0.97601E+08         0.00000E+00
    0.00000E+00         0.00000E+00        -0.69179E+08
 
   -0.69035E+08         0.25097E+05         0.00000E+00
    0.25097E+05        -0.97601E+08         0.00000E+00
    0.00000E+00         0.00000E+00        -0.68919E+08
 
   -0.68785E+08         0.25253E+05         0.00000E+00
    0.25253E+05        -0.97600E+08         0.00000E+00
    0.00000E+00         0.00000E+00        -0.68659E+08
 
   -0.68533E+08         0.25375E+05         0.00000E+00
    0.25375E+05        -0.97600E+08         0.00000E+00
    0.00000E+00         0.00000E+00        -0.68400E+08
 
   -0.68280E+08         0.25485E+05         0.00000E+00
    0.25485E+05        -0.97600E+08         0.00000E+00
    0.00000E+00         0.00000E+00        -0.68141E+08
 
   -0.68027E+08         0.25596E+05         0.00000E+00
    0.25596E+05        -0.97600E+08         0.00000E+00
    0.00000E+00         0.00000E+00        -0.67882E+08
 
   -0.67772E+08         0.25728E+05         0.00000E+00
    0.25728E+05        -0.97600E+08         0.00000E+00
    0.00000E+00         0.00000E+00        -0.67623E+08
 
   -0.67517E+08         0.25874E+05         0.00000E+00
    0.25874E+05        -0.97600E+08         0.00000E+00
    0.00000E+00         0.00000E+00        -0.67365E+08
 
   -0.67261E+08         0.26142E+05         0.00000E+00
    0.26142E+05        -0.97600E+08         0.00000E+00
    0.00000E+00         0.00000E+00        -0.67107E+08
 
   -0.67004E+08         0.26193E+05         0.00000E+00
    0.26193E+05        -0.97601E+08         0.00000E+00
    0.00000E+00         0.00000E+00        -0.66849E+08
 
   -0.66747E+08         0.27808E+05         0.00000E+00
    0.27808E+05        -0.97599E+08         0.00000E+00
    0.00000E+00         0.00000E+00        -0.66591E+08
 
   -0.66500E+08         0.23374E+05         0.00000E+00
    0.23374E+05        -0.97597E+08         0.00000E+00
    0.00000E+00         0.00000E+00        -0.66344E+08
 
   -0.66273E+08         0.19981E+05         0.00000E+00
    0.19981E+05        -0.97599E+08         0.00000E+00
    0.00000E+00         0.00000E+00        -0.66123E+08
 
   -0.66055E+08         0.21568E+05         0.00000E+00
    0.21568E+05        -0.97601E+08         0.00000E+00
    0.00000E+00         0.00000E+00        -0.65913E+08
 
   -0.65837E+08         0.21452E+05         0.00000E+00
    0.21452E+05        -0.97600E+08         0.00000E+00
    0.00000E+00         0.00000E+00        -0.65704E+08
 
   -0.65619E+08         0.21610E+05         0.00000E+00
    0.21610E+05        -0.97600E+08         0.00000E+00
    0.00000E+00         0.00000E+00        -0.65495E+08
 
   -0.65402E+08         0.21652E+05         0.00000E+00
    0.21652E+05        -0.97600E+08         0.00000E+00
    0.00000E+00         0.00000E+00        -0.65287E+08
 
   -0.65184E+08         0.21686E+05         0.00000E+00
    0.21686E+05        -0.97600E+08         0.00000E+00
    0.00000E+00         0.00000E+00        -0.65079E+08
 
   -0.64967E+08         0.21692E+05         0.00000E+00
    0.21692E+05        -0.97600E+08         0.00000E+00
    0.00000E+00         0.00000E+00        -0.64871E+08
 
   -0.64750E+08         0.21678E+05         0.00000E+00
    0.21678E+05        -0.97600E+08         0.00000E+00
    0.00000E+00         0.00000E+00        -0.64664E+08
 
   -0.64534E+08         0.21647E+05         0.00000E+00
    0.21647E+05        -0.97600E+08         0.00000E+00
    0.00000E+00         0.00000E+00        -0.64457E+08
 
   -0.64318E+08         0.21602E+05         0.00000E+00
    0.21602E+05        -0.97600E+08         0.00000E+00
    0.00000E+00         0.00000E+00        -0.64250E+08
 
   -0.64112E+08         0.21536E+05         0.00000E+00
    0.21536E+05        -0.97591E+08         0.00000E+00
    0.00000E+00         0.00000E+00        -0.64054E+08
 
   -0.63921E+08         0.21444E+05         0.00000E+00
    0.21444E+05        -0.97569E+08         0.00000E+00
    0.00000E+00         0.00000E+00        -0.63872E+08
 
   -0.63733E+08         0.21343E+05         0.00000E+00
    0.21343E+05        -0.97544E+08         0.00000E+00
    0.00000E+00         0.00000E+00        -0.63693E+08
 
   -0.63546E+08         0.21238E+05         0.00000E+00
    0.21238E+05        -0.97520E+08         0.00000E+00
    0.00000E+00         0.00000E+00        -0.63514E+08
 
   -0.63360E+08         0.21131E+05         0.00000E+00
    0.21131E+05        -0.97496E+08         0.00000E+00
    0.00000E+00         0.00000E+00        -0.63335E+08
 
   -0.63174E+08         0.21022E+05         0.00000E+00
    0.21022E+05        -0.97472E+08         0.00000E+00
    0.00000E+00         0.00000E+00        -0.63157E+08
 
   -0.62989E+08         0.20912E+05         0.00000E+00
    0.20912E+05        -0.97447E+08         0.00000E+00
    0.00000E+00         0.00000E+00        -0.62978E+08
 
   -0.62805E+08         0.20801E+05         0.00000E+00
    0.20801E+05        -0.97423E+08         0.00000E+00
    0.00000E+00         0.00000E+00        -0.62800E+08
 
   -0.62621E+08         0.20688E+05         0.00000E+00
    0.20688E+05        -0.97400E+08         0.00000E+00
    0.00000E+00         0.00000E+00        -0.62622E+08
 
   -0.62438E+08         0.20575E+05         0.00000E+00
    0.20575E+05        -0.97376E+08         0.00000E+00
    0.00000E+00         0.00000E+00        -0.62444E+08
 
   -0.62255E+08         0.20460E+05         0.00000E+00
    0.20460E+05        -0.97353E+08         0.00000E+00
    0.00000E+00         0.00000E+00        -0.62266E+08
 
   -0.62074E+08         0.20344E+05         0.00000E+00
    0.20344E+05        -0.97330E+08         0.00000E+00
    0.00000E+00         0.00000E+00        -0.62087E+08
 
   -0.61892E+08         0.20227E+05         0.00000E+00
    0.20227E+05        -0.97307E+08         0.00000E+00
    0.00000E+00         0.00000E+00        -0.61909E+08
 
   -0.61711E+08         0.20107E+05         0.00000E+00
    0.20107E+05        -0.97285E+08         0.00000E+00
    0.00000E+00         0.00000E+00        -0.61730E+08
 
   -0.61531E+08         0.19984E+05         0.00000E+00
    0.19984E+05        -0.97263E+08         0.00000E+00
    0.00000E+00         0.00000E+00        -0.61551E+08
 
   -0.61351E+08         0.19858E+05         0.00000E+00
    0.19858E+05        -0.97241E+08         0.00000E+00
    0.00000E+00         0.00000E+00        -0.61371E+08
 
   -0.61172E+08         0.19729E+05         0.00000E+00
    0.19729E+05        -0.97220E+08         0.00000E+00
    0.00000E+00         0.00000E+00        -0.61191E+08
 
   -0.60993E+08         0.19596E+05         0.00000E+00
    0.19596E+05        -0.97199E+08         0.00000E+00
    0.00000E+00         0.00000E+00        -0.61011E+08
 
   -0.60815E+08         0.19459E+05         0.00000E+00
    0.19459E+05        -0.97179E+08         0.00000E+00
    0.00000E+00         0.00000E+00        -0.60830E+08
 
   -0.60637E+08         0.19316E+05         0.00000E+00
    0.19316E+05        -0.97160E+08         0.00000E+00
    0.00000E+00         0.00000E+00        -0.60648E+08
 
   -0.60460E+08         0.19168E+05         0.00000E+00
    0.19168E+05        -0.97141E+08         0.00000E+00
    0.00000E+00         0.00000E+00        -0.60466E+08
 
   -0.60284E+08         0.19014E+05         0.00000E+00
    0.19014E+05        -0.97122E+08         0.00000E+00
    0.00000E+00         0.00000E+00        -0.60282E+08
 
   -0.60108E+08         0.18853E+05         0.00000E+00
    0.18853E+05        -0.97105E+08         0.00000E+00
    0.00000E+00         0.00000E+00        -0.60098E+08
 
   -0.59933E+08         0.18685E+05         0.00000E+00
    0.18685E+05        -0.97088E+08         0.00000E+00
    0.00000E+00         0.00000E+00        -0.59913E+08
 
   -0.59759E+08         0.18508E+05         0.00000E+00
    0.18508E+05        -0.97071E+08         0.00000E+00
    0.00000E+00         0.00000E+00        -0.59727E+08
 
   -0.59585E+08         0.18321E+05         0.00000E+00
    0.18321E+05        -0.97056E+08         0.00000E+00
    0.00000E+00         0.00000E+00        -0.59539E+08
 
   -0.59413E+08         0.18123E+05         0.00000E+00
    0.18123E+05        -0.97041E+08         0.00000E+00
    0.00000E+00         0.00000E+00        -0.59350E+08
 
   -0.59241E+08         0.17912E+05         0.00000E+00
    0.17912E+05        -0.97026E+08         0.00000E+00
    0.00000E+00         0.00000E+00        -0.59160E+08
 
   -0.59071E+08         0.17686E+05         0.00000E+00
    0.17686E+05        -0.97013E+08         0.00000E+00
    0.00000E+00         0.00000E+00        -0.58968E+08
 
   -0.58902E+08         0.17439E+05         0.00000E+00
    0.17439E+05        -0.97000E+08         0.00000E+00
    0.00000E+00         0.00000E+00        -0.58774E+08
 
   -0.58735E+08         0.17168E+05         0.00000E+00
    0.17168E+05        -0.96988E+08         0.00000E+00
    0.00000E+00         0.00000E+00        -0.58578E+08
 
   -0.58570E+08         0.16867E+05         0.00000E+00
    0.16867E+05        -0.96977E+08         0.00000E+00
    0.00000E+00         0.00000E+00        -0.58380E+08
 
   -0.58406E+08         0.16526E+05         0.00000E+00
    0.16526E+05        -0.96967E+08         0.00000E+00
    0.00000E+00         0.00000E+00        -0.58179E+08
 
   -0.58246E+08         0.16136E+05         0.00000E+00
    0.16136E+05        -0.96957E+08         0.00000E+00
    0.00000E+00         0.00000E+00        -0.57975E+08
 
   -0.58088E+08         0.15683E+05         0.00000E+00
    0.15683E+05        -0.96949E+08         0.00000E+00
    0.00000E+00         0.00000E+00        -0.57767E+08
 
   -0.57935E+08         0.15149E+05         0.00000E+00
    0.15149E+05        -0.96941E+08         0.00000E+00
    0.00000E+00         0.00000E+00        -0.57555E+08
 
   -0.57785E+08         0.14515E+05         0.00000E+00
    0.14515E+05        -0.96934E+08         0.00000E+00
    0.00000E+00         0.00000E+00        -0.57339E+08
 
   -0.57642E+08         0.13758E+05         0.00000E+00
    0.13758E+05        -0.96928E+08         0.00000E+00
    0.00000E+00         0.00000E+00        -0.57117E+08
 
   -0.57504E+08         0.12850E+05         0.00000E+00
    0.12850E+05        -0.96923E+08         0.00000E+00
    0.00000E+00         0.00000E+00        -0.56888E+08
 
   -0.57375E+08         0.11765E+05         0.00000E+00
    0.11765E+05        -0.96919E+08         0.00000E+00
    0.00000E+00         0.00000E+00        -0.56651E+08
 
   -0.57256E+08         0.10476E+05         0.00000E+00
    0.10476E+05        -0.96917E+08         0.00000E+00
    0.00000E+00         0.00000E+00        -0.56406E+08
 
   -0.57148E+08         0.89623E+04         0.00000E+00
    0.89623E+04        -0.96915E+08         0.00000E+00
    0.00000E+00         0.00000E+00        -0.56150E+08
 
   -0.57053E+08         0.72139E+04         0.00000E+00
    0.72139E+04        -0.96916E+08         0.00000E+00
    0.00000E+00         0.00000E+00        -0.55882E+08
 
   -0.56974E+08         0.52440E+04         0.00000E+00
    0.52440E+04        -0.96917E+08         0.00000E+00
    0.00000E+00         0.00000E+00        -0.55601E+08
 
   -0.56912E+08         0.30787E+04         0.00000E+00
    0.30787E+04        -0.96921E+08         0.00000E+00
    0.00000E+00         0.00000E+00        -0.55305E+08
 
   -0.56868E+08         0.80999E+03         0.00000E+00
    0.80999E+03        -0.96925E+08         0.00000E+00
    0.00000E+00         0.00000E+00        -0.54994E+08
 
   -0.56844E+08        -0.15499E+04         0.00000E+00
   -0.15499E+04        -0.96931E+08         0.00000E+00
    0.00000E+00         0.00000E+00        -0.54667E+08
 
   -0.56841E+08        -0.36924E+04         0.00000E+00
   -0.36924E+04        -0.96937E+08         0.00000E+00
    0.00000E+00         0.00000E+00        -0.54323E+08
 
   -0.56857E+08        -0.61819E+04         0.00000E+00
   -0.61819E+04        -0.96945E+08         0.00000E+00
    0.00000E+00         0.00000E+00        -0.53965E+08
 
   -0.56891E+08        -0.71827E+04         0.00000E+00
   -0.71827E+04        -0.96948E+08         0.00000E+00
    0.00000E+00         0.00000E+00        -0.53590E+08
 
   -0.56947E+08        -0.12513E+05         0.00000E+00
   -0.12513E+05        -0.96963E+08         0.00000E+00
    0.00000E+00         0.00000E+00        -0.53211E+08
 
   -0.57007E+08        -0.47644E+04         0.00000E+00
   -0.47644E+04        -0.96944E+08         0.00000E+00
    0.00000E+00         0.00000E+00        -0.52802E+08
 
   -0.57111E+08        -0.45478E+05         0.00000E+00
   -0.45478E+05        -0.97013E+08         0.00000E+00
    0.00000E+00         0.00000E+00        -0.52435E+08
 
SCALARS stresss double 
LOOKUP_TABLE default
  -84606671.0997962     
  -84265659.4336558     
  -83945194.1737092     
  -83642569.7028432     
  -83356461.6860554     
  -83083825.3209468     
  -82822099.3836161     
  -82568928.4292083     
  -82322459.6105676     
  -82081317.4036284     
  -81844605.4653860     
  -81611913.7133737     
  -81383302.6447501     
  -81159619.6443839     
  -80943460.2142744     
  -80757240.3694506     
  -80607583.9611920     
  -80455709.4519996     
  -80297375.5020280     
  -80134354.5951656     
  -79967788.8809047     
  -79798251.2694212     
  -79626091.7004091     
  -79451589.5303618     
  -79275015.6294146     
  -79096646.6359250     
  -78916770.2804994     
  -78735685.7902181     
  -78553702.6936650     
  -78371138.8660316     
  -78188317.4366854     
  -78005563.7168082     
  -77823195.1546346     
  -77641521.0341650     
  -77460789.6607681     
  -77281304.2367709     
  -77103401.5638073     
  -76933578.3847431     
  -76772826.9423687     
  -76613991.8717119     
  -76456813.2784506     
  -76301024.6310087     
  -76146487.2948819     
  -75993050.7620573     
  -75840595.1922647     
  -75689017.1767257     
  -75538233.2232928     
  -75388899.3072494     
  -75247112.0453492     
  -75109854.2776797     
  -74973261.9958400     
  -74837284.2914398     
  -74701879.7864404     
  -74567014.7501074     
  -74432661.6632382     
  -74298798.1589985     
  -74165406.2763968     
  -74032471.9683761     
  -73899984.8174893     
  -73767937.9226798     
  -73636327.9308576     
  -73505155.1958687     
  -73374424.0550786     
  -73244143.2200997     
  -73114326.2831212     
  -72984992.3437574     
  -72856166.7630956     
  -72727882.0512835     
  -72600178.8918943     
  -72473107.2996507     
  -72346727.8966872     
  -72221113.2749932     
  -72096349.3873498     
  -71972536.8740312     
  -71849792.1858751     
  -71728248.3041659     
  -71608054.7828851     
  -71489376.7489892     
  -71372392.3932109     
  -71257288.3715718     
  -71144252.4264005     
  -71033462.4367602     
  -70925071.0542942     
  -70819185.0826202     
  -70715838.9372486     
  -70614961.7764413     
  -70516338.8477705     
  -70419568.0807098     
  -70324016.9401118     
  -70228782.3331769     
  -70132675.0399694     
  -70034216.1319221     
  -69931738.7343994     
  -69823405.8140339     
  -69707673.1142662     
  -69582734.4775643     
  -69448656.5923689     
  -69302092.4824081     
  -69150386.5577334     
  -68968833.6876285     
  -84566390.1676743     
  -84241440.6663708     
  -83924999.6198011     
  -83626061.9350697     
  -83342136.3834898     
  -83071288.0264253     
  -82810989.3753863     
  -82559091.0274117     
  -82313801.7459870     
  -82073801.3835250     
  -81838235.3200654     
  -81606702.1161851     
  -81379385.0161377     
  -81156974.9248407     
  -80943177.6902924     
  -80753613.8148783     
  -80595402.4395557     
  -80441373.8470904     
  -80282081.1684709     
  -80118613.5775183     
  -79951852.3158052     
  -79782310.7272698     
  -79610287.0662801     
  -79436033.8733095     
  -79259800.0219944     
  -79081846.7329513     
  -78902449.4205801     
  -78721897.6427446     
  -78540493.2365973     
  -78358547.8951528     
  -78176380.6823518     
  -77994312.9300890     
  -77812665.9190981     
  -77631741.7653068     
  -77451845.1649960     
  -77273206.9532425     
  -77096865.5821775     
  -76927601.8911143     
  -76766037.7675523     
  -76607239.2436022     
  -76450099.8382950     
  -76294453.2732458     
  -76140085.8895425     
  -75986850.4197120     
  -75834614.3657431     
  -75683270.6930515     
  -75532731.3117475     
  -75383683.6055158     
  -75242157.8357958     
  -75105111.1434983     
  -74968723.2851444     
  -74832943.2180292     
  -74697729.3783814     
  -74563047.8013784     
  -74428870.6810961     
  -74295175.3088750     
  -74161943.3226541     
  -74029160.2101609     
  -73896815.0184642     
  -73764900.2334961     
  -73633411.8031903     
  -73502349.2868994     
  -73371716.1214212     
  -73241520.0003576     
  -73111773.3685842     
  -72982494.0372228     
  -72853705.9265099     
  -72725439.9438787     
  -72597735.0018618     
  -72470639.1742035     
  -72344210.9777286     
  -72218520.7506190     
  -72093652.0731430     
  -71969703.1426168     
  -71846787.9684602     
  -71725037.1936942     
  -71604598.2746681     
  -71485634.6607860     
  -71368323.5115034     
  -71252851.3736107     
  -71139407.1239422     
  -71028171.3800091     
  -70919301.5018547     
  -70812911.3222927     
  -70709044.8013057     
  -70607643.2422426     
  -70508505.9496678     
  -70411246.2981881     
  -70315244.4517492     
  -70219607.7216865     
  -70123135.9316935     
  -70024339.7541914     
  -69921444.7015879     
  -69812606.5724086     
  -69695799.5841518     
  -69569625.2717164     
  -69431916.6396905     
  -69282698.8855692     
  -69118156.0131866     
  -68922373.2557341     
  -84529118.2648191     
  -84215554.4951144     
  -83904476.7781920     
  -83608835.8094272     
  -83327351.7374900     
  -83058342.7792652     
  -82799582.2795730     
  -82549026.5050180     
  -82304974.9421201     
  -82066155.9533747     
  -81831748.8422626     
  -81601393.0743607     
  -81375282.8695626     
  -81154257.5222817     
  -80941930.9113110     
  -80749089.7171397     
  -80584321.2802365     
  -80427821.4687369     
  -80267524.3308582     
  -80103493.8528346     
  -79936482.6933399     
  -79766884.0156608     
  -79594954.0435432     
  -79420910.5933342     
  -79244981.2749365     
  -79067410.5074137     
  -78888461.0749478     
  -78708412.4430070     
  -78527558.4266184     
  -78346204.5482797     
  -78164665.0627803     
  -77983259.2453663     
  -77802306.7747121     
  -77622119.3771536     
  -77443010.6073344     
  -77265270.9304490     
  -77090171.2357457     
  -76921424.6318391     
  -76759429.0139672     
  -76600574.0752316     
  -76443511.9671683     
  -76287997.1857785     
  -76133803.9030476     
  -75980767.3004868     
  -75828749.5041225     
  -75677637.5354202     
  -75527339.6594686     
  -75378572.9042270     
  -75237303.8896691     
  -75100465.4096259     
  -74964278.9853166     
  -74828693.5010231     
  -74693667.2643738     
  -74559166.1218237     
  -74425162.0192233     
  -74291631.9383259     
  -74158557.1438361     
  -74025922.6828370     
  -73893717.0893049     
  -73761932.2571955     
  -73630563.4558098     
  -73499609.4701604     
  -73369072.8567994     
  -73238960.3120371     
  -73109283.1546424     
  -72980057.9288864     
  -72851307.1360129     
  -72723060.1024040     
  -72595353.9903724     
  -72468234.9517334     
  -72341759.4140008     
  -72215995.4728059     
  -72091024.3402256     
  -71966941.7652199     
  -71843859.2972040     
  -71721905.2048908     
  -71601224.7883505     
  -71481979.7319477     
  -71364346.0404254     
  -71248509.9830174     
  -71134661.3493673     
  -71022983.2061606     
  -70913637.2620190     
  -70806743.9127985     
  -70702356.1424493     
  -70600426.6500302     
  -70500768.2600012     
  -70403008.3244469     
  -70306540.3626674     
  -70210477.1168242     
  -70113617.0502444     
  -70014433.6649120     
  -69911110.5316964     
  -69801636.9831700     
  -69683894.7687185     
  -69556010.7309424     
  -69415560.4228505     
  -69262100.4064360     
  -69086790.4333781     
  -68883044.7457089     
  -84494013.3587828     
  -84188870.3216172     
  -83883384.6610384     
  -83591044.3456685     
  -83312084.6520504     
  -83045017.3078557     
  -82787879.6117063     
  -82538740.6340617     
  -82295981.2615402     
  -82058380.3024762     
  -81825150.6724033     
  -81595970.5354922     
  -81371031.5579549     
  -81151352.4783024     
  -80939973.4207654     
  -80743900.5136654     
  -80573929.5702912     
  -80415098.6372977     
  -80253648.0299311     
  -80088985.3749370     
  -79921661.2853315     
  -79751959.3502822     
  -79580081.6124416     
  -79406210.8348918     
  -79230551.8612466     
  -79053331.7353965     
  -78874800.1051861     
  -78695225.9802168     
  -78514894.9116220     
  -78334105.9890949     
  -78153168.7317880     
  -77972399.9291390     
  -77792118.6700480     
  -77612644.9433964     
  -77434300.5805137     
  -77257447.6102651     
  -77083364.3168669     
  -76915119.3704022     
  -76752934.4556137     
  -76594013.7998168     
  -76437036.9320840     
  -76281656.8796262     
  -76127637.8783345     
  -75974799.9822453     
  -75822998.9069113     
  -75672116.4617450     
  -75522057.1683233     
  -75373566.6662402     
  -75232550.0155083     
  -75095916.8762559     
  -74959928.8930541     
  -74824534.9440666     
  -74689693.2613314     
  -74555369.5475050     
  -74421535.5373080     
  -74288167.9343997     
  -74155247.6574262     
  -74022759.3370035     
  -73890691.0161919     
  -73759034.0179733     
  -73627782.9534836     
  -73496935.8538107     
  -73366494.4159658     
  -73236464.3601636     
  -73106855.9008114     
  -72977684.3375351     
  -72848970.7749719     
  -72720742.9805342     
  -72593036.3873424     
  -72465895.2441925     
  -72339373.9046326     
  -72213538.2316139     
  -72088467.0709668     
  -71964253.7142308     
  -71841007.2269276     
  -71718853.4601356     
  -71597935.4893632     
  -71478413.1342984     
  -71360461.1064787     
  -71244265.2122669     
  -71130015.9121174     
  -71017898.4159445     
  -70908078.3962605     
  -70800682.3553894     
  -70695771.7319192     
  -70593310.0360916     
  -70493122.7955717     
  -70394850.9097776     
  -70297899.8742321     
  -70201388.9901245     
  -70104111.3988015     
  -70004511.8437776     
  -69900716.6383122     
  -69790580.1914794     
  -69671859.6356287     
  -69542213.1451010     
  -69399256.3054042     
  -69240891.3553628     
  -69057213.6470917     
  -68849269.7728735     
  -84460512.2477251     
  -84161825.7730223     
  -83861703.8697274     
  -83572738.6086448     
  -83296352.9609379     
  -83031323.7410242     
  -82775889.5186893     
  -82528237.8982449     
  -82286823.7091659     
  -82050475.6496103     
  -81818442.2895153     
  -81590429.0713920     
  -81366647.0852287     
  -81148184.7036895     
  -80937566.5915187     
  -80738119.7333432     
  -80563978.6872169     
  -80403207.4010172     
  -80240405.1127507     
  -80075073.6234966     
  -79907369.2583979     
  -79737524.3305541     
  -79565658.3815552     
  -79391925.4747119     
  -79216504.0347445     
  -79039604.0379524     
  -78861461.2426910     
  -78682333.9674397     
  -78502499.2196865     
  -78322249.4529909     
  -78141889.4423807     
  -77961733.1291640     
  -77782100.0974207     
  -77603315.4216264     
  -77425716.1236965     
  -77249715.5742157     
  -77076475.1044496     
  -76908732.2305053     
  -76746523.7964841     
  -76587557.9058651     
  -76430670.1559297     
  -76275429.7452018     
  -76121585.6957086     
  -75968946.6503426     
  -75817361.1110947     
  -75666706.2215373     
  -75516882.8074417     
  -75368664.3746168     
  -75227896.0415460     
  -75091465.3564976     
  -74955672.8181848     
  -74820467.3618718     
  -74685807.1961586     
  -74551657.9231979     
  -74417991.1026688     
  -74284783.1907226     
  -74152014.7865010     
  -74019670.1279016     
  -73887736.7890193     
  -73756205.5428137     
  -73625070.3628287     
  -73494328.5468888     
  -73363980.9535337     
  -73234032.3485381     
  -73104491.8642235     
  -72975373.5783338     
  -72846697.2218243     
  -72718489.0256643     
  -72590782.7150737     
  -72463620.6546945     
  -72337055.1389465     
  -72211149.8068075     
  -72085981.1377468     
  -71961639.9535843     
  -71838232.8073483     
  -71715883.0826315     
  -71594731.5534756     
  -71474936.0642473     
  -71356669.8814619     
  -71240118.1474416     
  -71125471.7347988     
  -71012917.6719205     
  -70902625.1989733     
  -70794726.4506700     
  -70689290.7771543     
  -70586291.8904689     
  -70485567.3974180     
  -70386771.1530637     
  -70289320.1301487     
  -70192340.2672785     
  -70094618.8163872     
  -69994575.7548613     
  -69890273.2584434     
  -69779459.2163615     
  -69659710.1710121     
  -69528366.4278633     
  -69382900.2013474     
  -69219638.3841497     
  -69029811.3822047     
  -68819932.3040544     
  -84428217.9779056     
  -84134636.8728767     
  -83839487.7066716     
  -83553943.8422229     
  -83280180.4526998     
  -83017273.1574402     
  -82763620.8559988     
  -82517523.6037235     
  -82277505.7160300     
  -82042444.7239948     
  -81811623.4165493     
  -81584772.4547609     
  -81362121.0422100     
  -81144762.8722112     
  -80934767.3205375     
  -80733774.1466151     
  -80554999.2937526     
  -80391890.9388845     
  -80227834.7936579     
  -80061712.7250602     
  -79893597.2433248     
  -79723562.6511870     
  -79551673.7623916     
  -79378044.7418164     
  -79202829.9837768     
  -79026220.8459420     
  -78848439.1245155     
  -78669732.0309157     
  -78490367.8183101     
  -78310632.1381399     
  -78130824.8597135     
  -77951257.1499607     
  -77772248.8207874     
  -77594130.0413702     
  -77417251.5195590     
  -77242071.8124667     
  -77069519.4584822     
  -76902295.7861886     
  -76740185.3652382     
  -76581199.1832573     
  -76424409.6640465     
  -76269312.5503532     
  -76115645.5415411     
  -75963205.5160545     
  -75811834.7321382     
  -75661405.6191500     
  -75511815.5917123     
  -75363865.5400350     
  -75223341.8108445     
  -75087110.6770233     
  -74951510.5825729     
  -74816490.5800099     
  -74682008.9054343     
  -74548031.1022944     
  -74414528.5902269     
  -74281477.6075678     
  -74148858.4598598     
  -74016655.0155943     
  -73884854.4016089     
  -73753446.8617251     
  -73622425.7525584     
  -73491787.6595587     
  -73361532.6242096     
  -73231664.4799483     
  -73102191.2998056     
  -72973125.9629612     
  -72844486.8501603     
  -72716298.6789338     
  -72588593.4882111     
  -72461411.7774007     
  -72334803.7962793     
  -72208830.9676181     
  -72083567.4026739     
  -71959101.4384623     
  -71835537.0827995     
  -71712995.1962070     
  -71591614.1667194     
  -71471549.7430085     
  -71352973.5828362     
  -71236069.9494940     
  -71121029.8537976     
  -71008041.8028079     
  -70897278.1947299     
  -70788876.3163442     
  -70682912.8909024     
  -70579371.2488077     
  -70478100.5239931     
  -70378767.0145470     
  -70280799.0237728     
  -70183329.0800636     
  -70085139.8394531     
  -69984627.5358170     
  -69879793.6209273     
  -69768287.6796662     
  -69647492.7651246     
  -69514529.9542117     
  -69366531.5432289     
  -69198796.0357957     
  -69004683.8797639     
  -68794226.9352443     
  -84396837.6957228     
  -84107402.7599379     
  -83816803.4443221     
  -83534681.9748260     
  -83263588.9869132     
  -83002877.7599052     
  -82751082.5990188     
  -82506603.7821686     
  -82268031.6430850     
  -82034290.1567737     
  -81804696.7217738     
  -81579000.0252570     
  -81357459.1519166     
  -81141074.0464289     
  -80931699.5883114     
  -80730098.9623348     
  -80546602.4492617     
  -80381210.5102326     
  -80215869.3342588     
  -80048890.2330878     
  -79880323.8868156     
  -79710061.3108486     
  -79538115.6004578     
  -79364559.0376496     
  -79189521.5803256     
  -79013175.5049697     
  -78835728.2780157     
  -78657415.7293531     
  -78478497.1357309     
  -78299251.1744696     
  -78119972.7136380     
  -77940970.0198441     
  -77762563.2535498     
  -77585086.3470773     
  -77408905.5354244     
  -77234502.5678094     
  -77062731.9142044     
  -76895912.2000474     
  -76733888.1306297     
  -76574939.1042047     
  -76418250.4616341     
  -76263303.4219013     
  -76109815.2521125     
  -75957575.0352433     
  -75806418.3979818     
  -75656213.5365076     
  -75506854.5769346     
  -75359169.7026005     
  -75218887.1793675     
  -75082852.6775630     
  -74947442.0194862     
  -74812604.4345374     
  -74678298.2351654     
  -74544488.9466839     
  -74411147.8824896     
  -74278251.0919197     
  -74145778.6121542     
  -74013713.9651441     
  -73882043.8519229     
  -73750758.0079770     
  -73619849.1937297     
  -73489313.3033560     
  -73359149.5830311     
  -73229360.9563876     
  -73099954.4604675     
  -72970941.7997586     
  -72842340.0288257     
  -72714172.3752717     
  -72586469.2137265     
  -72459269.1974404     
  -72332620.5458345     
  -72206582.4725359     
  -72081226.7173305     
  -71956639.1150102     
  -71832921.0919540     
  -71710190.9250828     
  -71588584.5252632     
  -71468255.4166238     
  -71349373.4740574     
  -71232121.8547674     
  -71116691.4205832     
  -71003271.8044502     
  -70892038.1417884     
  -70783132.3868546     
  -70676638.1012695     
  -70572547.6821074     
  -70470721.2822453     
  -70370837.2728963     
  -70272335.2632749     
  -70174354.7475447     
  -70075675.4410391     
  -69974671.3154019     
  -69869289.4824352     
  -69757082.3117737     
  -69635254.8053502     
  -69500744.2784407     
  -69350263.8834662     
  -69178695.1873141     
  -68981786.9615253     
  -68771559.9711042     
  -84366146.6799310     
  -84080159.4412407     
  -83793711.0329538     
  -83514976.0869350     
  -83246597.9084417     
  -82988150.5119034     
  -82738283.9790539     
  -82495485.1980140     
  -82258406.3448555     
  -82026015.7727434     
  -81797664.1253128     
  -81573116.8903536     
  -81352652.9925908     
  -81137162.7538959     
  -80928315.0069883     
  -80726340.4379140     
  -80539348.1565745     
  -80371234.1370910     
  -80204438.8631796     
  -80036592.0150748     
  -79867527.9119438     
  -79697006.5793736     
  -79524971.5893664     
  -79351458.4846864     
  -79176570.5594473     
  -79000461.2372144     
  -78823323.1521033     
  -78645380.5669650     
  -78466883.5579453     
  -78288103.6836502     
  -78109330.6742372     
  -77930869.8800268     
  -77753041.4412420     
  -77576183.1060350     
  -77400673.2047884     
  -77227008.9777160     
  -77056036.5100725     
  -76889574.5189540     
  -76727637.4574894     
  -76568769.5377177     
  -76412190.8123557     
  -76257399.6799238     
  -76104093.0793781     
  -75952053.6453132     
  -75801110.8439015     
  -75651128.9025007     
  -75501998.8722816     
  -75354576.4284479     
  -75214532.0167953     
  -75078691.2095371     
  -74943466.9732543     
  -74808808.7715452     
  -74674675.0405768     
  -74541031.3266319     
  -74407848.8695385     
  -74275103.5575381     
  -74142775.1840169     
  -74010846.9467912     
  -73879305.1422775     
  -73748139.0183355     
  -73617340.7599915     
  -73486905.5914406     
  -73356831.9856114     
  -73227121.9792816     
  -73097781.5973036     
  -72968821.3938973     
  -72840257.1220451     
  -72712110.5434701     
  -72584410.3909335     
  -72457193.4908614     
  -72330506.0465710     
  -72204405.0691376     
  -72078959.9225452     
  -71954253.9200723     
  -71830385.8675432     
  -71707471.3936087     
  -71585643.8352079     
  -71465054.3558664     
  -71345870.8646465     
  -71228275.1753047     
  -71112457.7023186     
  -70998608.8407391     
  -70886906.0336175     
  -70777495.4146014     
  -70670466.8555976     
  -70565821.2942398     
  -70463429.4438163     
  -70362981.4927112     
  -70263928.4593486     
  -70165417.5837270     
  -70066227.4254295     
  -69964712.5335580     
  -69858771.8676113     
  -69745863.4990330     
  -69623038.0408816     
  -69487053.3893802     
  -69334237.6339566     
  -69159559.1737421     
  -68961009.1934256     
  -68751484.6893603     
  -84335966.5384335     
  -84052908.1811131     
  -83770257.0116571     
  -83494849.6964863     
  -83229224.7975860     
  -82973104.6135978     
  -82725234.6235341     
  -82484175.2402331     
  -82248635.2390120     
  -82017626.3098148     
  -81790527.7615055     
  -81567130.3007286     
  -81347693.0073000     
  -81133084.8068022     
  -80924533.5238294     
  -80722845.0537921     
  -80533964.0298745     
  -80361855.8348193     
  -80193529.4704723     
  -80024784.2583353     
  -79855193.9060167     
  -79684382.2644276     
  -79512229.8528265     
  -79338732.7773454     
  -79163968.5924751     
  -78988071.1414806     
  -78811218.1387341     
  -78633622.0028577     
  -78455523.4497854     
  -78277186.7688749     
  -78098896.4270367     
  -77920954.8119459     
  -77743681.6388653     
  -77567418.6017456     
  -77392551.2806098     
  -77219590.6709977     
  -77049323.9439026     
  -76883247.4510660     
  -76721445.9874143     
  -76562682.3814522     
  -76406229.1425873     
  -76251598.8627201     
  -76098477.3565149     
  -75946639.8832826     
  -75795910.8745258     
  -75646150.7084853     
  -75497247.6365803     
  -75350085.3112619     
  -75210276.2047376     
  -75074626.1356131     
  -74939585.2986284     
  -74805103.4468267     
  -74671139.1858705     
  -74537658.1206758     
  -74404631.4490162     
  -74272034.9250273     
  -74139848.1221915     
  -74008053.9361303     
  -73876638.2795552     
  -73745589.9333003     
  -73614900.5278358     
  -73484564.6388512     
  -73354579.9883895     
  -73224947.7497254     
  -73095672.9598083     
  -72966765.0475622     
  -72838238.4895658     
  -72710113.6062807     
  -72582417.5115316     
  -72455185.2246164     
  -72328460.9471264     
  -72202299.4939472     
  -72076767.8481969     
  -71951946.7809451     
  -71827932.4360739     
  -71704837.7259662     
  -71582793.3123030     
  -71461947.8560089     
  -71342467.1100390     
  -71224531.2988332     
  -71108330.0819810     
  -70994054.2440002     
  -70881883.0993218     
  -70771966.4709465     
  -70664400.0209080     
  -70559192.7237656     
  -70456225.4455967     
  -70355200.0234518     
  -70255579.1406485     
  -70156518.8414752     
  -70056798.6021091     
  -69954757.4607774     
  -69848252.0975232     
  -69734653.4341084     
  -69610879.5378023     
  -69473509.9465824     
  -69318591.8345004     
  -69141527.0476503     
  -68942213.2005873     
  -68733658.4541075     
  -84306151.3966645     
  -84025630.8846745     
  -83746474.2712032     
  -83474325.1832314     
  -83211486.0721425     
  -82957753.2067947     
  -82711944.6371605     
  -82472681.7105439     
  -82238724.8038827     
  -82009125.9031377     
  -81783294.3546810     
  -81561036.6468757     
  -81342607.1799107     
  -81128789.1825009     
  -80920593.6440982     
  -80718964.0284871     
  -80528383.9548268     
  -80353077.9155983     
  -80183083.4637100     
  -80013448.8550488     
  -79843300.1664013     
  -79672173.9957746     
  -79499877.5155852     
  -79326371.7074839     
  -79151707.1362119     
  -78975998.2698437     
  -78799407.5687315     
  -78622135.4725334     
  -78444413.1648027     
  -78266497.5305205     
  -78088667.6781948     
  -77911222.8655255     
  -77734482.3058225     
  -77558790.5955226     
  -77384538.9923580     
  -77212241.5540810     
  -77042616.6671511     
  -76876937.7573035     
  -76715311.8510205     
  -76556675.6799716     
  -76400362.3493443     
  -76245899.2142301     
  -76092966.3630205     
  -75941332.4289922     
  -75790817.3535639     
  -75641278.0132215     
  -75492600.0784104     
  -75345695.9725112     
  -75206119.6356332     
  -75070657.3290360     
  -74935796.8602496     
  -74801488.3255279     
  -74667690.5440114     
  -74534369.2155260     
  -74401495.5261225     
  -74269045.1219077     
  -74136997.3796655     
  -74005334.9142915     
  -73874043.2754197     
  -73743110.7973439     
  -73612528.5768511     
  -73482290.5627652     
  -73352393.7488873     
  -73222838.4687302     
  -73093628.7961034     
  -72964773.0601546     
  -72836284.4868280     
  -72708181.9805412     
  -72580491.0596829     
  -72453244.9565844     
  -72326485.8857777     
  -72200266.4723322     
  -72074651.3130460     
  -71949718.6151468     
  -71825561.8175445     
  -71702291.0458381     
  -71580034.1815837     
  -71458937.2364443     
  -71339163.6112060     
  -71220891.6884042     
  -71104310.0580231     
  -70989609.5146907     
  -70876970.8033023     
  -70766546.9460052     
  -70658438.8831787     
  -70552663.1443389     
  -70449110.3869758     
  -70347494.0035657     
  -70247288.7444124     
  -70147660.7211819     
  -70047392.7917086     
  -69944813.0635463     
  -69837742.2249251     
  -69723474.6475483     
  -69598813.9511295     
  -69460173.1615569     
  -69303449.4510581     
  -69124675.6321739     
  -68925257.1254541     
  -68717813.8277971     
  -84276578.7829702     
  -83998298.6130278     
  -83722383.7875300     
  -83453422.5891614     
  -83193397.2451640     
  -82942109.3196301     
  -82698424.4752509     
  -82461013.0966591     
  -82228681.7074899     
  -82000520.5911162     
  -81775967.7027546     
  -81554843.7165822     
  -81337394.6995111     
  -81124312.5720822     
  -80916475.8619442     
  -80714771.7038297     
  -80522694.5279940     
  -80344739.7298013     
  -80173092.2863966     
  -80002551.6063806     
  -79831829.9767942     
  -79660365.3513197     
  -79487902.1124786     
  -79314364.7070437     
  -79139777.6242478     
  -78964235.5872671     
  -78787885.7488086     
  -78610916.3965712     
  -78433549.0579227     
  -78256033.0886555     
  -78078642.1326545     
  -77901672.1827331     
  -77725441.7640262     
  -77550297.4757515     
  -77376634.5469213     
  -77204960.4226728     
  -77035929.7372313     
  -76870652.8299886     
  -76709234.1939898     
  -76550747.6419474     
  -76394587.9353222     
  -76240298.9605407     
  -76087558.5712960     
  -75936130.0267681     
  -75785829.2320026     
  -75636509.9353516     
  -75488055.4600525     
  -75341408.0604839     
  -75202062.2122908     
  -75066784.6727841     
  -74932101.5322021     
  -74797963.2817926     
  -74664328.9965303     
  -74531164.5059745     
  -74398441.0136170     
  -74266134.0826913     
  -74134222.9158050     
  -74002689.8681204     
  -73871520.1465318     
  -73740701.6591527     
  -73610224.9899802     
  -73480083.4827640     
  -73350273.4259759     
  -73220794.3374820     
  -73091649.3531824     
  -72962845.7285123     
  -72834395.4651544     
  -72706316.0773308     
  -72578631.5121217     
  -72451373.2356267     
  -72324581.4904390     
  -72198306.7184380     
  -72072611.1245984     
  -71947570.3302077     
  -71823275.0251577     
  -71699832.4760455     
  -71577367.6769277     
  -71456023.8401595     
  -71335961.8140441     
  -71217357.8816847     
  -71100399.2435492     
  -70985276.3204169     
  -70872170.8440862     
  -70761238.5471875     
  -70652585.1455520     
  -70546234.2627331     
  -70442086.0266839     
  -70339865.3602735     
  -70239059.6068216     
  -70138846.3846732     
  -70038014.7845681     
  -69934887.0219596     
  -69827255.0355652     
  -69712349.2937999     
  -69586875.0428367     
  -69447104.4239635     
  -69288911.2892614     
  -69109037.6546953     
  -68910005.1999081     
  -68703738.7477148     
  -84247143.3836437     
  -83970876.3644779     
  -83697996.7770457     
  -83432158.9696379     
  -83174972.9987200     
  -82926185.8411331     
  -82684684.9824858     
  -82449178.3564299     
  -82218513.3745176     
  -81991816.6372272     
  -81768553.3355586     
  -81548557.5510310     
  -81332062.1491272     
  -81119677.9117165     
  -80912180.3454111     
  -80710328.5520424     
  -80516940.9347324     
  -80336741.8037673     
  -80163522.8920438     
  -79992067.2261506     
  -79820763.3219543     
  -79648940.7645148     
  -79476290.6373611     
  -79302701.2167387     
  -79128171.3710350     
  -78952776.0327774     
  -78776646.9646156     
  -78599960.2000145     
  -78422927.5006172     
  -78245790.5876749     
  -78068817.5315961     
  -77892300.9404390     
  -77716558.3968914     
  -77541937.7965025     
  -77368836.2849495     
  -77197748.1711374     
  -77029274.0441357     
  -76864399.5405300     
  -76703213.0575184     
  -76544896.7244228     
  -76388903.8366277     
  -76234796.4267859     
  -76082252.5922849     
  -75931031.5120347     
  -75780945.5396396     
  -75631845.6583261     
  -75483613.0970200     
  -75337221.2506133     
  -75198103.8467697     
  -75063008.0589919     
  -74928499.1975049     
  -74794528.1984550     
  -74661054.4333342     
  -74528043.8948172     
  -74395467.8318283     
  -74263301.7489653     
  -74131524.6964949     
  -74000118.7903631     
  -73869068.9147684     
  -73738362.5718714     
  -73607989.8537816     
  -73477943.5211034     
  -73348219.1801485     
  -73218815.5576106     
  -73089734.8771687     
  -72960983.3471517     
  -72832571.7719643     
  -72704516.3021504     
  -72576839.3382958     
  -72449570.6016811     
  -72322748.3786977     
  -72196420.9351560     
  -72070648.0789993     
  -71945502.8234790     
  -71821073.0650312     
  -71697463.1381477     
  -71574795.0405324     
  -71453209.0330675     
  -71332863.2085315     
  -71213931.4898983     
  -71096599.3649948     
  -70981056.4942751     
  -70867485.1522573     
  -70756043.2965716     
  -70646840.9251803     
  -70539908.3148466     
  -70435154.7784801     
  -70332316.8048542     
  -70230894.9563390     
  -70130079.9573449     
  -70028670.3054766     
  -69924987.7646178     
  -69816803.8764821     
  -69701298.9225736     
  -69575096.1336519     
  -69434363.0451622     
  -69275054.9198200     
  -69094615.6356501     
  -68896332.4235234     
  -68691262.6601686     
  -84217752.6133868     
  -83943325.7722989     
  -83673316.6965109     
  -83410548.1989195     
  -83156227.1694653     
  -82909995.5615646     
  -82670737.3496938     
  -82437186.9677833     
  -82208227.8177494     
  -81983020.8885483     
  -81761057.5864299     
  -81542184.4671511     
  -81326618.7938751     
  -81114902.2719634     
  -80907717.7423259     
  -80705682.1989775     
  -80511147.0673539     
  -80329016.4792530     
  -80154335.6080185     
  -79981971.9536340     
  -79810079.9797541     
  -79637884.4393012     
  -79465029.9931924     
  -79291370.5646285     
  -79116879.6497720     
  -78941612.5207579     
  -78765685.5054205     
  -78589262.3259288     
  -78412544.8955126     
  -78235767.2100513     
  -78059191.6641590     
  -77883107.3604841     
  -77707830.6795611     
  -77533710.2044173     
  -77361142.9685525     
  -77190606.5509135     
  -77022657.9005765     
  -76858183.9355955     
  -76697249.0972091     
  -76539121.6903478     
  -76383308.3220971     
  -76229390.0863112     
  -76077047.1593406     
  -75926035.8185296     
  -75776165.3848976     
  -75627284.4317053     
  -75479272.3588818     
  -75333135.2453304     
  -75194244.4595387     
  -75059327.3883101     
  -74924989.7476671     
  -74791182.9667406     
  -74657866.7525359     
  -74525007.2927890     
  -74392575.9086756     
  -74260548.0694798     
  -74128902.6942835     
  -73997621.6798557     
  -73866689.6074461     
  -73736093.5933505     
  -73605823.2586946     
  -73475870.8029919     
  -73346231.1738027     
  -73216902.3314709     
  -73087885.6135891     
  -72959186.2085261     
  -72830813.7510158     
  -72702783.0551359     
  -72575115.0005432     
  -72447837.5858921     
  -72320987.1578899     
  -72194609.8141328     
  -72068762.9609601     
  -71943516.9819610     
  -71818956.9359114     
  -71695184.1520125     
  -71572317.5223094     
  -71450494.2031905     
  -71329869.3276489     
  -71210614.1964183     
  -71092912.2603060     
  -70976952.0325085     
  -70862915.8874699     
  -70750963.5271186     
  -70641208.7485547     
  -70533688.0599146     
  -70428319.7048130     
  -70324851.8248668     
  -70222798.9070759     
  -70121366.5202781     
  -70019365.9928018     
  -69915124.4736111     
  -69806402.4658792     
  -69690344.4355426     
  -69563509.7707688     
  -69422003.0084467     
  -69261936.2336552     
  -69081392.0828850     
  -68884126.1127372     
  -68680246.6376611     
  -84188323.3703531     
  -83915606.6101994     
  -83648340.9201616     
  -83388601.0732260     
  -83137172.7404892     
  -82893551.2138142     
  -82656593.1090621     
  -82425048.9227310     
  -82197833.6093081     
  -81974140.8100145     
  -81753487.3886145     
  -81535731.5347121     
  -81321074.8176797     
  -81110000.4124011     
  -80903103.8634627     
  -80700870.0405056     
  -80505324.8709597     
  -80321513.4581353     
  -80145490.9204902     
  -79972241.8971907     
  -79799760.0499033     
  -79627180.3144187     
  -79454107.0299155     
  -79280362.0042683     
  -79105893.7117416     
  -78930737.9651424     
  -78754995.6813041     
  -78578818.2522413     
  -78402397.6904335     
  -78225960.1906717     
  -78049762.3777595     
  -77874089.7269119     
  -77699257.1791400     
  -77525613.4555954     
  -77353553.7792863     
  -77183537.6007189     
  -77016087.8873091     
  -76852011.2280577     
  -76691343.3355215     
  -76533421.6136223     
  -76377799.9377463     
  -76224078.5770022     
  -76071941.1258110     
  -75921141.9797636     
  -75771487.9562666     
  -75622825.5718164     
  -75475032.6701085     
  -75329149.7738675     
  -75190483.9786893     
  -75055742.5692979     
  -74921573.0822671     
  -74787927.4859917     
  -74654765.8603037     
  -74522054.6185129     
  -74389765.1796987     
  -74257873.0002468     
  -74126356.8885329     
  -73995198.5417151     
  -73864382.2575461     
  -73733894.7863989     
  -73603725.2993107     
  -73473865.4568737     
  -73344309.5715309     
  -73215054.8624355     
  -73086101.8076638     
  -72957454.6033068     
  -72829121.7426700     
  -72701116.7313003     
  -72573458.9543018     
  -72446174.7107798     
  -72319298.4252153     
  -72192874.0358162     
  -72066956.5437180     
  -71941613.6821541     
  -71816927.6288836     
  -71692996.6353545     
  -71569936.3792050     
  -71447880.7596996     
  -71326981.7460675     
  -71207407.7550108     
  -71089339.8766191     
  -70972965.0914843     
  -70858465.4345436     
  -70746001.8777025     
  -70635691.5452994     
  -70527576.7729351     
  -70421584.5081110     
  -70317474.6739951     
  -70214776.4496940     
  -70112712.0970894     
  -70010109.3850873     
  -69905307.0592349     
  -69796064.7410091     
  -69679506.0478238     
  -69552146.9913799     
  -69410070.8854749     
  -69249592.1623996     
  -69069336.7572163     
  -68873285.8448974     
  -68670576.2066825     
  -84158779.5839996     
  -83887677.6007357     
  -83623062.0824718     
  -83366325.5895708     
  -83117821.8726683     
  -82876865.5205684     
  -82642264.1438143     
  -82412774.7179461     
  -82187339.8728660     
  -81965184.4569318     
  -81745850.2460717     
  -81529206.5782185     
  -81315440.7224293     
  -81104986.2581724     
  -80898356.7789892     
  -80695921.8283967     
  -80499478.8493250     
  -80314192.1781949     
  -80136951.8711271     
  -79962853.1247727     
  -79789783.8971069     
  -79616812.1833769     
  -79443508.5484597     
  -79269664.7587164     
  -79095204.8076276     
  -78920145.3030905     
  -78744571.8417114     
  -78568623.5085122     
  -78392482.3931826     
  -78216366.8306256     
  -78040527.5900044     
  -77865246.4002705     
  -77690836.5559739     
  -77517646.4376785     
  -77346068.2360037     
  -77176543.3784460     
  -77009569.3388054     
  -76845885.8777379     
  -76685496.9824145     
  -76527795.8502646     
  -76372377.4730586     
  -76218860.7035818     
  -76066933.4661811     
  -75916349.1292796     
  -75766912.5236265     
  -75618468.4623736     
  -75470893.5107557     
  -75325264.5920685     
  -75186822.3391778     
  -75052253.5178598     
  -74918249.1085616     
  -74784761.6634188     
  -74651751.6707299     
  -74519185.7984646     
  -74387035.5881014     
  -74255276.5046449     
  -74123887.2655756     
  -73992849.3875398     
  -73862146.9039451     
  -73731766.2190394     
  -73601696.0746497     
  -73471927.6147186     
  -73342454.5404228     
  -73213273.3552006     
  -73084383.7046117     
  -72955788.8206838     
  -72827496.0841791     
  -72699517.7208036     
  -72571871.6483534     
  -72444582.4904472     
  -72317682.7678921     
  -72191214.2695410     
  -72065229.5890294     
  -71939793.7899305     
  -71814986.1270879     
  -71690901.7032443     
  -71567652.8744412     
  -71445370.1318163     
  -71324202.0786096     
  -71204313.9877347     
  -71085884.2674478     
  -70969097.9839851     
  -70854136.3986447     
  -70741161.2869526     
  -70630292.6404311     
  -70521578.2352372     
  -70414953.5196644     
  -70310190.3595328     
  -70206833.4388622     
  -70104123.6382936     
  -70000908.9079621     
  -69895546.1182771     
  -69785804.7485778     
  -69668803.1861513     
  -69541036.4848255     
  -69398604.7677168     
  -69238043.7219953     
  -69058411.7292275     
  -68863722.6308708     
  -68662156.0532666     
  -84129050.3039710     
  -83859496.8080767     
  -83597469.1304174     
  -83343727.3163380     
  -83098185.9863624     
  -82859951.2502962     
  -82627762.7070095     
  -82400375.3500016     
  -82176756.2745660     
  -81956160.4462503     
  -81738154.2245031     
  -81522618.0704210     
  -81309727.1539393     
  -81099873.4113529     
  -80893495.3255192     
  -80690861.8926382     
  -80493608.2573159     
  -80307017.4198763     
  -80128684.8047791     
  -79953782.1518896     
  -79780132.0309605     
  -79606763.7897301     
  -79433221.3264899     
  -79259268.0552464     
  -79084804.2140044     
  -78909827.5178188     
  -78734408.3950825     
  -78558673.6928865     
  -78382795.5867106     
  -78206984.5109123     
  -78031485.3014488     
  -77856575.8295000     
  -77682567.5689650     
  -77509808.1797580     
  -77338686.1044343     
  -77169625.8335666     
  -77003106.6431364     
  -76839811.6884825     
  -76679711.3150788     
  -76522243.9949111     
  -76367039.9362866     
  -76213735.4343835     
  -76062023.2773064     
  -75911656.5008571     
  -75762438.4391941     
  -75614212.5550812     
  -75466854.4170074     
  -75321479.4821949     
  -75183259.4821106     
  -75048860.1567242     
  -74915017.7411265     
  -74781685.4138787     
  -74648824.1057226     
  -74516400.7669546     
  -74384387.0848076     
  -74252758.5535365     
  -74121493.8188804     
  -73990574.2356112     
  -73859983.5916511     
  -73729707.9647701     
  -73599735.6884412     
  -73470057.4123214     
  -73340666.2503722     
  -73211558.0161032     
  -73082731.5499717     
  -72954189.1486873     
  -72825937.1100023     
  -72697986.4092555     
  -72570353.5251046     
  -72443061.4308240     
  -72316140.7633526     
  -72189631.1736550     
  -72063582.8471991     
  -71938058.1604317     
  -71813133.4054387     
  -71688900.4675913     
  -71565468.2766896     
  -71442963.7675770     
  -71321531.9784876     
  -71201334.7825036     
  -71082547.5893880     
  -70965353.1748325     
  -70849931.5995709     
  -70736444.9859155     
  -70625015.7451059     
  -70515696.7231503     
  -70408431.6861508     
  -70303004.6272925     
  -70198976.5772034     
  -70095609.0038696     
  -69991773.8578328     
  -69885852.8886765     
  -69775636.5650745     
  -69658254.3249105     
  -69530203.8442606     
  -69387633.9660168     
  -69227298.9318604     
  -69048574.8194041     
  -68855357.7660328     
  -68654906.0518993     
  -84099068.1625799     
  -83831021.7784703     
  -83571548.1421070     
  -83320809.8040525     
  -83078275.8917277     
  -82842821.2850658     
  -82613101.4476231     
  -82387862.3147828     
  -82166093.0116498     
  -81947077.9341010     
  -81730407.9318747     
  -81515975.0249028     
  -81303944.8729213     
  -81094675.2254026     
  -80888538.3885062     
  -80685711.0860567     
  -80487708.0730041     
  -80299956.4449172     
  -80120659.6403362     
  -79945006.4015827     
  -79770785.0086121     
  -79597018.8948681     
  -79423232.1577184     
  -79249161.1563080     
  -79074683.2621829     
  -78899777.6617387     
  -78724499.8290440     
  -78548964.4893873     
  -78373333.9444995     
  -78197810.7063037     
  -78022633.6085673     
  -77848076.5628389     
  -77674449.0828083     
  -77502097.8513189     
  -77331407.3199565     
  -77162786.7472445     
  -76996703.4387528     
  -76833791.8972920     
  -76673987.6003202     
  -76516765.8347363     
  -76361786.5332013     
  -76208701.8960632     
  -76057209.7788801     
  -75907063.4287819     
  -75758065.1381722     
  -75610057.3701614     
  -75462914.9816059     
  -75317794.2527212     
  -75179795.3540800     
  -75045562.4149638     
  -74911878.9015351     
  -74778698.6596839     
  -74645983.0949187     
  -74513699.4661296     
  -74381819.6285313     
  -74250319.1253933     
  -74119176.5492231     
  -73988373.1111043     
  -73857892.3720441     
  -73727720.1028306     
  -73597844.2494110     
  -73468254.9896044     
  -73338944.8743972     
  -73209909.0534513     
  -73081145.5899407     
  -72952655.8745275     
  -72824445.1521452     
  -72696523.1780464     
  -72568905.0208994     
  -72441612.0299512     
  -72314672.9794796     
  -72188125.3956843     
  -72062017.0571453     
  -71936407.6379919     
  -71811370.4303500     
  -71686994.0366044     
  -71563383.8591743     
  -71440663.1324684     
  -71318973.1353284     
  -71198472.0903234     
  -71079332.0983499     
  -70961733.2758573     
  -70845854.0651525     
  -70731856.4895515     
  -70619864.9458788     
  -70509936.9947743     
  -70402024.5538387     
  -70295923.9437652     
  -70191213.3959300     
  -70087176.9437192     
  -69982714.3818382     
  -69876239.2082456     
  -69765574.2349442     
  -69647876.7921061     
  -69519671.0038686     
  -69377179.2350272     
  -69217355.3998567     
  -69039781.8775855     
  -68848121.5962286     
  -68648758.2424252     
  -84068768.0956008     
  -83802209.5249276     
  -83545282.9659455     
  -83297575.0080201     
  -83058101.9608813     
  -82825488.7021794     
  -82598293.4427077     
  -82375247.6097783     
  -82155360.8004299     
  -81937946.5966831     
  -81722620.4909048     
  -81509286.9056193     
  -81298104.7777467     
  -81089404.6906164     
  -80883504.5372294     
  -80680488.6914594     
  -80481769.2052213     
  -80292976.7780541     
  -80112850.2504963     
  -79936504.4922011     
  -79761723.3426100     
  -79587561.3465096     
  -79413527.8908093     
  -79239333.3918151     
  -79064833.3677785     
  -78889988.8802731     
  -78714840.7310434     
  -78539491.6855157     
  -78364094.2461290     
  -78188842.9993838     
  -78013970.7167211     
  -77839747.2585363     
  -77666480.0753941     
  -77494514.7547927     
  -77324231.9273576     
  -77156027.7059387     
  -76990362.7498623     
  -76827829.2491929     
  -76668327.0455835     
  -76511361.3068948     
  -76356616.6474557     
  -76203759.3675819     
  -76052492.3131365     
  -75902569.3480858     
  -75753792.1391972     
  -75606002.4967726     
  -75459074.8541888     
  -75314208.7381185     
  -75176429.9065551     
  -75042360.2275613     
  -74908832.5180739     
  -74775801.3304416     
  -74643228.5756250     
  -74511081.8459921     
  -74379333.1858627     
  -74247958.2064347     
  -74116935.4648686     
  -73986246.0463044     
  -73855873.3031214     
  -73725802.7184725     
  -73596021.8715746     
  -73466520.4909305     
  -73337290.5889687     
  -73208326.6778659     
  -73079626.0717274     
  -72951189.2849566     
  -72823020.5405243     
  -72695128.4047089     
  -72567526.5663674     
  -72440234.7783033     
  -72313279.9748849     
  -72186697.5725404     
  -72060532.9465014     
  -71934843.0560866     
  -71809698.1594717     
  -71685183.5142331     
  -71561400.8987174     
  -71438469.7079440     
  -71316527.2729954     
  -71195727.9222181     
  -71076240.1453407     
  -70958241.0402386     
  -70841907.0238025     
  -70727399.5871044     
  -70614844.6925045     
  -70504304.2748908     
  -70395738.2505054     
  -70288955.4754705     
  -70183552.2323570     
  -70078837.0755141     
  -69973741.4549684     
  -69866717.4807530     
  -69755631.7207870     
  -69637686.5837845     
  -69509455.8922036     
  -69367253.3212672     
  -69208202.4992866     
  -69031988.2398912     
  -68841952.3172975     
  -68643654.4965104     
  -84038086.2389850     
  -83773016.4140030     
  -83518655.7271617     
  -83274023.7098919     
  -83037674.3342789     
  -82807966.8701370     
  -82583352.2346003     
  -82362543.7380972     
  -82144570.8648677     
  -81928776.6106611     
  -81714801.5129352     
  -81502563.5440263     
  -81292217.9537969     
  -81084074.2738560     
  -80878411.6499563     
  -80675214.6557294     
  -80475778.0704246     
  -80286044.0566896     
  -80105235.3990808     
  -79928256.2185284     
  -79752927.4098757     
  -79578375.1697876     
  -79404095.4561495     
  -79229774.1971577     
  -79055246.0595691     
  -78880454.4366633     
  -78705425.8093132     
  -78530251.1901069     
  -78355073.3930065     
  -78180079.0947176     
  -78005494.9531138     
  -77831586.6956551     
  -77658659.6446724     
  -77487058.3155970     
  -77317160.0358035     
  -77149350.0917278     
  -76984087.0827554     
  -76821926.0577386     
  -76662730.7685483     
  -76506030.4619268     
  -76351529.8223227     
  -76198907.2740227     
  -76047870.3440055     
  -75898173.7946814     
  -75749619.0446350     
  -75602047.5933105     
  -75455333.7415294     
  -75310722.7986266     
  -75173163.0953315     
  -75039253.5350251     
  -74905878.5254989     
  -74772993.3629258     
  -74640560.4927830     
  -74508547.8644412     
  -74376927.7313676     
  -74245675.7907774     
  -74114770.5817596     
  -73984193.0808297     
  -73853926.4497501     
  -73723955.9032370     
  -73594268.6745362     
  -73464854.0654214     
  -73335703.5743460     
  -73206811.1026347     
  -73078173.2439199     
  -72949789.6666500     
  -72821663.6033563     
  -72693802.4633073     
  -72566218.5868067     
  -72438930.1591498     
  -72311962.2992265     
  -72185348.3307708     
  -72059131.2317557     
  -71933365.2373117     
  -71808117.5414385     
  -71683469.9995946     
  -71559520.6747262     
  -71436384.9898248     
  -71314196.1472189     
  -71193104.3458586     
  -71073274.1718131     
  -70954879.3562396     
  -70838093.8962480     
  -70723078.3313918     
  -70609959.7843329     
  -70498804.2380762     
  -70389579.4651195     
  -70282107.0655357     
  -70176002.2043873     
  -70070599.8596194     
  -69964866.8555271     
  -69857300.6501011     
  -69745822.8657840     
  -69627698.2195365     
  -69499572.2935072     
  -69357861.6840745     
  -69199823.1371559     
  -69025149.6079579     
  -68836794.8619686     
  -68639544.6928155     
  -84006958.9400158     
  -83743397.9898514     
  -83491647.2409756     
  -83250155.9349507     
  -83017003.1546735     
  -82790269.5581004     
  -82568291.8722897     
  -82349763.7128535     
  -82133734.9270612     
  -81919578.6293821     
  -81706961.0814916     
  -81495815.0566769     
  -81286295.7159531     
  -81078695.8953339     
  -80873276.0462959     
  -80669912.7385011     
  -80469715.4537715     
  -80279119.4103883     
  -80097800.8406380     
  -79920241.9091899     
  -79744377.4583343     
  -79569444.6685535     
  -79394921.8764953     
  -79220473.1610601     
  -79045913.0053242     
  -78871167.7387308     
  -78696249.9137174     
  -78521239.0515370     
  -78346268.4241804     
  -78171516.8331242     
  -77997204.7797704     
  -77823593.7850279     
  -77650987.0149723     
  -77479728.0721810     
  -77310191.7859775     
  -77142755.0807934     
  -76977878.4957955     
  -76816084.2528531     
  -76657199.7785307     
  -76500773.4336200     
  -76346525.7440795     
  -76194145.1805535     
  -76043343.4559322     
  -75893876.4053631     
  -75745545.5407534     
  -75598192.3875884     
  -75451691.4076841     
  -75307336.3200191     
  -75169994.8800419     
  -75036242.2830547     
  -74903016.8648347     
  -74770274.7009858     
  -74637978.7989638     
  -74506097.4873355     
  -74374603.2477064     
  -74243471.8805980     
  -74112681.9237168     
  -73982214.2618615     
  -73852051.8839232     
  -73722179.7552353     
  -73592584.7837919     
  -73463255.8672828     
  -73334184.0149248     
  -73205362.5440778     
  -73076787.3568708     
  -72948457.3066063     
  -72820374.6675702     
  -72692545.7248586     
  -72564981.5026013     
  -72437698.6489532     
  -72310720.4935705     
  -72184078.2868483     
  -72057812.6184308     
  -71931974.9933935     
  -71806629.5156334     
  -71681854.5863917     
  -71557744.4681360     
  -71434410.4866003     
  -71311981.5430494     
  -71190603.4819160     
  -71070436.7046099     
  -70951651.2403731     
  -70834418.2864860     
  -70718897.0270665     
  -70605215.3553693     
  -70493442.9901025     
  -70383555.4253603     
  -70275387.2075960     
  -70168573.1820302     
  -70062476.5710083     
  -69956103.1398174     
  -69848002.1823125     
  -69736161.3721724     
  -69617924.6614272     
  -69490029.8898378     
  -69349003.2848733     
  -69192195.1484804     
  -69019222.5247886     
  -68832599.8929399     
  -68636385.2722965     
  -83975321.8346009     
  -83713308.7573246     
  -83464237.3655045     
  -83225971.3679369     
  -82996098.8236257     
  -82772411.0569750     
  -82553126.9560746     
  -82336921.0604340     
  -82122865.2000327     
  -81910363.7559280     
  -81699109.7365515     
  -81489051.8060375     
  -81280349.4873722     
  -81073281.4847191     
  -80868110.2191635     
  -80664615.6364267     
  -80463554.3320614     
  -80272155.6237562     
  -80090543.6997762     
  -79912440.3622039     
  -79736054.0884857     
  -79560754.4036198     
  -79385994.3005839     
  -79211420.0744478     
  -79036826.0354010     
  -78862122.3681560     
  -78687308.0558780     
  -78512451.4765364     
  -78337676.5320548     
  -78163154.2060730     
  -77989098.8065554     
  -77815767.5803989     
  -77643461.5430948     
  -77472523.6675346     
  -77303327.3265129     
  -77136243.6455121     
  -76971738.6506872     
  -76810305.4180034     
  -76651734.9652718     
  -76495590.4149484     
  -76341604.2273784     
  -76189472.7867771     
  -76038911.3525402     
  -75889676.9176830     
  -75741571.3977847     
  -75594436.6769085     
  -75448147.6740471     
  -75304049.2133609     
  -75166925.2237302     
  -75033326.4222608     
  -74900247.4832197     
  -74767645.2954895     
  -74635483.4543905     
  -74503730.6885786     
  -74372359.7257681     
  -74241346.4863071     
  -74110669.5226458     
  -73980309.6443814     
  -73850249.6850241     
  -73720474.3794371     
  -73590970.3310404     
  -73461726.0561378     
  -73332732.0995899     
  -73203981.2219247     
  -73075468.6630953     
  -72947192.4925666     
  -72819154.0592445     
  -72691358.5577794     
  -72563815.7296705     
  -72436540.7178066     
  -72309555.0907924     
  -72182888.0475045     
  -72056577.8013036     
  -71930673.1252331     
  -71805235.0119715     
  -71680338.3623256     
  -71556073.5603095     
  -71432547.7176377     
  -71309885.2721499     
  -71188227.5001593     
  -71067730.3505302     
  -70948559.8300370     
  -70830883.9720185     
  -70714860.2179154     
  -70600616.8580779     
  -70488227.0477214     
  -70377673.8730913     
  -70268805.0171583     
  -70161275.7560269     
  -70054479.2682487     
  -69947463.6164923     
  -69838836.0548029     
  -69726660.8007108     
  -69608377.3083879     
  -69480834.4506148     
  -69340671.3776108     
  -69185292.3656239     
  -69014164.5696267     
  -68829322.9025158     
  -68634138.0808635     
  -83943108.9502787     
  -83682701.9380857     
  -83436405.3231819     
  -83201469.7739542     
  -82974972.2768288     
  -82754406.3101544     
  -82537872.6827996     
  -82324029.8258036     
  -82111974.3700895     
  -81901143.5487470     
  -81691258.3634003     
  -81482284.6486714     
  -81274389.9385108     
  -81067845.3093491     
  -80862917.2000211     
  -80659374.1577267     
  -80457255.9632464     
  -80265090.7562345     
  -80083481.4297948     
  -79904823.4215191     
  -79727940.3401197     
  -79552288.5182185     
  -79377300.2816819     
  -79202604.8940748     
  -79027977.1957119     
  -78853312.1011603     
  -78678595.4322084     
  -78503884.8483773     
  -78329295.0783084     
  -78154989.3700718     
  -77981175.8042694     
  -77808107.2897861     
  -77636082.7245950     
  -77465444.8428953     
  -77296566.7973719     
  -77129816.5576381     
  -76965668.8497836     
  -76804590.8184532     
  -76646337.0922680     
  -76490481.6393842     
  -76336765.2028659     
  -76184889.9216831     
  -76034573.8552846     
  -75885575.1697252     
  -75737696.4698792     
  -75590780.3280237     
  -75444702.4193121     
  -75300861.4147652     
  -75163954.0924905     
  -75030505.9079431     
  -74897570.3337952     
  -74765105.1043057     
  -74633074.4269919     
  -74501447.4502264     
  -74370197.1648234     
  -74239299.6267384     
  -74108733.4187576     
  -73978479.2914177     
  -73848519.9400956     
  -73718839.8879612     
  -73589425.4544976     
  -73460264.7973641     
  -73331348.0220791     
  -73202667.3597021     
  -73074217.4176843     
  -72945995.5134514     
  -72818002.1040657     
  -72690241.3283623     
  -72562721.6799514     
  -72435456.8299076     
  -72308466.6160183     
  -72181778.2101070     
  -72055427.4646665     
  -71929460.4229847     
  -71803934.9507057     
  -71678922.4085117     
  -71554509.2319095     
  -71430798.2113125     
  -71307909.1699437     
  -71185978.6153216     
  -71065157.7905529     
  -70945608.3756589     
  -70827494.8934161     
  -70710972.6732754     
  -70596170.0460280     
  -70483163.3169684     
  -70371943.0379324     
  -70262370.2005981     
  -70154121.2037042     
  -70046620.7597376     
  -69938962.3206543     
  -69829816.7524171     
  -69717334.5952826     
  -69599066.0696633     
  -69471988.1374617     
  -69332854.2616121     
  -69179085.4143603     
  -69009934.3566672     
  -68826923.4099237     
  -68632769.4314405     
  -83910251.7985186     
  -83651529.2096264     
  -83408130.0169047     
  -83176651.4336021     
  -82953635.2745621     
  -82736271.0539954     
  -82522544.8831080     
  -82311104.5950493     
  -82101075.5316877     
  -81891930.1379438     
  -81683417.8391409     
  -81475525.6851292     
  -81268425.3021451     
  -81062407.0293625     
  -80857687.2759174     
  -80654250.0598083     
  -80450974.7064717     
  -80257903.8730739     
  -80076643.4466396     
  -79897353.3769290     
  -79720024.1137894     
  -79544029.4653868     
  -79368828.4389328     
  -79194017.5125944     
  -79019358.8902149     
  -78844730.8913981     
  -78670107.4628678     
  -78495535.7387867     
  -78321121.6122910     
  -78147020.6600752     
  -77973434.7182024     
  -77800612.2869793     
  -77628850.2007177     
  -77458491.4339609     
  -77289910.3183847     
  -77123474.3911268     
  -76959670.0624859     
  -76798941.4220047     
  -76641006.7928323     
  -76485447.3668529     
  -76332008.7071997     
  -76180396.5393894     
  -76030330.9022078     
  -75881571.0998077     
  -75733920.6949637     
  -75587223.2769988     
  -75441355.5793425     
  -75297772.8851443     
  -75161081.4551779     
  -75027780.6999243     
  -74894985.3756472     
  -74762654.0923253     
  -74630751.6924856     
  -74499247.7626218     
  -74368115.5726951     
  -74237331.3293507     
  -74106873.6607953     
  -73976723.2742955     
  -73846862.7441134     
  -73717276.4003742     
  -73587950.2992171     
  -73458872.2624390     
  -73330031.9813531     
  -73201421.1851308     
  -73073033.8787302     
  -72944866.6598151     
  -72816919.1278104     
  -72689194.4012783     
  -72561699.7619151     
  -72434447.4440714     
  -72307455.5871105     
  -72180749.3630776     
  -72054362.2826307     
  -71928337.6661715     
  -71802730.2422615     
  -71677607.7989019     
  -71553052.7617453     
  -71429163.5030751     
  -71306055.0926371     
  -71183859.0827605     
  -71062721.7737477     
  -70942800.2324033     
  -70824255.1432808     
  -70707239.3736427     
  -70591880.9554959     
  -70478259.0701099     
  -70366371.6091028     
  -70256093.0219949     
  -70147121.4522408     
  -70038914.5673801     
  -69930613.9875486     
  -69820959.2696864     
  -69708196.1348958     
  -69589999.5147864     
  -69463489.8972322     
  -69325535.9787445     
  -69173542.2854330     
  -69006491.3954550     
  -68825364.2431533     
  -68632249.3349461     
  -83876678.4208052     
  -83619740.4352423     
  -83379390.3674400     
  -83151517.6004754     
  -82932100.7101143     
  -82718021.9515485     
  -82507160.0859302     
  -82298160.4317214     
  -82090182.3543317     
  -81882735.6921873     
  -81675600.4851212     
  -81468784.0477684     
  -81262473.2466415     
  -81056958.2389945     
  -80852491.4467662     
  -80649059.7073748     
  -80446217.2196219     
  -80252179.9634585     
  -80069847.2422134     
  -79890063.9786619     
  -79712268.9401637     
  -79535968.5489705     
  -79360564.7607076     
  -79185649.1234927     
  -79010963.4449615     
  -78836373.0624545     
  -78661839.7554714     
  -78487400.9468628     
  -78313153.8796896     
  -78139246.6062832     
  -77965874.6805385     
  -77793282.1238386     
  -77621763.7661249     
  -77451663.3698049     
  -77283357.9815994     
  -77117217.5237240     
  -76953742.9427182     
  -76793357.9132937     
  -76635744.5677390     
  -76480487.8736921     
  -76327334.8755482     
  -76175992.7158256     
  -76026182.5468906     
  -75877664.7461419     
  -75730244.0945026     
  -75583765.5289702     
  -75438107.1469509     
  -75294783.6099627     
  -75158307.2831867     
  -75025150.7624478     
  -74892492.5737963     
  -74760292.2315241     
  -74628515.2344956     
  -74497131.6245503     
  -74366114.9659484     
  -74235441.6304434     
  -74105090.3062738     
  -73975041.6728984     
  -73845278.2002677     
  -73715784.0439910     
  -73586545.0174157     
  -73457548.6292900     
  -73328784.1819726     
  -73200242.9305338     
  -73071918.3077657     
  -72943806.2243177     
  -72815905.4568459     
  -72688218.1401055     
  -72560750.3811103     
  -72433513.0142753     
  -72306522.5151887     
  -72179802.0863558     
  -72053382.9194722     
  -71927305.6238424     
  -71801621.7870993     
  -71676395.5997229     
  -71551705.4256122     
  -71427645.1334651     
  -71304324.9141390     
  -71181871.1939419     
  -71060425.1109167     
  -70940138.8514875     
  -70821168.9546750     
  -70703665.4955724     
  -70587755.8861401     
  -70473521.9214075     
  -70360968.7057423     
  -70249984.2680394     
  -70140289.0395801     
  -70031374.8879203     
  -69922434.0255648     
  -69812279.1185281     
  -69699258.8129514     
  -69581185.0935036     
  -69455335.9225078     
  -69318696.9513745     
  -69168628.7252088     
  -69003795.8515528     
  -68824610.8904215     
  -68632550.8621595     
  -83842312.3508109     
  -83587283.3943454     
  -83350165.6982442     
  -83126070.9947422     
  -82910382.9243080     
  -82699676.7446663     
  -82491735.5266394     
  -82285212.9590119     
  -82079308.8122618     
  -81873573.1545189     
  -81667817.8296289     
  -81462072.4539436     
  -81256541.3640261     
  -81051520.6335458     
  -80847307.4556340     
  -80643898.4149334     
  -80441776.0930508     
  -80247251.9233660     
  -80063210.7949375     
  -79882888.0508398     
  -79704672.1481384     
  -79528086.3101460     
  -79352499.3212814     
  -79177489.9882339     
  -79002783.9174018     
  -78828233.0698795     
  -78653788.2179119     
  -78479477.4862779     
  -78305389.8489681     
  -78131665.9446346     
  -77958495.0249798     
  -77786116.5422866     
  -77614823.3781234     
  -77444960.6743835     
  -77276909.8465402     
  -77111046.1367276     
  -76947887.8387374     
  -76787840.7024091     
  -76630550.7837601     
  -76475603.4461271     
  -76322743.9365991     
  -76171678.6464836     
  -76022128.9576705     
  -75873856.2464718     
  -75726666.7731726     
  -75580407.1578076     
  -75434957.1715918     
  -75291893.5989899     
  -75155631.5503047     
  -75022616.0641373     
  -74890091.8992397     
  -74758019.5010662     
  -74626365.0447002     
  -74495099.0434238     
  -74364195.3700980     
  -74233630.5753862     
  -74103383.4217283     
  -73973434.5759341     
  -73843766.4202495     
  -73714362.9541823     
  -73585209.7688014     
  -73456294.0826487     
  -73327604.8344827     
  -73199132.8332512     
  -73070870.9702142     
  -72942814.5022103     
  -72814961.4186531     
  -72687312.9078810     
  -72559873.9407413     
  -72432653.9902441     
  -72305667.9051957     
  -72178936.9519024     
  -72052490.0300256     
  -71926365.0547720     
  -71800610.4756146     
  -71675286.8689343     
  -71550468.4951236     
  -71426244.6460915     
  -71302720.5228932     
  -71180017.2717744     
  -71058270.6680055     
  -70937627.7711610     
  -70818240.6890880     
  -70700256.3959682     
  -70583801.3808853     
  -70468959.8018652     
  -70355743.8459413     
  -70244055.2112959     
  -70133637.0732975     
  -70024016.5521471     
  -69914438.4882323     
  -69803792.3402590     
  -69690536.1412553     
  -69572629.4165433     
  -69447520.1652367     
  -69312314.5678492     
  -69164308.4835005     
  -69001808.2322938     
  -68824630.9058913     
  -68633649.6073765     
  -83807071.4500002     
  -83554103.5247341     
  -83320436.1999197     
  -83100316.3383791     
  -82888498.0356934     
  -82681254.3860295     
  -82476289.1983651     
  -82272278.2893887     
  -82068469.3423824     
  -81864455.7215597     
  -81660082.0614074     
  -81455402.9187776     
  -81250639.6342197     
  -81046109.6112433     
  -80842126.6689485     
  -80638827.2150754     
  -80437118.3513667     
  -80242114.7152035     
  -80056736.5019177     
  -79875798.1261224     
  -79697217.2010071     
  -79520368.8312068     
  -79344620.7743664     
  -79169531.3738153     
  -78994813.4814358     
  -78820305.7511668     
  -78645949.0037941     
  -78471762.6298167     
  -78297827.7178497     
  -78124277.6339553     
  -77951295.2990552     
  -77779115.4876385     
  -77608029.1670995     
  -77438383.4708584     
  -77270565.9376607     
  -77104960.2125182     
  -76942104.7960179     
  -76782389.9283674     
  -76625425.6726936     
  -76470794.3769331     
  -76318236.2100930     
  -76167454.6453189     
  -76018170.4171737     
  -75870145.8377097     
  -75723188.9184498     
  -75577148.3056812     
  -75431905.7589664     
  -75289102.8860581     
  -75153054.2326448     
  -75020176.5780233     
  -74887783.3290485     
  -74755835.8874518     
  -74624301.1230158     
  -74493150.0354878     
  -74362356.8198369     
  -74231898.2188628     
  -74101753.0829726     
  -73971902.0812088     
  -73842327.5245401     
  -73713013.2746846     
  -73583944.7209070     
  -73455108.8144107     
  -73326494.1558020     
  -73198091.1360643     
  -73069892.1358510     
  -72941891.7918364     
  -72814087.3423657     
  -72686479.0676803     
  -72559070.8422714     
  -72431870.8180643     
  -72304892.2564974     
  -72178154.5242501     
  -72051684.2601168     
  -71925516.7076999     
  -71799697.1880759     
  -71674282.6557156     
  -71549343.2365583     
  -71424963.5855923     
  -71301243.8186538     
  -71178299.6658293     
  -71056261.3593239     
  -70935270.6074117     
  -70815474.8240198     
  -70697017.5958662     
  -70580024.2051580     
  -70464580.9331567     
  -70350706.9147245     
  -70238317.5721177     
  -70127179.1877530     
  -70016854.9822094     
  -69906644.0449197     
  -69795515.5203846     
  -69682041.8740386     
  -69564338.5865304     
  -69440034.8947241     
  -69306363.7294780     
  -69160543.4518408     
  -69000489.0125826     
  -68825393.3541994     
  -68635523.2312235     
  -83770866.5649245     
  -83520143.6955938     
  -83290183.5096357     
  -83074260.9431747     
  -82866464.2738834     
  -82662775.1737277     
  -82460839.8685540     
  -82259373.0164151     
  -82057678.8067048     
  -81855396.8681826     
  -81652405.9631891     
  -81448786.7111734     
  -81244781.1450925     
  -81040730.2154616     
  -80836972.7472847     
  -80633797.7335731     
  -80432294.8767081     
  -80236810.2741540     
  -80050333.8935796     
  -79868790.6088573     
  -79689881.5557063     
  -79512804.4530210     
  -79336917.7327125     
  -79161765.0753220     
  -78987045.6601980     
  -78812586.2788878     
  -78638318.5616428     
  -78464253.9173455     
  -78290465.9322703     
  -78117080.8684480     
  -77944275.2779834     
  -77772279.1219643     
  -77601381.4488386     
  -77431931.9886535     
  -77264326.2436366     
  -77098959.5294824     
  -76936393.5535563     
  -76777005.4577598     
  -76620369.3307047     
  -76466060.9651164     
  -76313812.1069006     
  -76163321.1448566     
  -76014307.3221897     
  -75866533.8555772     
  -75719810.8001141     
  -75573989.1825312     
  -75428953.0705394     
  -75286411.5288254     
  -75150575.3086534     
  -75017832.2816349     
  -74885566.8465187     
  -74753741.3847067     
  -74622323.4778121     
  -74491284.6260555     
  -74360599.3592826     
  -74230244.6251284     
  -74100199.3753679     
  -73970444.2959084     
  -73840961.6427081     
  -73711735.1579143     
  -73582750.0494261     
  -73453993.0239978     
  -73325452.3696164     
  -73197118.0876251     
  -73068982.0792732     
  -72941038.3951442     
  -72813283.5593288     
  -72685716.9832131     
  -72558341.4860547     
  -72431163.9408346     
  -72304196.0635256     
  -72177455.3610926     
  -72050966.2470476     
  -71924761.3216230     
  -71798882.7946070     
  -71673383.9999872     
  -71548330.9097224     
  -71423803.4955896     
  -71299896.7092182     
  -71176720.7474726     
  -71054400.1406230     
  -70933071.0444538     
  -70812875.9402680     
  -70693954.7638220     
  -70576431.3256218     
  -70460393.8009287     
  -70345868.1312601     
  -70232783.4795656     
  -70120929.4999248     
  -70009906.1473319     
  -69899067.9499940     
  -69787465.8042707     
  -69673790.1454680     
  -69556318.5671720     
  -69432871.2954668     
  -69300817.3783102     
  -69157293.7220086     
  -68999798.2086496     
  -68826868.2782374     
  -68638151.0647017     
  -83733599.9407126     
  -83485344.0405304     
  -83259391.4503333     
  -83047915.3545321     
  -82844302.3144237     
  -82644260.8768348     
  -82445407.0797438     
  -82246514.2071403     
  -82046952.4186207     
  -81846410.5041440     
  -81644802.3774922     
  -81442235.9566155     
  -81238977.1790767     
  -81035392.1254342     
  -80831856.7005345     
  -80628787.9081995     
  -80427340.4426301     
  -80231359.0257733     
  -80043942.6123051     
  -79861846.9039008     
  -79682649.0426598     
  -79505380.0187854     
  -79329379.9648790     
  -79154183.1132937     
  -78979474.4649556     
  -78805070.1571564     
  -78630893.6653510     
  -78456949.1710421     
  -78283303.2020354     
  -78110075.0910605     
  -77937434.9780386     
  -77765607.8382303     
  -77594880.7386747     
  -77425606.5734944     
  -77258190.7182669     
  -77093043.6540023     
  -76930753.5335986     
  -76771686.8787150     
  -76615381.7179825     
  -76461403.5186095     
  -76309472.1316769     
  -76159278.6975197     
  -76010540.1838901     
  -75863020.7342536     
  -75716532.7696687     
  -75570930.0654423     
  -75426099.3229733     
  -75283819.6085452     
  -75148194.7592013     
  -75015583.1571628     
  -74883442.4413795     
  -74751735.9946185     
  -74620432.1261639     
  -74489502.8497680     
  -74358923.0422420     
  -74228669.8682813     
  -74098722.3941004     
  -73969061.3368851     
  -73839668.9137089     
  -73710528.7652849     
  -73581625.9385525     
  -73452946.9187252     
  -73324479.7067785     
  -73196213.9428938     
  -73068141.0803796     
  -72940254.6182139     
  -72812550.4036717     
  -72685027.0194445     
  -72557686.2719943     
  -72430533.7993468     
  -72303579.8164541     
  -72176840.0139190     
  -72050336.6201231     
  -71924099.6261307     
  -71798168.1552136     
  -71672591.9319741     
  -71547432.7668449     
  -71422765.9166579     
  -71298681.1071482     
  -71175282.9049477     
  -71052690.0020752     
  -70931032.8250592     
  -70810448.7089920     
  -70691073.6990171     
  -70573029.8885671     
  -70456407.1276964     
  -70341238.0155758     
  -70227465.4316966     
  -70114902.5643465     
  -70003186.5182455     
  -69891728.0102975     
  -69779660.9116134     
  -69665795.6127929     
  -69548575.5776765     
  -69426020.1030207     
  -69295647.0291996     
  -69154517.5928416     
  -68999694.9026021     
  -68829026.1741743     
  -68641513.7599108     
  -83695163.3042753     
  -83449641.8986642     
  -83228046.9846369     
  -83021294.0477696     
  -82822035.6107606     
  -82625734.8455421     
  -82430011.1418187     
  -82233719.3556619     
  -82036305.7562464     
  -81837510.8713449     
  -81637284.4436282     
  -81435762.9907537     
  -81233238.8402461     
  -81030105.8699682     
  -80826785.1269621     
  -80623790.1256276     
  -80422280.0468903     
  -80225768.1385912     
  -80037516.8347016     
  -79854943.6948499     
  -79675505.4982443     
  -79498082.7255490     
  -79321997.7320887     
  -79146778.0450380     
  -78972094.3353078     
  -78797753.2816441     
  -78623671.4240532     
  -78449846.5166313     
  -78276338.5141161     
  -78103260.0071070     
  -77930774.6695990     
  -77759102.2750984     
  -77588527.7676904     
  -77419407.7006811     
  -77252159.2829814     
  -77087211.9291353     
  -76925183.8244739     
  -76766433.4901545     
  -76610462.6588554     
  -76456822.3601308     
  -76305216.8881451     
  -76155327.9781659     
  -76006869.6283724     
  -75859607.0060194     
  -75713355.2596728     
  -75567971.2979227     
  -75423344.7874771     
  -75281327.2298474     
  -75145912.5677600     
  -75013429.1916927     
  -74881410.1100570     
  -74749819.7270158     
  -74618627.0941351     
  -74487804.7508795     
  -74357327.9324979     
  -74227174.0325474     
  -74097322.2444688     
  -73967753.3309521     
  -73838449.4861888     
  -73709394.2675251     
  -73580572.5813203     
  -73451970.7141673     
  -73323576.4057074     
  -73195378.9635785     
  -73067369.4248550     
  -72939540.7717910     
  -72811888.2128961     
  -72684409.5432328     
  -72557105.6002237     
  -72429980.8327956     
  -72303044.0019125     
  -72176309.0286870     
  -72049796.0012254     
  -71923532.3417929     
  -71797554.1198646     
  -71671907.4718188     
  -71546650.0515143     
  -71421852.3843205     
  -71297598.9264992     
  -71173988.5384389     
  -71051133.9612003     
  -70929159.7408010     
  -70808197.8786496     
  -70688380.3142017     
  -70569827.1981163     
  -70452629.8455468     
  -70336827.3550813     
  -70222376.2556123     
  -70109113.3276252     
  -69996713.0207188     
  -69884642.5508881     
  -69772119.1476500     
  -69658073.5965086     
  -69541116.4979609     
  -69419472.2770044     
  -69290823.3331166     
  -69152171.5536120     
  -69000136.7171097     
  -68831837.4566398     
  -68645592.9752861     
  -83655435.4991808     
  -83412971.9431292     
  -83196141.4505257     
  -82994416.1620035     
  -82799690.7167501     
  -82607222.1084567     
  -82414673.0950865     
  -82221006.3398206     
  -82025754.7405915     
  -81828712.5336911     
  -81629865.6067804     
  -81429380.2757023     
  -81227577.3907112     
  -81024881.7738353     
  -80821763.5385834     
  -80618805.1199845     
  -80417133.1456977     
  -80220035.5832875     
  -80031016.8894116     
  -79848057.4023765     
  -79668437.7276899     
  -79490900.4056320     
  -79314761.7822092     
  -79139543.0225394     
  -78964900.1758400     
  -78790631.9633440     
  -78616649.3047189     
  -78442944.3994377     
  -78269571.1471892     
  -78096635.5968605     
  -77924294.8901855     
  -77752763.3322199     
  -77582323.5011796     
  -77413335.9919787     
  -77246231.8311557     
  -77081463.4595752     
  -76919683.1558971     
  -76761244.2861721     
  -76605611.8426881     
  -76452317.8365259     
  -76301047.0870831     
  -76151469.7877777     
  -76003296.3974869     
  -75856293.3008853     
  -75710278.7829833     
  -75565113.2890842     
  -75420689.7890713     
  -75278934.5205335     
  -75143728.7206630     
  -75011370.3775097     
  -74879469.8559986     
  -74747992.6000939     
  -74616908.4170996     
  -74486190.3835678     
  -74355814.1041101     
  -74225757.2125777     
  -74095999.0421808     
  -73966520.4151812     
  -73837303.5187934     
  -73708331.8450033     
  -73579590.1799460     
  -73451064.6345284     
  -73322742.7127928     
  -73194613.4185793     
  -73066667.4046635     
  -72938897.1718353     
  -72811297.3284755     
  -72683864.9239836     
  -72556599.8718121     
  -72429505.4795182     
  -72302589.1037341     
  -72175862.9465403     
  -72049345.0054360     
  -71923060.1805981     
  -71797041.5286266     
  -71671331.6292479     
  -71545983.9976684     
  -71421064.4270926     
  -71296652.0795821     
  -71172840.0551509     
  -71049735.0557849     
  -70927455.6222660     
  -70806128.2618902     
  -70685880.6185905     
  -70566830.6944040     
  -70449071.0688695     
  -70332647.1711956     
  -70217529.0676776     
  -70103577.0830360     
  -69990502.9886417     
  -69877830.3791121     
  -69764859.4093379     
  -69650640.2088089     
  -69533949.2684753     
  -69413219.7091671     
  -69286316.7016581     
  -69150210.2749292     
  -69001079.2373450     
  -68835271.8951046     
  -68650371.0847701     
  -83614279.5061516     
  -83375266.6291004     
  -83163672.1586517     
  -82967306.2349215     
  -82777297.6002237     
  -82588749.4524148     
  -82399414.6413440     
  -82208393.3678373     
  -82015315.6135695     
  -81820030.3756616     
  -81622559.5992090     
  -81423100.4255219     
  -81222004.2509607     
  -81019729.8363647     
  -80816797.5442271     
  -80613838.7282507     
  -80411916.8924745     
  -80214152.0004839     
  -80024404.0704573     
  -79841166.5152932     
  -79661433.5151696     
  -79483821.3732923     
  -79307663.4876497     
  -79132471.8186719     
  -78957887.3971368     
  -78783702.9526184     
  -78609825.1531546     
  -78436241.6005611     
  -78263000.6853425     
  -78090202.1277617     
  -77917996.4571052     
  -77746592.1860068     
  -77576269.1594875     
  -77407392.2366876     
  -77240408.2346489     
  -77075797.0924008     
  -76914249.8657296     
  -76756117.9352143     
  -76600828.8260648     
  -76447890.3320812     
  -76296963.5570927     
  -76147705.0582080     
  -75999821.3498751     
  -75853080.3461806     
  -75707303.9318964     
  -75562356.5127233     
  -75418134.7057692     
  -75276641.6313856     
  -75141643.2074570     
  -75009406.7124784     
  -74877621.6900536     
  -74746254.6407839     
  -74615276.1400933     
  -74484659.8122722     
  -74354381.6417387     
  -74224419.5137586     
  -74094752.9136579     
  -73965362.7372085     
  -73836231.1804754     
  -73707341.6880472     
  -73578678.9461706     
  -73450228.9130110     
  -73321978.8827986     
  -73193917.5844351     
  -73066035.3185435     
  -72938324.1400660     
  -72810778.0964665     
  -72683393.5343225     
  -72556169.4894874     
  -72429108.1777591     
  -72302215.6037359     
  -72175502.3045622     
  -72048984.2417034     
  -71922683.8464457     
  -71796631.2118556     
  -71670865.4033033     
  -71545435.8286469     
  -71420403.5645853     
  -71295842.4737825     
  -71171839.8644374     
  -71048496.3368466     
  -70925924.3293062     
  -70804244.7224886     
  -70683580.7008259     
  -70564047.9318907     
  -70445740.0673418     
  -70328708.6863903     
  -70212937.2343285     
  -70098309.4257413     
  -69984574.1171662     
  -69871310.7471753     
  -69757901.1852331     
  -69643512.4622599     
  -69527083.2665058     
  -69407255.9608545     
  -69282098.0250266     
  -69148586.6436235     
  -69002475.3764256     
  -68839297.9994920     
  -68655830.9012429     
  -83571538.6086242     
  -83336457.1844706     
  -83130644.4385115     
  -82939994.8686163     
  -82754889.9602928     
  -82570345.4794959     
  -82384258.0322787     
  -82195898.9164515     
  -82005004.9196708     
  -81811479.5989966     
  -81615380.4289291     
  -81416936.2360760     
  -81216530.9422691     
  -81014659.8879951     
  -80811893.1232725     
  -80608899.9503551     
  -80406649.1865905     
  -80208101.2836272     
  -80017636.5521915     
  -79834253.6403324     
  -79654481.7275168     
  -79476834.1757541     
  -79300695.0316651     
  -79125558.8460966     
  -78951051.9552744     
  -78776963.4642959     
  -78603197.2133833     
  -78429737.2529273     
  -78256627.0309903     
  -78083960.1660965     
  -77911880.4795946     
  -77740590.3057188     
  -77570366.2413588     
  -77401577.4176207     
  -77234688.3532665     
  -77070211.3930344     
  -76908881.8567520     
  -76751052.7535872     
  -76596113.0370156     
  -76443540.2864939     
  -76292967.2582217     
  -76144034.8578266     
  -75996445.4621362     
  -75849968.9660776     
  -75704431.3771826     
  -75559701.5063002     
  -75415679.9676764     
  -75274448.7359940     
  -75139656.0213454     
  -75007538.2004971     
  -74875865.6309140     
  -74744605.8851701     
  -74613730.3182041     
  -74483213.1120548     
  -74353030.6409824     
  -74223161.0525363     
  -74093583.9963453     
  -73964280.4555415     
  -73835232.6508092     
  -73706423.9972689     
  -73577839.1016018     
  -73449463.7921854     
  -73321285.1792669     
  -73193291.7457707     
  -73065473.4725070     
  -72937822.0045231     
  -72810330.8681278     
  -72682995.7507760     
  -72555814.8583798     
  -72428789.3664602     
  -72301923.9825303     
  -72175227.6365687     
  -72048714.3135558     
  -71922404.0356910     
  -71796323.9904532     
  -71670509.7821390     
  -71545006.7563181     
  -71419871.3056872     
  -71295172.0084616     
  -71170990.3730136     
  -71047420.8616812     
  -70924569.7413895     
  -70802552.1624063     
  -70681486.7121323     
  -70561486.5579731     
  -70442646.2393831     
  -70325023.2919490     
  -70208614.3338799     
  -70093326.2091985     
  -69978944.4165174     
  -69865103.3134766     
  -69751264.5484843     
  -69636708.3522014     
  -69520529.6389893     
  -69401577.0178069     
  -69278139.5168706     
  -69147251.8870651     
  -69004274.6813960     
  -68843882.3285768     
  -68661955.4048051     
  -83527031.3444037     
  -83296475.5258262     
  -83097074.2098177     
  -82912519.2060940     
  -82732505.5905125     
  -82552040.6263039     
  -82369225.9021811     
  -82183541.6664372     
  -81994839.4901339     
  -81803075.7206066     
  -81608342.3736912     
  -81410900.7096173     
  -81211169.0333045     
  -81009681.7873128     
  -80807056.6184454     
  -80603999.2850273     
  -80401352.2873908     
  -80201860.3069573     
  -80010664.9472816     
  -79827308.6456316     
  -79647571.8326193     
  -79469927.4303640     
  -79293849.6350987     
  -79118799.1506357     
  -78944390.4017076     
  -78770411.1979381     
  -78596764.1475874     
  -78423430.8563238     
  -78250450.4171812     
  -78077910.5879692     
  -77905948.3703270     
  -77734759.4696149     
  -77564616.5498482     
  -77395892.7429188     
  -77229072.0482141     
  -77064704.6157137     
  -76903576.5414326     
  -76746046.6726595     
  -76591463.7823756     
  -76439268.2183893     
  -76289059.2984650     
  -76140460.3978497     
  -75993169.8300121     
  -75846960.0810186     
  -75701661.8670059     
  -75557148.8698112     
  -75413326.0560062     
  -75272356.0306097     
  -75137767.1597248     
  -75005764.8520269     
  -74874201.7056137     
  -74743046.3789498     
  -74612271.0169920     
  -74481850.3689851     
  -74351761.2087361     
  -74221981.9567486     
  -74092492.4390359     
  -73963273.7398738     
  -73834308.1203024     
  -73705578.9838862     
  -73577070.8780537     
  -73448769.5243546     
  -73320661.8749202     
  -73192736.1957436     
  -73064982.1803381     
  -72937391.1001253     
  -72809956.0005471     
  -72682671.9544681     
  -72555536.3867813     
  -72428549.4860699     
  -72301714.7203660     
  -72175039.4739401     
  -72048535.8198608     
  -71922221.4377450     
  -71796120.6761835     
  -71670265.7428951     
  -71544697.9802898     
  -71419469.1468402     
  -71294642.5719588     
  -71170293.9802821     
  -71046511.6870458     
  -70923395.7481091     
  -70801055.5090654     
  -70679604.8497692     
  -70559154.2920434     
  -70439799.0862920     
  -70321602.5167512     
  -70204574.1197560     
  -70088643.5033349     
  -69973632.1671662     
  -69859228.1030361     
  -69744970.1430067     
  -69630246.9089113     
  -69514301.5707828     
  -69396182.0406270     
  -69274415.7181609     
  -69146155.8455940     
  -69006422.5799943     
  -68848988.6882611     
  -68668727.4661260     
  -83480544.6908892     
  -83255257.7683203     
  -83062991.0950592     
  -82884923.0280255     
  -82710186.8895986     
  -82533867.1037944     
  -82354341.0345872     
  -82171340.4446997     
  -81984836.4272981     
  -81794834.5757360     
  -81601459.9751884     
  -81405007.0753062     
  -81205930.1207749     
  -81004805.4934699     
  -80802294.9864323     
  -80599146.3018930     
  -80396057.9243271     
  -80195398.1017784     
  -80003425.8428489     
  -79820334.7522391     
  -79640691.7050491     
  -79463090.1846347     
  -79287121.7150074     
  -79112188.3903543     
  -78937899.9495107     
  -78764044.3473472     
  -78590525.0596643     
  -78417322.2899190     
  -78244471.4198035     
  -78072054.5892673     
  -77900201.8561969     
  -77729101.7808160     
  -77559022.2207593     
  -77390339.6848697     
  -77223559.2011076     
  -77059274.6676634     
  -76898330.7719429     
  -76741097.1989529     
  -76586880.2598320     
  -76435074.7555121     
  -76285240.9530834     
  -76136983.0390566     
  -75989995.6694790     
  -75844054.7070178     
  -75698996.2257065     
  -75554699.2645533     
  -75411073.5020163     
  -75270363.7340162     
  -75135976.6248191     
  -75004086.6846987     
  -74872629.9500861     
  -74741576.1779376     
  -74610898.3129429     
  -74480571.6805513     
  -74350573.4635620     
  -74220882.3659724     
  -74091478.4021912     
  -73962342.7713983     
  -73833457.7907122     
  -73704806.8700455     
  -73576374.5178865     
  -73448146.3719208     
  -73320109.2520601     
  -73192251.2364875     
  -73064561.7640928     
  -72937031.7692334     
  -72809653.8572720     
  -72682422.5318210     
  -72555334.4869155     
  -72428388.9793761     
  -72301588.2979936     
  -72174938.3464837     
  -72048449.3556294     
  -71922136.7357314     
  -71796022.0720602     
  -71670134.2516479     
  -71544510.6872128     
  -71419198.5704251     
  -71294256.0387218     
  -71169753.0738100     
  -71045771.8625194     
  -70922406.2399164     
  -70799759.7029177     
  -70677941.3408910     
  -70557058.9051425     
  -70437208.1872729     
  -70318457.9973668     
  -70200830.4855377     
  -70084277.5550558     
  -69968655.8771862     
  -69853705.4674910     
  -69739039.1634156     
  -69624148.2190298     
  -69508414.4680419     
  -69391074.0762790     
  -69270904.6868233     
  -69145247.4699868     
  -69008859.5754429     
  -68854577.1776265     
  -68676129.5539187     
  -83431824.6052569     
  -83212750.5227619     
  -83028441.9074287     
  -82857256.1985982     
  -82687981.7320570     
  -82515858.6514036     
  -82339626.0709658     
  -82159314.1814708     
  -81975013.0882403     
  -81786772.3235622     
  -81594748.0489464     
  -81399268.7555117     
  -81200825.9881457     
  -81000040.6245528     
  -80797617.2348855     
  -80594344.8639015     
  -80390815.2540271     
  -80188675.0583171     
  -79995830.4013326     
  -79813361.1860716     
  -79633821.0711935     
  -79456314.1764691     
  -79280506.4074312     
  -79105723.0029550     
  -78931578.4903366     
  -78757861.6177353     
  -78584479.5179567     
  -78411411.8227815     
  -78238690.9697586     
  -78066393.6943289     
  -77894642.9883249     
  -77723619.6823905     
  -77553585.7534111     
  -77384920.0271251     
  -77218149.7407868     
  -77053919.0660041     
  -76893140.7516551     
  -76736201.3661503     
  -76582361.5768784     
  -76430960.6729540     
  -76281513.6865117     
  -76133604.2985062     
  -75986924.3176309     
  -75841253.9548052     
  -75696435.3524410     
  -75552353.4117769     
  -75408922.8858613     
  -75268472.0874332     
  -75134284.4244080     
  -75002503.7239956     
  -74871150.4097821     
  -74740195.3486149     
  -74609612.2939546     
  -74479377.1560901     
  -74349467.5360802     
  -74219862.4318763     
  -74090542.0582769     
  -73961487.7431267     
  -73832681.8753569     
  -73704107.8891403     
  -73575750.2743378     
  -73447594.6077437     
  -73319627.6029636     
  -73191837.1795546     
  -73064212.5545964     
  -72936744.3622103     
  -72809424.8089420     
  -72682247.8752642     
  -72555209.5757229     
  -72428308.2923528     
  -72301545.1975578     
  -72174924.7833335     
  -72048455.5128611     
  -71922150.6071934     
  -71796028.9727988     
  -71670116.2634457     
  -71544446.0501848     
  -71419061.0432643     
  -71294014.2665811     
  -71169370.0249793     
  -71045204.4240783     
  -70921605.0991351     
  -70798669.6853772     
  -70676502.4269240     
  -70555208.2003541     
  -70434883.1755407     
  -70315601.4497342     
  -70197397.4322221     
  -70080244.7516188     
  -69964034.2427126     
  -69848556.0453038     
  -69733493.3293904     
  -69618433.4197803     
  -69502886.0401725     
  -69386260.6799772     
  -69267589.3871687     
  -69144475.6450031     
  -69011520.4097027     
  -68860603.0276430     
  -68684143.4135438     
  -83380562.4736688     
  -83168922.1598445     
  -82993493.8808517     
  -82829573.1431219     
  -82665945.0994397     
  -82498049.8561969     
  -82325103.2334990     
  -82147481.8677849     
  -81965387.0884104     
  -81778905.4093809     
  -81588221.8229452     
  -81393699.0155484     
  -81195869.5138802     
  -80995394.3414527     
  -80793039.1544907     
  -80589583.0680300     
  -80385703.6808518     
  -80181643.8988123     
  -79987741.7797598     
  -79806470.4083009     
  -79626914.0169439     
  -79449602.0429357     
  -79273996.3813402     
  -79099401.5144672     
  -78925424.1508134     
  -78751862.4195656     
  -78578627.5097298     
  -78405700.1484731     
  -78233110.3550759     
  -78060929.7669621     
  -77889274.1497526     
  -77718315.9716314     
  -77548310.0430432     
  -77379635.9220407     
  -77212843.6811476     
  -77048634.8863340     
  -76888001.9229536     
  -76731355.6778774     
  -76577906.7798352     
  -76426926.9410248     
  -76277879.1763720     
  -76130325.8557917     
  -75983957.2332551     
  -75838559.0287794     
  -75693980.2196604     
  -75550112.0912229     
  -75406874.8353662     
  -75266681.3544488     
  -75132690.5726602     
  -75001016.0040103     
  -74869763.1403430     
  -74738903.9687204     
  -74608413.0598552     
  -74478266.9172443     
  -74348443.5693713     
  -74218922.3185870     
  -74089683.5920978     
  -73960708.8602092     
  -73831980.5994316     
  -73703482.2861282     
  -73575198.4118573     
  -73447114.5154962     
  -73319217.2302718     
  -73191494.3463512     
  -73063934.8919334     
  -72936529.2379794     
  -72809269.2339240     
  -72682148.3839500     
  -72555162.0756502     
  -72428307.8750212     
  -72301585.9035093     
  -72174999.3138765     
  -72048554.8814334     
  -71922263.7248617     
  -71796142.1653401     
  -71670212.7224344     
  -71544505.2282689     
  -71419058.0152668     
  -71293919.0941947     
  -71169147.1848471     
  -71044812.3879372     
  -70920996.1913068     
  -70797790.3872039     
  -70675294.3485482     
  -70553609.9940659     
  -70432833.7156816     
  -70313044.6426781     
  -70194289.0380786     
  -70076561.5873559     
  -69959786.1124666     
  -69843800.7232559     
  -69728354.8547999     
  -69613124.6733909     
  -69497736.2724153     
  -69381754.3792562     
  -69264459.2687876     
  -69143790.4701007     
  -69014333.2389944     
  -68867015.1590988     
  -68692749.7003467     
  -83326375.0036425     
  -83123783.1236385     
  -82958235.8820448     
  -82801930.1795336     
  -82644142.1498062     
  -82480474.5045970     
  -82310794.2836999     
  -82135862.4702517     
  -81955976.2631597     
  -81771250.7234045     
  -81581896.5255275     
  -81388312.1667569     
  -81191071.2200281     
  -80990881.3989356     
  -80788554.2309812     
  -80584916.4233375     
  -80380592.5320038     
  -80175120.1820102     
  -79981176.3657949     
  -79799562.5613497     
  -79619976.7704695     
  -79442942.0791933     
  -79267590.2529302     
  -79093221.8669287     
  -78919436.2000382     
  -78746046.6034690     
  -78572969.5486600     
  -78400188.3669470     
  -78227731.2393225     
  -78055665.0146369     
  -77884098.0638021     
  -77713193.8118499     
  -77543198.4142810     
  -77374489.9598584     
  -77207641.1746559     
  -77043418.7017910     
  -76882908.8241798     
  -76726556.0399885     
  -76573514.8974835     
  -76422974.7845378     
  -76274339.3386807     
  -76127149.5582905     
  -75981095.9970408     
  -75835971.2257321     
  -75691631.8714006     
  -75547976.1395455     
  -75404930.0247209     
  -75264991.8209854     
  -75131195.0910615     
  -74999623.5682821     
  -74868468.2083317     
  -74737702.1278826     
  -74607300.7229462     
  -74477241.0984337     
  -74347501.7193916     
  -74218062.2030604     
  -74088903.2011376     
  -73960006.3402536     
  -73831354.2003157     
  -73702930.3178434     
  -73574719.2064284     
  -73446706.3900102     
  -73318878.4473750     
  -73191223.0685662     
  -73063729.1259365     
  -72936386.7645817     
  -72809187.5189400     
  -72682124.4644614     
  -72555192.4154476     
  -72428388.1823220     
  -72301710.9035348     
  -72175162.4687099     
  -72048748.0500273     
  -71922476.7574699     
  -71796362.4294460     
  -71670424.5620676     
  -71544689.3661215     
  -71419190.9182138     
  -71293972.3386748     
  -71169086.8802374     
  -71044598.7446841     
  -70920583.3569194     
  -70797126.7173941     
  -70674323.3313854     
  -70552272.0982164     
  -70431069.4824357     
  -70310799.3734790     
  -70191519.4314616     
  -70073244.6341668     
  -69955930.4572472     
  -69839460.6009676     
  -69723646.4111715     
  -69608245.1314410     
  -69492987.2960097     
  -69377572.8963419     
  -69261511.9822746     
  -69143145.1632847     
  -69017218.9056095     
  -68873754.3603455     
  -68701927.5461931     
  -83268773.1988335     
  -83077423.1358945     
  -82922773.2078174     
  -82774382.2804807     
  -82622653.7091885     
  -82463161.8864602     
  -82296721.3617892     
  -82124474.4616544     
  -81946798.8781150     
  -81763825.4267896     
  -81575787.8414536     
  -81383122.2303706     
  -81186443.3724031     
  -80986511.6597802     
  -80784171.8852080     
  -80580349.5251484     
  -80375506.6566056     
  -80170651.0917006     
  -79975790.6161575     
  -79792463.6041318     
  -79613041.3503300     
  -79436314.6867002     
  -79261291.4217330     
  -79087181.6206087     
  -78913615.0945523     
  -78740414.4488504     
  -78567506.7062618     
  -78394877.9871085     
  -78222555.6727387     
  -78050601.9932562     
  -77879117.8006517     
  -77708256.7417935     
  -77538254.6538604     
  -77369485.2516866     
  -77202542.5881992     
  -77038266.5114642     
  -76877854.9055964     
  -76721797.6810696     
  -76569185.0058641     
  -76419105.7553070     
  -76270896.3527544     
  -76124077.4248770     
  -75978342.3114087     
  -75833491.9332943     
  -75689391.4213824     
  -75545946.4486194     
  -75403089.1730932     
  -75263403.7953003     
  -75129798.0094460     
  -74998326.4707059     
  -74867265.6920181     
  -74736589.9282920     
  -74606275.4085805     
  -74476299.8473503     
  -74346642.1554042     
  -74217282.2754611     
  -74088201.0959033     
  -73959380.4136460     
  -73830802.9278842     
  -73702452.2533039     
  -73574312.9458888     
  -73446370.5376217     
  -73318611.5787856     
  -73191023.6885921     
  -73063595.6166634     
  -72936317.3197190     
  -72809180.0596952     
  -72682176.5315269     
  -72555301.0309665     
  -72428549.6749965     
  -72301920.6895044     
  -72175414.7806208     
  -72049035.6070924     
  -71922790.3706238     
  -71796690.5383640     
  -71670752.7054212     
  -71544999.5937474     
  -71419461.1647078     
  -71294175.7934179     
  -71169191.4100930     
  -71044566.4537458     
  -70920370.4035747     
  -70796683.5526496     
  -70673595.5724635     
  -70551202.3036414     
  -70429600.1410381     
  -70308877.4456778     
  -70189102.7669223     
  -70070310.5162224     
  -69952486.3449773     
  -69835556.9610803     
  -69719391.0846674     
  -69603818.8976856     
  -69488663.1846561     
  -69373739.0380772     
  -69258755.1109434     
  -69142498.7890576     
  -69020090.4581082     
  -68880750.9486723     
  -68711654.0297731     
  -83207112.4196745     
  -83030080.7481267     
  -82887205.4708232     
  -82746982.3838618     
  -82601585.1241089     
  -82446129.1044793     
  -82282910.1720892     
  -82113334.1658733     
  -81937874.3887368     
  -81756646.6649875     
  -81569912.0387254     
  -81378142.8945243     
  -81182000.0101390     
  -80982290.1106373     
  -80779917.3515166     
  -80575835.6473898     
  -80370630.4744691     
  -80166109.8961113     
  -79970133.3769127     
  -79785316.8654501     
  -79606033.3952591     
  -79429737.6722795     
  -79255092.8991385     
  -79081283.1404186     
  -78907960.7558973     
  -78734967.2723430     
  -78562240.4239908     
  -78389771.0046645     
  -78217586.0754546     
  -78045743.6200342     
  -77874336.7792797     
  -77703508.6831597     
  -77533483.0397863     
  -77364625.5279880     
  -77197548.6109023     
  -77033173.6572902     
  -76872832.2898613     
  -76717075.0600999     
  -76564916.3237615     
  -76415321.8193000     
  -76267552.6834604     
  -76121111.6476659     
  -75975698.0000063     
  -75831122.6280228     
  -75687260.0509001     
  -75544023.9637317     
  -75401353.0431662     
  -75261917.6080273     
  -75128499.3671281     
  -74997124.7765143     
  -74866155.6822172     
  -74735567.4854102     
  -74605337.2557610     
  -74475443.3254695     
  -74345865.0604180     
  -74216582.7395490     
  -74087577.5002702     
  -73958831.3238685     
  -73830327.0448092     
  -73702048.3740132     
  -73573979.9302402     
  -73446107.2764991     
  -73318416.9605032     
  -73190896.5599352     
  -73063534.7348657     
  -72936321.2912948     
  -72809247.2614949     
  -72682305.0087249     
  -72555488.3659561     
  -72428792.8204691     
  -72302215.7584272     
  -72175756.7855870     
  -72049418.1418421     
  -71923205.2277230     
  -71797127.2595596     
  -71671198.0655940     
  -71545437.0263799     
  -71419870.1472819     
  -71294531.2261514     
  -71169463.0421052     
  -71044718.4382211     
  -70920361.0986241     
  -70796465.7274707     
  -70673117.2275350     
  -70550408.3645926     
  -70428435.3292634     
  -70307290.6492579     
  -70187053.2048623     
  -70067775.8894142     
  -69949472.9213883     
  -69832111.2485402     
  -69715612.3267452     
  -69599870.9910597     
  -69484789.7326277     
  -69370280.1766270     
  -69256207.6946850     
  -69141820.0351597     
  -69022853.1860611     
  -68887921.7268537     
  -68721903.5092390     
  -83148721.5662878     
  -82985309.0568589     
  -82850360.8770296     
  -82720276.1317568     
  -82580882.4854050     
  -82429445.8328652     
  -82269366.2018881     
  -82102464.0075248     
  -81929220.6219413     
  -81749732.7014735     
  -81564285.1551737     
  -81373389.1341543     
  -81177752.3417743     
  -80978230.8812765     
  -80775788.4724031     
  -80571410.6001830     
  -80365888.9543003     
  -80161268.5432391     
  -79964106.2069772     
  -79778036.3076664     
  -79598954.6934367     
  -79423206.0565197     
  -79248997.5957129     
  -79075526.8110059     
  -78902474.8952842     
  -78729706.6596730     
  -78557172.7922910     
  -78384869.8188897     
  -78212825.2741760     
  -78041093.1662451     
  -77869758.7745047     
  -77698953.9426079     
  -77528888.3644950     
  -77359915.2527160     
  -77192660.4081500     
  -77028134.7293054     
  -76867831.4558090     
  -76712381.7609344     
  -76560708.3528170     
  -76411625.4588161     
  -76264311.0973807     
  -76118254.5917002     
  -75973165.0069485     
  -75828864.8730226     
  -75685239.0065174     
  -75542209.6816565     
  -75399722.4395922     
  -75260533.6122589     
  -75127299.2141318     
  -74996018.5633338     
  -74865138.2831797     
  -74734634.9287165     
  -74604486.4177651     
  -74474671.7085775     
  -74345170.6316381     
  -74215963.8130668     
  -74087032.6518286     
  -73958359.3278169     
  -73829926.8268612     
  -73701718.9742557     
  -73573720.4719501     
  -73445916.9369659     
  -73318294.9403694     
  -73190842.0476149     
  -73063546.8624454     
  -72936399.0779395     
  -72809389.5398526     
  -72682510.3291815     
  -72555754.8728568     
  -72429118.0937341     
  -72302596.6134166     
  -72176189.0237980     
  -72049896.2452841     
  -71923721.9909237     
  -71797673.3555212     
  -71671761.5462072     
  -71546002.7644933     
  -71420419.2376895     
  -71295040.3772070     
  -71169904.0096444     
  -71045057.5801002     
  -70920559.1623178     
  -70796478.0249341     
  -70672894.3993175     
  -70549897.9845191     
  -70427584.6412653     
  -70306050.7433515     
  -70185384.8948374     
  -70065657.4262961     
  -69946909.3959333     
  -69829145.0621954     
  -69712333.9030749     
  -69596427.2969599     
  -69481394.2939264     
  -69367227.2978508     
  -69253901.1779741     
  -69141092.2499240     
  -69025405.6253629     
  -68895165.9722281     
  -68732646.7571374     
  -83118435.8492233     
  -82942081.3387603     
  -82812350.9583630     
  -82694507.1795983     
  -82560576.6985188     
  -82413158.0661725     
  -82256096.7306848     
  -82091886.0654938     
  -81920855.7847894     
  -81743102.2219758     
  -81558923.6473950     
  -81368875.7341371     
  -81173712.9854864     
  -80974344.9587204     
  -80771791.1325222     
  -80567091.5288726     
  -80361231.3386910     
  -80156208.3002674     
  -79957699.4663234     
  -79770520.8851677     
  -79591806.8264475     
  -79416720.7100303     
  -79243007.9972792     
  -79069914.8004484     
  -78897159.6927407     
  -78724634.9524611     
  -78552306.3953753     
  -78380177.2970110     
  -78208276.4864628     
  -78036654.2659706     
  -77865387.9166113     
  -77694597.2129597     
  -77524475.9456222     
  -77355359.7517024     
  -77187879.8423881     
  -77023143.4611073     
  -76862840.8137543     
  -76707710.3751283     
  -76556561.0827874     
  -76408019.7875145     
  -76261174.6682061     
  -76115508.7931820     
  -75970745.3957909     
  -75826720.3149603     
  -75683329.5976047     
  -75540504.6486068     
  -75398198.2073759     
  -75259252.1836701     
  -75126197.6125181     
  -74995007.9223087     
  -74864213.6135305     
  -74733792.4024871     
  -74603723.0627955     
  -74473985.1873133     
  -74344559.0809236     
  -74215425.7281374     
  -74086566.8022279     
  -73957964.6961111     
  -73829602.5632018     
  -73701464.3613819     
  -73573534.8962446     
  -73445799.8618129     
  -73318245.8784084     
  -73190860.5285482     
  -73063632.3928974     
  -72936551.0895227     
  -72809607.3210859     
  -72682792.9362593     
  -72556101.0135845     
  -72429525.9782363     
  -72303063.7646596     
  -72176712.0406852     
  -72050470.5112731     
  -71924341.3221526     
  -71798329.5846306     
  -71672444.0420008     
  -71546697.8939449     
  -71421109.7863707     
  -71295704.9580400     
  -71170516.5090087     
  -71045586.7159044     
  -70920968.2615068     
  -70796725.1681861     
  -70672933.1267011     
  -70549678.8031567     
  -70427057.6132637     
  -70305169.4416412     
  -70184111.9623761     
  -70063971.8073770     
  -69944815.0326564     
  -69826680.1592662     
  -69709579.8544963     
  -69593514.4772383     
  -69478505.7664011     
  -69364613.7135205     
  -69251879.2333679     
  -69140319.8510288     
  -69027642.3045065     
  -68902360.0911061     
  -68743849.8080734     
  -83096523.0558690     
  -82900487.0102418     
  -82775975.9178216     
  -82669082.4532251     
  -82540977.3978672     
  -82397217.1883140     
  -82243133.9120175     
  -82081614.7725012     
  -81912800.8118561     
  -81736773.7396621     
  -81553844.4041488     
  -81364617.6775718     
  -81169894.9835452     
  -80970642.4117362     
  -80767934.9231729     
  -80562882.6212328     
  -80356637.8395573     
  -80150994.0852849     
  -79950886.7319304     
  -79762676.0303830     
  -79584592.2649819     
  -79410287.2823277     
  -79237126.8862206     
  -79064450.7670590     
  -78892017.9392134     
  -78719755.2059270     
  -78547644.3443538     
  -78375696.7686283     
  -78203943.3286459     
  -78032430.9140976     
  -77861228.6925583     
  -77690443.5718606     
  -77520251.6194243     
  -77350965.3478184     
  -77183209.7914584     
  -77018192.6213670     
  -76857846.1235107     
  -76703052.3786167     
  -76552475.2923705     
  -76404508.6708130     
  -76258146.7656693     
  -76112876.9580105     
  -75968441.3479062     
  -75824690.6803688     
  -75681533.1937854     
  -75538909.9580235     
  -75396781.2301891     
  -75258073.7206879     
  -75125194.6378058     
  -74994092.9592911     
  -74863381.8072493     
  -74733040.0666031     
  -74603047.3746445     
  -74473383.9677217     
  -74344030.6352522     
  -74214968.7316553     
  -74086180.2175235     
  -73957647.7134059     
  -73829354.5566687     
  -73701284.8560872     
  -73573423.5413895     
  -73445756.4065919     
  -73318270.1471534     
  -73190952.3919198     
  -73063791.7317341     
  -72936777.7476509     
  -72809901.0428926     
  -72683153.2842261     
  -72556527.2603029     
  -72430016.9667443     
  -72303617.7303862     
  -72177326.3879641     
  -72051141.5375863     
  -71925063.8841542     
  -71799096.7020920     
  -71673246.4395228     
  -71547523.4862521     
  -71421943.1221005     
  -71296526.6499879     
  -71171302.6969977     
  -71046308.6327541     
  -70921592.0039061     
  -70797211.8126884     
  -70673239.3749616     
  -70549758.3850046     
  -70426863.7110674     
  -70304658.4006744     
  -70183248.4991141     
  -70062735.7191837     
  -69943209.1475831     
  -69824738.4668855     
  -69707374.4966039     
  -69591159.7994410     
  -69476154.7591600     
  -69362473.7456659     
  -69250195.7300647     
  -69139535.9261232     
  -69029459.5199940     
  -68909350.4263126     
  -68755472.3815083     
  -83075709.9092221     
  -82877100.9390049     
  -82746264.4586932     
  -82642385.9066961     
  -82522870.6131913     
  -82381356.3281601     
  -82230595.9788800     
  -82071629.0347628     
  -81905091.7072083     
  -81730760.4360533     
  -81549066.8414732     
  -81360629.4080219     
  -81166311.8005764     
  -80967133.3787241     
  -80764229.7609075     
  -80558784.6236261     
  -80352100.5439040     
  -80145695.5534287     
  -79943620.9777497     
  -79754398.1929467     
  -79577328.7561153     
  -79403910.8814193     
  -79231359.1166828     
  -79059139.4048655     
  -78887053.1263079     
  -78715071.2050534     
  -78543190.2722546     
  -78371432.0364485     
  -78199829.8148112     
  -78028427.4657530     
  -77857285.9432453     
  -77686498.4827578     
  -77516221.7101692     
  -77346739.4857293     
  -77178654.6098736     
  -77013273.9159204     
  -76852829.6778651     
  -76698398.0163587     
  -76548452.9908319     
  -76401096.8335909     
  -76255231.0226096     
  -76110361.9640280     
  -75966255.1591763     
  -75822777.7713526     
  -75679851.2223441     
  -75537426.7481740     
  -75395472.4286467     
  -75256998.6446968     
  -75124290.3804902     
  -74993273.7960942     
  -74862643.0146979     
  -74732378.0973901     
  -74602459.5533819     
  -74472868.2718198     
  -74343585.5371893     
  -74214593.0856868     
  -74085873.1785152     
  -73957408.6786929     
  -73829183.1240553     
  -73701180.7926776     
  -73573386.7589591     
  -73445786.9399019     
  -73318368.1319594     
  -73191118.0395342     
  -73064025.2968954     
  -72937079.4861429     
  -72810271.1549137     
  -72683591.8389135     
  -72557034.0961814     
  -72430591.5622177     
  -72304259.0378293     
  -72178032.6246810     
  -72051909.9270195     
  -71925890.3415759     
  -71799975.4609284     
  -71674169.6179066     
  -71548480.5990028     
  -71422920.5518255     
  -71297507.1032893     
  -71172264.6888319     
  -71047226.0648926     
  -70922433.9329588     
  -70797942.5392553     
  -70673819.0269882     
  -70550144.2092535     
  -70427012.3193724     
  -70304529.2111611     
  -70182808.5564443     
  -70061965.8577064     
  -69942111.1185302     
  -69823342.0861093     
  -69705742.4914881     
  -69589390.8709505     
  -69474373.8419482     
  -69360842.0040205     
  -69248910.0431005     
  -69138810.1748089     
  -69030766.2762661     
  -68915943.5114541     
  -68767465.6612780     
  -83061746.4563338     
  -82865506.1117157     
  -82731826.1893619     
  -82621970.9699498     
  -82503829.9101308     
  -82366414.1346259     
  -82218212.9381027     
  -82062041.1714645     
  -81897720.2908012     
  -81725090.7738026     
  -81544605.8339600     
  -81356927.2525022     
  -81162976.4356446     
  -80963828.7765542     
  -80760683.9757488     
  -80554801.5195817     
  -80347606.5982747     
  -80140409.4730855     
  -79935828.3889111     
  -79745557.3734667     
  -79570068.9236296     
  -79397586.6720143     
  -79225715.4909377     
  -79053985.0657364     
  -78882269.8706395     
  -78710587.3734582     
  -78538948.3546894     
  -78367387.3804086     
  -78195940.3544522     
  -78024648.6352884     
  -77853564.8552746     
  -77682767.8027706     
  -77512392.9731560     
  -77342690.8088862     
  -77174220.8005023     
  -77008377.9329547     
  -76847769.1253293     
  -76693736.2269973     
  -76544498.0677345     
  -76397789.9167335     
  -76252431.2789666     
  -76107966.8718658     
  -75964189.2325737     
  -75820983.4613907     
  -75678285.1654850     
  -75536056.1995361     
  -75394272.7585693     
  -75256027.4002750     
  -75123484.9476545     
  -74992550.5717999     
  -74861997.4036822     
  -74731806.6884796     
  -74601959.8160545     
  -74472438.3381675     
  -74343224.0453625     
  -74214299.0678634     
  -74085645.9810888     
  -73957247.9055958     
  -73829088.5963808     
  -73701152.5193266     
  -73573424.9140911     
  -73445891.8436563     
  -73318540.2312949     
  -73191357.8861500     
  -73064333.5191352     
  -72937456.7514884     
  -72810718.1192712     
  -72684109.0783477     
  -72557622.0161338     
  -72431250.2786499     
  -72304988.2241816     
  -72178831.3182561     
  -72052776.2884884     
  -71926821.3620827     
  -71800966.6130249     
  -71675214.4497422     
  -71549570.2763907     
  -71424043.3606845     
  -71298647.9363559     
  -71173404.5564130     
  -71048341.6906692     
  -70923497.5232935     
  -70798921.8478945     
  -70674677.8755344     
  -70550843.6611589     
  -70427512.7329471     
  -70304793.3917610     
  -70182806.1442550     
  -70061678.9326727     
  -69941540.4179094     
  -69822513.2718829     
  -69704709.0009655     
  -69588235.3701550     
  -69473197.5029553     
  -69359754.2200629     
  -69248079.2024458     
  -69138254.9361936     
  -69031503.8987632     
  -68921892.8231896     
  -68779769.0733397     
  -83056430.4875444     
  -82869379.1774186     
  -82725562.0857856     
  -82605598.4923155     
  -82484494.2760835     
  -82352272.1073287     
  -82205995.5527634     
  -82052882.5449292     
  -81890702.9080491     
  -81719786.5086302     
  -81540478.7346020     
  -81353527.4108104     
  -81159901.3999571     
  -80960742.0214110     
  -80757299.5793547     
  -80550952.4385414     
  -80343112.6895490     
  -80135292.1101311     
  -79927401.4290592     
  -79735985.9776236     
  -79562934.3034793     
  -79391277.5984532     
  -79220224.5751403     
  -79048986.2078719     
  -78877676.2892325     
  -78706307.8333196     
  -78534923.6771302     
  -78363567.4218942     
  -78192279.8020029     
  -78021099.4752510     
  -77850070.9515923     
  -77679257.7985376     
  -77508772.5233456     
  -77338829.1130854     
  -77169917.9963740     
  -77003494.2013381     
  -76842635.7187790     
  -76689054.6771842     
  -76540617.2502680     
  -76394594.4053362     
  -76249751.5157072     
  -76105694.9483028     
  -75962246.0627004     
  -75819309.6930382     
  -75676836.5568601     
  -75534799.5321165     
  -75393183.2092214     
  -75255160.4554549     
  -75122778.4646769     
  -74991923.4441123     
  -74861445.1605527     
  -74731326.0516905     
  -74601548.3973977     
  -74472094.4224480     
  -74342946.4349323     
  -74214086.9717749     
  -74085498.9365453     
  -73957165.7226600     
  -73829071.3191469     
  -73701200.3983178     
  -73573538.3857274     
  -73446071.5133350     
  -73318786.8570184     
  -73191672.3597924     
  -73064716.8423865     
  -72937910.0032775     
  -72811242.4110817     
  -72684705.4933588     
  -72558291.5275316     
  -72431993.6418963     
  -72305805.8375320     
  -72179723.0455222     
  -72053741.2381448     
  -71927857.6174987     
  -71802070.9102242     
  -71676381.8020203     
  -71550793.5498838     
  -71425312.8122109     
  -71299950.7352978     
  -71174724.3269306     
  -71049658.1299906     
  -70924786.1767989     
  -70800154.1524606     
  -70675821.6165546     
  -70551864.0246643     
  -70428374.1502346     
  -70305462.3838435     
  -70183255.2378170     
  -70061891.6669535     
  -69941516.6736726     
  -69822274.4021733     
  -69704299.8311974     
  -69587721.0995400     
  -69472661.0777497     
  -69359250.6803458     
  -69247747.6682697     
  -69138024.2698174     
  -69031680.0227686     
  -68926880.8276376     
  -68792305.4534198     
  -83056668.4427912     
  -82881615.8655777     
  -82732299.9995436     
  -82596447.3151884     
  -82468857.8226401     
  -82337668.8040514     
  -82194317.3827450     
  -82044074.5493612     
  -81884089.8107316     
  -81714859.8257368     
  -81536706.5785541     
  -81350444.5321748     
  -81157102.2254051     
  -80957879.2543950     
  -80754099.7682888     
  -80547195.4913199     
  -80338755.6487929     
  -80129970.3199363     
  -79921558.9527543     
  -79729304.8350026     
  -79555515.1148641     
  -79385133.2063048     
  -79214854.7821217     
  -79044162.6060524     
  -78873274.5544771     
  -78702239.6980267     
  -78531121.0868242     
  -78359977.5272355     
  -78188853.3103044     
  -78017785.4274868     
  -77846810.0452992     
  -77675975.1765471     
  -77505367.7920242     
  -77335165.0319702     
  -77165760.3961136     
  -76998611.5118612     
  -76837391.6155758     
  -76684340.0547182     
  -76536821.5125353     
  -76391517.2788432     
  -76247195.8294749     
  -76103549.6956653     
  -75960428.2090531     
  -75817758.4804783     
  -75675506.9759069     
  -75533658.0032740     
  -75392204.8013478     
  -75254398.3020609     
  -75122171.0770019     
  -74991392.5907602     
  -74860986.4913354     
  -74730936.4179273     
  -74601225.5505621     
  -74471836.7980489     
  -74342752.9980700     
  -74213957.1073612     
  -74085432.3719275     
  -73957162.4736315     
  -73829131.6525883     
  -73701324.8062755     
  -73573727.5668401     
  -73446326.3582166     
  -73319108.4346337     
  -73192061.9020442     
  -73065175.7241047     
  -72938439.7146088     
  -72811844.5189436     
  -72685381.5881646     
  -72559043.1508942     
  -72432822.1904799     
  -72306712.4377841     
  -72180708.3937505     
  -72054805.4004847     
  -71928999.7849600     
  -71803289.1054633     
  -71677672.5371576     
  -71552151.4390047     
  -71426730.1487128     
  -71301417.0537071     
  -71176225.9818234     
  -71051177.9422280     
  -70926303.2193453     
  -70801643.7760097     
  -70677255.8438324     
  -70553212.4758067     
  -70429605.6701128     
  -70306547.5460786     
  -70184169.7925193     
  -70062620.7982107     
  -69942059.7241066     
  -69822648.0485850     
  -69704541.2728057     
  -69587876.9858686     
  -69472797.7948323     
  -69359382.2732131     
  -69247939.0663837     
  -69138295.7914421     
  -69031426.0865756     
  -68930494.9797479     
  -68804973.5404086     
  -83063894.5957229     
  -82904155.8229153     
  -82749922.8389180     
  -82596027.6000323     
  -82457225.7495342     
  -82322348.8416663     
  -82183266.2404740     
  -82035626.6271760     
  -81877903.8747157     
  -81710332.8694879     
  -81533307.3026240     
  -81347695.5488719     
  -81154591.3797351     
  -80955255.5658446     
  -80751081.7295336     
  -80543567.6571693     
  -80334436.8122278     
  -80124771.1554287     
  -79916649.3307451     
  -79722926.8098601     
  -79548014.7052096     
  -79379111.8880553     
  -79209640.4235977     
  -79039512.5205815     
  -78869075.6165191     
  -78698387.9910697     
  -78527546.9470239     
  -78356623.2029787     
  -78185666.5287353     
  -78014712.2575893     
  -77843788.2302460     
  -77672927.0636601     
  -77502186.6532050     
  -77331709.1740990     
  -77161768.8534679     
  -76993718.8206067     
  -76831985.5469822     
  -76679578.9395796     
  -76533128.1376450     
  -76388565.0986224     
  -76244768.5899420     
  -76101534.8421346     
  -75958738.2665368     
  -75816331.9178071     
  -75674298.0382366     
  -75532632.9071618     
  -75391338.5844921     
  -75253741.4562960     
  -75121662.9518652     
  -74990958.2109743     
  -74860621.6228750     
  -74730638.0380936     
  -74600991.5478371     
  -74471665.7566442     
  -74342644.0444247     
  -74213909.8012934     
  -74085446.6303379     
  -73957238.5177255     
  -73829269.9719051     
  -73701526.1343792     
  -73573992.8646381     
  -73446656.8015918     
  -73319505.4035211     
  -73192526.9683114     
  -73065710.6355774     
  -72939046.3724663     
  -72812524.9453914     
  -72686137.8809165     
  -72559877.4205425     
  -72433736.4763590     
  -72307708.5975484     
  -72181787.9616565     
  -72055969.4094533     
  -71930248.5480818     
  -71804621.9539441     
  -71679087.5140899     
  -71553644.9522264     
  -71428296.5918246     
  -71303048.4126721     
  -71177911.4560912     
  -71052903.6245556     
  -70928051.8981808     
  -70803394.9468376     
  -70678986.0448163     
  -70554896.0773394     
  -70431216.2897499     
  -70308060.1553512     
  -70185563.7465999     
  -70063883.1348612     
  -69943189.5400090     
  -69823657.4145934     
  -69705459.1776840     
  -69588735.5150064     
  -69473634.4131179     
  -69360214.9180867     
  -69248662.6027640     
  -69139215.3045154     
  -69031092.6098532     
  -68932196.6955412     
  -68817635.8878211     
  -83081259.5062417     
  -82934668.1153446     
  -82766547.1391438     
  -82593130.0636558     
  -82445547.9299763     
  -82307227.9907396     
  -82172620.9934541     
  -82027635.5358842     
  -81872142.4692856     
  -81706237.1373218     
  -81530296.1824044     
  -81345298.2851788     
  -81152382.6747288     
  -80952881.9611864     
  -80748254.7220182     
  -80540074.1344276     
  -80330145.0364057     
  -80119769.0512782     
  -79911181.3431184     
  -79715706.9626149     
  -79540468.5081811     
  -79373256.6972878     
  -79204584.0202516     
  -79035046.5894813     
  -78865087.6790616     
  -78694759.5047807     
  -78524207.8520629     
  -78353510.5195971     
  -78182725.4514768     
  -78011886.0960499     
  -77841011.8802336     
  -77670120.8167156     
  -77499238.0437933     
  -77328470.1967130     
  -77157973.8690981     
  -76988807.4243561     
  -76826345.5647891     
  -76674759.9417593     
  -76529563.6858264     
  -76385742.0008448     
  -76242475.1307596     
  -76099654.1331566     
  -75957178.8917429     
  -75815032.1756292     
  -75673211.3859404     
  -75531725.5755420     
  -75390585.6332372     
  -75253190.4597740     
  -75121254.2798354     
  -74990620.5271114     
  -74860350.8039520     
  -74730431.1840335     
  -74600846.6813770     
  -74471581.6087806     
  -74342619.9015904     
  -74213945.3973517     
  -74085542.0712483     
  -73957394.2298853     
  -73829486.6674863     
  -73701804.7885640     
  -73574334.7007603     
  -73447063.2809584     
  -73319978.2171511     
  -73193068.0280641     
  -73066322.0622137     
  -72939730.4780656     
  -72813284.2073198     
  -72686974.9042157     
  -72560794.8852202     
  -72434737.0656671     
  -72308794.9030034     
  -72182962.3603848     
  -72057233.9095346     
  -71931604.5981272     
  -71806070.2143296     
  -71680627.5894191     
  -71555275.0879715     
  -71430013.3432232     
  -71304846.3010428     
  -71179782.6379204     
  -71054837.6108117     
  -70930035.3797084     
  -70805411.7959290     
  -70681017.5957029     
  -70556921.7792951     
  -70433214.8922121     
  -70310011.4389164     
  -70187450.9596580     
  -70065695.7617640     
  -69944925.8712447     
  -69825327.2430711     
  -69707077.6097279     
  -69590334.5832923     
  -69475192.1273458     
  -69361815.8297861     
  -69249965.0985067     
  -69140767.1028599     
  -69031403.8031106     
  -68931284.1932049     
  -68830098.7198456     
  -83112470.6532350     
  -82973557.8436811     
  -82782938.1662448     
  -82594472.5177318     
  -82432959.3126706     
  -82291952.5001825     
  -82162680.8068522     
  -82019996.4439924     
  -81866879.0955949     
  -81702578.1059890     
  -81527697.8268816     
  -81343267.8711014     
  -81150491.1725751     
  -80950768.8561091     
  -80745630.0696260     
  -80536713.3742585     
  -80325900.2716085     
  -80114890.3466965     
  -79905295.2750975     
  -79707525.1307105     
  -79532753.5357181     
  -79367692.9841471     
  -79199653.1973972     
  -79030790.1435819     
  -78861315.2048179     
  -78691363.0977377     
  -78521110.5706159     
  -78350646.0894931     
  -78180036.4545097     
  -78009313.3227715     
  -77838487.9271908     
  -77667563.1983216     
  -77496533.8633253     
  -77325450.8621883     
  -77154419.7160379     
  -76983875.9161321     
  -76820366.3248946     
  -76669878.6121830     
  -76526168.1098981     
  -76383045.6136490     
  -76240323.7893669     
  -76097910.4557900     
  -75955753.1088794     
  -75813861.3909589     
  -75672248.7148521     
  -75530937.3665656     
  -75389947.0469167     
  -75252745.8796934     
  -75120945.2768296     
  -74990379.7862250     
  -74860174.3064082     
  -74730316.1494881     
  -74600791.2639153     
  -74471584.6844601     
  -74342680.9155630     
  -74214064.2567958     
  -74085719.0707972     
  -73957630.0010261     
  -73829782.1451182     
  -73702161.1897029     
  -73574753.5114429     
  -73447546.2481944     
  -73320527.3432665     
  -73193685.5650504     
  -73067010.5037985     
  -72940492.5471668     
  -72814122.8363692     
  -72687893.2055876     
  -72561796.1086749     
  -72435824.5394101     
  -72309971.9547190     
  -72184232.2144557     
  -72058599.5568188     
  -71933068.6351653     
  -71807634.6499576     
  -71682293.6186051     
  -71557042.8357090     
  -71431881.5854482     
  -71306812.1759999     
  -71181841.3684252     
  -71056982.2712527     
  -70932256.7468195     
  -70807698.3573254     
  -70683355.7530307     
  -70559296.4291405     
  -70435610.2216828     
  -70312412.6252404     
  -70189845.1564970     
  -70068076.1387610     
  -69947288.4087380     
  -69827682.9996669     
  -69709422.6131040     
  -69592705.9674566     
  -69477519.2464981     
  -69364174.1015796     
  -69252096.9915213     
  -69142503.4029408     
  -69033702.1354754     
  -68926856.1284546     
  -68842077.3872375     
  -83163407.6744703     
  -83020623.1049014     
  -82796098.1224649     
  -82602934.0273153     
  -82418964.2361295     
  -82276856.2312718     
  -82153592.1299782     
  -82012609.8073023     
  -81862207.7717827     
  -81699347.4882560     
  -81525544.5994329     
  -81341616.5209880     
  -81148932.8567555     
  -80948928.4481611     
  -80743213.3176704     
  -80533500.4341944     
  -80321686.2732770     
  -80110109.0849985     
  -79899160.9224223     
  -79698132.5585900     
  -79524806.9886762     
  -79362586.4496888     
  -79194773.3241714     
  -79026795.5481968     
  -78857750.8272215     
  -78688213.8576401     
  -78518260.1411666     
  -78348037.8078667     
  -78177606.1608051     
  -78007000.1645692     
  -77836225.0057281     
  -77665257.7654089     
  -77494093.8846167     
  -77322640.3720135     
  -77151169.6436469     
  -76978941.2748260     
  -76813885.7310055     
  -76664948.4726054     
  -76522999.9940305     
  -76380459.1223381     
  -76238331.1226135     
  -76096303.0428234     
  -75954465.6082980     
  -75812821.0877828     
  -75671412.0101995     
  -75530269.5646184     
  -75389423.9860146     
  -75252408.2966731     
  -75120736.1931028     
  -74990236.2589027     
  -74860092.4273601     
  -74730293.2506370     
  -74600825.6296341     
  -74471675.3336555     
  -74342827.4512106     
  -74214266.7587145     
  -74085978.0220761     
  -73957946.2382668     
  -73830156.8261753     
  -73702595.7737735     
  -73575249.7476727     
  -73448106.1697041     
  -73321153.2640443     
  -73194380.0774792     
  -73067776.4747137     
  -72941333.1103478     
  -72815041.3792726     
  -72688893.3479186     
  -72562881.6701930     
  -72436999.4941203     
  -72311240.3684359     
  -72185598.1626792     
  -72060067.0200381     
  -71934641.3692208     
  -71809316.0300489     
  -71684086.4572179     
  -71558949.1770826     
  -71433902.4830306     
  -71308947.4634123     
  -71184089.4427578     
  -71059339.9100221     
  -70934719.0035534     
  -70810258.5524086     
  -70686005.6875640     
  -70562026.6821793     
  -70438411.1030291     
  -70315274.4195035     
  -70192761.2214596     
  -70071039.1154573     
  -69950303.8498410     
  -69830735.1216339     
  -69712557.1095079     
  -69595802.4085691     
  -69480836.5187716     
  -69366936.3989762     
  -69255934.0213930     
  -69143018.4102229     
  -69040322.1297069     
  -68917799.9785739     
  -68853136.0027089     
SCALARS elementIsPlast double 
LOOKUP_TABLE default
  0.000000000000000E+000
  0.000000000000000E+000
  0.000000000000000E+000
  0.000000000000000E+000
  0.000000000000000E+000
  0.000000000000000E+000
  0.000000000000000E+000
  0.000000000000000E+000
  0.000000000000000E+000
  0.000000000000000E+000
  0.000000000000000E+000
  0.000000000000000E+000
  0.000000000000000E+000
  0.000000000000000E+000
  0.000000000000000E+000
  0.000000000000000E+000
  0.000000000000000E+000
  0.000000000000000E+000
  0.000000000000000E+000
  0.000000000000000E+000
  0.000000000000000E+000
  0.000000000000000E+000
  0.000000000000000E+000
  0.000000000000000E+000
  0.000000000000000E+000
  0.000000000000000E+000
  0.000000000000000E+000
  0.000000000000000E+000
  0.000000000000000E+000
  0.000000000000000E+000
  0.000000000000000E+000
  0.000000000000000E+000
  0.000000000000000E+000
  0.000000000000000E+000
  0.000000000000000E+000
  0.000000000000000E+000
  0.000000000000000E+000
  0.000000000000000E+000
  0.000000000000000E+000
  0.000000000000000E+000
  0.000000000000000E+000
  0.000000000000000E+000
  0.000000000000000E+000
  0.000000000000000E+000
  0.000000000000000E+000
  0.000000000000000E+000
  0.000000000000000E+000
   1.00000000000000     
   1.00000000000000     
   1.00000000000000     
   1.00000000000000     
   1.00000000000000     
   1.00000000000000     
   1.00000000000000     
   1.00000000000000     
   1.00000000000000     
   1.00000000000000     
   1.00000000000000     
   1.00000000000000     
   1.00000000000000     
   1.00000000000000     
   1.00000000000000     
   1.00000000000000     
   1.00000000000000     
   1.00000000000000     
   1.00000000000000     
   1.00000000000000     
   1.00000000000000     
   1.00000000000000     
   1.00000000000000     
   1.00000000000000     
   1.00000000000000     
   1.00000000000000     
   1.00000000000000     
   1.00000000000000     
   1.00000000000000     
   1.00000000000000     
   1.00000000000000     
   1.00000000000000     
   1.00000000000000     
   1.00000000000000     
   1.00000000000000     
   1.00000000000000     
   1.00000000000000     
   1.00000000000000     
   1.00000000000000     
   1.00000000000000     
   1.00000000000000     
   1.00000000000000     
   1.00000000000000     
   1.00000000000000     
   1.00000000000000     
   1.00000000000000     
   1.00000000000000     
   1.00000000000000     
   1.00000000000000     
   1.00000000000000     
   1.00000000000000     
   1.00000000000000     
   1.00000000000000     
  0.000000000000000E+000
  0.000000000000000E+000
  0.000000000000000E+000
  0.000000000000000E+000
  0.000000000000000E+000
  0.000000000000000E+000
  0.000000000000000E+000
  0.000000000000000E+000
  0.000000000000000E+000
  0.000000000000000E+000
  0.000000000000000E+000
  0.000000000000000E+000
  0.000000000000000E+000
  0.000000000000000E+000
  0.000000000000000E+000
  0.000000000000000E+000
  0.000000000000000E+000
  0.000000000000000E+000
  0.000000000000000E+000
  0.000000000000000E+000
  0.000000000000000E+000
  0.000000000000000E+000
  0.000000000000000E+000
  0.000000000000000E+000
  0.000000000000000E+000
  0.000000000000000E+000
  0.000000000000000E+000
  0.000000000000000E+000
  0.000000000000000E+000
  0.000000000000000E+000
  0.000000000000000E+000
  0.000000000000000E+000
  0.000000000000000E+000
  0.000000000000000E+000
  0.000000000000000E+000
  0.000000000000000E+000
  0.000000000000000E+000
  0.000000000000000E+000
  0.000000000000000E+000
  0.000000000000000E+000
  0.000000000000000E+000
  0.000000000000000E+000
  0.000000000000000E+000
  0.000000000000000E+000
  0.000000000000000E+000
  0.000000000000000E+000
  0.000000000000000E+000
   1.00000000000000     
   1.00000000000000     
   1.00000000000000     
   1.00000000000000     
   1.00000000000000     
   1.00000000000000     
   1.00000000000000     
   1.00000000000000     
   1.00000000000000     
   1.00000000000000     
   1.00000000000000     
   1.00000000000000     
   1.00000000000000     
   1.00000000000000     
   1.00000000000000     
   1.00000000000000     
   1.00000000000000     
   1.00000000000000     
   1.00000000000000     
   1.00000000000000     
   1.00000000000000     
   1.00000000000000     
   1.00000000000000     
   1.00000000000000     
   1.00000000000000     
   1.00000000000000     
   1.00000000000000     
   1.00000000000000     
   1.00000000000000     
   1.00000000000000     
   1.00000000000000     
   1.00000000000000     
   1.00000000000000     
   1.00000000000000     
   1.00000000000000     
   1.00000000000000     
   1.00000000000000     
   1.00000000000000     
   1.00000000000000     
   1.00000000000000     
   1.00000000000000     
   1.00000000000000     
   1.00000000000000     
   1.00000000000000     
   1.00000000000000     
   1.00000000000000     
   1.00000000000000     
   1.00000000000000     
   1.00000000000000     
   1.00000000000000     
   1.00000000000000     
   1.00000000000000     
   1.00000000000000     
  0.000000000000000E+000
  0.000000000000000E+000
  0.000000000000000E+000
  0.000000000000000E+000
  0.000000000000000E+000
  0.000000000000000E+000
  0.000000000000000E+000
  0.000000000000000E+000
  0.000000000000000E+000
  0.000000000000000E+000
  0.000000000000000E+000
  0.000000000000000E+000
  0.000000000000000E+000
  0.000000000000000E+000
  0.000000000000000E+000
  0.000000000000000E+000
  0.000000000000000E+000
  0.000000000000000E+000
  0.000000000000000E+000
  0.000000000000000E+000
  0.000000000000000E+000
  0.000000000000000E+000
  0.000000000000000E+000
  0.000000000000000E+000
  0.000000000000000E+000
  0.000000000000000E+000
  0.000000000000000E+000
  0.000000000000000E+000
  0.000000000000000E+000
  0.000000000000000E+000
  0.000000000000000E+000
  0.000000000000000E+000
  0.000000000000000E+000
  0.000000000000000E+000
  0.000000000000000E+000
  0.000000000000000E+000
  0.000000000000000E+000
  0.000000000000000E+000
  0.000000000000000E+000
  0.000000000000000E+000
  0.000000000000000E+000
  0.000000000000000E+000
  0.000000000000000E+000
  0.000000000000000E+000
  0.000000000000000E+000
  0.000000000000000E+000
  0.000000000000000E+000
   1.00000000000000     
   1.00000000000000     
   1.00000000000000     
   1.00000000000000     
   1.00000000000000     
   1.00000000000000     
   1.00000000000000     
   1.00000000000000     
   1.00000000000000     
   1.00000000000000     
   1.00000000000000     
   1.00000000000000     
   1.00000000000000     
   1.00000000000000     
   1.00000000000000     
   1.00000000000000     
   1.00000000000000     
   1.00000000000000     
   1.00000000000000     
   1.00000000000000     
   1.00000000000000     
   1.00000000000000     
   1.00000000000000     
   1.00000000000000     
   1.00000000000000     
   1.00000000000000     
   1.00000000000000     
   1.00000000000000     
   1.00000000000000     
   1.00000000000000     
   1.00000000000000     
   1.00000000000000     
   1.00000000000000     
   1.00000000000000     
   1.00000000000000     
   1.00000000000000     
   1.00000000000000     
   1.00000000000000     
   1.00000000000000     
   1.00000000000000     
   1.00000000000000     
   1.00000000000000     
   1.00000000000000     
   1.00000000000000     
   1.00000000000000     
   1.00000000000000     
   1.00000000000000     
   1.00000000000000     
   1.00000000000000     
   1.00000000000000     
   1.00000000000000     
   1.00000000000000     
   1.00000000000000     
  0.000000000000000E+000
  0.000000000000000E+000
  0.000000000000000E+000
  0.000000000000000E+000
  0.000000000000000E+000
  0.000000000000000E+000
  0.000000000000000E+000
  0.000000000000000E+000
  0.000000000000000E+000
  0.000000000000000E+000
  0.000000000000000E+000
  0.000000000000000E+000
  0.000000000000000E+000
  0.000000000000000E+000
  0.000000000000000E+000
  0.000000000000000E+000
  0.000000000000000E+000
  0.000000000000000E+000
  0.000000000000000E+000
  0.000000000000000E+000
  0.000000000000000E+000
  0.000000000000000E+000
  0.000000000000000E+000
  0.000000000000000E+000
  0.000000000000000E+000
  0.000000000000000E+000
  0.000000000000000E+000
  0.000000000000000E+000
  0.000000000000000E+000
  0.000000000000000E+000
  0.000000000000000E+000
  0.000000000000000E+000
  0.000000000000000E+000
  0.000000000000000E+000
  0.000000000000000E+000
  0.000000000000000E+000
  0.000000000000000E+000
  0.000000000000000E+000
  0.000000000000000E+000
  0.000000000000000E+000
  0.000000000000000E+000
  0.000000000000000E+000
  0.000000000000000E+000
  0.000000000000000E+000
  0.000000000000000E+000
  0.000000000000000E+000
  0.000000000000000E+000
   1.00000000000000     
   1.00000000000000     
   1.00000000000000     
   1.00000000000000     
   1.00000000000000     
   1.00000000000000     
   1.00000000000000     
   1.00000000000000     
   1.00000000000000     
   1.00000000000000     
   1.00000000000000     
   1.00000000000000     
   1.00000000000000     
   1.00000000000000     
   1.00000000000000     
   1.00000000000000     
   1.00000000000000     
   1.00000000000000     
   1.00000000000000     
   1.00000000000000     
   1.00000000000000     
   1.00000000000000     
   1.00000000000000     
   1.00000000000000     
   1.00000000000000     
   1.00000000000000     
   1.00000000000000     
   1.00000000000000     
   1.00000000000000     
   1.00000000000000     
   1.00000000000000     
   1.00000000000000     
   1.00000000000000     
   1.00000000000000     
   1.00000000000000     
   1.00000000000000     
   1.00000000000000     
   1.00000000000000     
   1.00000000000000     
   1.00000000000000     
   1.00000000000000     
   1.00000000000000     
   1.00000000000000     
   1.00000000000000     
   1.00000000000000     
   1.00000000000000     
   1.00000000000000     
   1.00000000000000     
   1.00000000000000     
   1.00000000000000     
   1.00000000000000     
   1.00000000000000     
   1.00000000000000     
  0.000000000000000E+000
  0.000000000000000E+000
  0.000000000000000E+000
  0.000000000000000E+000
  0.000000000000000E+000
  0.000000000000000E+000
  0.000000000000000E+000
  0.000000000000000E+000
  0.000000000000000E+000
  0.000000000000000E+000
  0.000000000000000E+000
  0.000000000000000E+000
  0.000000000000000E+000
  0.000000000000000E+000
  0.000000000000000E+000
  0.000000000000000E+000
  0.000000000000000E+000
  0.000000000000000E+000
  0.000000000000000E+000
  0.000000000000000E+000
  0.000000000000000E+000
  0.000000000000000E+000
  0.000000000000000E+000
  0.000000000000000E+000
  0.000000000000000E+000
  0.000000000000000E+000
  0.000000000000000E+000
  0.000000000000000E+000
  0.000000000000000E+000
  0.000000000000000E+000
  0.000000000000000E+000
  0.000000000000000E+000
  0.000000000000000E+000
  0.000000000000000E+000
  0.000000000000000E+000
  0.000000000000000E+000
  0.000000000000000E+000
  0.000000000000000E+000
  0.000000000000000E+000
  0.000000000000000E+000
  0.000000000000000E+000
  0.000000000000000E+000
  0.000000000000000E+000
  0.000000000000000E+000
  0.000000000000000E+000
  0.000000000000000E+000
  0.000000000000000E+000
   1.00000000000000     
   1.00000000000000     
   1.00000000000000     
   1.00000000000000     
   1.00000000000000     
   1.00000000000000     
   1.00000000000000     
   1.00000000000000     
   1.00000000000000     
   1.00000000000000     
   1.00000000000000     
   1.00000000000000     
   1.00000000000000     
   1.00000000000000     
   1.00000000000000     
   1.00000000000000     
   1.00000000000000     
   1.00000000000000     
   1.00000000000000     
   1.00000000000000     
   1.00000000000000     
   1.00000000000000     
   1.00000000000000     
   1.00000000000000     
   1.00000000000000     
   1.00000000000000     
   1.00000000000000     
   1.00000000000000     
   1.00000000000000     
   1.00000000000000     
   1.00000000000000     
   1.00000000000000     
   1.00000000000000     
   1.00000000000000     
   1.00000000000000     
   1.00000000000000     
   1.00000000000000     
   1.00000000000000     
   1.00000000000000     
   1.00000000000000     
   1.00000000000000     
   1.00000000000000     
   1.00000000000000     
   1.00000000000000     
   1.00000000000000     
   1.00000000000000     
   1.00000000000000     
   1.00000000000000     
   1.00000000000000     
   1.00000000000000     
   1.00000000000000     
   1.00000000000000     
   1.00000000000000     
  0.000000000000000E+000
  0.000000000000000E+000
  0.000000000000000E+000
  0.000000000000000E+000
  0.000000000000000E+000
  0.000000000000000E+000
  0.000000000000000E+000
  0.000000000000000E+000
  0.000000000000000E+000
  0.000000000000000E+000
  0.000000000000000E+000
  0.000000000000000E+000
  0.000000000000000E+000
  0.000000000000000E+000
  0.000000000000000E+000
  0.000000000000000E+000
  0.000000000000000E+000
  0.000000000000000E+000
  0.000000000000000E+000
  0.000000000000000E+000
  0.000000000000000E+000
  0.000000000000000E+000
  0.000000000000000E+000
  0.000000000000000E+000
  0.000000000000000E+000
  0.000000000000000E+000
  0.000000000000000E+000
  0.000000000000000E+000
  0.000000000000000E+000
  0.000000000000000E+000
  0.000000000000000E+000
  0.000000000000000E+000
  0.000000000000000E+000
  0.000000000000000E+000
  0.000000000000000E+000
  0.000000000000000E+000
  0.000000000000000E+000
  0.000000000000000E+000
  0.000000000000000E+000
  0.000000000000000E+000
  0.000000000000000E+000
  0.000000000000000E+000
  0.000000000000000E+000
  0.000000000000000E+000
  0.000000000000000E+000
  0.000000000000000E+000
  0.000000000000000E+000
   1.00000000000000     
   1.00000000000000     
   1.00000000000000     
   1.00000000000000     
   1.00000000000000     
   1.00000000000000     
   1.00000000000000     
   1.00000000000000     
   1.00000000000000     
   1.00000000000000     
   1.00000000000000     
   1.00000000000000     
   1.00000000000000     
   1.00000000000000     
   1.00000000000000     
   1.00000000000000     
   1.00000000000000     
   1.00000000000000     
   1.00000000000000     
   1.00000000000000     
   1.00000000000000     
   1.00000000000000     
   1.00000000000000     
   1.00000000000000     
   1.00000000000000     
   1.00000000000000     
   1.00000000000000     
   1.00000000000000     
   1.00000000000000     
   1.00000000000000     
   1.00000000000000     
   1.00000000000000     
   1.00000000000000     
   1.00000000000000     
   1.00000000000000     
   1.00000000000000     
   1.00000000000000     
   1.00000000000000     
   1.00000000000000     
   1.00000000000000     
   1.00000000000000     
   1.00000000000000     
   1.00000000000000     
   1.00000000000000     
   1.00000000000000     
   1.00000000000000     
   1.00000000000000     
   1.00000000000000     
   1.00000000000000     
   1.00000000000000     
   1.00000000000000     
   1.00000000000000     
   1.00000000000000     
  0.000000000000000E+000
  0.000000000000000E+000
  0.000000000000000E+000
  0.000000000000000E+000
  0.000000000000000E+000
  0.000000000000000E+000
  0.000000000000000E+000
  0.000000000000000E+000
  0.000000000000000E+000
  0.000000000000000E+000
  0.000000000000000E+000
  0.000000000000000E+000
  0.000000000000000E+000
  0.000000000000000E+000
  0.000000000000000E+000
  0.000000000000000E+000
  0.000000000000000E+000
  0.000000000000000E+000
  0.000000000000000E+000
  0.000000000000000E+000
  0.000000000000000E+000
  0.000000000000000E+000
  0.000000000000000E+000
  0.000000000000000E+000
  0.000000000000000E+000
  0.000000000000000E+000
  0.000000000000000E+000
  0.000000000000000E+000
  0.000000000000000E+000
  0.000000000000000E+000
  0.000000000000000E+000
  0.000000000000000E+000
  0.000000000000000E+000
  0.000000000000000E+000
  0.000000000000000E+000
  0.000000000000000E+000
  0.000000000000000E+000
  0.000000000000000E+000
  0.000000000000000E+000
  0.000000000000000E+000
  0.000000000000000E+000
  0.000000000000000E+000
  0.000000000000000E+000
  0.000000000000000E+000
  0.000000000000000E+000
  0.000000000000000E+000
  0.000000000000000E+000
   1.00000000000000     
   1.00000000000000     
   1.00000000000000     
   1.00000000000000     
   1.00000000000000     
   1.00000000000000     
   1.00000000000000     
   1.00000000000000     
   1.00000000000000     
   1.00000000000000     
   1.00000000000000     
   1.00000000000000     
   1.00000000000000     
   1.00000000000000     
   1.00000000000000     
   1.00000000000000     
   1.00000000000000     
   1.00000000000000     
   1.00000000000000     
   1.00000000000000     
   1.00000000000000     
   1.00000000000000     
   1.00000000000000     
   1.00000000000000     
   1.00000000000000     
   1.00000000000000     
   1.00000000000000     
   1.00000000000000     
   1.00000000000000     
   1.00000000000000     
   1.00000000000000     
   1.00000000000000     
   1.00000000000000     
   1.00000000000000     
   1.00000000000000     
   1.00000000000000     
   1.00000000000000     
   1.00000000000000     
   1.00000000000000     
   1.00000000000000     
   1.00000000000000     
   1.00000000000000     
   1.00000000000000     
   1.00000000000000     
   1.00000000000000     
   1.00000000000000     
   1.00000000000000     
   1.00000000000000     
   1.00000000000000     
   1.00000000000000     
   1.00000000000000     
   1.00000000000000     
   1.00000000000000     
  0.000000000000000E+000
  0.000000000000000E+000
  0.000000000000000E+000
  0.000000000000000E+000
  0.000000000000000E+000
  0.000000000000000E+000
  0.000000000000000E+000
  0.000000000000000E+000
  0.000000000000000E+000
  0.000000000000000E+000
  0.000000000000000E+000
  0.000000000000000E+000
  0.000000000000000E+000
  0.000000000000000E+000
  0.000000000000000E+000
  0.000000000000000E+000
  0.000000000000000E+000
  0.000000000000000E+000
  0.000000000000000E+000
  0.000000000000000E+000
  0.000000000000000E+000
  0.000000000000000E+000
  0.000000000000000E+000
  0.000000000000000E+000
  0.000000000000000E+000
  0.000000000000000E+000
  0.000000000000000E+000
  0.000000000000000E+000
  0.000000000000000E+000
  0.000000000000000E+000
  0.000000000000000E+000
  0.000000000000000E+000
  0.000000000000000E+000
  0.000000000000000E+000
  0.000000000000000E+000
  0.000000000000000E+000
  0.000000000000000E+000
  0.000000000000000E+000
  0.000000000000000E+000
  0.000000000000000E+000
  0.000000000000000E+000
  0.000000000000000E+000
  0.000000000000000E+000
  0.000000000000000E+000
  0.000000000000000E+000
  0.000000000000000E+000
  0.000000000000000E+000
   1.00000000000000     
   1.00000000000000     
   1.00000000000000     
   1.00000000000000     
   1.00000000000000     
   1.00000000000000     
   1.00000000000000     
   1.00000000000000     
   1.00000000000000     
   1.00000000000000     
   1.00000000000000     
   1.00000000000000     
   1.00000000000000     
   1.00000000000000     
   1.00000000000000     
   1.00000000000000     
   1.00000000000000     
   1.00000000000000     
   1.00000000000000     
   1.00000000000000     
   1.00000000000000     
   1.00000000000000     
   1.00000000000000     
   1.00000000000000     
   1.00000000000000     
   1.00000000000000     
   1.00000000000000     
   1.00000000000000     
   1.00000000000000     
   1.00000000000000     
   1.00000000000000     
   1.00000000000000     
   1.00000000000000     
   1.00000000000000     
   1.00000000000000     
   1.00000000000000     
   1.00000000000000     
   1.00000000000000     
   1.00000000000000     
   1.00000000000000     
   1.00000000000000     
   1.00000000000000     
   1.00000000000000     
   1.00000000000000     
   1.00000000000000     
   1.00000000000000     
   1.00000000000000     
   1.00000000000000     
   1.00000000000000     
   1.00000000000000     
   1.00000000000000     
   1.00000000000000     
   1.00000000000000     
  0.000000000000000E+000
  0.000000000000000E+000
  0.000000000000000E+000
  0.000000000000000E+000
  0.000000000000000E+000
  0.000000000000000E+000
  0.000000000000000E+000
  0.000000000000000E+000
  0.000000000000000E+000
  0.000000000000000E+000
  0.000000000000000E+000
  0.000000000000000E+000
  0.000000000000000E+000
  0.000000000000000E+000
  0.000000000000000E+000
  0.000000000000000E+000
  0.000000000000000E+000
  0.000000000000000E+000
  0.000000000000000E+000
  0.000000000000000E+000
  0.000000000000000E+000
  0.000000000000000E+000
  0.000000000000000E+000
  0.000000000000000E+000
  0.000000000000000E+000
  0.000000000000000E+000
  0.000000000000000E+000
  0.000000000000000E+000
  0.000000000000000E+000
  0.000000000000000E+000
  0.000000000000000E+000
  0.000000000000000E+000
  0.000000000000000E+000
  0.000000000000000E+000
  0.000000000000000E+000
  0.000000000000000E+000
  0.000000000000000E+000
  0.000000000000000E+000
  0.000000000000000E+000
  0.000000000000000E+000
  0.000000000000000E+000
  0.000000000000000E+000
  0.000000000000000E+000
  0.000000000000000E+000
  0.000000000000000E+000
  0.000000000000000E+000
  0.000000000000000E+000
   1.00000000000000     
   1.00000000000000     
   1.00000000000000     
   1.00000000000000     
   1.00000000000000     
   1.00000000000000     
   1.00000000000000     
   1.00000000000000     
   1.00000000000000     
   1.00000000000000     
   1.00000000000000     
   1.00000000000000     
   1.00000000000000     
   1.00000000000000     
   1.00000000000000     
   1.00000000000000     
   1.00000000000000     
   1.00000000000000     
   1.00000000000000     
   1.00000000000000     
   1.00000000000000     
   1.00000000000000     
   1.00000000000000     
   1.00000000000000     
   1.00000000000000     
   1.00000000000000     
   1.00000000000000     
   1.00000000000000     
   1.00000000000000     
   1.00000000000000     
   1.00000000000000     
   1.00000000000000     
   1.00000000000000     
   1.00000000000000     
   1.00000000000000     
   1.00000000000000     
   1.00000000000000     
   1.00000000000000     
   1.00000000000000     
   1.00000000000000     
   1.00000000000000     
   1.00000000000000     
   1.00000000000000     
   1.00000000000000     
   1.00000000000000     
   1.00000000000000     
   1.00000000000000     
   1.00000000000000     
   1.00000000000000     
   1.00000000000000     
   1.00000000000000     
   1.00000000000000     
   1.00000000000000     
  0.000000000000000E+000
  0.000000000000000E+000
  0.000000000000000E+000
  0.000000000000000E+000
  0.000000000000000E+000
  0.000000000000000E+000
  0.000000000000000E+000
  0.000000000000000E+000
  0.000000000000000E+000
  0.000000000000000E+000
  0.000000000000000E+000
  0.000000000000000E+000
  0.000000000000000E+000
  0.000000000000000E+000
  0.000000000000000E+000
  0.000000000000000E+000
  0.000000000000000E+000
  0.000000000000000E+000
  0.000000000000000E+000
  0.000000000000000E+000
  0.000000000000000E+000
  0.000000000000000E+000
  0.000000000000000E+000
  0.000000000000000E+000
  0.000000000000000E+000
  0.000000000000000E+000
  0.000000000000000E+000
  0.000000000000000E+000
  0.000000000000000E+000
  0.000000000000000E+000
  0.000000000000000E+000
  0.000000000000000E+000
  0.000000000000000E+000
  0.000000000000000E+000
  0.000000000000000E+000
  0.000000000000000E+000
  0.000000000000000E+000
  0.000000000000000E+000
  0.000000000000000E+000
  0.000000000000000E+000
  0.000000000000000E+000
  0.000000000000000E+000
  0.000000000000000E+000
  0.000000000000000E+000
  0.000000000000000E+000
  0.000000000000000E+000
  0.000000000000000E+000
   1.00000000000000     
   1.00000000000000     
   1.00000000000000     
   1.00000000000000     
   1.00000000000000     
   1.00000000000000     
   1.00000000000000     
   1.00000000000000     
   1.00000000000000     
   1.00000000000000     
   1.00000000000000     
   1.00000000000000     
   1.00000000000000     
   1.00000000000000     
   1.00000000000000     
   1.00000000000000     
   1.00000000000000     
   1.00000000000000     
   1.00000000000000     
   1.00000000000000     
   1.00000000000000     
   1.00000000000000     
   1.00000000000000     
   1.00000000000000     
   1.00000000000000     
   1.00000000000000     
   1.00000000000000     
   1.00000000000000     
   1.00000000000000     
   1.00000000000000     
   1.00000000000000     
   1.00000000000000     
   1.00000000000000     
   1.00000000000000     
   1.00000000000000     
   1.00000000000000     
   1.00000000000000     
   1.00000000000000     
   1.00000000000000     
   1.00000000000000     
   1.00000000000000     
   1.00000000000000     
   1.00000000000000     
   1.00000000000000     
   1.00000000000000     
   1.00000000000000     
   1.00000000000000     
   1.00000000000000     
   1.00000000000000     
   1.00000000000000     
   1.00000000000000     
   1.00000000000000     
   1.00000000000000     
  0.000000000000000E+000
  0.000000000000000E+000
  0.000000000000000E+000
  0.000000000000000E+000
  0.000000000000000E+000
  0.000000000000000E+000
  0.000000000000000E+000
  0.000000000000000E+000
  0.000000000000000E+000
  0.000000000000000E+000
  0.000000000000000E+000
  0.000000000000000E+000
  0.000000000000000E+000
  0.000000000000000E+000
  0.000000000000000E+000
  0.000000000000000E+000
  0.000000000000000E+000
  0.000000000000000E+000
  0.000000000000000E+000
  0.000000000000000E+000
  0.000000000000000E+000
  0.000000000000000E+000
  0.000000000000000E+000
  0.000000000000000E+000
  0.000000000000000E+000
  0.000000000000000E+000
  0.000000000000000E+000
  0.000000000000000E+000
  0.000000000000000E+000
  0.000000000000000E+000
  0.000000000000000E+000
  0.000000000000000E+000
  0.000000000000000E+000
  0.000000000000000E+000
  0.000000000000000E+000
  0.000000000000000E+000
  0.000000000000000E+000
  0.000000000000000E+000
  0.000000000000000E+000
  0.000000000000000E+000
  0.000000000000000E+000
  0.000000000000000E+000
  0.000000000000000E+000
  0.000000000000000E+000
  0.000000000000000E+000
  0.000000000000000E+000
  0.000000000000000E+000
   1.00000000000000     
   1.00000000000000     
   1.00000000000000     
   1.00000000000000     
   1.00000000000000     
   1.00000000000000     
   1.00000000000000     
   1.00000000000000     
   1.00000000000000     
   1.00000000000000     
   1.00000000000000     
   1.00000000000000     
   1.00000000000000     
   1.00000000000000     
   1.00000000000000     
   1.00000000000000     
   1.00000000000000     
   1.00000000000000     
   1.00000000000000     
   1.00000000000000     
   1.00000000000000     
   1.00000000000000     
   1.00000000000000     
   1.00000000000000     
   1.00000000000000     
   1.00000000000000     
   1.00000000000000     
   1.00000000000000     
   1.00000000000000     
   1.00000000000000     
   1.00000000000000     
   1.00000000000000     
   1.00000000000000     
   1.00000000000000     
   1.00000000000000     
   1.00000000000000     
   1.00000000000000     
   1.00000000000000     
   1.00000000000000     
   1.00000000000000     
   1.00000000000000     
   1.00000000000000     
   1.00000000000000     
   1.00000000000000     
   1.00000000000000     
   1.00000000000000     
   1.00000000000000     
   1.00000000000000     
   1.00000000000000     
   1.00000000000000     
   1.00000000000000     
   1.00000000000000     
   1.00000000000000     
  0.000000000000000E+000
  0.000000000000000E+000
  0.000000000000000E+000
  0.000000000000000E+000
  0.000000000000000E+000
  0.000000000000000E+000
  0.000000000000000E+000
  0.000000000000000E+000
  0.000000000000000E+000
  0.000000000000000E+000
  0.000000000000000E+000
  0.000000000000000E+000
  0.000000000000000E+000
  0.000000000000000E+000
  0.000000000000000E+000
  0.000000000000000E+000
  0.000000000000000E+000
  0.000000000000000E+000
  0.000000000000000E+000
  0.000000000000000E+000
  0.000000000000000E+000
  0.000000000000000E+000
  0.000000000000000E+000
  0.000000000000000E+000
  0.000000000000000E+000
  0.000000000000000E+000
  0.000000000000000E+000
  0.000000000000000E+000
  0.000000000000000E+000
  0.000000000000000E+000
  0.000000000000000E+000
  0.000000000000000E+000
  0.000000000000000E+000
  0.000000000000000E+000
  0.000000000000000E+000
  0.000000000000000E+000
  0.000000000000000E+000
  0.000000000000000E+000
  0.000000000000000E+000
  0.000000000000000E+000
  0.000000000000000E+000
  0.000000000000000E+000
  0.000000000000000E+000
  0.000000000000000E+000
  0.000000000000000E+000
  0.000000000000000E+000
  0.000000000000000E+000
   1.00000000000000     
   1.00000000000000     
   1.00000000000000     
   1.00000000000000     
   1.00000000000000     
   1.00000000000000     
   1.00000000000000     
   1.00000000000000     
   1.00000000000000     
   1.00000000000000     
   1.00000000000000     
   1.00000000000000     
   1.00000000000000     
   1.00000000000000     
   1.00000000000000     
   1.00000000000000     
   1.00000000000000     
   1.00000000000000     
   1.00000000000000     
   1.00000000000000     
   1.00000000000000     
   1.00000000000000     
   1.00000000000000     
   1.00000000000000     
   1.00000000000000     
   1.00000000000000     
   1.00000000000000     
   1.00000000000000     
   1.00000000000000     
   1.00000000000000     
   1.00000000000000     
   1.00000000000000     
   1.00000000000000     
   1.00000000000000     
   1.00000000000000     
   1.00000000000000     
   1.00000000000000     
   1.00000000000000     
   1.00000000000000     
   1.00000000000000     
   1.00000000000000     
   1.00000000000000     
   1.00000000000000     
   1.00000000000000     
   1.00000000000000     
   1.00000000000000     
   1.00000000000000     
   1.00000000000000     
   1.00000000000000     
   1.00000000000000     
   1.00000000000000     
   1.00000000000000     
   1.00000000000000     
  0.000000000000000E+000
  0.000000000000000E+000
  0.000000000000000E+000
  0.000000000000000E+000
  0.000000000000000E+000
  0.000000000000000E+000
  0.000000000000000E+000
  0.000000000000000E+000
  0.000000000000000E+000
  0.000000000000000E+000
  0.000000000000000E+000
  0.000000000000000E+000
  0.000000000000000E+000
  0.000000000000000E+000
  0.000000000000000E+000
  0.000000000000000E+000
  0.000000000000000E+000
  0.000000000000000E+000
  0.000000000000000E+000
  0.000000000000000E+000
  0.000000000000000E+000
  0.000000000000000E+000
  0.000000000000000E+000
  0.000000000000000E+000
  0.000000000000000E+000
  0.000000000000000E+000
  0.000000000000000E+000
  0.000000000000000E+000
  0.000000000000000E+000
  0.000000000000000E+000
  0.000000000000000E+000
  0.000000000000000E+000
  0.000000000000000E+000
  0.000000000000000E+000
  0.000000000000000E+000
  0.000000000000000E+000
  0.000000000000000E+000
  0.000000000000000E+000
  0.000000000000000E+000
  0.000000000000000E+000
  0.000000000000000E+000
  0.000000000000000E+000
  0.000000000000000E+000
  0.000000000000000E+000
  0.000000000000000E+000
  0.000000000000000E+000
  0.000000000000000E+000
   1.00000000000000     
   1.00000000000000     
   1.00000000000000     
   1.00000000000000     
   1.00000000000000     
   1.00000000000000     
   1.00000000000000     
   1.00000000000000     
   1.00000000000000     
   1.00000000000000     
   1.00000000000000     
   1.00000000000000     
   1.00000000000000     
   1.00000000000000     
   1.00000000000000     
   1.00000000000000     
   1.00000000000000     
   1.00000000000000     
   1.00000000000000     
   1.00000000000000     
   1.00000000000000     
   1.00000000000000     
   1.00000000000000     
   1.00000000000000     
   1.00000000000000     
   1.00000000000000     
   1.00000000000000     
   1.00000000000000     
   1.00000000000000     
   1.00000000000000     
   1.00000000000000     
   1.00000000000000     
   1.00000000000000     
   1.00000000000000     
   1.00000000000000     
   1.00000000000000     
   1.00000000000000     
   1.00000000000000     
   1.00000000000000     
   1.00000000000000     
   1.00000000000000     
   1.00000000000000     
   1.00000000000000     
   1.00000000000000     
   1.00000000000000     
   1.00000000000000     
   1.00000000000000     
   1.00000000000000     
   1.00000000000000     
   1.00000000000000     
   1.00000000000000     
   1.00000000000000     
   1.00000000000000     
  0.000000000000000E+000
  0.000000000000000E+000
  0.000000000000000E+000
  0.000000000000000E+000
  0.000000000000000E+000
  0.000000000000000E+000
  0.000000000000000E+000
  0.000000000000000E+000
  0.000000000000000E+000
  0.000000000000000E+000
  0.000000000000000E+000
  0.000000000000000E+000
  0.000000000000000E+000
  0.000000000000000E+000
  0.000000000000000E+000
  0.000000000000000E+000
  0.000000000000000E+000
  0.000000000000000E+000
  0.000000000000000E+000
  0.000000000000000E+000
  0.000000000000000E+000
  0.000000000000000E+000
  0.000000000000000E+000
  0.000000000000000E+000
  0.000000000000000E+000
  0.000000000000000E+000
  0.000000000000000E+000
  0.000000000000000E+000
  0.000000000000000E+000
  0.000000000000000E+000
  0.000000000000000E+000
  0.000000000000000E+000
  0.000000000000000E+000
  0.000000000000000E+000
  0.000000000000000E+000
  0.000000000000000E+000
  0.000000000000000E+000
  0.000000000000000E+000
  0.000000000000000E+000
  0.000000000000000E+000
  0.000000000000000E+000
  0.000000000000000E+000
  0.000000000000000E+000
  0.000000000000000E+000
  0.000000000000000E+000
  0.000000000000000E+000
  0.000000000000000E+000
   1.00000000000000     
   1.00000000000000     
   1.00000000000000     
   1.00000000000000     
   1.00000000000000     
   1.00000000000000     
   1.00000000000000     
   1.00000000000000     
   1.00000000000000     
   1.00000000000000     
   1.00000000000000     
   1.00000000000000     
   1.00000000000000     
   1.00000000000000     
   1.00000000000000     
   1.00000000000000     
   1.00000000000000     
   1.00000000000000     
   1.00000000000000     
   1.00000000000000     
   1.00000000000000     
   1.00000000000000     
   1.00000000000000     
   1.00000000000000     
   1.00000000000000     
   1.00000000000000     
   1.00000000000000     
   1.00000000000000     
   1.00000000000000     
   1.00000000000000     
   1.00000000000000     
   1.00000000000000     
   1.00000000000000     
   1.00000000000000     
   1.00000000000000     
   1.00000000000000     
   1.00000000000000     
   1.00000000000000     
   1.00000000000000     
   1.00000000000000     
   1.00000000000000     
   1.00000000000000     
   1.00000000000000     
   1.00000000000000     
   1.00000000000000     
   1.00000000000000     
   1.00000000000000     
   1.00000000000000     
   1.00000000000000     
   1.00000000000000     
   1.00000000000000     
   1.00000000000000     
   1.00000000000000     
  0.000000000000000E+000
  0.000000000000000E+000
  0.000000000000000E+000
  0.000000000000000E+000
  0.000000000000000E+000
  0.000000000000000E+000
  0.000000000000000E+000
  0.000000000000000E+000
  0.000000000000000E+000
  0.000000000000000E+000
  0.000000000000000E+000
  0.000000000000000E+000
  0.000000000000000E+000
  0.000000000000000E+000
  0.000000000000000E+000
  0.000000000000000E+000
  0.000000000000000E+000
  0.000000000000000E+000
  0.000000000000000E+000
  0.000000000000000E+000
  0.000000000000000E+000
  0.000000000000000E+000
  0.000000000000000E+000
  0.000000000000000E+000
  0.000000000000000E+000
  0.000000000000000E+000
  0.000000000000000E+000
  0.000000000000000E+000
  0.000000000000000E+000
  0.000000000000000E+000
  0.000000000000000E+000
  0.000000000000000E+000
  0.000000000000000E+000
  0.000000000000000E+000
  0.000000000000000E+000
  0.000000000000000E+000
  0.000000000000000E+000
  0.000000000000000E+000
  0.000000000000000E+000
  0.000000000000000E+000
  0.000000000000000E+000
  0.000000000000000E+000
  0.000000000000000E+000
  0.000000000000000E+000
  0.000000000000000E+000
  0.000000000000000E+000
  0.000000000000000E+000
   1.00000000000000     
   1.00000000000000     
   1.00000000000000     
   1.00000000000000     
   1.00000000000000     
   1.00000000000000     
   1.00000000000000     
   1.00000000000000     
   1.00000000000000     
   1.00000000000000     
   1.00000000000000     
   1.00000000000000     
   1.00000000000000     
   1.00000000000000     
   1.00000000000000     
   1.00000000000000     
   1.00000000000000     
   1.00000000000000     
   1.00000000000000     
   1.00000000000000     
   1.00000000000000     
   1.00000000000000     
   1.00000000000000     
   1.00000000000000     
   1.00000000000000     
   1.00000000000000     
   1.00000000000000     
   1.00000000000000     
   1.00000000000000     
   1.00000000000000     
   1.00000000000000     
   1.00000000000000     
   1.00000000000000     
   1.00000000000000     
   1.00000000000000     
   1.00000000000000     
   1.00000000000000     
   1.00000000000000     
   1.00000000000000     
   1.00000000000000     
   1.00000000000000     
   1.00000000000000     
   1.00000000000000     
   1.00000000000000     
   1.00000000000000     
   1.00000000000000     
   1.00000000000000     
   1.00000000000000     
   1.00000000000000     
   1.00000000000000     
   1.00000000000000     
   1.00000000000000     
   1.00000000000000     
  0.000000000000000E+000
  0.000000000000000E+000
  0.000000000000000E+000
  0.000000000000000E+000
  0.000000000000000E+000
  0.000000000000000E+000
  0.000000000000000E+000
  0.000000000000000E+000
  0.000000000000000E+000
  0.000000000000000E+000
  0.000000000000000E+000
  0.000000000000000E+000
  0.000000000000000E+000
  0.000000000000000E+000
  0.000000000000000E+000
  0.000000000000000E+000
  0.000000000000000E+000
  0.000000000000000E+000
  0.000000000000000E+000
  0.000000000000000E+000
  0.000000000000000E+000
  0.000000000000000E+000
  0.000000000000000E+000
  0.000000000000000E+000
  0.000000000000000E+000
  0.000000000000000E+000
  0.000000000000000E+000
  0.000000000000000E+000
  0.000000000000000E+000
  0.000000000000000E+000
  0.000000000000000E+000
  0.000000000000000E+000
  0.000000000000000E+000
  0.000000000000000E+000
  0.000000000000000E+000
  0.000000000000000E+000
  0.000000000000000E+000
  0.000000000000000E+000
  0.000000000000000E+000
  0.000000000000000E+000
  0.000000000000000E+000
  0.000000000000000E+000
  0.000000000000000E+000
  0.000000000000000E+000
  0.000000000000000E+000
  0.000000000000000E+000
  0.000000000000000E+000
   1.00000000000000     
   1.00000000000000     
   1.00000000000000     
   1.00000000000000     
   1.00000000000000     
   1.00000000000000     
   1.00000000000000     
   1.00000000000000     
   1.00000000000000     
   1.00000000000000     
   1.00000000000000     
   1.00000000000000     
   1.00000000000000     
   1.00000000000000     
   1.00000000000000     
   1.00000000000000     
   1.00000000000000     
   1.00000000000000     
   1.00000000000000     
   1.00000000000000     
   1.00000000000000     
   1.00000000000000     
   1.00000000000000     
   1.00000000000000     
   1.00000000000000     
   1.00000000000000     
   1.00000000000000     
   1.00000000000000     
   1.00000000000000     
   1.00000000000000     
   1.00000000000000     
   1.00000000000000     
   1.00000000000000     
   1.00000000000000     
   1.00000000000000     
   1.00000000000000     
   1.00000000000000     
   1.00000000000000     
   1.00000000000000     
   1.00000000000000     
   1.00000000000000     
   1.00000000000000     
   1.00000000000000     
   1.00000000000000     
   1.00000000000000     
   1.00000000000000     
   1.00000000000000     
   1.00000000000000     
   1.00000000000000     
   1.00000000000000     
   1.00000000000000     
   1.00000000000000     
   1.00000000000000     
  0.000000000000000E+000
  0.000000000000000E+000
  0.000000000000000E+000
  0.000000000000000E+000
  0.000000000000000E+000
  0.000000000000000E+000
  0.000000000000000E+000
  0.000000000000000E+000
  0.000000000000000E+000
  0.000000000000000E+000
  0.000000000000000E+000
  0.000000000000000E+000
  0.000000000000000E+000
  0.000000000000000E+000
  0.000000000000000E+000
  0.000000000000000E+000
  0.000000000000000E+000
  0.000000000000000E+000
  0.000000000000000E+000
  0.000000000000000E+000
  0.000000000000000E+000
  0.000000000000000E+000
  0.000000000000000E+000
  0.000000000000000E+000
  0.000000000000000E+000
  0.000000000000000E+000
  0.000000000000000E+000
  0.000000000000000E+000
  0.000000000000000E+000
  0.000000000000000E+000
  0.000000000000000E+000
  0.000000000000000E+000
  0.000000000000000E+000
  0.000000000000000E+000
  0.000000000000000E+000
  0.000000000000000E+000
  0.000000000000000E+000
  0.000000000000000E+000
  0.000000000000000E+000
  0.000000000000000E+000
  0.000000000000000E+000
  0.000000000000000E+000
  0.000000000000000E+000
  0.000000000000000E+000
  0.000000000000000E+000
  0.000000000000000E+000
  0.000000000000000E+000
   1.00000000000000     
   1.00000000000000     
   1.00000000000000     
   1.00000000000000     
   1.00000000000000     
   1.00000000000000     
   1.00000000000000     
   1.00000000000000     
   1.00000000000000     
   1.00000000000000     
   1.00000000000000     
   1.00000000000000     
   1.00000000000000     
   1.00000000000000     
   1.00000000000000     
   1.00000000000000     
   1.00000000000000     
   1.00000000000000     
   1.00000000000000     
   1.00000000000000     
   1.00000000000000     
   1.00000000000000     
   1.00000000000000     
   1.00000000000000     
   1.00000000000000     
   1.00000000000000     
   1.00000000000000     
   1.00000000000000     
   1.00000000000000     
   1.00000000000000     
   1.00000000000000     
   1.00000000000000     
   1.00000000000000     
   1.00000000000000     
   1.00000000000000     
   1.00000000000000     
   1.00000000000000     
   1.00000000000000     
   1.00000000000000     
   1.00000000000000     
   1.00000000000000     
   1.00000000000000     
   1.00000000000000     
   1.00000000000000     
   1.00000000000000     
   1.00000000000000     
   1.00000000000000     
   1.00000000000000     
   1.00000000000000     
   1.00000000000000     
   1.00000000000000     
   1.00000000000000     
   1.00000000000000     
  0.000000000000000E+000
  0.000000000000000E+000
  0.000000000000000E+000
  0.000000000000000E+000
  0.000000000000000E+000
  0.000000000000000E+000
  0.000000000000000E+000
  0.000000000000000E+000
  0.000000000000000E+000
  0.000000000000000E+000
  0.000000000000000E+000
  0.000000000000000E+000
  0.000000000000000E+000
  0.000000000000000E+000
  0.000000000000000E+000
  0.000000000000000E+000
  0.000000000000000E+000
  0.000000000000000E+000
  0.000000000000000E+000
  0.000000000000000E+000
  0.000000000000000E+000
  0.000000000000000E+000
  0.000000000000000E+000
  0.000000000000000E+000
  0.000000000000000E+000
  0.000000000000000E+000
  0.000000000000000E+000
  0.000000000000000E+000
  0.000000000000000E+000
  0.000000000000000E+000
  0.000000000000000E+000
  0.000000000000000E+000
  0.000000000000000E+000
  0.000000000000000E+000
  0.000000000000000E+000
  0.000000000000000E+000
  0.000000000000000E+000
  0.000000000000000E+000
  0.000000000000000E+000
  0.000000000000000E+000
  0.000000000000000E+000
  0.000000000000000E+000
  0.000000000000000E+000
  0.000000000000000E+000
  0.000000000000000E+000
  0.000000000000000E+000
  0.000000000000000E+000
   1.00000000000000     
   1.00000000000000     
   1.00000000000000     
   1.00000000000000     
   1.00000000000000     
   1.00000000000000     
   1.00000000000000     
   1.00000000000000     
   1.00000000000000     
   1.00000000000000     
   1.00000000000000     
   1.00000000000000     
   1.00000000000000     
   1.00000000000000     
   1.00000000000000     
   1.00000000000000     
   1.00000000000000     
   1.00000000000000     
   1.00000000000000     
   1.00000000000000     
   1.00000000000000     
   1.00000000000000     
   1.00000000000000     
   1.00000000000000     
   1.00000000000000     
   1.00000000000000     
   1.00000000000000     
   1.00000000000000     
   1.00000000000000     
   1.00000000000000     
   1.00000000000000     
   1.00000000000000     
   1.00000000000000     
   1.00000000000000     
   1.00000000000000     
   1.00000000000000     
   1.00000000000000     
   1.00000000000000     
   1.00000000000000     
   1.00000000000000     
   1.00000000000000     
   1.00000000000000     
   1.00000000000000     
   1.00000000000000     
   1.00000000000000     
   1.00000000000000     
   1.00000000000000     
   1.00000000000000     
   1.00000000000000     
   1.00000000000000     
   1.00000000000000     
   1.00000000000000     
   1.00000000000000     
  0.000000000000000E+000
  0.000000000000000E+000
  0.000000000000000E+000
  0.000000000000000E+000
  0.000000000000000E+000
  0.000000000000000E+000
  0.000000000000000E+000
  0.000000000000000E+000
  0.000000000000000E+000
  0.000000000000000E+000
  0.000000000000000E+000
  0.000000000000000E+000
  0.000000000000000E+000
  0.000000000000000E+000
  0.000000000000000E+000
  0.000000000000000E+000
  0.000000000000000E+000
  0.000000000000000E+000
  0.000000000000000E+000
  0.000000000000000E+000
  0.000000000000000E+000
  0.000000000000000E+000
  0.000000000000000E+000
  0.000000000000000E+000
  0.000000000000000E+000
  0.000000000000000E+000
  0.000000000000000E+000
  0.000000000000000E+000
  0.000000000000000E+000
  0.000000000000000E+000
  0.000000000000000E+000
  0.000000000000000E+000
  0.000000000000000E+000
  0.000000000000000E+000
  0.000000000000000E+000
  0.000000000000000E+000
  0.000000000000000E+000
  0.000000000000000E+000
  0.000000000000000E+000
  0.000000000000000E+000
  0.000000000000000E+000
  0.000000000000000E+000
  0.000000000000000E+000
  0.000000000000000E+000
  0.000000000000000E+000
  0.000000000000000E+000
  0.000000000000000E+000
   1.00000000000000     
   1.00000000000000     
   1.00000000000000     
   1.00000000000000     
   1.00000000000000     
   1.00000000000000     
   1.00000000000000     
   1.00000000000000     
   1.00000000000000     
   1.00000000000000     
   1.00000000000000     
   1.00000000000000     
   1.00000000000000     
   1.00000000000000     
   1.00000000000000     
   1.00000000000000     
   1.00000000000000     
   1.00000000000000     
   1.00000000000000     
   1.00000000000000     
   1.00000000000000     
   1.00000000000000     
   1.00000000000000     
   1.00000000000000     
   1.00000000000000     
   1.00000000000000     
   1.00000000000000     
   1.00000000000000     
   1.00000000000000     
   1.00000000000000     
   1.00000000000000     
   1.00000000000000     
   1.00000000000000     
   1.00000000000000     
   1.00000000000000     
   1.00000000000000     
   1.00000000000000     
   1.00000000000000     
   1.00000000000000     
   1.00000000000000     
   1.00000000000000     
   1.00000000000000     
   1.00000000000000     
   1.00000000000000     
   1.00000000000000     
   1.00000000000000     
   1.00000000000000     
   1.00000000000000     
   1.00000000000000     
   1.00000000000000     
   1.00000000000000     
   1.00000000000000     
   1.00000000000000     
  0.000000000000000E+000
  0.000000000000000E+000
  0.000000000000000E+000
  0.000000000000000E+000
  0.000000000000000E+000
  0.000000000000000E+000
  0.000000000000000E+000
  0.000000000000000E+000
  0.000000000000000E+000
  0.000000000000000E+000
  0.000000000000000E+000
  0.000000000000000E+000
  0.000000000000000E+000
  0.000000000000000E+000
  0.000000000000000E+000
  0.000000000000000E+000
  0.000000000000000E+000
  0.000000000000000E+000
  0.000000000000000E+000
  0.000000000000000E+000
  0.000000000000000E+000
  0.000000000000000E+000
  0.000000000000000E+000
  0.000000000000000E+000
  0.000000000000000E+000
  0.000000000000000E+000
  0.000000000000000E+000
  0.000000000000000E+000
  0.000000000000000E+000
  0.000000000000000E+000
  0.000000000000000E+000
  0.000000000000000E+000
  0.000000000000000E+000
  0.000000000000000E+000
  0.000000000000000E+000
  0.000000000000000E+000
  0.000000000000000E+000
  0.000000000000000E+000
  0.000000000000000E+000
  0.000000000000000E+000
  0.000000000000000E+000
  0.000000000000000E+000
  0.000000000000000E+000
  0.000000000000000E+000
  0.000000000000000E+000
  0.000000000000000E+000
  0.000000000000000E+000
   1.00000000000000     
   1.00000000000000     
   1.00000000000000     
   1.00000000000000     
   1.00000000000000     
   1.00000000000000     
   1.00000000000000     
   1.00000000000000     
   1.00000000000000     
   1.00000000000000     
   1.00000000000000     
   1.00000000000000     
   1.00000000000000     
   1.00000000000000     
   1.00000000000000     
   1.00000000000000     
   1.00000000000000     
   1.00000000000000     
   1.00000000000000     
   1.00000000000000     
   1.00000000000000     
   1.00000000000000     
   1.00000000000000     
   1.00000000000000     
   1.00000000000000     
   1.00000000000000     
   1.00000000000000     
   1.00000000000000     
   1.00000000000000     
   1.00000000000000     
   1.00000000000000     
   1.00000000000000     
   1.00000000000000     
   1.00000000000000     
   1.00000000000000     
   1.00000000000000     
   1.00000000000000     
   1.00000000000000     
   1.00000000000000     
   1.00000000000000     
   1.00000000000000     
   1.00000000000000     
   1.00000000000000     
   1.00000000000000     
   1.00000000000000     
   1.00000000000000     
   1.00000000000000     
   1.00000000000000     
   1.00000000000000     
   1.00000000000000     
   1.00000000000000     
   1.00000000000000     
   1.00000000000000     
  0.000000000000000E+000
  0.000000000000000E+000
  0.000000000000000E+000
  0.000000000000000E+000
  0.000000000000000E+000
  0.000000000000000E+000
  0.000000000000000E+000
  0.000000000000000E+000
  0.000000000000000E+000
  0.000000000000000E+000
  0.000000000000000E+000
  0.000000000000000E+000
  0.000000000000000E+000
  0.000000000000000E+000
  0.000000000000000E+000
  0.000000000000000E+000
  0.000000000000000E+000
  0.000000000000000E+000
  0.000000000000000E+000
  0.000000000000000E+000
  0.000000000000000E+000
  0.000000000000000E+000
  0.000000000000000E+000
  0.000000000000000E+000
  0.000000000000000E+000
  0.000000000000000E+000
  0.000000000000000E+000
  0.000000000000000E+000
  0.000000000000000E+000
  0.000000000000000E+000
  0.000000000000000E+000
  0.000000000000000E+000
  0.000000000000000E+000
  0.000000000000000E+000
  0.000000000000000E+000
  0.000000000000000E+000
  0.000000000000000E+000
  0.000000000000000E+000
  0.000000000000000E+000
  0.000000000000000E+000
  0.000000000000000E+000
  0.000000000000000E+000
  0.000000000000000E+000
  0.000000000000000E+000
  0.000000000000000E+000
  0.000000000000000E+000
  0.000000000000000E+000
   1.00000000000000     
   1.00000000000000     
   1.00000000000000     
   1.00000000000000     
   1.00000000000000     
   1.00000000000000     
   1.00000000000000     
   1.00000000000000     
   1.00000000000000     
   1.00000000000000     
   1.00000000000000     
   1.00000000000000     
   1.00000000000000     
   1.00000000000000     
   1.00000000000000     
   1.00000000000000     
   1.00000000000000     
   1.00000000000000     
   1.00000000000000     
   1.00000000000000     
   1.00000000000000     
   1.00000000000000     
   1.00000000000000     
   1.00000000000000     
   1.00000000000000     
   1.00000000000000     
   1.00000000000000     
   1.00000000000000     
   1.00000000000000     
   1.00000000000000     
   1.00000000000000     
   1.00000000000000     
   1.00000000000000     
   1.00000000000000     
   1.00000000000000     
   1.00000000000000     
   1.00000000000000     
   1.00000000000000     
   1.00000000000000     
   1.00000000000000     
   1.00000000000000     
   1.00000000000000     
   1.00000000000000     
   1.00000000000000     
   1.00000000000000     
   1.00000000000000     
   1.00000000000000     
   1.00000000000000     
   1.00000000000000     
   1.00000000000000     
   1.00000000000000     
   1.00000000000000     
   1.00000000000000     
  0.000000000000000E+000
  0.000000000000000E+000
  0.000000000000000E+000
  0.000000000000000E+000
  0.000000000000000E+000
  0.000000000000000E+000
  0.000000000000000E+000
  0.000000000000000E+000
  0.000000000000000E+000
  0.000000000000000E+000
  0.000000000000000E+000
  0.000000000000000E+000
  0.000000000000000E+000
  0.000000000000000E+000
  0.000000000000000E+000
  0.000000000000000E+000
  0.000000000000000E+000
  0.000000000000000E+000
  0.000000000000000E+000
  0.000000000000000E+000
  0.000000000000000E+000
  0.000000000000000E+000
  0.000000000000000E+000
  0.000000000000000E+000
  0.000000000000000E+000
  0.000000000000000E+000
  0.000000000000000E+000
  0.000000000000000E+000
  0.000000000000000E+000
  0.000000000000000E+000
  0.000000000000000E+000
  0.000000000000000E+000
  0.000000000000000E+000
  0.000000000000000E+000
  0.000000000000000E+000
  0.000000000000000E+000
  0.000000000000000E+000
  0.000000000000000E+000
  0.000000000000000E+000
  0.000000000000000E+000
  0.000000000000000E+000
  0.000000000000000E+000
  0.000000000000000E+000
  0.000000000000000E+000
  0.000000000000000E+000
  0.000000000000000E+000
  0.000000000000000E+000
   1.00000000000000     
   1.00000000000000     
   1.00000000000000     
   1.00000000000000     
   1.00000000000000     
   1.00000000000000     
   1.00000000000000     
   1.00000000000000     
   1.00000000000000     
   1.00000000000000     
   1.00000000000000     
   1.00000000000000     
   1.00000000000000     
   1.00000000000000     
   1.00000000000000     
   1.00000000000000     
   1.00000000000000     
   1.00000000000000     
   1.00000000000000     
   1.00000000000000     
   1.00000000000000     
   1.00000000000000     
   1.00000000000000     
   1.00000000000000     
   1.00000000000000     
   1.00000000000000     
   1.00000000000000     
   1.00000000000000     
   1.00000000000000     
   1.00000000000000     
   1.00000000000000     
   1.00000000000000     
   1.00000000000000     
   1.00000000000000     
   1.00000000000000     
   1.00000000000000     
   1.00000000000000     
   1.00000000000000     
   1.00000000000000     
   1.00000000000000     
   1.00000000000000     
   1.00000000000000     
   1.00000000000000     
   1.00000000000000     
   1.00000000000000     
   1.00000000000000     
   1.00000000000000     
   1.00000000000000     
   1.00000000000000     
   1.00000000000000     
   1.00000000000000     
   1.00000000000000     
   1.00000000000000     
  0.000000000000000E+000
  0.000000000000000E+000
  0.000000000000000E+000
  0.000000000000000E+000
  0.000000000000000E+000
  0.000000000000000E+000
  0.000000000000000E+000
  0.000000000000000E+000
  0.000000000000000E+000
  0.000000000000000E+000
  0.000000000000000E+000
  0.000000000000000E+000
  0.000000000000000E+000
  0.000000000000000E+000
  0.000000000000000E+000
  0.000000000000000E+000
  0.000000000000000E+000
  0.000000000000000E+000
  0.000000000000000E+000
  0.000000000000000E+000
  0.000000000000000E+000
  0.000000000000000E+000
  0.000000000000000E+000
  0.000000000000000E+000
  0.000000000000000E+000
  0.000000000000000E+000
  0.000000000000000E+000
  0.000000000000000E+000
  0.000000000000000E+000
  0.000000000000000E+000
  0.000000000000000E+000
  0.000000000000000E+000
  0.000000000000000E+000
  0.000000000000000E+000
  0.000000000000000E+000
  0.000000000000000E+000
  0.000000000000000E+000
  0.000000000000000E+000
  0.000000000000000E+000
  0.000000000000000E+000
  0.000000000000000E+000
  0.000000000000000E+000
  0.000000000000000E+000
  0.000000000000000E+000
  0.000000000000000E+000
  0.000000000000000E+000
  0.000000000000000E+000
   1.00000000000000     
   1.00000000000000     
   1.00000000000000     
   1.00000000000000     
   1.00000000000000     
   1.00000000000000     
   1.00000000000000     
   1.00000000000000     
   1.00000000000000     
   1.00000000000000     
   1.00000000000000     
   1.00000000000000     
   1.00000000000000     
   1.00000000000000     
   1.00000000000000     
   1.00000000000000     
   1.00000000000000     
   1.00000000000000     
   1.00000000000000     
   1.00000000000000     
   1.00000000000000     
   1.00000000000000     
   1.00000000000000     
   1.00000000000000     
   1.00000000000000     
   1.00000000000000     
   1.00000000000000     
   1.00000000000000     
   1.00000000000000     
   1.00000000000000     
   1.00000000000000     
   1.00000000000000     
   1.00000000000000     
   1.00000000000000     
   1.00000000000000     
   1.00000000000000     
   1.00000000000000     
   1.00000000000000     
   1.00000000000000     
   1.00000000000000     
   1.00000000000000     
   1.00000000000000     
   1.00000000000000     
   1.00000000000000     
   1.00000000000000     
   1.00000000000000     
   1.00000000000000     
   1.00000000000000     
   1.00000000000000     
   1.00000000000000     
   1.00000000000000     
   1.00000000000000     
   1.00000000000000     
  0.000000000000000E+000
  0.000000000000000E+000
  0.000000000000000E+000
  0.000000000000000E+000
  0.000000000000000E+000
  0.000000000000000E+000
  0.000000000000000E+000
  0.000000000000000E+000
  0.000000000000000E+000
  0.000000000000000E+000
  0.000000000000000E+000
  0.000000000000000E+000
  0.000000000000000E+000
  0.000000000000000E+000
  0.000000000000000E+000
  0.000000000000000E+000
  0.000000000000000E+000
  0.000000000000000E+000
  0.000000000000000E+000
  0.000000000000000E+000
  0.000000000000000E+000
  0.000000000000000E+000
  0.000000000000000E+000
  0.000000000000000E+000
  0.000000000000000E+000
  0.000000000000000E+000
  0.000000000000000E+000
  0.000000000000000E+000
  0.000000000000000E+000
  0.000000000000000E+000
  0.000000000000000E+000
  0.000000000000000E+000
  0.000000000000000E+000
  0.000000000000000E+000
  0.000000000000000E+000
  0.000000000000000E+000
  0.000000000000000E+000
  0.000000000000000E+000
  0.000000000000000E+000
  0.000000000000000E+000
  0.000000000000000E+000
  0.000000000000000E+000
  0.000000000000000E+000
  0.000000000000000E+000
  0.000000000000000E+000
  0.000000000000000E+000
  0.000000000000000E+000
   1.00000000000000     
   1.00000000000000     
   1.00000000000000     
   1.00000000000000     
   1.00000000000000     
   1.00000000000000     
   1.00000000000000     
   1.00000000000000     
   1.00000000000000     
   1.00000000000000     
   1.00000000000000     
   1.00000000000000     
   1.00000000000000     
   1.00000000000000     
   1.00000000000000     
   1.00000000000000     
   1.00000000000000     
   1.00000000000000     
   1.00000000000000     
   1.00000000000000     
   1.00000000000000     
   1.00000000000000     
   1.00000000000000     
   1.00000000000000     
   1.00000000000000     
   1.00000000000000     
   1.00000000000000     
   1.00000000000000     
   1.00000000000000     
   1.00000000000000     
   1.00000000000000     
   1.00000000000000     
   1.00000000000000     
   1.00000000000000     
   1.00000000000000     
   1.00000000000000     
   1.00000000000000     
   1.00000000000000     
   1.00000000000000     
   1.00000000000000     
   1.00000000000000     
   1.00000000000000     
   1.00000000000000     
   1.00000000000000     
   1.00000000000000     
   1.00000000000000     
   1.00000000000000     
   1.00000000000000     
   1.00000000000000     
   1.00000000000000     
   1.00000000000000     
   1.00000000000000     
   1.00000000000000     
  0.000000000000000E+000
  0.000000000000000E+000
  0.000000000000000E+000
  0.000000000000000E+000
  0.000000000000000E+000
  0.000000000000000E+000
  0.000000000000000E+000
  0.000000000000000E+000
  0.000000000000000E+000
  0.000000000000000E+000
  0.000000000000000E+000
  0.000000000000000E+000
  0.000000000000000E+000
  0.000000000000000E+000
  0.000000000000000E+000
  0.000000000000000E+000
  0.000000000000000E+000
  0.000000000000000E+000
  0.000000000000000E+000
  0.000000000000000E+000
  0.000000000000000E+000
  0.000000000000000E+000
  0.000000000000000E+000
  0.000000000000000E+000
  0.000000000000000E+000
  0.000000000000000E+000
  0.000000000000000E+000
  0.000000000000000E+000
  0.000000000000000E+000
  0.000000000000000E+000
  0.000000000000000E+000
  0.000000000000000E+000
  0.000000000000000E+000
  0.000000000000000E+000
  0.000000000000000E+000
  0.000000000000000E+000
  0.000000000000000E+000
  0.000000000000000E+000
  0.000000000000000E+000
  0.000000000000000E+000
  0.000000000000000E+000
  0.000000000000000E+000
  0.000000000000000E+000
  0.000000000000000E+000
  0.000000000000000E+000
  0.000000000000000E+000
  0.000000000000000E+000
   1.00000000000000     
   1.00000000000000     
   1.00000000000000     
   1.00000000000000     
   1.00000000000000     
   1.00000000000000     
   1.00000000000000     
   1.00000000000000     
   1.00000000000000     
   1.00000000000000     
   1.00000000000000     
   1.00000000000000     
   1.00000000000000     
   1.00000000000000     
   1.00000000000000     
   1.00000000000000     
   1.00000000000000     
   1.00000000000000     
   1.00000000000000     
   1.00000000000000     
   1.00000000000000     
   1.00000000000000     
   1.00000000000000     
   1.00000000000000     
   1.00000000000000     
   1.00000000000000     
   1.00000000000000     
   1.00000000000000     
   1.00000000000000     
   1.00000000000000     
   1.00000000000000     
   1.00000000000000     
   1.00000000000000     
   1.00000000000000     
   1.00000000000000     
   1.00000000000000     
   1.00000000000000     
   1.00000000000000     
   1.00000000000000     
   1.00000000000000     
   1.00000000000000     
   1.00000000000000     
   1.00000000000000     
   1.00000000000000     
   1.00000000000000     
   1.00000000000000     
   1.00000000000000     
   1.00000000000000     
   1.00000000000000     
   1.00000000000000     
   1.00000000000000     
   1.00000000000000     
   1.00000000000000     
  0.000000000000000E+000
  0.000000000000000E+000
  0.000000000000000E+000
  0.000000000000000E+000
  0.000000000000000E+000
  0.000000000000000E+000
  0.000000000000000E+000
  0.000000000000000E+000
  0.000000000000000E+000
  0.000000000000000E+000
  0.000000000000000E+000
  0.000000000000000E+000
  0.000000000000000E+000
  0.000000000000000E+000
  0.000000000000000E+000
  0.000000000000000E+000
  0.000000000000000E+000
  0.000000000000000E+000
  0.000000000000000E+000
  0.000000000000000E+000
  0.000000000000000E+000
  0.000000000000000E+000
  0.000000000000000E+000
  0.000000000000000E+000
  0.000000000000000E+000
  0.000000000000000E+000
  0.000000000000000E+000
  0.000000000000000E+000
  0.000000000000000E+000
  0.000000000000000E+000
  0.000000000000000E+000
  0.000000000000000E+000
  0.000000000000000E+000
  0.000000000000000E+000
  0.000000000000000E+000
  0.000000000000000E+000
  0.000000000000000E+000
  0.000000000000000E+000
  0.000000000000000E+000
  0.000000000000000E+000
  0.000000000000000E+000
  0.000000000000000E+000
  0.000000000000000E+000
  0.000000000000000E+000
  0.000000000000000E+000
  0.000000000000000E+000
  0.000000000000000E+000
   1.00000000000000     
   1.00000000000000     
   1.00000000000000     
   1.00000000000000     
   1.00000000000000     
   1.00000000000000     
   1.00000000000000     
   1.00000000000000     
   1.00000000000000     
   1.00000000000000     
   1.00000000000000     
   1.00000000000000     
   1.00000000000000     
   1.00000000000000     
   1.00000000000000     
   1.00000000000000     
   1.00000000000000     
   1.00000000000000     
   1.00000000000000     
   1.00000000000000     
   1.00000000000000     
   1.00000000000000     
   1.00000000000000     
   1.00000000000000     
   1.00000000000000     
   1.00000000000000     
   1.00000000000000     
   1.00000000000000     
   1.00000000000000     
   1.00000000000000     
   1.00000000000000     
   1.00000000000000     
   1.00000000000000     
   1.00000000000000     
   1.00000000000000     
   1.00000000000000     
   1.00000000000000     
   1.00000000000000     
   1.00000000000000     
   1.00000000000000     
   1.00000000000000     
   1.00000000000000     
   1.00000000000000     
   1.00000000000000     
   1.00000000000000     
   1.00000000000000     
   1.00000000000000     
   1.00000000000000     
   1.00000000000000     
   1.00000000000000     
   1.00000000000000     
   1.00000000000000     
   1.00000000000000     
  0.000000000000000E+000
  0.000000000000000E+000
  0.000000000000000E+000
  0.000000000000000E+000
  0.000000000000000E+000
  0.000000000000000E+000
  0.000000000000000E+000
  0.000000000000000E+000
  0.000000000000000E+000
  0.000000000000000E+000
  0.000000000000000E+000
  0.000000000000000E+000
  0.000000000000000E+000
  0.000000000000000E+000
  0.000000000000000E+000
  0.000000000000000E+000
  0.000000000000000E+000
  0.000000000000000E+000
  0.000000000000000E+000
  0.000000000000000E+000
  0.000000000000000E+000
  0.000000000000000E+000
  0.000000000000000E+000
  0.000000000000000E+000
  0.000000000000000E+000
  0.000000000000000E+000
  0.000000000000000E+000
  0.000000000000000E+000
  0.000000000000000E+000
  0.000000000000000E+000
  0.000000000000000E+000
  0.000000000000000E+000
  0.000000000000000E+000
  0.000000000000000E+000
  0.000000000000000E+000
  0.000000000000000E+000
  0.000000000000000E+000
  0.000000000000000E+000
  0.000000000000000E+000
  0.000000000000000E+000
  0.000000000000000E+000
  0.000000000000000E+000
  0.000000000000000E+000
  0.000000000000000E+000
  0.000000000000000E+000
  0.000000000000000E+000
  0.000000000000000E+000
   1.00000000000000     
   1.00000000000000     
   1.00000000000000     
   1.00000000000000     
   1.00000000000000     
   1.00000000000000     
   1.00000000000000     
   1.00000000000000     
   1.00000000000000     
   1.00000000000000     
   1.00000000000000     
   1.00000000000000     
   1.00000000000000     
   1.00000000000000     
   1.00000000000000     
   1.00000000000000     
   1.00000000000000     
   1.00000000000000     
   1.00000000000000     
   1.00000000000000     
   1.00000000000000     
   1.00000000000000     
   1.00000000000000     
   1.00000000000000     
   1.00000000000000     
   1.00000000000000     
   1.00000000000000     
   1.00000000000000     
   1.00000000000000     
   1.00000000000000     
   1.00000000000000     
   1.00000000000000     
   1.00000000000000     
   1.00000000000000     
   1.00000000000000     
   1.00000000000000     
   1.00000000000000     
   1.00000000000000     
   1.00000000000000     
   1.00000000000000     
   1.00000000000000     
   1.00000000000000     
   1.00000000000000     
   1.00000000000000     
   1.00000000000000     
   1.00000000000000     
   1.00000000000000     
   1.00000000000000     
   1.00000000000000     
   1.00000000000000     
   1.00000000000000     
   1.00000000000000     
   1.00000000000000     
  0.000000000000000E+000
  0.000000000000000E+000
  0.000000000000000E+000
  0.000000000000000E+000
  0.000000000000000E+000
  0.000000000000000E+000
  0.000000000000000E+000
  0.000000000000000E+000
  0.000000000000000E+000
  0.000000000000000E+000
  0.000000000000000E+000
  0.000000000000000E+000
  0.000000000000000E+000
  0.000000000000000E+000
  0.000000000000000E+000
  0.000000000000000E+000
  0.000000000000000E+000
  0.000000000000000E+000
  0.000000000000000E+000
  0.000000000000000E+000
  0.000000000000000E+000
  0.000000000000000E+000
  0.000000000000000E+000
  0.000000000000000E+000
  0.000000000000000E+000
  0.000000000000000E+000
  0.000000000000000E+000
  0.000000000000000E+000
  0.000000000000000E+000
  0.000000000000000E+000
  0.000000000000000E+000
  0.000000000000000E+000
  0.000000000000000E+000
  0.000000000000000E+000
  0.000000000000000E+000
  0.000000000000000E+000
  0.000000000000000E+000
  0.000000000000000E+000
  0.000000000000000E+000
  0.000000000000000E+000
  0.000000000000000E+000
  0.000000000000000E+000
  0.000000000000000E+000
  0.000000000000000E+000
  0.000000000000000E+000
  0.000000000000000E+000
  0.000000000000000E+000
   1.00000000000000     
   1.00000000000000     
   1.00000000000000     
   1.00000000000000     
   1.00000000000000     
   1.00000000000000     
   1.00000000000000     
   1.00000000000000     
   1.00000000000000     
   1.00000000000000     
   1.00000000000000     
   1.00000000000000     
   1.00000000000000     
   1.00000000000000     
   1.00000000000000     
   1.00000000000000     
   1.00000000000000     
   1.00000000000000     
   1.00000000000000     
   1.00000000000000     
   1.00000000000000     
   1.00000000000000     
   1.00000000000000     
   1.00000000000000     
   1.00000000000000     
   1.00000000000000     
   1.00000000000000     
   1.00000000000000     
   1.00000000000000     
   1.00000000000000     
   1.00000000000000     
   1.00000000000000     
   1.00000000000000     
   1.00000000000000     
   1.00000000000000     
   1.00000000000000     
   1.00000000000000     
   1.00000000000000     
   1.00000000000000     
   1.00000000000000     
   1.00000000000000     
   1.00000000000000     
   1.00000000000000     
   1.00000000000000     
   1.00000000000000     
   1.00000000000000     
   1.00000000000000     
   1.00000000000000     
   1.00000000000000     
   1.00000000000000     
   1.00000000000000     
   1.00000000000000     
   1.00000000000000     
  0.000000000000000E+000
  0.000000000000000E+000
  0.000000000000000E+000
  0.000000000000000E+000
  0.000000000000000E+000
  0.000000000000000E+000
  0.000000000000000E+000
  0.000000000000000E+000
  0.000000000000000E+000
  0.000000000000000E+000
  0.000000000000000E+000
  0.000000000000000E+000
  0.000000000000000E+000
  0.000000000000000E+000
  0.000000000000000E+000
  0.000000000000000E+000
  0.000000000000000E+000
  0.000000000000000E+000
  0.000000000000000E+000
  0.000000000000000E+000
  0.000000000000000E+000
  0.000000000000000E+000
  0.000000000000000E+000
  0.000000000000000E+000
  0.000000000000000E+000
  0.000000000000000E+000
  0.000000000000000E+000
  0.000000000000000E+000
  0.000000000000000E+000
  0.000000000000000E+000
  0.000000000000000E+000
  0.000000000000000E+000
  0.000000000000000E+000
  0.000000000000000E+000
  0.000000000000000E+000
  0.000000000000000E+000
  0.000000000000000E+000
  0.000000000000000E+000
  0.000000000000000E+000
  0.000000000000000E+000
  0.000000000000000E+000
  0.000000000000000E+000
  0.000000000000000E+000
  0.000000000000000E+000
  0.000000000000000E+000
  0.000000000000000E+000
  0.000000000000000E+000
   1.00000000000000     
   1.00000000000000     
   1.00000000000000     
   1.00000000000000     
   1.00000000000000     
   1.00000000000000     
   1.00000000000000     
   1.00000000000000     
   1.00000000000000     
   1.00000000000000     
   1.00000000000000     
   1.00000000000000     
   1.00000000000000     
   1.00000000000000     
   1.00000000000000     
   1.00000000000000     
   1.00000000000000     
   1.00000000000000     
   1.00000000000000     
   1.00000000000000     
   1.00000000000000     
   1.00000000000000     
   1.00000000000000     
   1.00000000000000     
   1.00000000000000     
   1.00000000000000     
   1.00000000000000     
   1.00000000000000     
   1.00000000000000     
   1.00000000000000     
   1.00000000000000     
   1.00000000000000     
   1.00000000000000     
   1.00000000000000     
   1.00000000000000     
   1.00000000000000     
   1.00000000000000     
   1.00000000000000     
   1.00000000000000     
   1.00000000000000     
   1.00000000000000     
   1.00000000000000     
   1.00000000000000     
   1.00000000000000     
   1.00000000000000     
   1.00000000000000     
   1.00000000000000     
   1.00000000000000     
   1.00000000000000     
   1.00000000000000     
   1.00000000000000     
   1.00000000000000     
   1.00000000000000     
  0.000000000000000E+000
  0.000000000000000E+000
  0.000000000000000E+000
  0.000000000000000E+000
  0.000000000000000E+000
  0.000000000000000E+000
  0.000000000000000E+000
  0.000000000000000E+000
  0.000000000000000E+000
  0.000000000000000E+000
  0.000000000000000E+000
  0.000000000000000E+000
  0.000000000000000E+000
  0.000000000000000E+000
  0.000000000000000E+000
  0.000000000000000E+000
  0.000000000000000E+000
  0.000000000000000E+000
  0.000000000000000E+000
  0.000000000000000E+000
  0.000000000000000E+000
  0.000000000000000E+000
  0.000000000000000E+000
  0.000000000000000E+000
  0.000000000000000E+000
  0.000000000000000E+000
  0.000000000000000E+000
  0.000000000000000E+000
  0.000000000000000E+000
  0.000000000000000E+000
  0.000000000000000E+000
  0.000000000000000E+000
  0.000000000000000E+000
  0.000000000000000E+000
  0.000000000000000E+000
  0.000000000000000E+000
  0.000000000000000E+000
  0.000000000000000E+000
  0.000000000000000E+000
  0.000000000000000E+000
  0.000000000000000E+000
  0.000000000000000E+000
  0.000000000000000E+000
  0.000000000000000E+000
  0.000000000000000E+000
  0.000000000000000E+000
  0.000000000000000E+000
   1.00000000000000     
   1.00000000000000     
   1.00000000000000     
   1.00000000000000     
   1.00000000000000     
   1.00000000000000     
   1.00000000000000     
   1.00000000000000     
   1.00000000000000     
   1.00000000000000     
   1.00000000000000     
   1.00000000000000     
   1.00000000000000     
   1.00000000000000     
   1.00000000000000     
   1.00000000000000     
   1.00000000000000     
   1.00000000000000     
   1.00000000000000     
   1.00000000000000     
   1.00000000000000     
   1.00000000000000     
   1.00000000000000     
   1.00000000000000     
   1.00000000000000     
   1.00000000000000     
   1.00000000000000     
   1.00000000000000     
   1.00000000000000     
   1.00000000000000     
   1.00000000000000     
   1.00000000000000     
   1.00000000000000     
   1.00000000000000     
   1.00000000000000     
   1.00000000000000     
   1.00000000000000     
   1.00000000000000     
   1.00000000000000     
   1.00000000000000     
   1.00000000000000     
   1.00000000000000     
   1.00000000000000     
   1.00000000000000     
   1.00000000000000     
   1.00000000000000     
   1.00000000000000     
   1.00000000000000     
   1.00000000000000     
   1.00000000000000     
   1.00000000000000     
   1.00000000000000     
   1.00000000000000     
  0.000000000000000E+000
  0.000000000000000E+000
  0.000000000000000E+000
  0.000000000000000E+000
  0.000000000000000E+000
  0.000000000000000E+000
  0.000000000000000E+000
  0.000000000000000E+000
  0.000000000000000E+000
  0.000000000000000E+000
  0.000000000000000E+000
  0.000000000000000E+000
  0.000000000000000E+000
  0.000000000000000E+000
  0.000000000000000E+000
  0.000000000000000E+000
  0.000000000000000E+000
  0.000000000000000E+000
  0.000000000000000E+000
  0.000000000000000E+000
  0.000000000000000E+000
  0.000000000000000E+000
  0.000000000000000E+000
  0.000000000000000E+000
  0.000000000000000E+000
  0.000000000000000E+000
  0.000000000000000E+000
  0.000000000000000E+000
  0.000000000000000E+000
  0.000000000000000E+000
  0.000000000000000E+000
  0.000000000000000E+000
  0.000000000000000E+000
  0.000000000000000E+000
  0.000000000000000E+000
  0.000000000000000E+000
  0.000000000000000E+000
  0.000000000000000E+000
  0.000000000000000E+000
  0.000000000000000E+000
  0.000000000000000E+000
  0.000000000000000E+000
  0.000000000000000E+000
  0.000000000000000E+000
  0.000000000000000E+000
  0.000000000000000E+000
  0.000000000000000E+000
   1.00000000000000     
   1.00000000000000     
   1.00000000000000     
   1.00000000000000     
   1.00000000000000     
   1.00000000000000     
   1.00000000000000     
   1.00000000000000     
   1.00000000000000     
   1.00000000000000     
   1.00000000000000     
   1.00000000000000     
   1.00000000000000     
   1.00000000000000     
   1.00000000000000     
   1.00000000000000     
   1.00000000000000     
   1.00000000000000     
   1.00000000000000     
   1.00000000000000     
   1.00000000000000     
   1.00000000000000     
   1.00000000000000     
   1.00000000000000     
   1.00000000000000     
   1.00000000000000     
   1.00000000000000     
   1.00000000000000     
   1.00000000000000     
   1.00000000000000     
   1.00000000000000     
   1.00000000000000     
   1.00000000000000     
   1.00000000000000     
   1.00000000000000     
   1.00000000000000     
   1.00000000000000     
   1.00000000000000     
   1.00000000000000     
   1.00000000000000     
   1.00000000000000     
   1.00000000000000     
   1.00000000000000     
   1.00000000000000     
   1.00000000000000     
   1.00000000000000     
   1.00000000000000     
   1.00000000000000     
   1.00000000000000     
   1.00000000000000     
   1.00000000000000     
   1.00000000000000     
   1.00000000000000     
  0.000000000000000E+000
  0.000000000000000E+000
  0.000000000000000E+000
  0.000000000000000E+000
  0.000000000000000E+000
  0.000000000000000E+000
  0.000000000000000E+000
  0.000000000000000E+000
  0.000000000000000E+000
  0.000000000000000E+000
  0.000000000000000E+000
  0.000000000000000E+000
  0.000000000000000E+000
  0.000000000000000E+000
  0.000000000000000E+000
  0.000000000000000E+000
  0.000000000000000E+000
  0.000000000000000E+000
  0.000000000000000E+000
  0.000000000000000E+000
  0.000000000000000E+000
  0.000000000000000E+000
  0.000000000000000E+000
  0.000000000000000E+000
  0.000000000000000E+000
  0.000000000000000E+000
  0.000000000000000E+000
  0.000000000000000E+000
  0.000000000000000E+000
  0.000000000000000E+000
  0.000000000000000E+000
  0.000000000000000E+000
  0.000000000000000E+000
  0.000000000000000E+000
  0.000000000000000E+000
  0.000000000000000E+000
  0.000000000000000E+000
  0.000000000000000E+000
  0.000000000000000E+000
  0.000000000000000E+000
  0.000000000000000E+000
  0.000000000000000E+000
  0.000000000000000E+000
  0.000000000000000E+000
  0.000000000000000E+000
  0.000000000000000E+000
  0.000000000000000E+000
   1.00000000000000     
   1.00000000000000     
   1.00000000000000     
   1.00000000000000     
   1.00000000000000     
   1.00000000000000     
   1.00000000000000     
   1.00000000000000     
   1.00000000000000     
   1.00000000000000     
   1.00000000000000     
   1.00000000000000     
   1.00000000000000     
   1.00000000000000     
   1.00000000000000     
   1.00000000000000     
   1.00000000000000     
   1.00000000000000     
   1.00000000000000     
   1.00000000000000     
   1.00000000000000     
   1.00000000000000     
   1.00000000000000     
   1.00000000000000     
   1.00000000000000     
   1.00000000000000     
   1.00000000000000     
   1.00000000000000     
   1.00000000000000     
   1.00000000000000     
   1.00000000000000     
   1.00000000000000     
   1.00000000000000     
   1.00000000000000     
   1.00000000000000     
   1.00000000000000     
   1.00000000000000     
   1.00000000000000     
   1.00000000000000     
   1.00000000000000     
   1.00000000000000     
   1.00000000000000     
   1.00000000000000     
   1.00000000000000     
   1.00000000000000     
   1.00000000000000     
   1.00000000000000     
   1.00000000000000     
   1.00000000000000     
   1.00000000000000     
   1.00000000000000     
   1.00000000000000     
   1.00000000000000     
  0.000000000000000E+000
  0.000000000000000E+000
  0.000000000000000E+000
  0.000000000000000E+000
  0.000000000000000E+000
  0.000000000000000E+000
  0.000000000000000E+000
  0.000000000000000E+000
  0.000000000000000E+000
  0.000000000000000E+000
  0.000000000000000E+000
  0.000000000000000E+000
  0.000000000000000E+000
  0.000000000000000E+000
  0.000000000000000E+000
  0.000000000000000E+000
  0.000000000000000E+000
  0.000000000000000E+000
  0.000000000000000E+000
  0.000000000000000E+000
  0.000000000000000E+000
  0.000000000000000E+000
  0.000000000000000E+000
  0.000000000000000E+000
  0.000000000000000E+000
  0.000000000000000E+000
  0.000000000000000E+000
  0.000000000000000E+000
  0.000000000000000E+000
  0.000000000000000E+000
  0.000000000000000E+000
  0.000000000000000E+000
  0.000000000000000E+000
  0.000000000000000E+000
  0.000000000000000E+000
  0.000000000000000E+000
  0.000000000000000E+000
  0.000000000000000E+000
  0.000000000000000E+000
  0.000000000000000E+000
  0.000000000000000E+000
  0.000000000000000E+000
  0.000000000000000E+000
  0.000000000000000E+000
  0.000000000000000E+000
  0.000000000000000E+000
  0.000000000000000E+000
   1.00000000000000     
   1.00000000000000     
   1.00000000000000     
   1.00000000000000     
   1.00000000000000     
   1.00000000000000     
   1.00000000000000     
   1.00000000000000     
   1.00000000000000     
   1.00000000000000     
   1.00000000000000     
   1.00000000000000     
   1.00000000000000     
   1.00000000000000     
   1.00000000000000     
   1.00000000000000     
   1.00000000000000     
   1.00000000000000     
   1.00000000000000     
   1.00000000000000     
   1.00000000000000     
   1.00000000000000     
   1.00000000000000     
   1.00000000000000     
   1.00000000000000     
   1.00000000000000     
   1.00000000000000     
   1.00000000000000     
   1.00000000000000     
   1.00000000000000     
   1.00000000000000     
   1.00000000000000     
   1.00000000000000     
   1.00000000000000     
   1.00000000000000     
   1.00000000000000     
   1.00000000000000     
   1.00000000000000     
   1.00000000000000     
   1.00000000000000     
   1.00000000000000     
   1.00000000000000     
   1.00000000000000     
   1.00000000000000     
   1.00000000000000     
   1.00000000000000     
   1.00000000000000     
   1.00000000000000     
   1.00000000000000     
   1.00000000000000     
   1.00000000000000     
   1.00000000000000     
   1.00000000000000     
  0.000000000000000E+000
  0.000000000000000E+000
  0.000000000000000E+000
  0.000000000000000E+000
  0.000000000000000E+000
  0.000000000000000E+000
  0.000000000000000E+000
  0.000000000000000E+000
  0.000000000000000E+000
  0.000000000000000E+000
  0.000000000000000E+000
  0.000000000000000E+000
  0.000000000000000E+000
  0.000000000000000E+000
  0.000000000000000E+000
  0.000000000000000E+000
  0.000000000000000E+000
  0.000000000000000E+000
  0.000000000000000E+000
  0.000000000000000E+000
  0.000000000000000E+000
  0.000000000000000E+000
  0.000000000000000E+000
  0.000000000000000E+000
  0.000000000000000E+000
  0.000000000000000E+000
  0.000000000000000E+000
  0.000000000000000E+000
  0.000000000000000E+000
  0.000000000000000E+000
  0.000000000000000E+000
  0.000000000000000E+000
  0.000000000000000E+000
  0.000000000000000E+000
  0.000000000000000E+000
  0.000000000000000E+000
  0.000000000000000E+000
  0.000000000000000E+000
  0.000000000000000E+000
  0.000000000000000E+000
  0.000000000000000E+000
  0.000000000000000E+000
  0.000000000000000E+000
  0.000000000000000E+000
  0.000000000000000E+000
  0.000000000000000E+000
  0.000000000000000E+000
   1.00000000000000     
   1.00000000000000     
   1.00000000000000     
   1.00000000000000     
   1.00000000000000     
   1.00000000000000     
   1.00000000000000     
   1.00000000000000     
   1.00000000000000     
   1.00000000000000     
   1.00000000000000     
   1.00000000000000     
   1.00000000000000     
   1.00000000000000     
   1.00000000000000     
   1.00000000000000     
   1.00000000000000     
   1.00000000000000     
   1.00000000000000     
   1.00000000000000     
   1.00000000000000     
   1.00000000000000     
   1.00000000000000     
   1.00000000000000     
   1.00000000000000     
   1.00000000000000     
   1.00000000000000     
   1.00000000000000     
   1.00000000000000     
   1.00000000000000     
   1.00000000000000     
   1.00000000000000     
   1.00000000000000     
   1.00000000000000     
   1.00000000000000     
   1.00000000000000     
   1.00000000000000     
   1.00000000000000     
   1.00000000000000     
   1.00000000000000     
   1.00000000000000     
   1.00000000000000     
   1.00000000000000     
   1.00000000000000     
   1.00000000000000     
   1.00000000000000     
   1.00000000000000     
   1.00000000000000     
   1.00000000000000     
   1.00000000000000     
   1.00000000000000     
   1.00000000000000     
   1.00000000000000     
  0.000000000000000E+000
  0.000000000000000E+000
  0.000000000000000E+000
  0.000000000000000E+000
  0.000000000000000E+000
  0.000000000000000E+000
  0.000000000000000E+000
  0.000000000000000E+000
  0.000000000000000E+000
  0.000000000000000E+000
  0.000000000000000E+000
  0.000000000000000E+000
  0.000000000000000E+000
  0.000000000000000E+000
  0.000000000000000E+000
  0.000000000000000E+000
  0.000000000000000E+000
  0.000000000000000E+000
  0.000000000000000E+000
  0.000000000000000E+000
  0.000000000000000E+000
  0.000000000000000E+000
  0.000000000000000E+000
  0.000000000000000E+000
  0.000000000000000E+000
  0.000000000000000E+000
  0.000000000000000E+000
  0.000000000000000E+000
  0.000000000000000E+000
  0.000000000000000E+000
  0.000000000000000E+000
  0.000000000000000E+000
  0.000000000000000E+000
  0.000000000000000E+000
  0.000000000000000E+000
  0.000000000000000E+000
  0.000000000000000E+000
  0.000000000000000E+000
  0.000000000000000E+000
  0.000000000000000E+000
  0.000000000000000E+000
  0.000000000000000E+000
  0.000000000000000E+000
  0.000000000000000E+000
  0.000000000000000E+000
  0.000000000000000E+000
  0.000000000000000E+000
   1.00000000000000     
   1.00000000000000     
   1.00000000000000     
   1.00000000000000     
   1.00000000000000     
   1.00000000000000     
   1.00000000000000     
   1.00000000000000     
   1.00000000000000     
   1.00000000000000     
   1.00000000000000     
   1.00000000000000     
   1.00000000000000     
   1.00000000000000     
   1.00000000000000     
   1.00000000000000     
   1.00000000000000     
   1.00000000000000     
   1.00000000000000     
   1.00000000000000     
   1.00000000000000     
   1.00000000000000     
   1.00000000000000     
   1.00000000000000     
   1.00000000000000     
   1.00000000000000     
   1.00000000000000     
   1.00000000000000     
   1.00000000000000     
   1.00000000000000     
   1.00000000000000     
   1.00000000000000     
   1.00000000000000     
   1.00000000000000     
   1.00000000000000     
   1.00000000000000     
   1.00000000000000     
   1.00000000000000     
   1.00000000000000     
   1.00000000000000     
   1.00000000000000     
   1.00000000000000     
   1.00000000000000     
   1.00000000000000     
   1.00000000000000     
   1.00000000000000     
   1.00000000000000     
   1.00000000000000     
   1.00000000000000     
   1.00000000000000     
   1.00000000000000     
   1.00000000000000     
   1.00000000000000     
  0.000000000000000E+000
  0.000000000000000E+000
  0.000000000000000E+000
  0.000000000000000E+000
  0.000000000000000E+000
  0.000000000000000E+000
  0.000000000000000E+000
  0.000000000000000E+000
  0.000000000000000E+000
  0.000000000000000E+000
  0.000000000000000E+000
  0.000000000000000E+000
  0.000000000000000E+000
  0.000000000000000E+000
  0.000000000000000E+000
  0.000000000000000E+000
  0.000000000000000E+000
  0.000000000000000E+000
  0.000000000000000E+000
  0.000000000000000E+000
  0.000000000000000E+000
  0.000000000000000E+000
  0.000000000000000E+000
  0.000000000000000E+000
  0.000000000000000E+000
  0.000000000000000E+000
  0.000000000000000E+000
  0.000000000000000E+000
  0.000000000000000E+000
  0.000000000000000E+000
  0.000000000000000E+000
  0.000000000000000E+000
  0.000000000000000E+000
  0.000000000000000E+000
  0.000000000000000E+000
  0.000000000000000E+000
  0.000000000000000E+000
  0.000000000000000E+000
  0.000000000000000E+000
  0.000000000000000E+000
  0.000000000000000E+000
  0.000000000000000E+000
  0.000000000000000E+000
  0.000000000000000E+000
  0.000000000000000E+000
  0.000000000000000E+000
  0.000000000000000E+000
   1.00000000000000     
   1.00000000000000     
   1.00000000000000     
   1.00000000000000     
   1.00000000000000     
   1.00000000000000     
   1.00000000000000     
   1.00000000000000     
   1.00000000000000     
   1.00000000000000     
   1.00000000000000     
   1.00000000000000     
   1.00000000000000     
   1.00000000000000     
   1.00000000000000     
   1.00000000000000     
   1.00000000000000     
   1.00000000000000     
   1.00000000000000     
   1.00000000000000     
   1.00000000000000     
   1.00000000000000     
   1.00000000000000     
   1.00000000000000     
   1.00000000000000     
   1.00000000000000     
   1.00000000000000     
   1.00000000000000     
   1.00000000000000     
   1.00000000000000     
   1.00000000000000     
   1.00000000000000     
   1.00000000000000     
   1.00000000000000     
   1.00000000000000     
   1.00000000000000     
   1.00000000000000     
   1.00000000000000     
   1.00000000000000     
   1.00000000000000     
   1.00000000000000     
   1.00000000000000     
   1.00000000000000     
   1.00000000000000     
   1.00000000000000     
   1.00000000000000     
   1.00000000000000     
   1.00000000000000     
   1.00000000000000     
   1.00000000000000     
   1.00000000000000     
   1.00000000000000     
   1.00000000000000     
  0.000000000000000E+000
  0.000000000000000E+000
  0.000000000000000E+000
  0.000000000000000E+000
  0.000000000000000E+000
  0.000000000000000E+000
  0.000000000000000E+000
  0.000000000000000E+000
  0.000000000000000E+000
  0.000000000000000E+000
  0.000000000000000E+000
  0.000000000000000E+000
  0.000000000000000E+000
  0.000000000000000E+000
  0.000000000000000E+000
  0.000000000000000E+000
  0.000000000000000E+000
  0.000000000000000E+000
  0.000000000000000E+000
  0.000000000000000E+000
  0.000000000000000E+000
  0.000000000000000E+000
  0.000000000000000E+000
  0.000000000000000E+000
  0.000000000000000E+000
  0.000000000000000E+000
  0.000000000000000E+000
  0.000000000000000E+000
  0.000000000000000E+000
  0.000000000000000E+000
  0.000000000000000E+000
  0.000000000000000E+000
  0.000000000000000E+000
  0.000000000000000E+000
  0.000000000000000E+000
  0.000000000000000E+000
  0.000000000000000E+000
  0.000000000000000E+000
  0.000000000000000E+000
  0.000000000000000E+000
  0.000000000000000E+000
  0.000000000000000E+000
  0.000000000000000E+000
  0.000000000000000E+000
  0.000000000000000E+000
  0.000000000000000E+000
  0.000000000000000E+000
   1.00000000000000     
   1.00000000000000     
   1.00000000000000     
   1.00000000000000     
   1.00000000000000     
   1.00000000000000     
   1.00000000000000     
   1.00000000000000     
   1.00000000000000     
   1.00000000000000     
   1.00000000000000     
   1.00000000000000     
   1.00000000000000     
   1.00000000000000     
   1.00000000000000     
   1.00000000000000     
   1.00000000000000     
   1.00000000000000     
   1.00000000000000     
   1.00000000000000     
   1.00000000000000     
   1.00000000000000     
   1.00000000000000     
   1.00000000000000     
   1.00000000000000     
   1.00000000000000     
   1.00000000000000     
   1.00000000000000     
   1.00000000000000     
   1.00000000000000     
   1.00000000000000     
   1.00000000000000     
   1.00000000000000     
   1.00000000000000     
   1.00000000000000     
   1.00000000000000     
   1.00000000000000     
   1.00000000000000     
   1.00000000000000     
   1.00000000000000     
   1.00000000000000     
   1.00000000000000     
   1.00000000000000     
   1.00000000000000     
   1.00000000000000     
   1.00000000000000     
   1.00000000000000     
   1.00000000000000     
   1.00000000000000     
   1.00000000000000     
   1.00000000000000     
   1.00000000000000     
   1.00000000000000     
  0.000000000000000E+000
  0.000000000000000E+000
  0.000000000000000E+000
  0.000000000000000E+000
  0.000000000000000E+000
  0.000000000000000E+000
  0.000000000000000E+000
  0.000000000000000E+000
  0.000000000000000E+000
  0.000000000000000E+000
  0.000000000000000E+000
  0.000000000000000E+000
  0.000000000000000E+000
  0.000000000000000E+000
  0.000000000000000E+000
  0.000000000000000E+000
  0.000000000000000E+000
  0.000000000000000E+000
  0.000000000000000E+000
  0.000000000000000E+000
  0.000000000000000E+000
  0.000000000000000E+000
  0.000000000000000E+000
  0.000000000000000E+000
  0.000000000000000E+000
  0.000000000000000E+000
  0.000000000000000E+000
  0.000000000000000E+000
  0.000000000000000E+000
  0.000000000000000E+000
  0.000000000000000E+000
  0.000000000000000E+000
  0.000000000000000E+000
  0.000000000000000E+000
  0.000000000000000E+000
  0.000000000000000E+000
  0.000000000000000E+000
  0.000000000000000E+000
  0.000000000000000E+000
  0.000000000000000E+000
  0.000000000000000E+000
  0.000000000000000E+000
  0.000000000000000E+000
  0.000000000000000E+000
  0.000000000000000E+000
  0.000000000000000E+000
  0.000000000000000E+000
   1.00000000000000     
   1.00000000000000     
   1.00000000000000     
   1.00000000000000     
   1.00000000000000     
   1.00000000000000     
   1.00000000000000     
   1.00000000000000     
   1.00000000000000     
   1.00000000000000     
   1.00000000000000     
   1.00000000000000     
   1.00000000000000     
   1.00000000000000     
   1.00000000000000     
   1.00000000000000     
   1.00000000000000     
   1.00000000000000     
   1.00000000000000     
   1.00000000000000     
   1.00000000000000     
   1.00000000000000     
   1.00000000000000     
   1.00000000000000     
   1.00000000000000     
   1.00000000000000     
   1.00000000000000     
   1.00000000000000     
   1.00000000000000     
   1.00000000000000     
   1.00000000000000     
   1.00000000000000     
   1.00000000000000     
   1.00000000000000     
   1.00000000000000     
   1.00000000000000     
   1.00000000000000     
   1.00000000000000     
   1.00000000000000     
   1.00000000000000     
   1.00000000000000     
   1.00000000000000     
   1.00000000000000     
   1.00000000000000     
   1.00000000000000     
   1.00000000000000     
   1.00000000000000     
   1.00000000000000     
   1.00000000000000     
   1.00000000000000     
   1.00000000000000     
   1.00000000000000     
   1.00000000000000     
  0.000000000000000E+000
  0.000000000000000E+000
  0.000000000000000E+000
  0.000000000000000E+000
  0.000000000000000E+000
  0.000000000000000E+000
  0.000000000000000E+000
  0.000000000000000E+000
  0.000000000000000E+000
  0.000000000000000E+000
  0.000000000000000E+000
  0.000000000000000E+000
  0.000000000000000E+000
  0.000000000000000E+000
  0.000000000000000E+000
  0.000000000000000E+000
  0.000000000000000E+000
  0.000000000000000E+000
  0.000000000000000E+000
  0.000000000000000E+000
  0.000000000000000E+000
  0.000000000000000E+000
  0.000000000000000E+000
  0.000000000000000E+000
  0.000000000000000E+000
  0.000000000000000E+000
  0.000000000000000E+000
  0.000000000000000E+000
  0.000000000000000E+000
  0.000000000000000E+000
  0.000000000000000E+000
  0.000000000000000E+000
  0.000000000000000E+000
  0.000000000000000E+000
  0.000000000000000E+000
  0.000000000000000E+000
  0.000000000000000E+000
  0.000000000000000E+000
  0.000000000000000E+000
  0.000000000000000E+000
  0.000000000000000E+000
  0.000000000000000E+000
  0.000000000000000E+000
  0.000000000000000E+000
  0.000000000000000E+000
  0.000000000000000E+000
  0.000000000000000E+000
   1.00000000000000     
   1.00000000000000     
   1.00000000000000     
   1.00000000000000     
   1.00000000000000     
   1.00000000000000     
   1.00000000000000     
   1.00000000000000     
   1.00000000000000     
   1.00000000000000     
   1.00000000000000     
   1.00000000000000     
   1.00000000000000     
   1.00000000000000     
   1.00000000000000     
   1.00000000000000     
   1.00000000000000     
   1.00000000000000     
   1.00000000000000     
   1.00000000000000     
   1.00000000000000     
   1.00000000000000     
   1.00000000000000     
   1.00000000000000     
   1.00000000000000     
   1.00000000000000     
   1.00000000000000     
   1.00000000000000     
   1.00000000000000     
   1.00000000000000     
   1.00000000000000     
   1.00000000000000     
   1.00000000000000     
   1.00000000000000     
   1.00000000000000     
   1.00000000000000     
   1.00000000000000     
   1.00000000000000     
   1.00000000000000     
   1.00000000000000     
   1.00000000000000     
   1.00000000000000     
   1.00000000000000     
   1.00000000000000     
   1.00000000000000     
   1.00000000000000     
   1.00000000000000     
   1.00000000000000     
   1.00000000000000     
   1.00000000000000     
   1.00000000000000     
   1.00000000000000     
   1.00000000000000     
  0.000000000000000E+000
  0.000000000000000E+000
  0.000000000000000E+000
  0.000000000000000E+000
  0.000000000000000E+000
  0.000000000000000E+000
  0.000000000000000E+000
  0.000000000000000E+000
  0.000000000000000E+000
  0.000000000000000E+000
  0.000000000000000E+000
  0.000000000000000E+000
  0.000000000000000E+000
  0.000000000000000E+000
  0.000000000000000E+000
  0.000000000000000E+000
  0.000000000000000E+000
  0.000000000000000E+000
  0.000000000000000E+000
  0.000000000000000E+000
  0.000000000000000E+000
  0.000000000000000E+000
  0.000000000000000E+000
  0.000000000000000E+000
  0.000000000000000E+000
  0.000000000000000E+000
  0.000000000000000E+000
  0.000000000000000E+000
  0.000000000000000E+000
  0.000000000000000E+000
  0.000000000000000E+000
  0.000000000000000E+000
  0.000000000000000E+000
  0.000000000000000E+000
  0.000000000000000E+000
  0.000000000000000E+000
  0.000000000000000E+000
  0.000000000000000E+000
  0.000000000000000E+000
  0.000000000000000E+000
  0.000000000000000E+000
  0.000000000000000E+000
  0.000000000000000E+000
  0.000000000000000E+000
  0.000000000000000E+000
  0.000000000000000E+000
  0.000000000000000E+000
   1.00000000000000     
   1.00000000000000     
   1.00000000000000     
   1.00000000000000     
   1.00000000000000     
   1.00000000000000     
   1.00000000000000     
   1.00000000000000     
   1.00000000000000     
   1.00000000000000     
   1.00000000000000     
   1.00000000000000     
   1.00000000000000     
   1.00000000000000     
   1.00000000000000     
   1.00000000000000     
   1.00000000000000     
   1.00000000000000     
   1.00000000000000     
   1.00000000000000     
   1.00000000000000     
   1.00000000000000     
   1.00000000000000     
   1.00000000000000     
   1.00000000000000     
   1.00000000000000     
   1.00000000000000     
   1.00000000000000     
   1.00000000000000     
   1.00000000000000     
   1.00000000000000     
   1.00000000000000     
   1.00000000000000     
   1.00000000000000     
   1.00000000000000     
   1.00000000000000     
   1.00000000000000     
   1.00000000000000     
   1.00000000000000     
   1.00000000000000     
   1.00000000000000     
   1.00000000000000     
   1.00000000000000     
   1.00000000000000     
   1.00000000000000     
   1.00000000000000     
   1.00000000000000     
   1.00000000000000     
   1.00000000000000     
   1.00000000000000     
   1.00000000000000     
   1.00000000000000     
   1.00000000000000     
  0.000000000000000E+000
  0.000000000000000E+000
  0.000000000000000E+000
  0.000000000000000E+000
  0.000000000000000E+000
  0.000000000000000E+000
  0.000000000000000E+000
  0.000000000000000E+000
  0.000000000000000E+000
  0.000000000000000E+000
  0.000000000000000E+000
  0.000000000000000E+000
  0.000000000000000E+000
  0.000000000000000E+000
  0.000000000000000E+000
  0.000000000000000E+000
  0.000000000000000E+000
  0.000000000000000E+000
  0.000000000000000E+000
  0.000000000000000E+000
  0.000000000000000E+000
  0.000000000000000E+000
  0.000000000000000E+000
  0.000000000000000E+000
  0.000000000000000E+000
  0.000000000000000E+000
  0.000000000000000E+000
  0.000000000000000E+000
  0.000000000000000E+000
  0.000000000000000E+000
  0.000000000000000E+000
  0.000000000000000E+000
  0.000000000000000E+000
  0.000000000000000E+000
  0.000000000000000E+000
  0.000000000000000E+000
  0.000000000000000E+000
  0.000000000000000E+000
  0.000000000000000E+000
  0.000000000000000E+000
  0.000000000000000E+000
  0.000000000000000E+000
  0.000000000000000E+000
  0.000000000000000E+000
  0.000000000000000E+000
  0.000000000000000E+000
  0.000000000000000E+000
   1.00000000000000     
   1.00000000000000     
   1.00000000000000     
   1.00000000000000     
   1.00000000000000     
   1.00000000000000     
   1.00000000000000     
   1.00000000000000     
   1.00000000000000     
   1.00000000000000     
   1.00000000000000     
   1.00000000000000     
   1.00000000000000     
   1.00000000000000     
   1.00000000000000     
   1.00000000000000     
   1.00000000000000     
   1.00000000000000     
   1.00000000000000     
   1.00000000000000     
   1.00000000000000     
   1.00000000000000     
   1.00000000000000     
   1.00000000000000     
   1.00000000000000     
   1.00000000000000     
   1.00000000000000     
   1.00000000000000     
   1.00000000000000     
   1.00000000000000     
   1.00000000000000     
   1.00000000000000     
   1.00000000000000     
   1.00000000000000     
   1.00000000000000     
   1.00000000000000     
   1.00000000000000     
   1.00000000000000     
   1.00000000000000     
   1.00000000000000     
   1.00000000000000     
   1.00000000000000     
   1.00000000000000     
   1.00000000000000     
   1.00000000000000     
   1.00000000000000     
   1.00000000000000     
   1.00000000000000     
   1.00000000000000     
   1.00000000000000     
   1.00000000000000     
   1.00000000000000     
   1.00000000000000     
  0.000000000000000E+000
  0.000000000000000E+000
  0.000000000000000E+000
  0.000000000000000E+000
  0.000000000000000E+000
  0.000000000000000E+000
  0.000000000000000E+000
  0.000000000000000E+000
  0.000000000000000E+000
  0.000000000000000E+000
  0.000000000000000E+000
  0.000000000000000E+000
  0.000000000000000E+000
  0.000000000000000E+000
  0.000000000000000E+000
  0.000000000000000E+000
  0.000000000000000E+000
  0.000000000000000E+000
  0.000000000000000E+000
  0.000000000000000E+000
  0.000000000000000E+000
  0.000000000000000E+000
  0.000000000000000E+000
  0.000000000000000E+000
  0.000000000000000E+000
  0.000000000000000E+000
  0.000000000000000E+000
  0.000000000000000E+000
  0.000000000000000E+000
  0.000000000000000E+000
  0.000000000000000E+000
  0.000000000000000E+000
  0.000000000000000E+000
  0.000000000000000E+000
  0.000000000000000E+000
  0.000000000000000E+000
  0.000000000000000E+000
  0.000000000000000E+000
  0.000000000000000E+000
  0.000000000000000E+000
  0.000000000000000E+000
  0.000000000000000E+000
  0.000000000000000E+000
  0.000000000000000E+000
  0.000000000000000E+000
  0.000000000000000E+000
  0.000000000000000E+000
   1.00000000000000     
   1.00000000000000     
   1.00000000000000     
   1.00000000000000     
   1.00000000000000     
   1.00000000000000     
   1.00000000000000     
   1.00000000000000     
   1.00000000000000     
   1.00000000000000     
   1.00000000000000     
   1.00000000000000     
   1.00000000000000     
   1.00000000000000     
   1.00000000000000     
   1.00000000000000     
   1.00000000000000     
   1.00000000000000     
   1.00000000000000     
   1.00000000000000     
   1.00000000000000     
   1.00000000000000     
   1.00000000000000     
   1.00000000000000     
   1.00000000000000     
   1.00000000000000     
   1.00000000000000     
   1.00000000000000     
   1.00000000000000     
   1.00000000000000     
   1.00000000000000     
   1.00000000000000     
   1.00000000000000     
   1.00000000000000     
   1.00000000000000     
   1.00000000000000     
   1.00000000000000     
   1.00000000000000     
   1.00000000000000     
   1.00000000000000     
   1.00000000000000     
   1.00000000000000     
   1.00000000000000     
   1.00000000000000     
   1.00000000000000     
   1.00000000000000     
   1.00000000000000     
   1.00000000000000     
   1.00000000000000     
   1.00000000000000     
   1.00000000000000     
   1.00000000000000     
   1.00000000000000     
  0.000000000000000E+000
  0.000000000000000E+000
  0.000000000000000E+000
  0.000000000000000E+000
  0.000000000000000E+000
  0.000000000000000E+000
  0.000000000000000E+000
  0.000000000000000E+000
  0.000000000000000E+000
  0.000000000000000E+000
  0.000000000000000E+000
  0.000000000000000E+000
  0.000000000000000E+000
  0.000000000000000E+000
  0.000000000000000E+000
  0.000000000000000E+000
  0.000000000000000E+000
  0.000000000000000E+000
  0.000000000000000E+000
  0.000000000000000E+000
  0.000000000000000E+000
  0.000000000000000E+000
  0.000000000000000E+000
  0.000000000000000E+000
  0.000000000000000E+000
  0.000000000000000E+000
  0.000000000000000E+000
  0.000000000000000E+000
  0.000000000000000E+000
  0.000000000000000E+000
  0.000000000000000E+000
  0.000000000000000E+000
  0.000000000000000E+000
  0.000000000000000E+000
  0.000000000000000E+000
  0.000000000000000E+000
  0.000000000000000E+000
  0.000000000000000E+000
  0.000000000000000E+000
  0.000000000000000E+000
  0.000000000000000E+000
  0.000000000000000E+000
  0.000000000000000E+000
  0.000000000000000E+000
  0.000000000000000E+000
  0.000000000000000E+000
  0.000000000000000E+000
   1.00000000000000     
   1.00000000000000     
   1.00000000000000     
   1.00000000000000     
   1.00000000000000     
   1.00000000000000     
   1.00000000000000     
   1.00000000000000     
   1.00000000000000     
   1.00000000000000     
   1.00000000000000     
   1.00000000000000     
   1.00000000000000     
   1.00000000000000     
   1.00000000000000     
   1.00000000000000     
   1.00000000000000     
   1.00000000000000     
   1.00000000000000     
   1.00000000000000     
   1.00000000000000     
   1.00000000000000     
   1.00000000000000     
   1.00000000000000     
   1.00000000000000     
   1.00000000000000     
   1.00000000000000     
   1.00000000000000     
   1.00000000000000     
   1.00000000000000     
   1.00000000000000     
   1.00000000000000     
   1.00000000000000     
   1.00000000000000     
   1.00000000000000     
   1.00000000000000     
   1.00000000000000     
   1.00000000000000     
   1.00000000000000     
   1.00000000000000     
   1.00000000000000     
   1.00000000000000     
   1.00000000000000     
   1.00000000000000     
   1.00000000000000     
   1.00000000000000     
   1.00000000000000     
   1.00000000000000     
   1.00000000000000     
   1.00000000000000     
   1.00000000000000     
   1.00000000000000     
   1.00000000000000     
  0.000000000000000E+000
  0.000000000000000E+000
  0.000000000000000E+000
  0.000000000000000E+000
  0.000000000000000E+000
  0.000000000000000E+000
  0.000000000000000E+000
  0.000000000000000E+000
  0.000000000000000E+000
  0.000000000000000E+000
  0.000000000000000E+000
  0.000000000000000E+000
  0.000000000000000E+000
  0.000000000000000E+000
  0.000000000000000E+000
  0.000000000000000E+000
  0.000000000000000E+000
  0.000000000000000E+000
  0.000000000000000E+000
  0.000000000000000E+000
  0.000000000000000E+000
  0.000000000000000E+000
  0.000000000000000E+000
  0.000000000000000E+000
  0.000000000000000E+000
  0.000000000000000E+000
  0.000000000000000E+000
  0.000000000000000E+000
  0.000000000000000E+000
  0.000000000000000E+000
  0.000000000000000E+000
  0.000000000000000E+000
  0.000000000000000E+000
  0.000000000000000E+000
  0.000000000000000E+000
  0.000000000000000E+000
  0.000000000000000E+000
  0.000000000000000E+000
  0.000000000000000E+000
  0.000000000000000E+000
  0.000000000000000E+000
  0.000000000000000E+000
  0.000000000000000E+000
  0.000000000000000E+000
  0.000000000000000E+000
  0.000000000000000E+000
  0.000000000000000E+000
   1.00000000000000     
   1.00000000000000     
   1.00000000000000     
   1.00000000000000     
   1.00000000000000     
   1.00000000000000     
   1.00000000000000     
   1.00000000000000     
   1.00000000000000     
   1.00000000000000     
   1.00000000000000     
   1.00000000000000     
   1.00000000000000     
   1.00000000000000     
   1.00000000000000     
   1.00000000000000     
   1.00000000000000     
   1.00000000000000     
   1.00000000000000     
   1.00000000000000     
   1.00000000000000     
   1.00000000000000     
   1.00000000000000     
   1.00000000000000     
   1.00000000000000     
   1.00000000000000     
   1.00000000000000     
   1.00000000000000     
   1.00000000000000     
   1.00000000000000     
   1.00000000000000     
   1.00000000000000     
   1.00000000000000     
   1.00000000000000     
   1.00000000000000     
   1.00000000000000     
   1.00000000000000     
   1.00000000000000     
   1.00000000000000     
   1.00000000000000     
   1.00000000000000     
   1.00000000000000     
   1.00000000000000     
   1.00000000000000     
   1.00000000000000     
   1.00000000000000     
   1.00000000000000     
   1.00000000000000     
   1.00000000000000     
   1.00000000000000     
   1.00000000000000     
   1.00000000000000     
   1.00000000000000     
  0.000000000000000E+000
  0.000000000000000E+000
  0.000000000000000E+000
  0.000000000000000E+000
  0.000000000000000E+000
  0.000000000000000E+000
  0.000000000000000E+000
  0.000000000000000E+000
  0.000000000000000E+000
  0.000000000000000E+000
  0.000000000000000E+000
  0.000000000000000E+000
  0.000000000000000E+000
  0.000000000000000E+000
  0.000000000000000E+000
  0.000000000000000E+000
  0.000000000000000E+000
  0.000000000000000E+000
  0.000000000000000E+000
  0.000000000000000E+000
  0.000000000000000E+000
  0.000000000000000E+000
  0.000000000000000E+000
  0.000000000000000E+000
  0.000000000000000E+000
  0.000000000000000E+000
  0.000000000000000E+000
  0.000000000000000E+000
  0.000000000000000E+000
  0.000000000000000E+000
  0.000000000000000E+000
  0.000000000000000E+000
  0.000000000000000E+000
  0.000000000000000E+000
  0.000000000000000E+000
  0.000000000000000E+000
  0.000000000000000E+000
  0.000000000000000E+000
  0.000000000000000E+000
  0.000000000000000E+000
  0.000000000000000E+000
  0.000000000000000E+000
  0.000000000000000E+000
  0.000000000000000E+000
  0.000000000000000E+000
  0.000000000000000E+000
  0.000000000000000E+000
   1.00000000000000     
   1.00000000000000     
   1.00000000000000     
   1.00000000000000     
   1.00000000000000     
   1.00000000000000     
   1.00000000000000     
   1.00000000000000     
   1.00000000000000     
   1.00000000000000     
   1.00000000000000     
   1.00000000000000     
   1.00000000000000     
   1.00000000000000     
   1.00000000000000     
   1.00000000000000     
   1.00000000000000     
   1.00000000000000     
   1.00000000000000     
   1.00000000000000     
   1.00000000000000     
   1.00000000000000     
   1.00000000000000     
   1.00000000000000     
   1.00000000000000     
   1.00000000000000     
   1.00000000000000     
   1.00000000000000     
   1.00000000000000     
   1.00000000000000     
   1.00000000000000     
   1.00000000000000     
   1.00000000000000     
   1.00000000000000     
   1.00000000000000     
   1.00000000000000     
   1.00000000000000     
   1.00000000000000     
   1.00000000000000     
   1.00000000000000     
   1.00000000000000     
   1.00000000000000     
   1.00000000000000     
   1.00000000000000     
   1.00000000000000     
   1.00000000000000     
   1.00000000000000     
   1.00000000000000     
   1.00000000000000     
   1.00000000000000     
   1.00000000000000     
   1.00000000000000     
   1.00000000000000     
  0.000000000000000E+000
  0.000000000000000E+000
  0.000000000000000E+000
  0.000000000000000E+000
  0.000000000000000E+000
  0.000000000000000E+000
  0.000000000000000E+000
  0.000000000000000E+000
  0.000000000000000E+000
  0.000000000000000E+000
  0.000000000000000E+000
  0.000000000000000E+000
  0.000000000000000E+000
  0.000000000000000E+000
  0.000000000000000E+000
  0.000000000000000E+000
  0.000000000000000E+000
  0.000000000000000E+000
  0.000000000000000E+000
  0.000000000000000E+000
  0.000000000000000E+000
  0.000000000000000E+000
  0.000000000000000E+000
  0.000000000000000E+000
  0.000000000000000E+000
  0.000000000000000E+000
  0.000000000000000E+000
  0.000000000000000E+000
  0.000000000000000E+000
  0.000000000000000E+000
  0.000000000000000E+000
  0.000000000000000E+000
  0.000000000000000E+000
  0.000000000000000E+000
  0.000000000000000E+000
  0.000000000000000E+000
  0.000000000000000E+000
  0.000000000000000E+000
  0.000000000000000E+000
  0.000000000000000E+000
  0.000000000000000E+000
  0.000000000000000E+000
  0.000000000000000E+000
  0.000000000000000E+000
  0.000000000000000E+000
  0.000000000000000E+000
  0.000000000000000E+000
   1.00000000000000     
   1.00000000000000     
   1.00000000000000     
   1.00000000000000     
   1.00000000000000     
   1.00000000000000     
   1.00000000000000     
   1.00000000000000     
   1.00000000000000     
   1.00000000000000     
   1.00000000000000     
   1.00000000000000     
   1.00000000000000     
   1.00000000000000     
   1.00000000000000     
   1.00000000000000     
   1.00000000000000     
   1.00000000000000     
   1.00000000000000     
   1.00000000000000     
   1.00000000000000     
   1.00000000000000     
   1.00000000000000     
   1.00000000000000     
   1.00000000000000     
   1.00000000000000     
   1.00000000000000     
   1.00000000000000     
   1.00000000000000     
   1.00000000000000     
   1.00000000000000     
   1.00000000000000     
   1.00000000000000     
   1.00000000000000     
   1.00000000000000     
   1.00000000000000     
   1.00000000000000     
   1.00000000000000     
   1.00000000000000     
   1.00000000000000     
   1.00000000000000     
   1.00000000000000     
   1.00000000000000     
   1.00000000000000     
   1.00000000000000     
   1.00000000000000     
   1.00000000000000     
   1.00000000000000     
   1.00000000000000     
   1.00000000000000     
   1.00000000000000     
   1.00000000000000     
   1.00000000000000     
  0.000000000000000E+000
  0.000000000000000E+000
  0.000000000000000E+000
  0.000000000000000E+000
  0.000000000000000E+000
  0.000000000000000E+000
  0.000000000000000E+000
  0.000000000000000E+000
  0.000000000000000E+000
  0.000000000000000E+000
  0.000000000000000E+000
  0.000000000000000E+000
  0.000000000000000E+000
  0.000000000000000E+000
  0.000000000000000E+000
  0.000000000000000E+000
  0.000000000000000E+000
  0.000000000000000E+000
  0.000000000000000E+000
  0.000000000000000E+000
  0.000000000000000E+000
  0.000000000000000E+000
  0.000000000000000E+000
  0.000000000000000E+000
  0.000000000000000E+000
  0.000000000000000E+000
  0.000000000000000E+000
  0.000000000000000E+000
  0.000000000000000E+000
  0.000000000000000E+000
  0.000000000000000E+000
  0.000000000000000E+000
  0.000000000000000E+000
  0.000000000000000E+000
  0.000000000000000E+000
  0.000000000000000E+000
  0.000000000000000E+000
  0.000000000000000E+000
  0.000000000000000E+000
  0.000000000000000E+000
  0.000000000000000E+000
  0.000000000000000E+000
  0.000000000000000E+000
  0.000000000000000E+000
  0.000000000000000E+000
  0.000000000000000E+000
  0.000000000000000E+000
   1.00000000000000     
   1.00000000000000     
   1.00000000000000     
   1.00000000000000     
   1.00000000000000     
   1.00000000000000     
   1.00000000000000     
   1.00000000000000     
   1.00000000000000     
   1.00000000000000     
   1.00000000000000     
   1.00000000000000     
   1.00000000000000     
   1.00000000000000     
   1.00000000000000     
   1.00000000000000     
   1.00000000000000     
   1.00000000000000     
   1.00000000000000     
   1.00000000000000     
   1.00000000000000     
   1.00000000000000     
   1.00000000000000     
   1.00000000000000     
   1.00000000000000     
   1.00000000000000     
   1.00000000000000     
   1.00000000000000     
   1.00000000000000     
   1.00000000000000     
   1.00000000000000     
   1.00000000000000     
   1.00000000000000     
   1.00000000000000     
   1.00000000000000     
   1.00000000000000     
   1.00000000000000     
   1.00000000000000     
   1.00000000000000     
   1.00000000000000     
   1.00000000000000     
   1.00000000000000     
   1.00000000000000     
   1.00000000000000     
   1.00000000000000     
   1.00000000000000     
   1.00000000000000     
   1.00000000000000     
   1.00000000000000     
   1.00000000000000     
   1.00000000000000     
   1.00000000000000     
   1.00000000000000     
  0.000000000000000E+000
  0.000000000000000E+000
  0.000000000000000E+000
  0.000000000000000E+000
  0.000000000000000E+000
  0.000000000000000E+000
  0.000000000000000E+000
  0.000000000000000E+000
  0.000000000000000E+000
  0.000000000000000E+000
  0.000000000000000E+000
  0.000000000000000E+000
  0.000000000000000E+000
  0.000000000000000E+000
  0.000000000000000E+000
  0.000000000000000E+000
  0.000000000000000E+000
  0.000000000000000E+000
  0.000000000000000E+000
  0.000000000000000E+000
  0.000000000000000E+000
  0.000000000000000E+000
  0.000000000000000E+000
  0.000000000000000E+000
  0.000000000000000E+000
  0.000000000000000E+000
  0.000000000000000E+000
  0.000000000000000E+000
  0.000000000000000E+000
  0.000000000000000E+000
  0.000000000000000E+000
  0.000000000000000E+000
  0.000000000000000E+000
  0.000000000000000E+000
  0.000000000000000E+000
  0.000000000000000E+000
  0.000000000000000E+000
  0.000000000000000E+000
  0.000000000000000E+000
  0.000000000000000E+000
  0.000000000000000E+000
  0.000000000000000E+000
  0.000000000000000E+000
  0.000000000000000E+000
  0.000000000000000E+000
  0.000000000000000E+000
  0.000000000000000E+000
   1.00000000000000     
   1.00000000000000     
   1.00000000000000     
   1.00000000000000     
   1.00000000000000     
   1.00000000000000     
   1.00000000000000     
   1.00000000000000     
   1.00000000000000     
   1.00000000000000     
   1.00000000000000     
   1.00000000000000     
   1.00000000000000     
   1.00000000000000     
   1.00000000000000     
   1.00000000000000     
   1.00000000000000     
   1.00000000000000     
   1.00000000000000     
   1.00000000000000     
   1.00000000000000     
   1.00000000000000     
   1.00000000000000     
   1.00000000000000     
   1.00000000000000     
   1.00000000000000     
   1.00000000000000     
   1.00000000000000     
   1.00000000000000     
   1.00000000000000     
   1.00000000000000     
   1.00000000000000     
   1.00000000000000     
   1.00000000000000     
   1.00000000000000     
   1.00000000000000     
   1.00000000000000     
   1.00000000000000     
   1.00000000000000     
   1.00000000000000     
   1.00000000000000     
   1.00000000000000     
   1.00000000000000     
   1.00000000000000     
   1.00000000000000     
   1.00000000000000     
   1.00000000000000     
   1.00000000000000     
   1.00000000000000     
   1.00000000000000     
   1.00000000000000     
   1.00000000000000     
   1.00000000000000     
  0.000000000000000E+000
  0.000000000000000E+000
  0.000000000000000E+000
  0.000000000000000E+000
  0.000000000000000E+000
  0.000000000000000E+000
  0.000000000000000E+000
  0.000000000000000E+000
  0.000000000000000E+000
  0.000000000000000E+000
  0.000000000000000E+000
  0.000000000000000E+000
  0.000000000000000E+000
  0.000000000000000E+000
  0.000000000000000E+000
  0.000000000000000E+000
  0.000000000000000E+000
  0.000000000000000E+000
  0.000000000000000E+000
  0.000000000000000E+000
  0.000000000000000E+000
  0.000000000000000E+000
  0.000000000000000E+000
  0.000000000000000E+000
  0.000000000000000E+000
  0.000000000000000E+000
  0.000000000000000E+000
  0.000000000000000E+000
  0.000000000000000E+000
  0.000000000000000E+000
  0.000000000000000E+000
  0.000000000000000E+000
  0.000000000000000E+000
  0.000000000000000E+000
  0.000000000000000E+000
  0.000000000000000E+000
  0.000000000000000E+000
  0.000000000000000E+000
  0.000000000000000E+000
  0.000000000000000E+000
  0.000000000000000E+000
  0.000000000000000E+000
  0.000000000000000E+000
  0.000000000000000E+000
  0.000000000000000E+000
  0.000000000000000E+000
  0.000000000000000E+000
   1.00000000000000     
   1.00000000000000     
   1.00000000000000     
   1.00000000000000     
   1.00000000000000     
   1.00000000000000     
   1.00000000000000     
   1.00000000000000     
   1.00000000000000     
   1.00000000000000     
   1.00000000000000     
   1.00000000000000     
   1.00000000000000     
   1.00000000000000     
   1.00000000000000     
   1.00000000000000     
   1.00000000000000     
   1.00000000000000     
   1.00000000000000     
   1.00000000000000     
   1.00000000000000     
   1.00000000000000     
   1.00000000000000     
   1.00000000000000     
   1.00000000000000     
   1.00000000000000     
   1.00000000000000     
   1.00000000000000     
   1.00000000000000     
   1.00000000000000     
   1.00000000000000     
   1.00000000000000     
   1.00000000000000     
   1.00000000000000     
   1.00000000000000     
   1.00000000000000     
   1.00000000000000     
   1.00000000000000     
   1.00000000000000     
   1.00000000000000     
   1.00000000000000     
   1.00000000000000     
   1.00000000000000     
   1.00000000000000     
   1.00000000000000     
   1.00000000000000     
   1.00000000000000     
   1.00000000000000     
   1.00000000000000     
   1.00000000000000     
   1.00000000000000     
   1.00000000000000     
   1.00000000000000     
  0.000000000000000E+000
  0.000000000000000E+000
  0.000000000000000E+000
  0.000000000000000E+000
  0.000000000000000E+000
  0.000000000000000E+000
  0.000000000000000E+000
  0.000000000000000E+000
  0.000000000000000E+000
  0.000000000000000E+000
  0.000000000000000E+000
  0.000000000000000E+000
  0.000000000000000E+000
  0.000000000000000E+000
  0.000000000000000E+000
  0.000000000000000E+000
  0.000000000000000E+000
  0.000000000000000E+000
  0.000000000000000E+000
  0.000000000000000E+000
  0.000000000000000E+000
  0.000000000000000E+000
  0.000000000000000E+000
  0.000000000000000E+000
  0.000000000000000E+000
  0.000000000000000E+000
  0.000000000000000E+000
  0.000000000000000E+000
  0.000000000000000E+000
  0.000000000000000E+000
  0.000000000000000E+000
  0.000000000000000E+000
  0.000000000000000E+000
  0.000000000000000E+000
  0.000000000000000E+000
  0.000000000000000E+000
  0.000000000000000E+000
  0.000000000000000E+000
  0.000000000000000E+000
  0.000000000000000E+000
  0.000000000000000E+000
  0.000000000000000E+000
  0.000000000000000E+000
  0.000000000000000E+000
  0.000000000000000E+000
  0.000000000000000E+000
  0.000000000000000E+000
   1.00000000000000     
   1.00000000000000     
   1.00000000000000     
   1.00000000000000     
   1.00000000000000     
   1.00000000000000     
   1.00000000000000     
   1.00000000000000     
   1.00000000000000     
   1.00000000000000     
   1.00000000000000     
   1.00000000000000     
   1.00000000000000     
   1.00000000000000     
   1.00000000000000     
   1.00000000000000     
   1.00000000000000     
   1.00000000000000     
   1.00000000000000     
   1.00000000000000     
   1.00000000000000     
   1.00000000000000     
   1.00000000000000     
   1.00000000000000     
   1.00000000000000     
   1.00000000000000     
   1.00000000000000     
   1.00000000000000     
   1.00000000000000     
   1.00000000000000     
   1.00000000000000     
   1.00000000000000     
   1.00000000000000     
   1.00000000000000     
   1.00000000000000     
   1.00000000000000     
   1.00000000000000     
   1.00000000000000     
   1.00000000000000     
   1.00000000000000     
   1.00000000000000     
   1.00000000000000     
   1.00000000000000     
   1.00000000000000     
   1.00000000000000     
   1.00000000000000     
   1.00000000000000     
   1.00000000000000     
   1.00000000000000     
   1.00000000000000     
   1.00000000000000     
   1.00000000000000     
   1.00000000000000     
