# vtk DataFile Version 3.0
vtk output
ASCII
DATASET UNSTRUCTURED_GRID
POINTS      5151 double 
  0.00000000E+00  0.00000000E+00  0.00000000E+00
  1.00000000E+01  0.00000000E+00  0.00000000E+00
  2.00000000E+01  0.00000000E+00  0.00000000E+00
  3.00000000E+01  0.00000000E+00  0.00000000E+00
  4.00000000E+01  0.00000000E+00  0.00000000E+00
  5.00000000E+01  0.00000000E+00  0.00000000E+00
  6.00000000E+01  0.00000000E+00  0.00000000E+00
  7.00000000E+01  0.00000000E+00  0.00000000E+00
  8.00000000E+01  0.00000000E+00  0.00000000E+00
  9.00000000E+01  0.00000000E+00  0.00000000E+00
  1.00000000E+02  0.00000000E+00  0.00000000E+00
  1.10000000E+02  0.00000000E+00  0.00000000E+00
  1.20000000E+02  0.00000000E+00  0.00000000E+00
  1.30000000E+02  0.00000000E+00  0.00000000E+00
  1.40000000E+02  0.00000000E+00  0.00000000E+00
  1.50000000E+02  0.00000000E+00  0.00000000E+00
  1.60000000E+02  0.00000000E+00  0.00000000E+00
  1.70000000E+02  0.00000000E+00  0.00000000E+00
  1.80000000E+02  0.00000000E+00  0.00000000E+00
  1.90000000E+02  0.00000000E+00  0.00000000E+00
  2.00000000E+02  0.00000000E+00  0.00000000E+00
  2.10000000E+02  0.00000000E+00  0.00000000E+00
  2.20000000E+02  0.00000000E+00  0.00000000E+00
  2.30000000E+02  0.00000000E+00  0.00000000E+00
  2.40000000E+02  0.00000000E+00  0.00000000E+00
  2.50000000E+02  0.00000000E+00  0.00000000E+00
  2.60000000E+02  0.00000000E+00  0.00000000E+00
  2.70000000E+02  0.00000000E+00  0.00000000E+00
  2.80000000E+02  0.00000000E+00  0.00000000E+00
  2.90000000E+02  0.00000000E+00  0.00000000E+00
  3.00000000E+02  0.00000000E+00  0.00000000E+00
  3.10000000E+02  0.00000000E+00  0.00000000E+00
  3.20000000E+02  0.00000000E+00  0.00000000E+00
  3.30000000E+02  0.00000000E+00  0.00000000E+00
  3.40000000E+02  0.00000000E+00  0.00000000E+00
  3.50000000E+02  0.00000000E+00  0.00000000E+00
  3.60000000E+02  0.00000000E+00  0.00000000E+00
  3.70000000E+02  0.00000000E+00  0.00000000E+00
  3.80000000E+02  0.00000000E+00  0.00000000E+00
  3.90000000E+02  0.00000000E+00  0.00000000E+00
  4.00000000E+02  0.00000000E+00  0.00000000E+00
  4.10000000E+02  0.00000000E+00  0.00000000E+00
  4.20000000E+02  0.00000000E+00  0.00000000E+00
  4.30000000E+02  0.00000000E+00  0.00000000E+00
  4.40000000E+02  0.00000000E+00  0.00000000E+00
  4.50000000E+02  0.00000000E+00  0.00000000E+00
  4.60000000E+02  0.00000000E+00  0.00000000E+00
  4.70000000E+02  0.00000000E+00  0.00000000E+00
  4.80000000E+02  0.00000000E+00  0.00000000E+00
  4.90000000E+02  0.00000000E+00  0.00000000E+00
  5.00000000E+02  0.00000000E+00  0.00000000E+00
  5.10000000E+02  0.00000000E+00  0.00000000E+00
  5.20000000E+02  0.00000000E+00  0.00000000E+00
  5.30000000E+02  0.00000000E+00  0.00000000E+00
  5.40000000E+02  0.00000000E+00  0.00000000E+00
  5.50000000E+02  0.00000000E+00  0.00000000E+00
  5.60000000E+02  0.00000000E+00  0.00000000E+00
  5.70000000E+02  0.00000000E+00  0.00000000E+00
  5.80000000E+02  0.00000000E+00  0.00000000E+00
  5.90000000E+02  0.00000000E+00  0.00000000E+00
  6.00000000E+02  0.00000000E+00  0.00000000E+00
  6.10000000E+02  0.00000000E+00  0.00000000E+00
  6.20000000E+02  0.00000000E+00  0.00000000E+00
  6.30000000E+02  0.00000000E+00  0.00000000E+00
  6.40000000E+02  0.00000000E+00  0.00000000E+00
  6.50000000E+02  0.00000000E+00  0.00000000E+00
  6.60000000E+02  0.00000000E+00  0.00000000E+00
  6.70000000E+02  0.00000000E+00  0.00000000E+00
  6.80000000E+02  0.00000000E+00  0.00000000E+00
  6.90000000E+02  0.00000000E+00  0.00000000E+00
  7.00000000E+02  0.00000000E+00  0.00000000E+00
  7.10000000E+02  0.00000000E+00  0.00000000E+00
  7.20000000E+02  0.00000000E+00  0.00000000E+00
  7.30000000E+02  0.00000000E+00  0.00000000E+00
  7.40000000E+02  0.00000000E+00  0.00000000E+00
  7.50000000E+02  0.00000000E+00  0.00000000E+00
  7.60000000E+02  0.00000000E+00  0.00000000E+00
  7.70000000E+02  0.00000000E+00  0.00000000E+00
  7.80000000E+02  0.00000000E+00  0.00000000E+00
  7.90000000E+02  0.00000000E+00  0.00000000E+00
  8.00000000E+02  0.00000000E+00  0.00000000E+00
  8.10000000E+02  0.00000000E+00  0.00000000E+00
  8.20000000E+02  0.00000000E+00  0.00000000E+00
  8.30000000E+02  0.00000000E+00  0.00000000E+00
  8.40000000E+02  0.00000000E+00  0.00000000E+00
  8.50000000E+02  0.00000000E+00  0.00000000E+00
  8.60000000E+02  0.00000000E+00  0.00000000E+00
  8.70000000E+02  0.00000000E+00  0.00000000E+00
  8.80000000E+02  0.00000000E+00  0.00000000E+00
  8.90000000E+02  0.00000000E+00  0.00000000E+00
  9.00000000E+02  0.00000000E+00  0.00000000E+00
  9.10000000E+02  0.00000000E+00  0.00000000E+00
  9.20000000E+02  0.00000000E+00  0.00000000E+00
  9.30000000E+02  0.00000000E+00  0.00000000E+00
  9.40000000E+02  0.00000000E+00  0.00000000E+00
  9.50000000E+02  0.00000000E+00  0.00000000E+00
  9.60000000E+02  0.00000000E+00  0.00000000E+00
  9.70000000E+02  0.00000000E+00  0.00000000E+00
  9.80000000E+02  0.00000000E+00  0.00000000E+00
  9.90000000E+02  0.00000000E+00  0.00000000E+00
  1.00000000E+03  0.00000000E+00  0.00000000E+00
  0.00000000E+00  2.00000000E+00  0.00000000E+00
  1.00000000E+01  2.00000000E+00  0.00000000E+00
  2.00000000E+01  2.00000000E+00  0.00000000E+00
  3.00000000E+01  2.00000000E+00  0.00000000E+00
  4.00000000E+01  2.00000000E+00  0.00000000E+00
  5.00000000E+01  2.00000000E+00  0.00000000E+00
  6.00000000E+01  2.00000000E+00  0.00000000E+00
  7.00000000E+01  2.00000000E+00  0.00000000E+00
  8.00000000E+01  2.00000000E+00  0.00000000E+00
  9.00000000E+01  2.00000000E+00  0.00000000E+00
  1.00000000E+02  2.00000000E+00  0.00000000E+00
  1.10000000E+02  2.00000000E+00  0.00000000E+00
  1.20000000E+02  2.00000000E+00  0.00000000E+00
  1.30000000E+02  2.00000000E+00  0.00000000E+00
  1.40000000E+02  2.00000000E+00  0.00000000E+00
  1.50000000E+02  2.00000000E+00  0.00000000E+00
  1.60000000E+02  2.00000000E+00  0.00000000E+00
  1.70000000E+02  2.00000000E+00  0.00000000E+00
  1.80000000E+02  2.00000000E+00  0.00000000E+00
  1.90000000E+02  2.00000000E+00  0.00000000E+00
  2.00000000E+02  2.00000000E+00  0.00000000E+00
  2.10000000E+02  2.00000000E+00  0.00000000E+00
  2.20000000E+02  2.00000000E+00  0.00000000E+00
  2.30000000E+02  2.00000000E+00  0.00000000E+00
  2.40000000E+02  2.00000000E+00  0.00000000E+00
  2.50000000E+02  2.00000000E+00  0.00000000E+00
  2.60000000E+02  2.00000000E+00  0.00000000E+00
  2.70000000E+02  2.00000000E+00  0.00000000E+00
  2.80000000E+02  2.00000000E+00  0.00000000E+00
  2.90000000E+02  2.00000000E+00  0.00000000E+00
  3.00000000E+02  2.00000000E+00  0.00000000E+00
  3.10000000E+02  2.00000000E+00  0.00000000E+00
  3.20000000E+02  2.00000000E+00  0.00000000E+00
  3.30000000E+02  2.00000000E+00  0.00000000E+00
  3.40000000E+02  2.00000000E+00  0.00000000E+00
  3.50000000E+02  2.00000000E+00  0.00000000E+00
  3.60000000E+02  2.00000000E+00  0.00000000E+00
  3.70000000E+02  2.00000000E+00  0.00000000E+00
  3.80000000E+02  2.00000000E+00  0.00000000E+00
  3.90000000E+02  2.00000000E+00  0.00000000E+00
  4.00000000E+02  2.00000000E+00  0.00000000E+00
  4.10000000E+02  2.00000000E+00  0.00000000E+00
  4.20000000E+02  2.00000000E+00  0.00000000E+00
  4.30000000E+02  2.00000000E+00  0.00000000E+00
  4.40000000E+02  2.00000000E+00  0.00000000E+00
  4.50000000E+02  2.00000000E+00  0.00000000E+00
  4.60000000E+02  2.00000000E+00  0.00000000E+00
  4.70000000E+02  2.00000000E+00  0.00000000E+00
  4.80000000E+02  2.00000000E+00  0.00000000E+00
  4.90000000E+02  2.00000000E+00  0.00000000E+00
  5.00000000E+02  2.00000000E+00  0.00000000E+00
  5.10000000E+02  2.00000000E+00  0.00000000E+00
  5.20000000E+02  2.00000000E+00  0.00000000E+00
  5.30000000E+02  2.00000000E+00  0.00000000E+00
  5.40000000E+02  2.00000000E+00  0.00000000E+00
  5.50000000E+02  2.00000000E+00  0.00000000E+00
  5.60000000E+02  2.00000000E+00  0.00000000E+00
  5.70000000E+02  2.00000000E+00  0.00000000E+00
  5.80000000E+02  2.00000000E+00  0.00000000E+00
  5.90000000E+02  2.00000000E+00  0.00000000E+00
  6.00000000E+02  2.00000000E+00  0.00000000E+00
  6.10000000E+02  2.00000000E+00  0.00000000E+00
  6.20000000E+02  2.00000000E+00  0.00000000E+00
  6.30000000E+02  2.00000000E+00  0.00000000E+00
  6.40000000E+02  2.00000000E+00  0.00000000E+00
  6.50000000E+02  2.00000000E+00  0.00000000E+00
  6.60000000E+02  2.00000000E+00  0.00000000E+00
  6.70000000E+02  2.00000000E+00  0.00000000E+00
  6.80000000E+02  2.00000000E+00  0.00000000E+00
  6.90000000E+02  2.00000000E+00  0.00000000E+00
  7.00000000E+02  2.00000000E+00  0.00000000E+00
  7.10000000E+02  2.00000000E+00  0.00000000E+00
  7.20000000E+02  2.00000000E+00  0.00000000E+00
  7.30000000E+02  2.00000000E+00  0.00000000E+00
  7.40000000E+02  2.00000000E+00  0.00000000E+00
  7.50000000E+02  2.00000000E+00  0.00000000E+00
  7.60000000E+02  2.00000000E+00  0.00000000E+00
  7.70000000E+02  2.00000000E+00  0.00000000E+00
  7.80000000E+02  2.00000000E+00  0.00000000E+00
  7.90000000E+02  2.00000000E+00  0.00000000E+00
  8.00000000E+02  2.00000000E+00  0.00000000E+00
  8.10000000E+02  2.00000000E+00  0.00000000E+00
  8.20000000E+02  2.00000000E+00  0.00000000E+00
  8.30000000E+02  2.00000000E+00  0.00000000E+00
  8.40000000E+02  2.00000000E+00  0.00000000E+00
  8.50000000E+02  2.00000000E+00  0.00000000E+00
  8.60000000E+02  2.00000000E+00  0.00000000E+00
  8.70000000E+02  2.00000000E+00  0.00000000E+00
  8.80000000E+02  2.00000000E+00  0.00000000E+00
  8.90000000E+02  2.00000000E+00  0.00000000E+00
  9.00000000E+02  2.00000000E+00  0.00000000E+00
  9.10000000E+02  2.00000000E+00  0.00000000E+00
  9.20000000E+02  2.00000000E+00  0.00000000E+00
  9.30000000E+02  2.00000000E+00  0.00000000E+00
  9.40000000E+02  2.00000000E+00  0.00000000E+00
  9.50000000E+02  2.00000000E+00  0.00000000E+00
  9.60000000E+02  2.00000000E+00  0.00000000E+00
  9.70000000E+02  2.00000000E+00  0.00000000E+00
  9.80000000E+02  2.00000000E+00  0.00000000E+00
  9.90000000E+02  2.00000000E+00  0.00000000E+00
  1.00000000E+03  2.00000000E+00  0.00000000E+00
  0.00000000E+00  4.00000000E+00  0.00000000E+00
  1.00000000E+01  4.00000000E+00  0.00000000E+00
  2.00000000E+01  4.00000000E+00  0.00000000E+00
  3.00000000E+01  4.00000000E+00  0.00000000E+00
  4.00000000E+01  4.00000000E+00  0.00000000E+00
  5.00000000E+01  4.00000000E+00  0.00000000E+00
  6.00000000E+01  4.00000000E+00  0.00000000E+00
  7.00000000E+01  4.00000000E+00  0.00000000E+00
  8.00000000E+01  4.00000000E+00  0.00000000E+00
  9.00000000E+01  4.00000000E+00  0.00000000E+00
  1.00000000E+02  4.00000000E+00  0.00000000E+00
  1.10000000E+02  4.00000000E+00  0.00000000E+00
  1.20000000E+02  4.00000000E+00  0.00000000E+00
  1.30000000E+02  4.00000000E+00  0.00000000E+00
  1.40000000E+02  4.00000000E+00  0.00000000E+00
  1.50000000E+02  4.00000000E+00  0.00000000E+00
  1.60000000E+02  4.00000000E+00  0.00000000E+00
  1.70000000E+02  4.00000000E+00  0.00000000E+00
  1.80000000E+02  4.00000000E+00  0.00000000E+00
  1.90000000E+02  4.00000000E+00  0.00000000E+00
  2.00000000E+02  4.00000000E+00  0.00000000E+00
  2.10000000E+02  4.00000000E+00  0.00000000E+00
  2.20000000E+02  4.00000000E+00  0.00000000E+00
  2.30000000E+02  4.00000000E+00  0.00000000E+00
  2.40000000E+02  4.00000000E+00  0.00000000E+00
  2.50000000E+02  4.00000000E+00  0.00000000E+00
  2.60000000E+02  4.00000000E+00  0.00000000E+00
  2.70000000E+02  4.00000000E+00  0.00000000E+00
  2.80000000E+02  4.00000000E+00  0.00000000E+00
  2.90000000E+02  4.00000000E+00  0.00000000E+00
  3.00000000E+02  4.00000000E+00  0.00000000E+00
  3.10000000E+02  4.00000000E+00  0.00000000E+00
  3.20000000E+02  4.00000000E+00  0.00000000E+00
  3.30000000E+02  4.00000000E+00  0.00000000E+00
  3.40000000E+02  4.00000000E+00  0.00000000E+00
  3.50000000E+02  4.00000000E+00  0.00000000E+00
  3.60000000E+02  4.00000000E+00  0.00000000E+00
  3.70000000E+02  4.00000000E+00  0.00000000E+00
  3.80000000E+02  4.00000000E+00  0.00000000E+00
  3.90000000E+02  4.00000000E+00  0.00000000E+00
  4.00000000E+02  4.00000000E+00  0.00000000E+00
  4.10000000E+02  4.00000000E+00  0.00000000E+00
  4.20000000E+02  4.00000000E+00  0.00000000E+00
  4.30000000E+02  4.00000000E+00  0.00000000E+00
  4.40000000E+02  4.00000000E+00  0.00000000E+00
  4.50000000E+02  4.00000000E+00  0.00000000E+00
  4.60000000E+02  4.00000000E+00  0.00000000E+00
  4.70000000E+02  4.00000000E+00  0.00000000E+00
  4.80000000E+02  4.00000000E+00  0.00000000E+00
  4.90000000E+02  4.00000000E+00  0.00000000E+00
  5.00000000E+02  4.00000000E+00  0.00000000E+00
  5.10000000E+02  4.00000000E+00  0.00000000E+00
  5.20000000E+02  4.00000000E+00  0.00000000E+00
  5.30000000E+02  4.00000000E+00  0.00000000E+00
  5.40000000E+02  4.00000000E+00  0.00000000E+00
  5.50000000E+02  4.00000000E+00  0.00000000E+00
  5.60000000E+02  4.00000000E+00  0.00000000E+00
  5.70000000E+02  4.00000000E+00  0.00000000E+00
  5.80000000E+02  4.00000000E+00  0.00000000E+00
  5.90000000E+02  4.00000000E+00  0.00000000E+00
  6.00000000E+02  4.00000000E+00  0.00000000E+00
  6.10000000E+02  4.00000000E+00  0.00000000E+00
  6.20000000E+02  4.00000000E+00  0.00000000E+00
  6.30000000E+02  4.00000000E+00  0.00000000E+00
  6.40000000E+02  4.00000000E+00  0.00000000E+00
  6.50000000E+02  4.00000000E+00  0.00000000E+00
  6.60000000E+02  4.00000000E+00  0.00000000E+00
  6.70000000E+02  4.00000000E+00  0.00000000E+00
  6.80000000E+02  4.00000000E+00  0.00000000E+00
  6.90000000E+02  4.00000000E+00  0.00000000E+00
  7.00000000E+02  4.00000000E+00  0.00000000E+00
  7.10000000E+02  4.00000000E+00  0.00000000E+00
  7.20000000E+02  4.00000000E+00  0.00000000E+00
  7.30000000E+02  4.00000000E+00  0.00000000E+00
  7.40000000E+02  4.00000000E+00  0.00000000E+00
  7.50000000E+02  4.00000000E+00  0.00000000E+00
  7.60000000E+02  4.00000000E+00  0.00000000E+00
  7.70000000E+02  4.00000000E+00  0.00000000E+00
  7.80000000E+02  4.00000000E+00  0.00000000E+00
  7.90000000E+02  4.00000000E+00  0.00000000E+00
  8.00000000E+02  4.00000000E+00  0.00000000E+00
  8.10000000E+02  4.00000000E+00  0.00000000E+00
  8.20000000E+02  4.00000000E+00  0.00000000E+00
  8.30000000E+02  4.00000000E+00  0.00000000E+00
  8.40000000E+02  4.00000000E+00  0.00000000E+00
  8.50000000E+02  4.00000000E+00  0.00000000E+00
  8.60000000E+02  4.00000000E+00  0.00000000E+00
  8.70000000E+02  4.00000000E+00  0.00000000E+00
  8.80000000E+02  4.00000000E+00  0.00000000E+00
  8.90000000E+02  4.00000000E+00  0.00000000E+00
  9.00000000E+02  4.00000000E+00  0.00000000E+00
  9.10000000E+02  4.00000000E+00  0.00000000E+00
  9.20000000E+02  4.00000000E+00  0.00000000E+00
  9.30000000E+02  4.00000000E+00  0.00000000E+00
  9.40000000E+02  4.00000000E+00  0.00000000E+00
  9.50000000E+02  4.00000000E+00  0.00000000E+00
  9.60000000E+02  4.00000000E+00  0.00000000E+00
  9.70000000E+02  4.00000000E+00  0.00000000E+00
  9.80000000E+02  4.00000000E+00  0.00000000E+00
  9.90000000E+02  4.00000000E+00  0.00000000E+00
  1.00000000E+03  4.00000000E+00  0.00000000E+00
  0.00000000E+00  6.00000000E+00  0.00000000E+00
  1.00000000E+01  6.00000000E+00  0.00000000E+00
  2.00000000E+01  6.00000000E+00  0.00000000E+00
  3.00000000E+01  6.00000000E+00  0.00000000E+00
  4.00000000E+01  6.00000000E+00  0.00000000E+00
  5.00000000E+01  6.00000000E+00  0.00000000E+00
  6.00000000E+01  6.00000000E+00  0.00000000E+00
  7.00000000E+01  6.00000000E+00  0.00000000E+00
  8.00000000E+01  6.00000000E+00  0.00000000E+00
  9.00000000E+01  6.00000000E+00  0.00000000E+00
  1.00000000E+02  6.00000000E+00  0.00000000E+00
  1.10000000E+02  6.00000000E+00  0.00000000E+00
  1.20000000E+02  6.00000000E+00  0.00000000E+00
  1.30000000E+02  6.00000000E+00  0.00000000E+00
  1.40000000E+02  6.00000000E+00  0.00000000E+00
  1.50000000E+02  6.00000000E+00  0.00000000E+00
  1.60000000E+02  6.00000000E+00  0.00000000E+00
  1.70000000E+02  6.00000000E+00  0.00000000E+00
  1.80000000E+02  6.00000000E+00  0.00000000E+00
  1.90000000E+02  6.00000000E+00  0.00000000E+00
  2.00000000E+02  6.00000000E+00  0.00000000E+00
  2.10000000E+02  6.00000000E+00  0.00000000E+00
  2.20000000E+02  6.00000000E+00  0.00000000E+00
  2.30000000E+02  6.00000000E+00  0.00000000E+00
  2.40000000E+02  6.00000000E+00  0.00000000E+00
  2.50000000E+02  6.00000000E+00  0.00000000E+00
  2.60000000E+02  6.00000000E+00  0.00000000E+00
  2.70000000E+02  6.00000000E+00  0.00000000E+00
  2.80000000E+02  6.00000000E+00  0.00000000E+00
  2.90000000E+02  6.00000000E+00  0.00000000E+00
  3.00000000E+02  6.00000000E+00  0.00000000E+00
  3.10000000E+02  6.00000000E+00  0.00000000E+00
  3.20000000E+02  6.00000000E+00  0.00000000E+00
  3.30000000E+02  6.00000000E+00  0.00000000E+00
  3.40000000E+02  6.00000000E+00  0.00000000E+00
  3.50000000E+02  6.00000000E+00  0.00000000E+00
  3.60000000E+02  6.00000000E+00  0.00000000E+00
  3.70000000E+02  6.00000000E+00  0.00000000E+00
  3.80000000E+02  6.00000000E+00  0.00000000E+00
  3.90000000E+02  6.00000000E+00  0.00000000E+00
  4.00000000E+02  6.00000000E+00  0.00000000E+00
  4.10000000E+02  6.00000000E+00  0.00000000E+00
  4.20000000E+02  6.00000000E+00  0.00000000E+00
  4.30000000E+02  6.00000000E+00  0.00000000E+00
  4.40000000E+02  6.00000000E+00  0.00000000E+00
  4.50000000E+02  6.00000000E+00  0.00000000E+00
  4.60000000E+02  6.00000000E+00  0.00000000E+00
  4.70000000E+02  6.00000000E+00  0.00000000E+00
  4.80000000E+02  6.00000000E+00  0.00000000E+00
  4.90000000E+02  6.00000000E+00  0.00000000E+00
  5.00000000E+02  6.00000000E+00  0.00000000E+00
  5.10000000E+02  6.00000000E+00  0.00000000E+00
  5.20000000E+02  6.00000000E+00  0.00000000E+00
  5.30000000E+02  6.00000000E+00  0.00000000E+00
  5.40000000E+02  6.00000000E+00  0.00000000E+00
  5.50000000E+02  6.00000000E+00  0.00000000E+00
  5.60000000E+02  6.00000000E+00  0.00000000E+00
  5.70000000E+02  6.00000000E+00  0.00000000E+00
  5.80000000E+02  6.00000000E+00  0.00000000E+00
  5.90000000E+02  6.00000000E+00  0.00000000E+00
  6.00000000E+02  6.00000000E+00  0.00000000E+00
  6.10000000E+02  6.00000000E+00  0.00000000E+00
  6.20000000E+02  6.00000000E+00  0.00000000E+00
  6.30000000E+02  6.00000000E+00  0.00000000E+00
  6.40000000E+02  6.00000000E+00  0.00000000E+00
  6.50000000E+02  6.00000000E+00  0.00000000E+00
  6.60000000E+02  6.00000000E+00  0.00000000E+00
  6.70000000E+02  6.00000000E+00  0.00000000E+00
  6.80000000E+02  6.00000000E+00  0.00000000E+00
  6.90000000E+02  6.00000000E+00  0.00000000E+00
  7.00000000E+02  6.00000000E+00  0.00000000E+00
  7.10000000E+02  6.00000000E+00  0.00000000E+00
  7.20000000E+02  6.00000000E+00  0.00000000E+00
  7.30000000E+02  6.00000000E+00  0.00000000E+00
  7.40000000E+02  6.00000000E+00  0.00000000E+00
  7.50000000E+02  6.00000000E+00  0.00000000E+00
  7.60000000E+02  6.00000000E+00  0.00000000E+00
  7.70000000E+02  6.00000000E+00  0.00000000E+00
  7.80000000E+02  6.00000000E+00  0.00000000E+00
  7.90000000E+02  6.00000000E+00  0.00000000E+00
  8.00000000E+02  6.00000000E+00  0.00000000E+00
  8.10000000E+02  6.00000000E+00  0.00000000E+00
  8.20000000E+02  6.00000000E+00  0.00000000E+00
  8.30000000E+02  6.00000000E+00  0.00000000E+00
  8.40000000E+02  6.00000000E+00  0.00000000E+00
  8.50000000E+02  6.00000000E+00  0.00000000E+00
  8.60000000E+02  6.00000000E+00  0.00000000E+00
  8.70000000E+02  6.00000000E+00  0.00000000E+00
  8.80000000E+02  6.00000000E+00  0.00000000E+00
  8.90000000E+02  6.00000000E+00  0.00000000E+00
  9.00000000E+02  6.00000000E+00  0.00000000E+00
  9.10000000E+02  6.00000000E+00  0.00000000E+00
  9.20000000E+02  6.00000000E+00  0.00000000E+00
  9.30000000E+02  6.00000000E+00  0.00000000E+00
  9.40000000E+02  6.00000000E+00  0.00000000E+00
  9.50000000E+02  6.00000000E+00  0.00000000E+00
  9.60000000E+02  6.00000000E+00  0.00000000E+00
  9.70000000E+02  6.00000000E+00  0.00000000E+00
  9.80000000E+02  6.00000000E+00  0.00000000E+00
  9.90000000E+02  6.00000000E+00  0.00000000E+00
  1.00000000E+03  6.00000000E+00  0.00000000E+00
  0.00000000E+00  8.00000000E+00  0.00000000E+00
  1.00000000E+01  8.00000000E+00  0.00000000E+00
  2.00000000E+01  8.00000000E+00  0.00000000E+00
  3.00000000E+01  8.00000000E+00  0.00000000E+00
  4.00000000E+01  8.00000000E+00  0.00000000E+00
  5.00000000E+01  8.00000000E+00  0.00000000E+00
  6.00000000E+01  8.00000000E+00  0.00000000E+00
  7.00000000E+01  8.00000000E+00  0.00000000E+00
  8.00000000E+01  8.00000000E+00  0.00000000E+00
  9.00000000E+01  8.00000000E+00  0.00000000E+00
  1.00000000E+02  8.00000000E+00  0.00000000E+00
  1.10000000E+02  8.00000000E+00  0.00000000E+00
  1.20000000E+02  8.00000000E+00  0.00000000E+00
  1.30000000E+02  8.00000000E+00  0.00000000E+00
  1.40000000E+02  8.00000000E+00  0.00000000E+00
  1.50000000E+02  8.00000000E+00  0.00000000E+00
  1.60000000E+02  8.00000000E+00  0.00000000E+00
  1.70000000E+02  8.00000000E+00  0.00000000E+00
  1.80000000E+02  8.00000000E+00  0.00000000E+00
  1.90000000E+02  8.00000000E+00  0.00000000E+00
  2.00000000E+02  8.00000000E+00  0.00000000E+00
  2.10000000E+02  8.00000000E+00  0.00000000E+00
  2.20000000E+02  8.00000000E+00  0.00000000E+00
  2.30000000E+02  8.00000000E+00  0.00000000E+00
  2.40000000E+02  8.00000000E+00  0.00000000E+00
  2.50000000E+02  8.00000000E+00  0.00000000E+00
  2.60000000E+02  8.00000000E+00  0.00000000E+00
  2.70000000E+02  8.00000000E+00  0.00000000E+00
  2.80000000E+02  8.00000000E+00  0.00000000E+00
  2.90000000E+02  8.00000000E+00  0.00000000E+00
  3.00000000E+02  8.00000000E+00  0.00000000E+00
  3.10000000E+02  8.00000000E+00  0.00000000E+00
  3.20000000E+02  8.00000000E+00  0.00000000E+00
  3.30000000E+02  8.00000000E+00  0.00000000E+00
  3.40000000E+02  8.00000000E+00  0.00000000E+00
  3.50000000E+02  8.00000000E+00  0.00000000E+00
  3.60000000E+02  8.00000000E+00  0.00000000E+00
  3.70000000E+02  8.00000000E+00  0.00000000E+00
  3.80000000E+02  8.00000000E+00  0.00000000E+00
  3.90000000E+02  8.00000000E+00  0.00000000E+00
  4.00000000E+02  8.00000000E+00  0.00000000E+00
  4.10000000E+02  8.00000000E+00  0.00000000E+00
  4.20000000E+02  8.00000000E+00  0.00000000E+00
  4.30000000E+02  8.00000000E+00  0.00000000E+00
  4.40000000E+02  8.00000000E+00  0.00000000E+00
  4.50000000E+02  8.00000000E+00  0.00000000E+00
  4.60000000E+02  8.00000000E+00  0.00000000E+00
  4.70000000E+02  8.00000000E+00  0.00000000E+00
  4.80000000E+02  8.00000000E+00  0.00000000E+00
  4.90000000E+02  8.00000000E+00  0.00000000E+00
  5.00000000E+02  8.00000000E+00  0.00000000E+00
  5.10000000E+02  8.00000000E+00  0.00000000E+00
  5.20000000E+02  8.00000000E+00  0.00000000E+00
  5.30000000E+02  8.00000000E+00  0.00000000E+00
  5.40000000E+02  8.00000000E+00  0.00000000E+00
  5.50000000E+02  8.00000000E+00  0.00000000E+00
  5.60000000E+02  8.00000000E+00  0.00000000E+00
  5.70000000E+02  8.00000000E+00  0.00000000E+00
  5.80000000E+02  8.00000000E+00  0.00000000E+00
  5.90000000E+02  8.00000000E+00  0.00000000E+00
  6.00000000E+02  8.00000000E+00  0.00000000E+00
  6.10000000E+02  8.00000000E+00  0.00000000E+00
  6.20000000E+02  8.00000000E+00  0.00000000E+00
  6.30000000E+02  8.00000000E+00  0.00000000E+00
  6.40000000E+02  8.00000000E+00  0.00000000E+00
  6.50000000E+02  8.00000000E+00  0.00000000E+00
  6.60000000E+02  8.00000000E+00  0.00000000E+00
  6.70000000E+02  8.00000000E+00  0.00000000E+00
  6.80000000E+02  8.00000000E+00  0.00000000E+00
  6.90000000E+02  8.00000000E+00  0.00000000E+00
  7.00000000E+02  8.00000000E+00  0.00000000E+00
  7.10000000E+02  8.00000000E+00  0.00000000E+00
  7.20000000E+02  8.00000000E+00  0.00000000E+00
  7.30000000E+02  8.00000000E+00  0.00000000E+00
  7.40000000E+02  8.00000000E+00  0.00000000E+00
  7.50000000E+02  8.00000000E+00  0.00000000E+00
  7.60000000E+02  8.00000000E+00  0.00000000E+00
  7.70000000E+02  8.00000000E+00  0.00000000E+00
  7.80000000E+02  8.00000000E+00  0.00000000E+00
  7.90000000E+02  8.00000000E+00  0.00000000E+00
  8.00000000E+02  8.00000000E+00  0.00000000E+00
  8.10000000E+02  8.00000000E+00  0.00000000E+00
  8.20000000E+02  8.00000000E+00  0.00000000E+00
  8.30000000E+02  8.00000000E+00  0.00000000E+00
  8.40000000E+02  8.00000000E+00  0.00000000E+00
  8.50000000E+02  8.00000000E+00  0.00000000E+00
  8.60000000E+02  8.00000000E+00  0.00000000E+00
  8.70000000E+02  8.00000000E+00  0.00000000E+00
  8.80000000E+02  8.00000000E+00  0.00000000E+00
  8.90000000E+02  8.00000000E+00  0.00000000E+00
  9.00000000E+02  8.00000000E+00  0.00000000E+00
  9.10000000E+02  8.00000000E+00  0.00000000E+00
  9.20000000E+02  8.00000000E+00  0.00000000E+00
  9.30000000E+02  8.00000000E+00  0.00000000E+00
  9.40000000E+02  8.00000000E+00  0.00000000E+00
  9.50000000E+02  8.00000000E+00  0.00000000E+00
  9.60000000E+02  8.00000000E+00  0.00000000E+00
  9.70000000E+02  8.00000000E+00  0.00000000E+00
  9.80000000E+02  8.00000000E+00  0.00000000E+00
  9.90000000E+02  8.00000000E+00  0.00000000E+00
  1.00000000E+03  8.00000000E+00  0.00000000E+00
  0.00000000E+00  1.00000000E+01  0.00000000E+00
  1.00000000E+01  1.00000000E+01  0.00000000E+00
  2.00000000E+01  1.00000000E+01  0.00000000E+00
  3.00000000E+01  1.00000000E+01  0.00000000E+00
  4.00000000E+01  1.00000000E+01  0.00000000E+00
  5.00000000E+01  1.00000000E+01  0.00000000E+00
  6.00000000E+01  1.00000000E+01  0.00000000E+00
  7.00000000E+01  1.00000000E+01  0.00000000E+00
  8.00000000E+01  1.00000000E+01  0.00000000E+00
  9.00000000E+01  1.00000000E+01  0.00000000E+00
  1.00000000E+02  1.00000000E+01  0.00000000E+00
  1.10000000E+02  1.00000000E+01  0.00000000E+00
  1.20000000E+02  1.00000000E+01  0.00000000E+00
  1.30000000E+02  1.00000000E+01  0.00000000E+00
  1.40000000E+02  1.00000000E+01  0.00000000E+00
  1.50000000E+02  1.00000000E+01  0.00000000E+00
  1.60000000E+02  1.00000000E+01  0.00000000E+00
  1.70000000E+02  1.00000000E+01  0.00000000E+00
  1.80000000E+02  1.00000000E+01  0.00000000E+00
  1.90000000E+02  1.00000000E+01  0.00000000E+00
  2.00000000E+02  1.00000000E+01  0.00000000E+00
  2.10000000E+02  1.00000000E+01  0.00000000E+00
  2.20000000E+02  1.00000000E+01  0.00000000E+00
  2.30000000E+02  1.00000000E+01  0.00000000E+00
  2.40000000E+02  1.00000000E+01  0.00000000E+00
  2.50000000E+02  1.00000000E+01  0.00000000E+00
  2.60000000E+02  1.00000000E+01  0.00000000E+00
  2.70000000E+02  1.00000000E+01  0.00000000E+00
  2.80000000E+02  1.00000000E+01  0.00000000E+00
  2.90000000E+02  1.00000000E+01  0.00000000E+00
  3.00000000E+02  1.00000000E+01  0.00000000E+00
  3.10000000E+02  1.00000000E+01  0.00000000E+00
  3.20000000E+02  1.00000000E+01  0.00000000E+00
  3.30000000E+02  1.00000000E+01  0.00000000E+00
  3.40000000E+02  1.00000000E+01  0.00000000E+00
  3.50000000E+02  1.00000000E+01  0.00000000E+00
  3.60000000E+02  1.00000000E+01  0.00000000E+00
  3.70000000E+02  1.00000000E+01  0.00000000E+00
  3.80000000E+02  1.00000000E+01  0.00000000E+00
  3.90000000E+02  1.00000000E+01  0.00000000E+00
  4.00000000E+02  1.00000000E+01  0.00000000E+00
  4.10000000E+02  1.00000000E+01  0.00000000E+00
  4.20000000E+02  1.00000000E+01  0.00000000E+00
  4.30000000E+02  1.00000000E+01  0.00000000E+00
  4.40000000E+02  1.00000000E+01  0.00000000E+00
  4.50000000E+02  1.00000000E+01  0.00000000E+00
  4.60000000E+02  1.00000000E+01  0.00000000E+00
  4.70000000E+02  1.00000000E+01  0.00000000E+00
  4.80000000E+02  1.00000000E+01  0.00000000E+00
  4.90000000E+02  1.00000000E+01  0.00000000E+00
  5.00000000E+02  1.00000000E+01  0.00000000E+00
  5.10000000E+02  1.00000000E+01  0.00000000E+00
  5.20000000E+02  1.00000000E+01  0.00000000E+00
  5.30000000E+02  1.00000000E+01  0.00000000E+00
  5.40000000E+02  1.00000000E+01  0.00000000E+00
  5.50000000E+02  1.00000000E+01  0.00000000E+00
  5.60000000E+02  1.00000000E+01  0.00000000E+00
  5.70000000E+02  1.00000000E+01  0.00000000E+00
  5.80000000E+02  1.00000000E+01  0.00000000E+00
  5.90000000E+02  1.00000000E+01  0.00000000E+00
  6.00000000E+02  1.00000000E+01  0.00000000E+00
  6.10000000E+02  1.00000000E+01  0.00000000E+00
  6.20000000E+02  1.00000000E+01  0.00000000E+00
  6.30000000E+02  1.00000000E+01  0.00000000E+00
  6.40000000E+02  1.00000000E+01  0.00000000E+00
  6.50000000E+02  1.00000000E+01  0.00000000E+00
  6.60000000E+02  1.00000000E+01  0.00000000E+00
  6.70000000E+02  1.00000000E+01  0.00000000E+00
  6.80000000E+02  1.00000000E+01  0.00000000E+00
  6.90000000E+02  1.00000000E+01  0.00000000E+00
  7.00000000E+02  1.00000000E+01  0.00000000E+00
  7.10000000E+02  1.00000000E+01  0.00000000E+00
  7.20000000E+02  1.00000000E+01  0.00000000E+00
  7.30000000E+02  1.00000000E+01  0.00000000E+00
  7.40000000E+02  1.00000000E+01  0.00000000E+00
  7.50000000E+02  1.00000000E+01  0.00000000E+00
  7.60000000E+02  1.00000000E+01  0.00000000E+00
  7.70000000E+02  1.00000000E+01  0.00000000E+00
  7.80000000E+02  1.00000000E+01  0.00000000E+00
  7.90000000E+02  1.00000000E+01  0.00000000E+00
  8.00000000E+02  1.00000000E+01  0.00000000E+00
  8.10000000E+02  1.00000000E+01  0.00000000E+00
  8.20000000E+02  1.00000000E+01  0.00000000E+00
  8.30000000E+02  1.00000000E+01  0.00000000E+00
  8.40000000E+02  1.00000000E+01  0.00000000E+00
  8.50000000E+02  1.00000000E+01  0.00000000E+00
  8.60000000E+02  1.00000000E+01  0.00000000E+00
  8.70000000E+02  1.00000000E+01  0.00000000E+00
  8.80000000E+02  1.00000000E+01  0.00000000E+00
  8.90000000E+02  1.00000000E+01  0.00000000E+00
  9.00000000E+02  1.00000000E+01  0.00000000E+00
  9.10000000E+02  1.00000000E+01  0.00000000E+00
  9.20000000E+02  1.00000000E+01  0.00000000E+00
  9.30000000E+02  1.00000000E+01  0.00000000E+00
  9.40000000E+02  1.00000000E+01  0.00000000E+00
  9.50000000E+02  1.00000000E+01  0.00000000E+00
  9.60000000E+02  1.00000000E+01  0.00000000E+00
  9.70000000E+02  1.00000000E+01  0.00000000E+00
  9.80000000E+02  1.00000000E+01  0.00000000E+00
  9.90000000E+02  1.00000000E+01  0.00000000E+00
  1.00000000E+03  1.00000000E+01  0.00000000E+00
  0.00000000E+00  1.20000000E+01  0.00000000E+00
  1.00000000E+01  1.20000000E+01  0.00000000E+00
  2.00000000E+01  1.20000000E+01  0.00000000E+00
  3.00000000E+01  1.20000000E+01  0.00000000E+00
  4.00000000E+01  1.20000000E+01  0.00000000E+00
  5.00000000E+01  1.20000000E+01  0.00000000E+00
  6.00000000E+01  1.20000000E+01  0.00000000E+00
  7.00000000E+01  1.20000000E+01  0.00000000E+00
  8.00000000E+01  1.20000000E+01  0.00000000E+00
  9.00000000E+01  1.20000000E+01  0.00000000E+00
  1.00000000E+02  1.20000000E+01  0.00000000E+00
  1.10000000E+02  1.20000000E+01  0.00000000E+00
  1.20000000E+02  1.20000000E+01  0.00000000E+00
  1.30000000E+02  1.20000000E+01  0.00000000E+00
  1.40000000E+02  1.20000000E+01  0.00000000E+00
  1.50000000E+02  1.20000000E+01  0.00000000E+00
  1.60000000E+02  1.20000000E+01  0.00000000E+00
  1.70000000E+02  1.20000000E+01  0.00000000E+00
  1.80000000E+02  1.20000000E+01  0.00000000E+00
  1.90000000E+02  1.20000000E+01  0.00000000E+00
  2.00000000E+02  1.20000000E+01  0.00000000E+00
  2.10000000E+02  1.20000000E+01  0.00000000E+00
  2.20000000E+02  1.20000000E+01  0.00000000E+00
  2.30000000E+02  1.20000000E+01  0.00000000E+00
  2.40000000E+02  1.20000000E+01  0.00000000E+00
  2.50000000E+02  1.20000000E+01  0.00000000E+00
  2.60000000E+02  1.20000000E+01  0.00000000E+00
  2.70000000E+02  1.20000000E+01  0.00000000E+00
  2.80000000E+02  1.20000000E+01  0.00000000E+00
  2.90000000E+02  1.20000000E+01  0.00000000E+00
  3.00000000E+02  1.20000000E+01  0.00000000E+00
  3.10000000E+02  1.20000000E+01  0.00000000E+00
  3.20000000E+02  1.20000000E+01  0.00000000E+00
  3.30000000E+02  1.20000000E+01  0.00000000E+00
  3.40000000E+02  1.20000000E+01  0.00000000E+00
  3.50000000E+02  1.20000000E+01  0.00000000E+00
  3.60000000E+02  1.20000000E+01  0.00000000E+00
  3.70000000E+02  1.20000000E+01  0.00000000E+00
  3.80000000E+02  1.20000000E+01  0.00000000E+00
  3.90000000E+02  1.20000000E+01  0.00000000E+00
  4.00000000E+02  1.20000000E+01  0.00000000E+00
  4.10000000E+02  1.20000000E+01  0.00000000E+00
  4.20000000E+02  1.20000000E+01  0.00000000E+00
  4.30000000E+02  1.20000000E+01  0.00000000E+00
  4.40000000E+02  1.20000000E+01  0.00000000E+00
  4.50000000E+02  1.20000000E+01  0.00000000E+00
  4.60000000E+02  1.20000000E+01  0.00000000E+00
  4.70000000E+02  1.20000000E+01  0.00000000E+00
  4.80000000E+02  1.20000000E+01  0.00000000E+00
  4.90000000E+02  1.20000000E+01  0.00000000E+00
  5.00000000E+02  1.20000000E+01  0.00000000E+00
  5.10000000E+02  1.20000000E+01  0.00000000E+00
  5.20000000E+02  1.20000000E+01  0.00000000E+00
  5.30000000E+02  1.20000000E+01  0.00000000E+00
  5.40000000E+02  1.20000000E+01  0.00000000E+00
  5.50000000E+02  1.20000000E+01  0.00000000E+00
  5.60000000E+02  1.20000000E+01  0.00000000E+00
  5.70000000E+02  1.20000000E+01  0.00000000E+00
  5.80000000E+02  1.20000000E+01  0.00000000E+00
  5.90000000E+02  1.20000000E+01  0.00000000E+00
  6.00000000E+02  1.20000000E+01  0.00000000E+00
  6.10000000E+02  1.20000000E+01  0.00000000E+00
  6.20000000E+02  1.20000000E+01  0.00000000E+00
  6.30000000E+02  1.20000000E+01  0.00000000E+00
  6.40000000E+02  1.20000000E+01  0.00000000E+00
  6.50000000E+02  1.20000000E+01  0.00000000E+00
  6.60000000E+02  1.20000000E+01  0.00000000E+00
  6.70000000E+02  1.20000000E+01  0.00000000E+00
  6.80000000E+02  1.20000000E+01  0.00000000E+00
  6.90000000E+02  1.20000000E+01  0.00000000E+00
  7.00000000E+02  1.20000000E+01  0.00000000E+00
  7.10000000E+02  1.20000000E+01  0.00000000E+00
  7.20000000E+02  1.20000000E+01  0.00000000E+00
  7.30000000E+02  1.20000000E+01  0.00000000E+00
  7.40000000E+02  1.20000000E+01  0.00000000E+00
  7.50000000E+02  1.20000000E+01  0.00000000E+00
  7.60000000E+02  1.20000000E+01  0.00000000E+00
  7.70000000E+02  1.20000000E+01  0.00000000E+00
  7.80000000E+02  1.20000000E+01  0.00000000E+00
  7.90000000E+02  1.20000000E+01  0.00000000E+00
  8.00000000E+02  1.20000000E+01  0.00000000E+00
  8.10000000E+02  1.20000000E+01  0.00000000E+00
  8.20000000E+02  1.20000000E+01  0.00000000E+00
  8.30000000E+02  1.20000000E+01  0.00000000E+00
  8.40000000E+02  1.20000000E+01  0.00000000E+00
  8.50000000E+02  1.20000000E+01  0.00000000E+00
  8.60000000E+02  1.20000000E+01  0.00000000E+00
  8.70000000E+02  1.20000000E+01  0.00000000E+00
  8.80000000E+02  1.20000000E+01  0.00000000E+00
  8.90000000E+02  1.20000000E+01  0.00000000E+00
  9.00000000E+02  1.20000000E+01  0.00000000E+00
  9.10000000E+02  1.20000000E+01  0.00000000E+00
  9.20000000E+02  1.20000000E+01  0.00000000E+00
  9.30000000E+02  1.20000000E+01  0.00000000E+00
  9.40000000E+02  1.20000000E+01  0.00000000E+00
  9.50000000E+02  1.20000000E+01  0.00000000E+00
  9.60000000E+02  1.20000000E+01  0.00000000E+00
  9.70000000E+02  1.20000000E+01  0.00000000E+00
  9.80000000E+02  1.20000000E+01  0.00000000E+00
  9.90000000E+02  1.20000000E+01  0.00000000E+00
  1.00000000E+03  1.20000000E+01  0.00000000E+00
  0.00000000E+00  1.40000000E+01  0.00000000E+00
  1.00000000E+01  1.40000000E+01  0.00000000E+00
  2.00000000E+01  1.40000000E+01  0.00000000E+00
  3.00000000E+01  1.40000000E+01  0.00000000E+00
  4.00000000E+01  1.40000000E+01  0.00000000E+00
  5.00000000E+01  1.40000000E+01  0.00000000E+00
  6.00000000E+01  1.40000000E+01  0.00000000E+00
  7.00000000E+01  1.40000000E+01  0.00000000E+00
  8.00000000E+01  1.40000000E+01  0.00000000E+00
  9.00000000E+01  1.40000000E+01  0.00000000E+00
  1.00000000E+02  1.40000000E+01  0.00000000E+00
  1.10000000E+02  1.40000000E+01  0.00000000E+00
  1.20000000E+02  1.40000000E+01  0.00000000E+00
  1.30000000E+02  1.40000000E+01  0.00000000E+00
  1.40000000E+02  1.40000000E+01  0.00000000E+00
  1.50000000E+02  1.40000000E+01  0.00000000E+00
  1.60000000E+02  1.40000000E+01  0.00000000E+00
  1.70000000E+02  1.40000000E+01  0.00000000E+00
  1.80000000E+02  1.40000000E+01  0.00000000E+00
  1.90000000E+02  1.40000000E+01  0.00000000E+00
  2.00000000E+02  1.40000000E+01  0.00000000E+00
  2.10000000E+02  1.40000000E+01  0.00000000E+00
  2.20000000E+02  1.40000000E+01  0.00000000E+00
  2.30000000E+02  1.40000000E+01  0.00000000E+00
  2.40000000E+02  1.40000000E+01  0.00000000E+00
  2.50000000E+02  1.40000000E+01  0.00000000E+00
  2.60000000E+02  1.40000000E+01  0.00000000E+00
  2.70000000E+02  1.40000000E+01  0.00000000E+00
  2.80000000E+02  1.40000000E+01  0.00000000E+00
  2.90000000E+02  1.40000000E+01  0.00000000E+00
  3.00000000E+02  1.40000000E+01  0.00000000E+00
  3.10000000E+02  1.40000000E+01  0.00000000E+00
  3.20000000E+02  1.40000000E+01  0.00000000E+00
  3.30000000E+02  1.40000000E+01  0.00000000E+00
  3.40000000E+02  1.40000000E+01  0.00000000E+00
  3.50000000E+02  1.40000000E+01  0.00000000E+00
  3.60000000E+02  1.40000000E+01  0.00000000E+00
  3.70000000E+02  1.40000000E+01  0.00000000E+00
  3.80000000E+02  1.40000000E+01  0.00000000E+00
  3.90000000E+02  1.40000000E+01  0.00000000E+00
  4.00000000E+02  1.40000000E+01  0.00000000E+00
  4.10000000E+02  1.40000000E+01  0.00000000E+00
  4.20000000E+02  1.40000000E+01  0.00000000E+00
  4.30000000E+02  1.40000000E+01  0.00000000E+00
  4.40000000E+02  1.40000000E+01  0.00000000E+00
  4.50000000E+02  1.40000000E+01  0.00000000E+00
  4.60000000E+02  1.40000000E+01  0.00000000E+00
  4.70000000E+02  1.40000000E+01  0.00000000E+00
  4.80000000E+02  1.40000000E+01  0.00000000E+00
  4.90000000E+02  1.40000000E+01  0.00000000E+00
  5.00000000E+02  1.40000000E+01  0.00000000E+00
  5.10000000E+02  1.40000000E+01  0.00000000E+00
  5.20000000E+02  1.40000000E+01  0.00000000E+00
  5.30000000E+02  1.40000000E+01  0.00000000E+00
  5.40000000E+02  1.40000000E+01  0.00000000E+00
  5.50000000E+02  1.40000000E+01  0.00000000E+00
  5.60000000E+02  1.40000000E+01  0.00000000E+00
  5.70000000E+02  1.40000000E+01  0.00000000E+00
  5.80000000E+02  1.40000000E+01  0.00000000E+00
  5.90000000E+02  1.40000000E+01  0.00000000E+00
  6.00000000E+02  1.40000000E+01  0.00000000E+00
  6.10000000E+02  1.40000000E+01  0.00000000E+00
  6.20000000E+02  1.40000000E+01  0.00000000E+00
  6.30000000E+02  1.40000000E+01  0.00000000E+00
  6.40000000E+02  1.40000000E+01  0.00000000E+00
  6.50000000E+02  1.40000000E+01  0.00000000E+00
  6.60000000E+02  1.40000000E+01  0.00000000E+00
  6.70000000E+02  1.40000000E+01  0.00000000E+00
  6.80000000E+02  1.40000000E+01  0.00000000E+00
  6.90000000E+02  1.40000000E+01  0.00000000E+00
  7.00000000E+02  1.40000000E+01  0.00000000E+00
  7.10000000E+02  1.40000000E+01  0.00000000E+00
  7.20000000E+02  1.40000000E+01  0.00000000E+00
  7.30000000E+02  1.40000000E+01  0.00000000E+00
  7.40000000E+02  1.40000000E+01  0.00000000E+00
  7.50000000E+02  1.40000000E+01  0.00000000E+00
  7.60000000E+02  1.40000000E+01  0.00000000E+00
  7.70000000E+02  1.40000000E+01  0.00000000E+00
  7.80000000E+02  1.40000000E+01  0.00000000E+00
  7.90000000E+02  1.40000000E+01  0.00000000E+00
  8.00000000E+02  1.40000000E+01  0.00000000E+00
  8.10000000E+02  1.40000000E+01  0.00000000E+00
  8.20000000E+02  1.40000000E+01  0.00000000E+00
  8.30000000E+02  1.40000000E+01  0.00000000E+00
  8.40000000E+02  1.40000000E+01  0.00000000E+00
  8.50000000E+02  1.40000000E+01  0.00000000E+00
  8.60000000E+02  1.40000000E+01  0.00000000E+00
  8.70000000E+02  1.40000000E+01  0.00000000E+00
  8.80000000E+02  1.40000000E+01  0.00000000E+00
  8.90000000E+02  1.40000000E+01  0.00000000E+00
  9.00000000E+02  1.40000000E+01  0.00000000E+00
  9.10000000E+02  1.40000000E+01  0.00000000E+00
  9.20000000E+02  1.40000000E+01  0.00000000E+00
  9.30000000E+02  1.40000000E+01  0.00000000E+00
  9.40000000E+02  1.40000000E+01  0.00000000E+00
  9.50000000E+02  1.40000000E+01  0.00000000E+00
  9.60000000E+02  1.40000000E+01  0.00000000E+00
  9.70000000E+02  1.40000000E+01  0.00000000E+00
  9.80000000E+02  1.40000000E+01  0.00000000E+00
  9.90000000E+02  1.40000000E+01  0.00000000E+00
  1.00000000E+03  1.40000000E+01  0.00000000E+00
  0.00000000E+00  1.60000000E+01  0.00000000E+00
  1.00000000E+01  1.60000000E+01  0.00000000E+00
  2.00000000E+01  1.60000000E+01  0.00000000E+00
  3.00000000E+01  1.60000000E+01  0.00000000E+00
  4.00000000E+01  1.60000000E+01  0.00000000E+00
  5.00000000E+01  1.60000000E+01  0.00000000E+00
  6.00000000E+01  1.60000000E+01  0.00000000E+00
  7.00000000E+01  1.60000000E+01  0.00000000E+00
  8.00000000E+01  1.60000000E+01  0.00000000E+00
  9.00000000E+01  1.60000000E+01  0.00000000E+00
  1.00000000E+02  1.60000000E+01  0.00000000E+00
  1.10000000E+02  1.60000000E+01  0.00000000E+00
  1.20000000E+02  1.60000000E+01  0.00000000E+00
  1.30000000E+02  1.60000000E+01  0.00000000E+00
  1.40000000E+02  1.60000000E+01  0.00000000E+00
  1.50000000E+02  1.60000000E+01  0.00000000E+00
  1.60000000E+02  1.60000000E+01  0.00000000E+00
  1.70000000E+02  1.60000000E+01  0.00000000E+00
  1.80000000E+02  1.60000000E+01  0.00000000E+00
  1.90000000E+02  1.60000000E+01  0.00000000E+00
  2.00000000E+02  1.60000000E+01  0.00000000E+00
  2.10000000E+02  1.60000000E+01  0.00000000E+00
  2.20000000E+02  1.60000000E+01  0.00000000E+00
  2.30000000E+02  1.60000000E+01  0.00000000E+00
  2.40000000E+02  1.60000000E+01  0.00000000E+00
  2.50000000E+02  1.60000000E+01  0.00000000E+00
  2.60000000E+02  1.60000000E+01  0.00000000E+00
  2.70000000E+02  1.60000000E+01  0.00000000E+00
  2.80000000E+02  1.60000000E+01  0.00000000E+00
  2.90000000E+02  1.60000000E+01  0.00000000E+00
  3.00000000E+02  1.60000000E+01  0.00000000E+00
  3.10000000E+02  1.60000000E+01  0.00000000E+00
  3.20000000E+02  1.60000000E+01  0.00000000E+00
  3.30000000E+02  1.60000000E+01  0.00000000E+00
  3.40000000E+02  1.60000000E+01  0.00000000E+00
  3.50000000E+02  1.60000000E+01  0.00000000E+00
  3.60000000E+02  1.60000000E+01  0.00000000E+00
  3.70000000E+02  1.60000000E+01  0.00000000E+00
  3.80000000E+02  1.60000000E+01  0.00000000E+00
  3.90000000E+02  1.60000000E+01  0.00000000E+00
  4.00000000E+02  1.60000000E+01  0.00000000E+00
  4.10000000E+02  1.60000000E+01  0.00000000E+00
  4.20000000E+02  1.60000000E+01  0.00000000E+00
  4.30000000E+02  1.60000000E+01  0.00000000E+00
  4.40000000E+02  1.60000000E+01  0.00000000E+00
  4.50000000E+02  1.60000000E+01  0.00000000E+00
  4.60000000E+02  1.60000000E+01  0.00000000E+00
  4.70000000E+02  1.60000000E+01  0.00000000E+00
  4.80000000E+02  1.60000000E+01  0.00000000E+00
  4.90000000E+02  1.60000000E+01  0.00000000E+00
  5.00000000E+02  1.60000000E+01  0.00000000E+00
  5.10000000E+02  1.60000000E+01  0.00000000E+00
  5.20000000E+02  1.60000000E+01  0.00000000E+00
  5.30000000E+02  1.60000000E+01  0.00000000E+00
  5.40000000E+02  1.60000000E+01  0.00000000E+00
  5.50000000E+02  1.60000000E+01  0.00000000E+00
  5.60000000E+02  1.60000000E+01  0.00000000E+00
  5.70000000E+02  1.60000000E+01  0.00000000E+00
  5.80000000E+02  1.60000000E+01  0.00000000E+00
  5.90000000E+02  1.60000000E+01  0.00000000E+00
  6.00000000E+02  1.60000000E+01  0.00000000E+00
  6.10000000E+02  1.60000000E+01  0.00000000E+00
  6.20000000E+02  1.60000000E+01  0.00000000E+00
  6.30000000E+02  1.60000000E+01  0.00000000E+00
  6.40000000E+02  1.60000000E+01  0.00000000E+00
  6.50000000E+02  1.60000000E+01  0.00000000E+00
  6.60000000E+02  1.60000000E+01  0.00000000E+00
  6.70000000E+02  1.60000000E+01  0.00000000E+00
  6.80000000E+02  1.60000000E+01  0.00000000E+00
  6.90000000E+02  1.60000000E+01  0.00000000E+00
  7.00000000E+02  1.60000000E+01  0.00000000E+00
  7.10000000E+02  1.60000000E+01  0.00000000E+00
  7.20000000E+02  1.60000000E+01  0.00000000E+00
  7.30000000E+02  1.60000000E+01  0.00000000E+00
  7.40000000E+02  1.60000000E+01  0.00000000E+00
  7.50000000E+02  1.60000000E+01  0.00000000E+00
  7.60000000E+02  1.60000000E+01  0.00000000E+00
  7.70000000E+02  1.60000000E+01  0.00000000E+00
  7.80000000E+02  1.60000000E+01  0.00000000E+00
  7.90000000E+02  1.60000000E+01  0.00000000E+00
  8.00000000E+02  1.60000000E+01  0.00000000E+00
  8.10000000E+02  1.60000000E+01  0.00000000E+00
  8.20000000E+02  1.60000000E+01  0.00000000E+00
  8.30000000E+02  1.60000000E+01  0.00000000E+00
  8.40000000E+02  1.60000000E+01  0.00000000E+00
  8.50000000E+02  1.60000000E+01  0.00000000E+00
  8.60000000E+02  1.60000000E+01  0.00000000E+00
  8.70000000E+02  1.60000000E+01  0.00000000E+00
  8.80000000E+02  1.60000000E+01  0.00000000E+00
  8.90000000E+02  1.60000000E+01  0.00000000E+00
  9.00000000E+02  1.60000000E+01  0.00000000E+00
  9.10000000E+02  1.60000000E+01  0.00000000E+00
  9.20000000E+02  1.60000000E+01  0.00000000E+00
  9.30000000E+02  1.60000000E+01  0.00000000E+00
  9.40000000E+02  1.60000000E+01  0.00000000E+00
  9.50000000E+02  1.60000000E+01  0.00000000E+00
  9.60000000E+02  1.60000000E+01  0.00000000E+00
  9.70000000E+02  1.60000000E+01  0.00000000E+00
  9.80000000E+02  1.60000000E+01  0.00000000E+00
  9.90000000E+02  1.60000000E+01  0.00000000E+00
  1.00000000E+03  1.60000000E+01  0.00000000E+00
  0.00000000E+00  1.80000000E+01  0.00000000E+00
  1.00000000E+01  1.80000000E+01  0.00000000E+00
  2.00000000E+01  1.80000000E+01  0.00000000E+00
  3.00000000E+01  1.80000000E+01  0.00000000E+00
  4.00000000E+01  1.80000000E+01  0.00000000E+00
  5.00000000E+01  1.80000000E+01  0.00000000E+00
  6.00000000E+01  1.80000000E+01  0.00000000E+00
  7.00000000E+01  1.80000000E+01  0.00000000E+00
  8.00000000E+01  1.80000000E+01  0.00000000E+00
  9.00000000E+01  1.80000000E+01  0.00000000E+00
  1.00000000E+02  1.80000000E+01  0.00000000E+00
  1.10000000E+02  1.80000000E+01  0.00000000E+00
  1.20000000E+02  1.80000000E+01  0.00000000E+00
  1.30000000E+02  1.80000000E+01  0.00000000E+00
  1.40000000E+02  1.80000000E+01  0.00000000E+00
  1.50000000E+02  1.80000000E+01  0.00000000E+00
  1.60000000E+02  1.80000000E+01  0.00000000E+00
  1.70000000E+02  1.80000000E+01  0.00000000E+00
  1.80000000E+02  1.80000000E+01  0.00000000E+00
  1.90000000E+02  1.80000000E+01  0.00000000E+00
  2.00000000E+02  1.80000000E+01  0.00000000E+00
  2.10000000E+02  1.80000000E+01  0.00000000E+00
  2.20000000E+02  1.80000000E+01  0.00000000E+00
  2.30000000E+02  1.80000000E+01  0.00000000E+00
  2.40000000E+02  1.80000000E+01  0.00000000E+00
  2.50000000E+02  1.80000000E+01  0.00000000E+00
  2.60000000E+02  1.80000000E+01  0.00000000E+00
  2.70000000E+02  1.80000000E+01  0.00000000E+00
  2.80000000E+02  1.80000000E+01  0.00000000E+00
  2.90000000E+02  1.80000000E+01  0.00000000E+00
  3.00000000E+02  1.80000000E+01  0.00000000E+00
  3.10000000E+02  1.80000000E+01  0.00000000E+00
  3.20000000E+02  1.80000000E+01  0.00000000E+00
  3.30000000E+02  1.80000000E+01  0.00000000E+00
  3.40000000E+02  1.80000000E+01  0.00000000E+00
  3.50000000E+02  1.80000000E+01  0.00000000E+00
  3.60000000E+02  1.80000000E+01  0.00000000E+00
  3.70000000E+02  1.80000000E+01  0.00000000E+00
  3.80000000E+02  1.80000000E+01  0.00000000E+00
  3.90000000E+02  1.80000000E+01  0.00000000E+00
  4.00000000E+02  1.80000000E+01  0.00000000E+00
  4.10000000E+02  1.80000000E+01  0.00000000E+00
  4.20000000E+02  1.80000000E+01  0.00000000E+00
  4.30000000E+02  1.80000000E+01  0.00000000E+00
  4.40000000E+02  1.80000000E+01  0.00000000E+00
  4.50000000E+02  1.80000000E+01  0.00000000E+00
  4.60000000E+02  1.80000000E+01  0.00000000E+00
  4.70000000E+02  1.80000000E+01  0.00000000E+00
  4.80000000E+02  1.80000000E+01  0.00000000E+00
  4.90000000E+02  1.80000000E+01  0.00000000E+00
  5.00000000E+02  1.80000000E+01  0.00000000E+00
  5.10000000E+02  1.80000000E+01  0.00000000E+00
  5.20000000E+02  1.80000000E+01  0.00000000E+00
  5.30000000E+02  1.80000000E+01  0.00000000E+00
  5.40000000E+02  1.80000000E+01  0.00000000E+00
  5.50000000E+02  1.80000000E+01  0.00000000E+00
  5.60000000E+02  1.80000000E+01  0.00000000E+00
  5.70000000E+02  1.80000000E+01  0.00000000E+00
  5.80000000E+02  1.80000000E+01  0.00000000E+00
  5.90000000E+02  1.80000000E+01  0.00000000E+00
  6.00000000E+02  1.80000000E+01  0.00000000E+00
  6.10000000E+02  1.80000000E+01  0.00000000E+00
  6.20000000E+02  1.80000000E+01  0.00000000E+00
  6.30000000E+02  1.80000000E+01  0.00000000E+00
  6.40000000E+02  1.80000000E+01  0.00000000E+00
  6.50000000E+02  1.80000000E+01  0.00000000E+00
  6.60000000E+02  1.80000000E+01  0.00000000E+00
  6.70000000E+02  1.80000000E+01  0.00000000E+00
  6.80000000E+02  1.80000000E+01  0.00000000E+00
  6.90000000E+02  1.80000000E+01  0.00000000E+00
  7.00000000E+02  1.80000000E+01  0.00000000E+00
  7.10000000E+02  1.80000000E+01  0.00000000E+00
  7.20000000E+02  1.80000000E+01  0.00000000E+00
  7.30000000E+02  1.80000000E+01  0.00000000E+00
  7.40000000E+02  1.80000000E+01  0.00000000E+00
  7.50000000E+02  1.80000000E+01  0.00000000E+00
  7.60000000E+02  1.80000000E+01  0.00000000E+00
  7.70000000E+02  1.80000000E+01  0.00000000E+00
  7.80000000E+02  1.80000000E+01  0.00000000E+00
  7.90000000E+02  1.80000000E+01  0.00000000E+00
  8.00000000E+02  1.80000000E+01  0.00000000E+00
  8.10000000E+02  1.80000000E+01  0.00000000E+00
  8.20000000E+02  1.80000000E+01  0.00000000E+00
  8.30000000E+02  1.80000000E+01  0.00000000E+00
  8.40000000E+02  1.80000000E+01  0.00000000E+00
  8.50000000E+02  1.80000000E+01  0.00000000E+00
  8.60000000E+02  1.80000000E+01  0.00000000E+00
  8.70000000E+02  1.80000000E+01  0.00000000E+00
  8.80000000E+02  1.80000000E+01  0.00000000E+00
  8.90000000E+02  1.80000000E+01  0.00000000E+00
  9.00000000E+02  1.80000000E+01  0.00000000E+00
  9.10000000E+02  1.80000000E+01  0.00000000E+00
  9.20000000E+02  1.80000000E+01  0.00000000E+00
  9.30000000E+02  1.80000000E+01  0.00000000E+00
  9.40000000E+02  1.80000000E+01  0.00000000E+00
  9.50000000E+02  1.80000000E+01  0.00000000E+00
  9.60000000E+02  1.80000000E+01  0.00000000E+00
  9.70000000E+02  1.80000000E+01  0.00000000E+00
  9.80000000E+02  1.80000000E+01  0.00000000E+00
  9.90000000E+02  1.80000000E+01  0.00000000E+00
  1.00000000E+03  1.80000000E+01  0.00000000E+00
  0.00000000E+00  2.00000000E+01  0.00000000E+00
  1.00000000E+01  2.00000000E+01  0.00000000E+00
  2.00000000E+01  2.00000000E+01  0.00000000E+00
  3.00000000E+01  2.00000000E+01  0.00000000E+00
  4.00000000E+01  2.00000000E+01  0.00000000E+00
  5.00000000E+01  2.00000000E+01  0.00000000E+00
  6.00000000E+01  2.00000000E+01  0.00000000E+00
  7.00000000E+01  2.00000000E+01  0.00000000E+00
  8.00000000E+01  2.00000000E+01  0.00000000E+00
  9.00000000E+01  2.00000000E+01  0.00000000E+00
  1.00000000E+02  2.00000000E+01  0.00000000E+00
  1.10000000E+02  2.00000000E+01  0.00000000E+00
  1.20000000E+02  2.00000000E+01  0.00000000E+00
  1.30000000E+02  2.00000000E+01  0.00000000E+00
  1.40000000E+02  2.00000000E+01  0.00000000E+00
  1.50000000E+02  2.00000000E+01  0.00000000E+00
  1.60000000E+02  2.00000000E+01  0.00000000E+00
  1.70000000E+02  2.00000000E+01  0.00000000E+00
  1.80000000E+02  2.00000000E+01  0.00000000E+00
  1.90000000E+02  2.00000000E+01  0.00000000E+00
  2.00000000E+02  2.00000000E+01  0.00000000E+00
  2.10000000E+02  2.00000000E+01  0.00000000E+00
  2.20000000E+02  2.00000000E+01  0.00000000E+00
  2.30000000E+02  2.00000000E+01  0.00000000E+00
  2.40000000E+02  2.00000000E+01  0.00000000E+00
  2.50000000E+02  2.00000000E+01  0.00000000E+00
  2.60000000E+02  2.00000000E+01  0.00000000E+00
  2.70000000E+02  2.00000000E+01  0.00000000E+00
  2.80000000E+02  2.00000000E+01  0.00000000E+00
  2.90000000E+02  2.00000000E+01  0.00000000E+00
  3.00000000E+02  2.00000000E+01  0.00000000E+00
  3.10000000E+02  2.00000000E+01  0.00000000E+00
  3.20000000E+02  2.00000000E+01  0.00000000E+00
  3.30000000E+02  2.00000000E+01  0.00000000E+00
  3.40000000E+02  2.00000000E+01  0.00000000E+00
  3.50000000E+02  2.00000000E+01  0.00000000E+00
  3.60000000E+02  2.00000000E+01  0.00000000E+00
  3.70000000E+02  2.00000000E+01  0.00000000E+00
  3.80000000E+02  2.00000000E+01  0.00000000E+00
  3.90000000E+02  2.00000000E+01  0.00000000E+00
  4.00000000E+02  2.00000000E+01  0.00000000E+00
  4.10000000E+02  2.00000000E+01  0.00000000E+00
  4.20000000E+02  2.00000000E+01  0.00000000E+00
  4.30000000E+02  2.00000000E+01  0.00000000E+00
  4.40000000E+02  2.00000000E+01  0.00000000E+00
  4.50000000E+02  2.00000000E+01  0.00000000E+00
  4.60000000E+02  2.00000000E+01  0.00000000E+00
  4.70000000E+02  2.00000000E+01  0.00000000E+00
  4.80000000E+02  2.00000000E+01  0.00000000E+00
  4.90000000E+02  2.00000000E+01  0.00000000E+00
  5.00000000E+02  2.00000000E+01  0.00000000E+00
  5.10000000E+02  2.00000000E+01  0.00000000E+00
  5.20000000E+02  2.00000000E+01  0.00000000E+00
  5.30000000E+02  2.00000000E+01  0.00000000E+00
  5.40000000E+02  2.00000000E+01  0.00000000E+00
  5.50000000E+02  2.00000000E+01  0.00000000E+00
  5.60000000E+02  2.00000000E+01  0.00000000E+00
  5.70000000E+02  2.00000000E+01  0.00000000E+00
  5.80000000E+02  2.00000000E+01  0.00000000E+00
  5.90000000E+02  2.00000000E+01  0.00000000E+00
  6.00000000E+02  2.00000000E+01  0.00000000E+00
  6.10000000E+02  2.00000000E+01  0.00000000E+00
  6.20000000E+02  2.00000000E+01  0.00000000E+00
  6.30000000E+02  2.00000000E+01  0.00000000E+00
  6.40000000E+02  2.00000000E+01  0.00000000E+00
  6.50000000E+02  2.00000000E+01  0.00000000E+00
  6.60000000E+02  2.00000000E+01  0.00000000E+00
  6.70000000E+02  2.00000000E+01  0.00000000E+00
  6.80000000E+02  2.00000000E+01  0.00000000E+00
  6.90000000E+02  2.00000000E+01  0.00000000E+00
  7.00000000E+02  2.00000000E+01  0.00000000E+00
  7.10000000E+02  2.00000000E+01  0.00000000E+00
  7.20000000E+02  2.00000000E+01  0.00000000E+00
  7.30000000E+02  2.00000000E+01  0.00000000E+00
  7.40000000E+02  2.00000000E+01  0.00000000E+00
  7.50000000E+02  2.00000000E+01  0.00000000E+00
  7.60000000E+02  2.00000000E+01  0.00000000E+00
  7.70000000E+02  2.00000000E+01  0.00000000E+00
  7.80000000E+02  2.00000000E+01  0.00000000E+00
  7.90000000E+02  2.00000000E+01  0.00000000E+00
  8.00000000E+02  2.00000000E+01  0.00000000E+00
  8.10000000E+02  2.00000000E+01  0.00000000E+00
  8.20000000E+02  2.00000000E+01  0.00000000E+00
  8.30000000E+02  2.00000000E+01  0.00000000E+00
  8.40000000E+02  2.00000000E+01  0.00000000E+00
  8.50000000E+02  2.00000000E+01  0.00000000E+00
  8.60000000E+02  2.00000000E+01  0.00000000E+00
  8.70000000E+02  2.00000000E+01  0.00000000E+00
  8.80000000E+02  2.00000000E+01  0.00000000E+00
  8.90000000E+02  2.00000000E+01  0.00000000E+00
  9.00000000E+02  2.00000000E+01  0.00000000E+00
  9.10000000E+02  2.00000000E+01  0.00000000E+00
  9.20000000E+02  2.00000000E+01  0.00000000E+00
  9.30000000E+02  2.00000000E+01  0.00000000E+00
  9.40000000E+02  2.00000000E+01  0.00000000E+00
  9.50000000E+02  2.00000000E+01  0.00000000E+00
  9.60000000E+02  2.00000000E+01  0.00000000E+00
  9.70000000E+02  2.00000000E+01  0.00000000E+00
  9.80000000E+02  2.00000000E+01  0.00000000E+00
  9.90000000E+02  2.00000000E+01  0.00000000E+00
  1.00000000E+03  2.00000000E+01  0.00000000E+00
  0.00000000E+00  2.20000000E+01  0.00000000E+00
  1.00000000E+01  2.20000000E+01  0.00000000E+00
  2.00000000E+01  2.20000000E+01  0.00000000E+00
  3.00000000E+01  2.20000000E+01  0.00000000E+00
  4.00000000E+01  2.20000000E+01  0.00000000E+00
  5.00000000E+01  2.20000000E+01  0.00000000E+00
  6.00000000E+01  2.20000000E+01  0.00000000E+00
  7.00000000E+01  2.20000000E+01  0.00000000E+00
  8.00000000E+01  2.20000000E+01  0.00000000E+00
  9.00000000E+01  2.20000000E+01  0.00000000E+00
  1.00000000E+02  2.20000000E+01  0.00000000E+00
  1.10000000E+02  2.20000000E+01  0.00000000E+00
  1.20000000E+02  2.20000000E+01  0.00000000E+00
  1.30000000E+02  2.20000000E+01  0.00000000E+00
  1.40000000E+02  2.20000000E+01  0.00000000E+00
  1.50000000E+02  2.20000000E+01  0.00000000E+00
  1.60000000E+02  2.20000000E+01  0.00000000E+00
  1.70000000E+02  2.20000000E+01  0.00000000E+00
  1.80000000E+02  2.20000000E+01  0.00000000E+00
  1.90000000E+02  2.20000000E+01  0.00000000E+00
  2.00000000E+02  2.20000000E+01  0.00000000E+00
  2.10000000E+02  2.20000000E+01  0.00000000E+00
  2.20000000E+02  2.20000000E+01  0.00000000E+00
  2.30000000E+02  2.20000000E+01  0.00000000E+00
  2.40000000E+02  2.20000000E+01  0.00000000E+00
  2.50000000E+02  2.20000000E+01  0.00000000E+00
  2.60000000E+02  2.20000000E+01  0.00000000E+00
  2.70000000E+02  2.20000000E+01  0.00000000E+00
  2.80000000E+02  2.20000000E+01  0.00000000E+00
  2.90000000E+02  2.20000000E+01  0.00000000E+00
  3.00000000E+02  2.20000000E+01  0.00000000E+00
  3.10000000E+02  2.20000000E+01  0.00000000E+00
  3.20000000E+02  2.20000000E+01  0.00000000E+00
  3.30000000E+02  2.20000000E+01  0.00000000E+00
  3.40000000E+02  2.20000000E+01  0.00000000E+00
  3.50000000E+02  2.20000000E+01  0.00000000E+00
  3.60000000E+02  2.20000000E+01  0.00000000E+00
  3.70000000E+02  2.20000000E+01  0.00000000E+00
  3.80000000E+02  2.20000000E+01  0.00000000E+00
  3.90000000E+02  2.20000000E+01  0.00000000E+00
  4.00000000E+02  2.20000000E+01  0.00000000E+00
  4.10000000E+02  2.20000000E+01  0.00000000E+00
  4.20000000E+02  2.20000000E+01  0.00000000E+00
  4.30000000E+02  2.20000000E+01  0.00000000E+00
  4.40000000E+02  2.20000000E+01  0.00000000E+00
  4.50000000E+02  2.20000000E+01  0.00000000E+00
  4.60000000E+02  2.20000000E+01  0.00000000E+00
  4.70000000E+02  2.20000000E+01  0.00000000E+00
  4.80000000E+02  2.20000000E+01  0.00000000E+00
  4.90000000E+02  2.20000000E+01  0.00000000E+00
  5.00000000E+02  2.20000000E+01  0.00000000E+00
  5.10000000E+02  2.20000000E+01  0.00000000E+00
  5.20000000E+02  2.20000000E+01  0.00000000E+00
  5.30000000E+02  2.20000000E+01  0.00000000E+00
  5.40000000E+02  2.20000000E+01  0.00000000E+00
  5.50000000E+02  2.20000000E+01  0.00000000E+00
  5.60000000E+02  2.20000000E+01  0.00000000E+00
  5.70000000E+02  2.20000000E+01  0.00000000E+00
  5.80000000E+02  2.20000000E+01  0.00000000E+00
  5.90000000E+02  2.20000000E+01  0.00000000E+00
  6.00000000E+02  2.20000000E+01  0.00000000E+00
  6.10000000E+02  2.20000000E+01  0.00000000E+00
  6.20000000E+02  2.20000000E+01  0.00000000E+00
  6.30000000E+02  2.20000000E+01  0.00000000E+00
  6.40000000E+02  2.20000000E+01  0.00000000E+00
  6.50000000E+02  2.20000000E+01  0.00000000E+00
  6.60000000E+02  2.20000000E+01  0.00000000E+00
  6.70000000E+02  2.20000000E+01  0.00000000E+00
  6.80000000E+02  2.20000000E+01  0.00000000E+00
  6.90000000E+02  2.20000000E+01  0.00000000E+00
  7.00000000E+02  2.20000000E+01  0.00000000E+00
  7.10000000E+02  2.20000000E+01  0.00000000E+00
  7.20000000E+02  2.20000000E+01  0.00000000E+00
  7.30000000E+02  2.20000000E+01  0.00000000E+00
  7.40000000E+02  2.20000000E+01  0.00000000E+00
  7.50000000E+02  2.20000000E+01  0.00000000E+00
  7.60000000E+02  2.20000000E+01  0.00000000E+00
  7.70000000E+02  2.20000000E+01  0.00000000E+00
  7.80000000E+02  2.20000000E+01  0.00000000E+00
  7.90000000E+02  2.20000000E+01  0.00000000E+00
  8.00000000E+02  2.20000000E+01  0.00000000E+00
  8.10000000E+02  2.20000000E+01  0.00000000E+00
  8.20000000E+02  2.20000000E+01  0.00000000E+00
  8.30000000E+02  2.20000000E+01  0.00000000E+00
  8.40000000E+02  2.20000000E+01  0.00000000E+00
  8.50000000E+02  2.20000000E+01  0.00000000E+00
  8.60000000E+02  2.20000000E+01  0.00000000E+00
  8.70000000E+02  2.20000000E+01  0.00000000E+00
  8.80000000E+02  2.20000000E+01  0.00000000E+00
  8.90000000E+02  2.20000000E+01  0.00000000E+00
  9.00000000E+02  2.20000000E+01  0.00000000E+00
  9.10000000E+02  2.20000000E+01  0.00000000E+00
  9.20000000E+02  2.20000000E+01  0.00000000E+00
  9.30000000E+02  2.20000000E+01  0.00000000E+00
  9.40000000E+02  2.20000000E+01  0.00000000E+00
  9.50000000E+02  2.20000000E+01  0.00000000E+00
  9.60000000E+02  2.20000000E+01  0.00000000E+00
  9.70000000E+02  2.20000000E+01  0.00000000E+00
  9.80000000E+02  2.20000000E+01  0.00000000E+00
  9.90000000E+02  2.20000000E+01  0.00000000E+00
  1.00000000E+03  2.20000000E+01  0.00000000E+00
  0.00000000E+00  2.40000000E+01  0.00000000E+00
  1.00000000E+01  2.40000000E+01  0.00000000E+00
  2.00000000E+01  2.40000000E+01  0.00000000E+00
  3.00000000E+01  2.40000000E+01  0.00000000E+00
  4.00000000E+01  2.40000000E+01  0.00000000E+00
  5.00000000E+01  2.40000000E+01  0.00000000E+00
  6.00000000E+01  2.40000000E+01  0.00000000E+00
  7.00000000E+01  2.40000000E+01  0.00000000E+00
  8.00000000E+01  2.40000000E+01  0.00000000E+00
  9.00000000E+01  2.40000000E+01  0.00000000E+00
  1.00000000E+02  2.40000000E+01  0.00000000E+00
  1.10000000E+02  2.40000000E+01  0.00000000E+00
  1.20000000E+02  2.40000000E+01  0.00000000E+00
  1.30000000E+02  2.40000000E+01  0.00000000E+00
  1.40000000E+02  2.40000000E+01  0.00000000E+00
  1.50000000E+02  2.40000000E+01  0.00000000E+00
  1.60000000E+02  2.40000000E+01  0.00000000E+00
  1.70000000E+02  2.40000000E+01  0.00000000E+00
  1.80000000E+02  2.40000000E+01  0.00000000E+00
  1.90000000E+02  2.40000000E+01  0.00000000E+00
  2.00000000E+02  2.40000000E+01  0.00000000E+00
  2.10000000E+02  2.40000000E+01  0.00000000E+00
  2.20000000E+02  2.40000000E+01  0.00000000E+00
  2.30000000E+02  2.40000000E+01  0.00000000E+00
  2.40000000E+02  2.40000000E+01  0.00000000E+00
  2.50000000E+02  2.40000000E+01  0.00000000E+00
  2.60000000E+02  2.40000000E+01  0.00000000E+00
  2.70000000E+02  2.40000000E+01  0.00000000E+00
  2.80000000E+02  2.40000000E+01  0.00000000E+00
  2.90000000E+02  2.40000000E+01  0.00000000E+00
  3.00000000E+02  2.40000000E+01  0.00000000E+00
  3.10000000E+02  2.40000000E+01  0.00000000E+00
  3.20000000E+02  2.40000000E+01  0.00000000E+00
  3.30000000E+02  2.40000000E+01  0.00000000E+00
  3.40000000E+02  2.40000000E+01  0.00000000E+00
  3.50000000E+02  2.40000000E+01  0.00000000E+00
  3.60000000E+02  2.40000000E+01  0.00000000E+00
  3.70000000E+02  2.40000000E+01  0.00000000E+00
  3.80000000E+02  2.40000000E+01  0.00000000E+00
  3.90000000E+02  2.40000000E+01  0.00000000E+00
  4.00000000E+02  2.40000000E+01  0.00000000E+00
  4.10000000E+02  2.40000000E+01  0.00000000E+00
  4.20000000E+02  2.40000000E+01  0.00000000E+00
  4.30000000E+02  2.40000000E+01  0.00000000E+00
  4.40000000E+02  2.40000000E+01  0.00000000E+00
  4.50000000E+02  2.40000000E+01  0.00000000E+00
  4.60000000E+02  2.40000000E+01  0.00000000E+00
  4.70000000E+02  2.40000000E+01  0.00000000E+00
  4.80000000E+02  2.40000000E+01  0.00000000E+00
  4.90000000E+02  2.40000000E+01  0.00000000E+00
  5.00000000E+02  2.40000000E+01  0.00000000E+00
  5.10000000E+02  2.40000000E+01  0.00000000E+00
  5.20000000E+02  2.40000000E+01  0.00000000E+00
  5.30000000E+02  2.40000000E+01  0.00000000E+00
  5.40000000E+02  2.40000000E+01  0.00000000E+00
  5.50000000E+02  2.40000000E+01  0.00000000E+00
  5.60000000E+02  2.40000000E+01  0.00000000E+00
  5.70000000E+02  2.40000000E+01  0.00000000E+00
  5.80000000E+02  2.40000000E+01  0.00000000E+00
  5.90000000E+02  2.40000000E+01  0.00000000E+00
  6.00000000E+02  2.40000000E+01  0.00000000E+00
  6.10000000E+02  2.40000000E+01  0.00000000E+00
  6.20000000E+02  2.40000000E+01  0.00000000E+00
  6.30000000E+02  2.40000000E+01  0.00000000E+00
  6.40000000E+02  2.40000000E+01  0.00000000E+00
  6.50000000E+02  2.40000000E+01  0.00000000E+00
  6.60000000E+02  2.40000000E+01  0.00000000E+00
  6.70000000E+02  2.40000000E+01  0.00000000E+00
  6.80000000E+02  2.40000000E+01  0.00000000E+00
  6.90000000E+02  2.40000000E+01  0.00000000E+00
  7.00000000E+02  2.40000000E+01  0.00000000E+00
  7.10000000E+02  2.40000000E+01  0.00000000E+00
  7.20000000E+02  2.40000000E+01  0.00000000E+00
  7.30000000E+02  2.40000000E+01  0.00000000E+00
  7.40000000E+02  2.40000000E+01  0.00000000E+00
  7.50000000E+02  2.40000000E+01  0.00000000E+00
  7.60000000E+02  2.40000000E+01  0.00000000E+00
  7.70000000E+02  2.40000000E+01  0.00000000E+00
  7.80000000E+02  2.40000000E+01  0.00000000E+00
  7.90000000E+02  2.40000000E+01  0.00000000E+00
  8.00000000E+02  2.40000000E+01  0.00000000E+00
  8.10000000E+02  2.40000000E+01  0.00000000E+00
  8.20000000E+02  2.40000000E+01  0.00000000E+00
  8.30000000E+02  2.40000000E+01  0.00000000E+00
  8.40000000E+02  2.40000000E+01  0.00000000E+00
  8.50000000E+02  2.40000000E+01  0.00000000E+00
  8.60000000E+02  2.40000000E+01  0.00000000E+00
  8.70000000E+02  2.40000000E+01  0.00000000E+00
  8.80000000E+02  2.40000000E+01  0.00000000E+00
  8.90000000E+02  2.40000000E+01  0.00000000E+00
  9.00000000E+02  2.40000000E+01  0.00000000E+00
  9.10000000E+02  2.40000000E+01  0.00000000E+00
  9.20000000E+02  2.40000000E+01  0.00000000E+00
  9.30000000E+02  2.40000000E+01  0.00000000E+00
  9.40000000E+02  2.40000000E+01  0.00000000E+00
  9.50000000E+02  2.40000000E+01  0.00000000E+00
  9.60000000E+02  2.40000000E+01  0.00000000E+00
  9.70000000E+02  2.40000000E+01  0.00000000E+00
  9.80000000E+02  2.40000000E+01  0.00000000E+00
  9.90000000E+02  2.40000000E+01  0.00000000E+00
  1.00000000E+03  2.40000000E+01  0.00000000E+00
  0.00000000E+00  2.60000000E+01  0.00000000E+00
  1.00000000E+01  2.60000000E+01  0.00000000E+00
  2.00000000E+01  2.60000000E+01  0.00000000E+00
  3.00000000E+01  2.60000000E+01  0.00000000E+00
  4.00000000E+01  2.60000000E+01  0.00000000E+00
  5.00000000E+01  2.60000000E+01  0.00000000E+00
  6.00000000E+01  2.60000000E+01  0.00000000E+00
  7.00000000E+01  2.60000000E+01  0.00000000E+00
  8.00000000E+01  2.60000000E+01  0.00000000E+00
  9.00000000E+01  2.60000000E+01  0.00000000E+00
  1.00000000E+02  2.60000000E+01  0.00000000E+00
  1.10000000E+02  2.60000000E+01  0.00000000E+00
  1.20000000E+02  2.60000000E+01  0.00000000E+00
  1.30000000E+02  2.60000000E+01  0.00000000E+00
  1.40000000E+02  2.60000000E+01  0.00000000E+00
  1.50000000E+02  2.60000000E+01  0.00000000E+00
  1.60000000E+02  2.60000000E+01  0.00000000E+00
  1.70000000E+02  2.60000000E+01  0.00000000E+00
  1.80000000E+02  2.60000000E+01  0.00000000E+00
  1.90000000E+02  2.60000000E+01  0.00000000E+00
  2.00000000E+02  2.60000000E+01  0.00000000E+00
  2.10000000E+02  2.60000000E+01  0.00000000E+00
  2.20000000E+02  2.60000000E+01  0.00000000E+00
  2.30000000E+02  2.60000000E+01  0.00000000E+00
  2.40000000E+02  2.60000000E+01  0.00000000E+00
  2.50000000E+02  2.60000000E+01  0.00000000E+00
  2.60000000E+02  2.60000000E+01  0.00000000E+00
  2.70000000E+02  2.60000000E+01  0.00000000E+00
  2.80000000E+02  2.60000000E+01  0.00000000E+00
  2.90000000E+02  2.60000000E+01  0.00000000E+00
  3.00000000E+02  2.60000000E+01  0.00000000E+00
  3.10000000E+02  2.60000000E+01  0.00000000E+00
  3.20000000E+02  2.60000000E+01  0.00000000E+00
  3.30000000E+02  2.60000000E+01  0.00000000E+00
  3.40000000E+02  2.60000000E+01  0.00000000E+00
  3.50000000E+02  2.60000000E+01  0.00000000E+00
  3.60000000E+02  2.60000000E+01  0.00000000E+00
  3.70000000E+02  2.60000000E+01  0.00000000E+00
  3.80000000E+02  2.60000000E+01  0.00000000E+00
  3.90000000E+02  2.60000000E+01  0.00000000E+00
  4.00000000E+02  2.60000000E+01  0.00000000E+00
  4.10000000E+02  2.60000000E+01  0.00000000E+00
  4.20000000E+02  2.60000000E+01  0.00000000E+00
  4.30000000E+02  2.60000000E+01  0.00000000E+00
  4.40000000E+02  2.60000000E+01  0.00000000E+00
  4.50000000E+02  2.60000000E+01  0.00000000E+00
  4.60000000E+02  2.60000000E+01  0.00000000E+00
  4.70000000E+02  2.60000000E+01  0.00000000E+00
  4.80000000E+02  2.60000000E+01  0.00000000E+00
  4.90000000E+02  2.60000000E+01  0.00000000E+00
  5.00000000E+02  2.60000000E+01  0.00000000E+00
  5.10000000E+02  2.60000000E+01  0.00000000E+00
  5.20000000E+02  2.60000000E+01  0.00000000E+00
  5.30000000E+02  2.60000000E+01  0.00000000E+00
  5.40000000E+02  2.60000000E+01  0.00000000E+00
  5.50000000E+02  2.60000000E+01  0.00000000E+00
  5.60000000E+02  2.60000000E+01  0.00000000E+00
  5.70000000E+02  2.60000000E+01  0.00000000E+00
  5.80000000E+02  2.60000000E+01  0.00000000E+00
  5.90000000E+02  2.60000000E+01  0.00000000E+00
  6.00000000E+02  2.60000000E+01  0.00000000E+00
  6.10000000E+02  2.60000000E+01  0.00000000E+00
  6.20000000E+02  2.60000000E+01  0.00000000E+00
  6.30000000E+02  2.60000000E+01  0.00000000E+00
  6.40000000E+02  2.60000000E+01  0.00000000E+00
  6.50000000E+02  2.60000000E+01  0.00000000E+00
  6.60000000E+02  2.60000000E+01  0.00000000E+00
  6.70000000E+02  2.60000000E+01  0.00000000E+00
  6.80000000E+02  2.60000000E+01  0.00000000E+00
  6.90000000E+02  2.60000000E+01  0.00000000E+00
  7.00000000E+02  2.60000000E+01  0.00000000E+00
  7.10000000E+02  2.60000000E+01  0.00000000E+00
  7.20000000E+02  2.60000000E+01  0.00000000E+00
  7.30000000E+02  2.60000000E+01  0.00000000E+00
  7.40000000E+02  2.60000000E+01  0.00000000E+00
  7.50000000E+02  2.60000000E+01  0.00000000E+00
  7.60000000E+02  2.60000000E+01  0.00000000E+00
  7.70000000E+02  2.60000000E+01  0.00000000E+00
  7.80000000E+02  2.60000000E+01  0.00000000E+00
  7.90000000E+02  2.60000000E+01  0.00000000E+00
  8.00000000E+02  2.60000000E+01  0.00000000E+00
  8.10000000E+02  2.60000000E+01  0.00000000E+00
  8.20000000E+02  2.60000000E+01  0.00000000E+00
  8.30000000E+02  2.60000000E+01  0.00000000E+00
  8.40000000E+02  2.60000000E+01  0.00000000E+00
  8.50000000E+02  2.60000000E+01  0.00000000E+00
  8.60000000E+02  2.60000000E+01  0.00000000E+00
  8.70000000E+02  2.60000000E+01  0.00000000E+00
  8.80000000E+02  2.60000000E+01  0.00000000E+00
  8.90000000E+02  2.60000000E+01  0.00000000E+00
  9.00000000E+02  2.60000000E+01  0.00000000E+00
  9.10000000E+02  2.60000000E+01  0.00000000E+00
  9.20000000E+02  2.60000000E+01  0.00000000E+00
  9.30000000E+02  2.60000000E+01  0.00000000E+00
  9.40000000E+02  2.60000000E+01  0.00000000E+00
  9.50000000E+02  2.60000000E+01  0.00000000E+00
  9.60000000E+02  2.60000000E+01  0.00000000E+00
  9.70000000E+02  2.60000000E+01  0.00000000E+00
  9.80000000E+02  2.60000000E+01  0.00000000E+00
  9.90000000E+02  2.60000000E+01  0.00000000E+00
  1.00000000E+03  2.60000000E+01  0.00000000E+00
  0.00000000E+00  2.80000000E+01  0.00000000E+00
  1.00000000E+01  2.80000000E+01  0.00000000E+00
  2.00000000E+01  2.80000000E+01  0.00000000E+00
  3.00000000E+01  2.80000000E+01  0.00000000E+00
  4.00000000E+01  2.80000000E+01  0.00000000E+00
  5.00000000E+01  2.80000000E+01  0.00000000E+00
  6.00000000E+01  2.80000000E+01  0.00000000E+00
  7.00000000E+01  2.80000000E+01  0.00000000E+00
  8.00000000E+01  2.80000000E+01  0.00000000E+00
  9.00000000E+01  2.80000000E+01  0.00000000E+00
  1.00000000E+02  2.80000000E+01  0.00000000E+00
  1.10000000E+02  2.80000000E+01  0.00000000E+00
  1.20000000E+02  2.80000000E+01  0.00000000E+00
  1.30000000E+02  2.80000000E+01  0.00000000E+00
  1.40000000E+02  2.80000000E+01  0.00000000E+00
  1.50000000E+02  2.80000000E+01  0.00000000E+00
  1.60000000E+02  2.80000000E+01  0.00000000E+00
  1.70000000E+02  2.80000000E+01  0.00000000E+00
  1.80000000E+02  2.80000000E+01  0.00000000E+00
  1.90000000E+02  2.80000000E+01  0.00000000E+00
  2.00000000E+02  2.80000000E+01  0.00000000E+00
  2.10000000E+02  2.80000000E+01  0.00000000E+00
  2.20000000E+02  2.80000000E+01  0.00000000E+00
  2.30000000E+02  2.80000000E+01  0.00000000E+00
  2.40000000E+02  2.80000000E+01  0.00000000E+00
  2.50000000E+02  2.80000000E+01  0.00000000E+00
  2.60000000E+02  2.80000000E+01  0.00000000E+00
  2.70000000E+02  2.80000000E+01  0.00000000E+00
  2.80000000E+02  2.80000000E+01  0.00000000E+00
  2.90000000E+02  2.80000000E+01  0.00000000E+00
  3.00000000E+02  2.80000000E+01  0.00000000E+00
  3.10000000E+02  2.80000000E+01  0.00000000E+00
  3.20000000E+02  2.80000000E+01  0.00000000E+00
  3.30000000E+02  2.80000000E+01  0.00000000E+00
  3.40000000E+02  2.80000000E+01  0.00000000E+00
  3.50000000E+02  2.80000000E+01  0.00000000E+00
  3.60000000E+02  2.80000000E+01  0.00000000E+00
  3.70000000E+02  2.80000000E+01  0.00000000E+00
  3.80000000E+02  2.80000000E+01  0.00000000E+00
  3.90000000E+02  2.80000000E+01  0.00000000E+00
  4.00000000E+02  2.80000000E+01  0.00000000E+00
  4.10000000E+02  2.80000000E+01  0.00000000E+00
  4.20000000E+02  2.80000000E+01  0.00000000E+00
  4.30000000E+02  2.80000000E+01  0.00000000E+00
  4.40000000E+02  2.80000000E+01  0.00000000E+00
  4.50000000E+02  2.80000000E+01  0.00000000E+00
  4.60000000E+02  2.80000000E+01  0.00000000E+00
  4.70000000E+02  2.80000000E+01  0.00000000E+00
  4.80000000E+02  2.80000000E+01  0.00000000E+00
  4.90000000E+02  2.80000000E+01  0.00000000E+00
  5.00000000E+02  2.80000000E+01  0.00000000E+00
  5.10000000E+02  2.80000000E+01  0.00000000E+00
  5.20000000E+02  2.80000000E+01  0.00000000E+00
  5.30000000E+02  2.80000000E+01  0.00000000E+00
  5.40000000E+02  2.80000000E+01  0.00000000E+00
  5.50000000E+02  2.80000000E+01  0.00000000E+00
  5.60000000E+02  2.80000000E+01  0.00000000E+00
  5.70000000E+02  2.80000000E+01  0.00000000E+00
  5.80000000E+02  2.80000000E+01  0.00000000E+00
  5.90000000E+02  2.80000000E+01  0.00000000E+00
  6.00000000E+02  2.80000000E+01  0.00000000E+00
  6.10000000E+02  2.80000000E+01  0.00000000E+00
  6.20000000E+02  2.80000000E+01  0.00000000E+00
  6.30000000E+02  2.80000000E+01  0.00000000E+00
  6.40000000E+02  2.80000000E+01  0.00000000E+00
  6.50000000E+02  2.80000000E+01  0.00000000E+00
  6.60000000E+02  2.80000000E+01  0.00000000E+00
  6.70000000E+02  2.80000000E+01  0.00000000E+00
  6.80000000E+02  2.80000000E+01  0.00000000E+00
  6.90000000E+02  2.80000000E+01  0.00000000E+00
  7.00000000E+02  2.80000000E+01  0.00000000E+00
  7.10000000E+02  2.80000000E+01  0.00000000E+00
  7.20000000E+02  2.80000000E+01  0.00000000E+00
  7.30000000E+02  2.80000000E+01  0.00000000E+00
  7.40000000E+02  2.80000000E+01  0.00000000E+00
  7.50000000E+02  2.80000000E+01  0.00000000E+00
  7.60000000E+02  2.80000000E+01  0.00000000E+00
  7.70000000E+02  2.80000000E+01  0.00000000E+00
  7.80000000E+02  2.80000000E+01  0.00000000E+00
  7.90000000E+02  2.80000000E+01  0.00000000E+00
  8.00000000E+02  2.80000000E+01  0.00000000E+00
  8.10000000E+02  2.80000000E+01  0.00000000E+00
  8.20000000E+02  2.80000000E+01  0.00000000E+00
  8.30000000E+02  2.80000000E+01  0.00000000E+00
  8.40000000E+02  2.80000000E+01  0.00000000E+00
  8.50000000E+02  2.80000000E+01  0.00000000E+00
  8.60000000E+02  2.80000000E+01  0.00000000E+00
  8.70000000E+02  2.80000000E+01  0.00000000E+00
  8.80000000E+02  2.80000000E+01  0.00000000E+00
  8.90000000E+02  2.80000000E+01  0.00000000E+00
  9.00000000E+02  2.80000000E+01  0.00000000E+00
  9.10000000E+02  2.80000000E+01  0.00000000E+00
  9.20000000E+02  2.80000000E+01  0.00000000E+00
  9.30000000E+02  2.80000000E+01  0.00000000E+00
  9.40000000E+02  2.80000000E+01  0.00000000E+00
  9.50000000E+02  2.80000000E+01  0.00000000E+00
  9.60000000E+02  2.80000000E+01  0.00000000E+00
  9.70000000E+02  2.80000000E+01  0.00000000E+00
  9.80000000E+02  2.80000000E+01  0.00000000E+00
  9.90000000E+02  2.80000000E+01  0.00000000E+00
  1.00000000E+03  2.80000000E+01  0.00000000E+00
  0.00000000E+00  3.00000000E+01  0.00000000E+00
  1.00000000E+01  3.00000000E+01  0.00000000E+00
  2.00000000E+01  3.00000000E+01  0.00000000E+00
  3.00000000E+01  3.00000000E+01  0.00000000E+00
  4.00000000E+01  3.00000000E+01  0.00000000E+00
  5.00000000E+01  3.00000000E+01  0.00000000E+00
  6.00000000E+01  3.00000000E+01  0.00000000E+00
  7.00000000E+01  3.00000000E+01  0.00000000E+00
  8.00000000E+01  3.00000000E+01  0.00000000E+00
  9.00000000E+01  3.00000000E+01  0.00000000E+00
  1.00000000E+02  3.00000000E+01  0.00000000E+00
  1.10000000E+02  3.00000000E+01  0.00000000E+00
  1.20000000E+02  3.00000000E+01  0.00000000E+00
  1.30000000E+02  3.00000000E+01  0.00000000E+00
  1.40000000E+02  3.00000000E+01  0.00000000E+00
  1.50000000E+02  3.00000000E+01  0.00000000E+00
  1.60000000E+02  3.00000000E+01  0.00000000E+00
  1.70000000E+02  3.00000000E+01  0.00000000E+00
  1.80000000E+02  3.00000000E+01  0.00000000E+00
  1.90000000E+02  3.00000000E+01  0.00000000E+00
  2.00000000E+02  3.00000000E+01  0.00000000E+00
  2.10000000E+02  3.00000000E+01  0.00000000E+00
  2.20000000E+02  3.00000000E+01  0.00000000E+00
  2.30000000E+02  3.00000000E+01  0.00000000E+00
  2.40000000E+02  3.00000000E+01  0.00000000E+00
  2.50000000E+02  3.00000000E+01  0.00000000E+00
  2.60000000E+02  3.00000000E+01  0.00000000E+00
  2.70000000E+02  3.00000000E+01  0.00000000E+00
  2.80000000E+02  3.00000000E+01  0.00000000E+00
  2.90000000E+02  3.00000000E+01  0.00000000E+00
  3.00000000E+02  3.00000000E+01  0.00000000E+00
  3.10000000E+02  3.00000000E+01  0.00000000E+00
  3.20000000E+02  3.00000000E+01  0.00000000E+00
  3.30000000E+02  3.00000000E+01  0.00000000E+00
  3.40000000E+02  3.00000000E+01  0.00000000E+00
  3.50000000E+02  3.00000000E+01  0.00000000E+00
  3.60000000E+02  3.00000000E+01  0.00000000E+00
  3.70000000E+02  3.00000000E+01  0.00000000E+00
  3.80000000E+02  3.00000000E+01  0.00000000E+00
  3.90000000E+02  3.00000000E+01  0.00000000E+00
  4.00000000E+02  3.00000000E+01  0.00000000E+00
  4.10000000E+02  3.00000000E+01  0.00000000E+00
  4.20000000E+02  3.00000000E+01  0.00000000E+00
  4.30000000E+02  3.00000000E+01  0.00000000E+00
  4.40000000E+02  3.00000000E+01  0.00000000E+00
  4.50000000E+02  3.00000000E+01  0.00000000E+00
  4.60000000E+02  3.00000000E+01  0.00000000E+00
  4.70000000E+02  3.00000000E+01  0.00000000E+00
  4.80000000E+02  3.00000000E+01  0.00000000E+00
  4.90000000E+02  3.00000000E+01  0.00000000E+00
  5.00000000E+02  3.00000000E+01  0.00000000E+00
  5.10000000E+02  3.00000000E+01  0.00000000E+00
  5.20000000E+02  3.00000000E+01  0.00000000E+00
  5.30000000E+02  3.00000000E+01  0.00000000E+00
  5.40000000E+02  3.00000000E+01  0.00000000E+00
  5.50000000E+02  3.00000000E+01  0.00000000E+00
  5.60000000E+02  3.00000000E+01  0.00000000E+00
  5.70000000E+02  3.00000000E+01  0.00000000E+00
  5.80000000E+02  3.00000000E+01  0.00000000E+00
  5.90000000E+02  3.00000000E+01  0.00000000E+00
  6.00000000E+02  3.00000000E+01  0.00000000E+00
  6.10000000E+02  3.00000000E+01  0.00000000E+00
  6.20000000E+02  3.00000000E+01  0.00000000E+00
  6.30000000E+02  3.00000000E+01  0.00000000E+00
  6.40000000E+02  3.00000000E+01  0.00000000E+00
  6.50000000E+02  3.00000000E+01  0.00000000E+00
  6.60000000E+02  3.00000000E+01  0.00000000E+00
  6.70000000E+02  3.00000000E+01  0.00000000E+00
  6.80000000E+02  3.00000000E+01  0.00000000E+00
  6.90000000E+02  3.00000000E+01  0.00000000E+00
  7.00000000E+02  3.00000000E+01  0.00000000E+00
  7.10000000E+02  3.00000000E+01  0.00000000E+00
  7.20000000E+02  3.00000000E+01  0.00000000E+00
  7.30000000E+02  3.00000000E+01  0.00000000E+00
  7.40000000E+02  3.00000000E+01  0.00000000E+00
  7.50000000E+02  3.00000000E+01  0.00000000E+00
  7.60000000E+02  3.00000000E+01  0.00000000E+00
  7.70000000E+02  3.00000000E+01  0.00000000E+00
  7.80000000E+02  3.00000000E+01  0.00000000E+00
  7.90000000E+02  3.00000000E+01  0.00000000E+00
  8.00000000E+02  3.00000000E+01  0.00000000E+00
  8.10000000E+02  3.00000000E+01  0.00000000E+00
  8.20000000E+02  3.00000000E+01  0.00000000E+00
  8.30000000E+02  3.00000000E+01  0.00000000E+00
  8.40000000E+02  3.00000000E+01  0.00000000E+00
  8.50000000E+02  3.00000000E+01  0.00000000E+00
  8.60000000E+02  3.00000000E+01  0.00000000E+00
  8.70000000E+02  3.00000000E+01  0.00000000E+00
  8.80000000E+02  3.00000000E+01  0.00000000E+00
  8.90000000E+02  3.00000000E+01  0.00000000E+00
  9.00000000E+02  3.00000000E+01  0.00000000E+00
  9.10000000E+02  3.00000000E+01  0.00000000E+00
  9.20000000E+02  3.00000000E+01  0.00000000E+00
  9.30000000E+02  3.00000000E+01  0.00000000E+00
  9.40000000E+02  3.00000000E+01  0.00000000E+00
  9.50000000E+02  3.00000000E+01  0.00000000E+00
  9.60000000E+02  3.00000000E+01  0.00000000E+00
  9.70000000E+02  3.00000000E+01  0.00000000E+00
  9.80000000E+02  3.00000000E+01  0.00000000E+00
  9.90000000E+02  3.00000000E+01  0.00000000E+00
  1.00000000E+03  3.00000000E+01  0.00000000E+00
  0.00000000E+00  3.20000000E+01  0.00000000E+00
  1.00000000E+01  3.20000000E+01  0.00000000E+00
  2.00000000E+01  3.20000000E+01  0.00000000E+00
  3.00000000E+01  3.20000000E+01  0.00000000E+00
  4.00000000E+01  3.20000000E+01  0.00000000E+00
  5.00000000E+01  3.20000000E+01  0.00000000E+00
  6.00000000E+01  3.20000000E+01  0.00000000E+00
  7.00000000E+01  3.20000000E+01  0.00000000E+00
  8.00000000E+01  3.20000000E+01  0.00000000E+00
  9.00000000E+01  3.20000000E+01  0.00000000E+00
  1.00000000E+02  3.20000000E+01  0.00000000E+00
  1.10000000E+02  3.20000000E+01  0.00000000E+00
  1.20000000E+02  3.20000000E+01  0.00000000E+00
  1.30000000E+02  3.20000000E+01  0.00000000E+00
  1.40000000E+02  3.20000000E+01  0.00000000E+00
  1.50000000E+02  3.20000000E+01  0.00000000E+00
  1.60000000E+02  3.20000000E+01  0.00000000E+00
  1.70000000E+02  3.20000000E+01  0.00000000E+00
  1.80000000E+02  3.20000000E+01  0.00000000E+00
  1.90000000E+02  3.20000000E+01  0.00000000E+00
  2.00000000E+02  3.20000000E+01  0.00000000E+00
  2.10000000E+02  3.20000000E+01  0.00000000E+00
  2.20000000E+02  3.20000000E+01  0.00000000E+00
  2.30000000E+02  3.20000000E+01  0.00000000E+00
  2.40000000E+02  3.20000000E+01  0.00000000E+00
  2.50000000E+02  3.20000000E+01  0.00000000E+00
  2.60000000E+02  3.20000000E+01  0.00000000E+00
  2.70000000E+02  3.20000000E+01  0.00000000E+00
  2.80000000E+02  3.20000000E+01  0.00000000E+00
  2.90000000E+02  3.20000000E+01  0.00000000E+00
  3.00000000E+02  3.20000000E+01  0.00000000E+00
  3.10000000E+02  3.20000000E+01  0.00000000E+00
  3.20000000E+02  3.20000000E+01  0.00000000E+00
  3.30000000E+02  3.20000000E+01  0.00000000E+00
  3.40000000E+02  3.20000000E+01  0.00000000E+00
  3.50000000E+02  3.20000000E+01  0.00000000E+00
  3.60000000E+02  3.20000000E+01  0.00000000E+00
  3.70000000E+02  3.20000000E+01  0.00000000E+00
  3.80000000E+02  3.20000000E+01  0.00000000E+00
  3.90000000E+02  3.20000000E+01  0.00000000E+00
  4.00000000E+02  3.20000000E+01  0.00000000E+00
  4.10000000E+02  3.20000000E+01  0.00000000E+00
  4.20000000E+02  3.20000000E+01  0.00000000E+00
  4.30000000E+02  3.20000000E+01  0.00000000E+00
  4.40000000E+02  3.20000000E+01  0.00000000E+00
  4.50000000E+02  3.20000000E+01  0.00000000E+00
  4.60000000E+02  3.20000000E+01  0.00000000E+00
  4.70000000E+02  3.20000000E+01  0.00000000E+00
  4.80000000E+02  3.20000000E+01  0.00000000E+00
  4.90000000E+02  3.20000000E+01  0.00000000E+00
  5.00000000E+02  3.20000000E+01  0.00000000E+00
  5.10000000E+02  3.20000000E+01  0.00000000E+00
  5.20000000E+02  3.20000000E+01  0.00000000E+00
  5.30000000E+02  3.20000000E+01  0.00000000E+00
  5.40000000E+02  3.20000000E+01  0.00000000E+00
  5.50000000E+02  3.20000000E+01  0.00000000E+00
  5.60000000E+02  3.20000000E+01  0.00000000E+00
  5.70000000E+02  3.20000000E+01  0.00000000E+00
  5.80000000E+02  3.20000000E+01  0.00000000E+00
  5.90000000E+02  3.20000000E+01  0.00000000E+00
  6.00000000E+02  3.20000000E+01  0.00000000E+00
  6.10000000E+02  3.20000000E+01  0.00000000E+00
  6.20000000E+02  3.20000000E+01  0.00000000E+00
  6.30000000E+02  3.20000000E+01  0.00000000E+00
  6.40000000E+02  3.20000000E+01  0.00000000E+00
  6.50000000E+02  3.20000000E+01  0.00000000E+00
  6.60000000E+02  3.20000000E+01  0.00000000E+00
  6.70000000E+02  3.20000000E+01  0.00000000E+00
  6.80000000E+02  3.20000000E+01  0.00000000E+00
  6.90000000E+02  3.20000000E+01  0.00000000E+00
  7.00000000E+02  3.20000000E+01  0.00000000E+00
  7.10000000E+02  3.20000000E+01  0.00000000E+00
  7.20000000E+02  3.20000000E+01  0.00000000E+00
  7.30000000E+02  3.20000000E+01  0.00000000E+00
  7.40000000E+02  3.20000000E+01  0.00000000E+00
  7.50000000E+02  3.20000000E+01  0.00000000E+00
  7.60000000E+02  3.20000000E+01  0.00000000E+00
  7.70000000E+02  3.20000000E+01  0.00000000E+00
  7.80000000E+02  3.20000000E+01  0.00000000E+00
  7.90000000E+02  3.20000000E+01  0.00000000E+00
  8.00000000E+02  3.20000000E+01  0.00000000E+00
  8.10000000E+02  3.20000000E+01  0.00000000E+00
  8.20000000E+02  3.20000000E+01  0.00000000E+00
  8.30000000E+02  3.20000000E+01  0.00000000E+00
  8.40000000E+02  3.20000000E+01  0.00000000E+00
  8.50000000E+02  3.20000000E+01  0.00000000E+00
  8.60000000E+02  3.20000000E+01  0.00000000E+00
  8.70000000E+02  3.20000000E+01  0.00000000E+00
  8.80000000E+02  3.20000000E+01  0.00000000E+00
  8.90000000E+02  3.20000000E+01  0.00000000E+00
  9.00000000E+02  3.20000000E+01  0.00000000E+00
  9.10000000E+02  3.20000000E+01  0.00000000E+00
  9.20000000E+02  3.20000000E+01  0.00000000E+00
  9.30000000E+02  3.20000000E+01  0.00000000E+00
  9.40000000E+02  3.20000000E+01  0.00000000E+00
  9.50000000E+02  3.20000000E+01  0.00000000E+00
  9.60000000E+02  3.20000000E+01  0.00000000E+00
  9.70000000E+02  3.20000000E+01  0.00000000E+00
  9.80000000E+02  3.20000000E+01  0.00000000E+00
  9.90000000E+02  3.20000000E+01  0.00000000E+00
  1.00000000E+03  3.20000000E+01  0.00000000E+00
  0.00000000E+00  3.40000000E+01  0.00000000E+00
  1.00000000E+01  3.40000000E+01  0.00000000E+00
  2.00000000E+01  3.40000000E+01  0.00000000E+00
  3.00000000E+01  3.40000000E+01  0.00000000E+00
  4.00000000E+01  3.40000000E+01  0.00000000E+00
  5.00000000E+01  3.40000000E+01  0.00000000E+00
  6.00000000E+01  3.40000000E+01  0.00000000E+00
  7.00000000E+01  3.40000000E+01  0.00000000E+00
  8.00000000E+01  3.40000000E+01  0.00000000E+00
  9.00000000E+01  3.40000000E+01  0.00000000E+00
  1.00000000E+02  3.40000000E+01  0.00000000E+00
  1.10000000E+02  3.40000000E+01  0.00000000E+00
  1.20000000E+02  3.40000000E+01  0.00000000E+00
  1.30000000E+02  3.40000000E+01  0.00000000E+00
  1.40000000E+02  3.40000000E+01  0.00000000E+00
  1.50000000E+02  3.40000000E+01  0.00000000E+00
  1.60000000E+02  3.40000000E+01  0.00000000E+00
  1.70000000E+02  3.40000000E+01  0.00000000E+00
  1.80000000E+02  3.40000000E+01  0.00000000E+00
  1.90000000E+02  3.40000000E+01  0.00000000E+00
  2.00000000E+02  3.40000000E+01  0.00000000E+00
  2.10000000E+02  3.40000000E+01  0.00000000E+00
  2.20000000E+02  3.40000000E+01  0.00000000E+00
  2.30000000E+02  3.40000000E+01  0.00000000E+00
  2.40000000E+02  3.40000000E+01  0.00000000E+00
  2.50000000E+02  3.40000000E+01  0.00000000E+00
  2.60000000E+02  3.40000000E+01  0.00000000E+00
  2.70000000E+02  3.40000000E+01  0.00000000E+00
  2.80000000E+02  3.40000000E+01  0.00000000E+00
  2.90000000E+02  3.40000000E+01  0.00000000E+00
  3.00000000E+02  3.40000000E+01  0.00000000E+00
  3.10000000E+02  3.40000000E+01  0.00000000E+00
  3.20000000E+02  3.40000000E+01  0.00000000E+00
  3.30000000E+02  3.40000000E+01  0.00000000E+00
  3.40000000E+02  3.40000000E+01  0.00000000E+00
  3.50000000E+02  3.40000000E+01  0.00000000E+00
  3.60000000E+02  3.40000000E+01  0.00000000E+00
  3.70000000E+02  3.40000000E+01  0.00000000E+00
  3.80000000E+02  3.40000000E+01  0.00000000E+00
  3.90000000E+02  3.40000000E+01  0.00000000E+00
  4.00000000E+02  3.40000000E+01  0.00000000E+00
  4.10000000E+02  3.40000000E+01  0.00000000E+00
  4.20000000E+02  3.40000000E+01  0.00000000E+00
  4.30000000E+02  3.40000000E+01  0.00000000E+00
  4.40000000E+02  3.40000000E+01  0.00000000E+00
  4.50000000E+02  3.40000000E+01  0.00000000E+00
  4.60000000E+02  3.40000000E+01  0.00000000E+00
  4.70000000E+02  3.40000000E+01  0.00000000E+00
  4.80000000E+02  3.40000000E+01  0.00000000E+00
  4.90000000E+02  3.40000000E+01  0.00000000E+00
  5.00000000E+02  3.40000000E+01  0.00000000E+00
  5.10000000E+02  3.40000000E+01  0.00000000E+00
  5.20000000E+02  3.40000000E+01  0.00000000E+00
  5.30000000E+02  3.40000000E+01  0.00000000E+00
  5.40000000E+02  3.40000000E+01  0.00000000E+00
  5.50000000E+02  3.40000000E+01  0.00000000E+00
  5.60000000E+02  3.40000000E+01  0.00000000E+00
  5.70000000E+02  3.40000000E+01  0.00000000E+00
  5.80000000E+02  3.40000000E+01  0.00000000E+00
  5.90000000E+02  3.40000000E+01  0.00000000E+00
  6.00000000E+02  3.40000000E+01  0.00000000E+00
  6.10000000E+02  3.40000000E+01  0.00000000E+00
  6.20000000E+02  3.40000000E+01  0.00000000E+00
  6.30000000E+02  3.40000000E+01  0.00000000E+00
  6.40000000E+02  3.40000000E+01  0.00000000E+00
  6.50000000E+02  3.40000000E+01  0.00000000E+00
  6.60000000E+02  3.40000000E+01  0.00000000E+00
  6.70000000E+02  3.40000000E+01  0.00000000E+00
  6.80000000E+02  3.40000000E+01  0.00000000E+00
  6.90000000E+02  3.40000000E+01  0.00000000E+00
  7.00000000E+02  3.40000000E+01  0.00000000E+00
  7.10000000E+02  3.40000000E+01  0.00000000E+00
  7.20000000E+02  3.40000000E+01  0.00000000E+00
  7.30000000E+02  3.40000000E+01  0.00000000E+00
  7.40000000E+02  3.40000000E+01  0.00000000E+00
  7.50000000E+02  3.40000000E+01  0.00000000E+00
  7.60000000E+02  3.40000000E+01  0.00000000E+00
  7.70000000E+02  3.40000000E+01  0.00000000E+00
  7.80000000E+02  3.40000000E+01  0.00000000E+00
  7.90000000E+02  3.40000000E+01  0.00000000E+00
  8.00000000E+02  3.40000000E+01  0.00000000E+00
  8.10000000E+02  3.40000000E+01  0.00000000E+00
  8.20000000E+02  3.40000000E+01  0.00000000E+00
  8.30000000E+02  3.40000000E+01  0.00000000E+00
  8.40000000E+02  3.40000000E+01  0.00000000E+00
  8.50000000E+02  3.40000000E+01  0.00000000E+00
  8.60000000E+02  3.40000000E+01  0.00000000E+00
  8.70000000E+02  3.40000000E+01  0.00000000E+00
  8.80000000E+02  3.40000000E+01  0.00000000E+00
  8.90000000E+02  3.40000000E+01  0.00000000E+00
  9.00000000E+02  3.40000000E+01  0.00000000E+00
  9.10000000E+02  3.40000000E+01  0.00000000E+00
  9.20000000E+02  3.40000000E+01  0.00000000E+00
  9.30000000E+02  3.40000000E+01  0.00000000E+00
  9.40000000E+02  3.40000000E+01  0.00000000E+00
  9.50000000E+02  3.40000000E+01  0.00000000E+00
  9.60000000E+02  3.40000000E+01  0.00000000E+00
  9.70000000E+02  3.40000000E+01  0.00000000E+00
  9.80000000E+02  3.40000000E+01  0.00000000E+00
  9.90000000E+02  3.40000000E+01  0.00000000E+00
  1.00000000E+03  3.40000000E+01  0.00000000E+00
  0.00000000E+00  3.60000000E+01  0.00000000E+00
  1.00000000E+01  3.60000000E+01  0.00000000E+00
  2.00000000E+01  3.60000000E+01  0.00000000E+00
  3.00000000E+01  3.60000000E+01  0.00000000E+00
  4.00000000E+01  3.60000000E+01  0.00000000E+00
  5.00000000E+01  3.60000000E+01  0.00000000E+00
  6.00000000E+01  3.60000000E+01  0.00000000E+00
  7.00000000E+01  3.60000000E+01  0.00000000E+00
  8.00000000E+01  3.60000000E+01  0.00000000E+00
  9.00000000E+01  3.60000000E+01  0.00000000E+00
  1.00000000E+02  3.60000000E+01  0.00000000E+00
  1.10000000E+02  3.60000000E+01  0.00000000E+00
  1.20000000E+02  3.60000000E+01  0.00000000E+00
  1.30000000E+02  3.60000000E+01  0.00000000E+00
  1.40000000E+02  3.60000000E+01  0.00000000E+00
  1.50000000E+02  3.60000000E+01  0.00000000E+00
  1.60000000E+02  3.60000000E+01  0.00000000E+00
  1.70000000E+02  3.60000000E+01  0.00000000E+00
  1.80000000E+02  3.60000000E+01  0.00000000E+00
  1.90000000E+02  3.60000000E+01  0.00000000E+00
  2.00000000E+02  3.60000000E+01  0.00000000E+00
  2.10000000E+02  3.60000000E+01  0.00000000E+00
  2.20000000E+02  3.60000000E+01  0.00000000E+00
  2.30000000E+02  3.60000000E+01  0.00000000E+00
  2.40000000E+02  3.60000000E+01  0.00000000E+00
  2.50000000E+02  3.60000000E+01  0.00000000E+00
  2.60000000E+02  3.60000000E+01  0.00000000E+00
  2.70000000E+02  3.60000000E+01  0.00000000E+00
  2.80000000E+02  3.60000000E+01  0.00000000E+00
  2.90000000E+02  3.60000000E+01  0.00000000E+00
  3.00000000E+02  3.60000000E+01  0.00000000E+00
  3.10000000E+02  3.60000000E+01  0.00000000E+00
  3.20000000E+02  3.60000000E+01  0.00000000E+00
  3.30000000E+02  3.60000000E+01  0.00000000E+00
  3.40000000E+02  3.60000000E+01  0.00000000E+00
  3.50000000E+02  3.60000000E+01  0.00000000E+00
  3.60000000E+02  3.60000000E+01  0.00000000E+00
  3.70000000E+02  3.60000000E+01  0.00000000E+00
  3.80000000E+02  3.60000000E+01  0.00000000E+00
  3.90000000E+02  3.60000000E+01  0.00000000E+00
  4.00000000E+02  3.60000000E+01  0.00000000E+00
  4.10000000E+02  3.60000000E+01  0.00000000E+00
  4.20000000E+02  3.60000000E+01  0.00000000E+00
  4.30000000E+02  3.60000000E+01  0.00000000E+00
  4.40000000E+02  3.60000000E+01  0.00000000E+00
  4.50000000E+02  3.60000000E+01  0.00000000E+00
  4.60000000E+02  3.60000000E+01  0.00000000E+00
  4.70000000E+02  3.60000000E+01  0.00000000E+00
  4.80000000E+02  3.60000000E+01  0.00000000E+00
  4.90000000E+02  3.60000000E+01  0.00000000E+00
  5.00000000E+02  3.60000000E+01  0.00000000E+00
  5.10000000E+02  3.60000000E+01  0.00000000E+00
  5.20000000E+02  3.60000000E+01  0.00000000E+00
  5.30000000E+02  3.60000000E+01  0.00000000E+00
  5.40000000E+02  3.60000000E+01  0.00000000E+00
  5.50000000E+02  3.60000000E+01  0.00000000E+00
  5.60000000E+02  3.60000000E+01  0.00000000E+00
  5.70000000E+02  3.60000000E+01  0.00000000E+00
  5.80000000E+02  3.60000000E+01  0.00000000E+00
  5.90000000E+02  3.60000000E+01  0.00000000E+00
  6.00000000E+02  3.60000000E+01  0.00000000E+00
  6.10000000E+02  3.60000000E+01  0.00000000E+00
  6.20000000E+02  3.60000000E+01  0.00000000E+00
  6.30000000E+02  3.60000000E+01  0.00000000E+00
  6.40000000E+02  3.60000000E+01  0.00000000E+00
  6.50000000E+02  3.60000000E+01  0.00000000E+00
  6.60000000E+02  3.60000000E+01  0.00000000E+00
  6.70000000E+02  3.60000000E+01  0.00000000E+00
  6.80000000E+02  3.60000000E+01  0.00000000E+00
  6.90000000E+02  3.60000000E+01  0.00000000E+00
  7.00000000E+02  3.60000000E+01  0.00000000E+00
  7.10000000E+02  3.60000000E+01  0.00000000E+00
  7.20000000E+02  3.60000000E+01  0.00000000E+00
  7.30000000E+02  3.60000000E+01  0.00000000E+00
  7.40000000E+02  3.60000000E+01  0.00000000E+00
  7.50000000E+02  3.60000000E+01  0.00000000E+00
  7.60000000E+02  3.60000000E+01  0.00000000E+00
  7.70000000E+02  3.60000000E+01  0.00000000E+00
  7.80000000E+02  3.60000000E+01  0.00000000E+00
  7.90000000E+02  3.60000000E+01  0.00000000E+00
  8.00000000E+02  3.60000000E+01  0.00000000E+00
  8.10000000E+02  3.60000000E+01  0.00000000E+00
  8.20000000E+02  3.60000000E+01  0.00000000E+00
  8.30000000E+02  3.60000000E+01  0.00000000E+00
  8.40000000E+02  3.60000000E+01  0.00000000E+00
  8.50000000E+02  3.60000000E+01  0.00000000E+00
  8.60000000E+02  3.60000000E+01  0.00000000E+00
  8.70000000E+02  3.60000000E+01  0.00000000E+00
  8.80000000E+02  3.60000000E+01  0.00000000E+00
  8.90000000E+02  3.60000000E+01  0.00000000E+00
  9.00000000E+02  3.60000000E+01  0.00000000E+00
  9.10000000E+02  3.60000000E+01  0.00000000E+00
  9.20000000E+02  3.60000000E+01  0.00000000E+00
  9.30000000E+02  3.60000000E+01  0.00000000E+00
  9.40000000E+02  3.60000000E+01  0.00000000E+00
  9.50000000E+02  3.60000000E+01  0.00000000E+00
  9.60000000E+02  3.60000000E+01  0.00000000E+00
  9.70000000E+02  3.60000000E+01  0.00000000E+00
  9.80000000E+02  3.60000000E+01  0.00000000E+00
  9.90000000E+02  3.60000000E+01  0.00000000E+00
  1.00000000E+03  3.60000000E+01  0.00000000E+00
  0.00000000E+00  3.80000000E+01  0.00000000E+00
  1.00000000E+01  3.80000000E+01  0.00000000E+00
  2.00000000E+01  3.80000000E+01  0.00000000E+00
  3.00000000E+01  3.80000000E+01  0.00000000E+00
  4.00000000E+01  3.80000000E+01  0.00000000E+00
  5.00000000E+01  3.80000000E+01  0.00000000E+00
  6.00000000E+01  3.80000000E+01  0.00000000E+00
  7.00000000E+01  3.80000000E+01  0.00000000E+00
  8.00000000E+01  3.80000000E+01  0.00000000E+00
  9.00000000E+01  3.80000000E+01  0.00000000E+00
  1.00000000E+02  3.80000000E+01  0.00000000E+00
  1.10000000E+02  3.80000000E+01  0.00000000E+00
  1.20000000E+02  3.80000000E+01  0.00000000E+00
  1.30000000E+02  3.80000000E+01  0.00000000E+00
  1.40000000E+02  3.80000000E+01  0.00000000E+00
  1.50000000E+02  3.80000000E+01  0.00000000E+00
  1.60000000E+02  3.80000000E+01  0.00000000E+00
  1.70000000E+02  3.80000000E+01  0.00000000E+00
  1.80000000E+02  3.80000000E+01  0.00000000E+00
  1.90000000E+02  3.80000000E+01  0.00000000E+00
  2.00000000E+02  3.80000000E+01  0.00000000E+00
  2.10000000E+02  3.80000000E+01  0.00000000E+00
  2.20000000E+02  3.80000000E+01  0.00000000E+00
  2.30000000E+02  3.80000000E+01  0.00000000E+00
  2.40000000E+02  3.80000000E+01  0.00000000E+00
  2.50000000E+02  3.80000000E+01  0.00000000E+00
  2.60000000E+02  3.80000000E+01  0.00000000E+00
  2.70000000E+02  3.80000000E+01  0.00000000E+00
  2.80000000E+02  3.80000000E+01  0.00000000E+00
  2.90000000E+02  3.80000000E+01  0.00000000E+00
  3.00000000E+02  3.80000000E+01  0.00000000E+00
  3.10000000E+02  3.80000000E+01  0.00000000E+00
  3.20000000E+02  3.80000000E+01  0.00000000E+00
  3.30000000E+02  3.80000000E+01  0.00000000E+00
  3.40000000E+02  3.80000000E+01  0.00000000E+00
  3.50000000E+02  3.80000000E+01  0.00000000E+00
  3.60000000E+02  3.80000000E+01  0.00000000E+00
  3.70000000E+02  3.80000000E+01  0.00000000E+00
  3.80000000E+02  3.80000000E+01  0.00000000E+00
  3.90000000E+02  3.80000000E+01  0.00000000E+00
  4.00000000E+02  3.80000000E+01  0.00000000E+00
  4.10000000E+02  3.80000000E+01  0.00000000E+00
  4.20000000E+02  3.80000000E+01  0.00000000E+00
  4.30000000E+02  3.80000000E+01  0.00000000E+00
  4.40000000E+02  3.80000000E+01  0.00000000E+00
  4.50000000E+02  3.80000000E+01  0.00000000E+00
  4.60000000E+02  3.80000000E+01  0.00000000E+00
  4.70000000E+02  3.80000000E+01  0.00000000E+00
  4.80000000E+02  3.80000000E+01  0.00000000E+00
  4.90000000E+02  3.80000000E+01  0.00000000E+00
  5.00000000E+02  3.80000000E+01  0.00000000E+00
  5.10000000E+02  3.80000000E+01  0.00000000E+00
  5.20000000E+02  3.80000000E+01  0.00000000E+00
  5.30000000E+02  3.80000000E+01  0.00000000E+00
  5.40000000E+02  3.80000000E+01  0.00000000E+00
  5.50000000E+02  3.80000000E+01  0.00000000E+00
  5.60000000E+02  3.80000000E+01  0.00000000E+00
  5.70000000E+02  3.80000000E+01  0.00000000E+00
  5.80000000E+02  3.80000000E+01  0.00000000E+00
  5.90000000E+02  3.80000000E+01  0.00000000E+00
  6.00000000E+02  3.80000000E+01  0.00000000E+00
  6.10000000E+02  3.80000000E+01  0.00000000E+00
  6.20000000E+02  3.80000000E+01  0.00000000E+00
  6.30000000E+02  3.80000000E+01  0.00000000E+00
  6.40000000E+02  3.80000000E+01  0.00000000E+00
  6.50000000E+02  3.80000000E+01  0.00000000E+00
  6.60000000E+02  3.80000000E+01  0.00000000E+00
  6.70000000E+02  3.80000000E+01  0.00000000E+00
  6.80000000E+02  3.80000000E+01  0.00000000E+00
  6.90000000E+02  3.80000000E+01  0.00000000E+00
  7.00000000E+02  3.80000000E+01  0.00000000E+00
  7.10000000E+02  3.80000000E+01  0.00000000E+00
  7.20000000E+02  3.80000000E+01  0.00000000E+00
  7.30000000E+02  3.80000000E+01  0.00000000E+00
  7.40000000E+02  3.80000000E+01  0.00000000E+00
  7.50000000E+02  3.80000000E+01  0.00000000E+00
  7.60000000E+02  3.80000000E+01  0.00000000E+00
  7.70000000E+02  3.80000000E+01  0.00000000E+00
  7.80000000E+02  3.80000000E+01  0.00000000E+00
  7.90000000E+02  3.80000000E+01  0.00000000E+00
  8.00000000E+02  3.80000000E+01  0.00000000E+00
  8.10000000E+02  3.80000000E+01  0.00000000E+00
  8.20000000E+02  3.80000000E+01  0.00000000E+00
  8.30000000E+02  3.80000000E+01  0.00000000E+00
  8.40000000E+02  3.80000000E+01  0.00000000E+00
  8.50000000E+02  3.80000000E+01  0.00000000E+00
  8.60000000E+02  3.80000000E+01  0.00000000E+00
  8.70000000E+02  3.80000000E+01  0.00000000E+00
  8.80000000E+02  3.80000000E+01  0.00000000E+00
  8.90000000E+02  3.80000000E+01  0.00000000E+00
  9.00000000E+02  3.80000000E+01  0.00000000E+00
  9.10000000E+02  3.80000000E+01  0.00000000E+00
  9.20000000E+02  3.80000000E+01  0.00000000E+00
  9.30000000E+02  3.80000000E+01  0.00000000E+00
  9.40000000E+02  3.80000000E+01  0.00000000E+00
  9.50000000E+02  3.80000000E+01  0.00000000E+00
  9.60000000E+02  3.80000000E+01  0.00000000E+00
  9.70000000E+02  3.80000000E+01  0.00000000E+00
  9.80000000E+02  3.80000000E+01  0.00000000E+00
  9.90000000E+02  3.80000000E+01  0.00000000E+00
  1.00000000E+03  3.80000000E+01  0.00000000E+00
  0.00000000E+00  4.00000000E+01  0.00000000E+00
  1.00000000E+01  4.00000000E+01  0.00000000E+00
  2.00000000E+01  4.00000000E+01  0.00000000E+00
  3.00000000E+01  4.00000000E+01  0.00000000E+00
  4.00000000E+01  4.00000000E+01  0.00000000E+00
  5.00000000E+01  4.00000000E+01  0.00000000E+00
  6.00000000E+01  4.00000000E+01  0.00000000E+00
  7.00000000E+01  4.00000000E+01  0.00000000E+00
  8.00000000E+01  4.00000000E+01  0.00000000E+00
  9.00000000E+01  4.00000000E+01  0.00000000E+00
  1.00000000E+02  4.00000000E+01  0.00000000E+00
  1.10000000E+02  4.00000000E+01  0.00000000E+00
  1.20000000E+02  4.00000000E+01  0.00000000E+00
  1.30000000E+02  4.00000000E+01  0.00000000E+00
  1.40000000E+02  4.00000000E+01  0.00000000E+00
  1.50000000E+02  4.00000000E+01  0.00000000E+00
  1.60000000E+02  4.00000000E+01  0.00000000E+00
  1.70000000E+02  4.00000000E+01  0.00000000E+00
  1.80000000E+02  4.00000000E+01  0.00000000E+00
  1.90000000E+02  4.00000000E+01  0.00000000E+00
  2.00000000E+02  4.00000000E+01  0.00000000E+00
  2.10000000E+02  4.00000000E+01  0.00000000E+00
  2.20000000E+02  4.00000000E+01  0.00000000E+00
  2.30000000E+02  4.00000000E+01  0.00000000E+00
  2.40000000E+02  4.00000000E+01  0.00000000E+00
  2.50000000E+02  4.00000000E+01  0.00000000E+00
  2.60000000E+02  4.00000000E+01  0.00000000E+00
  2.70000000E+02  4.00000000E+01  0.00000000E+00
  2.80000000E+02  4.00000000E+01  0.00000000E+00
  2.90000000E+02  4.00000000E+01  0.00000000E+00
  3.00000000E+02  4.00000000E+01  0.00000000E+00
  3.10000000E+02  4.00000000E+01  0.00000000E+00
  3.20000000E+02  4.00000000E+01  0.00000000E+00
  3.30000000E+02  4.00000000E+01  0.00000000E+00
  3.40000000E+02  4.00000000E+01  0.00000000E+00
  3.50000000E+02  4.00000000E+01  0.00000000E+00
  3.60000000E+02  4.00000000E+01  0.00000000E+00
  3.70000000E+02  4.00000000E+01  0.00000000E+00
  3.80000000E+02  4.00000000E+01  0.00000000E+00
  3.90000000E+02  4.00000000E+01  0.00000000E+00
  4.00000000E+02  4.00000000E+01  0.00000000E+00
  4.10000000E+02  4.00000000E+01  0.00000000E+00
  4.20000000E+02  4.00000000E+01  0.00000000E+00
  4.30000000E+02  4.00000000E+01  0.00000000E+00
  4.40000000E+02  4.00000000E+01  0.00000000E+00
  4.50000000E+02  4.00000000E+01  0.00000000E+00
  4.60000000E+02  4.00000000E+01  0.00000000E+00
  4.70000000E+02  4.00000000E+01  0.00000000E+00
  4.80000000E+02  4.00000000E+01  0.00000000E+00
  4.90000000E+02  4.00000000E+01  0.00000000E+00
  5.00000000E+02  4.00000000E+01  0.00000000E+00
  5.10000000E+02  4.00000000E+01  0.00000000E+00
  5.20000000E+02  4.00000000E+01  0.00000000E+00
  5.30000000E+02  4.00000000E+01  0.00000000E+00
  5.40000000E+02  4.00000000E+01  0.00000000E+00
  5.50000000E+02  4.00000000E+01  0.00000000E+00
  5.60000000E+02  4.00000000E+01  0.00000000E+00
  5.70000000E+02  4.00000000E+01  0.00000000E+00
  5.80000000E+02  4.00000000E+01  0.00000000E+00
  5.90000000E+02  4.00000000E+01  0.00000000E+00
  6.00000000E+02  4.00000000E+01  0.00000000E+00
  6.10000000E+02  4.00000000E+01  0.00000000E+00
  6.20000000E+02  4.00000000E+01  0.00000000E+00
  6.30000000E+02  4.00000000E+01  0.00000000E+00
  6.40000000E+02  4.00000000E+01  0.00000000E+00
  6.50000000E+02  4.00000000E+01  0.00000000E+00
  6.60000000E+02  4.00000000E+01  0.00000000E+00
  6.70000000E+02  4.00000000E+01  0.00000000E+00
  6.80000000E+02  4.00000000E+01  0.00000000E+00
  6.90000000E+02  4.00000000E+01  0.00000000E+00
  7.00000000E+02  4.00000000E+01  0.00000000E+00
  7.10000000E+02  4.00000000E+01  0.00000000E+00
  7.20000000E+02  4.00000000E+01  0.00000000E+00
  7.30000000E+02  4.00000000E+01  0.00000000E+00
  7.40000000E+02  4.00000000E+01  0.00000000E+00
  7.50000000E+02  4.00000000E+01  0.00000000E+00
  7.60000000E+02  4.00000000E+01  0.00000000E+00
  7.70000000E+02  4.00000000E+01  0.00000000E+00
  7.80000000E+02  4.00000000E+01  0.00000000E+00
  7.90000000E+02  4.00000000E+01  0.00000000E+00
  8.00000000E+02  4.00000000E+01  0.00000000E+00
  8.10000000E+02  4.00000000E+01  0.00000000E+00
  8.20000000E+02  4.00000000E+01  0.00000000E+00
  8.30000000E+02  4.00000000E+01  0.00000000E+00
  8.40000000E+02  4.00000000E+01  0.00000000E+00
  8.50000000E+02  4.00000000E+01  0.00000000E+00
  8.60000000E+02  4.00000000E+01  0.00000000E+00
  8.70000000E+02  4.00000000E+01  0.00000000E+00
  8.80000000E+02  4.00000000E+01  0.00000000E+00
  8.90000000E+02  4.00000000E+01  0.00000000E+00
  9.00000000E+02  4.00000000E+01  0.00000000E+00
  9.10000000E+02  4.00000000E+01  0.00000000E+00
  9.20000000E+02  4.00000000E+01  0.00000000E+00
  9.30000000E+02  4.00000000E+01  0.00000000E+00
  9.40000000E+02  4.00000000E+01  0.00000000E+00
  9.50000000E+02  4.00000000E+01  0.00000000E+00
  9.60000000E+02  4.00000000E+01  0.00000000E+00
  9.70000000E+02  4.00000000E+01  0.00000000E+00
  9.80000000E+02  4.00000000E+01  0.00000000E+00
  9.90000000E+02  4.00000000E+01  0.00000000E+00
  1.00000000E+03  4.00000000E+01  0.00000000E+00
  0.00000000E+00  4.20000000E+01  0.00000000E+00
  1.00000000E+01  4.20000000E+01  0.00000000E+00
  2.00000000E+01  4.20000000E+01  0.00000000E+00
  3.00000000E+01  4.20000000E+01  0.00000000E+00
  4.00000000E+01  4.20000000E+01  0.00000000E+00
  5.00000000E+01  4.20000000E+01  0.00000000E+00
  6.00000000E+01  4.20000000E+01  0.00000000E+00
  7.00000000E+01  4.20000000E+01  0.00000000E+00
  8.00000000E+01  4.20000000E+01  0.00000000E+00
  9.00000000E+01  4.20000000E+01  0.00000000E+00
  1.00000000E+02  4.20000000E+01  0.00000000E+00
  1.10000000E+02  4.20000000E+01  0.00000000E+00
  1.20000000E+02  4.20000000E+01  0.00000000E+00
  1.30000000E+02  4.20000000E+01  0.00000000E+00
  1.40000000E+02  4.20000000E+01  0.00000000E+00
  1.50000000E+02  4.20000000E+01  0.00000000E+00
  1.60000000E+02  4.20000000E+01  0.00000000E+00
  1.70000000E+02  4.20000000E+01  0.00000000E+00
  1.80000000E+02  4.20000000E+01  0.00000000E+00
  1.90000000E+02  4.20000000E+01  0.00000000E+00
  2.00000000E+02  4.20000000E+01  0.00000000E+00
  2.10000000E+02  4.20000000E+01  0.00000000E+00
  2.20000000E+02  4.20000000E+01  0.00000000E+00
  2.30000000E+02  4.20000000E+01  0.00000000E+00
  2.40000000E+02  4.20000000E+01  0.00000000E+00
  2.50000000E+02  4.20000000E+01  0.00000000E+00
  2.60000000E+02  4.20000000E+01  0.00000000E+00
  2.70000000E+02  4.20000000E+01  0.00000000E+00
  2.80000000E+02  4.20000000E+01  0.00000000E+00
  2.90000000E+02  4.20000000E+01  0.00000000E+00
  3.00000000E+02  4.20000000E+01  0.00000000E+00
  3.10000000E+02  4.20000000E+01  0.00000000E+00
  3.20000000E+02  4.20000000E+01  0.00000000E+00
  3.30000000E+02  4.20000000E+01  0.00000000E+00
  3.40000000E+02  4.20000000E+01  0.00000000E+00
  3.50000000E+02  4.20000000E+01  0.00000000E+00
  3.60000000E+02  4.20000000E+01  0.00000000E+00
  3.70000000E+02  4.20000000E+01  0.00000000E+00
  3.80000000E+02  4.20000000E+01  0.00000000E+00
  3.90000000E+02  4.20000000E+01  0.00000000E+00
  4.00000000E+02  4.20000000E+01  0.00000000E+00
  4.10000000E+02  4.20000000E+01  0.00000000E+00
  4.20000000E+02  4.20000000E+01  0.00000000E+00
  4.30000000E+02  4.20000000E+01  0.00000000E+00
  4.40000000E+02  4.20000000E+01  0.00000000E+00
  4.50000000E+02  4.20000000E+01  0.00000000E+00
  4.60000000E+02  4.20000000E+01  0.00000000E+00
  4.70000000E+02  4.20000000E+01  0.00000000E+00
  4.80000000E+02  4.20000000E+01  0.00000000E+00
  4.90000000E+02  4.20000000E+01  0.00000000E+00
  5.00000000E+02  4.20000000E+01  0.00000000E+00
  5.10000000E+02  4.20000000E+01  0.00000000E+00
  5.20000000E+02  4.20000000E+01  0.00000000E+00
  5.30000000E+02  4.20000000E+01  0.00000000E+00
  5.40000000E+02  4.20000000E+01  0.00000000E+00
  5.50000000E+02  4.20000000E+01  0.00000000E+00
  5.60000000E+02  4.20000000E+01  0.00000000E+00
  5.70000000E+02  4.20000000E+01  0.00000000E+00
  5.80000000E+02  4.20000000E+01  0.00000000E+00
  5.90000000E+02  4.20000000E+01  0.00000000E+00
  6.00000000E+02  4.20000000E+01  0.00000000E+00
  6.10000000E+02  4.20000000E+01  0.00000000E+00
  6.20000000E+02  4.20000000E+01  0.00000000E+00
  6.30000000E+02  4.20000000E+01  0.00000000E+00
  6.40000000E+02  4.20000000E+01  0.00000000E+00
  6.50000000E+02  4.20000000E+01  0.00000000E+00
  6.60000000E+02  4.20000000E+01  0.00000000E+00
  6.70000000E+02  4.20000000E+01  0.00000000E+00
  6.80000000E+02  4.20000000E+01  0.00000000E+00
  6.90000000E+02  4.20000000E+01  0.00000000E+00
  7.00000000E+02  4.20000000E+01  0.00000000E+00
  7.10000000E+02  4.20000000E+01  0.00000000E+00
  7.20000000E+02  4.20000000E+01  0.00000000E+00
  7.30000000E+02  4.20000000E+01  0.00000000E+00
  7.40000000E+02  4.20000000E+01  0.00000000E+00
  7.50000000E+02  4.20000000E+01  0.00000000E+00
  7.60000000E+02  4.20000000E+01  0.00000000E+00
  7.70000000E+02  4.20000000E+01  0.00000000E+00
  7.80000000E+02  4.20000000E+01  0.00000000E+00
  7.90000000E+02  4.20000000E+01  0.00000000E+00
  8.00000000E+02  4.20000000E+01  0.00000000E+00
  8.10000000E+02  4.20000000E+01  0.00000000E+00
  8.20000000E+02  4.20000000E+01  0.00000000E+00
  8.30000000E+02  4.20000000E+01  0.00000000E+00
  8.40000000E+02  4.20000000E+01  0.00000000E+00
  8.50000000E+02  4.20000000E+01  0.00000000E+00
  8.60000000E+02  4.20000000E+01  0.00000000E+00
  8.70000000E+02  4.20000000E+01  0.00000000E+00
  8.80000000E+02  4.20000000E+01  0.00000000E+00
  8.90000000E+02  4.20000000E+01  0.00000000E+00
  9.00000000E+02  4.20000000E+01  0.00000000E+00
  9.10000000E+02  4.20000000E+01  0.00000000E+00
  9.20000000E+02  4.20000000E+01  0.00000000E+00
  9.30000000E+02  4.20000000E+01  0.00000000E+00
  9.40000000E+02  4.20000000E+01  0.00000000E+00
  9.50000000E+02  4.20000000E+01  0.00000000E+00
  9.60000000E+02  4.20000000E+01  0.00000000E+00
  9.70000000E+02  4.20000000E+01  0.00000000E+00
  9.80000000E+02  4.20000000E+01  0.00000000E+00
  9.90000000E+02  4.20000000E+01  0.00000000E+00
  1.00000000E+03  4.20000000E+01  0.00000000E+00
  0.00000000E+00  4.40000000E+01  0.00000000E+00
  1.00000000E+01  4.40000000E+01  0.00000000E+00
  2.00000000E+01  4.40000000E+01  0.00000000E+00
  3.00000000E+01  4.40000000E+01  0.00000000E+00
  4.00000000E+01  4.40000000E+01  0.00000000E+00
  5.00000000E+01  4.40000000E+01  0.00000000E+00
  6.00000000E+01  4.40000000E+01  0.00000000E+00
  7.00000000E+01  4.40000000E+01  0.00000000E+00
  8.00000000E+01  4.40000000E+01  0.00000000E+00
  9.00000000E+01  4.40000000E+01  0.00000000E+00
  1.00000000E+02  4.40000000E+01  0.00000000E+00
  1.10000000E+02  4.40000000E+01  0.00000000E+00
  1.20000000E+02  4.40000000E+01  0.00000000E+00
  1.30000000E+02  4.40000000E+01  0.00000000E+00
  1.40000000E+02  4.40000000E+01  0.00000000E+00
  1.50000000E+02  4.40000000E+01  0.00000000E+00
  1.60000000E+02  4.40000000E+01  0.00000000E+00
  1.70000000E+02  4.40000000E+01  0.00000000E+00
  1.80000000E+02  4.40000000E+01  0.00000000E+00
  1.90000000E+02  4.40000000E+01  0.00000000E+00
  2.00000000E+02  4.40000000E+01  0.00000000E+00
  2.10000000E+02  4.40000000E+01  0.00000000E+00
  2.20000000E+02  4.40000000E+01  0.00000000E+00
  2.30000000E+02  4.40000000E+01  0.00000000E+00
  2.40000000E+02  4.40000000E+01  0.00000000E+00
  2.50000000E+02  4.40000000E+01  0.00000000E+00
  2.60000000E+02  4.40000000E+01  0.00000000E+00
  2.70000000E+02  4.40000000E+01  0.00000000E+00
  2.80000000E+02  4.40000000E+01  0.00000000E+00
  2.90000000E+02  4.40000000E+01  0.00000000E+00
  3.00000000E+02  4.40000000E+01  0.00000000E+00
  3.10000000E+02  4.40000000E+01  0.00000000E+00
  3.20000000E+02  4.40000000E+01  0.00000000E+00
  3.30000000E+02  4.40000000E+01  0.00000000E+00
  3.40000000E+02  4.40000000E+01  0.00000000E+00
  3.50000000E+02  4.40000000E+01  0.00000000E+00
  3.60000000E+02  4.40000000E+01  0.00000000E+00
  3.70000000E+02  4.40000000E+01  0.00000000E+00
  3.80000000E+02  4.40000000E+01  0.00000000E+00
  3.90000000E+02  4.40000000E+01  0.00000000E+00
  4.00000000E+02  4.40000000E+01  0.00000000E+00
  4.10000000E+02  4.40000000E+01  0.00000000E+00
  4.20000000E+02  4.40000000E+01  0.00000000E+00
  4.30000000E+02  4.40000000E+01  0.00000000E+00
  4.40000000E+02  4.40000000E+01  0.00000000E+00
  4.50000000E+02  4.40000000E+01  0.00000000E+00
  4.60000000E+02  4.40000000E+01  0.00000000E+00
  4.70000000E+02  4.40000000E+01  0.00000000E+00
  4.80000000E+02  4.40000000E+01  0.00000000E+00
  4.90000000E+02  4.40000000E+01  0.00000000E+00
  5.00000000E+02  4.40000000E+01  0.00000000E+00
  5.10000000E+02  4.40000000E+01  0.00000000E+00
  5.20000000E+02  4.40000000E+01  0.00000000E+00
  5.30000000E+02  4.40000000E+01  0.00000000E+00
  5.40000000E+02  4.40000000E+01  0.00000000E+00
  5.50000000E+02  4.40000000E+01  0.00000000E+00
  5.60000000E+02  4.40000000E+01  0.00000000E+00
  5.70000000E+02  4.40000000E+01  0.00000000E+00
  5.80000000E+02  4.40000000E+01  0.00000000E+00
  5.90000000E+02  4.40000000E+01  0.00000000E+00
  6.00000000E+02  4.40000000E+01  0.00000000E+00
  6.10000000E+02  4.40000000E+01  0.00000000E+00
  6.20000000E+02  4.40000000E+01  0.00000000E+00
  6.30000000E+02  4.40000000E+01  0.00000000E+00
  6.40000000E+02  4.40000000E+01  0.00000000E+00
  6.50000000E+02  4.40000000E+01  0.00000000E+00
  6.60000000E+02  4.40000000E+01  0.00000000E+00
  6.70000000E+02  4.40000000E+01  0.00000000E+00
  6.80000000E+02  4.40000000E+01  0.00000000E+00
  6.90000000E+02  4.40000000E+01  0.00000000E+00
  7.00000000E+02  4.40000000E+01  0.00000000E+00
  7.10000000E+02  4.40000000E+01  0.00000000E+00
  7.20000000E+02  4.40000000E+01  0.00000000E+00
  7.30000000E+02  4.40000000E+01  0.00000000E+00
  7.40000000E+02  4.40000000E+01  0.00000000E+00
  7.50000000E+02  4.40000000E+01  0.00000000E+00
  7.60000000E+02  4.40000000E+01  0.00000000E+00
  7.70000000E+02  4.40000000E+01  0.00000000E+00
  7.80000000E+02  4.40000000E+01  0.00000000E+00
  7.90000000E+02  4.40000000E+01  0.00000000E+00
  8.00000000E+02  4.40000000E+01  0.00000000E+00
  8.10000000E+02  4.40000000E+01  0.00000000E+00
  8.20000000E+02  4.40000000E+01  0.00000000E+00
  8.30000000E+02  4.40000000E+01  0.00000000E+00
  8.40000000E+02  4.40000000E+01  0.00000000E+00
  8.50000000E+02  4.40000000E+01  0.00000000E+00
  8.60000000E+02  4.40000000E+01  0.00000000E+00
  8.70000000E+02  4.40000000E+01  0.00000000E+00
  8.80000000E+02  4.40000000E+01  0.00000000E+00
  8.90000000E+02  4.40000000E+01  0.00000000E+00
  9.00000000E+02  4.40000000E+01  0.00000000E+00
  9.10000000E+02  4.40000000E+01  0.00000000E+00
  9.20000000E+02  4.40000000E+01  0.00000000E+00
  9.30000000E+02  4.40000000E+01  0.00000000E+00
  9.40000000E+02  4.40000000E+01  0.00000000E+00
  9.50000000E+02  4.40000000E+01  0.00000000E+00
  9.60000000E+02  4.40000000E+01  0.00000000E+00
  9.70000000E+02  4.40000000E+01  0.00000000E+00
  9.80000000E+02  4.40000000E+01  0.00000000E+00
  9.90000000E+02  4.40000000E+01  0.00000000E+00
  1.00000000E+03  4.40000000E+01  0.00000000E+00
  0.00000000E+00  4.60000000E+01  0.00000000E+00
  1.00000000E+01  4.60000000E+01  0.00000000E+00
  2.00000000E+01  4.60000000E+01  0.00000000E+00
  3.00000000E+01  4.60000000E+01  0.00000000E+00
  4.00000000E+01  4.60000000E+01  0.00000000E+00
  5.00000000E+01  4.60000000E+01  0.00000000E+00
  6.00000000E+01  4.60000000E+01  0.00000000E+00
  7.00000000E+01  4.60000000E+01  0.00000000E+00
  8.00000000E+01  4.60000000E+01  0.00000000E+00
  9.00000000E+01  4.60000000E+01  0.00000000E+00
  1.00000000E+02  4.60000000E+01  0.00000000E+00
  1.10000000E+02  4.60000000E+01  0.00000000E+00
  1.20000000E+02  4.60000000E+01  0.00000000E+00
  1.30000000E+02  4.60000000E+01  0.00000000E+00
  1.40000000E+02  4.60000000E+01  0.00000000E+00
  1.50000000E+02  4.60000000E+01  0.00000000E+00
  1.60000000E+02  4.60000000E+01  0.00000000E+00
  1.70000000E+02  4.60000000E+01  0.00000000E+00
  1.80000000E+02  4.60000000E+01  0.00000000E+00
  1.90000000E+02  4.60000000E+01  0.00000000E+00
  2.00000000E+02  4.60000000E+01  0.00000000E+00
  2.10000000E+02  4.60000000E+01  0.00000000E+00
  2.20000000E+02  4.60000000E+01  0.00000000E+00
  2.30000000E+02  4.60000000E+01  0.00000000E+00
  2.40000000E+02  4.60000000E+01  0.00000000E+00
  2.50000000E+02  4.60000000E+01  0.00000000E+00
  2.60000000E+02  4.60000000E+01  0.00000000E+00
  2.70000000E+02  4.60000000E+01  0.00000000E+00
  2.80000000E+02  4.60000000E+01  0.00000000E+00
  2.90000000E+02  4.60000000E+01  0.00000000E+00
  3.00000000E+02  4.60000000E+01  0.00000000E+00
  3.10000000E+02  4.60000000E+01  0.00000000E+00
  3.20000000E+02  4.60000000E+01  0.00000000E+00
  3.30000000E+02  4.60000000E+01  0.00000000E+00
  3.40000000E+02  4.60000000E+01  0.00000000E+00
  3.50000000E+02  4.60000000E+01  0.00000000E+00
  3.60000000E+02  4.60000000E+01  0.00000000E+00
  3.70000000E+02  4.60000000E+01  0.00000000E+00
  3.80000000E+02  4.60000000E+01  0.00000000E+00
  3.90000000E+02  4.60000000E+01  0.00000000E+00
  4.00000000E+02  4.60000000E+01  0.00000000E+00
  4.10000000E+02  4.60000000E+01  0.00000000E+00
  4.20000000E+02  4.60000000E+01  0.00000000E+00
  4.30000000E+02  4.60000000E+01  0.00000000E+00
  4.40000000E+02  4.60000000E+01  0.00000000E+00
  4.50000000E+02  4.60000000E+01  0.00000000E+00
  4.60000000E+02  4.60000000E+01  0.00000000E+00
  4.70000000E+02  4.60000000E+01  0.00000000E+00
  4.80000000E+02  4.60000000E+01  0.00000000E+00
  4.90000000E+02  4.60000000E+01  0.00000000E+00
  5.00000000E+02  4.60000000E+01  0.00000000E+00
  5.10000000E+02  4.60000000E+01  0.00000000E+00
  5.20000000E+02  4.60000000E+01  0.00000000E+00
  5.30000000E+02  4.60000000E+01  0.00000000E+00
  5.40000000E+02  4.60000000E+01  0.00000000E+00
  5.50000000E+02  4.60000000E+01  0.00000000E+00
  5.60000000E+02  4.60000000E+01  0.00000000E+00
  5.70000000E+02  4.60000000E+01  0.00000000E+00
  5.80000000E+02  4.60000000E+01  0.00000000E+00
  5.90000000E+02  4.60000000E+01  0.00000000E+00
  6.00000000E+02  4.60000000E+01  0.00000000E+00
  6.10000000E+02  4.60000000E+01  0.00000000E+00
  6.20000000E+02  4.60000000E+01  0.00000000E+00
  6.30000000E+02  4.60000000E+01  0.00000000E+00
  6.40000000E+02  4.60000000E+01  0.00000000E+00
  6.50000000E+02  4.60000000E+01  0.00000000E+00
  6.60000000E+02  4.60000000E+01  0.00000000E+00
  6.70000000E+02  4.60000000E+01  0.00000000E+00
  6.80000000E+02  4.60000000E+01  0.00000000E+00
  6.90000000E+02  4.60000000E+01  0.00000000E+00
  7.00000000E+02  4.60000000E+01  0.00000000E+00
  7.10000000E+02  4.60000000E+01  0.00000000E+00
  7.20000000E+02  4.60000000E+01  0.00000000E+00
  7.30000000E+02  4.60000000E+01  0.00000000E+00
  7.40000000E+02  4.60000000E+01  0.00000000E+00
  7.50000000E+02  4.60000000E+01  0.00000000E+00
  7.60000000E+02  4.60000000E+01  0.00000000E+00
  7.70000000E+02  4.60000000E+01  0.00000000E+00
  7.80000000E+02  4.60000000E+01  0.00000000E+00
  7.90000000E+02  4.60000000E+01  0.00000000E+00
  8.00000000E+02  4.60000000E+01  0.00000000E+00
  8.10000000E+02  4.60000000E+01  0.00000000E+00
  8.20000000E+02  4.60000000E+01  0.00000000E+00
  8.30000000E+02  4.60000000E+01  0.00000000E+00
  8.40000000E+02  4.60000000E+01  0.00000000E+00
  8.50000000E+02  4.60000000E+01  0.00000000E+00
  8.60000000E+02  4.60000000E+01  0.00000000E+00
  8.70000000E+02  4.60000000E+01  0.00000000E+00
  8.80000000E+02  4.60000000E+01  0.00000000E+00
  8.90000000E+02  4.60000000E+01  0.00000000E+00
  9.00000000E+02  4.60000000E+01  0.00000000E+00
  9.10000000E+02  4.60000000E+01  0.00000000E+00
  9.20000000E+02  4.60000000E+01  0.00000000E+00
  9.30000000E+02  4.60000000E+01  0.00000000E+00
  9.40000000E+02  4.60000000E+01  0.00000000E+00
  9.50000000E+02  4.60000000E+01  0.00000000E+00
  9.60000000E+02  4.60000000E+01  0.00000000E+00
  9.70000000E+02  4.60000000E+01  0.00000000E+00
  9.80000000E+02  4.60000000E+01  0.00000000E+00
  9.90000000E+02  4.60000000E+01  0.00000000E+00
  1.00000000E+03  4.60000000E+01  0.00000000E+00
  0.00000000E+00  4.80000000E+01  0.00000000E+00
  1.00000000E+01  4.80000000E+01  0.00000000E+00
  2.00000000E+01  4.80000000E+01  0.00000000E+00
  3.00000000E+01  4.80000000E+01  0.00000000E+00
  4.00000000E+01  4.80000000E+01  0.00000000E+00
  5.00000000E+01  4.80000000E+01  0.00000000E+00
  6.00000000E+01  4.80000000E+01  0.00000000E+00
  7.00000000E+01  4.80000000E+01  0.00000000E+00
  8.00000000E+01  4.80000000E+01  0.00000000E+00
  9.00000000E+01  4.80000000E+01  0.00000000E+00
  1.00000000E+02  4.80000000E+01  0.00000000E+00
  1.10000000E+02  4.80000000E+01  0.00000000E+00
  1.20000000E+02  4.80000000E+01  0.00000000E+00
  1.30000000E+02  4.80000000E+01  0.00000000E+00
  1.40000000E+02  4.80000000E+01  0.00000000E+00
  1.50000000E+02  4.80000000E+01  0.00000000E+00
  1.60000000E+02  4.80000000E+01  0.00000000E+00
  1.70000000E+02  4.80000000E+01  0.00000000E+00
  1.80000000E+02  4.80000000E+01  0.00000000E+00
  1.90000000E+02  4.80000000E+01  0.00000000E+00
  2.00000000E+02  4.80000000E+01  0.00000000E+00
  2.10000000E+02  4.80000000E+01  0.00000000E+00
  2.20000000E+02  4.80000000E+01  0.00000000E+00
  2.30000000E+02  4.80000000E+01  0.00000000E+00
  2.40000000E+02  4.80000000E+01  0.00000000E+00
  2.50000000E+02  4.80000000E+01  0.00000000E+00
  2.60000000E+02  4.80000000E+01  0.00000000E+00
  2.70000000E+02  4.80000000E+01  0.00000000E+00
  2.80000000E+02  4.80000000E+01  0.00000000E+00
  2.90000000E+02  4.80000000E+01  0.00000000E+00
  3.00000000E+02  4.80000000E+01  0.00000000E+00
  3.10000000E+02  4.80000000E+01  0.00000000E+00
  3.20000000E+02  4.80000000E+01  0.00000000E+00
  3.30000000E+02  4.80000000E+01  0.00000000E+00
  3.40000000E+02  4.80000000E+01  0.00000000E+00
  3.50000000E+02  4.80000000E+01  0.00000000E+00
  3.60000000E+02  4.80000000E+01  0.00000000E+00
  3.70000000E+02  4.80000000E+01  0.00000000E+00
  3.80000000E+02  4.80000000E+01  0.00000000E+00
  3.90000000E+02  4.80000000E+01  0.00000000E+00
  4.00000000E+02  4.80000000E+01  0.00000000E+00
  4.10000000E+02  4.80000000E+01  0.00000000E+00
  4.20000000E+02  4.80000000E+01  0.00000000E+00
  4.30000000E+02  4.80000000E+01  0.00000000E+00
  4.40000000E+02  4.80000000E+01  0.00000000E+00
  4.50000000E+02  4.80000000E+01  0.00000000E+00
  4.60000000E+02  4.80000000E+01  0.00000000E+00
  4.70000000E+02  4.80000000E+01  0.00000000E+00
  4.80000000E+02  4.80000000E+01  0.00000000E+00
  4.90000000E+02  4.80000000E+01  0.00000000E+00
  5.00000000E+02  4.80000000E+01  0.00000000E+00
  5.10000000E+02  4.80000000E+01  0.00000000E+00
  5.20000000E+02  4.80000000E+01  0.00000000E+00
  5.30000000E+02  4.80000000E+01  0.00000000E+00
  5.40000000E+02  4.80000000E+01  0.00000000E+00
  5.50000000E+02  4.80000000E+01  0.00000000E+00
  5.60000000E+02  4.80000000E+01  0.00000000E+00
  5.70000000E+02  4.80000000E+01  0.00000000E+00
  5.80000000E+02  4.80000000E+01  0.00000000E+00
  5.90000000E+02  4.80000000E+01  0.00000000E+00
  6.00000000E+02  4.80000000E+01  0.00000000E+00
  6.10000000E+02  4.80000000E+01  0.00000000E+00
  6.20000000E+02  4.80000000E+01  0.00000000E+00
  6.30000000E+02  4.80000000E+01  0.00000000E+00
  6.40000000E+02  4.80000000E+01  0.00000000E+00
  6.50000000E+02  4.80000000E+01  0.00000000E+00
  6.60000000E+02  4.80000000E+01  0.00000000E+00
  6.70000000E+02  4.80000000E+01  0.00000000E+00
  6.80000000E+02  4.80000000E+01  0.00000000E+00
  6.90000000E+02  4.80000000E+01  0.00000000E+00
  7.00000000E+02  4.80000000E+01  0.00000000E+00
  7.10000000E+02  4.80000000E+01  0.00000000E+00
  7.20000000E+02  4.80000000E+01  0.00000000E+00
  7.30000000E+02  4.80000000E+01  0.00000000E+00
  7.40000000E+02  4.80000000E+01  0.00000000E+00
  7.50000000E+02  4.80000000E+01  0.00000000E+00
  7.60000000E+02  4.80000000E+01  0.00000000E+00
  7.70000000E+02  4.80000000E+01  0.00000000E+00
  7.80000000E+02  4.80000000E+01  0.00000000E+00
  7.90000000E+02  4.80000000E+01  0.00000000E+00
  8.00000000E+02  4.80000000E+01  0.00000000E+00
  8.10000000E+02  4.80000000E+01  0.00000000E+00
  8.20000000E+02  4.80000000E+01  0.00000000E+00
  8.30000000E+02  4.80000000E+01  0.00000000E+00
  8.40000000E+02  4.80000000E+01  0.00000000E+00
  8.50000000E+02  4.80000000E+01  0.00000000E+00
  8.60000000E+02  4.80000000E+01  0.00000000E+00
  8.70000000E+02  4.80000000E+01  0.00000000E+00
  8.80000000E+02  4.80000000E+01  0.00000000E+00
  8.90000000E+02  4.80000000E+01  0.00000000E+00
  9.00000000E+02  4.80000000E+01  0.00000000E+00
  9.10000000E+02  4.80000000E+01  0.00000000E+00
  9.20000000E+02  4.80000000E+01  0.00000000E+00
  9.30000000E+02  4.80000000E+01  0.00000000E+00
  9.40000000E+02  4.80000000E+01  0.00000000E+00
  9.50000000E+02  4.80000000E+01  0.00000000E+00
  9.60000000E+02  4.80000000E+01  0.00000000E+00
  9.70000000E+02  4.80000000E+01  0.00000000E+00
  9.80000000E+02  4.80000000E+01  0.00000000E+00
  9.90000000E+02  4.80000000E+01  0.00000000E+00
  1.00000000E+03  4.80000000E+01  0.00000000E+00
  0.00000000E+00  5.00000000E+01  0.00000000E+00
  1.00000000E+01  5.00000000E+01  0.00000000E+00
  2.00000000E+01  5.00000000E+01  0.00000000E+00
  3.00000000E+01  5.00000000E+01  0.00000000E+00
  4.00000000E+01  5.00000000E+01  0.00000000E+00
  5.00000000E+01  5.00000000E+01  0.00000000E+00
  6.00000000E+01  5.00000000E+01  0.00000000E+00
  7.00000000E+01  5.00000000E+01  0.00000000E+00
  8.00000000E+01  5.00000000E+01  0.00000000E+00
  9.00000000E+01  5.00000000E+01  0.00000000E+00
  1.00000000E+02  5.00000000E+01  0.00000000E+00
  1.10000000E+02  5.00000000E+01  0.00000000E+00
  1.20000000E+02  5.00000000E+01  0.00000000E+00
  1.30000000E+02  5.00000000E+01  0.00000000E+00
  1.40000000E+02  5.00000000E+01  0.00000000E+00
  1.50000000E+02  5.00000000E+01  0.00000000E+00
  1.60000000E+02  5.00000000E+01  0.00000000E+00
  1.70000000E+02  5.00000000E+01  0.00000000E+00
  1.80000000E+02  5.00000000E+01  0.00000000E+00
  1.90000000E+02  5.00000000E+01  0.00000000E+00
  2.00000000E+02  5.00000000E+01  0.00000000E+00
  2.10000000E+02  5.00000000E+01  0.00000000E+00
  2.20000000E+02  5.00000000E+01  0.00000000E+00
  2.30000000E+02  5.00000000E+01  0.00000000E+00
  2.40000000E+02  5.00000000E+01  0.00000000E+00
  2.50000000E+02  5.00000000E+01  0.00000000E+00
  2.60000000E+02  5.00000000E+01  0.00000000E+00
  2.70000000E+02  5.00000000E+01  0.00000000E+00
  2.80000000E+02  5.00000000E+01  0.00000000E+00
  2.90000000E+02  5.00000000E+01  0.00000000E+00
  3.00000000E+02  5.00000000E+01  0.00000000E+00
  3.10000000E+02  5.00000000E+01  0.00000000E+00
  3.20000000E+02  5.00000000E+01  0.00000000E+00
  3.30000000E+02  5.00000000E+01  0.00000000E+00
  3.40000000E+02  5.00000000E+01  0.00000000E+00
  3.50000000E+02  5.00000000E+01  0.00000000E+00
  3.60000000E+02  5.00000000E+01  0.00000000E+00
  3.70000000E+02  5.00000000E+01  0.00000000E+00
  3.80000000E+02  5.00000000E+01  0.00000000E+00
  3.90000000E+02  5.00000000E+01  0.00000000E+00
  4.00000000E+02  5.00000000E+01  0.00000000E+00
  4.10000000E+02  5.00000000E+01  0.00000000E+00
  4.20000000E+02  5.00000000E+01  0.00000000E+00
  4.30000000E+02  5.00000000E+01  0.00000000E+00
  4.40000000E+02  5.00000000E+01  0.00000000E+00
  4.50000000E+02  5.00000000E+01  0.00000000E+00
  4.60000000E+02  5.00000000E+01  0.00000000E+00
  4.70000000E+02  5.00000000E+01  0.00000000E+00
  4.80000000E+02  5.00000000E+01  0.00000000E+00
  4.90000000E+02  5.00000000E+01  0.00000000E+00
  5.00000000E+02  5.00000000E+01  0.00000000E+00
  5.10000000E+02  5.00000000E+01  0.00000000E+00
  5.20000000E+02  5.00000000E+01  0.00000000E+00
  5.30000000E+02  5.00000000E+01  0.00000000E+00
  5.40000000E+02  5.00000000E+01  0.00000000E+00
  5.50000000E+02  5.00000000E+01  0.00000000E+00
  5.60000000E+02  5.00000000E+01  0.00000000E+00
  5.70000000E+02  5.00000000E+01  0.00000000E+00
  5.80000000E+02  5.00000000E+01  0.00000000E+00
  5.90000000E+02  5.00000000E+01  0.00000000E+00
  6.00000000E+02  5.00000000E+01  0.00000000E+00
  6.10000000E+02  5.00000000E+01  0.00000000E+00
  6.20000000E+02  5.00000000E+01  0.00000000E+00
  6.30000000E+02  5.00000000E+01  0.00000000E+00
  6.40000000E+02  5.00000000E+01  0.00000000E+00
  6.50000000E+02  5.00000000E+01  0.00000000E+00
  6.60000000E+02  5.00000000E+01  0.00000000E+00
  6.70000000E+02  5.00000000E+01  0.00000000E+00
  6.80000000E+02  5.00000000E+01  0.00000000E+00
  6.90000000E+02  5.00000000E+01  0.00000000E+00
  7.00000000E+02  5.00000000E+01  0.00000000E+00
  7.10000000E+02  5.00000000E+01  0.00000000E+00
  7.20000000E+02  5.00000000E+01  0.00000000E+00
  7.30000000E+02  5.00000000E+01  0.00000000E+00
  7.40000000E+02  5.00000000E+01  0.00000000E+00
  7.50000000E+02  5.00000000E+01  0.00000000E+00
  7.60000000E+02  5.00000000E+01  0.00000000E+00
  7.70000000E+02  5.00000000E+01  0.00000000E+00
  7.80000000E+02  5.00000000E+01  0.00000000E+00
  7.90000000E+02  5.00000000E+01  0.00000000E+00
  8.00000000E+02  5.00000000E+01  0.00000000E+00
  8.10000000E+02  5.00000000E+01  0.00000000E+00
  8.20000000E+02  5.00000000E+01  0.00000000E+00
  8.30000000E+02  5.00000000E+01  0.00000000E+00
  8.40000000E+02  5.00000000E+01  0.00000000E+00
  8.50000000E+02  5.00000000E+01  0.00000000E+00
  8.60000000E+02  5.00000000E+01  0.00000000E+00
  8.70000000E+02  5.00000000E+01  0.00000000E+00
  8.80000000E+02  5.00000000E+01  0.00000000E+00
  8.90000000E+02  5.00000000E+01  0.00000000E+00
  9.00000000E+02  5.00000000E+01  0.00000000E+00
  9.10000000E+02  5.00000000E+01  0.00000000E+00
  9.20000000E+02  5.00000000E+01  0.00000000E+00
  9.30000000E+02  5.00000000E+01  0.00000000E+00
  9.40000000E+02  5.00000000E+01  0.00000000E+00
  9.50000000E+02  5.00000000E+01  0.00000000E+00
  9.60000000E+02  5.00000000E+01  0.00000000E+00
  9.70000000E+02  5.00000000E+01  0.00000000E+00
  9.80000000E+02  5.00000000E+01  0.00000000E+00
  9.90000000E+02  5.00000000E+01  0.00000000E+00
  1.00000000E+03  5.00000000E+01  0.00000000E+00
  0.00000000E+00  5.20000000E+01  0.00000000E+00
  1.00000000E+01  5.20000000E+01  0.00000000E+00
  2.00000000E+01  5.20000000E+01  0.00000000E+00
  3.00000000E+01  5.20000000E+01  0.00000000E+00
  4.00000000E+01  5.20000000E+01  0.00000000E+00
  5.00000000E+01  5.20000000E+01  0.00000000E+00
  6.00000000E+01  5.20000000E+01  0.00000000E+00
  7.00000000E+01  5.20000000E+01  0.00000000E+00
  8.00000000E+01  5.20000000E+01  0.00000000E+00
  9.00000000E+01  5.20000000E+01  0.00000000E+00
  1.00000000E+02  5.20000000E+01  0.00000000E+00
  1.10000000E+02  5.20000000E+01  0.00000000E+00
  1.20000000E+02  5.20000000E+01  0.00000000E+00
  1.30000000E+02  5.20000000E+01  0.00000000E+00
  1.40000000E+02  5.20000000E+01  0.00000000E+00
  1.50000000E+02  5.20000000E+01  0.00000000E+00
  1.60000000E+02  5.20000000E+01  0.00000000E+00
  1.70000000E+02  5.20000000E+01  0.00000000E+00
  1.80000000E+02  5.20000000E+01  0.00000000E+00
  1.90000000E+02  5.20000000E+01  0.00000000E+00
  2.00000000E+02  5.20000000E+01  0.00000000E+00
  2.10000000E+02  5.20000000E+01  0.00000000E+00
  2.20000000E+02  5.20000000E+01  0.00000000E+00
  2.30000000E+02  5.20000000E+01  0.00000000E+00
  2.40000000E+02  5.20000000E+01  0.00000000E+00
  2.50000000E+02  5.20000000E+01  0.00000000E+00
  2.60000000E+02  5.20000000E+01  0.00000000E+00
  2.70000000E+02  5.20000000E+01  0.00000000E+00
  2.80000000E+02  5.20000000E+01  0.00000000E+00
  2.90000000E+02  5.20000000E+01  0.00000000E+00
  3.00000000E+02  5.20000000E+01  0.00000000E+00
  3.10000000E+02  5.20000000E+01  0.00000000E+00
  3.20000000E+02  5.20000000E+01  0.00000000E+00
  3.30000000E+02  5.20000000E+01  0.00000000E+00
  3.40000000E+02  5.20000000E+01  0.00000000E+00
  3.50000000E+02  5.20000000E+01  0.00000000E+00
  3.60000000E+02  5.20000000E+01  0.00000000E+00
  3.70000000E+02  5.20000000E+01  0.00000000E+00
  3.80000000E+02  5.20000000E+01  0.00000000E+00
  3.90000000E+02  5.20000000E+01  0.00000000E+00
  4.00000000E+02  5.20000000E+01  0.00000000E+00
  4.10000000E+02  5.20000000E+01  0.00000000E+00
  4.20000000E+02  5.20000000E+01  0.00000000E+00
  4.30000000E+02  5.20000000E+01  0.00000000E+00
  4.40000000E+02  5.20000000E+01  0.00000000E+00
  4.50000000E+02  5.20000000E+01  0.00000000E+00
  4.60000000E+02  5.20000000E+01  0.00000000E+00
  4.70000000E+02  5.20000000E+01  0.00000000E+00
  4.80000000E+02  5.20000000E+01  0.00000000E+00
  4.90000000E+02  5.20000000E+01  0.00000000E+00
  5.00000000E+02  5.20000000E+01  0.00000000E+00
  5.10000000E+02  5.20000000E+01  0.00000000E+00
  5.20000000E+02  5.20000000E+01  0.00000000E+00
  5.30000000E+02  5.20000000E+01  0.00000000E+00
  5.40000000E+02  5.20000000E+01  0.00000000E+00
  5.50000000E+02  5.20000000E+01  0.00000000E+00
  5.60000000E+02  5.20000000E+01  0.00000000E+00
  5.70000000E+02  5.20000000E+01  0.00000000E+00
  5.80000000E+02  5.20000000E+01  0.00000000E+00
  5.90000000E+02  5.20000000E+01  0.00000000E+00
  6.00000000E+02  5.20000000E+01  0.00000000E+00
  6.10000000E+02  5.20000000E+01  0.00000000E+00
  6.20000000E+02  5.20000000E+01  0.00000000E+00
  6.30000000E+02  5.20000000E+01  0.00000000E+00
  6.40000000E+02  5.20000000E+01  0.00000000E+00
  6.50000000E+02  5.20000000E+01  0.00000000E+00
  6.60000000E+02  5.20000000E+01  0.00000000E+00
  6.70000000E+02  5.20000000E+01  0.00000000E+00
  6.80000000E+02  5.20000000E+01  0.00000000E+00
  6.90000000E+02  5.20000000E+01  0.00000000E+00
  7.00000000E+02  5.20000000E+01  0.00000000E+00
  7.10000000E+02  5.20000000E+01  0.00000000E+00
  7.20000000E+02  5.20000000E+01  0.00000000E+00
  7.30000000E+02  5.20000000E+01  0.00000000E+00
  7.40000000E+02  5.20000000E+01  0.00000000E+00
  7.50000000E+02  5.20000000E+01  0.00000000E+00
  7.60000000E+02  5.20000000E+01  0.00000000E+00
  7.70000000E+02  5.20000000E+01  0.00000000E+00
  7.80000000E+02  5.20000000E+01  0.00000000E+00
  7.90000000E+02  5.20000000E+01  0.00000000E+00
  8.00000000E+02  5.20000000E+01  0.00000000E+00
  8.10000000E+02  5.20000000E+01  0.00000000E+00
  8.20000000E+02  5.20000000E+01  0.00000000E+00
  8.30000000E+02  5.20000000E+01  0.00000000E+00
  8.40000000E+02  5.20000000E+01  0.00000000E+00
  8.50000000E+02  5.20000000E+01  0.00000000E+00
  8.60000000E+02  5.20000000E+01  0.00000000E+00
  8.70000000E+02  5.20000000E+01  0.00000000E+00
  8.80000000E+02  5.20000000E+01  0.00000000E+00
  8.90000000E+02  5.20000000E+01  0.00000000E+00
  9.00000000E+02  5.20000000E+01  0.00000000E+00
  9.10000000E+02  5.20000000E+01  0.00000000E+00
  9.20000000E+02  5.20000000E+01  0.00000000E+00
  9.30000000E+02  5.20000000E+01  0.00000000E+00
  9.40000000E+02  5.20000000E+01  0.00000000E+00
  9.50000000E+02  5.20000000E+01  0.00000000E+00
  9.60000000E+02  5.20000000E+01  0.00000000E+00
  9.70000000E+02  5.20000000E+01  0.00000000E+00
  9.80000000E+02  5.20000000E+01  0.00000000E+00
  9.90000000E+02  5.20000000E+01  0.00000000E+00
  1.00000000E+03  5.20000000E+01  0.00000000E+00
  0.00000000E+00  5.40000000E+01  0.00000000E+00
  1.00000000E+01  5.40000000E+01  0.00000000E+00
  2.00000000E+01  5.40000000E+01  0.00000000E+00
  3.00000000E+01  5.40000000E+01  0.00000000E+00
  4.00000000E+01  5.40000000E+01  0.00000000E+00
  5.00000000E+01  5.40000000E+01  0.00000000E+00
  6.00000000E+01  5.40000000E+01  0.00000000E+00
  7.00000000E+01  5.40000000E+01  0.00000000E+00
  8.00000000E+01  5.40000000E+01  0.00000000E+00
  9.00000000E+01  5.40000000E+01  0.00000000E+00
  1.00000000E+02  5.40000000E+01  0.00000000E+00
  1.10000000E+02  5.40000000E+01  0.00000000E+00
  1.20000000E+02  5.40000000E+01  0.00000000E+00
  1.30000000E+02  5.40000000E+01  0.00000000E+00
  1.40000000E+02  5.40000000E+01  0.00000000E+00
  1.50000000E+02  5.40000000E+01  0.00000000E+00
  1.60000000E+02  5.40000000E+01  0.00000000E+00
  1.70000000E+02  5.40000000E+01  0.00000000E+00
  1.80000000E+02  5.40000000E+01  0.00000000E+00
  1.90000000E+02  5.40000000E+01  0.00000000E+00
  2.00000000E+02  5.40000000E+01  0.00000000E+00
  2.10000000E+02  5.40000000E+01  0.00000000E+00
  2.20000000E+02  5.40000000E+01  0.00000000E+00
  2.30000000E+02  5.40000000E+01  0.00000000E+00
  2.40000000E+02  5.40000000E+01  0.00000000E+00
  2.50000000E+02  5.40000000E+01  0.00000000E+00
  2.60000000E+02  5.40000000E+01  0.00000000E+00
  2.70000000E+02  5.40000000E+01  0.00000000E+00
  2.80000000E+02  5.40000000E+01  0.00000000E+00
  2.90000000E+02  5.40000000E+01  0.00000000E+00
  3.00000000E+02  5.40000000E+01  0.00000000E+00
  3.10000000E+02  5.40000000E+01  0.00000000E+00
  3.20000000E+02  5.40000000E+01  0.00000000E+00
  3.30000000E+02  5.40000000E+01  0.00000000E+00
  3.40000000E+02  5.40000000E+01  0.00000000E+00
  3.50000000E+02  5.40000000E+01  0.00000000E+00
  3.60000000E+02  5.40000000E+01  0.00000000E+00
  3.70000000E+02  5.40000000E+01  0.00000000E+00
  3.80000000E+02  5.40000000E+01  0.00000000E+00
  3.90000000E+02  5.40000000E+01  0.00000000E+00
  4.00000000E+02  5.40000000E+01  0.00000000E+00
  4.10000000E+02  5.40000000E+01  0.00000000E+00
  4.20000000E+02  5.40000000E+01  0.00000000E+00
  4.30000000E+02  5.40000000E+01  0.00000000E+00
  4.40000000E+02  5.40000000E+01  0.00000000E+00
  4.50000000E+02  5.40000000E+01  0.00000000E+00
  4.60000000E+02  5.40000000E+01  0.00000000E+00
  4.70000000E+02  5.40000000E+01  0.00000000E+00
  4.80000000E+02  5.40000000E+01  0.00000000E+00
  4.90000000E+02  5.40000000E+01  0.00000000E+00
  5.00000000E+02  5.40000000E+01  0.00000000E+00
  5.10000000E+02  5.40000000E+01  0.00000000E+00
  5.20000000E+02  5.40000000E+01  0.00000000E+00
  5.30000000E+02  5.40000000E+01  0.00000000E+00
  5.40000000E+02  5.40000000E+01  0.00000000E+00
  5.50000000E+02  5.40000000E+01  0.00000000E+00
  5.60000000E+02  5.40000000E+01  0.00000000E+00
  5.70000000E+02  5.40000000E+01  0.00000000E+00
  5.80000000E+02  5.40000000E+01  0.00000000E+00
  5.90000000E+02  5.40000000E+01  0.00000000E+00
  6.00000000E+02  5.40000000E+01  0.00000000E+00
  6.10000000E+02  5.40000000E+01  0.00000000E+00
  6.20000000E+02  5.40000000E+01  0.00000000E+00
  6.30000000E+02  5.40000000E+01  0.00000000E+00
  6.40000000E+02  5.40000000E+01  0.00000000E+00
  6.50000000E+02  5.40000000E+01  0.00000000E+00
  6.60000000E+02  5.40000000E+01  0.00000000E+00
  6.70000000E+02  5.40000000E+01  0.00000000E+00
  6.80000000E+02  5.40000000E+01  0.00000000E+00
  6.90000000E+02  5.40000000E+01  0.00000000E+00
  7.00000000E+02  5.40000000E+01  0.00000000E+00
  7.10000000E+02  5.40000000E+01  0.00000000E+00
  7.20000000E+02  5.40000000E+01  0.00000000E+00
  7.30000000E+02  5.40000000E+01  0.00000000E+00
  7.40000000E+02  5.40000000E+01  0.00000000E+00
  7.50000000E+02  5.40000000E+01  0.00000000E+00
  7.60000000E+02  5.40000000E+01  0.00000000E+00
  7.70000000E+02  5.40000000E+01  0.00000000E+00
  7.80000000E+02  5.40000000E+01  0.00000000E+00
  7.90000000E+02  5.40000000E+01  0.00000000E+00
  8.00000000E+02  5.40000000E+01  0.00000000E+00
  8.10000000E+02  5.40000000E+01  0.00000000E+00
  8.20000000E+02  5.40000000E+01  0.00000000E+00
  8.30000000E+02  5.40000000E+01  0.00000000E+00
  8.40000000E+02  5.40000000E+01  0.00000000E+00
  8.50000000E+02  5.40000000E+01  0.00000000E+00
  8.60000000E+02  5.40000000E+01  0.00000000E+00
  8.70000000E+02  5.40000000E+01  0.00000000E+00
  8.80000000E+02  5.40000000E+01  0.00000000E+00
  8.90000000E+02  5.40000000E+01  0.00000000E+00
  9.00000000E+02  5.40000000E+01  0.00000000E+00
  9.10000000E+02  5.40000000E+01  0.00000000E+00
  9.20000000E+02  5.40000000E+01  0.00000000E+00
  9.30000000E+02  5.40000000E+01  0.00000000E+00
  9.40000000E+02  5.40000000E+01  0.00000000E+00
  9.50000000E+02  5.40000000E+01  0.00000000E+00
  9.60000000E+02  5.40000000E+01  0.00000000E+00
  9.70000000E+02  5.40000000E+01  0.00000000E+00
  9.80000000E+02  5.40000000E+01  0.00000000E+00
  9.90000000E+02  5.40000000E+01  0.00000000E+00
  1.00000000E+03  5.40000000E+01  0.00000000E+00
  0.00000000E+00  5.60000000E+01  0.00000000E+00
  1.00000000E+01  5.60000000E+01  0.00000000E+00
  2.00000000E+01  5.60000000E+01  0.00000000E+00
  3.00000000E+01  5.60000000E+01  0.00000000E+00
  4.00000000E+01  5.60000000E+01  0.00000000E+00
  5.00000000E+01  5.60000000E+01  0.00000000E+00
  6.00000000E+01  5.60000000E+01  0.00000000E+00
  7.00000000E+01  5.60000000E+01  0.00000000E+00
  8.00000000E+01  5.60000000E+01  0.00000000E+00
  9.00000000E+01  5.60000000E+01  0.00000000E+00
  1.00000000E+02  5.60000000E+01  0.00000000E+00
  1.10000000E+02  5.60000000E+01  0.00000000E+00
  1.20000000E+02  5.60000000E+01  0.00000000E+00
  1.30000000E+02  5.60000000E+01  0.00000000E+00
  1.40000000E+02  5.60000000E+01  0.00000000E+00
  1.50000000E+02  5.60000000E+01  0.00000000E+00
  1.60000000E+02  5.60000000E+01  0.00000000E+00
  1.70000000E+02  5.60000000E+01  0.00000000E+00
  1.80000000E+02  5.60000000E+01  0.00000000E+00
  1.90000000E+02  5.60000000E+01  0.00000000E+00
  2.00000000E+02  5.60000000E+01  0.00000000E+00
  2.10000000E+02  5.60000000E+01  0.00000000E+00
  2.20000000E+02  5.60000000E+01  0.00000000E+00
  2.30000000E+02  5.60000000E+01  0.00000000E+00
  2.40000000E+02  5.60000000E+01  0.00000000E+00
  2.50000000E+02  5.60000000E+01  0.00000000E+00
  2.60000000E+02  5.60000000E+01  0.00000000E+00
  2.70000000E+02  5.60000000E+01  0.00000000E+00
  2.80000000E+02  5.60000000E+01  0.00000000E+00
  2.90000000E+02  5.60000000E+01  0.00000000E+00
  3.00000000E+02  5.60000000E+01  0.00000000E+00
  3.10000000E+02  5.60000000E+01  0.00000000E+00
  3.20000000E+02  5.60000000E+01  0.00000000E+00
  3.30000000E+02  5.60000000E+01  0.00000000E+00
  3.40000000E+02  5.60000000E+01  0.00000000E+00
  3.50000000E+02  5.60000000E+01  0.00000000E+00
  3.60000000E+02  5.60000000E+01  0.00000000E+00
  3.70000000E+02  5.60000000E+01  0.00000000E+00
  3.80000000E+02  5.60000000E+01  0.00000000E+00
  3.90000000E+02  5.60000000E+01  0.00000000E+00
  4.00000000E+02  5.60000000E+01  0.00000000E+00
  4.10000000E+02  5.60000000E+01  0.00000000E+00
  4.20000000E+02  5.60000000E+01  0.00000000E+00
  4.30000000E+02  5.60000000E+01  0.00000000E+00
  4.40000000E+02  5.60000000E+01  0.00000000E+00
  4.50000000E+02  5.60000000E+01  0.00000000E+00
  4.60000000E+02  5.60000000E+01  0.00000000E+00
  4.70000000E+02  5.60000000E+01  0.00000000E+00
  4.80000000E+02  5.60000000E+01  0.00000000E+00
  4.90000000E+02  5.60000000E+01  0.00000000E+00
  5.00000000E+02  5.60000000E+01  0.00000000E+00
  5.10000000E+02  5.60000000E+01  0.00000000E+00
  5.20000000E+02  5.60000000E+01  0.00000000E+00
  5.30000000E+02  5.60000000E+01  0.00000000E+00
  5.40000000E+02  5.60000000E+01  0.00000000E+00
  5.50000000E+02  5.60000000E+01  0.00000000E+00
  5.60000000E+02  5.60000000E+01  0.00000000E+00
  5.70000000E+02  5.60000000E+01  0.00000000E+00
  5.80000000E+02  5.60000000E+01  0.00000000E+00
  5.90000000E+02  5.60000000E+01  0.00000000E+00
  6.00000000E+02  5.60000000E+01  0.00000000E+00
  6.10000000E+02  5.60000000E+01  0.00000000E+00
  6.20000000E+02  5.60000000E+01  0.00000000E+00
  6.30000000E+02  5.60000000E+01  0.00000000E+00
  6.40000000E+02  5.60000000E+01  0.00000000E+00
  6.50000000E+02  5.60000000E+01  0.00000000E+00
  6.60000000E+02  5.60000000E+01  0.00000000E+00
  6.70000000E+02  5.60000000E+01  0.00000000E+00
  6.80000000E+02  5.60000000E+01  0.00000000E+00
  6.90000000E+02  5.60000000E+01  0.00000000E+00
  7.00000000E+02  5.60000000E+01  0.00000000E+00
  7.10000000E+02  5.60000000E+01  0.00000000E+00
  7.20000000E+02  5.60000000E+01  0.00000000E+00
  7.30000000E+02  5.60000000E+01  0.00000000E+00
  7.40000000E+02  5.60000000E+01  0.00000000E+00
  7.50000000E+02  5.60000000E+01  0.00000000E+00
  7.60000000E+02  5.60000000E+01  0.00000000E+00
  7.70000000E+02  5.60000000E+01  0.00000000E+00
  7.80000000E+02  5.60000000E+01  0.00000000E+00
  7.90000000E+02  5.60000000E+01  0.00000000E+00
  8.00000000E+02  5.60000000E+01  0.00000000E+00
  8.10000000E+02  5.60000000E+01  0.00000000E+00
  8.20000000E+02  5.60000000E+01  0.00000000E+00
  8.30000000E+02  5.60000000E+01  0.00000000E+00
  8.40000000E+02  5.60000000E+01  0.00000000E+00
  8.50000000E+02  5.60000000E+01  0.00000000E+00
  8.60000000E+02  5.60000000E+01  0.00000000E+00
  8.70000000E+02  5.60000000E+01  0.00000000E+00
  8.80000000E+02  5.60000000E+01  0.00000000E+00
  8.90000000E+02  5.60000000E+01  0.00000000E+00
  9.00000000E+02  5.60000000E+01  0.00000000E+00
  9.10000000E+02  5.60000000E+01  0.00000000E+00
  9.20000000E+02  5.60000000E+01  0.00000000E+00
  9.30000000E+02  5.60000000E+01  0.00000000E+00
  9.40000000E+02  5.60000000E+01  0.00000000E+00
  9.50000000E+02  5.60000000E+01  0.00000000E+00
  9.60000000E+02  5.60000000E+01  0.00000000E+00
  9.70000000E+02  5.60000000E+01  0.00000000E+00
  9.80000000E+02  5.60000000E+01  0.00000000E+00
  9.90000000E+02  5.60000000E+01  0.00000000E+00
  1.00000000E+03  5.60000000E+01  0.00000000E+00
  0.00000000E+00  5.80000000E+01  0.00000000E+00
  1.00000000E+01  5.80000000E+01  0.00000000E+00
  2.00000000E+01  5.80000000E+01  0.00000000E+00
  3.00000000E+01  5.80000000E+01  0.00000000E+00
  4.00000000E+01  5.80000000E+01  0.00000000E+00
  5.00000000E+01  5.80000000E+01  0.00000000E+00
  6.00000000E+01  5.80000000E+01  0.00000000E+00
  7.00000000E+01  5.80000000E+01  0.00000000E+00
  8.00000000E+01  5.80000000E+01  0.00000000E+00
  9.00000000E+01  5.80000000E+01  0.00000000E+00
  1.00000000E+02  5.80000000E+01  0.00000000E+00
  1.10000000E+02  5.80000000E+01  0.00000000E+00
  1.20000000E+02  5.80000000E+01  0.00000000E+00
  1.30000000E+02  5.80000000E+01  0.00000000E+00
  1.40000000E+02  5.80000000E+01  0.00000000E+00
  1.50000000E+02  5.80000000E+01  0.00000000E+00
  1.60000000E+02  5.80000000E+01  0.00000000E+00
  1.70000000E+02  5.80000000E+01  0.00000000E+00
  1.80000000E+02  5.80000000E+01  0.00000000E+00
  1.90000000E+02  5.80000000E+01  0.00000000E+00
  2.00000000E+02  5.80000000E+01  0.00000000E+00
  2.10000000E+02  5.80000000E+01  0.00000000E+00
  2.20000000E+02  5.80000000E+01  0.00000000E+00
  2.30000000E+02  5.80000000E+01  0.00000000E+00
  2.40000000E+02  5.80000000E+01  0.00000000E+00
  2.50000000E+02  5.80000000E+01  0.00000000E+00
  2.60000000E+02  5.80000000E+01  0.00000000E+00
  2.70000000E+02  5.80000000E+01  0.00000000E+00
  2.80000000E+02  5.80000000E+01  0.00000000E+00
  2.90000000E+02  5.80000000E+01  0.00000000E+00
  3.00000000E+02  5.80000000E+01  0.00000000E+00
  3.10000000E+02  5.80000000E+01  0.00000000E+00
  3.20000000E+02  5.80000000E+01  0.00000000E+00
  3.30000000E+02  5.80000000E+01  0.00000000E+00
  3.40000000E+02  5.80000000E+01  0.00000000E+00
  3.50000000E+02  5.80000000E+01  0.00000000E+00
  3.60000000E+02  5.80000000E+01  0.00000000E+00
  3.70000000E+02  5.80000000E+01  0.00000000E+00
  3.80000000E+02  5.80000000E+01  0.00000000E+00
  3.90000000E+02  5.80000000E+01  0.00000000E+00
  4.00000000E+02  5.80000000E+01  0.00000000E+00
  4.10000000E+02  5.80000000E+01  0.00000000E+00
  4.20000000E+02  5.80000000E+01  0.00000000E+00
  4.30000000E+02  5.80000000E+01  0.00000000E+00
  4.40000000E+02  5.80000000E+01  0.00000000E+00
  4.50000000E+02  5.80000000E+01  0.00000000E+00
  4.60000000E+02  5.80000000E+01  0.00000000E+00
  4.70000000E+02  5.80000000E+01  0.00000000E+00
  4.80000000E+02  5.80000000E+01  0.00000000E+00
  4.90000000E+02  5.80000000E+01  0.00000000E+00
  5.00000000E+02  5.80000000E+01  0.00000000E+00
  5.10000000E+02  5.80000000E+01  0.00000000E+00
  5.20000000E+02  5.80000000E+01  0.00000000E+00
  5.30000000E+02  5.80000000E+01  0.00000000E+00
  5.40000000E+02  5.80000000E+01  0.00000000E+00
  5.50000000E+02  5.80000000E+01  0.00000000E+00
  5.60000000E+02  5.80000000E+01  0.00000000E+00
  5.70000000E+02  5.80000000E+01  0.00000000E+00
  5.80000000E+02  5.80000000E+01  0.00000000E+00
  5.90000000E+02  5.80000000E+01  0.00000000E+00
  6.00000000E+02  5.80000000E+01  0.00000000E+00
  6.10000000E+02  5.80000000E+01  0.00000000E+00
  6.20000000E+02  5.80000000E+01  0.00000000E+00
  6.30000000E+02  5.80000000E+01  0.00000000E+00
  6.40000000E+02  5.80000000E+01  0.00000000E+00
  6.50000000E+02  5.80000000E+01  0.00000000E+00
  6.60000000E+02  5.80000000E+01  0.00000000E+00
  6.70000000E+02  5.80000000E+01  0.00000000E+00
  6.80000000E+02  5.80000000E+01  0.00000000E+00
  6.90000000E+02  5.80000000E+01  0.00000000E+00
  7.00000000E+02  5.80000000E+01  0.00000000E+00
  7.10000000E+02  5.80000000E+01  0.00000000E+00
  7.20000000E+02  5.80000000E+01  0.00000000E+00
  7.30000000E+02  5.80000000E+01  0.00000000E+00
  7.40000000E+02  5.80000000E+01  0.00000000E+00
  7.50000000E+02  5.80000000E+01  0.00000000E+00
  7.60000000E+02  5.80000000E+01  0.00000000E+00
  7.70000000E+02  5.80000000E+01  0.00000000E+00
  7.80000000E+02  5.80000000E+01  0.00000000E+00
  7.90000000E+02  5.80000000E+01  0.00000000E+00
  8.00000000E+02  5.80000000E+01  0.00000000E+00
  8.10000000E+02  5.80000000E+01  0.00000000E+00
  8.20000000E+02  5.80000000E+01  0.00000000E+00
  8.30000000E+02  5.80000000E+01  0.00000000E+00
  8.40000000E+02  5.80000000E+01  0.00000000E+00
  8.50000000E+02  5.80000000E+01  0.00000000E+00
  8.60000000E+02  5.80000000E+01  0.00000000E+00
  8.70000000E+02  5.80000000E+01  0.00000000E+00
  8.80000000E+02  5.80000000E+01  0.00000000E+00
  8.90000000E+02  5.80000000E+01  0.00000000E+00
  9.00000000E+02  5.80000000E+01  0.00000000E+00
  9.10000000E+02  5.80000000E+01  0.00000000E+00
  9.20000000E+02  5.80000000E+01  0.00000000E+00
  9.30000000E+02  5.80000000E+01  0.00000000E+00
  9.40000000E+02  5.80000000E+01  0.00000000E+00
  9.50000000E+02  5.80000000E+01  0.00000000E+00
  9.60000000E+02  5.80000000E+01  0.00000000E+00
  9.70000000E+02  5.80000000E+01  0.00000000E+00
  9.80000000E+02  5.80000000E+01  0.00000000E+00
  9.90000000E+02  5.80000000E+01  0.00000000E+00
  1.00000000E+03  5.80000000E+01  0.00000000E+00
  0.00000000E+00  6.00000000E+01  0.00000000E+00
  1.00000000E+01  6.00000000E+01  0.00000000E+00
  2.00000000E+01  6.00000000E+01  0.00000000E+00
  3.00000000E+01  6.00000000E+01  0.00000000E+00
  4.00000000E+01  6.00000000E+01  0.00000000E+00
  5.00000000E+01  6.00000000E+01  0.00000000E+00
  6.00000000E+01  6.00000000E+01  0.00000000E+00
  7.00000000E+01  6.00000000E+01  0.00000000E+00
  8.00000000E+01  6.00000000E+01  0.00000000E+00
  9.00000000E+01  6.00000000E+01  0.00000000E+00
  1.00000000E+02  6.00000000E+01  0.00000000E+00
  1.10000000E+02  6.00000000E+01  0.00000000E+00
  1.20000000E+02  6.00000000E+01  0.00000000E+00
  1.30000000E+02  6.00000000E+01  0.00000000E+00
  1.40000000E+02  6.00000000E+01  0.00000000E+00
  1.50000000E+02  6.00000000E+01  0.00000000E+00
  1.60000000E+02  6.00000000E+01  0.00000000E+00
  1.70000000E+02  6.00000000E+01  0.00000000E+00
  1.80000000E+02  6.00000000E+01  0.00000000E+00
  1.90000000E+02  6.00000000E+01  0.00000000E+00
  2.00000000E+02  6.00000000E+01  0.00000000E+00
  2.10000000E+02  6.00000000E+01  0.00000000E+00
  2.20000000E+02  6.00000000E+01  0.00000000E+00
  2.30000000E+02  6.00000000E+01  0.00000000E+00
  2.40000000E+02  6.00000000E+01  0.00000000E+00
  2.50000000E+02  6.00000000E+01  0.00000000E+00
  2.60000000E+02  6.00000000E+01  0.00000000E+00
  2.70000000E+02  6.00000000E+01  0.00000000E+00
  2.80000000E+02  6.00000000E+01  0.00000000E+00
  2.90000000E+02  6.00000000E+01  0.00000000E+00
  3.00000000E+02  6.00000000E+01  0.00000000E+00
  3.10000000E+02  6.00000000E+01  0.00000000E+00
  3.20000000E+02  6.00000000E+01  0.00000000E+00
  3.30000000E+02  6.00000000E+01  0.00000000E+00
  3.40000000E+02  6.00000000E+01  0.00000000E+00
  3.50000000E+02  6.00000000E+01  0.00000000E+00
  3.60000000E+02  6.00000000E+01  0.00000000E+00
  3.70000000E+02  6.00000000E+01  0.00000000E+00
  3.80000000E+02  6.00000000E+01  0.00000000E+00
  3.90000000E+02  6.00000000E+01  0.00000000E+00
  4.00000000E+02  6.00000000E+01  0.00000000E+00
  4.10000000E+02  6.00000000E+01  0.00000000E+00
  4.20000000E+02  6.00000000E+01  0.00000000E+00
  4.30000000E+02  6.00000000E+01  0.00000000E+00
  4.40000000E+02  6.00000000E+01  0.00000000E+00
  4.50000000E+02  6.00000000E+01  0.00000000E+00
  4.60000000E+02  6.00000000E+01  0.00000000E+00
  4.70000000E+02  6.00000000E+01  0.00000000E+00
  4.80000000E+02  6.00000000E+01  0.00000000E+00
  4.90000000E+02  6.00000000E+01  0.00000000E+00
  5.00000000E+02  6.00000000E+01  0.00000000E+00
  5.10000000E+02  6.00000000E+01  0.00000000E+00
  5.20000000E+02  6.00000000E+01  0.00000000E+00
  5.30000000E+02  6.00000000E+01  0.00000000E+00
  5.40000000E+02  6.00000000E+01  0.00000000E+00
  5.50000000E+02  6.00000000E+01  0.00000000E+00
  5.60000000E+02  6.00000000E+01  0.00000000E+00
  5.70000000E+02  6.00000000E+01  0.00000000E+00
  5.80000000E+02  6.00000000E+01  0.00000000E+00
  5.90000000E+02  6.00000000E+01  0.00000000E+00
  6.00000000E+02  6.00000000E+01  0.00000000E+00
  6.10000000E+02  6.00000000E+01  0.00000000E+00
  6.20000000E+02  6.00000000E+01  0.00000000E+00
  6.30000000E+02  6.00000000E+01  0.00000000E+00
  6.40000000E+02  6.00000000E+01  0.00000000E+00
  6.50000000E+02  6.00000000E+01  0.00000000E+00
  6.60000000E+02  6.00000000E+01  0.00000000E+00
  6.70000000E+02  6.00000000E+01  0.00000000E+00
  6.80000000E+02  6.00000000E+01  0.00000000E+00
  6.90000000E+02  6.00000000E+01  0.00000000E+00
  7.00000000E+02  6.00000000E+01  0.00000000E+00
  7.10000000E+02  6.00000000E+01  0.00000000E+00
  7.20000000E+02  6.00000000E+01  0.00000000E+00
  7.30000000E+02  6.00000000E+01  0.00000000E+00
  7.40000000E+02  6.00000000E+01  0.00000000E+00
  7.50000000E+02  6.00000000E+01  0.00000000E+00
  7.60000000E+02  6.00000000E+01  0.00000000E+00
  7.70000000E+02  6.00000000E+01  0.00000000E+00
  7.80000000E+02  6.00000000E+01  0.00000000E+00
  7.90000000E+02  6.00000000E+01  0.00000000E+00
  8.00000000E+02  6.00000000E+01  0.00000000E+00
  8.10000000E+02  6.00000000E+01  0.00000000E+00
  8.20000000E+02  6.00000000E+01  0.00000000E+00
  8.30000000E+02  6.00000000E+01  0.00000000E+00
  8.40000000E+02  6.00000000E+01  0.00000000E+00
  8.50000000E+02  6.00000000E+01  0.00000000E+00
  8.60000000E+02  6.00000000E+01  0.00000000E+00
  8.70000000E+02  6.00000000E+01  0.00000000E+00
  8.80000000E+02  6.00000000E+01  0.00000000E+00
  8.90000000E+02  6.00000000E+01  0.00000000E+00
  9.00000000E+02  6.00000000E+01  0.00000000E+00
  9.10000000E+02  6.00000000E+01  0.00000000E+00
  9.20000000E+02  6.00000000E+01  0.00000000E+00
  9.30000000E+02  6.00000000E+01  0.00000000E+00
  9.40000000E+02  6.00000000E+01  0.00000000E+00
  9.50000000E+02  6.00000000E+01  0.00000000E+00
  9.60000000E+02  6.00000000E+01  0.00000000E+00
  9.70000000E+02  6.00000000E+01  0.00000000E+00
  9.80000000E+02  6.00000000E+01  0.00000000E+00
  9.90000000E+02  6.00000000E+01  0.00000000E+00
  1.00000000E+03  6.00000000E+01  0.00000000E+00
  0.00000000E+00  6.20000000E+01  0.00000000E+00
  1.00000000E+01  6.20000000E+01  0.00000000E+00
  2.00000000E+01  6.20000000E+01  0.00000000E+00
  3.00000000E+01  6.20000000E+01  0.00000000E+00
  4.00000000E+01  6.20000000E+01  0.00000000E+00
  5.00000000E+01  6.20000000E+01  0.00000000E+00
  6.00000000E+01  6.20000000E+01  0.00000000E+00
  7.00000000E+01  6.20000000E+01  0.00000000E+00
  8.00000000E+01  6.20000000E+01  0.00000000E+00
  9.00000000E+01  6.20000000E+01  0.00000000E+00
  1.00000000E+02  6.20000000E+01  0.00000000E+00
  1.10000000E+02  6.20000000E+01  0.00000000E+00
  1.20000000E+02  6.20000000E+01  0.00000000E+00
  1.30000000E+02  6.20000000E+01  0.00000000E+00
  1.40000000E+02  6.20000000E+01  0.00000000E+00
  1.50000000E+02  6.20000000E+01  0.00000000E+00
  1.60000000E+02  6.20000000E+01  0.00000000E+00
  1.70000000E+02  6.20000000E+01  0.00000000E+00
  1.80000000E+02  6.20000000E+01  0.00000000E+00
  1.90000000E+02  6.20000000E+01  0.00000000E+00
  2.00000000E+02  6.20000000E+01  0.00000000E+00
  2.10000000E+02  6.20000000E+01  0.00000000E+00
  2.20000000E+02  6.20000000E+01  0.00000000E+00
  2.30000000E+02  6.20000000E+01  0.00000000E+00
  2.40000000E+02  6.20000000E+01  0.00000000E+00
  2.50000000E+02  6.20000000E+01  0.00000000E+00
  2.60000000E+02  6.20000000E+01  0.00000000E+00
  2.70000000E+02  6.20000000E+01  0.00000000E+00
  2.80000000E+02  6.20000000E+01  0.00000000E+00
  2.90000000E+02  6.20000000E+01  0.00000000E+00
  3.00000000E+02  6.20000000E+01  0.00000000E+00
  3.10000000E+02  6.20000000E+01  0.00000000E+00
  3.20000000E+02  6.20000000E+01  0.00000000E+00
  3.30000000E+02  6.20000000E+01  0.00000000E+00
  3.40000000E+02  6.20000000E+01  0.00000000E+00
  3.50000000E+02  6.20000000E+01  0.00000000E+00
  3.60000000E+02  6.20000000E+01  0.00000000E+00
  3.70000000E+02  6.20000000E+01  0.00000000E+00
  3.80000000E+02  6.20000000E+01  0.00000000E+00
  3.90000000E+02  6.20000000E+01  0.00000000E+00
  4.00000000E+02  6.20000000E+01  0.00000000E+00
  4.10000000E+02  6.20000000E+01  0.00000000E+00
  4.20000000E+02  6.20000000E+01  0.00000000E+00
  4.30000000E+02  6.20000000E+01  0.00000000E+00
  4.40000000E+02  6.20000000E+01  0.00000000E+00
  4.50000000E+02  6.20000000E+01  0.00000000E+00
  4.60000000E+02  6.20000000E+01  0.00000000E+00
  4.70000000E+02  6.20000000E+01  0.00000000E+00
  4.80000000E+02  6.20000000E+01  0.00000000E+00
  4.90000000E+02  6.20000000E+01  0.00000000E+00
  5.00000000E+02  6.20000000E+01  0.00000000E+00
  5.10000000E+02  6.20000000E+01  0.00000000E+00
  5.20000000E+02  6.20000000E+01  0.00000000E+00
  5.30000000E+02  6.20000000E+01  0.00000000E+00
  5.40000000E+02  6.20000000E+01  0.00000000E+00
  5.50000000E+02  6.20000000E+01  0.00000000E+00
  5.60000000E+02  6.20000000E+01  0.00000000E+00
  5.70000000E+02  6.20000000E+01  0.00000000E+00
  5.80000000E+02  6.20000000E+01  0.00000000E+00
  5.90000000E+02  6.20000000E+01  0.00000000E+00
  6.00000000E+02  6.20000000E+01  0.00000000E+00
  6.10000000E+02  6.20000000E+01  0.00000000E+00
  6.20000000E+02  6.20000000E+01  0.00000000E+00
  6.30000000E+02  6.20000000E+01  0.00000000E+00
  6.40000000E+02  6.20000000E+01  0.00000000E+00
  6.50000000E+02  6.20000000E+01  0.00000000E+00
  6.60000000E+02  6.20000000E+01  0.00000000E+00
  6.70000000E+02  6.20000000E+01  0.00000000E+00
  6.80000000E+02  6.20000000E+01  0.00000000E+00
  6.90000000E+02  6.20000000E+01  0.00000000E+00
  7.00000000E+02  6.20000000E+01  0.00000000E+00
  7.10000000E+02  6.20000000E+01  0.00000000E+00
  7.20000000E+02  6.20000000E+01  0.00000000E+00
  7.30000000E+02  6.20000000E+01  0.00000000E+00
  7.40000000E+02  6.20000000E+01  0.00000000E+00
  7.50000000E+02  6.20000000E+01  0.00000000E+00
  7.60000000E+02  6.20000000E+01  0.00000000E+00
  7.70000000E+02  6.20000000E+01  0.00000000E+00
  7.80000000E+02  6.20000000E+01  0.00000000E+00
  7.90000000E+02  6.20000000E+01  0.00000000E+00
  8.00000000E+02  6.20000000E+01  0.00000000E+00
  8.10000000E+02  6.20000000E+01  0.00000000E+00
  8.20000000E+02  6.20000000E+01  0.00000000E+00
  8.30000000E+02  6.20000000E+01  0.00000000E+00
  8.40000000E+02  6.20000000E+01  0.00000000E+00
  8.50000000E+02  6.20000000E+01  0.00000000E+00
  8.60000000E+02  6.20000000E+01  0.00000000E+00
  8.70000000E+02  6.20000000E+01  0.00000000E+00
  8.80000000E+02  6.20000000E+01  0.00000000E+00
  8.90000000E+02  6.20000000E+01  0.00000000E+00
  9.00000000E+02  6.20000000E+01  0.00000000E+00
  9.10000000E+02  6.20000000E+01  0.00000000E+00
  9.20000000E+02  6.20000000E+01  0.00000000E+00
  9.30000000E+02  6.20000000E+01  0.00000000E+00
  9.40000000E+02  6.20000000E+01  0.00000000E+00
  9.50000000E+02  6.20000000E+01  0.00000000E+00
  9.60000000E+02  6.20000000E+01  0.00000000E+00
  9.70000000E+02  6.20000000E+01  0.00000000E+00
  9.80000000E+02  6.20000000E+01  0.00000000E+00
  9.90000000E+02  6.20000000E+01  0.00000000E+00
  1.00000000E+03  6.20000000E+01  0.00000000E+00
  0.00000000E+00  6.40000000E+01  0.00000000E+00
  1.00000000E+01  6.40000000E+01  0.00000000E+00
  2.00000000E+01  6.40000000E+01  0.00000000E+00
  3.00000000E+01  6.40000000E+01  0.00000000E+00
  4.00000000E+01  6.40000000E+01  0.00000000E+00
  5.00000000E+01  6.40000000E+01  0.00000000E+00
  6.00000000E+01  6.40000000E+01  0.00000000E+00
  7.00000000E+01  6.40000000E+01  0.00000000E+00
  8.00000000E+01  6.40000000E+01  0.00000000E+00
  9.00000000E+01  6.40000000E+01  0.00000000E+00
  1.00000000E+02  6.40000000E+01  0.00000000E+00
  1.10000000E+02  6.40000000E+01  0.00000000E+00
  1.20000000E+02  6.40000000E+01  0.00000000E+00
  1.30000000E+02  6.40000000E+01  0.00000000E+00
  1.40000000E+02  6.40000000E+01  0.00000000E+00
  1.50000000E+02  6.40000000E+01  0.00000000E+00
  1.60000000E+02  6.40000000E+01  0.00000000E+00
  1.70000000E+02  6.40000000E+01  0.00000000E+00
  1.80000000E+02  6.40000000E+01  0.00000000E+00
  1.90000000E+02  6.40000000E+01  0.00000000E+00
  2.00000000E+02  6.40000000E+01  0.00000000E+00
  2.10000000E+02  6.40000000E+01  0.00000000E+00
  2.20000000E+02  6.40000000E+01  0.00000000E+00
  2.30000000E+02  6.40000000E+01  0.00000000E+00
  2.40000000E+02  6.40000000E+01  0.00000000E+00
  2.50000000E+02  6.40000000E+01  0.00000000E+00
  2.60000000E+02  6.40000000E+01  0.00000000E+00
  2.70000000E+02  6.40000000E+01  0.00000000E+00
  2.80000000E+02  6.40000000E+01  0.00000000E+00
  2.90000000E+02  6.40000000E+01  0.00000000E+00
  3.00000000E+02  6.40000000E+01  0.00000000E+00
  3.10000000E+02  6.40000000E+01  0.00000000E+00
  3.20000000E+02  6.40000000E+01  0.00000000E+00
  3.30000000E+02  6.40000000E+01  0.00000000E+00
  3.40000000E+02  6.40000000E+01  0.00000000E+00
  3.50000000E+02  6.40000000E+01  0.00000000E+00
  3.60000000E+02  6.40000000E+01  0.00000000E+00
  3.70000000E+02  6.40000000E+01  0.00000000E+00
  3.80000000E+02  6.40000000E+01  0.00000000E+00
  3.90000000E+02  6.40000000E+01  0.00000000E+00
  4.00000000E+02  6.40000000E+01  0.00000000E+00
  4.10000000E+02  6.40000000E+01  0.00000000E+00
  4.20000000E+02  6.40000000E+01  0.00000000E+00
  4.30000000E+02  6.40000000E+01  0.00000000E+00
  4.40000000E+02  6.40000000E+01  0.00000000E+00
  4.50000000E+02  6.40000000E+01  0.00000000E+00
  4.60000000E+02  6.40000000E+01  0.00000000E+00
  4.70000000E+02  6.40000000E+01  0.00000000E+00
  4.80000000E+02  6.40000000E+01  0.00000000E+00
  4.90000000E+02  6.40000000E+01  0.00000000E+00
  5.00000000E+02  6.40000000E+01  0.00000000E+00
  5.10000000E+02  6.40000000E+01  0.00000000E+00
  5.20000000E+02  6.40000000E+01  0.00000000E+00
  5.30000000E+02  6.40000000E+01  0.00000000E+00
  5.40000000E+02  6.40000000E+01  0.00000000E+00
  5.50000000E+02  6.40000000E+01  0.00000000E+00
  5.60000000E+02  6.40000000E+01  0.00000000E+00
  5.70000000E+02  6.40000000E+01  0.00000000E+00
  5.80000000E+02  6.40000000E+01  0.00000000E+00
  5.90000000E+02  6.40000000E+01  0.00000000E+00
  6.00000000E+02  6.40000000E+01  0.00000000E+00
  6.10000000E+02  6.40000000E+01  0.00000000E+00
  6.20000000E+02  6.40000000E+01  0.00000000E+00
  6.30000000E+02  6.40000000E+01  0.00000000E+00
  6.40000000E+02  6.40000000E+01  0.00000000E+00
  6.50000000E+02  6.40000000E+01  0.00000000E+00
  6.60000000E+02  6.40000000E+01  0.00000000E+00
  6.70000000E+02  6.40000000E+01  0.00000000E+00
  6.80000000E+02  6.40000000E+01  0.00000000E+00
  6.90000000E+02  6.40000000E+01  0.00000000E+00
  7.00000000E+02  6.40000000E+01  0.00000000E+00
  7.10000000E+02  6.40000000E+01  0.00000000E+00
  7.20000000E+02  6.40000000E+01  0.00000000E+00
  7.30000000E+02  6.40000000E+01  0.00000000E+00
  7.40000000E+02  6.40000000E+01  0.00000000E+00
  7.50000000E+02  6.40000000E+01  0.00000000E+00
  7.60000000E+02  6.40000000E+01  0.00000000E+00
  7.70000000E+02  6.40000000E+01  0.00000000E+00
  7.80000000E+02  6.40000000E+01  0.00000000E+00
  7.90000000E+02  6.40000000E+01  0.00000000E+00
  8.00000000E+02  6.40000000E+01  0.00000000E+00
  8.10000000E+02  6.40000000E+01  0.00000000E+00
  8.20000000E+02  6.40000000E+01  0.00000000E+00
  8.30000000E+02  6.40000000E+01  0.00000000E+00
  8.40000000E+02  6.40000000E+01  0.00000000E+00
  8.50000000E+02  6.40000000E+01  0.00000000E+00
  8.60000000E+02  6.40000000E+01  0.00000000E+00
  8.70000000E+02  6.40000000E+01  0.00000000E+00
  8.80000000E+02  6.40000000E+01  0.00000000E+00
  8.90000000E+02  6.40000000E+01  0.00000000E+00
  9.00000000E+02  6.40000000E+01  0.00000000E+00
  9.10000000E+02  6.40000000E+01  0.00000000E+00
  9.20000000E+02  6.40000000E+01  0.00000000E+00
  9.30000000E+02  6.40000000E+01  0.00000000E+00
  9.40000000E+02  6.40000000E+01  0.00000000E+00
  9.50000000E+02  6.40000000E+01  0.00000000E+00
  9.60000000E+02  6.40000000E+01  0.00000000E+00
  9.70000000E+02  6.40000000E+01  0.00000000E+00
  9.80000000E+02  6.40000000E+01  0.00000000E+00
  9.90000000E+02  6.40000000E+01  0.00000000E+00
  1.00000000E+03  6.40000000E+01  0.00000000E+00
  0.00000000E+00  6.60000000E+01  0.00000000E+00
  1.00000000E+01  6.60000000E+01  0.00000000E+00
  2.00000000E+01  6.60000000E+01  0.00000000E+00
  3.00000000E+01  6.60000000E+01  0.00000000E+00
  4.00000000E+01  6.60000000E+01  0.00000000E+00
  5.00000000E+01  6.60000000E+01  0.00000000E+00
  6.00000000E+01  6.60000000E+01  0.00000000E+00
  7.00000000E+01  6.60000000E+01  0.00000000E+00
  8.00000000E+01  6.60000000E+01  0.00000000E+00
  9.00000000E+01  6.60000000E+01  0.00000000E+00
  1.00000000E+02  6.60000000E+01  0.00000000E+00
  1.10000000E+02  6.60000000E+01  0.00000000E+00
  1.20000000E+02  6.60000000E+01  0.00000000E+00
  1.30000000E+02  6.60000000E+01  0.00000000E+00
  1.40000000E+02  6.60000000E+01  0.00000000E+00
  1.50000000E+02  6.60000000E+01  0.00000000E+00
  1.60000000E+02  6.60000000E+01  0.00000000E+00
  1.70000000E+02  6.60000000E+01  0.00000000E+00
  1.80000000E+02  6.60000000E+01  0.00000000E+00
  1.90000000E+02  6.60000000E+01  0.00000000E+00
  2.00000000E+02  6.60000000E+01  0.00000000E+00
  2.10000000E+02  6.60000000E+01  0.00000000E+00
  2.20000000E+02  6.60000000E+01  0.00000000E+00
  2.30000000E+02  6.60000000E+01  0.00000000E+00
  2.40000000E+02  6.60000000E+01  0.00000000E+00
  2.50000000E+02  6.60000000E+01  0.00000000E+00
  2.60000000E+02  6.60000000E+01  0.00000000E+00
  2.70000000E+02  6.60000000E+01  0.00000000E+00
  2.80000000E+02  6.60000000E+01  0.00000000E+00
  2.90000000E+02  6.60000000E+01  0.00000000E+00
  3.00000000E+02  6.60000000E+01  0.00000000E+00
  3.10000000E+02  6.60000000E+01  0.00000000E+00
  3.20000000E+02  6.60000000E+01  0.00000000E+00
  3.30000000E+02  6.60000000E+01  0.00000000E+00
  3.40000000E+02  6.60000000E+01  0.00000000E+00
  3.50000000E+02  6.60000000E+01  0.00000000E+00
  3.60000000E+02  6.60000000E+01  0.00000000E+00
  3.70000000E+02  6.60000000E+01  0.00000000E+00
  3.80000000E+02  6.60000000E+01  0.00000000E+00
  3.90000000E+02  6.60000000E+01  0.00000000E+00
  4.00000000E+02  6.60000000E+01  0.00000000E+00
  4.10000000E+02  6.60000000E+01  0.00000000E+00
  4.20000000E+02  6.60000000E+01  0.00000000E+00
  4.30000000E+02  6.60000000E+01  0.00000000E+00
  4.40000000E+02  6.60000000E+01  0.00000000E+00
  4.50000000E+02  6.60000000E+01  0.00000000E+00
  4.60000000E+02  6.60000000E+01  0.00000000E+00
  4.70000000E+02  6.60000000E+01  0.00000000E+00
  4.80000000E+02  6.60000000E+01  0.00000000E+00
  4.90000000E+02  6.60000000E+01  0.00000000E+00
  5.00000000E+02  6.60000000E+01  0.00000000E+00
  5.10000000E+02  6.60000000E+01  0.00000000E+00
  5.20000000E+02  6.60000000E+01  0.00000000E+00
  5.30000000E+02  6.60000000E+01  0.00000000E+00
  5.40000000E+02  6.60000000E+01  0.00000000E+00
  5.50000000E+02  6.60000000E+01  0.00000000E+00
  5.60000000E+02  6.60000000E+01  0.00000000E+00
  5.70000000E+02  6.60000000E+01  0.00000000E+00
  5.80000000E+02  6.60000000E+01  0.00000000E+00
  5.90000000E+02  6.60000000E+01  0.00000000E+00
  6.00000000E+02  6.60000000E+01  0.00000000E+00
  6.10000000E+02  6.60000000E+01  0.00000000E+00
  6.20000000E+02  6.60000000E+01  0.00000000E+00
  6.30000000E+02  6.60000000E+01  0.00000000E+00
  6.40000000E+02  6.60000000E+01  0.00000000E+00
  6.50000000E+02  6.60000000E+01  0.00000000E+00
  6.60000000E+02  6.60000000E+01  0.00000000E+00
  6.70000000E+02  6.60000000E+01  0.00000000E+00
  6.80000000E+02  6.60000000E+01  0.00000000E+00
  6.90000000E+02  6.60000000E+01  0.00000000E+00
  7.00000000E+02  6.60000000E+01  0.00000000E+00
  7.10000000E+02  6.60000000E+01  0.00000000E+00
  7.20000000E+02  6.60000000E+01  0.00000000E+00
  7.30000000E+02  6.60000000E+01  0.00000000E+00
  7.40000000E+02  6.60000000E+01  0.00000000E+00
  7.50000000E+02  6.60000000E+01  0.00000000E+00
  7.60000000E+02  6.60000000E+01  0.00000000E+00
  7.70000000E+02  6.60000000E+01  0.00000000E+00
  7.80000000E+02  6.60000000E+01  0.00000000E+00
  7.90000000E+02  6.60000000E+01  0.00000000E+00
  8.00000000E+02  6.60000000E+01  0.00000000E+00
  8.10000000E+02  6.60000000E+01  0.00000000E+00
  8.20000000E+02  6.60000000E+01  0.00000000E+00
  8.30000000E+02  6.60000000E+01  0.00000000E+00
  8.40000000E+02  6.60000000E+01  0.00000000E+00
  8.50000000E+02  6.60000000E+01  0.00000000E+00
  8.60000000E+02  6.60000000E+01  0.00000000E+00
  8.70000000E+02  6.60000000E+01  0.00000000E+00
  8.80000000E+02  6.60000000E+01  0.00000000E+00
  8.90000000E+02  6.60000000E+01  0.00000000E+00
  9.00000000E+02  6.60000000E+01  0.00000000E+00
  9.10000000E+02  6.60000000E+01  0.00000000E+00
  9.20000000E+02  6.60000000E+01  0.00000000E+00
  9.30000000E+02  6.60000000E+01  0.00000000E+00
  9.40000000E+02  6.60000000E+01  0.00000000E+00
  9.50000000E+02  6.60000000E+01  0.00000000E+00
  9.60000000E+02  6.60000000E+01  0.00000000E+00
  9.70000000E+02  6.60000000E+01  0.00000000E+00
  9.80000000E+02  6.60000000E+01  0.00000000E+00
  9.90000000E+02  6.60000000E+01  0.00000000E+00
  1.00000000E+03  6.60000000E+01  0.00000000E+00
  0.00000000E+00  6.80000000E+01  0.00000000E+00
  1.00000000E+01  6.80000000E+01  0.00000000E+00
  2.00000000E+01  6.80000000E+01  0.00000000E+00
  3.00000000E+01  6.80000000E+01  0.00000000E+00
  4.00000000E+01  6.80000000E+01  0.00000000E+00
  5.00000000E+01  6.80000000E+01  0.00000000E+00
  6.00000000E+01  6.80000000E+01  0.00000000E+00
  7.00000000E+01  6.80000000E+01  0.00000000E+00
  8.00000000E+01  6.80000000E+01  0.00000000E+00
  9.00000000E+01  6.80000000E+01  0.00000000E+00
  1.00000000E+02  6.80000000E+01  0.00000000E+00
  1.10000000E+02  6.80000000E+01  0.00000000E+00
  1.20000000E+02  6.80000000E+01  0.00000000E+00
  1.30000000E+02  6.80000000E+01  0.00000000E+00
  1.40000000E+02  6.80000000E+01  0.00000000E+00
  1.50000000E+02  6.80000000E+01  0.00000000E+00
  1.60000000E+02  6.80000000E+01  0.00000000E+00
  1.70000000E+02  6.80000000E+01  0.00000000E+00
  1.80000000E+02  6.80000000E+01  0.00000000E+00
  1.90000000E+02  6.80000000E+01  0.00000000E+00
  2.00000000E+02  6.80000000E+01  0.00000000E+00
  2.10000000E+02  6.80000000E+01  0.00000000E+00
  2.20000000E+02  6.80000000E+01  0.00000000E+00
  2.30000000E+02  6.80000000E+01  0.00000000E+00
  2.40000000E+02  6.80000000E+01  0.00000000E+00
  2.50000000E+02  6.80000000E+01  0.00000000E+00
  2.60000000E+02  6.80000000E+01  0.00000000E+00
  2.70000000E+02  6.80000000E+01  0.00000000E+00
  2.80000000E+02  6.80000000E+01  0.00000000E+00
  2.90000000E+02  6.80000000E+01  0.00000000E+00
  3.00000000E+02  6.80000000E+01  0.00000000E+00
  3.10000000E+02  6.80000000E+01  0.00000000E+00
  3.20000000E+02  6.80000000E+01  0.00000000E+00
  3.30000000E+02  6.80000000E+01  0.00000000E+00
  3.40000000E+02  6.80000000E+01  0.00000000E+00
  3.50000000E+02  6.80000000E+01  0.00000000E+00
  3.60000000E+02  6.80000000E+01  0.00000000E+00
  3.70000000E+02  6.80000000E+01  0.00000000E+00
  3.80000000E+02  6.80000000E+01  0.00000000E+00
  3.90000000E+02  6.80000000E+01  0.00000000E+00
  4.00000000E+02  6.80000000E+01  0.00000000E+00
  4.10000000E+02  6.80000000E+01  0.00000000E+00
  4.20000000E+02  6.80000000E+01  0.00000000E+00
  4.30000000E+02  6.80000000E+01  0.00000000E+00
  4.40000000E+02  6.80000000E+01  0.00000000E+00
  4.50000000E+02  6.80000000E+01  0.00000000E+00
  4.60000000E+02  6.80000000E+01  0.00000000E+00
  4.70000000E+02  6.80000000E+01  0.00000000E+00
  4.80000000E+02  6.80000000E+01  0.00000000E+00
  4.90000000E+02  6.80000000E+01  0.00000000E+00
  5.00000000E+02  6.80000000E+01  0.00000000E+00
  5.10000000E+02  6.80000000E+01  0.00000000E+00
  5.20000000E+02  6.80000000E+01  0.00000000E+00
  5.30000000E+02  6.80000000E+01  0.00000000E+00
  5.40000000E+02  6.80000000E+01  0.00000000E+00
  5.50000000E+02  6.80000000E+01  0.00000000E+00
  5.60000000E+02  6.80000000E+01  0.00000000E+00
  5.70000000E+02  6.80000000E+01  0.00000000E+00
  5.80000000E+02  6.80000000E+01  0.00000000E+00
  5.90000000E+02  6.80000000E+01  0.00000000E+00
  6.00000000E+02  6.80000000E+01  0.00000000E+00
  6.10000000E+02  6.80000000E+01  0.00000000E+00
  6.20000000E+02  6.80000000E+01  0.00000000E+00
  6.30000000E+02  6.80000000E+01  0.00000000E+00
  6.40000000E+02  6.80000000E+01  0.00000000E+00
  6.50000000E+02  6.80000000E+01  0.00000000E+00
  6.60000000E+02  6.80000000E+01  0.00000000E+00
  6.70000000E+02  6.80000000E+01  0.00000000E+00
  6.80000000E+02  6.80000000E+01  0.00000000E+00
  6.90000000E+02  6.80000000E+01  0.00000000E+00
  7.00000000E+02  6.80000000E+01  0.00000000E+00
  7.10000000E+02  6.80000000E+01  0.00000000E+00
  7.20000000E+02  6.80000000E+01  0.00000000E+00
  7.30000000E+02  6.80000000E+01  0.00000000E+00
  7.40000000E+02  6.80000000E+01  0.00000000E+00
  7.50000000E+02  6.80000000E+01  0.00000000E+00
  7.60000000E+02  6.80000000E+01  0.00000000E+00
  7.70000000E+02  6.80000000E+01  0.00000000E+00
  7.80000000E+02  6.80000000E+01  0.00000000E+00
  7.90000000E+02  6.80000000E+01  0.00000000E+00
  8.00000000E+02  6.80000000E+01  0.00000000E+00
  8.10000000E+02  6.80000000E+01  0.00000000E+00
  8.20000000E+02  6.80000000E+01  0.00000000E+00
  8.30000000E+02  6.80000000E+01  0.00000000E+00
  8.40000000E+02  6.80000000E+01  0.00000000E+00
  8.50000000E+02  6.80000000E+01  0.00000000E+00
  8.60000000E+02  6.80000000E+01  0.00000000E+00
  8.70000000E+02  6.80000000E+01  0.00000000E+00
  8.80000000E+02  6.80000000E+01  0.00000000E+00
  8.90000000E+02  6.80000000E+01  0.00000000E+00
  9.00000000E+02  6.80000000E+01  0.00000000E+00
  9.10000000E+02  6.80000000E+01  0.00000000E+00
  9.20000000E+02  6.80000000E+01  0.00000000E+00
  9.30000000E+02  6.80000000E+01  0.00000000E+00
  9.40000000E+02  6.80000000E+01  0.00000000E+00
  9.50000000E+02  6.80000000E+01  0.00000000E+00
  9.60000000E+02  6.80000000E+01  0.00000000E+00
  9.70000000E+02  6.80000000E+01  0.00000000E+00
  9.80000000E+02  6.80000000E+01  0.00000000E+00
  9.90000000E+02  6.80000000E+01  0.00000000E+00
  1.00000000E+03  6.80000000E+01  0.00000000E+00
  0.00000000E+00  7.00000000E+01  0.00000000E+00
  1.00000000E+01  7.00000000E+01  0.00000000E+00
  2.00000000E+01  7.00000000E+01  0.00000000E+00
  3.00000000E+01  7.00000000E+01  0.00000000E+00
  4.00000000E+01  7.00000000E+01  0.00000000E+00
  5.00000000E+01  7.00000000E+01  0.00000000E+00
  6.00000000E+01  7.00000000E+01  0.00000000E+00
  7.00000000E+01  7.00000000E+01  0.00000000E+00
  8.00000000E+01  7.00000000E+01  0.00000000E+00
  9.00000000E+01  7.00000000E+01  0.00000000E+00
  1.00000000E+02  7.00000000E+01  0.00000000E+00
  1.10000000E+02  7.00000000E+01  0.00000000E+00
  1.20000000E+02  7.00000000E+01  0.00000000E+00
  1.30000000E+02  7.00000000E+01  0.00000000E+00
  1.40000000E+02  7.00000000E+01  0.00000000E+00
  1.50000000E+02  7.00000000E+01  0.00000000E+00
  1.60000000E+02  7.00000000E+01  0.00000000E+00
  1.70000000E+02  7.00000000E+01  0.00000000E+00
  1.80000000E+02  7.00000000E+01  0.00000000E+00
  1.90000000E+02  7.00000000E+01  0.00000000E+00
  2.00000000E+02  7.00000000E+01  0.00000000E+00
  2.10000000E+02  7.00000000E+01  0.00000000E+00
  2.20000000E+02  7.00000000E+01  0.00000000E+00
  2.30000000E+02  7.00000000E+01  0.00000000E+00
  2.40000000E+02  7.00000000E+01  0.00000000E+00
  2.50000000E+02  7.00000000E+01  0.00000000E+00
  2.60000000E+02  7.00000000E+01  0.00000000E+00
  2.70000000E+02  7.00000000E+01  0.00000000E+00
  2.80000000E+02  7.00000000E+01  0.00000000E+00
  2.90000000E+02  7.00000000E+01  0.00000000E+00
  3.00000000E+02  7.00000000E+01  0.00000000E+00
  3.10000000E+02  7.00000000E+01  0.00000000E+00
  3.20000000E+02  7.00000000E+01  0.00000000E+00
  3.30000000E+02  7.00000000E+01  0.00000000E+00
  3.40000000E+02  7.00000000E+01  0.00000000E+00
  3.50000000E+02  7.00000000E+01  0.00000000E+00
  3.60000000E+02  7.00000000E+01  0.00000000E+00
  3.70000000E+02  7.00000000E+01  0.00000000E+00
  3.80000000E+02  7.00000000E+01  0.00000000E+00
  3.90000000E+02  7.00000000E+01  0.00000000E+00
  4.00000000E+02  7.00000000E+01  0.00000000E+00
  4.10000000E+02  7.00000000E+01  0.00000000E+00
  4.20000000E+02  7.00000000E+01  0.00000000E+00
  4.30000000E+02  7.00000000E+01  0.00000000E+00
  4.40000000E+02  7.00000000E+01  0.00000000E+00
  4.50000000E+02  7.00000000E+01  0.00000000E+00
  4.60000000E+02  7.00000000E+01  0.00000000E+00
  4.70000000E+02  7.00000000E+01  0.00000000E+00
  4.80000000E+02  7.00000000E+01  0.00000000E+00
  4.90000000E+02  7.00000000E+01  0.00000000E+00
  5.00000000E+02  7.00000000E+01  0.00000000E+00
  5.10000000E+02  7.00000000E+01  0.00000000E+00
  5.20000000E+02  7.00000000E+01  0.00000000E+00
  5.30000000E+02  7.00000000E+01  0.00000000E+00
  5.40000000E+02  7.00000000E+01  0.00000000E+00
  5.50000000E+02  7.00000000E+01  0.00000000E+00
  5.60000000E+02  7.00000000E+01  0.00000000E+00
  5.70000000E+02  7.00000000E+01  0.00000000E+00
  5.80000000E+02  7.00000000E+01  0.00000000E+00
  5.90000000E+02  7.00000000E+01  0.00000000E+00
  6.00000000E+02  7.00000000E+01  0.00000000E+00
  6.10000000E+02  7.00000000E+01  0.00000000E+00
  6.20000000E+02  7.00000000E+01  0.00000000E+00
  6.30000000E+02  7.00000000E+01  0.00000000E+00
  6.40000000E+02  7.00000000E+01  0.00000000E+00
  6.50000000E+02  7.00000000E+01  0.00000000E+00
  6.60000000E+02  7.00000000E+01  0.00000000E+00
  6.70000000E+02  7.00000000E+01  0.00000000E+00
  6.80000000E+02  7.00000000E+01  0.00000000E+00
  6.90000000E+02  7.00000000E+01  0.00000000E+00
  7.00000000E+02  7.00000000E+01  0.00000000E+00
  7.10000000E+02  7.00000000E+01  0.00000000E+00
  7.20000000E+02  7.00000000E+01  0.00000000E+00
  7.30000000E+02  7.00000000E+01  0.00000000E+00
  7.40000000E+02  7.00000000E+01  0.00000000E+00
  7.50000000E+02  7.00000000E+01  0.00000000E+00
  7.60000000E+02  7.00000000E+01  0.00000000E+00
  7.70000000E+02  7.00000000E+01  0.00000000E+00
  7.80000000E+02  7.00000000E+01  0.00000000E+00
  7.90000000E+02  7.00000000E+01  0.00000000E+00
  8.00000000E+02  7.00000000E+01  0.00000000E+00
  8.10000000E+02  7.00000000E+01  0.00000000E+00
  8.20000000E+02  7.00000000E+01  0.00000000E+00
  8.30000000E+02  7.00000000E+01  0.00000000E+00
  8.40000000E+02  7.00000000E+01  0.00000000E+00
  8.50000000E+02  7.00000000E+01  0.00000000E+00
  8.60000000E+02  7.00000000E+01  0.00000000E+00
  8.70000000E+02  7.00000000E+01  0.00000000E+00
  8.80000000E+02  7.00000000E+01  0.00000000E+00
  8.90000000E+02  7.00000000E+01  0.00000000E+00
  9.00000000E+02  7.00000000E+01  0.00000000E+00
  9.10000000E+02  7.00000000E+01  0.00000000E+00
  9.20000000E+02  7.00000000E+01  0.00000000E+00
  9.30000000E+02  7.00000000E+01  0.00000000E+00
  9.40000000E+02  7.00000000E+01  0.00000000E+00
  9.50000000E+02  7.00000000E+01  0.00000000E+00
  9.60000000E+02  7.00000000E+01  0.00000000E+00
  9.70000000E+02  7.00000000E+01  0.00000000E+00
  9.80000000E+02  7.00000000E+01  0.00000000E+00
  9.90000000E+02  7.00000000E+01  0.00000000E+00
  1.00000000E+03  7.00000000E+01  0.00000000E+00
  0.00000000E+00  7.20000000E+01  0.00000000E+00
  1.00000000E+01  7.20000000E+01  0.00000000E+00
  2.00000000E+01  7.20000000E+01  0.00000000E+00
  3.00000000E+01  7.20000000E+01  0.00000000E+00
  4.00000000E+01  7.20000000E+01  0.00000000E+00
  5.00000000E+01  7.20000000E+01  0.00000000E+00
  6.00000000E+01  7.20000000E+01  0.00000000E+00
  7.00000000E+01  7.20000000E+01  0.00000000E+00
  8.00000000E+01  7.20000000E+01  0.00000000E+00
  9.00000000E+01  7.20000000E+01  0.00000000E+00
  1.00000000E+02  7.20000000E+01  0.00000000E+00
  1.10000000E+02  7.20000000E+01  0.00000000E+00
  1.20000000E+02  7.20000000E+01  0.00000000E+00
  1.30000000E+02  7.20000000E+01  0.00000000E+00
  1.40000000E+02  7.20000000E+01  0.00000000E+00
  1.50000000E+02  7.20000000E+01  0.00000000E+00
  1.60000000E+02  7.20000000E+01  0.00000000E+00
  1.70000000E+02  7.20000000E+01  0.00000000E+00
  1.80000000E+02  7.20000000E+01  0.00000000E+00
  1.90000000E+02  7.20000000E+01  0.00000000E+00
  2.00000000E+02  7.20000000E+01  0.00000000E+00
  2.10000000E+02  7.20000000E+01  0.00000000E+00
  2.20000000E+02  7.20000000E+01  0.00000000E+00
  2.30000000E+02  7.20000000E+01  0.00000000E+00
  2.40000000E+02  7.20000000E+01  0.00000000E+00
  2.50000000E+02  7.20000000E+01  0.00000000E+00
  2.60000000E+02  7.20000000E+01  0.00000000E+00
  2.70000000E+02  7.20000000E+01  0.00000000E+00
  2.80000000E+02  7.20000000E+01  0.00000000E+00
  2.90000000E+02  7.20000000E+01  0.00000000E+00
  3.00000000E+02  7.20000000E+01  0.00000000E+00
  3.10000000E+02  7.20000000E+01  0.00000000E+00
  3.20000000E+02  7.20000000E+01  0.00000000E+00
  3.30000000E+02  7.20000000E+01  0.00000000E+00
  3.40000000E+02  7.20000000E+01  0.00000000E+00
  3.50000000E+02  7.20000000E+01  0.00000000E+00
  3.60000000E+02  7.20000000E+01  0.00000000E+00
  3.70000000E+02  7.20000000E+01  0.00000000E+00
  3.80000000E+02  7.20000000E+01  0.00000000E+00
  3.90000000E+02  7.20000000E+01  0.00000000E+00
  4.00000000E+02  7.20000000E+01  0.00000000E+00
  4.10000000E+02  7.20000000E+01  0.00000000E+00
  4.20000000E+02  7.20000000E+01  0.00000000E+00
  4.30000000E+02  7.20000000E+01  0.00000000E+00
  4.40000000E+02  7.20000000E+01  0.00000000E+00
  4.50000000E+02  7.20000000E+01  0.00000000E+00
  4.60000000E+02  7.20000000E+01  0.00000000E+00
  4.70000000E+02  7.20000000E+01  0.00000000E+00
  4.80000000E+02  7.20000000E+01  0.00000000E+00
  4.90000000E+02  7.20000000E+01  0.00000000E+00
  5.00000000E+02  7.20000000E+01  0.00000000E+00
  5.10000000E+02  7.20000000E+01  0.00000000E+00
  5.20000000E+02  7.20000000E+01  0.00000000E+00
  5.30000000E+02  7.20000000E+01  0.00000000E+00
  5.40000000E+02  7.20000000E+01  0.00000000E+00
  5.50000000E+02  7.20000000E+01  0.00000000E+00
  5.60000000E+02  7.20000000E+01  0.00000000E+00
  5.70000000E+02  7.20000000E+01  0.00000000E+00
  5.80000000E+02  7.20000000E+01  0.00000000E+00
  5.90000000E+02  7.20000000E+01  0.00000000E+00
  6.00000000E+02  7.20000000E+01  0.00000000E+00
  6.10000000E+02  7.20000000E+01  0.00000000E+00
  6.20000000E+02  7.20000000E+01  0.00000000E+00
  6.30000000E+02  7.20000000E+01  0.00000000E+00
  6.40000000E+02  7.20000000E+01  0.00000000E+00
  6.50000000E+02  7.20000000E+01  0.00000000E+00
  6.60000000E+02  7.20000000E+01  0.00000000E+00
  6.70000000E+02  7.20000000E+01  0.00000000E+00
  6.80000000E+02  7.20000000E+01  0.00000000E+00
  6.90000000E+02  7.20000000E+01  0.00000000E+00
  7.00000000E+02  7.20000000E+01  0.00000000E+00
  7.10000000E+02  7.20000000E+01  0.00000000E+00
  7.20000000E+02  7.20000000E+01  0.00000000E+00
  7.30000000E+02  7.20000000E+01  0.00000000E+00
  7.40000000E+02  7.20000000E+01  0.00000000E+00
  7.50000000E+02  7.20000000E+01  0.00000000E+00
  7.60000000E+02  7.20000000E+01  0.00000000E+00
  7.70000000E+02  7.20000000E+01  0.00000000E+00
  7.80000000E+02  7.20000000E+01  0.00000000E+00
  7.90000000E+02  7.20000000E+01  0.00000000E+00
  8.00000000E+02  7.20000000E+01  0.00000000E+00
  8.10000000E+02  7.20000000E+01  0.00000000E+00
  8.20000000E+02  7.20000000E+01  0.00000000E+00
  8.30000000E+02  7.20000000E+01  0.00000000E+00
  8.40000000E+02  7.20000000E+01  0.00000000E+00
  8.50000000E+02  7.20000000E+01  0.00000000E+00
  8.60000000E+02  7.20000000E+01  0.00000000E+00
  8.70000000E+02  7.20000000E+01  0.00000000E+00
  8.80000000E+02  7.20000000E+01  0.00000000E+00
  8.90000000E+02  7.20000000E+01  0.00000000E+00
  9.00000000E+02  7.20000000E+01  0.00000000E+00
  9.10000000E+02  7.20000000E+01  0.00000000E+00
  9.20000000E+02  7.20000000E+01  0.00000000E+00
  9.30000000E+02  7.20000000E+01  0.00000000E+00
  9.40000000E+02  7.20000000E+01  0.00000000E+00
  9.50000000E+02  7.20000000E+01  0.00000000E+00
  9.60000000E+02  7.20000000E+01  0.00000000E+00
  9.70000000E+02  7.20000000E+01  0.00000000E+00
  9.80000000E+02  7.20000000E+01  0.00000000E+00
  9.90000000E+02  7.20000000E+01  0.00000000E+00
  1.00000000E+03  7.20000000E+01  0.00000000E+00
  0.00000000E+00  7.40000000E+01  0.00000000E+00
  1.00000000E+01  7.40000000E+01  0.00000000E+00
  2.00000000E+01  7.40000000E+01  0.00000000E+00
  3.00000000E+01  7.40000000E+01  0.00000000E+00
  4.00000000E+01  7.40000000E+01  0.00000000E+00
  5.00000000E+01  7.40000000E+01  0.00000000E+00
  6.00000000E+01  7.40000000E+01  0.00000000E+00
  7.00000000E+01  7.40000000E+01  0.00000000E+00
  8.00000000E+01  7.40000000E+01  0.00000000E+00
  9.00000000E+01  7.40000000E+01  0.00000000E+00
  1.00000000E+02  7.40000000E+01  0.00000000E+00
  1.10000000E+02  7.40000000E+01  0.00000000E+00
  1.20000000E+02  7.40000000E+01  0.00000000E+00
  1.30000000E+02  7.40000000E+01  0.00000000E+00
  1.40000000E+02  7.40000000E+01  0.00000000E+00
  1.50000000E+02  7.40000000E+01  0.00000000E+00
  1.60000000E+02  7.40000000E+01  0.00000000E+00
  1.70000000E+02  7.40000000E+01  0.00000000E+00
  1.80000000E+02  7.40000000E+01  0.00000000E+00
  1.90000000E+02  7.40000000E+01  0.00000000E+00
  2.00000000E+02  7.40000000E+01  0.00000000E+00
  2.10000000E+02  7.40000000E+01  0.00000000E+00
  2.20000000E+02  7.40000000E+01  0.00000000E+00
  2.30000000E+02  7.40000000E+01  0.00000000E+00
  2.40000000E+02  7.40000000E+01  0.00000000E+00
  2.50000000E+02  7.40000000E+01  0.00000000E+00
  2.60000000E+02  7.40000000E+01  0.00000000E+00
  2.70000000E+02  7.40000000E+01  0.00000000E+00
  2.80000000E+02  7.40000000E+01  0.00000000E+00
  2.90000000E+02  7.40000000E+01  0.00000000E+00
  3.00000000E+02  7.40000000E+01  0.00000000E+00
  3.10000000E+02  7.40000000E+01  0.00000000E+00
  3.20000000E+02  7.40000000E+01  0.00000000E+00
  3.30000000E+02  7.40000000E+01  0.00000000E+00
  3.40000000E+02  7.40000000E+01  0.00000000E+00
  3.50000000E+02  7.40000000E+01  0.00000000E+00
  3.60000000E+02  7.40000000E+01  0.00000000E+00
  3.70000000E+02  7.40000000E+01  0.00000000E+00
  3.80000000E+02  7.40000000E+01  0.00000000E+00
  3.90000000E+02  7.40000000E+01  0.00000000E+00
  4.00000000E+02  7.40000000E+01  0.00000000E+00
  4.10000000E+02  7.40000000E+01  0.00000000E+00
  4.20000000E+02  7.40000000E+01  0.00000000E+00
  4.30000000E+02  7.40000000E+01  0.00000000E+00
  4.40000000E+02  7.40000000E+01  0.00000000E+00
  4.50000000E+02  7.40000000E+01  0.00000000E+00
  4.60000000E+02  7.40000000E+01  0.00000000E+00
  4.70000000E+02  7.40000000E+01  0.00000000E+00
  4.80000000E+02  7.40000000E+01  0.00000000E+00
  4.90000000E+02  7.40000000E+01  0.00000000E+00
  5.00000000E+02  7.40000000E+01  0.00000000E+00
  5.10000000E+02  7.40000000E+01  0.00000000E+00
  5.20000000E+02  7.40000000E+01  0.00000000E+00
  5.30000000E+02  7.40000000E+01  0.00000000E+00
  5.40000000E+02  7.40000000E+01  0.00000000E+00
  5.50000000E+02  7.40000000E+01  0.00000000E+00
  5.60000000E+02  7.40000000E+01  0.00000000E+00
  5.70000000E+02  7.40000000E+01  0.00000000E+00
  5.80000000E+02  7.40000000E+01  0.00000000E+00
  5.90000000E+02  7.40000000E+01  0.00000000E+00
  6.00000000E+02  7.40000000E+01  0.00000000E+00
  6.10000000E+02  7.40000000E+01  0.00000000E+00
  6.20000000E+02  7.40000000E+01  0.00000000E+00
  6.30000000E+02  7.40000000E+01  0.00000000E+00
  6.40000000E+02  7.40000000E+01  0.00000000E+00
  6.50000000E+02  7.40000000E+01  0.00000000E+00
  6.60000000E+02  7.40000000E+01  0.00000000E+00
  6.70000000E+02  7.40000000E+01  0.00000000E+00
  6.80000000E+02  7.40000000E+01  0.00000000E+00
  6.90000000E+02  7.40000000E+01  0.00000000E+00
  7.00000000E+02  7.40000000E+01  0.00000000E+00
  7.10000000E+02  7.40000000E+01  0.00000000E+00
  7.20000000E+02  7.40000000E+01  0.00000000E+00
  7.30000000E+02  7.40000000E+01  0.00000000E+00
  7.40000000E+02  7.40000000E+01  0.00000000E+00
  7.50000000E+02  7.40000000E+01  0.00000000E+00
  7.60000000E+02  7.40000000E+01  0.00000000E+00
  7.70000000E+02  7.40000000E+01  0.00000000E+00
  7.80000000E+02  7.40000000E+01  0.00000000E+00
  7.90000000E+02  7.40000000E+01  0.00000000E+00
  8.00000000E+02  7.40000000E+01  0.00000000E+00
  8.10000000E+02  7.40000000E+01  0.00000000E+00
  8.20000000E+02  7.40000000E+01  0.00000000E+00
  8.30000000E+02  7.40000000E+01  0.00000000E+00
  8.40000000E+02  7.40000000E+01  0.00000000E+00
  8.50000000E+02  7.40000000E+01  0.00000000E+00
  8.60000000E+02  7.40000000E+01  0.00000000E+00
  8.70000000E+02  7.40000000E+01  0.00000000E+00
  8.80000000E+02  7.40000000E+01  0.00000000E+00
  8.90000000E+02  7.40000000E+01  0.00000000E+00
  9.00000000E+02  7.40000000E+01  0.00000000E+00
  9.10000000E+02  7.40000000E+01  0.00000000E+00
  9.20000000E+02  7.40000000E+01  0.00000000E+00
  9.30000000E+02  7.40000000E+01  0.00000000E+00
  9.40000000E+02  7.40000000E+01  0.00000000E+00
  9.50000000E+02  7.40000000E+01  0.00000000E+00
  9.60000000E+02  7.40000000E+01  0.00000000E+00
  9.70000000E+02  7.40000000E+01  0.00000000E+00
  9.80000000E+02  7.40000000E+01  0.00000000E+00
  9.90000000E+02  7.40000000E+01  0.00000000E+00
  1.00000000E+03  7.40000000E+01  0.00000000E+00
  0.00000000E+00  7.60000000E+01  0.00000000E+00
  1.00000000E+01  7.60000000E+01  0.00000000E+00
  2.00000000E+01  7.60000000E+01  0.00000000E+00
  3.00000000E+01  7.60000000E+01  0.00000000E+00
  4.00000000E+01  7.60000000E+01  0.00000000E+00
  5.00000000E+01  7.60000000E+01  0.00000000E+00
  6.00000000E+01  7.60000000E+01  0.00000000E+00
  7.00000000E+01  7.60000000E+01  0.00000000E+00
  8.00000000E+01  7.60000000E+01  0.00000000E+00
  9.00000000E+01  7.60000000E+01  0.00000000E+00
  1.00000000E+02  7.60000000E+01  0.00000000E+00
  1.10000000E+02  7.60000000E+01  0.00000000E+00
  1.20000000E+02  7.60000000E+01  0.00000000E+00
  1.30000000E+02  7.60000000E+01  0.00000000E+00
  1.40000000E+02  7.60000000E+01  0.00000000E+00
  1.50000000E+02  7.60000000E+01  0.00000000E+00
  1.60000000E+02  7.60000000E+01  0.00000000E+00
  1.70000000E+02  7.60000000E+01  0.00000000E+00
  1.80000000E+02  7.60000000E+01  0.00000000E+00
  1.90000000E+02  7.60000000E+01  0.00000000E+00
  2.00000000E+02  7.60000000E+01  0.00000000E+00
  2.10000000E+02  7.60000000E+01  0.00000000E+00
  2.20000000E+02  7.60000000E+01  0.00000000E+00
  2.30000000E+02  7.60000000E+01  0.00000000E+00
  2.40000000E+02  7.60000000E+01  0.00000000E+00
  2.50000000E+02  7.60000000E+01  0.00000000E+00
  2.60000000E+02  7.60000000E+01  0.00000000E+00
  2.70000000E+02  7.60000000E+01  0.00000000E+00
  2.80000000E+02  7.60000000E+01  0.00000000E+00
  2.90000000E+02  7.60000000E+01  0.00000000E+00
  3.00000000E+02  7.60000000E+01  0.00000000E+00
  3.10000000E+02  7.60000000E+01  0.00000000E+00
  3.20000000E+02  7.60000000E+01  0.00000000E+00
  3.30000000E+02  7.60000000E+01  0.00000000E+00
  3.40000000E+02  7.60000000E+01  0.00000000E+00
  3.50000000E+02  7.60000000E+01  0.00000000E+00
  3.60000000E+02  7.60000000E+01  0.00000000E+00
  3.70000000E+02  7.60000000E+01  0.00000000E+00
  3.80000000E+02  7.60000000E+01  0.00000000E+00
  3.90000000E+02  7.60000000E+01  0.00000000E+00
  4.00000000E+02  7.60000000E+01  0.00000000E+00
  4.10000000E+02  7.60000000E+01  0.00000000E+00
  4.20000000E+02  7.60000000E+01  0.00000000E+00
  4.30000000E+02  7.60000000E+01  0.00000000E+00
  4.40000000E+02  7.60000000E+01  0.00000000E+00
  4.50000000E+02  7.60000000E+01  0.00000000E+00
  4.60000000E+02  7.60000000E+01  0.00000000E+00
  4.70000000E+02  7.60000000E+01  0.00000000E+00
  4.80000000E+02  7.60000000E+01  0.00000000E+00
  4.90000000E+02  7.60000000E+01  0.00000000E+00
  5.00000000E+02  7.60000000E+01  0.00000000E+00
  5.10000000E+02  7.60000000E+01  0.00000000E+00
  5.20000000E+02  7.60000000E+01  0.00000000E+00
  5.30000000E+02  7.60000000E+01  0.00000000E+00
  5.40000000E+02  7.60000000E+01  0.00000000E+00
  5.50000000E+02  7.60000000E+01  0.00000000E+00
  5.60000000E+02  7.60000000E+01  0.00000000E+00
  5.70000000E+02  7.60000000E+01  0.00000000E+00
  5.80000000E+02  7.60000000E+01  0.00000000E+00
  5.90000000E+02  7.60000000E+01  0.00000000E+00
  6.00000000E+02  7.60000000E+01  0.00000000E+00
  6.10000000E+02  7.60000000E+01  0.00000000E+00
  6.20000000E+02  7.60000000E+01  0.00000000E+00
  6.30000000E+02  7.60000000E+01  0.00000000E+00
  6.40000000E+02  7.60000000E+01  0.00000000E+00
  6.50000000E+02  7.60000000E+01  0.00000000E+00
  6.60000000E+02  7.60000000E+01  0.00000000E+00
  6.70000000E+02  7.60000000E+01  0.00000000E+00
  6.80000000E+02  7.60000000E+01  0.00000000E+00
  6.90000000E+02  7.60000000E+01  0.00000000E+00
  7.00000000E+02  7.60000000E+01  0.00000000E+00
  7.10000000E+02  7.60000000E+01  0.00000000E+00
  7.20000000E+02  7.60000000E+01  0.00000000E+00
  7.30000000E+02  7.60000000E+01  0.00000000E+00
  7.40000000E+02  7.60000000E+01  0.00000000E+00
  7.50000000E+02  7.60000000E+01  0.00000000E+00
  7.60000000E+02  7.60000000E+01  0.00000000E+00
  7.70000000E+02  7.60000000E+01  0.00000000E+00
  7.80000000E+02  7.60000000E+01  0.00000000E+00
  7.90000000E+02  7.60000000E+01  0.00000000E+00
  8.00000000E+02  7.60000000E+01  0.00000000E+00
  8.10000000E+02  7.60000000E+01  0.00000000E+00
  8.20000000E+02  7.60000000E+01  0.00000000E+00
  8.30000000E+02  7.60000000E+01  0.00000000E+00
  8.40000000E+02  7.60000000E+01  0.00000000E+00
  8.50000000E+02  7.60000000E+01  0.00000000E+00
  8.60000000E+02  7.60000000E+01  0.00000000E+00
  8.70000000E+02  7.60000000E+01  0.00000000E+00
  8.80000000E+02  7.60000000E+01  0.00000000E+00
  8.90000000E+02  7.60000000E+01  0.00000000E+00
  9.00000000E+02  7.60000000E+01  0.00000000E+00
  9.10000000E+02  7.60000000E+01  0.00000000E+00
  9.20000000E+02  7.60000000E+01  0.00000000E+00
  9.30000000E+02  7.60000000E+01  0.00000000E+00
  9.40000000E+02  7.60000000E+01  0.00000000E+00
  9.50000000E+02  7.60000000E+01  0.00000000E+00
  9.60000000E+02  7.60000000E+01  0.00000000E+00
  9.70000000E+02  7.60000000E+01  0.00000000E+00
  9.80000000E+02  7.60000000E+01  0.00000000E+00
  9.90000000E+02  7.60000000E+01  0.00000000E+00
  1.00000000E+03  7.60000000E+01  0.00000000E+00
  0.00000000E+00  7.80000000E+01  0.00000000E+00
  1.00000000E+01  7.80000000E+01  0.00000000E+00
  2.00000000E+01  7.80000000E+01  0.00000000E+00
  3.00000000E+01  7.80000000E+01  0.00000000E+00
  4.00000000E+01  7.80000000E+01  0.00000000E+00
  5.00000000E+01  7.80000000E+01  0.00000000E+00
  6.00000000E+01  7.80000000E+01  0.00000000E+00
  7.00000000E+01  7.80000000E+01  0.00000000E+00
  8.00000000E+01  7.80000000E+01  0.00000000E+00
  9.00000000E+01  7.80000000E+01  0.00000000E+00
  1.00000000E+02  7.80000000E+01  0.00000000E+00
  1.10000000E+02  7.80000000E+01  0.00000000E+00
  1.20000000E+02  7.80000000E+01  0.00000000E+00
  1.30000000E+02  7.80000000E+01  0.00000000E+00
  1.40000000E+02  7.80000000E+01  0.00000000E+00
  1.50000000E+02  7.80000000E+01  0.00000000E+00
  1.60000000E+02  7.80000000E+01  0.00000000E+00
  1.70000000E+02  7.80000000E+01  0.00000000E+00
  1.80000000E+02  7.80000000E+01  0.00000000E+00
  1.90000000E+02  7.80000000E+01  0.00000000E+00
  2.00000000E+02  7.80000000E+01  0.00000000E+00
  2.10000000E+02  7.80000000E+01  0.00000000E+00
  2.20000000E+02  7.80000000E+01  0.00000000E+00
  2.30000000E+02  7.80000000E+01  0.00000000E+00
  2.40000000E+02  7.80000000E+01  0.00000000E+00
  2.50000000E+02  7.80000000E+01  0.00000000E+00
  2.60000000E+02  7.80000000E+01  0.00000000E+00
  2.70000000E+02  7.80000000E+01  0.00000000E+00
  2.80000000E+02  7.80000000E+01  0.00000000E+00
  2.90000000E+02  7.80000000E+01  0.00000000E+00
  3.00000000E+02  7.80000000E+01  0.00000000E+00
  3.10000000E+02  7.80000000E+01  0.00000000E+00
  3.20000000E+02  7.80000000E+01  0.00000000E+00
  3.30000000E+02  7.80000000E+01  0.00000000E+00
  3.40000000E+02  7.80000000E+01  0.00000000E+00
  3.50000000E+02  7.80000000E+01  0.00000000E+00
  3.60000000E+02  7.80000000E+01  0.00000000E+00
  3.70000000E+02  7.80000000E+01  0.00000000E+00
  3.80000000E+02  7.80000000E+01  0.00000000E+00
  3.90000000E+02  7.80000000E+01  0.00000000E+00
  4.00000000E+02  7.80000000E+01  0.00000000E+00
  4.10000000E+02  7.80000000E+01  0.00000000E+00
  4.20000000E+02  7.80000000E+01  0.00000000E+00
  4.30000000E+02  7.80000000E+01  0.00000000E+00
  4.40000000E+02  7.80000000E+01  0.00000000E+00
  4.50000000E+02  7.80000000E+01  0.00000000E+00
  4.60000000E+02  7.80000000E+01  0.00000000E+00
  4.70000000E+02  7.80000000E+01  0.00000000E+00
  4.80000000E+02  7.80000000E+01  0.00000000E+00
  4.90000000E+02  7.80000000E+01  0.00000000E+00
  5.00000000E+02  7.80000000E+01  0.00000000E+00
  5.10000000E+02  7.80000000E+01  0.00000000E+00
  5.20000000E+02  7.80000000E+01  0.00000000E+00
  5.30000000E+02  7.80000000E+01  0.00000000E+00
  5.40000000E+02  7.80000000E+01  0.00000000E+00
  5.50000000E+02  7.80000000E+01  0.00000000E+00
  5.60000000E+02  7.80000000E+01  0.00000000E+00
  5.70000000E+02  7.80000000E+01  0.00000000E+00
  5.80000000E+02  7.80000000E+01  0.00000000E+00
  5.90000000E+02  7.80000000E+01  0.00000000E+00
  6.00000000E+02  7.80000000E+01  0.00000000E+00
  6.10000000E+02  7.80000000E+01  0.00000000E+00
  6.20000000E+02  7.80000000E+01  0.00000000E+00
  6.30000000E+02  7.80000000E+01  0.00000000E+00
  6.40000000E+02  7.80000000E+01  0.00000000E+00
  6.50000000E+02  7.80000000E+01  0.00000000E+00
  6.60000000E+02  7.80000000E+01  0.00000000E+00
  6.70000000E+02  7.80000000E+01  0.00000000E+00
  6.80000000E+02  7.80000000E+01  0.00000000E+00
  6.90000000E+02  7.80000000E+01  0.00000000E+00
  7.00000000E+02  7.80000000E+01  0.00000000E+00
  7.10000000E+02  7.80000000E+01  0.00000000E+00
  7.20000000E+02  7.80000000E+01  0.00000000E+00
  7.30000000E+02  7.80000000E+01  0.00000000E+00
  7.40000000E+02  7.80000000E+01  0.00000000E+00
  7.50000000E+02  7.80000000E+01  0.00000000E+00
  7.60000000E+02  7.80000000E+01  0.00000000E+00
  7.70000000E+02  7.80000000E+01  0.00000000E+00
  7.80000000E+02  7.80000000E+01  0.00000000E+00
  7.90000000E+02  7.80000000E+01  0.00000000E+00
  8.00000000E+02  7.80000000E+01  0.00000000E+00
  8.10000000E+02  7.80000000E+01  0.00000000E+00
  8.20000000E+02  7.80000000E+01  0.00000000E+00
  8.30000000E+02  7.80000000E+01  0.00000000E+00
  8.40000000E+02  7.80000000E+01  0.00000000E+00
  8.50000000E+02  7.80000000E+01  0.00000000E+00
  8.60000000E+02  7.80000000E+01  0.00000000E+00
  8.70000000E+02  7.80000000E+01  0.00000000E+00
  8.80000000E+02  7.80000000E+01  0.00000000E+00
  8.90000000E+02  7.80000000E+01  0.00000000E+00
  9.00000000E+02  7.80000000E+01  0.00000000E+00
  9.10000000E+02  7.80000000E+01  0.00000000E+00
  9.20000000E+02  7.80000000E+01  0.00000000E+00
  9.30000000E+02  7.80000000E+01  0.00000000E+00
  9.40000000E+02  7.80000000E+01  0.00000000E+00
  9.50000000E+02  7.80000000E+01  0.00000000E+00
  9.60000000E+02  7.80000000E+01  0.00000000E+00
  9.70000000E+02  7.80000000E+01  0.00000000E+00
  9.80000000E+02  7.80000000E+01  0.00000000E+00
  9.90000000E+02  7.80000000E+01  0.00000000E+00
  1.00000000E+03  7.80000000E+01  0.00000000E+00
  0.00000000E+00  8.00000000E+01  0.00000000E+00
  1.00000000E+01  8.00000000E+01  0.00000000E+00
  2.00000000E+01  8.00000000E+01  0.00000000E+00
  3.00000000E+01  8.00000000E+01  0.00000000E+00
  4.00000000E+01  8.00000000E+01  0.00000000E+00
  5.00000000E+01  8.00000000E+01  0.00000000E+00
  6.00000000E+01  8.00000000E+01  0.00000000E+00
  7.00000000E+01  8.00000000E+01  0.00000000E+00
  8.00000000E+01  8.00000000E+01  0.00000000E+00
  9.00000000E+01  8.00000000E+01  0.00000000E+00
  1.00000000E+02  8.00000000E+01  0.00000000E+00
  1.10000000E+02  8.00000000E+01  0.00000000E+00
  1.20000000E+02  8.00000000E+01  0.00000000E+00
  1.30000000E+02  8.00000000E+01  0.00000000E+00
  1.40000000E+02  8.00000000E+01  0.00000000E+00
  1.50000000E+02  8.00000000E+01  0.00000000E+00
  1.60000000E+02  8.00000000E+01  0.00000000E+00
  1.70000000E+02  8.00000000E+01  0.00000000E+00
  1.80000000E+02  8.00000000E+01  0.00000000E+00
  1.90000000E+02  8.00000000E+01  0.00000000E+00
  2.00000000E+02  8.00000000E+01  0.00000000E+00
  2.10000000E+02  8.00000000E+01  0.00000000E+00
  2.20000000E+02  8.00000000E+01  0.00000000E+00
  2.30000000E+02  8.00000000E+01  0.00000000E+00
  2.40000000E+02  8.00000000E+01  0.00000000E+00
  2.50000000E+02  8.00000000E+01  0.00000000E+00
  2.60000000E+02  8.00000000E+01  0.00000000E+00
  2.70000000E+02  8.00000000E+01  0.00000000E+00
  2.80000000E+02  8.00000000E+01  0.00000000E+00
  2.90000000E+02  8.00000000E+01  0.00000000E+00
  3.00000000E+02  8.00000000E+01  0.00000000E+00
  3.10000000E+02  8.00000000E+01  0.00000000E+00
  3.20000000E+02  8.00000000E+01  0.00000000E+00
  3.30000000E+02  8.00000000E+01  0.00000000E+00
  3.40000000E+02  8.00000000E+01  0.00000000E+00
  3.50000000E+02  8.00000000E+01  0.00000000E+00
  3.60000000E+02  8.00000000E+01  0.00000000E+00
  3.70000000E+02  8.00000000E+01  0.00000000E+00
  3.80000000E+02  8.00000000E+01  0.00000000E+00
  3.90000000E+02  8.00000000E+01  0.00000000E+00
  4.00000000E+02  8.00000000E+01  0.00000000E+00
  4.10000000E+02  8.00000000E+01  0.00000000E+00
  4.20000000E+02  8.00000000E+01  0.00000000E+00
  4.30000000E+02  8.00000000E+01  0.00000000E+00
  4.40000000E+02  8.00000000E+01  0.00000000E+00
  4.50000000E+02  8.00000000E+01  0.00000000E+00
  4.60000000E+02  8.00000000E+01  0.00000000E+00
  4.70000000E+02  8.00000000E+01  0.00000000E+00
  4.80000000E+02  8.00000000E+01  0.00000000E+00
  4.90000000E+02  8.00000000E+01  0.00000000E+00
  5.00000000E+02  8.00000000E+01  0.00000000E+00
  5.10000000E+02  8.00000000E+01  0.00000000E+00
  5.20000000E+02  8.00000000E+01  0.00000000E+00
  5.30000000E+02  8.00000000E+01  0.00000000E+00
  5.40000000E+02  8.00000000E+01  0.00000000E+00
  5.50000000E+02  8.00000000E+01  0.00000000E+00
  5.60000000E+02  8.00000000E+01  0.00000000E+00
  5.70000000E+02  8.00000000E+01  0.00000000E+00
  5.80000000E+02  8.00000000E+01  0.00000000E+00
  5.90000000E+02  8.00000000E+01  0.00000000E+00
  6.00000000E+02  8.00000000E+01  0.00000000E+00
  6.10000000E+02  8.00000000E+01  0.00000000E+00
  6.20000000E+02  8.00000000E+01  0.00000000E+00
  6.30000000E+02  8.00000000E+01  0.00000000E+00
  6.40000000E+02  8.00000000E+01  0.00000000E+00
  6.50000000E+02  8.00000000E+01  0.00000000E+00
  6.60000000E+02  8.00000000E+01  0.00000000E+00
  6.70000000E+02  8.00000000E+01  0.00000000E+00
  6.80000000E+02  8.00000000E+01  0.00000000E+00
  6.90000000E+02  8.00000000E+01  0.00000000E+00
  7.00000000E+02  8.00000000E+01  0.00000000E+00
  7.10000000E+02  8.00000000E+01  0.00000000E+00
  7.20000000E+02  8.00000000E+01  0.00000000E+00
  7.30000000E+02  8.00000000E+01  0.00000000E+00
  7.40000000E+02  8.00000000E+01  0.00000000E+00
  7.50000000E+02  8.00000000E+01  0.00000000E+00
  7.60000000E+02  8.00000000E+01  0.00000000E+00
  7.70000000E+02  8.00000000E+01  0.00000000E+00
  7.80000000E+02  8.00000000E+01  0.00000000E+00
  7.90000000E+02  8.00000000E+01  0.00000000E+00
  8.00000000E+02  8.00000000E+01  0.00000000E+00
  8.10000000E+02  8.00000000E+01  0.00000000E+00
  8.20000000E+02  8.00000000E+01  0.00000000E+00
  8.30000000E+02  8.00000000E+01  0.00000000E+00
  8.40000000E+02  8.00000000E+01  0.00000000E+00
  8.50000000E+02  8.00000000E+01  0.00000000E+00
  8.60000000E+02  8.00000000E+01  0.00000000E+00
  8.70000000E+02  8.00000000E+01  0.00000000E+00
  8.80000000E+02  8.00000000E+01  0.00000000E+00
  8.90000000E+02  8.00000000E+01  0.00000000E+00
  9.00000000E+02  8.00000000E+01  0.00000000E+00
  9.10000000E+02  8.00000000E+01  0.00000000E+00
  9.20000000E+02  8.00000000E+01  0.00000000E+00
  9.30000000E+02  8.00000000E+01  0.00000000E+00
  9.40000000E+02  8.00000000E+01  0.00000000E+00
  9.50000000E+02  8.00000000E+01  0.00000000E+00
  9.60000000E+02  8.00000000E+01  0.00000000E+00
  9.70000000E+02  8.00000000E+01  0.00000000E+00
  9.80000000E+02  8.00000000E+01  0.00000000E+00
  9.90000000E+02  8.00000000E+01  0.00000000E+00
  1.00000000E+03  8.00000000E+01  0.00000000E+00
  0.00000000E+00  8.20000000E+01  0.00000000E+00
  1.00000000E+01  8.20000000E+01  0.00000000E+00
  2.00000000E+01  8.20000000E+01  0.00000000E+00
  3.00000000E+01  8.20000000E+01  0.00000000E+00
  4.00000000E+01  8.20000000E+01  0.00000000E+00
  5.00000000E+01  8.20000000E+01  0.00000000E+00
  6.00000000E+01  8.20000000E+01  0.00000000E+00
  7.00000000E+01  8.20000000E+01  0.00000000E+00
  8.00000000E+01  8.20000000E+01  0.00000000E+00
  9.00000000E+01  8.20000000E+01  0.00000000E+00
  1.00000000E+02  8.20000000E+01  0.00000000E+00
  1.10000000E+02  8.20000000E+01  0.00000000E+00
  1.20000000E+02  8.20000000E+01  0.00000000E+00
  1.30000000E+02  8.20000000E+01  0.00000000E+00
  1.40000000E+02  8.20000000E+01  0.00000000E+00
  1.50000000E+02  8.20000000E+01  0.00000000E+00
  1.60000000E+02  8.20000000E+01  0.00000000E+00
  1.70000000E+02  8.20000000E+01  0.00000000E+00
  1.80000000E+02  8.20000000E+01  0.00000000E+00
  1.90000000E+02  8.20000000E+01  0.00000000E+00
  2.00000000E+02  8.20000000E+01  0.00000000E+00
  2.10000000E+02  8.20000000E+01  0.00000000E+00
  2.20000000E+02  8.20000000E+01  0.00000000E+00
  2.30000000E+02  8.20000000E+01  0.00000000E+00
  2.40000000E+02  8.20000000E+01  0.00000000E+00
  2.50000000E+02  8.20000000E+01  0.00000000E+00
  2.60000000E+02  8.20000000E+01  0.00000000E+00
  2.70000000E+02  8.20000000E+01  0.00000000E+00
  2.80000000E+02  8.20000000E+01  0.00000000E+00
  2.90000000E+02  8.20000000E+01  0.00000000E+00
  3.00000000E+02  8.20000000E+01  0.00000000E+00
  3.10000000E+02  8.20000000E+01  0.00000000E+00
  3.20000000E+02  8.20000000E+01  0.00000000E+00
  3.30000000E+02  8.20000000E+01  0.00000000E+00
  3.40000000E+02  8.20000000E+01  0.00000000E+00
  3.50000000E+02  8.20000000E+01  0.00000000E+00
  3.60000000E+02  8.20000000E+01  0.00000000E+00
  3.70000000E+02  8.20000000E+01  0.00000000E+00
  3.80000000E+02  8.20000000E+01  0.00000000E+00
  3.90000000E+02  8.20000000E+01  0.00000000E+00
  4.00000000E+02  8.20000000E+01  0.00000000E+00
  4.10000000E+02  8.20000000E+01  0.00000000E+00
  4.20000000E+02  8.20000000E+01  0.00000000E+00
  4.30000000E+02  8.20000000E+01  0.00000000E+00
  4.40000000E+02  8.20000000E+01  0.00000000E+00
  4.50000000E+02  8.20000000E+01  0.00000000E+00
  4.60000000E+02  8.20000000E+01  0.00000000E+00
  4.70000000E+02  8.20000000E+01  0.00000000E+00
  4.80000000E+02  8.20000000E+01  0.00000000E+00
  4.90000000E+02  8.20000000E+01  0.00000000E+00
  5.00000000E+02  8.20000000E+01  0.00000000E+00
  5.10000000E+02  8.20000000E+01  0.00000000E+00
  5.20000000E+02  8.20000000E+01  0.00000000E+00
  5.30000000E+02  8.20000000E+01  0.00000000E+00
  5.40000000E+02  8.20000000E+01  0.00000000E+00
  5.50000000E+02  8.20000000E+01  0.00000000E+00
  5.60000000E+02  8.20000000E+01  0.00000000E+00
  5.70000000E+02  8.20000000E+01  0.00000000E+00
  5.80000000E+02  8.20000000E+01  0.00000000E+00
  5.90000000E+02  8.20000000E+01  0.00000000E+00
  6.00000000E+02  8.20000000E+01  0.00000000E+00
  6.10000000E+02  8.20000000E+01  0.00000000E+00
  6.20000000E+02  8.20000000E+01  0.00000000E+00
  6.30000000E+02  8.20000000E+01  0.00000000E+00
  6.40000000E+02  8.20000000E+01  0.00000000E+00
  6.50000000E+02  8.20000000E+01  0.00000000E+00
  6.60000000E+02  8.20000000E+01  0.00000000E+00
  6.70000000E+02  8.20000000E+01  0.00000000E+00
  6.80000000E+02  8.20000000E+01  0.00000000E+00
  6.90000000E+02  8.20000000E+01  0.00000000E+00
  7.00000000E+02  8.20000000E+01  0.00000000E+00
  7.10000000E+02  8.20000000E+01  0.00000000E+00
  7.20000000E+02  8.20000000E+01  0.00000000E+00
  7.30000000E+02  8.20000000E+01  0.00000000E+00
  7.40000000E+02  8.20000000E+01  0.00000000E+00
  7.50000000E+02  8.20000000E+01  0.00000000E+00
  7.60000000E+02  8.20000000E+01  0.00000000E+00
  7.70000000E+02  8.20000000E+01  0.00000000E+00
  7.80000000E+02  8.20000000E+01  0.00000000E+00
  7.90000000E+02  8.20000000E+01  0.00000000E+00
  8.00000000E+02  8.20000000E+01  0.00000000E+00
  8.10000000E+02  8.20000000E+01  0.00000000E+00
  8.20000000E+02  8.20000000E+01  0.00000000E+00
  8.30000000E+02  8.20000000E+01  0.00000000E+00
  8.40000000E+02  8.20000000E+01  0.00000000E+00
  8.50000000E+02  8.20000000E+01  0.00000000E+00
  8.60000000E+02  8.20000000E+01  0.00000000E+00
  8.70000000E+02  8.20000000E+01  0.00000000E+00
  8.80000000E+02  8.20000000E+01  0.00000000E+00
  8.90000000E+02  8.20000000E+01  0.00000000E+00
  9.00000000E+02  8.20000000E+01  0.00000000E+00
  9.10000000E+02  8.20000000E+01  0.00000000E+00
  9.20000000E+02  8.20000000E+01  0.00000000E+00
  9.30000000E+02  8.20000000E+01  0.00000000E+00
  9.40000000E+02  8.20000000E+01  0.00000000E+00
  9.50000000E+02  8.20000000E+01  0.00000000E+00
  9.60000000E+02  8.20000000E+01  0.00000000E+00
  9.70000000E+02  8.20000000E+01  0.00000000E+00
  9.80000000E+02  8.20000000E+01  0.00000000E+00
  9.90000000E+02  8.20000000E+01  0.00000000E+00
  1.00000000E+03  8.20000000E+01  0.00000000E+00
  0.00000000E+00  8.40000000E+01  0.00000000E+00
  1.00000000E+01  8.40000000E+01  0.00000000E+00
  2.00000000E+01  8.40000000E+01  0.00000000E+00
  3.00000000E+01  8.40000000E+01  0.00000000E+00
  4.00000000E+01  8.40000000E+01  0.00000000E+00
  5.00000000E+01  8.40000000E+01  0.00000000E+00
  6.00000000E+01  8.40000000E+01  0.00000000E+00
  7.00000000E+01  8.40000000E+01  0.00000000E+00
  8.00000000E+01  8.40000000E+01  0.00000000E+00
  9.00000000E+01  8.40000000E+01  0.00000000E+00
  1.00000000E+02  8.40000000E+01  0.00000000E+00
  1.10000000E+02  8.40000000E+01  0.00000000E+00
  1.20000000E+02  8.40000000E+01  0.00000000E+00
  1.30000000E+02  8.40000000E+01  0.00000000E+00
  1.40000000E+02  8.40000000E+01  0.00000000E+00
  1.50000000E+02  8.40000000E+01  0.00000000E+00
  1.60000000E+02  8.40000000E+01  0.00000000E+00
  1.70000000E+02  8.40000000E+01  0.00000000E+00
  1.80000000E+02  8.40000000E+01  0.00000000E+00
  1.90000000E+02  8.40000000E+01  0.00000000E+00
  2.00000000E+02  8.40000000E+01  0.00000000E+00
  2.10000000E+02  8.40000000E+01  0.00000000E+00
  2.20000000E+02  8.40000000E+01  0.00000000E+00
  2.30000000E+02  8.40000000E+01  0.00000000E+00
  2.40000000E+02  8.40000000E+01  0.00000000E+00
  2.50000000E+02  8.40000000E+01  0.00000000E+00
  2.60000000E+02  8.40000000E+01  0.00000000E+00
  2.70000000E+02  8.40000000E+01  0.00000000E+00
  2.80000000E+02  8.40000000E+01  0.00000000E+00
  2.90000000E+02  8.40000000E+01  0.00000000E+00
  3.00000000E+02  8.40000000E+01  0.00000000E+00
  3.10000000E+02  8.40000000E+01  0.00000000E+00
  3.20000000E+02  8.40000000E+01  0.00000000E+00
  3.30000000E+02  8.40000000E+01  0.00000000E+00
  3.40000000E+02  8.40000000E+01  0.00000000E+00
  3.50000000E+02  8.40000000E+01  0.00000000E+00
  3.60000000E+02  8.40000000E+01  0.00000000E+00
  3.70000000E+02  8.40000000E+01  0.00000000E+00
  3.80000000E+02  8.40000000E+01  0.00000000E+00
  3.90000000E+02  8.40000000E+01  0.00000000E+00
  4.00000000E+02  8.40000000E+01  0.00000000E+00
  4.10000000E+02  8.40000000E+01  0.00000000E+00
  4.20000000E+02  8.40000000E+01  0.00000000E+00
  4.30000000E+02  8.40000000E+01  0.00000000E+00
  4.40000000E+02  8.40000000E+01  0.00000000E+00
  4.50000000E+02  8.40000000E+01  0.00000000E+00
  4.60000000E+02  8.40000000E+01  0.00000000E+00
  4.70000000E+02  8.40000000E+01  0.00000000E+00
  4.80000000E+02  8.40000000E+01  0.00000000E+00
  4.90000000E+02  8.40000000E+01  0.00000000E+00
  5.00000000E+02  8.40000000E+01  0.00000000E+00
  5.10000000E+02  8.40000000E+01  0.00000000E+00
  5.20000000E+02  8.40000000E+01  0.00000000E+00
  5.30000000E+02  8.40000000E+01  0.00000000E+00
  5.40000000E+02  8.40000000E+01  0.00000000E+00
  5.50000000E+02  8.40000000E+01  0.00000000E+00
  5.60000000E+02  8.40000000E+01  0.00000000E+00
  5.70000000E+02  8.40000000E+01  0.00000000E+00
  5.80000000E+02  8.40000000E+01  0.00000000E+00
  5.90000000E+02  8.40000000E+01  0.00000000E+00
  6.00000000E+02  8.40000000E+01  0.00000000E+00
  6.10000000E+02  8.40000000E+01  0.00000000E+00
  6.20000000E+02  8.40000000E+01  0.00000000E+00
  6.30000000E+02  8.40000000E+01  0.00000000E+00
  6.40000000E+02  8.40000000E+01  0.00000000E+00
  6.50000000E+02  8.40000000E+01  0.00000000E+00
  6.60000000E+02  8.40000000E+01  0.00000000E+00
  6.70000000E+02  8.40000000E+01  0.00000000E+00
  6.80000000E+02  8.40000000E+01  0.00000000E+00
  6.90000000E+02  8.40000000E+01  0.00000000E+00
  7.00000000E+02  8.40000000E+01  0.00000000E+00
  7.10000000E+02  8.40000000E+01  0.00000000E+00
  7.20000000E+02  8.40000000E+01  0.00000000E+00
  7.30000000E+02  8.40000000E+01  0.00000000E+00
  7.40000000E+02  8.40000000E+01  0.00000000E+00
  7.50000000E+02  8.40000000E+01  0.00000000E+00
  7.60000000E+02  8.40000000E+01  0.00000000E+00
  7.70000000E+02  8.40000000E+01  0.00000000E+00
  7.80000000E+02  8.40000000E+01  0.00000000E+00
  7.90000000E+02  8.40000000E+01  0.00000000E+00
  8.00000000E+02  8.40000000E+01  0.00000000E+00
  8.10000000E+02  8.40000000E+01  0.00000000E+00
  8.20000000E+02  8.40000000E+01  0.00000000E+00
  8.30000000E+02  8.40000000E+01  0.00000000E+00
  8.40000000E+02  8.40000000E+01  0.00000000E+00
  8.50000000E+02  8.40000000E+01  0.00000000E+00
  8.60000000E+02  8.40000000E+01  0.00000000E+00
  8.70000000E+02  8.40000000E+01  0.00000000E+00
  8.80000000E+02  8.40000000E+01  0.00000000E+00
  8.90000000E+02  8.40000000E+01  0.00000000E+00
  9.00000000E+02  8.40000000E+01  0.00000000E+00
  9.10000000E+02  8.40000000E+01  0.00000000E+00
  9.20000000E+02  8.40000000E+01  0.00000000E+00
  9.30000000E+02  8.40000000E+01  0.00000000E+00
  9.40000000E+02  8.40000000E+01  0.00000000E+00
  9.50000000E+02  8.40000000E+01  0.00000000E+00
  9.60000000E+02  8.40000000E+01  0.00000000E+00
  9.70000000E+02  8.40000000E+01  0.00000000E+00
  9.80000000E+02  8.40000000E+01  0.00000000E+00
  9.90000000E+02  8.40000000E+01  0.00000000E+00
  1.00000000E+03  8.40000000E+01  0.00000000E+00
  0.00000000E+00  8.60000000E+01  0.00000000E+00
  1.00000000E+01  8.60000000E+01  0.00000000E+00
  2.00000000E+01  8.60000000E+01  0.00000000E+00
  3.00000000E+01  8.60000000E+01  0.00000000E+00
  4.00000000E+01  8.60000000E+01  0.00000000E+00
  5.00000000E+01  8.60000000E+01  0.00000000E+00
  6.00000000E+01  8.60000000E+01  0.00000000E+00
  7.00000000E+01  8.60000000E+01  0.00000000E+00
  8.00000000E+01  8.60000000E+01  0.00000000E+00
  9.00000000E+01  8.60000000E+01  0.00000000E+00
  1.00000000E+02  8.60000000E+01  0.00000000E+00
  1.10000000E+02  8.60000000E+01  0.00000000E+00
  1.20000000E+02  8.60000000E+01  0.00000000E+00
  1.30000000E+02  8.60000000E+01  0.00000000E+00
  1.40000000E+02  8.60000000E+01  0.00000000E+00
  1.50000000E+02  8.60000000E+01  0.00000000E+00
  1.60000000E+02  8.60000000E+01  0.00000000E+00
  1.70000000E+02  8.60000000E+01  0.00000000E+00
  1.80000000E+02  8.60000000E+01  0.00000000E+00
  1.90000000E+02  8.60000000E+01  0.00000000E+00
  2.00000000E+02  8.60000000E+01  0.00000000E+00
  2.10000000E+02  8.60000000E+01  0.00000000E+00
  2.20000000E+02  8.60000000E+01  0.00000000E+00
  2.30000000E+02  8.60000000E+01  0.00000000E+00
  2.40000000E+02  8.60000000E+01  0.00000000E+00
  2.50000000E+02  8.60000000E+01  0.00000000E+00
  2.60000000E+02  8.60000000E+01  0.00000000E+00
  2.70000000E+02  8.60000000E+01  0.00000000E+00
  2.80000000E+02  8.60000000E+01  0.00000000E+00
  2.90000000E+02  8.60000000E+01  0.00000000E+00
  3.00000000E+02  8.60000000E+01  0.00000000E+00
  3.10000000E+02  8.60000000E+01  0.00000000E+00
  3.20000000E+02  8.60000000E+01  0.00000000E+00
  3.30000000E+02  8.60000000E+01  0.00000000E+00
  3.40000000E+02  8.60000000E+01  0.00000000E+00
  3.50000000E+02  8.60000000E+01  0.00000000E+00
  3.60000000E+02  8.60000000E+01  0.00000000E+00
  3.70000000E+02  8.60000000E+01  0.00000000E+00
  3.80000000E+02  8.60000000E+01  0.00000000E+00
  3.90000000E+02  8.60000000E+01  0.00000000E+00
  4.00000000E+02  8.60000000E+01  0.00000000E+00
  4.10000000E+02  8.60000000E+01  0.00000000E+00
  4.20000000E+02  8.60000000E+01  0.00000000E+00
  4.30000000E+02  8.60000000E+01  0.00000000E+00
  4.40000000E+02  8.60000000E+01  0.00000000E+00
  4.50000000E+02  8.60000000E+01  0.00000000E+00
  4.60000000E+02  8.60000000E+01  0.00000000E+00
  4.70000000E+02  8.60000000E+01  0.00000000E+00
  4.80000000E+02  8.60000000E+01  0.00000000E+00
  4.90000000E+02  8.60000000E+01  0.00000000E+00
  5.00000000E+02  8.60000000E+01  0.00000000E+00
  5.10000000E+02  8.60000000E+01  0.00000000E+00
  5.20000000E+02  8.60000000E+01  0.00000000E+00
  5.30000000E+02  8.60000000E+01  0.00000000E+00
  5.40000000E+02  8.60000000E+01  0.00000000E+00
  5.50000000E+02  8.60000000E+01  0.00000000E+00
  5.60000000E+02  8.60000000E+01  0.00000000E+00
  5.70000000E+02  8.60000000E+01  0.00000000E+00
  5.80000000E+02  8.60000000E+01  0.00000000E+00
  5.90000000E+02  8.60000000E+01  0.00000000E+00
  6.00000000E+02  8.60000000E+01  0.00000000E+00
  6.10000000E+02  8.60000000E+01  0.00000000E+00
  6.20000000E+02  8.60000000E+01  0.00000000E+00
  6.30000000E+02  8.60000000E+01  0.00000000E+00
  6.40000000E+02  8.60000000E+01  0.00000000E+00
  6.50000000E+02  8.60000000E+01  0.00000000E+00
  6.60000000E+02  8.60000000E+01  0.00000000E+00
  6.70000000E+02  8.60000000E+01  0.00000000E+00
  6.80000000E+02  8.60000000E+01  0.00000000E+00
  6.90000000E+02  8.60000000E+01  0.00000000E+00
  7.00000000E+02  8.60000000E+01  0.00000000E+00
  7.10000000E+02  8.60000000E+01  0.00000000E+00
  7.20000000E+02  8.60000000E+01  0.00000000E+00
  7.30000000E+02  8.60000000E+01  0.00000000E+00
  7.40000000E+02  8.60000000E+01  0.00000000E+00
  7.50000000E+02  8.60000000E+01  0.00000000E+00
  7.60000000E+02  8.60000000E+01  0.00000000E+00
  7.70000000E+02  8.60000000E+01  0.00000000E+00
  7.80000000E+02  8.60000000E+01  0.00000000E+00
  7.90000000E+02  8.60000000E+01  0.00000000E+00
  8.00000000E+02  8.60000000E+01  0.00000000E+00
  8.10000000E+02  8.60000000E+01  0.00000000E+00
  8.20000000E+02  8.60000000E+01  0.00000000E+00
  8.30000000E+02  8.60000000E+01  0.00000000E+00
  8.40000000E+02  8.60000000E+01  0.00000000E+00
  8.50000000E+02  8.60000000E+01  0.00000000E+00
  8.60000000E+02  8.60000000E+01  0.00000000E+00
  8.70000000E+02  8.60000000E+01  0.00000000E+00
  8.80000000E+02  8.60000000E+01  0.00000000E+00
  8.90000000E+02  8.60000000E+01  0.00000000E+00
  9.00000000E+02  8.60000000E+01  0.00000000E+00
  9.10000000E+02  8.60000000E+01  0.00000000E+00
  9.20000000E+02  8.60000000E+01  0.00000000E+00
  9.30000000E+02  8.60000000E+01  0.00000000E+00
  9.40000000E+02  8.60000000E+01  0.00000000E+00
  9.50000000E+02  8.60000000E+01  0.00000000E+00
  9.60000000E+02  8.60000000E+01  0.00000000E+00
  9.70000000E+02  8.60000000E+01  0.00000000E+00
  9.80000000E+02  8.60000000E+01  0.00000000E+00
  9.90000000E+02  8.60000000E+01  0.00000000E+00
  1.00000000E+03  8.60000000E+01  0.00000000E+00
  0.00000000E+00  8.80000000E+01  0.00000000E+00
  1.00000000E+01  8.80000000E+01  0.00000000E+00
  2.00000000E+01  8.80000000E+01  0.00000000E+00
  3.00000000E+01  8.80000000E+01  0.00000000E+00
  4.00000000E+01  8.80000000E+01  0.00000000E+00
  5.00000000E+01  8.80000000E+01  0.00000000E+00
  6.00000000E+01  8.80000000E+01  0.00000000E+00
  7.00000000E+01  8.80000000E+01  0.00000000E+00
  8.00000000E+01  8.80000000E+01  0.00000000E+00
  9.00000000E+01  8.80000000E+01  0.00000000E+00
  1.00000000E+02  8.80000000E+01  0.00000000E+00
  1.10000000E+02  8.80000000E+01  0.00000000E+00
  1.20000000E+02  8.80000000E+01  0.00000000E+00
  1.30000000E+02  8.80000000E+01  0.00000000E+00
  1.40000000E+02  8.80000000E+01  0.00000000E+00
  1.50000000E+02  8.80000000E+01  0.00000000E+00
  1.60000000E+02  8.80000000E+01  0.00000000E+00
  1.70000000E+02  8.80000000E+01  0.00000000E+00
  1.80000000E+02  8.80000000E+01  0.00000000E+00
  1.90000000E+02  8.80000000E+01  0.00000000E+00
  2.00000000E+02  8.80000000E+01  0.00000000E+00
  2.10000000E+02  8.80000000E+01  0.00000000E+00
  2.20000000E+02  8.80000000E+01  0.00000000E+00
  2.30000000E+02  8.80000000E+01  0.00000000E+00
  2.40000000E+02  8.80000000E+01  0.00000000E+00
  2.50000000E+02  8.80000000E+01  0.00000000E+00
  2.60000000E+02  8.80000000E+01  0.00000000E+00
  2.70000000E+02  8.80000000E+01  0.00000000E+00
  2.80000000E+02  8.80000000E+01  0.00000000E+00
  2.90000000E+02  8.80000000E+01  0.00000000E+00
  3.00000000E+02  8.80000000E+01  0.00000000E+00
  3.10000000E+02  8.80000000E+01  0.00000000E+00
  3.20000000E+02  8.80000000E+01  0.00000000E+00
  3.30000000E+02  8.80000000E+01  0.00000000E+00
  3.40000000E+02  8.80000000E+01  0.00000000E+00
  3.50000000E+02  8.80000000E+01  0.00000000E+00
  3.60000000E+02  8.80000000E+01  0.00000000E+00
  3.70000000E+02  8.80000000E+01  0.00000000E+00
  3.80000000E+02  8.80000000E+01  0.00000000E+00
  3.90000000E+02  8.80000000E+01  0.00000000E+00
  4.00000000E+02  8.80000000E+01  0.00000000E+00
  4.10000000E+02  8.80000000E+01  0.00000000E+00
  4.20000000E+02  8.80000000E+01  0.00000000E+00
  4.30000000E+02  8.80000000E+01  0.00000000E+00
  4.40000000E+02  8.80000000E+01  0.00000000E+00
  4.50000000E+02  8.80000000E+01  0.00000000E+00
  4.60000000E+02  8.80000000E+01  0.00000000E+00
  4.70000000E+02  8.80000000E+01  0.00000000E+00
  4.80000000E+02  8.80000000E+01  0.00000000E+00
  4.90000000E+02  8.80000000E+01  0.00000000E+00
  5.00000000E+02  8.80000000E+01  0.00000000E+00
  5.10000000E+02  8.80000000E+01  0.00000000E+00
  5.20000000E+02  8.80000000E+01  0.00000000E+00
  5.30000000E+02  8.80000000E+01  0.00000000E+00
  5.40000000E+02  8.80000000E+01  0.00000000E+00
  5.50000000E+02  8.80000000E+01  0.00000000E+00
  5.60000000E+02  8.80000000E+01  0.00000000E+00
  5.70000000E+02  8.80000000E+01  0.00000000E+00
  5.80000000E+02  8.80000000E+01  0.00000000E+00
  5.90000000E+02  8.80000000E+01  0.00000000E+00
  6.00000000E+02  8.80000000E+01  0.00000000E+00
  6.10000000E+02  8.80000000E+01  0.00000000E+00
  6.20000000E+02  8.80000000E+01  0.00000000E+00
  6.30000000E+02  8.80000000E+01  0.00000000E+00
  6.40000000E+02  8.80000000E+01  0.00000000E+00
  6.50000000E+02  8.80000000E+01  0.00000000E+00
  6.60000000E+02  8.80000000E+01  0.00000000E+00
  6.70000000E+02  8.80000000E+01  0.00000000E+00
  6.80000000E+02  8.80000000E+01  0.00000000E+00
  6.90000000E+02  8.80000000E+01  0.00000000E+00
  7.00000000E+02  8.80000000E+01  0.00000000E+00
  7.10000000E+02  8.80000000E+01  0.00000000E+00
  7.20000000E+02  8.80000000E+01  0.00000000E+00
  7.30000000E+02  8.80000000E+01  0.00000000E+00
  7.40000000E+02  8.80000000E+01  0.00000000E+00
  7.50000000E+02  8.80000000E+01  0.00000000E+00
  7.60000000E+02  8.80000000E+01  0.00000000E+00
  7.70000000E+02  8.80000000E+01  0.00000000E+00
  7.80000000E+02  8.80000000E+01  0.00000000E+00
  7.90000000E+02  8.80000000E+01  0.00000000E+00
  8.00000000E+02  8.80000000E+01  0.00000000E+00
  8.10000000E+02  8.80000000E+01  0.00000000E+00
  8.20000000E+02  8.80000000E+01  0.00000000E+00
  8.30000000E+02  8.80000000E+01  0.00000000E+00
  8.40000000E+02  8.80000000E+01  0.00000000E+00
  8.50000000E+02  8.80000000E+01  0.00000000E+00
  8.60000000E+02  8.80000000E+01  0.00000000E+00
  8.70000000E+02  8.80000000E+01  0.00000000E+00
  8.80000000E+02  8.80000000E+01  0.00000000E+00
  8.90000000E+02  8.80000000E+01  0.00000000E+00
  9.00000000E+02  8.80000000E+01  0.00000000E+00
  9.10000000E+02  8.80000000E+01  0.00000000E+00
  9.20000000E+02  8.80000000E+01  0.00000000E+00
  9.30000000E+02  8.80000000E+01  0.00000000E+00
  9.40000000E+02  8.80000000E+01  0.00000000E+00
  9.50000000E+02  8.80000000E+01  0.00000000E+00
  9.60000000E+02  8.80000000E+01  0.00000000E+00
  9.70000000E+02  8.80000000E+01  0.00000000E+00
  9.80000000E+02  8.80000000E+01  0.00000000E+00
  9.90000000E+02  8.80000000E+01  0.00000000E+00
  1.00000000E+03  8.80000000E+01  0.00000000E+00
  0.00000000E+00  9.00000000E+01  0.00000000E+00
  1.00000000E+01  9.00000000E+01  0.00000000E+00
  2.00000000E+01  9.00000000E+01  0.00000000E+00
  3.00000000E+01  9.00000000E+01  0.00000000E+00
  4.00000000E+01  9.00000000E+01  0.00000000E+00
  5.00000000E+01  9.00000000E+01  0.00000000E+00
  6.00000000E+01  9.00000000E+01  0.00000000E+00
  7.00000000E+01  9.00000000E+01  0.00000000E+00
  8.00000000E+01  9.00000000E+01  0.00000000E+00
  9.00000000E+01  9.00000000E+01  0.00000000E+00
  1.00000000E+02  9.00000000E+01  0.00000000E+00
  1.10000000E+02  9.00000000E+01  0.00000000E+00
  1.20000000E+02  9.00000000E+01  0.00000000E+00
  1.30000000E+02  9.00000000E+01  0.00000000E+00
  1.40000000E+02  9.00000000E+01  0.00000000E+00
  1.50000000E+02  9.00000000E+01  0.00000000E+00
  1.60000000E+02  9.00000000E+01  0.00000000E+00
  1.70000000E+02  9.00000000E+01  0.00000000E+00
  1.80000000E+02  9.00000000E+01  0.00000000E+00
  1.90000000E+02  9.00000000E+01  0.00000000E+00
  2.00000000E+02  9.00000000E+01  0.00000000E+00
  2.10000000E+02  9.00000000E+01  0.00000000E+00
  2.20000000E+02  9.00000000E+01  0.00000000E+00
  2.30000000E+02  9.00000000E+01  0.00000000E+00
  2.40000000E+02  9.00000000E+01  0.00000000E+00
  2.50000000E+02  9.00000000E+01  0.00000000E+00
  2.60000000E+02  9.00000000E+01  0.00000000E+00
  2.70000000E+02  9.00000000E+01  0.00000000E+00
  2.80000000E+02  9.00000000E+01  0.00000000E+00
  2.90000000E+02  9.00000000E+01  0.00000000E+00
  3.00000000E+02  9.00000000E+01  0.00000000E+00
  3.10000000E+02  9.00000000E+01  0.00000000E+00
  3.20000000E+02  9.00000000E+01  0.00000000E+00
  3.30000000E+02  9.00000000E+01  0.00000000E+00
  3.40000000E+02  9.00000000E+01  0.00000000E+00
  3.50000000E+02  9.00000000E+01  0.00000000E+00
  3.60000000E+02  9.00000000E+01  0.00000000E+00
  3.70000000E+02  9.00000000E+01  0.00000000E+00
  3.80000000E+02  9.00000000E+01  0.00000000E+00
  3.90000000E+02  9.00000000E+01  0.00000000E+00
  4.00000000E+02  9.00000000E+01  0.00000000E+00
  4.10000000E+02  9.00000000E+01  0.00000000E+00
  4.20000000E+02  9.00000000E+01  0.00000000E+00
  4.30000000E+02  9.00000000E+01  0.00000000E+00
  4.40000000E+02  9.00000000E+01  0.00000000E+00
  4.50000000E+02  9.00000000E+01  0.00000000E+00
  4.60000000E+02  9.00000000E+01  0.00000000E+00
  4.70000000E+02  9.00000000E+01  0.00000000E+00
  4.80000000E+02  9.00000000E+01  0.00000000E+00
  4.90000000E+02  9.00000000E+01  0.00000000E+00
  5.00000000E+02  9.00000000E+01  0.00000000E+00
  5.10000000E+02  9.00000000E+01  0.00000000E+00
  5.20000000E+02  9.00000000E+01  0.00000000E+00
  5.30000000E+02  9.00000000E+01  0.00000000E+00
  5.40000000E+02  9.00000000E+01  0.00000000E+00
  5.50000000E+02  9.00000000E+01  0.00000000E+00
  5.60000000E+02  9.00000000E+01  0.00000000E+00
  5.70000000E+02  9.00000000E+01  0.00000000E+00
  5.80000000E+02  9.00000000E+01  0.00000000E+00
  5.90000000E+02  9.00000000E+01  0.00000000E+00
  6.00000000E+02  9.00000000E+01  0.00000000E+00
  6.10000000E+02  9.00000000E+01  0.00000000E+00
  6.20000000E+02  9.00000000E+01  0.00000000E+00
  6.30000000E+02  9.00000000E+01  0.00000000E+00
  6.40000000E+02  9.00000000E+01  0.00000000E+00
  6.50000000E+02  9.00000000E+01  0.00000000E+00
  6.60000000E+02  9.00000000E+01  0.00000000E+00
  6.70000000E+02  9.00000000E+01  0.00000000E+00
  6.80000000E+02  9.00000000E+01  0.00000000E+00
  6.90000000E+02  9.00000000E+01  0.00000000E+00
  7.00000000E+02  9.00000000E+01  0.00000000E+00
  7.10000000E+02  9.00000000E+01  0.00000000E+00
  7.20000000E+02  9.00000000E+01  0.00000000E+00
  7.30000000E+02  9.00000000E+01  0.00000000E+00
  7.40000000E+02  9.00000000E+01  0.00000000E+00
  7.50000000E+02  9.00000000E+01  0.00000000E+00
  7.60000000E+02  9.00000000E+01  0.00000000E+00
  7.70000000E+02  9.00000000E+01  0.00000000E+00
  7.80000000E+02  9.00000000E+01  0.00000000E+00
  7.90000000E+02  9.00000000E+01  0.00000000E+00
  8.00000000E+02  9.00000000E+01  0.00000000E+00
  8.10000000E+02  9.00000000E+01  0.00000000E+00
  8.20000000E+02  9.00000000E+01  0.00000000E+00
  8.30000000E+02  9.00000000E+01  0.00000000E+00
  8.40000000E+02  9.00000000E+01  0.00000000E+00
  8.50000000E+02  9.00000000E+01  0.00000000E+00
  8.60000000E+02  9.00000000E+01  0.00000000E+00
  8.70000000E+02  9.00000000E+01  0.00000000E+00
  8.80000000E+02  9.00000000E+01  0.00000000E+00
  8.90000000E+02  9.00000000E+01  0.00000000E+00
  9.00000000E+02  9.00000000E+01  0.00000000E+00
  9.10000000E+02  9.00000000E+01  0.00000000E+00
  9.20000000E+02  9.00000000E+01  0.00000000E+00
  9.30000000E+02  9.00000000E+01  0.00000000E+00
  9.40000000E+02  9.00000000E+01  0.00000000E+00
  9.50000000E+02  9.00000000E+01  0.00000000E+00
  9.60000000E+02  9.00000000E+01  0.00000000E+00
  9.70000000E+02  9.00000000E+01  0.00000000E+00
  9.80000000E+02  9.00000000E+01  0.00000000E+00
  9.90000000E+02  9.00000000E+01  0.00000000E+00
  1.00000000E+03  9.00000000E+01  0.00000000E+00
  0.00000000E+00  9.20000000E+01  0.00000000E+00
  1.00000000E+01  9.20000000E+01  0.00000000E+00
  2.00000000E+01  9.20000000E+01  0.00000000E+00
  3.00000000E+01  9.20000000E+01  0.00000000E+00
  4.00000000E+01  9.20000000E+01  0.00000000E+00
  5.00000000E+01  9.20000000E+01  0.00000000E+00
  6.00000000E+01  9.20000000E+01  0.00000000E+00
  7.00000000E+01  9.20000000E+01  0.00000000E+00
  8.00000000E+01  9.20000000E+01  0.00000000E+00
  9.00000000E+01  9.20000000E+01  0.00000000E+00
  1.00000000E+02  9.20000000E+01  0.00000000E+00
  1.10000000E+02  9.20000000E+01  0.00000000E+00
  1.20000000E+02  9.20000000E+01  0.00000000E+00
  1.30000000E+02  9.20000000E+01  0.00000000E+00
  1.40000000E+02  9.20000000E+01  0.00000000E+00
  1.50000000E+02  9.20000000E+01  0.00000000E+00
  1.60000000E+02  9.20000000E+01  0.00000000E+00
  1.70000000E+02  9.20000000E+01  0.00000000E+00
  1.80000000E+02  9.20000000E+01  0.00000000E+00
  1.90000000E+02  9.20000000E+01  0.00000000E+00
  2.00000000E+02  9.20000000E+01  0.00000000E+00
  2.10000000E+02  9.20000000E+01  0.00000000E+00
  2.20000000E+02  9.20000000E+01  0.00000000E+00
  2.30000000E+02  9.20000000E+01  0.00000000E+00
  2.40000000E+02  9.20000000E+01  0.00000000E+00
  2.50000000E+02  9.20000000E+01  0.00000000E+00
  2.60000000E+02  9.20000000E+01  0.00000000E+00
  2.70000000E+02  9.20000000E+01  0.00000000E+00
  2.80000000E+02  9.20000000E+01  0.00000000E+00
  2.90000000E+02  9.20000000E+01  0.00000000E+00
  3.00000000E+02  9.20000000E+01  0.00000000E+00
  3.10000000E+02  9.20000000E+01  0.00000000E+00
  3.20000000E+02  9.20000000E+01  0.00000000E+00
  3.30000000E+02  9.20000000E+01  0.00000000E+00
  3.40000000E+02  9.20000000E+01  0.00000000E+00
  3.50000000E+02  9.20000000E+01  0.00000000E+00
  3.60000000E+02  9.20000000E+01  0.00000000E+00
  3.70000000E+02  9.20000000E+01  0.00000000E+00
  3.80000000E+02  9.20000000E+01  0.00000000E+00
  3.90000000E+02  9.20000000E+01  0.00000000E+00
  4.00000000E+02  9.20000000E+01  0.00000000E+00
  4.10000000E+02  9.20000000E+01  0.00000000E+00
  4.20000000E+02  9.20000000E+01  0.00000000E+00
  4.30000000E+02  9.20000000E+01  0.00000000E+00
  4.40000000E+02  9.20000000E+01  0.00000000E+00
  4.50000000E+02  9.20000000E+01  0.00000000E+00
  4.60000000E+02  9.20000000E+01  0.00000000E+00
  4.70000000E+02  9.20000000E+01  0.00000000E+00
  4.80000000E+02  9.20000000E+01  0.00000000E+00
  4.90000000E+02  9.20000000E+01  0.00000000E+00
  5.00000000E+02  9.20000000E+01  0.00000000E+00
  5.10000000E+02  9.20000000E+01  0.00000000E+00
  5.20000000E+02  9.20000000E+01  0.00000000E+00
  5.30000000E+02  9.20000000E+01  0.00000000E+00
  5.40000000E+02  9.20000000E+01  0.00000000E+00
  5.50000000E+02  9.20000000E+01  0.00000000E+00
  5.60000000E+02  9.20000000E+01  0.00000000E+00
  5.70000000E+02  9.20000000E+01  0.00000000E+00
  5.80000000E+02  9.20000000E+01  0.00000000E+00
  5.90000000E+02  9.20000000E+01  0.00000000E+00
  6.00000000E+02  9.20000000E+01  0.00000000E+00
  6.10000000E+02  9.20000000E+01  0.00000000E+00
  6.20000000E+02  9.20000000E+01  0.00000000E+00
  6.30000000E+02  9.20000000E+01  0.00000000E+00
  6.40000000E+02  9.20000000E+01  0.00000000E+00
  6.50000000E+02  9.20000000E+01  0.00000000E+00
  6.60000000E+02  9.20000000E+01  0.00000000E+00
  6.70000000E+02  9.20000000E+01  0.00000000E+00
  6.80000000E+02  9.20000000E+01  0.00000000E+00
  6.90000000E+02  9.20000000E+01  0.00000000E+00
  7.00000000E+02  9.20000000E+01  0.00000000E+00
  7.10000000E+02  9.20000000E+01  0.00000000E+00
  7.20000000E+02  9.20000000E+01  0.00000000E+00
  7.30000000E+02  9.20000000E+01  0.00000000E+00
  7.40000000E+02  9.20000000E+01  0.00000000E+00
  7.50000000E+02  9.20000000E+01  0.00000000E+00
  7.60000000E+02  9.20000000E+01  0.00000000E+00
  7.70000000E+02  9.20000000E+01  0.00000000E+00
  7.80000000E+02  9.20000000E+01  0.00000000E+00
  7.90000000E+02  9.20000000E+01  0.00000000E+00
  8.00000000E+02  9.20000000E+01  0.00000000E+00
  8.10000000E+02  9.20000000E+01  0.00000000E+00
  8.20000000E+02  9.20000000E+01  0.00000000E+00
  8.30000000E+02  9.20000000E+01  0.00000000E+00
  8.40000000E+02  9.20000000E+01  0.00000000E+00
  8.50000000E+02  9.20000000E+01  0.00000000E+00
  8.60000000E+02  9.20000000E+01  0.00000000E+00
  8.70000000E+02  9.20000000E+01  0.00000000E+00
  8.80000000E+02  9.20000000E+01  0.00000000E+00
  8.90000000E+02  9.20000000E+01  0.00000000E+00
  9.00000000E+02  9.20000000E+01  0.00000000E+00
  9.10000000E+02  9.20000000E+01  0.00000000E+00
  9.20000000E+02  9.20000000E+01  0.00000000E+00
  9.30000000E+02  9.20000000E+01  0.00000000E+00
  9.40000000E+02  9.20000000E+01  0.00000000E+00
  9.50000000E+02  9.20000000E+01  0.00000000E+00
  9.60000000E+02  9.20000000E+01  0.00000000E+00
  9.70000000E+02  9.20000000E+01  0.00000000E+00
  9.80000000E+02  9.20000000E+01  0.00000000E+00
  9.90000000E+02  9.20000000E+01  0.00000000E+00
  1.00000000E+03  9.20000000E+01  0.00000000E+00
  0.00000000E+00  9.40000000E+01  0.00000000E+00
  1.00000000E+01  9.40000000E+01  0.00000000E+00
  2.00000000E+01  9.40000000E+01  0.00000000E+00
  3.00000000E+01  9.40000000E+01  0.00000000E+00
  4.00000000E+01  9.40000000E+01  0.00000000E+00
  5.00000000E+01  9.40000000E+01  0.00000000E+00
  6.00000000E+01  9.40000000E+01  0.00000000E+00
  7.00000000E+01  9.40000000E+01  0.00000000E+00
  8.00000000E+01  9.40000000E+01  0.00000000E+00
  9.00000000E+01  9.40000000E+01  0.00000000E+00
  1.00000000E+02  9.40000000E+01  0.00000000E+00
  1.10000000E+02  9.40000000E+01  0.00000000E+00
  1.20000000E+02  9.40000000E+01  0.00000000E+00
  1.30000000E+02  9.40000000E+01  0.00000000E+00
  1.40000000E+02  9.40000000E+01  0.00000000E+00
  1.50000000E+02  9.40000000E+01  0.00000000E+00
  1.60000000E+02  9.40000000E+01  0.00000000E+00
  1.70000000E+02  9.40000000E+01  0.00000000E+00
  1.80000000E+02  9.40000000E+01  0.00000000E+00
  1.90000000E+02  9.40000000E+01  0.00000000E+00
  2.00000000E+02  9.40000000E+01  0.00000000E+00
  2.10000000E+02  9.40000000E+01  0.00000000E+00
  2.20000000E+02  9.40000000E+01  0.00000000E+00
  2.30000000E+02  9.40000000E+01  0.00000000E+00
  2.40000000E+02  9.40000000E+01  0.00000000E+00
  2.50000000E+02  9.40000000E+01  0.00000000E+00
  2.60000000E+02  9.40000000E+01  0.00000000E+00
  2.70000000E+02  9.40000000E+01  0.00000000E+00
  2.80000000E+02  9.40000000E+01  0.00000000E+00
  2.90000000E+02  9.40000000E+01  0.00000000E+00
  3.00000000E+02  9.40000000E+01  0.00000000E+00
  3.10000000E+02  9.40000000E+01  0.00000000E+00
  3.20000000E+02  9.40000000E+01  0.00000000E+00
  3.30000000E+02  9.40000000E+01  0.00000000E+00
  3.40000000E+02  9.40000000E+01  0.00000000E+00
  3.50000000E+02  9.40000000E+01  0.00000000E+00
  3.60000000E+02  9.40000000E+01  0.00000000E+00
  3.70000000E+02  9.40000000E+01  0.00000000E+00
  3.80000000E+02  9.40000000E+01  0.00000000E+00
  3.90000000E+02  9.40000000E+01  0.00000000E+00
  4.00000000E+02  9.40000000E+01  0.00000000E+00
  4.10000000E+02  9.40000000E+01  0.00000000E+00
  4.20000000E+02  9.40000000E+01  0.00000000E+00
  4.30000000E+02  9.40000000E+01  0.00000000E+00
  4.40000000E+02  9.40000000E+01  0.00000000E+00
  4.50000000E+02  9.40000000E+01  0.00000000E+00
  4.60000000E+02  9.40000000E+01  0.00000000E+00
  4.70000000E+02  9.40000000E+01  0.00000000E+00
  4.80000000E+02  9.40000000E+01  0.00000000E+00
  4.90000000E+02  9.40000000E+01  0.00000000E+00
  5.00000000E+02  9.40000000E+01  0.00000000E+00
  5.10000000E+02  9.40000000E+01  0.00000000E+00
  5.20000000E+02  9.40000000E+01  0.00000000E+00
  5.30000000E+02  9.40000000E+01  0.00000000E+00
  5.40000000E+02  9.40000000E+01  0.00000000E+00
  5.50000000E+02  9.40000000E+01  0.00000000E+00
  5.60000000E+02  9.40000000E+01  0.00000000E+00
  5.70000000E+02  9.40000000E+01  0.00000000E+00
  5.80000000E+02  9.40000000E+01  0.00000000E+00
  5.90000000E+02  9.40000000E+01  0.00000000E+00
  6.00000000E+02  9.40000000E+01  0.00000000E+00
  6.10000000E+02  9.40000000E+01  0.00000000E+00
  6.20000000E+02  9.40000000E+01  0.00000000E+00
  6.30000000E+02  9.40000000E+01  0.00000000E+00
  6.40000000E+02  9.40000000E+01  0.00000000E+00
  6.50000000E+02  9.40000000E+01  0.00000000E+00
  6.60000000E+02  9.40000000E+01  0.00000000E+00
  6.70000000E+02  9.40000000E+01  0.00000000E+00
  6.80000000E+02  9.40000000E+01  0.00000000E+00
  6.90000000E+02  9.40000000E+01  0.00000000E+00
  7.00000000E+02  9.40000000E+01  0.00000000E+00
  7.10000000E+02  9.40000000E+01  0.00000000E+00
  7.20000000E+02  9.40000000E+01  0.00000000E+00
  7.30000000E+02  9.40000000E+01  0.00000000E+00
  7.40000000E+02  9.40000000E+01  0.00000000E+00
  7.50000000E+02  9.40000000E+01  0.00000000E+00
  7.60000000E+02  9.40000000E+01  0.00000000E+00
  7.70000000E+02  9.40000000E+01  0.00000000E+00
  7.80000000E+02  9.40000000E+01  0.00000000E+00
  7.90000000E+02  9.40000000E+01  0.00000000E+00
  8.00000000E+02  9.40000000E+01  0.00000000E+00
  8.10000000E+02  9.40000000E+01  0.00000000E+00
  8.20000000E+02  9.40000000E+01  0.00000000E+00
  8.30000000E+02  9.40000000E+01  0.00000000E+00
  8.40000000E+02  9.40000000E+01  0.00000000E+00
  8.50000000E+02  9.40000000E+01  0.00000000E+00
  8.60000000E+02  9.40000000E+01  0.00000000E+00
  8.70000000E+02  9.40000000E+01  0.00000000E+00
  8.80000000E+02  9.40000000E+01  0.00000000E+00
  8.90000000E+02  9.40000000E+01  0.00000000E+00
  9.00000000E+02  9.40000000E+01  0.00000000E+00
  9.10000000E+02  9.40000000E+01  0.00000000E+00
  9.20000000E+02  9.40000000E+01  0.00000000E+00
  9.30000000E+02  9.40000000E+01  0.00000000E+00
  9.40000000E+02  9.40000000E+01  0.00000000E+00
  9.50000000E+02  9.40000000E+01  0.00000000E+00
  9.60000000E+02  9.40000000E+01  0.00000000E+00
  9.70000000E+02  9.40000000E+01  0.00000000E+00
  9.80000000E+02  9.40000000E+01  0.00000000E+00
  9.90000000E+02  9.40000000E+01  0.00000000E+00
  1.00000000E+03  9.40000000E+01  0.00000000E+00
  0.00000000E+00  9.60000000E+01  0.00000000E+00
  1.00000000E+01  9.60000000E+01  0.00000000E+00
  2.00000000E+01  9.60000000E+01  0.00000000E+00
  3.00000000E+01  9.60000000E+01  0.00000000E+00
  4.00000000E+01  9.60000000E+01  0.00000000E+00
  5.00000000E+01  9.60000000E+01  0.00000000E+00
  6.00000000E+01  9.60000000E+01  0.00000000E+00
  7.00000000E+01  9.60000000E+01  0.00000000E+00
  8.00000000E+01  9.60000000E+01  0.00000000E+00
  9.00000000E+01  9.60000000E+01  0.00000000E+00
  1.00000000E+02  9.60000000E+01  0.00000000E+00
  1.10000000E+02  9.60000000E+01  0.00000000E+00
  1.20000000E+02  9.60000000E+01  0.00000000E+00
  1.30000000E+02  9.60000000E+01  0.00000000E+00
  1.40000000E+02  9.60000000E+01  0.00000000E+00
  1.50000000E+02  9.60000000E+01  0.00000000E+00
  1.60000000E+02  9.60000000E+01  0.00000000E+00
  1.70000000E+02  9.60000000E+01  0.00000000E+00
  1.80000000E+02  9.60000000E+01  0.00000000E+00
  1.90000000E+02  9.60000000E+01  0.00000000E+00
  2.00000000E+02  9.60000000E+01  0.00000000E+00
  2.10000000E+02  9.60000000E+01  0.00000000E+00
  2.20000000E+02  9.60000000E+01  0.00000000E+00
  2.30000000E+02  9.60000000E+01  0.00000000E+00
  2.40000000E+02  9.60000000E+01  0.00000000E+00
  2.50000000E+02  9.60000000E+01  0.00000000E+00
  2.60000000E+02  9.60000000E+01  0.00000000E+00
  2.70000000E+02  9.60000000E+01  0.00000000E+00
  2.80000000E+02  9.60000000E+01  0.00000000E+00
  2.90000000E+02  9.60000000E+01  0.00000000E+00
  3.00000000E+02  9.60000000E+01  0.00000000E+00
  3.10000000E+02  9.60000000E+01  0.00000000E+00
  3.20000000E+02  9.60000000E+01  0.00000000E+00
  3.30000000E+02  9.60000000E+01  0.00000000E+00
  3.40000000E+02  9.60000000E+01  0.00000000E+00
  3.50000000E+02  9.60000000E+01  0.00000000E+00
  3.60000000E+02  9.60000000E+01  0.00000000E+00
  3.70000000E+02  9.60000000E+01  0.00000000E+00
  3.80000000E+02  9.60000000E+01  0.00000000E+00
  3.90000000E+02  9.60000000E+01  0.00000000E+00
  4.00000000E+02  9.60000000E+01  0.00000000E+00
  4.10000000E+02  9.60000000E+01  0.00000000E+00
  4.20000000E+02  9.60000000E+01  0.00000000E+00
  4.30000000E+02  9.60000000E+01  0.00000000E+00
  4.40000000E+02  9.60000000E+01  0.00000000E+00
  4.50000000E+02  9.60000000E+01  0.00000000E+00
  4.60000000E+02  9.60000000E+01  0.00000000E+00
  4.70000000E+02  9.60000000E+01  0.00000000E+00
  4.80000000E+02  9.60000000E+01  0.00000000E+00
  4.90000000E+02  9.60000000E+01  0.00000000E+00
  5.00000000E+02  9.60000000E+01  0.00000000E+00
  5.10000000E+02  9.60000000E+01  0.00000000E+00
  5.20000000E+02  9.60000000E+01  0.00000000E+00
  5.30000000E+02  9.60000000E+01  0.00000000E+00
  5.40000000E+02  9.60000000E+01  0.00000000E+00
  5.50000000E+02  9.60000000E+01  0.00000000E+00
  5.60000000E+02  9.60000000E+01  0.00000000E+00
  5.70000000E+02  9.60000000E+01  0.00000000E+00
  5.80000000E+02  9.60000000E+01  0.00000000E+00
  5.90000000E+02  9.60000000E+01  0.00000000E+00
  6.00000000E+02  9.60000000E+01  0.00000000E+00
  6.10000000E+02  9.60000000E+01  0.00000000E+00
  6.20000000E+02  9.60000000E+01  0.00000000E+00
  6.30000000E+02  9.60000000E+01  0.00000000E+00
  6.40000000E+02  9.60000000E+01  0.00000000E+00
  6.50000000E+02  9.60000000E+01  0.00000000E+00
  6.60000000E+02  9.60000000E+01  0.00000000E+00
  6.70000000E+02  9.60000000E+01  0.00000000E+00
  6.80000000E+02  9.60000000E+01  0.00000000E+00
  6.90000000E+02  9.60000000E+01  0.00000000E+00
  7.00000000E+02  9.60000000E+01  0.00000000E+00
  7.10000000E+02  9.60000000E+01  0.00000000E+00
  7.20000000E+02  9.60000000E+01  0.00000000E+00
  7.30000000E+02  9.60000000E+01  0.00000000E+00
  7.40000000E+02  9.60000000E+01  0.00000000E+00
  7.50000000E+02  9.60000000E+01  0.00000000E+00
  7.60000000E+02  9.60000000E+01  0.00000000E+00
  7.70000000E+02  9.60000000E+01  0.00000000E+00
  7.80000000E+02  9.60000000E+01  0.00000000E+00
  7.90000000E+02  9.60000000E+01  0.00000000E+00
  8.00000000E+02  9.60000000E+01  0.00000000E+00
  8.10000000E+02  9.60000000E+01  0.00000000E+00
  8.20000000E+02  9.60000000E+01  0.00000000E+00
  8.30000000E+02  9.60000000E+01  0.00000000E+00
  8.40000000E+02  9.60000000E+01  0.00000000E+00
  8.50000000E+02  9.60000000E+01  0.00000000E+00
  8.60000000E+02  9.60000000E+01  0.00000000E+00
  8.70000000E+02  9.60000000E+01  0.00000000E+00
  8.80000000E+02  9.60000000E+01  0.00000000E+00
  8.90000000E+02  9.60000000E+01  0.00000000E+00
  9.00000000E+02  9.60000000E+01  0.00000000E+00
  9.10000000E+02  9.60000000E+01  0.00000000E+00
  9.20000000E+02  9.60000000E+01  0.00000000E+00
  9.30000000E+02  9.60000000E+01  0.00000000E+00
  9.40000000E+02  9.60000000E+01  0.00000000E+00
  9.50000000E+02  9.60000000E+01  0.00000000E+00
  9.60000000E+02  9.60000000E+01  0.00000000E+00
  9.70000000E+02  9.60000000E+01  0.00000000E+00
  9.80000000E+02  9.60000000E+01  0.00000000E+00
  9.90000000E+02  9.60000000E+01  0.00000000E+00
  1.00000000E+03  9.60000000E+01  0.00000000E+00
  0.00000000E+00  9.80000000E+01  0.00000000E+00
  1.00000000E+01  9.80000000E+01  0.00000000E+00
  2.00000000E+01  9.80000000E+01  0.00000000E+00
  3.00000000E+01  9.80000000E+01  0.00000000E+00
  4.00000000E+01  9.80000000E+01  0.00000000E+00
  5.00000000E+01  9.80000000E+01  0.00000000E+00
  6.00000000E+01  9.80000000E+01  0.00000000E+00
  7.00000000E+01  9.80000000E+01  0.00000000E+00
  8.00000000E+01  9.80000000E+01  0.00000000E+00
  9.00000000E+01  9.80000000E+01  0.00000000E+00
  1.00000000E+02  9.80000000E+01  0.00000000E+00
  1.10000000E+02  9.80000000E+01  0.00000000E+00
  1.20000000E+02  9.80000000E+01  0.00000000E+00
  1.30000000E+02  9.80000000E+01  0.00000000E+00
  1.40000000E+02  9.80000000E+01  0.00000000E+00
  1.50000000E+02  9.80000000E+01  0.00000000E+00
  1.60000000E+02  9.80000000E+01  0.00000000E+00
  1.70000000E+02  9.80000000E+01  0.00000000E+00
  1.80000000E+02  9.80000000E+01  0.00000000E+00
  1.90000000E+02  9.80000000E+01  0.00000000E+00
  2.00000000E+02  9.80000000E+01  0.00000000E+00
  2.10000000E+02  9.80000000E+01  0.00000000E+00
  2.20000000E+02  9.80000000E+01  0.00000000E+00
  2.30000000E+02  9.80000000E+01  0.00000000E+00
  2.40000000E+02  9.80000000E+01  0.00000000E+00
  2.50000000E+02  9.80000000E+01  0.00000000E+00
  2.60000000E+02  9.80000000E+01  0.00000000E+00
  2.70000000E+02  9.80000000E+01  0.00000000E+00
  2.80000000E+02  9.80000000E+01  0.00000000E+00
  2.90000000E+02  9.80000000E+01  0.00000000E+00
  3.00000000E+02  9.80000000E+01  0.00000000E+00
  3.10000000E+02  9.80000000E+01  0.00000000E+00
  3.20000000E+02  9.80000000E+01  0.00000000E+00
  3.30000000E+02  9.80000000E+01  0.00000000E+00
  3.40000000E+02  9.80000000E+01  0.00000000E+00
  3.50000000E+02  9.80000000E+01  0.00000000E+00
  3.60000000E+02  9.80000000E+01  0.00000000E+00
  3.70000000E+02  9.80000000E+01  0.00000000E+00
  3.80000000E+02  9.80000000E+01  0.00000000E+00
  3.90000000E+02  9.80000000E+01  0.00000000E+00
  4.00000000E+02  9.80000000E+01  0.00000000E+00
  4.10000000E+02  9.80000000E+01  0.00000000E+00
  4.20000000E+02  9.80000000E+01  0.00000000E+00
  4.30000000E+02  9.80000000E+01  0.00000000E+00
  4.40000000E+02  9.80000000E+01  0.00000000E+00
  4.50000000E+02  9.80000000E+01  0.00000000E+00
  4.60000000E+02  9.80000000E+01  0.00000000E+00
  4.70000000E+02  9.80000000E+01  0.00000000E+00
  4.80000000E+02  9.80000000E+01  0.00000000E+00
  4.90000000E+02  9.80000000E+01  0.00000000E+00
  5.00000000E+02  9.80000000E+01  0.00000000E+00
  5.10000000E+02  9.80000000E+01  0.00000000E+00
  5.20000000E+02  9.80000000E+01  0.00000000E+00
  5.30000000E+02  9.80000000E+01  0.00000000E+00
  5.40000000E+02  9.80000000E+01  0.00000000E+00
  5.50000000E+02  9.80000000E+01  0.00000000E+00
  5.60000000E+02  9.80000000E+01  0.00000000E+00
  5.70000000E+02  9.80000000E+01  0.00000000E+00
  5.80000000E+02  9.80000000E+01  0.00000000E+00
  5.90000000E+02  9.80000000E+01  0.00000000E+00
  6.00000000E+02  9.80000000E+01  0.00000000E+00
  6.10000000E+02  9.80000000E+01  0.00000000E+00
  6.20000000E+02  9.80000000E+01  0.00000000E+00
  6.30000000E+02  9.80000000E+01  0.00000000E+00
  6.40000000E+02  9.80000000E+01  0.00000000E+00
  6.50000000E+02  9.80000000E+01  0.00000000E+00
  6.60000000E+02  9.80000000E+01  0.00000000E+00
  6.70000000E+02  9.80000000E+01  0.00000000E+00
  6.80000000E+02  9.80000000E+01  0.00000000E+00
  6.90000000E+02  9.80000000E+01  0.00000000E+00
  7.00000000E+02  9.80000000E+01  0.00000000E+00
  7.10000000E+02  9.80000000E+01  0.00000000E+00
  7.20000000E+02  9.80000000E+01  0.00000000E+00
  7.30000000E+02  9.80000000E+01  0.00000000E+00
  7.40000000E+02  9.80000000E+01  0.00000000E+00
  7.50000000E+02  9.80000000E+01  0.00000000E+00
  7.60000000E+02  9.80000000E+01  0.00000000E+00
  7.70000000E+02  9.80000000E+01  0.00000000E+00
  7.80000000E+02  9.80000000E+01  0.00000000E+00
  7.90000000E+02  9.80000000E+01  0.00000000E+00
  8.00000000E+02  9.80000000E+01  0.00000000E+00
  8.10000000E+02  9.80000000E+01  0.00000000E+00
  8.20000000E+02  9.80000000E+01  0.00000000E+00
  8.30000000E+02  9.80000000E+01  0.00000000E+00
  8.40000000E+02  9.80000000E+01  0.00000000E+00
  8.50000000E+02  9.80000000E+01  0.00000000E+00
  8.60000000E+02  9.80000000E+01  0.00000000E+00
  8.70000000E+02  9.80000000E+01  0.00000000E+00
  8.80000000E+02  9.80000000E+01  0.00000000E+00
  8.90000000E+02  9.80000000E+01  0.00000000E+00
  9.00000000E+02  9.80000000E+01  0.00000000E+00
  9.10000000E+02  9.80000000E+01  0.00000000E+00
  9.20000000E+02  9.80000000E+01  0.00000000E+00
  9.30000000E+02  9.80000000E+01  0.00000000E+00
  9.40000000E+02  9.80000000E+01  0.00000000E+00
  9.50000000E+02  9.80000000E+01  0.00000000E+00
  9.60000000E+02  9.80000000E+01  0.00000000E+00
  9.70000000E+02  9.80000000E+01  0.00000000E+00
  9.80000000E+02  9.80000000E+01  0.00000000E+00
  9.90000000E+02  9.80000000E+01  0.00000000E+00
  1.00000000E+03  9.80000000E+01  0.00000000E+00
  0.00000000E+00  1.00000000E+02  0.00000000E+00
  1.00000000E+01  1.00000000E+02  0.00000000E+00
  2.00000000E+01  1.00000000E+02  0.00000000E+00
  3.00000000E+01  1.00000000E+02  0.00000000E+00
  4.00000000E+01  1.00000000E+02  0.00000000E+00
  5.00000000E+01  1.00000000E+02  0.00000000E+00
  6.00000000E+01  1.00000000E+02  0.00000000E+00
  7.00000000E+01  1.00000000E+02  0.00000000E+00
  8.00000000E+01  1.00000000E+02  0.00000000E+00
  9.00000000E+01  1.00000000E+02  0.00000000E+00
  1.00000000E+02  1.00000000E+02  0.00000000E+00
  1.10000000E+02  1.00000000E+02  0.00000000E+00
  1.20000000E+02  1.00000000E+02  0.00000000E+00
  1.30000000E+02  1.00000000E+02  0.00000000E+00
  1.40000000E+02  1.00000000E+02  0.00000000E+00
  1.50000000E+02  1.00000000E+02  0.00000000E+00
  1.60000000E+02  1.00000000E+02  0.00000000E+00
  1.70000000E+02  1.00000000E+02  0.00000000E+00
  1.80000000E+02  1.00000000E+02  0.00000000E+00
  1.90000000E+02  1.00000000E+02  0.00000000E+00
  2.00000000E+02  1.00000000E+02  0.00000000E+00
  2.10000000E+02  1.00000000E+02  0.00000000E+00
  2.20000000E+02  1.00000000E+02  0.00000000E+00
  2.30000000E+02  1.00000000E+02  0.00000000E+00
  2.40000000E+02  1.00000000E+02  0.00000000E+00
  2.50000000E+02  1.00000000E+02  0.00000000E+00
  2.60000000E+02  1.00000000E+02  0.00000000E+00
  2.70000000E+02  1.00000000E+02  0.00000000E+00
  2.80000000E+02  1.00000000E+02  0.00000000E+00
  2.90000000E+02  1.00000000E+02  0.00000000E+00
  3.00000000E+02  1.00000000E+02  0.00000000E+00
  3.10000000E+02  1.00000000E+02  0.00000000E+00
  3.20000000E+02  1.00000000E+02  0.00000000E+00
  3.30000000E+02  1.00000000E+02  0.00000000E+00
  3.40000000E+02  1.00000000E+02  0.00000000E+00
  3.50000000E+02  1.00000000E+02  0.00000000E+00
  3.60000000E+02  1.00000000E+02  0.00000000E+00
  3.70000000E+02  1.00000000E+02  0.00000000E+00
  3.80000000E+02  1.00000000E+02  0.00000000E+00
  3.90000000E+02  1.00000000E+02  0.00000000E+00
  4.00000000E+02  1.00000000E+02  0.00000000E+00
  4.10000000E+02  1.00000000E+02  0.00000000E+00
  4.20000000E+02  1.00000000E+02  0.00000000E+00
  4.30000000E+02  1.00000000E+02  0.00000000E+00
  4.40000000E+02  1.00000000E+02  0.00000000E+00
  4.50000000E+02  1.00000000E+02  0.00000000E+00
  4.60000000E+02  1.00000000E+02  0.00000000E+00
  4.70000000E+02  1.00000000E+02  0.00000000E+00
  4.80000000E+02  1.00000000E+02  0.00000000E+00
  4.90000000E+02  1.00000000E+02  0.00000000E+00
  5.00000000E+02  1.00000000E+02  0.00000000E+00
  5.10000000E+02  1.00000000E+02  0.00000000E+00
  5.20000000E+02  1.00000000E+02  0.00000000E+00
  5.30000000E+02  1.00000000E+02  0.00000000E+00
  5.40000000E+02  1.00000000E+02  0.00000000E+00
  5.50000000E+02  1.00000000E+02  0.00000000E+00
  5.60000000E+02  1.00000000E+02  0.00000000E+00
  5.70000000E+02  1.00000000E+02  0.00000000E+00
  5.80000000E+02  1.00000000E+02  0.00000000E+00
  5.90000000E+02  1.00000000E+02  0.00000000E+00
  6.00000000E+02  1.00000000E+02  0.00000000E+00
  6.10000000E+02  1.00000000E+02  0.00000000E+00
  6.20000000E+02  1.00000000E+02  0.00000000E+00
  6.30000000E+02  1.00000000E+02  0.00000000E+00
  6.40000000E+02  1.00000000E+02  0.00000000E+00
  6.50000000E+02  1.00000000E+02  0.00000000E+00
  6.60000000E+02  1.00000000E+02  0.00000000E+00
  6.70000000E+02  1.00000000E+02  0.00000000E+00
  6.80000000E+02  1.00000000E+02  0.00000000E+00
  6.90000000E+02  1.00000000E+02  0.00000000E+00
  7.00000000E+02  1.00000000E+02  0.00000000E+00
  7.10000000E+02  1.00000000E+02  0.00000000E+00
  7.20000000E+02  1.00000000E+02  0.00000000E+00
  7.30000000E+02  1.00000000E+02  0.00000000E+00
  7.40000000E+02  1.00000000E+02  0.00000000E+00
  7.50000000E+02  1.00000000E+02  0.00000000E+00
  7.60000000E+02  1.00000000E+02  0.00000000E+00
  7.70000000E+02  1.00000000E+02  0.00000000E+00
  7.80000000E+02  1.00000000E+02  0.00000000E+00
  7.90000000E+02  1.00000000E+02  0.00000000E+00
  8.00000000E+02  1.00000000E+02  0.00000000E+00
  8.10000000E+02  1.00000000E+02  0.00000000E+00
  8.20000000E+02  1.00000000E+02  0.00000000E+00
  8.30000000E+02  1.00000000E+02  0.00000000E+00
  8.40000000E+02  1.00000000E+02  0.00000000E+00
  8.50000000E+02  1.00000000E+02  0.00000000E+00
  8.60000000E+02  1.00000000E+02  0.00000000E+00
  8.70000000E+02  1.00000000E+02  0.00000000E+00
  8.80000000E+02  1.00000000E+02  0.00000000E+00
  8.90000000E+02  1.00000000E+02  0.00000000E+00
  9.00000000E+02  1.00000000E+02  0.00000000E+00
  9.10000000E+02  1.00000000E+02  0.00000000E+00
  9.20000000E+02  1.00000000E+02  0.00000000E+00
  9.30000000E+02  1.00000000E+02  0.00000000E+00
  9.40000000E+02  1.00000000E+02  0.00000000E+00
  9.50000000E+02  1.00000000E+02  0.00000000E+00
  9.60000000E+02  1.00000000E+02  0.00000000E+00
  9.70000000E+02  1.00000000E+02  0.00000000E+00
  9.80000000E+02  1.00000000E+02  0.00000000E+00
  9.90000000E+02  1.00000000E+02  0.00000000E+00
  1.00000000E+03  1.00000000E+02  0.00000000E+00
CELLS      5000     25000
         4           0           1         102         101
         4           1           2         103         102
         4           2           3         104         103
         4           3           4         105         104
         4           4           5         106         105
         4           5           6         107         106
         4           6           7         108         107
         4           7           8         109         108
         4           8           9         110         109
         4           9          10         111         110
         4          10          11         112         111
         4          11          12         113         112
         4          12          13         114         113
         4          13          14         115         114
         4          14          15         116         115
         4          15          16         117         116
         4          16          17         118         117
         4          17          18         119         118
         4          18          19         120         119
         4          19          20         121         120
         4          20          21         122         121
         4          21          22         123         122
         4          22          23         124         123
         4          23          24         125         124
         4          24          25         126         125
         4          25          26         127         126
         4          26          27         128         127
         4          27          28         129         128
         4          28          29         130         129
         4          29          30         131         130
         4          30          31         132         131
         4          31          32         133         132
         4          32          33         134         133
         4          33          34         135         134
         4          34          35         136         135
         4          35          36         137         136
         4          36          37         138         137
         4          37          38         139         138
         4          38          39         140         139
         4          39          40         141         140
         4          40          41         142         141
         4          41          42         143         142
         4          42          43         144         143
         4          43          44         145         144
         4          44          45         146         145
         4          45          46         147         146
         4          46          47         148         147
         4          47          48         149         148
         4          48          49         150         149
         4          49          50         151         150
         4          50          51         152         151
         4          51          52         153         152
         4          52          53         154         153
         4          53          54         155         154
         4          54          55         156         155
         4          55          56         157         156
         4          56          57         158         157
         4          57          58         159         158
         4          58          59         160         159
         4          59          60         161         160
         4          60          61         162         161
         4          61          62         163         162
         4          62          63         164         163
         4          63          64         165         164
         4          64          65         166         165
         4          65          66         167         166
         4          66          67         168         167
         4          67          68         169         168
         4          68          69         170         169
         4          69          70         171         170
         4          70          71         172         171
         4          71          72         173         172
         4          72          73         174         173
         4          73          74         175         174
         4          74          75         176         175
         4          75          76         177         176
         4          76          77         178         177
         4          77          78         179         178
         4          78          79         180         179
         4          79          80         181         180
         4          80          81         182         181
         4          81          82         183         182
         4          82          83         184         183
         4          83          84         185         184
         4          84          85         186         185
         4          85          86         187         186
         4          86          87         188         187
         4          87          88         189         188
         4          88          89         190         189
         4          89          90         191         190
         4          90          91         192         191
         4          91          92         193         192
         4          92          93         194         193
         4          93          94         195         194
         4          94          95         196         195
         4          95          96         197         196
         4          96          97         198         197
         4          97          98         199         198
         4          98          99         200         199
         4          99         100         201         200
         4         101         102         203         202
         4         102         103         204         203
         4         103         104         205         204
         4         104         105         206         205
         4         105         106         207         206
         4         106         107         208         207
         4         107         108         209         208
         4         108         109         210         209
         4         109         110         211         210
         4         110         111         212         211
         4         111         112         213         212
         4         112         113         214         213
         4         113         114         215         214
         4         114         115         216         215
         4         115         116         217         216
         4         116         117         218         217
         4         117         118         219         218
         4         118         119         220         219
         4         119         120         221         220
         4         120         121         222         221
         4         121         122         223         222
         4         122         123         224         223
         4         123         124         225         224
         4         124         125         226         225
         4         125         126         227         226
         4         126         127         228         227
         4         127         128         229         228
         4         128         129         230         229
         4         129         130         231         230
         4         130         131         232         231
         4         131         132         233         232
         4         132         133         234         233
         4         133         134         235         234
         4         134         135         236         235
         4         135         136         237         236
         4         136         137         238         237
         4         137         138         239         238
         4         138         139         240         239
         4         139         140         241         240
         4         140         141         242         241
         4         141         142         243         242
         4         142         143         244         243
         4         143         144         245         244
         4         144         145         246         245
         4         145         146         247         246
         4         146         147         248         247
         4         147         148         249         248
         4         148         149         250         249
         4         149         150         251         250
         4         150         151         252         251
         4         151         152         253         252
         4         152         153         254         253
         4         153         154         255         254
         4         154         155         256         255
         4         155         156         257         256
         4         156         157         258         257
         4         157         158         259         258
         4         158         159         260         259
         4         159         160         261         260
         4         160         161         262         261
         4         161         162         263         262
         4         162         163         264         263
         4         163         164         265         264
         4         164         165         266         265
         4         165         166         267         266
         4         166         167         268         267
         4         167         168         269         268
         4         168         169         270         269
         4         169         170         271         270
         4         170         171         272         271
         4         171         172         273         272
         4         172         173         274         273
         4         173         174         275         274
         4         174         175         276         275
         4         175         176         277         276
         4         176         177         278         277
         4         177         178         279         278
         4         178         179         280         279
         4         179         180         281         280
         4         180         181         282         281
         4         181         182         283         282
         4         182         183         284         283
         4         183         184         285         284
         4         184         185         286         285
         4         185         186         287         286
         4         186         187         288         287
         4         187         188         289         288
         4         188         189         290         289
         4         189         190         291         290
         4         190         191         292         291
         4         191         192         293         292
         4         192         193         294         293
         4         193         194         295         294
         4         194         195         296         295
         4         195         196         297         296
         4         196         197         298         297
         4         197         198         299         298
         4         198         199         300         299
         4         199         200         301         300
         4         200         201         302         301
         4         202         203         304         303
         4         203         204         305         304
         4         204         205         306         305
         4         205         206         307         306
         4         206         207         308         307
         4         207         208         309         308
         4         208         209         310         309
         4         209         210         311         310
         4         210         211         312         311
         4         211         212         313         312
         4         212         213         314         313
         4         213         214         315         314
         4         214         215         316         315
         4         215         216         317         316
         4         216         217         318         317
         4         217         218         319         318
         4         218         219         320         319
         4         219         220         321         320
         4         220         221         322         321
         4         221         222         323         322
         4         222         223         324         323
         4         223         224         325         324
         4         224         225         326         325
         4         225         226         327         326
         4         226         227         328         327
         4         227         228         329         328
         4         228         229         330         329
         4         229         230         331         330
         4         230         231         332         331
         4         231         232         333         332
         4         232         233         334         333
         4         233         234         335         334
         4         234         235         336         335
         4         235         236         337         336
         4         236         237         338         337
         4         237         238         339         338
         4         238         239         340         339
         4         239         240         341         340
         4         240         241         342         341
         4         241         242         343         342
         4         242         243         344         343
         4         243         244         345         344
         4         244         245         346         345
         4         245         246         347         346
         4         246         247         348         347
         4         247         248         349         348
         4         248         249         350         349
         4         249         250         351         350
         4         250         251         352         351
         4         251         252         353         352
         4         252         253         354         353
         4         253         254         355         354
         4         254         255         356         355
         4         255         256         357         356
         4         256         257         358         357
         4         257         258         359         358
         4         258         259         360         359
         4         259         260         361         360
         4         260         261         362         361
         4         261         262         363         362
         4         262         263         364         363
         4         263         264         365         364
         4         264         265         366         365
         4         265         266         367         366
         4         266         267         368         367
         4         267         268         369         368
         4         268         269         370         369
         4         269         270         371         370
         4         270         271         372         371
         4         271         272         373         372
         4         272         273         374         373
         4         273         274         375         374
         4         274         275         376         375
         4         275         276         377         376
         4         276         277         378         377
         4         277         278         379         378
         4         278         279         380         379
         4         279         280         381         380
         4         280         281         382         381
         4         281         282         383         382
         4         282         283         384         383
         4         283         284         385         384
         4         284         285         386         385
         4         285         286         387         386
         4         286         287         388         387
         4         287         288         389         388
         4         288         289         390         389
         4         289         290         391         390
         4         290         291         392         391
         4         291         292         393         392
         4         292         293         394         393
         4         293         294         395         394
         4         294         295         396         395
         4         295         296         397         396
         4         296         297         398         397
         4         297         298         399         398
         4         298         299         400         399
         4         299         300         401         400
         4         300         301         402         401
         4         301         302         403         402
         4         303         304         405         404
         4         304         305         406         405
         4         305         306         407         406
         4         306         307         408         407
         4         307         308         409         408
         4         308         309         410         409
         4         309         310         411         410
         4         310         311         412         411
         4         311         312         413         412
         4         312         313         414         413
         4         313         314         415         414
         4         314         315         416         415
         4         315         316         417         416
         4         316         317         418         417
         4         317         318         419         418
         4         318         319         420         419
         4         319         320         421         420
         4         320         321         422         421
         4         321         322         423         422
         4         322         323         424         423
         4         323         324         425         424
         4         324         325         426         425
         4         325         326         427         426
         4         326         327         428         427
         4         327         328         429         428
         4         328         329         430         429
         4         329         330         431         430
         4         330         331         432         431
         4         331         332         433         432
         4         332         333         434         433
         4         333         334         435         434
         4         334         335         436         435
         4         335         336         437         436
         4         336         337         438         437
         4         337         338         439         438
         4         338         339         440         439
         4         339         340         441         440
         4         340         341         442         441
         4         341         342         443         442
         4         342         343         444         443
         4         343         344         445         444
         4         344         345         446         445
         4         345         346         447         446
         4         346         347         448         447
         4         347         348         449         448
         4         348         349         450         449
         4         349         350         451         450
         4         350         351         452         451
         4         351         352         453         452
         4         352         353         454         453
         4         353         354         455         454
         4         354         355         456         455
         4         355         356         457         456
         4         356         357         458         457
         4         357         358         459         458
         4         358         359         460         459
         4         359         360         461         460
         4         360         361         462         461
         4         361         362         463         462
         4         362         363         464         463
         4         363         364         465         464
         4         364         365         466         465
         4         365         366         467         466
         4         366         367         468         467
         4         367         368         469         468
         4         368         369         470         469
         4         369         370         471         470
         4         370         371         472         471
         4         371         372         473         472
         4         372         373         474         473
         4         373         374         475         474
         4         374         375         476         475
         4         375         376         477         476
         4         376         377         478         477
         4         377         378         479         478
         4         378         379         480         479
         4         379         380         481         480
         4         380         381         482         481
         4         381         382         483         482
         4         382         383         484         483
         4         383         384         485         484
         4         384         385         486         485
         4         385         386         487         486
         4         386         387         488         487
         4         387         388         489         488
         4         388         389         490         489
         4         389         390         491         490
         4         390         391         492         491
         4         391         392         493         492
         4         392         393         494         493
         4         393         394         495         494
         4         394         395         496         495
         4         395         396         497         496
         4         396         397         498         497
         4         397         398         499         498
         4         398         399         500         499
         4         399         400         501         500
         4         400         401         502         501
         4         401         402         503         502
         4         402         403         504         503
         4         404         405         506         505
         4         405         406         507         506
         4         406         407         508         507
         4         407         408         509         508
         4         408         409         510         509
         4         409         410         511         510
         4         410         411         512         511
         4         411         412         513         512
         4         412         413         514         513
         4         413         414         515         514
         4         414         415         516         515
         4         415         416         517         516
         4         416         417         518         517
         4         417         418         519         518
         4         418         419         520         519
         4         419         420         521         520
         4         420         421         522         521
         4         421         422         523         522
         4         422         423         524         523
         4         423         424         525         524
         4         424         425         526         525
         4         425         426         527         526
         4         426         427         528         527
         4         427         428         529         528
         4         428         429         530         529
         4         429         430         531         530
         4         430         431         532         531
         4         431         432         533         532
         4         432         433         534         533
         4         433         434         535         534
         4         434         435         536         535
         4         435         436         537         536
         4         436         437         538         537
         4         437         438         539         538
         4         438         439         540         539
         4         439         440         541         540
         4         440         441         542         541
         4         441         442         543         542
         4         442         443         544         543
         4         443         444         545         544
         4         444         445         546         545
         4         445         446         547         546
         4         446         447         548         547
         4         447         448         549         548
         4         448         449         550         549
         4         449         450         551         550
         4         450         451         552         551
         4         451         452         553         552
         4         452         453         554         553
         4         453         454         555         554
         4         454         455         556         555
         4         455         456         557         556
         4         456         457         558         557
         4         457         458         559         558
         4         458         459         560         559
         4         459         460         561         560
         4         460         461         562         561
         4         461         462         563         562
         4         462         463         564         563
         4         463         464         565         564
         4         464         465         566         565
         4         465         466         567         566
         4         466         467         568         567
         4         467         468         569         568
         4         468         469         570         569
         4         469         470         571         570
         4         470         471         572         571
         4         471         472         573         572
         4         472         473         574         573
         4         473         474         575         574
         4         474         475         576         575
         4         475         476         577         576
         4         476         477         578         577
         4         477         478         579         578
         4         478         479         580         579
         4         479         480         581         580
         4         480         481         582         581
         4         481         482         583         582
         4         482         483         584         583
         4         483         484         585         584
         4         484         485         586         585
         4         485         486         587         586
         4         486         487         588         587
         4         487         488         589         588
         4         488         489         590         589
         4         489         490         591         590
         4         490         491         592         591
         4         491         492         593         592
         4         492         493         594         593
         4         493         494         595         594
         4         494         495         596         595
         4         495         496         597         596
         4         496         497         598         597
         4         497         498         599         598
         4         498         499         600         599
         4         499         500         601         600
         4         500         501         602         601
         4         501         502         603         602
         4         502         503         604         603
         4         503         504         605         604
         4         505         506         607         606
         4         506         507         608         607
         4         507         508         609         608
         4         508         509         610         609
         4         509         510         611         610
         4         510         511         612         611
         4         511         512         613         612
         4         512         513         614         613
         4         513         514         615         614
         4         514         515         616         615
         4         515         516         617         616
         4         516         517         618         617
         4         517         518         619         618
         4         518         519         620         619
         4         519         520         621         620
         4         520         521         622         621
         4         521         522         623         622
         4         522         523         624         623
         4         523         524         625         624
         4         524         525         626         625
         4         525         526         627         626
         4         526         527         628         627
         4         527         528         629         628
         4         528         529         630         629
         4         529         530         631         630
         4         530         531         632         631
         4         531         532         633         632
         4         532         533         634         633
         4         533         534         635         634
         4         534         535         636         635
         4         535         536         637         636
         4         536         537         638         637
         4         537         538         639         638
         4         538         539         640         639
         4         539         540         641         640
         4         540         541         642         641
         4         541         542         643         642
         4         542         543         644         643
         4         543         544         645         644
         4         544         545         646         645
         4         545         546         647         646
         4         546         547         648         647
         4         547         548         649         648
         4         548         549         650         649
         4         549         550         651         650
         4         550         551         652         651
         4         551         552         653         652
         4         552         553         654         653
         4         553         554         655         654
         4         554         555         656         655
         4         555         556         657         656
         4         556         557         658         657
         4         557         558         659         658
         4         558         559         660         659
         4         559         560         661         660
         4         560         561         662         661
         4         561         562         663         662
         4         562         563         664         663
         4         563         564         665         664
         4         564         565         666         665
         4         565         566         667         666
         4         566         567         668         667
         4         567         568         669         668
         4         568         569         670         669
         4         569         570         671         670
         4         570         571         672         671
         4         571         572         673         672
         4         572         573         674         673
         4         573         574         675         674
         4         574         575         676         675
         4         575         576         677         676
         4         576         577         678         677
         4         577         578         679         678
         4         578         579         680         679
         4         579         580         681         680
         4         580         581         682         681
         4         581         582         683         682
         4         582         583         684         683
         4         583         584         685         684
         4         584         585         686         685
         4         585         586         687         686
         4         586         587         688         687
         4         587         588         689         688
         4         588         589         690         689
         4         589         590         691         690
         4         590         591         692         691
         4         591         592         693         692
         4         592         593         694         693
         4         593         594         695         694
         4         594         595         696         695
         4         595         596         697         696
         4         596         597         698         697
         4         597         598         699         698
         4         598         599         700         699
         4         599         600         701         700
         4         600         601         702         701
         4         601         602         703         702
         4         602         603         704         703
         4         603         604         705         704
         4         604         605         706         705
         4         606         607         708         707
         4         607         608         709         708
         4         608         609         710         709
         4         609         610         711         710
         4         610         611         712         711
         4         611         612         713         712
         4         612         613         714         713
         4         613         614         715         714
         4         614         615         716         715
         4         615         616         717         716
         4         616         617         718         717
         4         617         618         719         718
         4         618         619         720         719
         4         619         620         721         720
         4         620         621         722         721
         4         621         622         723         722
         4         622         623         724         723
         4         623         624         725         724
         4         624         625         726         725
         4         625         626         727         726
         4         626         627         728         727
         4         627         628         729         728
         4         628         629         730         729
         4         629         630         731         730
         4         630         631         732         731
         4         631         632         733         732
         4         632         633         734         733
         4         633         634         735         734
         4         634         635         736         735
         4         635         636         737         736
         4         636         637         738         737
         4         637         638         739         738
         4         638         639         740         739
         4         639         640         741         740
         4         640         641         742         741
         4         641         642         743         742
         4         642         643         744         743
         4         643         644         745         744
         4         644         645         746         745
         4         645         646         747         746
         4         646         647         748         747
         4         647         648         749         748
         4         648         649         750         749
         4         649         650         751         750
         4         650         651         752         751
         4         651         652         753         752
         4         652         653         754         753
         4         653         654         755         754
         4         654         655         756         755
         4         655         656         757         756
         4         656         657         758         757
         4         657         658         759         758
         4         658         659         760         759
         4         659         660         761         760
         4         660         661         762         761
         4         661         662         763         762
         4         662         663         764         763
         4         663         664         765         764
         4         664         665         766         765
         4         665         666         767         766
         4         666         667         768         767
         4         667         668         769         768
         4         668         669         770         769
         4         669         670         771         770
         4         670         671         772         771
         4         671         672         773         772
         4         672         673         774         773
         4         673         674         775         774
         4         674         675         776         775
         4         675         676         777         776
         4         676         677         778         777
         4         677         678         779         778
         4         678         679         780         779
         4         679         680         781         780
         4         680         681         782         781
         4         681         682         783         782
         4         682         683         784         783
         4         683         684         785         784
         4         684         685         786         785
         4         685         686         787         786
         4         686         687         788         787
         4         687         688         789         788
         4         688         689         790         789
         4         689         690         791         790
         4         690         691         792         791
         4         691         692         793         792
         4         692         693         794         793
         4         693         694         795         794
         4         694         695         796         795
         4         695         696         797         796
         4         696         697         798         797
         4         697         698         799         798
         4         698         699         800         799
         4         699         700         801         800
         4         700         701         802         801
         4         701         702         803         802
         4         702         703         804         803
         4         703         704         805         804
         4         704         705         806         805
         4         705         706         807         806
         4         707         708         809         808
         4         708         709         810         809
         4         709         710         811         810
         4         710         711         812         811
         4         711         712         813         812
         4         712         713         814         813
         4         713         714         815         814
         4         714         715         816         815
         4         715         716         817         816
         4         716         717         818         817
         4         717         718         819         818
         4         718         719         820         819
         4         719         720         821         820
         4         720         721         822         821
         4         721         722         823         822
         4         722         723         824         823
         4         723         724         825         824
         4         724         725         826         825
         4         725         726         827         826
         4         726         727         828         827
         4         727         728         829         828
         4         728         729         830         829
         4         729         730         831         830
         4         730         731         832         831
         4         731         732         833         832
         4         732         733         834         833
         4         733         734         835         834
         4         734         735         836         835
         4         735         736         837         836
         4         736         737         838         837
         4         737         738         839         838
         4         738         739         840         839
         4         739         740         841         840
         4         740         741         842         841
         4         741         742         843         842
         4         742         743         844         843
         4         743         744         845         844
         4         744         745         846         845
         4         745         746         847         846
         4         746         747         848         847
         4         747         748         849         848
         4         748         749         850         849
         4         749         750         851         850
         4         750         751         852         851
         4         751         752         853         852
         4         752         753         854         853
         4         753         754         855         854
         4         754         755         856         855
         4         755         756         857         856
         4         756         757         858         857
         4         757         758         859         858
         4         758         759         860         859
         4         759         760         861         860
         4         760         761         862         861
         4         761         762         863         862
         4         762         763         864         863
         4         763         764         865         864
         4         764         765         866         865
         4         765         766         867         866
         4         766         767         868         867
         4         767         768         869         868
         4         768         769         870         869
         4         769         770         871         870
         4         770         771         872         871
         4         771         772         873         872
         4         772         773         874         873
         4         773         774         875         874
         4         774         775         876         875
         4         775         776         877         876
         4         776         777         878         877
         4         777         778         879         878
         4         778         779         880         879
         4         779         780         881         880
         4         780         781         882         881
         4         781         782         883         882
         4         782         783         884         883
         4         783         784         885         884
         4         784         785         886         885
         4         785         786         887         886
         4         786         787         888         887
         4         787         788         889         888
         4         788         789         890         889
         4         789         790         891         890
         4         790         791         892         891
         4         791         792         893         892
         4         792         793         894         893
         4         793         794         895         894
         4         794         795         896         895
         4         795         796         897         896
         4         796         797         898         897
         4         797         798         899         898
         4         798         799         900         899
         4         799         800         901         900
         4         800         801         902         901
         4         801         802         903         902
         4         802         803         904         903
         4         803         804         905         904
         4         804         805         906         905
         4         805         806         907         906
         4         806         807         908         907
         4         808         809         910         909
         4         809         810         911         910
         4         810         811         912         911
         4         811         812         913         912
         4         812         813         914         913
         4         813         814         915         914
         4         814         815         916         915
         4         815         816         917         916
         4         816         817         918         917
         4         817         818         919         918
         4         818         819         920         919
         4         819         820         921         920
         4         820         821         922         921
         4         821         822         923         922
         4         822         823         924         923
         4         823         824         925         924
         4         824         825         926         925
         4         825         826         927         926
         4         826         827         928         927
         4         827         828         929         928
         4         828         829         930         929
         4         829         830         931         930
         4         830         831         932         931
         4         831         832         933         932
         4         832         833         934         933
         4         833         834         935         934
         4         834         835         936         935
         4         835         836         937         936
         4         836         837         938         937
         4         837         838         939         938
         4         838         839         940         939
         4         839         840         941         940
         4         840         841         942         941
         4         841         842         943         942
         4         842         843         944         943
         4         843         844         945         944
         4         844         845         946         945
         4         845         846         947         946
         4         846         847         948         947
         4         847         848         949         948
         4         848         849         950         949
         4         849         850         951         950
         4         850         851         952         951
         4         851         852         953         952
         4         852         853         954         953
         4         853         854         955         954
         4         854         855         956         955
         4         855         856         957         956
         4         856         857         958         957
         4         857         858         959         958
         4         858         859         960         959
         4         859         860         961         960
         4         860         861         962         961
         4         861         862         963         962
         4         862         863         964         963
         4         863         864         965         964
         4         864         865         966         965
         4         865         866         967         966
         4         866         867         968         967
         4         867         868         969         968
         4         868         869         970         969
         4         869         870         971         970
         4         870         871         972         971
         4         871         872         973         972
         4         872         873         974         973
         4         873         874         975         974
         4         874         875         976         975
         4         875         876         977         976
         4         876         877         978         977
         4         877         878         979         978
         4         878         879         980         979
         4         879         880         981         980
         4         880         881         982         981
         4         881         882         983         982
         4         882         883         984         983
         4         883         884         985         984
         4         884         885         986         985
         4         885         886         987         986
         4         886         887         988         987
         4         887         888         989         988
         4         888         889         990         989
         4         889         890         991         990
         4         890         891         992         991
         4         891         892         993         992
         4         892         893         994         993
         4         893         894         995         994
         4         894         895         996         995
         4         895         896         997         996
         4         896         897         998         997
         4         897         898         999         998
         4         898         899        1000         999
         4         899         900        1001        1000
         4         900         901        1002        1001
         4         901         902        1003        1002
         4         902         903        1004        1003
         4         903         904        1005        1004
         4         904         905        1006        1005
         4         905         906        1007        1006
         4         906         907        1008        1007
         4         907         908        1009        1008
         4         909         910        1011        1010
         4         910         911        1012        1011
         4         911         912        1013        1012
         4         912         913        1014        1013
         4         913         914        1015        1014
         4         914         915        1016        1015
         4         915         916        1017        1016
         4         916         917        1018        1017
         4         917         918        1019        1018
         4         918         919        1020        1019
         4         919         920        1021        1020
         4         920         921        1022        1021
         4         921         922        1023        1022
         4         922         923        1024        1023
         4         923         924        1025        1024
         4         924         925        1026        1025
         4         925         926        1027        1026
         4         926         927        1028        1027
         4         927         928        1029        1028
         4         928         929        1030        1029
         4         929         930        1031        1030
         4         930         931        1032        1031
         4         931         932        1033        1032
         4         932         933        1034        1033
         4         933         934        1035        1034
         4         934         935        1036        1035
         4         935         936        1037        1036
         4         936         937        1038        1037
         4         937         938        1039        1038
         4         938         939        1040        1039
         4         939         940        1041        1040
         4         940         941        1042        1041
         4         941         942        1043        1042
         4         942         943        1044        1043
         4         943         944        1045        1044
         4         944         945        1046        1045
         4         945         946        1047        1046
         4         946         947        1048        1047
         4         947         948        1049        1048
         4         948         949        1050        1049
         4         949         950        1051        1050
         4         950         951        1052        1051
         4         951         952        1053        1052
         4         952         953        1054        1053
         4         953         954        1055        1054
         4         954         955        1056        1055
         4         955         956        1057        1056
         4         956         957        1058        1057
         4         957         958        1059        1058
         4         958         959        1060        1059
         4         959         960        1061        1060
         4         960         961        1062        1061
         4         961         962        1063        1062
         4         962         963        1064        1063
         4         963         964        1065        1064
         4         964         965        1066        1065
         4         965         966        1067        1066
         4         966         967        1068        1067
         4         967         968        1069        1068
         4         968         969        1070        1069
         4         969         970        1071        1070
         4         970         971        1072        1071
         4         971         972        1073        1072
         4         972         973        1074        1073
         4         973         974        1075        1074
         4         974         975        1076        1075
         4         975         976        1077        1076
         4         976         977        1078        1077
         4         977         978        1079        1078
         4         978         979        1080        1079
         4         979         980        1081        1080
         4         980         981        1082        1081
         4         981         982        1083        1082
         4         982         983        1084        1083
         4         983         984        1085        1084
         4         984         985        1086        1085
         4         985         986        1087        1086
         4         986         987        1088        1087
         4         987         988        1089        1088
         4         988         989        1090        1089
         4         989         990        1091        1090
         4         990         991        1092        1091
         4         991         992        1093        1092
         4         992         993        1094        1093
         4         993         994        1095        1094
         4         994         995        1096        1095
         4         995         996        1097        1096
         4         996         997        1098        1097
         4         997         998        1099        1098
         4         998         999        1100        1099
         4         999        1000        1101        1100
         4        1000        1001        1102        1101
         4        1001        1002        1103        1102
         4        1002        1003        1104        1103
         4        1003        1004        1105        1104
         4        1004        1005        1106        1105
         4        1005        1006        1107        1106
         4        1006        1007        1108        1107
         4        1007        1008        1109        1108
         4        1008        1009        1110        1109
         4        1010        1011        1112        1111
         4        1011        1012        1113        1112
         4        1012        1013        1114        1113
         4        1013        1014        1115        1114
         4        1014        1015        1116        1115
         4        1015        1016        1117        1116
         4        1016        1017        1118        1117
         4        1017        1018        1119        1118
         4        1018        1019        1120        1119
         4        1019        1020        1121        1120
         4        1020        1021        1122        1121
         4        1021        1022        1123        1122
         4        1022        1023        1124        1123
         4        1023        1024        1125        1124
         4        1024        1025        1126        1125
         4        1025        1026        1127        1126
         4        1026        1027        1128        1127
         4        1027        1028        1129        1128
         4        1028        1029        1130        1129
         4        1029        1030        1131        1130
         4        1030        1031        1132        1131
         4        1031        1032        1133        1132
         4        1032        1033        1134        1133
         4        1033        1034        1135        1134
         4        1034        1035        1136        1135
         4        1035        1036        1137        1136
         4        1036        1037        1138        1137
         4        1037        1038        1139        1138
         4        1038        1039        1140        1139
         4        1039        1040        1141        1140
         4        1040        1041        1142        1141
         4        1041        1042        1143        1142
         4        1042        1043        1144        1143
         4        1043        1044        1145        1144
         4        1044        1045        1146        1145
         4        1045        1046        1147        1146
         4        1046        1047        1148        1147
         4        1047        1048        1149        1148
         4        1048        1049        1150        1149
         4        1049        1050        1151        1150
         4        1050        1051        1152        1151
         4        1051        1052        1153        1152
         4        1052        1053        1154        1153
         4        1053        1054        1155        1154
         4        1054        1055        1156        1155
         4        1055        1056        1157        1156
         4        1056        1057        1158        1157
         4        1057        1058        1159        1158
         4        1058        1059        1160        1159
         4        1059        1060        1161        1160
         4        1060        1061        1162        1161
         4        1061        1062        1163        1162
         4        1062        1063        1164        1163
         4        1063        1064        1165        1164
         4        1064        1065        1166        1165
         4        1065        1066        1167        1166
         4        1066        1067        1168        1167
         4        1067        1068        1169        1168
         4        1068        1069        1170        1169
         4        1069        1070        1171        1170
         4        1070        1071        1172        1171
         4        1071        1072        1173        1172
         4        1072        1073        1174        1173
         4        1073        1074        1175        1174
         4        1074        1075        1176        1175
         4        1075        1076        1177        1176
         4        1076        1077        1178        1177
         4        1077        1078        1179        1178
         4        1078        1079        1180        1179
         4        1079        1080        1181        1180
         4        1080        1081        1182        1181
         4        1081        1082        1183        1182
         4        1082        1083        1184        1183
         4        1083        1084        1185        1184
         4        1084        1085        1186        1185
         4        1085        1086        1187        1186
         4        1086        1087        1188        1187
         4        1087        1088        1189        1188
         4        1088        1089        1190        1189
         4        1089        1090        1191        1190
         4        1090        1091        1192        1191
         4        1091        1092        1193        1192
         4        1092        1093        1194        1193
         4        1093        1094        1195        1194
         4        1094        1095        1196        1195
         4        1095        1096        1197        1196
         4        1096        1097        1198        1197
         4        1097        1098        1199        1198
         4        1098        1099        1200        1199
         4        1099        1100        1201        1200
         4        1100        1101        1202        1201
         4        1101        1102        1203        1202
         4        1102        1103        1204        1203
         4        1103        1104        1205        1204
         4        1104        1105        1206        1205
         4        1105        1106        1207        1206
         4        1106        1107        1208        1207
         4        1107        1108        1209        1208
         4        1108        1109        1210        1209
         4        1109        1110        1211        1210
         4        1111        1112        1213        1212
         4        1112        1113        1214        1213
         4        1113        1114        1215        1214
         4        1114        1115        1216        1215
         4        1115        1116        1217        1216
         4        1116        1117        1218        1217
         4        1117        1118        1219        1218
         4        1118        1119        1220        1219
         4        1119        1120        1221        1220
         4        1120        1121        1222        1221
         4        1121        1122        1223        1222
         4        1122        1123        1224        1223
         4        1123        1124        1225        1224
         4        1124        1125        1226        1225
         4        1125        1126        1227        1226
         4        1126        1127        1228        1227
         4        1127        1128        1229        1228
         4        1128        1129        1230        1229
         4        1129        1130        1231        1230
         4        1130        1131        1232        1231
         4        1131        1132        1233        1232
         4        1132        1133        1234        1233
         4        1133        1134        1235        1234
         4        1134        1135        1236        1235
         4        1135        1136        1237        1236
         4        1136        1137        1238        1237
         4        1137        1138        1239        1238
         4        1138        1139        1240        1239
         4        1139        1140        1241        1240
         4        1140        1141        1242        1241
         4        1141        1142        1243        1242
         4        1142        1143        1244        1243
         4        1143        1144        1245        1244
         4        1144        1145        1246        1245
         4        1145        1146        1247        1246
         4        1146        1147        1248        1247
         4        1147        1148        1249        1248
         4        1148        1149        1250        1249
         4        1149        1150        1251        1250
         4        1150        1151        1252        1251
         4        1151        1152        1253        1252
         4        1152        1153        1254        1253
         4        1153        1154        1255        1254
         4        1154        1155        1256        1255
         4        1155        1156        1257        1256
         4        1156        1157        1258        1257
         4        1157        1158        1259        1258
         4        1158        1159        1260        1259
         4        1159        1160        1261        1260
         4        1160        1161        1262        1261
         4        1161        1162        1263        1262
         4        1162        1163        1264        1263
         4        1163        1164        1265        1264
         4        1164        1165        1266        1265
         4        1165        1166        1267        1266
         4        1166        1167        1268        1267
         4        1167        1168        1269        1268
         4        1168        1169        1270        1269
         4        1169        1170        1271        1270
         4        1170        1171        1272        1271
         4        1171        1172        1273        1272
         4        1172        1173        1274        1273
         4        1173        1174        1275        1274
         4        1174        1175        1276        1275
         4        1175        1176        1277        1276
         4        1176        1177        1278        1277
         4        1177        1178        1279        1278
         4        1178        1179        1280        1279
         4        1179        1180        1281        1280
         4        1180        1181        1282        1281
         4        1181        1182        1283        1282
         4        1182        1183        1284        1283
         4        1183        1184        1285        1284
         4        1184        1185        1286        1285
         4        1185        1186        1287        1286
         4        1186        1187        1288        1287
         4        1187        1188        1289        1288
         4        1188        1189        1290        1289
         4        1189        1190        1291        1290
         4        1190        1191        1292        1291
         4        1191        1192        1293        1292
         4        1192        1193        1294        1293
         4        1193        1194        1295        1294
         4        1194        1195        1296        1295
         4        1195        1196        1297        1296
         4        1196        1197        1298        1297
         4        1197        1198        1299        1298
         4        1198        1199        1300        1299
         4        1199        1200        1301        1300
         4        1200        1201        1302        1301
         4        1201        1202        1303        1302
         4        1202        1203        1304        1303
         4        1203        1204        1305        1304
         4        1204        1205        1306        1305
         4        1205        1206        1307        1306
         4        1206        1207        1308        1307
         4        1207        1208        1309        1308
         4        1208        1209        1310        1309
         4        1209        1210        1311        1310
         4        1210        1211        1312        1311
         4        1212        1213        1314        1313
         4        1213        1214        1315        1314
         4        1214        1215        1316        1315
         4        1215        1216        1317        1316
         4        1216        1217        1318        1317
         4        1217        1218        1319        1318
         4        1218        1219        1320        1319
         4        1219        1220        1321        1320
         4        1220        1221        1322        1321
         4        1221        1222        1323        1322
         4        1222        1223        1324        1323
         4        1223        1224        1325        1324
         4        1224        1225        1326        1325
         4        1225        1226        1327        1326
         4        1226        1227        1328        1327
         4        1227        1228        1329        1328
         4        1228        1229        1330        1329
         4        1229        1230        1331        1330
         4        1230        1231        1332        1331
         4        1231        1232        1333        1332
         4        1232        1233        1334        1333
         4        1233        1234        1335        1334
         4        1234        1235        1336        1335
         4        1235        1236        1337        1336
         4        1236        1237        1338        1337
         4        1237        1238        1339        1338
         4        1238        1239        1340        1339
         4        1239        1240        1341        1340
         4        1240        1241        1342        1341
         4        1241        1242        1343        1342
         4        1242        1243        1344        1343
         4        1243        1244        1345        1344
         4        1244        1245        1346        1345
         4        1245        1246        1347        1346
         4        1246        1247        1348        1347
         4        1247        1248        1349        1348
         4        1248        1249        1350        1349
         4        1249        1250        1351        1350
         4        1250        1251        1352        1351
         4        1251        1252        1353        1352
         4        1252        1253        1354        1353
         4        1253        1254        1355        1354
         4        1254        1255        1356        1355
         4        1255        1256        1357        1356
         4        1256        1257        1358        1357
         4        1257        1258        1359        1358
         4        1258        1259        1360        1359
         4        1259        1260        1361        1360
         4        1260        1261        1362        1361
         4        1261        1262        1363        1362
         4        1262        1263        1364        1363
         4        1263        1264        1365        1364
         4        1264        1265        1366        1365
         4        1265        1266        1367        1366
         4        1266        1267        1368        1367
         4        1267        1268        1369        1368
         4        1268        1269        1370        1369
         4        1269        1270        1371        1370
         4        1270        1271        1372        1371
         4        1271        1272        1373        1372
         4        1272        1273        1374        1373
         4        1273        1274        1375        1374
         4        1274        1275        1376        1375
         4        1275        1276        1377        1376
         4        1276        1277        1378        1377
         4        1277        1278        1379        1378
         4        1278        1279        1380        1379
         4        1279        1280        1381        1380
         4        1280        1281        1382        1381
         4        1281        1282        1383        1382
         4        1282        1283        1384        1383
         4        1283        1284        1385        1384
         4        1284        1285        1386        1385
         4        1285        1286        1387        1386
         4        1286        1287        1388        1387
         4        1287        1288        1389        1388
         4        1288        1289        1390        1389
         4        1289        1290        1391        1390
         4        1290        1291        1392        1391
         4        1291        1292        1393        1392
         4        1292        1293        1394        1393
         4        1293        1294        1395        1394
         4        1294        1295        1396        1395
         4        1295        1296        1397        1396
         4        1296        1297        1398        1397
         4        1297        1298        1399        1398
         4        1298        1299        1400        1399
         4        1299        1300        1401        1400
         4        1300        1301        1402        1401
         4        1301        1302        1403        1402
         4        1302        1303        1404        1403
         4        1303        1304        1405        1404
         4        1304        1305        1406        1405
         4        1305        1306        1407        1406
         4        1306        1307        1408        1407
         4        1307        1308        1409        1408
         4        1308        1309        1410        1409
         4        1309        1310        1411        1410
         4        1310        1311        1412        1411
         4        1311        1312        1413        1412
         4        1313        1314        1415        1414
         4        1314        1315        1416        1415
         4        1315        1316        1417        1416
         4        1316        1317        1418        1417
         4        1317        1318        1419        1418
         4        1318        1319        1420        1419
         4        1319        1320        1421        1420
         4        1320        1321        1422        1421
         4        1321        1322        1423        1422
         4        1322        1323        1424        1423
         4        1323        1324        1425        1424
         4        1324        1325        1426        1425
         4        1325        1326        1427        1426
         4        1326        1327        1428        1427
         4        1327        1328        1429        1428
         4        1328        1329        1430        1429
         4        1329        1330        1431        1430
         4        1330        1331        1432        1431
         4        1331        1332        1433        1432
         4        1332        1333        1434        1433
         4        1333        1334        1435        1434
         4        1334        1335        1436        1435
         4        1335        1336        1437        1436
         4        1336        1337        1438        1437
         4        1337        1338        1439        1438
         4        1338        1339        1440        1439
         4        1339        1340        1441        1440
         4        1340        1341        1442        1441
         4        1341        1342        1443        1442
         4        1342        1343        1444        1443
         4        1343        1344        1445        1444
         4        1344        1345        1446        1445
         4        1345        1346        1447        1446
         4        1346        1347        1448        1447
         4        1347        1348        1449        1448
         4        1348        1349        1450        1449
         4        1349        1350        1451        1450
         4        1350        1351        1452        1451
         4        1351        1352        1453        1452
         4        1352        1353        1454        1453
         4        1353        1354        1455        1454
         4        1354        1355        1456        1455
         4        1355        1356        1457        1456
         4        1356        1357        1458        1457
         4        1357        1358        1459        1458
         4        1358        1359        1460        1459
         4        1359        1360        1461        1460
         4        1360        1361        1462        1461
         4        1361        1362        1463        1462
         4        1362        1363        1464        1463
         4        1363        1364        1465        1464
         4        1364        1365        1466        1465
         4        1365        1366        1467        1466
         4        1366        1367        1468        1467
         4        1367        1368        1469        1468
         4        1368        1369        1470        1469
         4        1369        1370        1471        1470
         4        1370        1371        1472        1471
         4        1371        1372        1473        1472
         4        1372        1373        1474        1473
         4        1373        1374        1475        1474
         4        1374        1375        1476        1475
         4        1375        1376        1477        1476
         4        1376        1377        1478        1477
         4        1377        1378        1479        1478
         4        1378        1379        1480        1479
         4        1379        1380        1481        1480
         4        1380        1381        1482        1481
         4        1381        1382        1483        1482
         4        1382        1383        1484        1483
         4        1383        1384        1485        1484
         4        1384        1385        1486        1485
         4        1385        1386        1487        1486
         4        1386        1387        1488        1487
         4        1387        1388        1489        1488
         4        1388        1389        1490        1489
         4        1389        1390        1491        1490
         4        1390        1391        1492        1491
         4        1391        1392        1493        1492
         4        1392        1393        1494        1493
         4        1393        1394        1495        1494
         4        1394        1395        1496        1495
         4        1395        1396        1497        1496
         4        1396        1397        1498        1497
         4        1397        1398        1499        1498
         4        1398        1399        1500        1499
         4        1399        1400        1501        1500
         4        1400        1401        1502        1501
         4        1401        1402        1503        1502
         4        1402        1403        1504        1503
         4        1403        1404        1505        1504
         4        1404        1405        1506        1505
         4        1405        1406        1507        1506
         4        1406        1407        1508        1507
         4        1407        1408        1509        1508
         4        1408        1409        1510        1509
         4        1409        1410        1511        1510
         4        1410        1411        1512        1511
         4        1411        1412        1513        1512
         4        1412        1413        1514        1513
         4        1414        1415        1516        1515
         4        1415        1416        1517        1516
         4        1416        1417        1518        1517
         4        1417        1418        1519        1518
         4        1418        1419        1520        1519
         4        1419        1420        1521        1520
         4        1420        1421        1522        1521
         4        1421        1422        1523        1522
         4        1422        1423        1524        1523
         4        1423        1424        1525        1524
         4        1424        1425        1526        1525
         4        1425        1426        1527        1526
         4        1426        1427        1528        1527
         4        1427        1428        1529        1528
         4        1428        1429        1530        1529
         4        1429        1430        1531        1530
         4        1430        1431        1532        1531
         4        1431        1432        1533        1532
         4        1432        1433        1534        1533
         4        1433        1434        1535        1534
         4        1434        1435        1536        1535
         4        1435        1436        1537        1536
         4        1436        1437        1538        1537
         4        1437        1438        1539        1538
         4        1438        1439        1540        1539
         4        1439        1440        1541        1540
         4        1440        1441        1542        1541
         4        1441        1442        1543        1542
         4        1442        1443        1544        1543
         4        1443        1444        1545        1544
         4        1444        1445        1546        1545
         4        1445        1446        1547        1546
         4        1446        1447        1548        1547
         4        1447        1448        1549        1548
         4        1448        1449        1550        1549
         4        1449        1450        1551        1550
         4        1450        1451        1552        1551
         4        1451        1452        1553        1552
         4        1452        1453        1554        1553
         4        1453        1454        1555        1554
         4        1454        1455        1556        1555
         4        1455        1456        1557        1556
         4        1456        1457        1558        1557
         4        1457        1458        1559        1558
         4        1458        1459        1560        1559
         4        1459        1460        1561        1560
         4        1460        1461        1562        1561
         4        1461        1462        1563        1562
         4        1462        1463        1564        1563
         4        1463        1464        1565        1564
         4        1464        1465        1566        1565
         4        1465        1466        1567        1566
         4        1466        1467        1568        1567
         4        1467        1468        1569        1568
         4        1468        1469        1570        1569
         4        1469        1470        1571        1570
         4        1470        1471        1572        1571
         4        1471        1472        1573        1572
         4        1472        1473        1574        1573
         4        1473        1474        1575        1574
         4        1474        1475        1576        1575
         4        1475        1476        1577        1576
         4        1476        1477        1578        1577
         4        1477        1478        1579        1578
         4        1478        1479        1580        1579
         4        1479        1480        1581        1580
         4        1480        1481        1582        1581
         4        1481        1482        1583        1582
         4        1482        1483        1584        1583
         4        1483        1484        1585        1584
         4        1484        1485        1586        1585
         4        1485        1486        1587        1586
         4        1486        1487        1588        1587
         4        1487        1488        1589        1588
         4        1488        1489        1590        1589
         4        1489        1490        1591        1590
         4        1490        1491        1592        1591
         4        1491        1492        1593        1592
         4        1492        1493        1594        1593
         4        1493        1494        1595        1594
         4        1494        1495        1596        1595
         4        1495        1496        1597        1596
         4        1496        1497        1598        1597
         4        1497        1498        1599        1598
         4        1498        1499        1600        1599
         4        1499        1500        1601        1600
         4        1500        1501        1602        1601
         4        1501        1502        1603        1602
         4        1502        1503        1604        1603
         4        1503        1504        1605        1604
         4        1504        1505        1606        1605
         4        1505        1506        1607        1606
         4        1506        1507        1608        1607
         4        1507        1508        1609        1608
         4        1508        1509        1610        1609
         4        1509        1510        1611        1610
         4        1510        1511        1612        1611
         4        1511        1512        1613        1612
         4        1512        1513        1614        1613
         4        1513        1514        1615        1614
         4        1515        1516        1617        1616
         4        1516        1517        1618        1617
         4        1517        1518        1619        1618
         4        1518        1519        1620        1619
         4        1519        1520        1621        1620
         4        1520        1521        1622        1621
         4        1521        1522        1623        1622
         4        1522        1523        1624        1623
         4        1523        1524        1625        1624
         4        1524        1525        1626        1625
         4        1525        1526        1627        1626
         4        1526        1527        1628        1627
         4        1527        1528        1629        1628
         4        1528        1529        1630        1629
         4        1529        1530        1631        1630
         4        1530        1531        1632        1631
         4        1531        1532        1633        1632
         4        1532        1533        1634        1633
         4        1533        1534        1635        1634
         4        1534        1535        1636        1635
         4        1535        1536        1637        1636
         4        1536        1537        1638        1637
         4        1537        1538        1639        1638
         4        1538        1539        1640        1639
         4        1539        1540        1641        1640
         4        1540        1541        1642        1641
         4        1541        1542        1643        1642
         4        1542        1543        1644        1643
         4        1543        1544        1645        1644
         4        1544        1545        1646        1645
         4        1545        1546        1647        1646
         4        1546        1547        1648        1647
         4        1547        1548        1649        1648
         4        1548        1549        1650        1649
         4        1549        1550        1651        1650
         4        1550        1551        1652        1651
         4        1551        1552        1653        1652
         4        1552        1553        1654        1653
         4        1553        1554        1655        1654
         4        1554        1555        1656        1655
         4        1555        1556        1657        1656
         4        1556        1557        1658        1657
         4        1557        1558        1659        1658
         4        1558        1559        1660        1659
         4        1559        1560        1661        1660
         4        1560        1561        1662        1661
         4        1561        1562        1663        1662
         4        1562        1563        1664        1663
         4        1563        1564        1665        1664
         4        1564        1565        1666        1665
         4        1565        1566        1667        1666
         4        1566        1567        1668        1667
         4        1567        1568        1669        1668
         4        1568        1569        1670        1669
         4        1569        1570        1671        1670
         4        1570        1571        1672        1671
         4        1571        1572        1673        1672
         4        1572        1573        1674        1673
         4        1573        1574        1675        1674
         4        1574        1575        1676        1675
         4        1575        1576        1677        1676
         4        1576        1577        1678        1677
         4        1577        1578        1679        1678
         4        1578        1579        1680        1679
         4        1579        1580        1681        1680
         4        1580        1581        1682        1681
         4        1581        1582        1683        1682
         4        1582        1583        1684        1683
         4        1583        1584        1685        1684
         4        1584        1585        1686        1685
         4        1585        1586        1687        1686
         4        1586        1587        1688        1687
         4        1587        1588        1689        1688
         4        1588        1589        1690        1689
         4        1589        1590        1691        1690
         4        1590        1591        1692        1691
         4        1591        1592        1693        1692
         4        1592        1593        1694        1693
         4        1593        1594        1695        1694
         4        1594        1595        1696        1695
         4        1595        1596        1697        1696
         4        1596        1597        1698        1697
         4        1597        1598        1699        1698
         4        1598        1599        1700        1699
         4        1599        1600        1701        1700
         4        1600        1601        1702        1701
         4        1601        1602        1703        1702
         4        1602        1603        1704        1703
         4        1603        1604        1705        1704
         4        1604        1605        1706        1705
         4        1605        1606        1707        1706
         4        1606        1607        1708        1707
         4        1607        1608        1709        1708
         4        1608        1609        1710        1709
         4        1609        1610        1711        1710
         4        1610        1611        1712        1711
         4        1611        1612        1713        1712
         4        1612        1613        1714        1713
         4        1613        1614        1715        1714
         4        1614        1615        1716        1715
         4        1616        1617        1718        1717
         4        1617        1618        1719        1718
         4        1618        1619        1720        1719
         4        1619        1620        1721        1720
         4        1620        1621        1722        1721
         4        1621        1622        1723        1722
         4        1622        1623        1724        1723
         4        1623        1624        1725        1724
         4        1624        1625        1726        1725
         4        1625        1626        1727        1726
         4        1626        1627        1728        1727
         4        1627        1628        1729        1728
         4        1628        1629        1730        1729
         4        1629        1630        1731        1730
         4        1630        1631        1732        1731
         4        1631        1632        1733        1732
         4        1632        1633        1734        1733
         4        1633        1634        1735        1734
         4        1634        1635        1736        1735
         4        1635        1636        1737        1736
         4        1636        1637        1738        1737
         4        1637        1638        1739        1738
         4        1638        1639        1740        1739
         4        1639        1640        1741        1740
         4        1640        1641        1742        1741
         4        1641        1642        1743        1742
         4        1642        1643        1744        1743
         4        1643        1644        1745        1744
         4        1644        1645        1746        1745
         4        1645        1646        1747        1746
         4        1646        1647        1748        1747
         4        1647        1648        1749        1748
         4        1648        1649        1750        1749
         4        1649        1650        1751        1750
         4        1650        1651        1752        1751
         4        1651        1652        1753        1752
         4        1652        1653        1754        1753
         4        1653        1654        1755        1754
         4        1654        1655        1756        1755
         4        1655        1656        1757        1756
         4        1656        1657        1758        1757
         4        1657        1658        1759        1758
         4        1658        1659        1760        1759
         4        1659        1660        1761        1760
         4        1660        1661        1762        1761
         4        1661        1662        1763        1762
         4        1662        1663        1764        1763
         4        1663        1664        1765        1764
         4        1664        1665        1766        1765
         4        1665        1666        1767        1766
         4        1666        1667        1768        1767
         4        1667        1668        1769        1768
         4        1668        1669        1770        1769
         4        1669        1670        1771        1770
         4        1670        1671        1772        1771
         4        1671        1672        1773        1772
         4        1672        1673        1774        1773
         4        1673        1674        1775        1774
         4        1674        1675        1776        1775
         4        1675        1676        1777        1776
         4        1676        1677        1778        1777
         4        1677        1678        1779        1778
         4        1678        1679        1780        1779
         4        1679        1680        1781        1780
         4        1680        1681        1782        1781
         4        1681        1682        1783        1782
         4        1682        1683        1784        1783
         4        1683        1684        1785        1784
         4        1684        1685        1786        1785
         4        1685        1686        1787        1786
         4        1686        1687        1788        1787
         4        1687        1688        1789        1788
         4        1688        1689        1790        1789
         4        1689        1690        1791        1790
         4        1690        1691        1792        1791
         4        1691        1692        1793        1792
         4        1692        1693        1794        1793
         4        1693        1694        1795        1794
         4        1694        1695        1796        1795
         4        1695        1696        1797        1796
         4        1696        1697        1798        1797
         4        1697        1698        1799        1798
         4        1698        1699        1800        1799
         4        1699        1700        1801        1800
         4        1700        1701        1802        1801
         4        1701        1702        1803        1802
         4        1702        1703        1804        1803
         4        1703        1704        1805        1804
         4        1704        1705        1806        1805
         4        1705        1706        1807        1806
         4        1706        1707        1808        1807
         4        1707        1708        1809        1808
         4        1708        1709        1810        1809
         4        1709        1710        1811        1810
         4        1710        1711        1812        1811
         4        1711        1712        1813        1812
         4        1712        1713        1814        1813
         4        1713        1714        1815        1814
         4        1714        1715        1816        1815
         4        1715        1716        1817        1816
         4        1717        1718        1819        1818
         4        1718        1719        1820        1819
         4        1719        1720        1821        1820
         4        1720        1721        1822        1821
         4        1721        1722        1823        1822
         4        1722        1723        1824        1823
         4        1723        1724        1825        1824
         4        1724        1725        1826        1825
         4        1725        1726        1827        1826
         4        1726        1727        1828        1827
         4        1727        1728        1829        1828
         4        1728        1729        1830        1829
         4        1729        1730        1831        1830
         4        1730        1731        1832        1831
         4        1731        1732        1833        1832
         4        1732        1733        1834        1833
         4        1733        1734        1835        1834
         4        1734        1735        1836        1835
         4        1735        1736        1837        1836
         4        1736        1737        1838        1837
         4        1737        1738        1839        1838
         4        1738        1739        1840        1839
         4        1739        1740        1841        1840
         4        1740        1741        1842        1841
         4        1741        1742        1843        1842
         4        1742        1743        1844        1843
         4        1743        1744        1845        1844
         4        1744        1745        1846        1845
         4        1745        1746        1847        1846
         4        1746        1747        1848        1847
         4        1747        1748        1849        1848
         4        1748        1749        1850        1849
         4        1749        1750        1851        1850
         4        1750        1751        1852        1851
         4        1751        1752        1853        1852
         4        1752        1753        1854        1853
         4        1753        1754        1855        1854
         4        1754        1755        1856        1855
         4        1755        1756        1857        1856
         4        1756        1757        1858        1857
         4        1757        1758        1859        1858
         4        1758        1759        1860        1859
         4        1759        1760        1861        1860
         4        1760        1761        1862        1861
         4        1761        1762        1863        1862
         4        1762        1763        1864        1863
         4        1763        1764        1865        1864
         4        1764        1765        1866        1865
         4        1765        1766        1867        1866
         4        1766        1767        1868        1867
         4        1767        1768        1869        1868
         4        1768        1769        1870        1869
         4        1769        1770        1871        1870
         4        1770        1771        1872        1871
         4        1771        1772        1873        1872
         4        1772        1773        1874        1873
         4        1773        1774        1875        1874
         4        1774        1775        1876        1875
         4        1775        1776        1877        1876
         4        1776        1777        1878        1877
         4        1777        1778        1879        1878
         4        1778        1779        1880        1879
         4        1779        1780        1881        1880
         4        1780        1781        1882        1881
         4        1781        1782        1883        1882
         4        1782        1783        1884        1883
         4        1783        1784        1885        1884
         4        1784        1785        1886        1885
         4        1785        1786        1887        1886
         4        1786        1787        1888        1887
         4        1787        1788        1889        1888
         4        1788        1789        1890        1889
         4        1789        1790        1891        1890
         4        1790        1791        1892        1891
         4        1791        1792        1893        1892
         4        1792        1793        1894        1893
         4        1793        1794        1895        1894
         4        1794        1795        1896        1895
         4        1795        1796        1897        1896
         4        1796        1797        1898        1897
         4        1797        1798        1899        1898
         4        1798        1799        1900        1899
         4        1799        1800        1901        1900
         4        1800        1801        1902        1901
         4        1801        1802        1903        1902
         4        1802        1803        1904        1903
         4        1803        1804        1905        1904
         4        1804        1805        1906        1905
         4        1805        1806        1907        1906
         4        1806        1807        1908        1907
         4        1807        1808        1909        1908
         4        1808        1809        1910        1909
         4        1809        1810        1911        1910
         4        1810        1811        1912        1911
         4        1811        1812        1913        1912
         4        1812        1813        1914        1913
         4        1813        1814        1915        1914
         4        1814        1815        1916        1915
         4        1815        1816        1917        1916
         4        1816        1817        1918        1917
         4        1818        1819        1920        1919
         4        1819        1820        1921        1920
         4        1820        1821        1922        1921
         4        1821        1822        1923        1922
         4        1822        1823        1924        1923
         4        1823        1824        1925        1924
         4        1824        1825        1926        1925
         4        1825        1826        1927        1926
         4        1826        1827        1928        1927
         4        1827        1828        1929        1928
         4        1828        1829        1930        1929
         4        1829        1830        1931        1930
         4        1830        1831        1932        1931
         4        1831        1832        1933        1932
         4        1832        1833        1934        1933
         4        1833        1834        1935        1934
         4        1834        1835        1936        1935
         4        1835        1836        1937        1936
         4        1836        1837        1938        1937
         4        1837        1838        1939        1938
         4        1838        1839        1940        1939
         4        1839        1840        1941        1940
         4        1840        1841        1942        1941
         4        1841        1842        1943        1942
         4        1842        1843        1944        1943
         4        1843        1844        1945        1944
         4        1844        1845        1946        1945
         4        1845        1846        1947        1946
         4        1846        1847        1948        1947
         4        1847        1848        1949        1948
         4        1848        1849        1950        1949
         4        1849        1850        1951        1950
         4        1850        1851        1952        1951
         4        1851        1852        1953        1952
         4        1852        1853        1954        1953
         4        1853        1854        1955        1954
         4        1854        1855        1956        1955
         4        1855        1856        1957        1956
         4        1856        1857        1958        1957
         4        1857        1858        1959        1958
         4        1858        1859        1960        1959
         4        1859        1860        1961        1960
         4        1860        1861        1962        1961
         4        1861        1862        1963        1962
         4        1862        1863        1964        1963
         4        1863        1864        1965        1964
         4        1864        1865        1966        1965
         4        1865        1866        1967        1966
         4        1866        1867        1968        1967
         4        1867        1868        1969        1968
         4        1868        1869        1970        1969
         4        1869        1870        1971        1970
         4        1870        1871        1972        1971
         4        1871        1872        1973        1972
         4        1872        1873        1974        1973
         4        1873        1874        1975        1974
         4        1874        1875        1976        1975
         4        1875        1876        1977        1976
         4        1876        1877        1978        1977
         4        1877        1878        1979        1978
         4        1878        1879        1980        1979
         4        1879        1880        1981        1980
         4        1880        1881        1982        1981
         4        1881        1882        1983        1982
         4        1882        1883        1984        1983
         4        1883        1884        1985        1984
         4        1884        1885        1986        1985
         4        1885        1886        1987        1986
         4        1886        1887        1988        1987
         4        1887        1888        1989        1988
         4        1888        1889        1990        1989
         4        1889        1890        1991        1990
         4        1890        1891        1992        1991
         4        1891        1892        1993        1992
         4        1892        1893        1994        1993
         4        1893        1894        1995        1994
         4        1894        1895        1996        1995
         4        1895        1896        1997        1996
         4        1896        1897        1998        1997
         4        1897        1898        1999        1998
         4        1898        1899        2000        1999
         4        1899        1900        2001        2000
         4        1900        1901        2002        2001
         4        1901        1902        2003        2002
         4        1902        1903        2004        2003
         4        1903        1904        2005        2004
         4        1904        1905        2006        2005
         4        1905        1906        2007        2006
         4        1906        1907        2008        2007
         4        1907        1908        2009        2008
         4        1908        1909        2010        2009
         4        1909        1910        2011        2010
         4        1910        1911        2012        2011
         4        1911        1912        2013        2012
         4        1912        1913        2014        2013
         4        1913        1914        2015        2014
         4        1914        1915        2016        2015
         4        1915        1916        2017        2016
         4        1916        1917        2018        2017
         4        1917        1918        2019        2018
         4        1919        1920        2021        2020
         4        1920        1921        2022        2021
         4        1921        1922        2023        2022
         4        1922        1923        2024        2023
         4        1923        1924        2025        2024
         4        1924        1925        2026        2025
         4        1925        1926        2027        2026
         4        1926        1927        2028        2027
         4        1927        1928        2029        2028
         4        1928        1929        2030        2029
         4        1929        1930        2031        2030
         4        1930        1931        2032        2031
         4        1931        1932        2033        2032
         4        1932        1933        2034        2033
         4        1933        1934        2035        2034
         4        1934        1935        2036        2035
         4        1935        1936        2037        2036
         4        1936        1937        2038        2037
         4        1937        1938        2039        2038
         4        1938        1939        2040        2039
         4        1939        1940        2041        2040
         4        1940        1941        2042        2041
         4        1941        1942        2043        2042
         4        1942        1943        2044        2043
         4        1943        1944        2045        2044
         4        1944        1945        2046        2045
         4        1945        1946        2047        2046
         4        1946        1947        2048        2047
         4        1947        1948        2049        2048
         4        1948        1949        2050        2049
         4        1949        1950        2051        2050
         4        1950        1951        2052        2051
         4        1951        1952        2053        2052
         4        1952        1953        2054        2053
         4        1953        1954        2055        2054
         4        1954        1955        2056        2055
         4        1955        1956        2057        2056
         4        1956        1957        2058        2057
         4        1957        1958        2059        2058
         4        1958        1959        2060        2059
         4        1959        1960        2061        2060
         4        1960        1961        2062        2061
         4        1961        1962        2063        2062
         4        1962        1963        2064        2063
         4        1963        1964        2065        2064
         4        1964        1965        2066        2065
         4        1965        1966        2067        2066
         4        1966        1967        2068        2067
         4        1967        1968        2069        2068
         4        1968        1969        2070        2069
         4        1969        1970        2071        2070
         4        1970        1971        2072        2071
         4        1971        1972        2073        2072
         4        1972        1973        2074        2073
         4        1973        1974        2075        2074
         4        1974        1975        2076        2075
         4        1975        1976        2077        2076
         4        1976        1977        2078        2077
         4        1977        1978        2079        2078
         4        1978        1979        2080        2079
         4        1979        1980        2081        2080
         4        1980        1981        2082        2081
         4        1981        1982        2083        2082
         4        1982        1983        2084        2083
         4        1983        1984        2085        2084
         4        1984        1985        2086        2085
         4        1985        1986        2087        2086
         4        1986        1987        2088        2087
         4        1987        1988        2089        2088
         4        1988        1989        2090        2089
         4        1989        1990        2091        2090
         4        1990        1991        2092        2091
         4        1991        1992        2093        2092
         4        1992        1993        2094        2093
         4        1993        1994        2095        2094
         4        1994        1995        2096        2095
         4        1995        1996        2097        2096
         4        1996        1997        2098        2097
         4        1997        1998        2099        2098
         4        1998        1999        2100        2099
         4        1999        2000        2101        2100
         4        2000        2001        2102        2101
         4        2001        2002        2103        2102
         4        2002        2003        2104        2103
         4        2003        2004        2105        2104
         4        2004        2005        2106        2105
         4        2005        2006        2107        2106
         4        2006        2007        2108        2107
         4        2007        2008        2109        2108
         4        2008        2009        2110        2109
         4        2009        2010        2111        2110
         4        2010        2011        2112        2111
         4        2011        2012        2113        2112
         4        2012        2013        2114        2113
         4        2013        2014        2115        2114
         4        2014        2015        2116        2115
         4        2015        2016        2117        2116
         4        2016        2017        2118        2117
         4        2017        2018        2119        2118
         4        2018        2019        2120        2119
         4        2020        2021        2122        2121
         4        2021        2022        2123        2122
         4        2022        2023        2124        2123
         4        2023        2024        2125        2124
         4        2024        2025        2126        2125
         4        2025        2026        2127        2126
         4        2026        2027        2128        2127
         4        2027        2028        2129        2128
         4        2028        2029        2130        2129
         4        2029        2030        2131        2130
         4        2030        2031        2132        2131
         4        2031        2032        2133        2132
         4        2032        2033        2134        2133
         4        2033        2034        2135        2134
         4        2034        2035        2136        2135
         4        2035        2036        2137        2136
         4        2036        2037        2138        2137
         4        2037        2038        2139        2138
         4        2038        2039        2140        2139
         4        2039        2040        2141        2140
         4        2040        2041        2142        2141
         4        2041        2042        2143        2142
         4        2042        2043        2144        2143
         4        2043        2044        2145        2144
         4        2044        2045        2146        2145
         4        2045        2046        2147        2146
         4        2046        2047        2148        2147
         4        2047        2048        2149        2148
         4        2048        2049        2150        2149
         4        2049        2050        2151        2150
         4        2050        2051        2152        2151
         4        2051        2052        2153        2152
         4        2052        2053        2154        2153
         4        2053        2054        2155        2154
         4        2054        2055        2156        2155
         4        2055        2056        2157        2156
         4        2056        2057        2158        2157
         4        2057        2058        2159        2158
         4        2058        2059        2160        2159
         4        2059        2060        2161        2160
         4        2060        2061        2162        2161
         4        2061        2062        2163        2162
         4        2062        2063        2164        2163
         4        2063        2064        2165        2164
         4        2064        2065        2166        2165
         4        2065        2066        2167        2166
         4        2066        2067        2168        2167
         4        2067        2068        2169        2168
         4        2068        2069        2170        2169
         4        2069        2070        2171        2170
         4        2070        2071        2172        2171
         4        2071        2072        2173        2172
         4        2072        2073        2174        2173
         4        2073        2074        2175        2174
         4        2074        2075        2176        2175
         4        2075        2076        2177        2176
         4        2076        2077        2178        2177
         4        2077        2078        2179        2178
         4        2078        2079        2180        2179
         4        2079        2080        2181        2180
         4        2080        2081        2182        2181
         4        2081        2082        2183        2182
         4        2082        2083        2184        2183
         4        2083        2084        2185        2184
         4        2084        2085        2186        2185
         4        2085        2086        2187        2186
         4        2086        2087        2188        2187
         4        2087        2088        2189        2188
         4        2088        2089        2190        2189
         4        2089        2090        2191        2190
         4        2090        2091        2192        2191
         4        2091        2092        2193        2192
         4        2092        2093        2194        2193
         4        2093        2094        2195        2194
         4        2094        2095        2196        2195
         4        2095        2096        2197        2196
         4        2096        2097        2198        2197
         4        2097        2098        2199        2198
         4        2098        2099        2200        2199
         4        2099        2100        2201        2200
         4        2100        2101        2202        2201
         4        2101        2102        2203        2202
         4        2102        2103        2204        2203
         4        2103        2104        2205        2204
         4        2104        2105        2206        2205
         4        2105        2106        2207        2206
         4        2106        2107        2208        2207
         4        2107        2108        2209        2208
         4        2108        2109        2210        2209
         4        2109        2110        2211        2210
         4        2110        2111        2212        2211
         4        2111        2112        2213        2212
         4        2112        2113        2214        2213
         4        2113        2114        2215        2214
         4        2114        2115        2216        2215
         4        2115        2116        2217        2216
         4        2116        2117        2218        2217
         4        2117        2118        2219        2218
         4        2118        2119        2220        2219
         4        2119        2120        2221        2220
         4        2121        2122        2223        2222
         4        2122        2123        2224        2223
         4        2123        2124        2225        2224
         4        2124        2125        2226        2225
         4        2125        2126        2227        2226
         4        2126        2127        2228        2227
         4        2127        2128        2229        2228
         4        2128        2129        2230        2229
         4        2129        2130        2231        2230
         4        2130        2131        2232        2231
         4        2131        2132        2233        2232
         4        2132        2133        2234        2233
         4        2133        2134        2235        2234
         4        2134        2135        2236        2235
         4        2135        2136        2237        2236
         4        2136        2137        2238        2237
         4        2137        2138        2239        2238
         4        2138        2139        2240        2239
         4        2139        2140        2241        2240
         4        2140        2141        2242        2241
         4        2141        2142        2243        2242
         4        2142        2143        2244        2243
         4        2143        2144        2245        2244
         4        2144        2145        2246        2245
         4        2145        2146        2247        2246
         4        2146        2147        2248        2247
         4        2147        2148        2249        2248
         4        2148        2149        2250        2249
         4        2149        2150        2251        2250
         4        2150        2151        2252        2251
         4        2151        2152        2253        2252
         4        2152        2153        2254        2253
         4        2153        2154        2255        2254
         4        2154        2155        2256        2255
         4        2155        2156        2257        2256
         4        2156        2157        2258        2257
         4        2157        2158        2259        2258
         4        2158        2159        2260        2259
         4        2159        2160        2261        2260
         4        2160        2161        2262        2261
         4        2161        2162        2263        2262
         4        2162        2163        2264        2263
         4        2163        2164        2265        2264
         4        2164        2165        2266        2265
         4        2165        2166        2267        2266
         4        2166        2167        2268        2267
         4        2167        2168        2269        2268
         4        2168        2169        2270        2269
         4        2169        2170        2271        2270
         4        2170        2171        2272        2271
         4        2171        2172        2273        2272
         4        2172        2173        2274        2273
         4        2173        2174        2275        2274
         4        2174        2175        2276        2275
         4        2175        2176        2277        2276
         4        2176        2177        2278        2277
         4        2177        2178        2279        2278
         4        2178        2179        2280        2279
         4        2179        2180        2281        2280
         4        2180        2181        2282        2281
         4        2181        2182        2283        2282
         4        2182        2183        2284        2283
         4        2183        2184        2285        2284
         4        2184        2185        2286        2285
         4        2185        2186        2287        2286
         4        2186        2187        2288        2287
         4        2187        2188        2289        2288
         4        2188        2189        2290        2289
         4        2189        2190        2291        2290
         4        2190        2191        2292        2291
         4        2191        2192        2293        2292
         4        2192        2193        2294        2293
         4        2193        2194        2295        2294
         4        2194        2195        2296        2295
         4        2195        2196        2297        2296
         4        2196        2197        2298        2297
         4        2197        2198        2299        2298
         4        2198        2199        2300        2299
         4        2199        2200        2301        2300
         4        2200        2201        2302        2301
         4        2201        2202        2303        2302
         4        2202        2203        2304        2303
         4        2203        2204        2305        2304
         4        2204        2205        2306        2305
         4        2205        2206        2307        2306
         4        2206        2207        2308        2307
         4        2207        2208        2309        2308
         4        2208        2209        2310        2309
         4        2209        2210        2311        2310
         4        2210        2211        2312        2311
         4        2211        2212        2313        2312
         4        2212        2213        2314        2313
         4        2213        2214        2315        2314
         4        2214        2215        2316        2315
         4        2215        2216        2317        2316
         4        2216        2217        2318        2317
         4        2217        2218        2319        2318
         4        2218        2219        2320        2319
         4        2219        2220        2321        2320
         4        2220        2221        2322        2321
         4        2222        2223        2324        2323
         4        2223        2224        2325        2324
         4        2224        2225        2326        2325
         4        2225        2226        2327        2326
         4        2226        2227        2328        2327
         4        2227        2228        2329        2328
         4        2228        2229        2330        2329
         4        2229        2230        2331        2330
         4        2230        2231        2332        2331
         4        2231        2232        2333        2332
         4        2232        2233        2334        2333
         4        2233        2234        2335        2334
         4        2234        2235        2336        2335
         4        2235        2236        2337        2336
         4        2236        2237        2338        2337
         4        2237        2238        2339        2338
         4        2238        2239        2340        2339
         4        2239        2240        2341        2340
         4        2240        2241        2342        2341
         4        2241        2242        2343        2342
         4        2242        2243        2344        2343
         4        2243        2244        2345        2344
         4        2244        2245        2346        2345
         4        2245        2246        2347        2346
         4        2246        2247        2348        2347
         4        2247        2248        2349        2348
         4        2248        2249        2350        2349
         4        2249        2250        2351        2350
         4        2250        2251        2352        2351
         4        2251        2252        2353        2352
         4        2252        2253        2354        2353
         4        2253        2254        2355        2354
         4        2254        2255        2356        2355
         4        2255        2256        2357        2356
         4        2256        2257        2358        2357
         4        2257        2258        2359        2358
         4        2258        2259        2360        2359
         4        2259        2260        2361        2360
         4        2260        2261        2362        2361
         4        2261        2262        2363        2362
         4        2262        2263        2364        2363
         4        2263        2264        2365        2364
         4        2264        2265        2366        2365
         4        2265        2266        2367        2366
         4        2266        2267        2368        2367
         4        2267        2268        2369        2368
         4        2268        2269        2370        2369
         4        2269        2270        2371        2370
         4        2270        2271        2372        2371
         4        2271        2272        2373        2372
         4        2272        2273        2374        2373
         4        2273        2274        2375        2374
         4        2274        2275        2376        2375
         4        2275        2276        2377        2376
         4        2276        2277        2378        2377
         4        2277        2278        2379        2378
         4        2278        2279        2380        2379
         4        2279        2280        2381        2380
         4        2280        2281        2382        2381
         4        2281        2282        2383        2382
         4        2282        2283        2384        2383
         4        2283        2284        2385        2384
         4        2284        2285        2386        2385
         4        2285        2286        2387        2386
         4        2286        2287        2388        2387
         4        2287        2288        2389        2388
         4        2288        2289        2390        2389
         4        2289        2290        2391        2390
         4        2290        2291        2392        2391
         4        2291        2292        2393        2392
         4        2292        2293        2394        2393
         4        2293        2294        2395        2394
         4        2294        2295        2396        2395
         4        2295        2296        2397        2396
         4        2296        2297        2398        2397
         4        2297        2298        2399        2398
         4        2298        2299        2400        2399
         4        2299        2300        2401        2400
         4        2300        2301        2402        2401
         4        2301        2302        2403        2402
         4        2302        2303        2404        2403
         4        2303        2304        2405        2404
         4        2304        2305        2406        2405
         4        2305        2306        2407        2406
         4        2306        2307        2408        2407
         4        2307        2308        2409        2408
         4        2308        2309        2410        2409
         4        2309        2310        2411        2410
         4        2310        2311        2412        2411
         4        2311        2312        2413        2412
         4        2312        2313        2414        2413
         4        2313        2314        2415        2414
         4        2314        2315        2416        2415
         4        2315        2316        2417        2416
         4        2316        2317        2418        2417
         4        2317        2318        2419        2418
         4        2318        2319        2420        2419
         4        2319        2320        2421        2420
         4        2320        2321        2422        2421
         4        2321        2322        2423        2422
         4        2323        2324        2425        2424
         4        2324        2325        2426        2425
         4        2325        2326        2427        2426
         4        2326        2327        2428        2427
         4        2327        2328        2429        2428
         4        2328        2329        2430        2429
         4        2329        2330        2431        2430
         4        2330        2331        2432        2431
         4        2331        2332        2433        2432
         4        2332        2333        2434        2433
         4        2333        2334        2435        2434
         4        2334        2335        2436        2435
         4        2335        2336        2437        2436
         4        2336        2337        2438        2437
         4        2337        2338        2439        2438
         4        2338        2339        2440        2439
         4        2339        2340        2441        2440
         4        2340        2341        2442        2441
         4        2341        2342        2443        2442
         4        2342        2343        2444        2443
         4        2343        2344        2445        2444
         4        2344        2345        2446        2445
         4        2345        2346        2447        2446
         4        2346        2347        2448        2447
         4        2347        2348        2449        2448
         4        2348        2349        2450        2449
         4        2349        2350        2451        2450
         4        2350        2351        2452        2451
         4        2351        2352        2453        2452
         4        2352        2353        2454        2453
         4        2353        2354        2455        2454
         4        2354        2355        2456        2455
         4        2355        2356        2457        2456
         4        2356        2357        2458        2457
         4        2357        2358        2459        2458
         4        2358        2359        2460        2459
         4        2359        2360        2461        2460
         4        2360        2361        2462        2461
         4        2361        2362        2463        2462
         4        2362        2363        2464        2463
         4        2363        2364        2465        2464
         4        2364        2365        2466        2465
         4        2365        2366        2467        2466
         4        2366        2367        2468        2467
         4        2367        2368        2469        2468
         4        2368        2369        2470        2469
         4        2369        2370        2471        2470
         4        2370        2371        2472        2471
         4        2371        2372        2473        2472
         4        2372        2373        2474        2473
         4        2373        2374        2475        2474
         4        2374        2375        2476        2475
         4        2375        2376        2477        2476
         4        2376        2377        2478        2477
         4        2377        2378        2479        2478
         4        2378        2379        2480        2479
         4        2379        2380        2481        2480
         4        2380        2381        2482        2481
         4        2381        2382        2483        2482
         4        2382        2383        2484        2483
         4        2383        2384        2485        2484
         4        2384        2385        2486        2485
         4        2385        2386        2487        2486
         4        2386        2387        2488        2487
         4        2387        2388        2489        2488
         4        2388        2389        2490        2489
         4        2389        2390        2491        2490
         4        2390        2391        2492        2491
         4        2391        2392        2493        2492
         4        2392        2393        2494        2493
         4        2393        2394        2495        2494
         4        2394        2395        2496        2495
         4        2395        2396        2497        2496
         4        2396        2397        2498        2497
         4        2397        2398        2499        2498
         4        2398        2399        2500        2499
         4        2399        2400        2501        2500
         4        2400        2401        2502        2501
         4        2401        2402        2503        2502
         4        2402        2403        2504        2503
         4        2403        2404        2505        2504
         4        2404        2405        2506        2505
         4        2405        2406        2507        2506
         4        2406        2407        2508        2507
         4        2407        2408        2509        2508
         4        2408        2409        2510        2509
         4        2409        2410        2511        2510
         4        2410        2411        2512        2511
         4        2411        2412        2513        2512
         4        2412        2413        2514        2513
         4        2413        2414        2515        2514
         4        2414        2415        2516        2515
         4        2415        2416        2517        2516
         4        2416        2417        2518        2517
         4        2417        2418        2519        2518
         4        2418        2419        2520        2519
         4        2419        2420        2521        2520
         4        2420        2421        2522        2521
         4        2421        2422        2523        2522
         4        2422        2423        2524        2523
         4        2424        2425        2526        2525
         4        2425        2426        2527        2526
         4        2426        2427        2528        2527
         4        2427        2428        2529        2528
         4        2428        2429        2530        2529
         4        2429        2430        2531        2530
         4        2430        2431        2532        2531
         4        2431        2432        2533        2532
         4        2432        2433        2534        2533
         4        2433        2434        2535        2534
         4        2434        2435        2536        2535
         4        2435        2436        2537        2536
         4        2436        2437        2538        2537
         4        2437        2438        2539        2538
         4        2438        2439        2540        2539
         4        2439        2440        2541        2540
         4        2440        2441        2542        2541
         4        2441        2442        2543        2542
         4        2442        2443        2544        2543
         4        2443        2444        2545        2544
         4        2444        2445        2546        2545
         4        2445        2446        2547        2546
         4        2446        2447        2548        2547
         4        2447        2448        2549        2548
         4        2448        2449        2550        2549
         4        2449        2450        2551        2550
         4        2450        2451        2552        2551
         4        2451        2452        2553        2552
         4        2452        2453        2554        2553
         4        2453        2454        2555        2554
         4        2454        2455        2556        2555
         4        2455        2456        2557        2556
         4        2456        2457        2558        2557
         4        2457        2458        2559        2558
         4        2458        2459        2560        2559
         4        2459        2460        2561        2560
         4        2460        2461        2562        2561
         4        2461        2462        2563        2562
         4        2462        2463        2564        2563
         4        2463        2464        2565        2564
         4        2464        2465        2566        2565
         4        2465        2466        2567        2566
         4        2466        2467        2568        2567
         4        2467        2468        2569        2568
         4        2468        2469        2570        2569
         4        2469        2470        2571        2570
         4        2470        2471        2572        2571
         4        2471        2472        2573        2572
         4        2472        2473        2574        2573
         4        2473        2474        2575        2574
         4        2474        2475        2576        2575
         4        2475        2476        2577        2576
         4        2476        2477        2578        2577
         4        2477        2478        2579        2578
         4        2478        2479        2580        2579
         4        2479        2480        2581        2580
         4        2480        2481        2582        2581
         4        2481        2482        2583        2582
         4        2482        2483        2584        2583
         4        2483        2484        2585        2584
         4        2484        2485        2586        2585
         4        2485        2486        2587        2586
         4        2486        2487        2588        2587
         4        2487        2488        2589        2588
         4        2488        2489        2590        2589
         4        2489        2490        2591        2590
         4        2490        2491        2592        2591
         4        2491        2492        2593        2592
         4        2492        2493        2594        2593
         4        2493        2494        2595        2594
         4        2494        2495        2596        2595
         4        2495        2496        2597        2596
         4        2496        2497        2598        2597
         4        2497        2498        2599        2598
         4        2498        2499        2600        2599
         4        2499        2500        2601        2600
         4        2500        2501        2602        2601
         4        2501        2502        2603        2602
         4        2502        2503        2604        2603
         4        2503        2504        2605        2604
         4        2504        2505        2606        2605
         4        2505        2506        2607        2606
         4        2506        2507        2608        2607
         4        2507        2508        2609        2608
         4        2508        2509        2610        2609
         4        2509        2510        2611        2610
         4        2510        2511        2612        2611
         4        2511        2512        2613        2612
         4        2512        2513        2614        2613
         4        2513        2514        2615        2614
         4        2514        2515        2616        2615
         4        2515        2516        2617        2616
         4        2516        2517        2618        2617
         4        2517        2518        2619        2618
         4        2518        2519        2620        2619
         4        2519        2520        2621        2620
         4        2520        2521        2622        2621
         4        2521        2522        2623        2622
         4        2522        2523        2624        2623
         4        2523        2524        2625        2624
         4        2525        2526        2627        2626
         4        2526        2527        2628        2627
         4        2527        2528        2629        2628
         4        2528        2529        2630        2629
         4        2529        2530        2631        2630
         4        2530        2531        2632        2631
         4        2531        2532        2633        2632
         4        2532        2533        2634        2633
         4        2533        2534        2635        2634
         4        2534        2535        2636        2635
         4        2535        2536        2637        2636
         4        2536        2537        2638        2637
         4        2537        2538        2639        2638
         4        2538        2539        2640        2639
         4        2539        2540        2641        2640
         4        2540        2541        2642        2641
         4        2541        2542        2643        2642
         4        2542        2543        2644        2643
         4        2543        2544        2645        2644
         4        2544        2545        2646        2645
         4        2545        2546        2647        2646
         4        2546        2547        2648        2647
         4        2547        2548        2649        2648
         4        2548        2549        2650        2649
         4        2549        2550        2651        2650
         4        2550        2551        2652        2651
         4        2551        2552        2653        2652
         4        2552        2553        2654        2653
         4        2553        2554        2655        2654
         4        2554        2555        2656        2655
         4        2555        2556        2657        2656
         4        2556        2557        2658        2657
         4        2557        2558        2659        2658
         4        2558        2559        2660        2659
         4        2559        2560        2661        2660
         4        2560        2561        2662        2661
         4        2561        2562        2663        2662
         4        2562        2563        2664        2663
         4        2563        2564        2665        2664
         4        2564        2565        2666        2665
         4        2565        2566        2667        2666
         4        2566        2567        2668        2667
         4        2567        2568        2669        2668
         4        2568        2569        2670        2669
         4        2569        2570        2671        2670
         4        2570        2571        2672        2671
         4        2571        2572        2673        2672
         4        2572        2573        2674        2673
         4        2573        2574        2675        2674
         4        2574        2575        2676        2675
         4        2575        2576        2677        2676
         4        2576        2577        2678        2677
         4        2577        2578        2679        2678
         4        2578        2579        2680        2679
         4        2579        2580        2681        2680
         4        2580        2581        2682        2681
         4        2581        2582        2683        2682
         4        2582        2583        2684        2683
         4        2583        2584        2685        2684
         4        2584        2585        2686        2685
         4        2585        2586        2687        2686
         4        2586        2587        2688        2687
         4        2587        2588        2689        2688
         4        2588        2589        2690        2689
         4        2589        2590        2691        2690
         4        2590        2591        2692        2691
         4        2591        2592        2693        2692
         4        2592        2593        2694        2693
         4        2593        2594        2695        2694
         4        2594        2595        2696        2695
         4        2595        2596        2697        2696
         4        2596        2597        2698        2697
         4        2597        2598        2699        2698
         4        2598        2599        2700        2699
         4        2599        2600        2701        2700
         4        2600        2601        2702        2701
         4        2601        2602        2703        2702
         4        2602        2603        2704        2703
         4        2603        2604        2705        2704
         4        2604        2605        2706        2705
         4        2605        2606        2707        2706
         4        2606        2607        2708        2707
         4        2607        2608        2709        2708
         4        2608        2609        2710        2709
         4        2609        2610        2711        2710
         4        2610        2611        2712        2711
         4        2611        2612        2713        2712
         4        2612        2613        2714        2713
         4        2613        2614        2715        2714
         4        2614        2615        2716        2715
         4        2615        2616        2717        2716
         4        2616        2617        2718        2717
         4        2617        2618        2719        2718
         4        2618        2619        2720        2719
         4        2619        2620        2721        2720
         4        2620        2621        2722        2721
         4        2621        2622        2723        2722
         4        2622        2623        2724        2723
         4        2623        2624        2725        2724
         4        2624        2625        2726        2725
         4        2626        2627        2728        2727
         4        2627        2628        2729        2728
         4        2628        2629        2730        2729
         4        2629        2630        2731        2730
         4        2630        2631        2732        2731
         4        2631        2632        2733        2732
         4        2632        2633        2734        2733
         4        2633        2634        2735        2734
         4        2634        2635        2736        2735
         4        2635        2636        2737        2736
         4        2636        2637        2738        2737
         4        2637        2638        2739        2738
         4        2638        2639        2740        2739
         4        2639        2640        2741        2740
         4        2640        2641        2742        2741
         4        2641        2642        2743        2742
         4        2642        2643        2744        2743
         4        2643        2644        2745        2744
         4        2644        2645        2746        2745
         4        2645        2646        2747        2746
         4        2646        2647        2748        2747
         4        2647        2648        2749        2748
         4        2648        2649        2750        2749
         4        2649        2650        2751        2750
         4        2650        2651        2752        2751
         4        2651        2652        2753        2752
         4        2652        2653        2754        2753
         4        2653        2654        2755        2754
         4        2654        2655        2756        2755
         4        2655        2656        2757        2756
         4        2656        2657        2758        2757
         4        2657        2658        2759        2758
         4        2658        2659        2760        2759
         4        2659        2660        2761        2760
         4        2660        2661        2762        2761
         4        2661        2662        2763        2762
         4        2662        2663        2764        2763
         4        2663        2664        2765        2764
         4        2664        2665        2766        2765
         4        2665        2666        2767        2766
         4        2666        2667        2768        2767
         4        2667        2668        2769        2768
         4        2668        2669        2770        2769
         4        2669        2670        2771        2770
         4        2670        2671        2772        2771
         4        2671        2672        2773        2772
         4        2672        2673        2774        2773
         4        2673        2674        2775        2774
         4        2674        2675        2776        2775
         4        2675        2676        2777        2776
         4        2676        2677        2778        2777
         4        2677        2678        2779        2778
         4        2678        2679        2780        2779
         4        2679        2680        2781        2780
         4        2680        2681        2782        2781
         4        2681        2682        2783        2782
         4        2682        2683        2784        2783
         4        2683        2684        2785        2784
         4        2684        2685        2786        2785
         4        2685        2686        2787        2786
         4        2686        2687        2788        2787
         4        2687        2688        2789        2788
         4        2688        2689        2790        2789
         4        2689        2690        2791        2790
         4        2690        2691        2792        2791
         4        2691        2692        2793        2792
         4        2692        2693        2794        2793
         4        2693        2694        2795        2794
         4        2694        2695        2796        2795
         4        2695        2696        2797        2796
         4        2696        2697        2798        2797
         4        2697        2698        2799        2798
         4        2698        2699        2800        2799
         4        2699        2700        2801        2800
         4        2700        2701        2802        2801
         4        2701        2702        2803        2802
         4        2702        2703        2804        2803
         4        2703        2704        2805        2804
         4        2704        2705        2806        2805
         4        2705        2706        2807        2806
         4        2706        2707        2808        2807
         4        2707        2708        2809        2808
         4        2708        2709        2810        2809
         4        2709        2710        2811        2810
         4        2710        2711        2812        2811
         4        2711        2712        2813        2812
         4        2712        2713        2814        2813
         4        2713        2714        2815        2814
         4        2714        2715        2816        2815
         4        2715        2716        2817        2816
         4        2716        2717        2818        2817
         4        2717        2718        2819        2818
         4        2718        2719        2820        2819
         4        2719        2720        2821        2820
         4        2720        2721        2822        2821
         4        2721        2722        2823        2822
         4        2722        2723        2824        2823
         4        2723        2724        2825        2824
         4        2724        2725        2826        2825
         4        2725        2726        2827        2826
         4        2727        2728        2829        2828
         4        2728        2729        2830        2829
         4        2729        2730        2831        2830
         4        2730        2731        2832        2831
         4        2731        2732        2833        2832
         4        2732        2733        2834        2833
         4        2733        2734        2835        2834
         4        2734        2735        2836        2835
         4        2735        2736        2837        2836
         4        2736        2737        2838        2837
         4        2737        2738        2839        2838
         4        2738        2739        2840        2839
         4        2739        2740        2841        2840
         4        2740        2741        2842        2841
         4        2741        2742        2843        2842
         4        2742        2743        2844        2843
         4        2743        2744        2845        2844
         4        2744        2745        2846        2845
         4        2745        2746        2847        2846
         4        2746        2747        2848        2847
         4        2747        2748        2849        2848
         4        2748        2749        2850        2849
         4        2749        2750        2851        2850
         4        2750        2751        2852        2851
         4        2751        2752        2853        2852
         4        2752        2753        2854        2853
         4        2753        2754        2855        2854
         4        2754        2755        2856        2855
         4        2755        2756        2857        2856
         4        2756        2757        2858        2857
         4        2757        2758        2859        2858
         4        2758        2759        2860        2859
         4        2759        2760        2861        2860
         4        2760        2761        2862        2861
         4        2761        2762        2863        2862
         4        2762        2763        2864        2863
         4        2763        2764        2865        2864
         4        2764        2765        2866        2865
         4        2765        2766        2867        2866
         4        2766        2767        2868        2867
         4        2767        2768        2869        2868
         4        2768        2769        2870        2869
         4        2769        2770        2871        2870
         4        2770        2771        2872        2871
         4        2771        2772        2873        2872
         4        2772        2773        2874        2873
         4        2773        2774        2875        2874
         4        2774        2775        2876        2875
         4        2775        2776        2877        2876
         4        2776        2777        2878        2877
         4        2777        2778        2879        2878
         4        2778        2779        2880        2879
         4        2779        2780        2881        2880
         4        2780        2781        2882        2881
         4        2781        2782        2883        2882
         4        2782        2783        2884        2883
         4        2783        2784        2885        2884
         4        2784        2785        2886        2885
         4        2785        2786        2887        2886
         4        2786        2787        2888        2887
         4        2787        2788        2889        2888
         4        2788        2789        2890        2889
         4        2789        2790        2891        2890
         4        2790        2791        2892        2891
         4        2791        2792        2893        2892
         4        2792        2793        2894        2893
         4        2793        2794        2895        2894
         4        2794        2795        2896        2895
         4        2795        2796        2897        2896
         4        2796        2797        2898        2897
         4        2797        2798        2899        2898
         4        2798        2799        2900        2899
         4        2799        2800        2901        2900
         4        2800        2801        2902        2901
         4        2801        2802        2903        2902
         4        2802        2803        2904        2903
         4        2803        2804        2905        2904
         4        2804        2805        2906        2905
         4        2805        2806        2907        2906
         4        2806        2807        2908        2907
         4        2807        2808        2909        2908
         4        2808        2809        2910        2909
         4        2809        2810        2911        2910
         4        2810        2811        2912        2911
         4        2811        2812        2913        2912
         4        2812        2813        2914        2913
         4        2813        2814        2915        2914
         4        2814        2815        2916        2915
         4        2815        2816        2917        2916
         4        2816        2817        2918        2917
         4        2817        2818        2919        2918
         4        2818        2819        2920        2919
         4        2819        2820        2921        2920
         4        2820        2821        2922        2921
         4        2821        2822        2923        2922
         4        2822        2823        2924        2923
         4        2823        2824        2925        2924
         4        2824        2825        2926        2925
         4        2825        2826        2927        2926
         4        2826        2827        2928        2927
         4        2828        2829        2930        2929
         4        2829        2830        2931        2930
         4        2830        2831        2932        2931
         4        2831        2832        2933        2932
         4        2832        2833        2934        2933
         4        2833        2834        2935        2934
         4        2834        2835        2936        2935
         4        2835        2836        2937        2936
         4        2836        2837        2938        2937
         4        2837        2838        2939        2938
         4        2838        2839        2940        2939
         4        2839        2840        2941        2940
         4        2840        2841        2942        2941
         4        2841        2842        2943        2942
         4        2842        2843        2944        2943
         4        2843        2844        2945        2944
         4        2844        2845        2946        2945
         4        2845        2846        2947        2946
         4        2846        2847        2948        2947
         4        2847        2848        2949        2948
         4        2848        2849        2950        2949
         4        2849        2850        2951        2950
         4        2850        2851        2952        2951
         4        2851        2852        2953        2952
         4        2852        2853        2954        2953
         4        2853        2854        2955        2954
         4        2854        2855        2956        2955
         4        2855        2856        2957        2956
         4        2856        2857        2958        2957
         4        2857        2858        2959        2958
         4        2858        2859        2960        2959
         4        2859        2860        2961        2960
         4        2860        2861        2962        2961
         4        2861        2862        2963        2962
         4        2862        2863        2964        2963
         4        2863        2864        2965        2964
         4        2864        2865        2966        2965
         4        2865        2866        2967        2966
         4        2866        2867        2968        2967
         4        2867        2868        2969        2968
         4        2868        2869        2970        2969
         4        2869        2870        2971        2970
         4        2870        2871        2972        2971
         4        2871        2872        2973        2972
         4        2872        2873        2974        2973
         4        2873        2874        2975        2974
         4        2874        2875        2976        2975
         4        2875        2876        2977        2976
         4        2876        2877        2978        2977
         4        2877        2878        2979        2978
         4        2878        2879        2980        2979
         4        2879        2880        2981        2980
         4        2880        2881        2982        2981
         4        2881        2882        2983        2982
         4        2882        2883        2984        2983
         4        2883        2884        2985        2984
         4        2884        2885        2986        2985
         4        2885        2886        2987        2986
         4        2886        2887        2988        2987
         4        2887        2888        2989        2988
         4        2888        2889        2990        2989
         4        2889        2890        2991        2990
         4        2890        2891        2992        2991
         4        2891        2892        2993        2992
         4        2892        2893        2994        2993
         4        2893        2894        2995        2994
         4        2894        2895        2996        2995
         4        2895        2896        2997        2996
         4        2896        2897        2998        2997
         4        2897        2898        2999        2998
         4        2898        2899        3000        2999
         4        2899        2900        3001        3000
         4        2900        2901        3002        3001
         4        2901        2902        3003        3002
         4        2902        2903        3004        3003
         4        2903        2904        3005        3004
         4        2904        2905        3006        3005
         4        2905        2906        3007        3006
         4        2906        2907        3008        3007
         4        2907        2908        3009        3008
         4        2908        2909        3010        3009
         4        2909        2910        3011        3010
         4        2910        2911        3012        3011
         4        2911        2912        3013        3012
         4        2912        2913        3014        3013
         4        2913        2914        3015        3014
         4        2914        2915        3016        3015
         4        2915        2916        3017        3016
         4        2916        2917        3018        3017
         4        2917        2918        3019        3018
         4        2918        2919        3020        3019
         4        2919        2920        3021        3020
         4        2920        2921        3022        3021
         4        2921        2922        3023        3022
         4        2922        2923        3024        3023
         4        2923        2924        3025        3024
         4        2924        2925        3026        3025
         4        2925        2926        3027        3026
         4        2926        2927        3028        3027
         4        2927        2928        3029        3028
         4        2929        2930        3031        3030
         4        2930        2931        3032        3031
         4        2931        2932        3033        3032
         4        2932        2933        3034        3033
         4        2933        2934        3035        3034
         4        2934        2935        3036        3035
         4        2935        2936        3037        3036
         4        2936        2937        3038        3037
         4        2937        2938        3039        3038
         4        2938        2939        3040        3039
         4        2939        2940        3041        3040
         4        2940        2941        3042        3041
         4        2941        2942        3043        3042
         4        2942        2943        3044        3043
         4        2943        2944        3045        3044
         4        2944        2945        3046        3045
         4        2945        2946        3047        3046
         4        2946        2947        3048        3047
         4        2947        2948        3049        3048
         4        2948        2949        3050        3049
         4        2949        2950        3051        3050
         4        2950        2951        3052        3051
         4        2951        2952        3053        3052
         4        2952        2953        3054        3053
         4        2953        2954        3055        3054
         4        2954        2955        3056        3055
         4        2955        2956        3057        3056
         4        2956        2957        3058        3057
         4        2957        2958        3059        3058
         4        2958        2959        3060        3059
         4        2959        2960        3061        3060
         4        2960        2961        3062        3061
         4        2961        2962        3063        3062
         4        2962        2963        3064        3063
         4        2963        2964        3065        3064
         4        2964        2965        3066        3065
         4        2965        2966        3067        3066
         4        2966        2967        3068        3067
         4        2967        2968        3069        3068
         4        2968        2969        3070        3069
         4        2969        2970        3071        3070
         4        2970        2971        3072        3071
         4        2971        2972        3073        3072
         4        2972        2973        3074        3073
         4        2973        2974        3075        3074
         4        2974        2975        3076        3075
         4        2975        2976        3077        3076
         4        2976        2977        3078        3077
         4        2977        2978        3079        3078
         4        2978        2979        3080        3079
         4        2979        2980        3081        3080
         4        2980        2981        3082        3081
         4        2981        2982        3083        3082
         4        2982        2983        3084        3083
         4        2983        2984        3085        3084
         4        2984        2985        3086        3085
         4        2985        2986        3087        3086
         4        2986        2987        3088        3087
         4        2987        2988        3089        3088
         4        2988        2989        3090        3089
         4        2989        2990        3091        3090
         4        2990        2991        3092        3091
         4        2991        2992        3093        3092
         4        2992        2993        3094        3093
         4        2993        2994        3095        3094
         4        2994        2995        3096        3095
         4        2995        2996        3097        3096
         4        2996        2997        3098        3097
         4        2997        2998        3099        3098
         4        2998        2999        3100        3099
         4        2999        3000        3101        3100
         4        3000        3001        3102        3101
         4        3001        3002        3103        3102
         4        3002        3003        3104        3103
         4        3003        3004        3105        3104
         4        3004        3005        3106        3105
         4        3005        3006        3107        3106
         4        3006        3007        3108        3107
         4        3007        3008        3109        3108
         4        3008        3009        3110        3109
         4        3009        3010        3111        3110
         4        3010        3011        3112        3111
         4        3011        3012        3113        3112
         4        3012        3013        3114        3113
         4        3013        3014        3115        3114
         4        3014        3015        3116        3115
         4        3015        3016        3117        3116
         4        3016        3017        3118        3117
         4        3017        3018        3119        3118
         4        3018        3019        3120        3119
         4        3019        3020        3121        3120
         4        3020        3021        3122        3121
         4        3021        3022        3123        3122
         4        3022        3023        3124        3123
         4        3023        3024        3125        3124
         4        3024        3025        3126        3125
         4        3025        3026        3127        3126
         4        3026        3027        3128        3127
         4        3027        3028        3129        3128
         4        3028        3029        3130        3129
         4        3030        3031        3132        3131
         4        3031        3032        3133        3132
         4        3032        3033        3134        3133
         4        3033        3034        3135        3134
         4        3034        3035        3136        3135
         4        3035        3036        3137        3136
         4        3036        3037        3138        3137
         4        3037        3038        3139        3138
         4        3038        3039        3140        3139
         4        3039        3040        3141        3140
         4        3040        3041        3142        3141
         4        3041        3042        3143        3142
         4        3042        3043        3144        3143
         4        3043        3044        3145        3144
         4        3044        3045        3146        3145
         4        3045        3046        3147        3146
         4        3046        3047        3148        3147
         4        3047        3048        3149        3148
         4        3048        3049        3150        3149
         4        3049        3050        3151        3150
         4        3050        3051        3152        3151
         4        3051        3052        3153        3152
         4        3052        3053        3154        3153
         4        3053        3054        3155        3154
         4        3054        3055        3156        3155
         4        3055        3056        3157        3156
         4        3056        3057        3158        3157
         4        3057        3058        3159        3158
         4        3058        3059        3160        3159
         4        3059        3060        3161        3160
         4        3060        3061        3162        3161
         4        3061        3062        3163        3162
         4        3062        3063        3164        3163
         4        3063        3064        3165        3164
         4        3064        3065        3166        3165
         4        3065        3066        3167        3166
         4        3066        3067        3168        3167
         4        3067        3068        3169        3168
         4        3068        3069        3170        3169
         4        3069        3070        3171        3170
         4        3070        3071        3172        3171
         4        3071        3072        3173        3172
         4        3072        3073        3174        3173
         4        3073        3074        3175        3174
         4        3074        3075        3176        3175
         4        3075        3076        3177        3176
         4        3076        3077        3178        3177
         4        3077        3078        3179        3178
         4        3078        3079        3180        3179
         4        3079        3080        3181        3180
         4        3080        3081        3182        3181
         4        3081        3082        3183        3182
         4        3082        3083        3184        3183
         4        3083        3084        3185        3184
         4        3084        3085        3186        3185
         4        3085        3086        3187        3186
         4        3086        3087        3188        3187
         4        3087        3088        3189        3188
         4        3088        3089        3190        3189
         4        3089        3090        3191        3190
         4        3090        3091        3192        3191
         4        3091        3092        3193        3192
         4        3092        3093        3194        3193
         4        3093        3094        3195        3194
         4        3094        3095        3196        3195
         4        3095        3096        3197        3196
         4        3096        3097        3198        3197
         4        3097        3098        3199        3198
         4        3098        3099        3200        3199
         4        3099        3100        3201        3200
         4        3100        3101        3202        3201
         4        3101        3102        3203        3202
         4        3102        3103        3204        3203
         4        3103        3104        3205        3204
         4        3104        3105        3206        3205
         4        3105        3106        3207        3206
         4        3106        3107        3208        3207
         4        3107        3108        3209        3208
         4        3108        3109        3210        3209
         4        3109        3110        3211        3210
         4        3110        3111        3212        3211
         4        3111        3112        3213        3212
         4        3112        3113        3214        3213
         4        3113        3114        3215        3214
         4        3114        3115        3216        3215
         4        3115        3116        3217        3216
         4        3116        3117        3218        3217
         4        3117        3118        3219        3218
         4        3118        3119        3220        3219
         4        3119        3120        3221        3220
         4        3120        3121        3222        3221
         4        3121        3122        3223        3222
         4        3122        3123        3224        3223
         4        3123        3124        3225        3224
         4        3124        3125        3226        3225
         4        3125        3126        3227        3226
         4        3126        3127        3228        3227
         4        3127        3128        3229        3228
         4        3128        3129        3230        3229
         4        3129        3130        3231        3230
         4        3131        3132        3233        3232
         4        3132        3133        3234        3233
         4        3133        3134        3235        3234
         4        3134        3135        3236        3235
         4        3135        3136        3237        3236
         4        3136        3137        3238        3237
         4        3137        3138        3239        3238
         4        3138        3139        3240        3239
         4        3139        3140        3241        3240
         4        3140        3141        3242        3241
         4        3141        3142        3243        3242
         4        3142        3143        3244        3243
         4        3143        3144        3245        3244
         4        3144        3145        3246        3245
         4        3145        3146        3247        3246
         4        3146        3147        3248        3247
         4        3147        3148        3249        3248
         4        3148        3149        3250        3249
         4        3149        3150        3251        3250
         4        3150        3151        3252        3251
         4        3151        3152        3253        3252
         4        3152        3153        3254        3253
         4        3153        3154        3255        3254
         4        3154        3155        3256        3255
         4        3155        3156        3257        3256
         4        3156        3157        3258        3257
         4        3157        3158        3259        3258
         4        3158        3159        3260        3259
         4        3159        3160        3261        3260
         4        3160        3161        3262        3261
         4        3161        3162        3263        3262
         4        3162        3163        3264        3263
         4        3163        3164        3265        3264
         4        3164        3165        3266        3265
         4        3165        3166        3267        3266
         4        3166        3167        3268        3267
         4        3167        3168        3269        3268
         4        3168        3169        3270        3269
         4        3169        3170        3271        3270
         4        3170        3171        3272        3271
         4        3171        3172        3273        3272
         4        3172        3173        3274        3273
         4        3173        3174        3275        3274
         4        3174        3175        3276        3275
         4        3175        3176        3277        3276
         4        3176        3177        3278        3277
         4        3177        3178        3279        3278
         4        3178        3179        3280        3279
         4        3179        3180        3281        3280
         4        3180        3181        3282        3281
         4        3181        3182        3283        3282
         4        3182        3183        3284        3283
         4        3183        3184        3285        3284
         4        3184        3185        3286        3285
         4        3185        3186        3287        3286
         4        3186        3187        3288        3287
         4        3187        3188        3289        3288
         4        3188        3189        3290        3289
         4        3189        3190        3291        3290
         4        3190        3191        3292        3291
         4        3191        3192        3293        3292
         4        3192        3193        3294        3293
         4        3193        3194        3295        3294
         4        3194        3195        3296        3295
         4        3195        3196        3297        3296
         4        3196        3197        3298        3297
         4        3197        3198        3299        3298
         4        3198        3199        3300        3299
         4        3199        3200        3301        3300
         4        3200        3201        3302        3301
         4        3201        3202        3303        3302
         4        3202        3203        3304        3303
         4        3203        3204        3305        3304
         4        3204        3205        3306        3305
         4        3205        3206        3307        3306
         4        3206        3207        3308        3307
         4        3207        3208        3309        3308
         4        3208        3209        3310        3309
         4        3209        3210        3311        3310
         4        3210        3211        3312        3311
         4        3211        3212        3313        3312
         4        3212        3213        3314        3313
         4        3213        3214        3315        3314
         4        3214        3215        3316        3315
         4        3215        3216        3317        3316
         4        3216        3217        3318        3317
         4        3217        3218        3319        3318
         4        3218        3219        3320        3319
         4        3219        3220        3321        3320
         4        3220        3221        3322        3321
         4        3221        3222        3323        3322
         4        3222        3223        3324        3323
         4        3223        3224        3325        3324
         4        3224        3225        3326        3325
         4        3225        3226        3327        3326
         4        3226        3227        3328        3327
         4        3227        3228        3329        3328
         4        3228        3229        3330        3329
         4        3229        3230        3331        3330
         4        3230        3231        3332        3331
         4        3232        3233        3334        3333
         4        3233        3234        3335        3334
         4        3234        3235        3336        3335
         4        3235        3236        3337        3336
         4        3236        3237        3338        3337
         4        3237        3238        3339        3338
         4        3238        3239        3340        3339
         4        3239        3240        3341        3340
         4        3240        3241        3342        3341
         4        3241        3242        3343        3342
         4        3242        3243        3344        3343
         4        3243        3244        3345        3344
         4        3244        3245        3346        3345
         4        3245        3246        3347        3346
         4        3246        3247        3348        3347
         4        3247        3248        3349        3348
         4        3248        3249        3350        3349
         4        3249        3250        3351        3350
         4        3250        3251        3352        3351
         4        3251        3252        3353        3352
         4        3252        3253        3354        3353
         4        3253        3254        3355        3354
         4        3254        3255        3356        3355
         4        3255        3256        3357        3356
         4        3256        3257        3358        3357
         4        3257        3258        3359        3358
         4        3258        3259        3360        3359
         4        3259        3260        3361        3360
         4        3260        3261        3362        3361
         4        3261        3262        3363        3362
         4        3262        3263        3364        3363
         4        3263        3264        3365        3364
         4        3264        3265        3366        3365
         4        3265        3266        3367        3366
         4        3266        3267        3368        3367
         4        3267        3268        3369        3368
         4        3268        3269        3370        3369
         4        3269        3270        3371        3370
         4        3270        3271        3372        3371
         4        3271        3272        3373        3372
         4        3272        3273        3374        3373
         4        3273        3274        3375        3374
         4        3274        3275        3376        3375
         4        3275        3276        3377        3376
         4        3276        3277        3378        3377
         4        3277        3278        3379        3378
         4        3278        3279        3380        3379
         4        3279        3280        3381        3380
         4        3280        3281        3382        3381
         4        3281        3282        3383        3382
         4        3282        3283        3384        3383
         4        3283        3284        3385        3384
         4        3284        3285        3386        3385
         4        3285        3286        3387        3386
         4        3286        3287        3388        3387
         4        3287        3288        3389        3388
         4        3288        3289        3390        3389
         4        3289        3290        3391        3390
         4        3290        3291        3392        3391
         4        3291        3292        3393        3392
         4        3292        3293        3394        3393
         4        3293        3294        3395        3394
         4        3294        3295        3396        3395
         4        3295        3296        3397        3396
         4        3296        3297        3398        3397
         4        3297        3298        3399        3398
         4        3298        3299        3400        3399
         4        3299        3300        3401        3400
         4        3300        3301        3402        3401
         4        3301        3302        3403        3402
         4        3302        3303        3404        3403
         4        3303        3304        3405        3404
         4        3304        3305        3406        3405
         4        3305        3306        3407        3406
         4        3306        3307        3408        3407
         4        3307        3308        3409        3408
         4        3308        3309        3410        3409
         4        3309        3310        3411        3410
         4        3310        3311        3412        3411
         4        3311        3312        3413        3412
         4        3312        3313        3414        3413
         4        3313        3314        3415        3414
         4        3314        3315        3416        3415
         4        3315        3316        3417        3416
         4        3316        3317        3418        3417
         4        3317        3318        3419        3418
         4        3318        3319        3420        3419
         4        3319        3320        3421        3420
         4        3320        3321        3422        3421
         4        3321        3322        3423        3422
         4        3322        3323        3424        3423
         4        3323        3324        3425        3424
         4        3324        3325        3426        3425
         4        3325        3326        3427        3426
         4        3326        3327        3428        3427
         4        3327        3328        3429        3428
         4        3328        3329        3430        3429
         4        3329        3330        3431        3430
         4        3330        3331        3432        3431
         4        3331        3332        3433        3432
         4        3333        3334        3435        3434
         4        3334        3335        3436        3435
         4        3335        3336        3437        3436
         4        3336        3337        3438        3437
         4        3337        3338        3439        3438
         4        3338        3339        3440        3439
         4        3339        3340        3441        3440
         4        3340        3341        3442        3441
         4        3341        3342        3443        3442
         4        3342        3343        3444        3443
         4        3343        3344        3445        3444
         4        3344        3345        3446        3445
         4        3345        3346        3447        3446
         4        3346        3347        3448        3447
         4        3347        3348        3449        3448
         4        3348        3349        3450        3449
         4        3349        3350        3451        3450
         4        3350        3351        3452        3451
         4        3351        3352        3453        3452
         4        3352        3353        3454        3453
         4        3353        3354        3455        3454
         4        3354        3355        3456        3455
         4        3355        3356        3457        3456
         4        3356        3357        3458        3457
         4        3357        3358        3459        3458
         4        3358        3359        3460        3459
         4        3359        3360        3461        3460
         4        3360        3361        3462        3461
         4        3361        3362        3463        3462
         4        3362        3363        3464        3463
         4        3363        3364        3465        3464
         4        3364        3365        3466        3465
         4        3365        3366        3467        3466
         4        3366        3367        3468        3467
         4        3367        3368        3469        3468
         4        3368        3369        3470        3469
         4        3369        3370        3471        3470
         4        3370        3371        3472        3471
         4        3371        3372        3473        3472
         4        3372        3373        3474        3473
         4        3373        3374        3475        3474
         4        3374        3375        3476        3475
         4        3375        3376        3477        3476
         4        3376        3377        3478        3477
         4        3377        3378        3479        3478
         4        3378        3379        3480        3479
         4        3379        3380        3481        3480
         4        3380        3381        3482        3481
         4        3381        3382        3483        3482
         4        3382        3383        3484        3483
         4        3383        3384        3485        3484
         4        3384        3385        3486        3485
         4        3385        3386        3487        3486
         4        3386        3387        3488        3487
         4        3387        3388        3489        3488
         4        3388        3389        3490        3489
         4        3389        3390        3491        3490
         4        3390        3391        3492        3491
         4        3391        3392        3493        3492
         4        3392        3393        3494        3493
         4        3393        3394        3495        3494
         4        3394        3395        3496        3495
         4        3395        3396        3497        3496
         4        3396        3397        3498        3497
         4        3397        3398        3499        3498
         4        3398        3399        3500        3499
         4        3399        3400        3501        3500
         4        3400        3401        3502        3501
         4        3401        3402        3503        3502
         4        3402        3403        3504        3503
         4        3403        3404        3505        3504
         4        3404        3405        3506        3505
         4        3405        3406        3507        3506
         4        3406        3407        3508        3507
         4        3407        3408        3509        3508
         4        3408        3409        3510        3509
         4        3409        3410        3511        3510
         4        3410        3411        3512        3511
         4        3411        3412        3513        3512
         4        3412        3413        3514        3513
         4        3413        3414        3515        3514
         4        3414        3415        3516        3515
         4        3415        3416        3517        3516
         4        3416        3417        3518        3517
         4        3417        3418        3519        3518
         4        3418        3419        3520        3519
         4        3419        3420        3521        3520
         4        3420        3421        3522        3521
         4        3421        3422        3523        3522
         4        3422        3423        3524        3523
         4        3423        3424        3525        3524
         4        3424        3425        3526        3525
         4        3425        3426        3527        3526
         4        3426        3427        3528        3527
         4        3427        3428        3529        3528
         4        3428        3429        3530        3529
         4        3429        3430        3531        3530
         4        3430        3431        3532        3531
         4        3431        3432        3533        3532
         4        3432        3433        3534        3533
         4        3434        3435        3536        3535
         4        3435        3436        3537        3536
         4        3436        3437        3538        3537
         4        3437        3438        3539        3538
         4        3438        3439        3540        3539
         4        3439        3440        3541        3540
         4        3440        3441        3542        3541
         4        3441        3442        3543        3542
         4        3442        3443        3544        3543
         4        3443        3444        3545        3544
         4        3444        3445        3546        3545
         4        3445        3446        3547        3546
         4        3446        3447        3548        3547
         4        3447        3448        3549        3548
         4        3448        3449        3550        3549
         4        3449        3450        3551        3550
         4        3450        3451        3552        3551
         4        3451        3452        3553        3552
         4        3452        3453        3554        3553
         4        3453        3454        3555        3554
         4        3454        3455        3556        3555
         4        3455        3456        3557        3556
         4        3456        3457        3558        3557
         4        3457        3458        3559        3558
         4        3458        3459        3560        3559
         4        3459        3460        3561        3560
         4        3460        3461        3562        3561
         4        3461        3462        3563        3562
         4        3462        3463        3564        3563
         4        3463        3464        3565        3564
         4        3464        3465        3566        3565
         4        3465        3466        3567        3566
         4        3466        3467        3568        3567
         4        3467        3468        3569        3568
         4        3468        3469        3570        3569
         4        3469        3470        3571        3570
         4        3470        3471        3572        3571
         4        3471        3472        3573        3572
         4        3472        3473        3574        3573
         4        3473        3474        3575        3574
         4        3474        3475        3576        3575
         4        3475        3476        3577        3576
         4        3476        3477        3578        3577
         4        3477        3478        3579        3578
         4        3478        3479        3580        3579
         4        3479        3480        3581        3580
         4        3480        3481        3582        3581
         4        3481        3482        3583        3582
         4        3482        3483        3584        3583
         4        3483        3484        3585        3584
         4        3484        3485        3586        3585
         4        3485        3486        3587        3586
         4        3486        3487        3588        3587
         4        3487        3488        3589        3588
         4        3488        3489        3590        3589
         4        3489        3490        3591        3590
         4        3490        3491        3592        3591
         4        3491        3492        3593        3592
         4        3492        3493        3594        3593
         4        3493        3494        3595        3594
         4        3494        3495        3596        3595
         4        3495        3496        3597        3596
         4        3496        3497        3598        3597
         4        3497        3498        3599        3598
         4        3498        3499        3600        3599
         4        3499        3500        3601        3600
         4        3500        3501        3602        3601
         4        3501        3502        3603        3602
         4        3502        3503        3604        3603
         4        3503        3504        3605        3604
         4        3504        3505        3606        3605
         4        3505        3506        3607        3606
         4        3506        3507        3608        3607
         4        3507        3508        3609        3608
         4        3508        3509        3610        3609
         4        3509        3510        3611        3610
         4        3510        3511        3612        3611
         4        3511        3512        3613        3612
         4        3512        3513        3614        3613
         4        3513        3514        3615        3614
         4        3514        3515        3616        3615
         4        3515        3516        3617        3616
         4        3516        3517        3618        3617
         4        3517        3518        3619        3618
         4        3518        3519        3620        3619
         4        3519        3520        3621        3620
         4        3520        3521        3622        3621
         4        3521        3522        3623        3622
         4        3522        3523        3624        3623
         4        3523        3524        3625        3624
         4        3524        3525        3626        3625
         4        3525        3526        3627        3626
         4        3526        3527        3628        3627
         4        3527        3528        3629        3628
         4        3528        3529        3630        3629
         4        3529        3530        3631        3630
         4        3530        3531        3632        3631
         4        3531        3532        3633        3632
         4        3532        3533        3634        3633
         4        3533        3534        3635        3634
         4        3535        3536        3637        3636
         4        3536        3537        3638        3637
         4        3537        3538        3639        3638
         4        3538        3539        3640        3639
         4        3539        3540        3641        3640
         4        3540        3541        3642        3641
         4        3541        3542        3643        3642
         4        3542        3543        3644        3643
         4        3543        3544        3645        3644
         4        3544        3545        3646        3645
         4        3545        3546        3647        3646
         4        3546        3547        3648        3647
         4        3547        3548        3649        3648
         4        3548        3549        3650        3649
         4        3549        3550        3651        3650
         4        3550        3551        3652        3651
         4        3551        3552        3653        3652
         4        3552        3553        3654        3653
         4        3553        3554        3655        3654
         4        3554        3555        3656        3655
         4        3555        3556        3657        3656
         4        3556        3557        3658        3657
         4        3557        3558        3659        3658
         4        3558        3559        3660        3659
         4        3559        3560        3661        3660
         4        3560        3561        3662        3661
         4        3561        3562        3663        3662
         4        3562        3563        3664        3663
         4        3563        3564        3665        3664
         4        3564        3565        3666        3665
         4        3565        3566        3667        3666
         4        3566        3567        3668        3667
         4        3567        3568        3669        3668
         4        3568        3569        3670        3669
         4        3569        3570        3671        3670
         4        3570        3571        3672        3671
         4        3571        3572        3673        3672
         4        3572        3573        3674        3673
         4        3573        3574        3675        3674
         4        3574        3575        3676        3675
         4        3575        3576        3677        3676
         4        3576        3577        3678        3677
         4        3577        3578        3679        3678
         4        3578        3579        3680        3679
         4        3579        3580        3681        3680
         4        3580        3581        3682        3681
         4        3581        3582        3683        3682
         4        3582        3583        3684        3683
         4        3583        3584        3685        3684
         4        3584        3585        3686        3685
         4        3585        3586        3687        3686
         4        3586        3587        3688        3687
         4        3587        3588        3689        3688
         4        3588        3589        3690        3689
         4        3589        3590        3691        3690
         4        3590        3591        3692        3691
         4        3591        3592        3693        3692
         4        3592        3593        3694        3693
         4        3593        3594        3695        3694
         4        3594        3595        3696        3695
         4        3595        3596        3697        3696
         4        3596        3597        3698        3697
         4        3597        3598        3699        3698
         4        3598        3599        3700        3699
         4        3599        3600        3701        3700
         4        3600        3601        3702        3701
         4        3601        3602        3703        3702
         4        3602        3603        3704        3703
         4        3603        3604        3705        3704
         4        3604        3605        3706        3705
         4        3605        3606        3707        3706
         4        3606        3607        3708        3707
         4        3607        3608        3709        3708
         4        3608        3609        3710        3709
         4        3609        3610        3711        3710
         4        3610        3611        3712        3711
         4        3611        3612        3713        3712
         4        3612        3613        3714        3713
         4        3613        3614        3715        3714
         4        3614        3615        3716        3715
         4        3615        3616        3717        3716
         4        3616        3617        3718        3717
         4        3617        3618        3719        3718
         4        3618        3619        3720        3719
         4        3619        3620        3721        3720
         4        3620        3621        3722        3721
         4        3621        3622        3723        3722
         4        3622        3623        3724        3723
         4        3623        3624        3725        3724
         4        3624        3625        3726        3725
         4        3625        3626        3727        3726
         4        3626        3627        3728        3727
         4        3627        3628        3729        3728
         4        3628        3629        3730        3729
         4        3629        3630        3731        3730
         4        3630        3631        3732        3731
         4        3631        3632        3733        3732
         4        3632        3633        3734        3733
         4        3633        3634        3735        3734
         4        3634        3635        3736        3735
         4        3636        3637        3738        3737
         4        3637        3638        3739        3738
         4        3638        3639        3740        3739
         4        3639        3640        3741        3740
         4        3640        3641        3742        3741
         4        3641        3642        3743        3742
         4        3642        3643        3744        3743
         4        3643        3644        3745        3744
         4        3644        3645        3746        3745
         4        3645        3646        3747        3746
         4        3646        3647        3748        3747
         4        3647        3648        3749        3748
         4        3648        3649        3750        3749
         4        3649        3650        3751        3750
         4        3650        3651        3752        3751
         4        3651        3652        3753        3752
         4        3652        3653        3754        3753
         4        3653        3654        3755        3754
         4        3654        3655        3756        3755
         4        3655        3656        3757        3756
         4        3656        3657        3758        3757
         4        3657        3658        3759        3758
         4        3658        3659        3760        3759
         4        3659        3660        3761        3760
         4        3660        3661        3762        3761
         4        3661        3662        3763        3762
         4        3662        3663        3764        3763
         4        3663        3664        3765        3764
         4        3664        3665        3766        3765
         4        3665        3666        3767        3766
         4        3666        3667        3768        3767
         4        3667        3668        3769        3768
         4        3668        3669        3770        3769
         4        3669        3670        3771        3770
         4        3670        3671        3772        3771
         4        3671        3672        3773        3772
         4        3672        3673        3774        3773
         4        3673        3674        3775        3774
         4        3674        3675        3776        3775
         4        3675        3676        3777        3776
         4        3676        3677        3778        3777
         4        3677        3678        3779        3778
         4        3678        3679        3780        3779
         4        3679        3680        3781        3780
         4        3680        3681        3782        3781
         4        3681        3682        3783        3782
         4        3682        3683        3784        3783
         4        3683        3684        3785        3784
         4        3684        3685        3786        3785
         4        3685        3686        3787        3786
         4        3686        3687        3788        3787
         4        3687        3688        3789        3788
         4        3688        3689        3790        3789
         4        3689        3690        3791        3790
         4        3690        3691        3792        3791
         4        3691        3692        3793        3792
         4        3692        3693        3794        3793
         4        3693        3694        3795        3794
         4        3694        3695        3796        3795
         4        3695        3696        3797        3796
         4        3696        3697        3798        3797
         4        3697        3698        3799        3798
         4        3698        3699        3800        3799
         4        3699        3700        3801        3800
         4        3700        3701        3802        3801
         4        3701        3702        3803        3802
         4        3702        3703        3804        3803
         4        3703        3704        3805        3804
         4        3704        3705        3806        3805
         4        3705        3706        3807        3806
         4        3706        3707        3808        3807
         4        3707        3708        3809        3808
         4        3708        3709        3810        3809
         4        3709        3710        3811        3810
         4        3710        3711        3812        3811
         4        3711        3712        3813        3812
         4        3712        3713        3814        3813
         4        3713        3714        3815        3814
         4        3714        3715        3816        3815
         4        3715        3716        3817        3816
         4        3716        3717        3818        3817
         4        3717        3718        3819        3818
         4        3718        3719        3820        3819
         4        3719        3720        3821        3820
         4        3720        3721        3822        3821
         4        3721        3722        3823        3822
         4        3722        3723        3824        3823
         4        3723        3724        3825        3824
         4        3724        3725        3826        3825
         4        3725        3726        3827        3826
         4        3726        3727        3828        3827
         4        3727        3728        3829        3828
         4        3728        3729        3830        3829
         4        3729        3730        3831        3830
         4        3730        3731        3832        3831
         4        3731        3732        3833        3832
         4        3732        3733        3834        3833
         4        3733        3734        3835        3834
         4        3734        3735        3836        3835
         4        3735        3736        3837        3836
         4        3737        3738        3839        3838
         4        3738        3739        3840        3839
         4        3739        3740        3841        3840
         4        3740        3741        3842        3841
         4        3741        3742        3843        3842
         4        3742        3743        3844        3843
         4        3743        3744        3845        3844
         4        3744        3745        3846        3845
         4        3745        3746        3847        3846
         4        3746        3747        3848        3847
         4        3747        3748        3849        3848
         4        3748        3749        3850        3849
         4        3749        3750        3851        3850
         4        3750        3751        3852        3851
         4        3751        3752        3853        3852
         4        3752        3753        3854        3853
         4        3753        3754        3855        3854
         4        3754        3755        3856        3855
         4        3755        3756        3857        3856
         4        3756        3757        3858        3857
         4        3757        3758        3859        3858
         4        3758        3759        3860        3859
         4        3759        3760        3861        3860
         4        3760        3761        3862        3861
         4        3761        3762        3863        3862
         4        3762        3763        3864        3863
         4        3763        3764        3865        3864
         4        3764        3765        3866        3865
         4        3765        3766        3867        3866
         4        3766        3767        3868        3867
         4        3767        3768        3869        3868
         4        3768        3769        3870        3869
         4        3769        3770        3871        3870
         4        3770        3771        3872        3871
         4        3771        3772        3873        3872
         4        3772        3773        3874        3873
         4        3773        3774        3875        3874
         4        3774        3775        3876        3875
         4        3775        3776        3877        3876
         4        3776        3777        3878        3877
         4        3777        3778        3879        3878
         4        3778        3779        3880        3879
         4        3779        3780        3881        3880
         4        3780        3781        3882        3881
         4        3781        3782        3883        3882
         4        3782        3783        3884        3883
         4        3783        3784        3885        3884
         4        3784        3785        3886        3885
         4        3785        3786        3887        3886
         4        3786        3787        3888        3887
         4        3787        3788        3889        3888
         4        3788        3789        3890        3889
         4        3789        3790        3891        3890
         4        3790        3791        3892        3891
         4        3791        3792        3893        3892
         4        3792        3793        3894        3893
         4        3793        3794        3895        3894
         4        3794        3795        3896        3895
         4        3795        3796        3897        3896
         4        3796        3797        3898        3897
         4        3797        3798        3899        3898
         4        3798        3799        3900        3899
         4        3799        3800        3901        3900
         4        3800        3801        3902        3901
         4        3801        3802        3903        3902
         4        3802        3803        3904        3903
         4        3803        3804        3905        3904
         4        3804        3805        3906        3905
         4        3805        3806        3907        3906
         4        3806        3807        3908        3907
         4        3807        3808        3909        3908
         4        3808        3809        3910        3909
         4        3809        3810        3911        3910
         4        3810        3811        3912        3911
         4        3811        3812        3913        3912
         4        3812        3813        3914        3913
         4        3813        3814        3915        3914
         4        3814        3815        3916        3915
         4        3815        3816        3917        3916
         4        3816        3817        3918        3917
         4        3817        3818        3919        3918
         4        3818        3819        3920        3919
         4        3819        3820        3921        3920
         4        3820        3821        3922        3921
         4        3821        3822        3923        3922
         4        3822        3823        3924        3923
         4        3823        3824        3925        3924
         4        3824        3825        3926        3925
         4        3825        3826        3927        3926
         4        3826        3827        3928        3927
         4        3827        3828        3929        3928
         4        3828        3829        3930        3929
         4        3829        3830        3931        3930
         4        3830        3831        3932        3931
         4        3831        3832        3933        3932
         4        3832        3833        3934        3933
         4        3833        3834        3935        3934
         4        3834        3835        3936        3935
         4        3835        3836        3937        3936
         4        3836        3837        3938        3937
         4        3838        3839        3940        3939
         4        3839        3840        3941        3940
         4        3840        3841        3942        3941
         4        3841        3842        3943        3942
         4        3842        3843        3944        3943
         4        3843        3844        3945        3944
         4        3844        3845        3946        3945
         4        3845        3846        3947        3946
         4        3846        3847        3948        3947
         4        3847        3848        3949        3948
         4        3848        3849        3950        3949
         4        3849        3850        3951        3950
         4        3850        3851        3952        3951
         4        3851        3852        3953        3952
         4        3852        3853        3954        3953
         4        3853        3854        3955        3954
         4        3854        3855        3956        3955
         4        3855        3856        3957        3956
         4        3856        3857        3958        3957
         4        3857        3858        3959        3958
         4        3858        3859        3960        3959
         4        3859        3860        3961        3960
         4        3860        3861        3962        3961
         4        3861        3862        3963        3962
         4        3862        3863        3964        3963
         4        3863        3864        3965        3964
         4        3864        3865        3966        3965
         4        3865        3866        3967        3966
         4        3866        3867        3968        3967
         4        3867        3868        3969        3968
         4        3868        3869        3970        3969
         4        3869        3870        3971        3970
         4        3870        3871        3972        3971
         4        3871        3872        3973        3972
         4        3872        3873        3974        3973
         4        3873        3874        3975        3974
         4        3874        3875        3976        3975
         4        3875        3876        3977        3976
         4        3876        3877        3978        3977
         4        3877        3878        3979        3978
         4        3878        3879        3980        3979
         4        3879        3880        3981        3980
         4        3880        3881        3982        3981
         4        3881        3882        3983        3982
         4        3882        3883        3984        3983
         4        3883        3884        3985        3984
         4        3884        3885        3986        3985
         4        3885        3886        3987        3986
         4        3886        3887        3988        3987
         4        3887        3888        3989        3988
         4        3888        3889        3990        3989
         4        3889        3890        3991        3990
         4        3890        3891        3992        3991
         4        3891        3892        3993        3992
         4        3892        3893        3994        3993
         4        3893        3894        3995        3994
         4        3894        3895        3996        3995
         4        3895        3896        3997        3996
         4        3896        3897        3998        3997
         4        3897        3898        3999        3998
         4        3898        3899        4000        3999
         4        3899        3900        4001        4000
         4        3900        3901        4002        4001
         4        3901        3902        4003        4002
         4        3902        3903        4004        4003
         4        3903        3904        4005        4004
         4        3904        3905        4006        4005
         4        3905        3906        4007        4006
         4        3906        3907        4008        4007
         4        3907        3908        4009        4008
         4        3908        3909        4010        4009
         4        3909        3910        4011        4010
         4        3910        3911        4012        4011
         4        3911        3912        4013        4012
         4        3912        3913        4014        4013
         4        3913        3914        4015        4014
         4        3914        3915        4016        4015
         4        3915        3916        4017        4016
         4        3916        3917        4018        4017
         4        3917        3918        4019        4018
         4        3918        3919        4020        4019
         4        3919        3920        4021        4020
         4        3920        3921        4022        4021
         4        3921        3922        4023        4022
         4        3922        3923        4024        4023
         4        3923        3924        4025        4024
         4        3924        3925        4026        4025
         4        3925        3926        4027        4026
         4        3926        3927        4028        4027
         4        3927        3928        4029        4028
         4        3928        3929        4030        4029
         4        3929        3930        4031        4030
         4        3930        3931        4032        4031
         4        3931        3932        4033        4032
         4        3932        3933        4034        4033
         4        3933        3934        4035        4034
         4        3934        3935        4036        4035
         4        3935        3936        4037        4036
         4        3936        3937        4038        4037
         4        3937        3938        4039        4038
         4        3939        3940        4041        4040
         4        3940        3941        4042        4041
         4        3941        3942        4043        4042
         4        3942        3943        4044        4043
         4        3943        3944        4045        4044
         4        3944        3945        4046        4045
         4        3945        3946        4047        4046
         4        3946        3947        4048        4047
         4        3947        3948        4049        4048
         4        3948        3949        4050        4049
         4        3949        3950        4051        4050
         4        3950        3951        4052        4051
         4        3951        3952        4053        4052
         4        3952        3953        4054        4053
         4        3953        3954        4055        4054
         4        3954        3955        4056        4055
         4        3955        3956        4057        4056
         4        3956        3957        4058        4057
         4        3957        3958        4059        4058
         4        3958        3959        4060        4059
         4        3959        3960        4061        4060
         4        3960        3961        4062        4061
         4        3961        3962        4063        4062
         4        3962        3963        4064        4063
         4        3963        3964        4065        4064
         4        3964        3965        4066        4065
         4        3965        3966        4067        4066
         4        3966        3967        4068        4067
         4        3967        3968        4069        4068
         4        3968        3969        4070        4069
         4        3969        3970        4071        4070
         4        3970        3971        4072        4071
         4        3971        3972        4073        4072
         4        3972        3973        4074        4073
         4        3973        3974        4075        4074
         4        3974        3975        4076        4075
         4        3975        3976        4077        4076
         4        3976        3977        4078        4077
         4        3977        3978        4079        4078
         4        3978        3979        4080        4079
         4        3979        3980        4081        4080
         4        3980        3981        4082        4081
         4        3981        3982        4083        4082
         4        3982        3983        4084        4083
         4        3983        3984        4085        4084
         4        3984        3985        4086        4085
         4        3985        3986        4087        4086
         4        3986        3987        4088        4087
         4        3987        3988        4089        4088
         4        3988        3989        4090        4089
         4        3989        3990        4091        4090
         4        3990        3991        4092        4091
         4        3991        3992        4093        4092
         4        3992        3993        4094        4093
         4        3993        3994        4095        4094
         4        3994        3995        4096        4095
         4        3995        3996        4097        4096
         4        3996        3997        4098        4097
         4        3997        3998        4099        4098
         4        3998        3999        4100        4099
         4        3999        4000        4101        4100
         4        4000        4001        4102        4101
         4        4001        4002        4103        4102
         4        4002        4003        4104        4103
         4        4003        4004        4105        4104
         4        4004        4005        4106        4105
         4        4005        4006        4107        4106
         4        4006        4007        4108        4107
         4        4007        4008        4109        4108
         4        4008        4009        4110        4109
         4        4009        4010        4111        4110
         4        4010        4011        4112        4111
         4        4011        4012        4113        4112
         4        4012        4013        4114        4113
         4        4013        4014        4115        4114
         4        4014        4015        4116        4115
         4        4015        4016        4117        4116
         4        4016        4017        4118        4117
         4        4017        4018        4119        4118
         4        4018        4019        4120        4119
         4        4019        4020        4121        4120
         4        4020        4021        4122        4121
         4        4021        4022        4123        4122
         4        4022        4023        4124        4123
         4        4023        4024        4125        4124
         4        4024        4025        4126        4125
         4        4025        4026        4127        4126
         4        4026        4027        4128        4127
         4        4027        4028        4129        4128
         4        4028        4029        4130        4129
         4        4029        4030        4131        4130
         4        4030        4031        4132        4131
         4        4031        4032        4133        4132
         4        4032        4033        4134        4133
         4        4033        4034        4135        4134
         4        4034        4035        4136        4135
         4        4035        4036        4137        4136
         4        4036        4037        4138        4137
         4        4037        4038        4139        4138
         4        4038        4039        4140        4139
         4        4040        4041        4142        4141
         4        4041        4042        4143        4142
         4        4042        4043        4144        4143
         4        4043        4044        4145        4144
         4        4044        4045        4146        4145
         4        4045        4046        4147        4146
         4        4046        4047        4148        4147
         4        4047        4048        4149        4148
         4        4048        4049        4150        4149
         4        4049        4050        4151        4150
         4        4050        4051        4152        4151
         4        4051        4052        4153        4152
         4        4052        4053        4154        4153
         4        4053        4054        4155        4154
         4        4054        4055        4156        4155
         4        4055        4056        4157        4156
         4        4056        4057        4158        4157
         4        4057        4058        4159        4158
         4        4058        4059        4160        4159
         4        4059        4060        4161        4160
         4        4060        4061        4162        4161
         4        4061        4062        4163        4162
         4        4062        4063        4164        4163
         4        4063        4064        4165        4164
         4        4064        4065        4166        4165
         4        4065        4066        4167        4166
         4        4066        4067        4168        4167
         4        4067        4068        4169        4168
         4        4068        4069        4170        4169
         4        4069        4070        4171        4170
         4        4070        4071        4172        4171
         4        4071        4072        4173        4172
         4        4072        4073        4174        4173
         4        4073        4074        4175        4174
         4        4074        4075        4176        4175
         4        4075        4076        4177        4176
         4        4076        4077        4178        4177
         4        4077        4078        4179        4178
         4        4078        4079        4180        4179
         4        4079        4080        4181        4180
         4        4080        4081        4182        4181
         4        4081        4082        4183        4182
         4        4082        4083        4184        4183
         4        4083        4084        4185        4184
         4        4084        4085        4186        4185
         4        4085        4086        4187        4186
         4        4086        4087        4188        4187
         4        4087        4088        4189        4188
         4        4088        4089        4190        4189
         4        4089        4090        4191        4190
         4        4090        4091        4192        4191
         4        4091        4092        4193        4192
         4        4092        4093        4194        4193
         4        4093        4094        4195        4194
         4        4094        4095        4196        4195
         4        4095        4096        4197        4196
         4        4096        4097        4198        4197
         4        4097        4098        4199        4198
         4        4098        4099        4200        4199
         4        4099        4100        4201        4200
         4        4100        4101        4202        4201
         4        4101        4102        4203        4202
         4        4102        4103        4204        4203
         4        4103        4104        4205        4204
         4        4104        4105        4206        4205
         4        4105        4106        4207        4206
         4        4106        4107        4208        4207
         4        4107        4108        4209        4208
         4        4108        4109        4210        4209
         4        4109        4110        4211        4210
         4        4110        4111        4212        4211
         4        4111        4112        4213        4212
         4        4112        4113        4214        4213
         4        4113        4114        4215        4214
         4        4114        4115        4216        4215
         4        4115        4116        4217        4216
         4        4116        4117        4218        4217
         4        4117        4118        4219        4218
         4        4118        4119        4220        4219
         4        4119        4120        4221        4220
         4        4120        4121        4222        4221
         4        4121        4122        4223        4222
         4        4122        4123        4224        4223
         4        4123        4124        4225        4224
         4        4124        4125        4226        4225
         4        4125        4126        4227        4226
         4        4126        4127        4228        4227
         4        4127        4128        4229        4228
         4        4128        4129        4230        4229
         4        4129        4130        4231        4230
         4        4130        4131        4232        4231
         4        4131        4132        4233        4232
         4        4132        4133        4234        4233
         4        4133        4134        4235        4234
         4        4134        4135        4236        4235
         4        4135        4136        4237        4236
         4        4136        4137        4238        4237
         4        4137        4138        4239        4238
         4        4138        4139        4240        4239
         4        4139        4140        4241        4240
         4        4141        4142        4243        4242
         4        4142        4143        4244        4243
         4        4143        4144        4245        4244
         4        4144        4145        4246        4245
         4        4145        4146        4247        4246
         4        4146        4147        4248        4247
         4        4147        4148        4249        4248
         4        4148        4149        4250        4249
         4        4149        4150        4251        4250
         4        4150        4151        4252        4251
         4        4151        4152        4253        4252
         4        4152        4153        4254        4253
         4        4153        4154        4255        4254
         4        4154        4155        4256        4255
         4        4155        4156        4257        4256
         4        4156        4157        4258        4257
         4        4157        4158        4259        4258
         4        4158        4159        4260        4259
         4        4159        4160        4261        4260
         4        4160        4161        4262        4261
         4        4161        4162        4263        4262
         4        4162        4163        4264        4263
         4        4163        4164        4265        4264
         4        4164        4165        4266        4265
         4        4165        4166        4267        4266
         4        4166        4167        4268        4267
         4        4167        4168        4269        4268
         4        4168        4169        4270        4269
         4        4169        4170        4271        4270
         4        4170        4171        4272        4271
         4        4171        4172        4273        4272
         4        4172        4173        4274        4273
         4        4173        4174        4275        4274
         4        4174        4175        4276        4275
         4        4175        4176        4277        4276
         4        4176        4177        4278        4277
         4        4177        4178        4279        4278
         4        4178        4179        4280        4279
         4        4179        4180        4281        4280
         4        4180        4181        4282        4281
         4        4181        4182        4283        4282
         4        4182        4183        4284        4283
         4        4183        4184        4285        4284
         4        4184        4185        4286        4285
         4        4185        4186        4287        4286
         4        4186        4187        4288        4287
         4        4187        4188        4289        4288
         4        4188        4189        4290        4289
         4        4189        4190        4291        4290
         4        4190        4191        4292        4291
         4        4191        4192        4293        4292
         4        4192        4193        4294        4293
         4        4193        4194        4295        4294
         4        4194        4195        4296        4295
         4        4195        4196        4297        4296
         4        4196        4197        4298        4297
         4        4197        4198        4299        4298
         4        4198        4199        4300        4299
         4        4199        4200        4301        4300
         4        4200        4201        4302        4301
         4        4201        4202        4303        4302
         4        4202        4203        4304        4303
         4        4203        4204        4305        4304
         4        4204        4205        4306        4305
         4        4205        4206        4307        4306
         4        4206        4207        4308        4307
         4        4207        4208        4309        4308
         4        4208        4209        4310        4309
         4        4209        4210        4311        4310
         4        4210        4211        4312        4311
         4        4211        4212        4313        4312
         4        4212        4213        4314        4313
         4        4213        4214        4315        4314
         4        4214        4215        4316        4315
         4        4215        4216        4317        4316
         4        4216        4217        4318        4317
         4        4217        4218        4319        4318
         4        4218        4219        4320        4319
         4        4219        4220        4321        4320
         4        4220        4221        4322        4321
         4        4221        4222        4323        4322
         4        4222        4223        4324        4323
         4        4223        4224        4325        4324
         4        4224        4225        4326        4325
         4        4225        4226        4327        4326
         4        4226        4227        4328        4327
         4        4227        4228        4329        4328
         4        4228        4229        4330        4329
         4        4229        4230        4331        4330
         4        4230        4231        4332        4331
         4        4231        4232        4333        4332
         4        4232        4233        4334        4333
         4        4233        4234        4335        4334
         4        4234        4235        4336        4335
         4        4235        4236        4337        4336
         4        4236        4237        4338        4337
         4        4237        4238        4339        4338
         4        4238        4239        4340        4339
         4        4239        4240        4341        4340
         4        4240        4241        4342        4341
         4        4242        4243        4344        4343
         4        4243        4244        4345        4344
         4        4244        4245        4346        4345
         4        4245        4246        4347        4346
         4        4246        4247        4348        4347
         4        4247        4248        4349        4348
         4        4248        4249        4350        4349
         4        4249        4250        4351        4350
         4        4250        4251        4352        4351
         4        4251        4252        4353        4352
         4        4252        4253        4354        4353
         4        4253        4254        4355        4354
         4        4254        4255        4356        4355
         4        4255        4256        4357        4356
         4        4256        4257        4358        4357
         4        4257        4258        4359        4358
         4        4258        4259        4360        4359
         4        4259        4260        4361        4360
         4        4260        4261        4362        4361
         4        4261        4262        4363        4362
         4        4262        4263        4364        4363
         4        4263        4264        4365        4364
         4        4264        4265        4366        4365
         4        4265        4266        4367        4366
         4        4266        4267        4368        4367
         4        4267        4268        4369        4368
         4        4268        4269        4370        4369
         4        4269        4270        4371        4370
         4        4270        4271        4372        4371
         4        4271        4272        4373        4372
         4        4272        4273        4374        4373
         4        4273        4274        4375        4374
         4        4274        4275        4376        4375
         4        4275        4276        4377        4376
         4        4276        4277        4378        4377
         4        4277        4278        4379        4378
         4        4278        4279        4380        4379
         4        4279        4280        4381        4380
         4        4280        4281        4382        4381
         4        4281        4282        4383        4382
         4        4282        4283        4384        4383
         4        4283        4284        4385        4384
         4        4284        4285        4386        4385
         4        4285        4286        4387        4386
         4        4286        4287        4388        4387
         4        4287        4288        4389        4388
         4        4288        4289        4390        4389
         4        4289        4290        4391        4390
         4        4290        4291        4392        4391
         4        4291        4292        4393        4392
         4        4292        4293        4394        4393
         4        4293        4294        4395        4394
         4        4294        4295        4396        4395
         4        4295        4296        4397        4396
         4        4296        4297        4398        4397
         4        4297        4298        4399        4398
         4        4298        4299        4400        4399
         4        4299        4300        4401        4400
         4        4300        4301        4402        4401
         4        4301        4302        4403        4402
         4        4302        4303        4404        4403
         4        4303        4304        4405        4404
         4        4304        4305        4406        4405
         4        4305        4306        4407        4406
         4        4306        4307        4408        4407
         4        4307        4308        4409        4408
         4        4308        4309        4410        4409
         4        4309        4310        4411        4410
         4        4310        4311        4412        4411
         4        4311        4312        4413        4412
         4        4312        4313        4414        4413
         4        4313        4314        4415        4414
         4        4314        4315        4416        4415
         4        4315        4316        4417        4416
         4        4316        4317        4418        4417
         4        4317        4318        4419        4418
         4        4318        4319        4420        4419
         4        4319        4320        4421        4420
         4        4320        4321        4422        4421
         4        4321        4322        4423        4422
         4        4322        4323        4424        4423
         4        4323        4324        4425        4424
         4        4324        4325        4426        4425
         4        4325        4326        4427        4426
         4        4326        4327        4428        4427
         4        4327        4328        4429        4428
         4        4328        4329        4430        4429
         4        4329        4330        4431        4430
         4        4330        4331        4432        4431
         4        4331        4332        4433        4432
         4        4332        4333        4434        4433
         4        4333        4334        4435        4434
         4        4334        4335        4436        4435
         4        4335        4336        4437        4436
         4        4336        4337        4438        4437
         4        4337        4338        4439        4438
         4        4338        4339        4440        4439
         4        4339        4340        4441        4440
         4        4340        4341        4442        4441
         4        4341        4342        4443        4442
         4        4343        4344        4445        4444
         4        4344        4345        4446        4445
         4        4345        4346        4447        4446
         4        4346        4347        4448        4447
         4        4347        4348        4449        4448
         4        4348        4349        4450        4449
         4        4349        4350        4451        4450
         4        4350        4351        4452        4451
         4        4351        4352        4453        4452
         4        4352        4353        4454        4453
         4        4353        4354        4455        4454
         4        4354        4355        4456        4455
         4        4355        4356        4457        4456
         4        4356        4357        4458        4457
         4        4357        4358        4459        4458
         4        4358        4359        4460        4459
         4        4359        4360        4461        4460
         4        4360        4361        4462        4461
         4        4361        4362        4463        4462
         4        4362        4363        4464        4463
         4        4363        4364        4465        4464
         4        4364        4365        4466        4465
         4        4365        4366        4467        4466
         4        4366        4367        4468        4467
         4        4367        4368        4469        4468
         4        4368        4369        4470        4469
         4        4369        4370        4471        4470
         4        4370        4371        4472        4471
         4        4371        4372        4473        4472
         4        4372        4373        4474        4473
         4        4373        4374        4475        4474
         4        4374        4375        4476        4475
         4        4375        4376        4477        4476
         4        4376        4377        4478        4477
         4        4377        4378        4479        4478
         4        4378        4379        4480        4479
         4        4379        4380        4481        4480
         4        4380        4381        4482        4481
         4        4381        4382        4483        4482
         4        4382        4383        4484        4483
         4        4383        4384        4485        4484
         4        4384        4385        4486        4485
         4        4385        4386        4487        4486
         4        4386        4387        4488        4487
         4        4387        4388        4489        4488
         4        4388        4389        4490        4489
         4        4389        4390        4491        4490
         4        4390        4391        4492        4491
         4        4391        4392        4493        4492
         4        4392        4393        4494        4493
         4        4393        4394        4495        4494
         4        4394        4395        4496        4495
         4        4395        4396        4497        4496
         4        4396        4397        4498        4497
         4        4397        4398        4499        4498
         4        4398        4399        4500        4499
         4        4399        4400        4501        4500
         4        4400        4401        4502        4501
         4        4401        4402        4503        4502
         4        4402        4403        4504        4503
         4        4403        4404        4505        4504
         4        4404        4405        4506        4505
         4        4405        4406        4507        4506
         4        4406        4407        4508        4507
         4        4407        4408        4509        4508
         4        4408        4409        4510        4509
         4        4409        4410        4511        4510
         4        4410        4411        4512        4511
         4        4411        4412        4513        4512
         4        4412        4413        4514        4513
         4        4413        4414        4515        4514
         4        4414        4415        4516        4515
         4        4415        4416        4517        4516
         4        4416        4417        4518        4517
         4        4417        4418        4519        4518
         4        4418        4419        4520        4519
         4        4419        4420        4521        4520
         4        4420        4421        4522        4521
         4        4421        4422        4523        4522
         4        4422        4423        4524        4523
         4        4423        4424        4525        4524
         4        4424        4425        4526        4525
         4        4425        4426        4527        4526
         4        4426        4427        4528        4527
         4        4427        4428        4529        4528
         4        4428        4429        4530        4529
         4        4429        4430        4531        4530
         4        4430        4431        4532        4531
         4        4431        4432        4533        4532
         4        4432        4433        4534        4533
         4        4433        4434        4535        4534
         4        4434        4435        4536        4535
         4        4435        4436        4537        4536
         4        4436        4437        4538        4537
         4        4437        4438        4539        4538
         4        4438        4439        4540        4539
         4        4439        4440        4541        4540
         4        4440        4441        4542        4541
         4        4441        4442        4543        4542
         4        4442        4443        4544        4543
         4        4444        4445        4546        4545
         4        4445        4446        4547        4546
         4        4446        4447        4548        4547
         4        4447        4448        4549        4548
         4        4448        4449        4550        4549
         4        4449        4450        4551        4550
         4        4450        4451        4552        4551
         4        4451        4452        4553        4552
         4        4452        4453        4554        4553
         4        4453        4454        4555        4554
         4        4454        4455        4556        4555
         4        4455        4456        4557        4556
         4        4456        4457        4558        4557
         4        4457        4458        4559        4558
         4        4458        4459        4560        4559
         4        4459        4460        4561        4560
         4        4460        4461        4562        4561
         4        4461        4462        4563        4562
         4        4462        4463        4564        4563
         4        4463        4464        4565        4564
         4        4464        4465        4566        4565
         4        4465        4466        4567        4566
         4        4466        4467        4568        4567
         4        4467        4468        4569        4568
         4        4468        4469        4570        4569
         4        4469        4470        4571        4570
         4        4470        4471        4572        4571
         4        4471        4472        4573        4572
         4        4472        4473        4574        4573
         4        4473        4474        4575        4574
         4        4474        4475        4576        4575
         4        4475        4476        4577        4576
         4        4476        4477        4578        4577
         4        4477        4478        4579        4578
         4        4478        4479        4580        4579
         4        4479        4480        4581        4580
         4        4480        4481        4582        4581
         4        4481        4482        4583        4582
         4        4482        4483        4584        4583
         4        4483        4484        4585        4584
         4        4484        4485        4586        4585
         4        4485        4486        4587        4586
         4        4486        4487        4588        4587
         4        4487        4488        4589        4588
         4        4488        4489        4590        4589
         4        4489        4490        4591        4590
         4        4490        4491        4592        4591
         4        4491        4492        4593        4592
         4        4492        4493        4594        4593
         4        4493        4494        4595        4594
         4        4494        4495        4596        4595
         4        4495        4496        4597        4596
         4        4496        4497        4598        4597
         4        4497        4498        4599        4598
         4        4498        4499        4600        4599
         4        4499        4500        4601        4600
         4        4500        4501        4602        4601
         4        4501        4502        4603        4602
         4        4502        4503        4604        4603
         4        4503        4504        4605        4604
         4        4504        4505        4606        4605
         4        4505        4506        4607        4606
         4        4506        4507        4608        4607
         4        4507        4508        4609        4608
         4        4508        4509        4610        4609
         4        4509        4510        4611        4610
         4        4510        4511        4612        4611
         4        4511        4512        4613        4612
         4        4512        4513        4614        4613
         4        4513        4514        4615        4614
         4        4514        4515        4616        4615
         4        4515        4516        4617        4616
         4        4516        4517        4618        4617
         4        4517        4518        4619        4618
         4        4518        4519        4620        4619
         4        4519        4520        4621        4620
         4        4520        4521        4622        4621
         4        4521        4522        4623        4622
         4        4522        4523        4624        4623
         4        4523        4524        4625        4624
         4        4524        4525        4626        4625
         4        4525        4526        4627        4626
         4        4526        4527        4628        4627
         4        4527        4528        4629        4628
         4        4528        4529        4630        4629
         4        4529        4530        4631        4630
         4        4530        4531        4632        4631
         4        4531        4532        4633        4632
         4        4532        4533        4634        4633
         4        4533        4534        4635        4634
         4        4534        4535        4636        4635
         4        4535        4536        4637        4636
         4        4536        4537        4638        4637
         4        4537        4538        4639        4638
         4        4538        4539        4640        4639
         4        4539        4540        4641        4640
         4        4540        4541        4642        4641
         4        4541        4542        4643        4642
         4        4542        4543        4644        4643
         4        4543        4544        4645        4644
         4        4545        4546        4647        4646
         4        4546        4547        4648        4647
         4        4547        4548        4649        4648
         4        4548        4549        4650        4649
         4        4549        4550        4651        4650
         4        4550        4551        4652        4651
         4        4551        4552        4653        4652
         4        4552        4553        4654        4653
         4        4553        4554        4655        4654
         4        4554        4555        4656        4655
         4        4555        4556        4657        4656
         4        4556        4557        4658        4657
         4        4557        4558        4659        4658
         4        4558        4559        4660        4659
         4        4559        4560        4661        4660
         4        4560        4561        4662        4661
         4        4561        4562        4663        4662
         4        4562        4563        4664        4663
         4        4563        4564        4665        4664
         4        4564        4565        4666        4665
         4        4565        4566        4667        4666
         4        4566        4567        4668        4667
         4        4567        4568        4669        4668
         4        4568        4569        4670        4669
         4        4569        4570        4671        4670
         4        4570        4571        4672        4671
         4        4571        4572        4673        4672
         4        4572        4573        4674        4673
         4        4573        4574        4675        4674
         4        4574        4575        4676        4675
         4        4575        4576        4677        4676
         4        4576        4577        4678        4677
         4        4577        4578        4679        4678
         4        4578        4579        4680        4679
         4        4579        4580        4681        4680
         4        4580        4581        4682        4681
         4        4581        4582        4683        4682
         4        4582        4583        4684        4683
         4        4583        4584        4685        4684
         4        4584        4585        4686        4685
         4        4585        4586        4687        4686
         4        4586        4587        4688        4687
         4        4587        4588        4689        4688
         4        4588        4589        4690        4689
         4        4589        4590        4691        4690
         4        4590        4591        4692        4691
         4        4591        4592        4693        4692
         4        4592        4593        4694        4693
         4        4593        4594        4695        4694
         4        4594        4595        4696        4695
         4        4595        4596        4697        4696
         4        4596        4597        4698        4697
         4        4597        4598        4699        4698
         4        4598        4599        4700        4699
         4        4599        4600        4701        4700
         4        4600        4601        4702        4701
         4        4601        4602        4703        4702
         4        4602        4603        4704        4703
         4        4603        4604        4705        4704
         4        4604        4605        4706        4705
         4        4605        4606        4707        4706
         4        4606        4607        4708        4707
         4        4607        4608        4709        4708
         4        4608        4609        4710        4709
         4        4609        4610        4711        4710
         4        4610        4611        4712        4711
         4        4611        4612        4713        4712
         4        4612        4613        4714        4713
         4        4613        4614        4715        4714
         4        4614        4615        4716        4715
         4        4615        4616        4717        4716
         4        4616        4617        4718        4717
         4        4617        4618        4719        4718
         4        4618        4619        4720        4719
         4        4619        4620        4721        4720
         4        4620        4621        4722        4721
         4        4621        4622        4723        4722
         4        4622        4623        4724        4723
         4        4623        4624        4725        4724
         4        4624        4625        4726        4725
         4        4625        4626        4727        4726
         4        4626        4627        4728        4727
         4        4627        4628        4729        4728
         4        4628        4629        4730        4729
         4        4629        4630        4731        4730
         4        4630        4631        4732        4731
         4        4631        4632        4733        4732
         4        4632        4633        4734        4733
         4        4633        4634        4735        4734
         4        4634        4635        4736        4735
         4        4635        4636        4737        4736
         4        4636        4637        4738        4737
         4        4637        4638        4739        4738
         4        4638        4639        4740        4739
         4        4639        4640        4741        4740
         4        4640        4641        4742        4741
         4        4641        4642        4743        4742
         4        4642        4643        4744        4743
         4        4643        4644        4745        4744
         4        4644        4645        4746        4745
         4        4646        4647        4748        4747
         4        4647        4648        4749        4748
         4        4648        4649        4750        4749
         4        4649        4650        4751        4750
         4        4650        4651        4752        4751
         4        4651        4652        4753        4752
         4        4652        4653        4754        4753
         4        4653        4654        4755        4754
         4        4654        4655        4756        4755
         4        4655        4656        4757        4756
         4        4656        4657        4758        4757
         4        4657        4658        4759        4758
         4        4658        4659        4760        4759
         4        4659        4660        4761        4760
         4        4660        4661        4762        4761
         4        4661        4662        4763        4762
         4        4662        4663        4764        4763
         4        4663        4664        4765        4764
         4        4664        4665        4766        4765
         4        4665        4666        4767        4766
         4        4666        4667        4768        4767
         4        4667        4668        4769        4768
         4        4668        4669        4770        4769
         4        4669        4670        4771        4770
         4        4670        4671        4772        4771
         4        4671        4672        4773        4772
         4        4672        4673        4774        4773
         4        4673        4674        4775        4774
         4        4674        4675        4776        4775
         4        4675        4676        4777        4776
         4        4676        4677        4778        4777
         4        4677        4678        4779        4778
         4        4678        4679        4780        4779
         4        4679        4680        4781        4780
         4        4680        4681        4782        4781
         4        4681        4682        4783        4782
         4        4682        4683        4784        4783
         4        4683        4684        4785        4784
         4        4684        4685        4786        4785
         4        4685        4686        4787        4786
         4        4686        4687        4788        4787
         4        4687        4688        4789        4788
         4        4688        4689        4790        4789
         4        4689        4690        4791        4790
         4        4690        4691        4792        4791
         4        4691        4692        4793        4792
         4        4692        4693        4794        4793
         4        4693        4694        4795        4794
         4        4694        4695        4796        4795
         4        4695        4696        4797        4796
         4        4696        4697        4798        4797
         4        4697        4698        4799        4798
         4        4698        4699        4800        4799
         4        4699        4700        4801        4800
         4        4700        4701        4802        4801
         4        4701        4702        4803        4802
         4        4702        4703        4804        4803
         4        4703        4704        4805        4804
         4        4704        4705        4806        4805
         4        4705        4706        4807        4806
         4        4706        4707        4808        4807
         4        4707        4708        4809        4808
         4        4708        4709        4810        4809
         4        4709        4710        4811        4810
         4        4710        4711        4812        4811
         4        4711        4712        4813        4812
         4        4712        4713        4814        4813
         4        4713        4714        4815        4814
         4        4714        4715        4816        4815
         4        4715        4716        4817        4816
         4        4716        4717        4818        4817
         4        4717        4718        4819        4818
         4        4718        4719        4820        4819
         4        4719        4720        4821        4820
         4        4720        4721        4822        4821
         4        4721        4722        4823        4822
         4        4722        4723        4824        4823
         4        4723        4724        4825        4824
         4        4724        4725        4826        4825
         4        4725        4726        4827        4826
         4        4726        4727        4828        4827
         4        4727        4728        4829        4828
         4        4728        4729        4830        4829
         4        4729        4730        4831        4830
         4        4730        4731        4832        4831
         4        4731        4732        4833        4832
         4        4732        4733        4834        4833
         4        4733        4734        4835        4834
         4        4734        4735        4836        4835
         4        4735        4736        4837        4836
         4        4736        4737        4838        4837
         4        4737        4738        4839        4838
         4        4738        4739        4840        4839
         4        4739        4740        4841        4840
         4        4740        4741        4842        4841
         4        4741        4742        4843        4842
         4        4742        4743        4844        4843
         4        4743        4744        4845        4844
         4        4744        4745        4846        4845
         4        4745        4746        4847        4846
         4        4747        4748        4849        4848
         4        4748        4749        4850        4849
         4        4749        4750        4851        4850
         4        4750        4751        4852        4851
         4        4751        4752        4853        4852
         4        4752        4753        4854        4853
         4        4753        4754        4855        4854
         4        4754        4755        4856        4855
         4        4755        4756        4857        4856
         4        4756        4757        4858        4857
         4        4757        4758        4859        4858
         4        4758        4759        4860        4859
         4        4759        4760        4861        4860
         4        4760        4761        4862        4861
         4        4761        4762        4863        4862
         4        4762        4763        4864        4863
         4        4763        4764        4865        4864
         4        4764        4765        4866        4865
         4        4765        4766        4867        4866
         4        4766        4767        4868        4867
         4        4767        4768        4869        4868
         4        4768        4769        4870        4869
         4        4769        4770        4871        4870
         4        4770        4771        4872        4871
         4        4771        4772        4873        4872
         4        4772        4773        4874        4873
         4        4773        4774        4875        4874
         4        4774        4775        4876        4875
         4        4775        4776        4877        4876
         4        4776        4777        4878        4877
         4        4777        4778        4879        4878
         4        4778        4779        4880        4879
         4        4779        4780        4881        4880
         4        4780        4781        4882        4881
         4        4781        4782        4883        4882
         4        4782        4783        4884        4883
         4        4783        4784        4885        4884
         4        4784        4785        4886        4885
         4        4785        4786        4887        4886
         4        4786        4787        4888        4887
         4        4787        4788        4889        4888
         4        4788        4789        4890        4889
         4        4789        4790        4891        4890
         4        4790        4791        4892        4891
         4        4791        4792        4893        4892
         4        4792        4793        4894        4893
         4        4793        4794        4895        4894
         4        4794        4795        4896        4895
         4        4795        4796        4897        4896
         4        4796        4797        4898        4897
         4        4797        4798        4899        4898
         4        4798        4799        4900        4899
         4        4799        4800        4901        4900
         4        4800        4801        4902        4901
         4        4801        4802        4903        4902
         4        4802        4803        4904        4903
         4        4803        4804        4905        4904
         4        4804        4805        4906        4905
         4        4805        4806        4907        4906
         4        4806        4807        4908        4907
         4        4807        4808        4909        4908
         4        4808        4809        4910        4909
         4        4809        4810        4911        4910
         4        4810        4811        4912        4911
         4        4811        4812        4913        4912
         4        4812        4813        4914        4913
         4        4813        4814        4915        4914
         4        4814        4815        4916        4915
         4        4815        4816        4917        4916
         4        4816        4817        4918        4917
         4        4817        4818        4919        4918
         4        4818        4819        4920        4919
         4        4819        4820        4921        4920
         4        4820        4821        4922        4921
         4        4821        4822        4923        4922
         4        4822        4823        4924        4923
         4        4823        4824        4925        4924
         4        4824        4825        4926        4925
         4        4825        4826        4927        4926
         4        4826        4827        4928        4927
         4        4827        4828        4929        4928
         4        4828        4829        4930        4929
         4        4829        4830        4931        4930
         4        4830        4831        4932        4931
         4        4831        4832        4933        4932
         4        4832        4833        4934        4933
         4        4833        4834        4935        4934
         4        4834        4835        4936        4935
         4        4835        4836        4937        4936
         4        4836        4837        4938        4937
         4        4837        4838        4939        4938
         4        4838        4839        4940        4939
         4        4839        4840        4941        4940
         4        4840        4841        4942        4941
         4        4841        4842        4943        4942
         4        4842        4843        4944        4943
         4        4843        4844        4945        4944
         4        4844        4845        4946        4945
         4        4845        4846        4947        4946
         4        4846        4847        4948        4947
         4        4848        4849        4950        4949
         4        4849        4850        4951        4950
         4        4850        4851        4952        4951
         4        4851        4852        4953        4952
         4        4852        4853        4954        4953
         4        4853        4854        4955        4954
         4        4854        4855        4956        4955
         4        4855        4856        4957        4956
         4        4856        4857        4958        4957
         4        4857        4858        4959        4958
         4        4858        4859        4960        4959
         4        4859        4860        4961        4960
         4        4860        4861        4962        4961
         4        4861        4862        4963        4962
         4        4862        4863        4964        4963
         4        4863        4864        4965        4964
         4        4864        4865        4966        4965
         4        4865        4866        4967        4966
         4        4866        4867        4968        4967
         4        4867        4868        4969        4968
         4        4868        4869        4970        4969
         4        4869        4870        4971        4970
         4        4870        4871        4972        4971
         4        4871        4872        4973        4972
         4        4872        4873        4974        4973
         4        4873        4874        4975        4974
         4        4874        4875        4976        4975
         4        4875        4876        4977        4976
         4        4876        4877        4978        4977
         4        4877        4878        4979        4978
         4        4878        4879        4980        4979
         4        4879        4880        4981        4980
         4        4880        4881        4982        4981
         4        4881        4882        4983        4982
         4        4882        4883        4984        4983
         4        4883        4884        4985        4984
         4        4884        4885        4986        4985
         4        4885        4886        4987        4986
         4        4886        4887        4988        4987
         4        4887        4888        4989        4988
         4        4888        4889        4990        4989
         4        4889        4890        4991        4990
         4        4890        4891        4992        4991
         4        4891        4892        4993        4992
         4        4892        4893        4994        4993
         4        4893        4894        4995        4994
         4        4894        4895        4996        4995
         4        4895        4896        4997        4996
         4        4896        4897        4998        4997
         4        4897        4898        4999        4998
         4        4898        4899        5000        4999
         4        4899        4900        5001        5000
         4        4900        4901        5002        5001
         4        4901        4902        5003        5002
         4        4902        4903        5004        5003
         4        4903        4904        5005        5004
         4        4904        4905        5006        5005
         4        4905        4906        5007        5006
         4        4906        4907        5008        5007
         4        4907        4908        5009        5008
         4        4908        4909        5010        5009
         4        4909        4910        5011        5010
         4        4910        4911        5012        5011
         4        4911        4912        5013        5012
         4        4912        4913        5014        5013
         4        4913        4914        5015        5014
         4        4914        4915        5016        5015
         4        4915        4916        5017        5016
         4        4916        4917        5018        5017
         4        4917        4918        5019        5018
         4        4918        4919        5020        5019
         4        4919        4920        5021        5020
         4        4920        4921        5022        5021
         4        4921        4922        5023        5022
         4        4922        4923        5024        5023
         4        4923        4924        5025        5024
         4        4924        4925        5026        5025
         4        4925        4926        5027        5026
         4        4926        4927        5028        5027
         4        4927        4928        5029        5028
         4        4928        4929        5030        5029
         4        4929        4930        5031        5030
         4        4930        4931        5032        5031
         4        4931        4932        5033        5032
         4        4932        4933        5034        5033
         4        4933        4934        5035        5034
         4        4934        4935        5036        5035
         4        4935        4936        5037        5036
         4        4936        4937        5038        5037
         4        4937        4938        5039        5038
         4        4938        4939        5040        5039
         4        4939        4940        5041        5040
         4        4940        4941        5042        5041
         4        4941        4942        5043        5042
         4        4942        4943        5044        5043
         4        4943        4944        5045        5044
         4        4944        4945        5046        5045
         4        4945        4946        5047        5046
         4        4946        4947        5048        5047
         4        4947        4948        5049        5048
         4        4949        4950        5051        5050
         4        4950        4951        5052        5051
         4        4951        4952        5053        5052
         4        4952        4953        5054        5053
         4        4953        4954        5055        5054
         4        4954        4955        5056        5055
         4        4955        4956        5057        5056
         4        4956        4957        5058        5057
         4        4957        4958        5059        5058
         4        4958        4959        5060        5059
         4        4959        4960        5061        5060
         4        4960        4961        5062        5061
         4        4961        4962        5063        5062
         4        4962        4963        5064        5063
         4        4963        4964        5065        5064
         4        4964        4965        5066        5065
         4        4965        4966        5067        5066
         4        4966        4967        5068        5067
         4        4967        4968        5069        5068
         4        4968        4969        5070        5069
         4        4969        4970        5071        5070
         4        4970        4971        5072        5071
         4        4971        4972        5073        5072
         4        4972        4973        5074        5073
         4        4973        4974        5075        5074
         4        4974        4975        5076        5075
         4        4975        4976        5077        5076
         4        4976        4977        5078        5077
         4        4977        4978        5079        5078
         4        4978        4979        5080        5079
         4        4979        4980        5081        5080
         4        4980        4981        5082        5081
         4        4981        4982        5083        5082
         4        4982        4983        5084        5083
         4        4983        4984        5085        5084
         4        4984        4985        5086        5085
         4        4985        4986        5087        5086
         4        4986        4987        5088        5087
         4        4987        4988        5089        5088
         4        4988        4989        5090        5089
         4        4989        4990        5091        5090
         4        4990        4991        5092        5091
         4        4991        4992        5093        5092
         4        4992        4993        5094        5093
         4        4993        4994        5095        5094
         4        4994        4995        5096        5095
         4        4995        4996        5097        5096
         4        4996        4997        5098        5097
         4        4997        4998        5099        5098
         4        4998        4999        5100        5099
         4        4999        5000        5101        5100
         4        5000        5001        5102        5101
         4        5001        5002        5103        5102
         4        5002        5003        5104        5103
         4        5003        5004        5105        5104
         4        5004        5005        5106        5105
         4        5005        5006        5107        5106
         4        5006        5007        5108        5107
         4        5007        5008        5109        5108
         4        5008        5009        5110        5109
         4        5009        5010        5111        5110
         4        5010        5011        5112        5111
         4        5011        5012        5113        5112
         4        5012        5013        5114        5113
         4        5013        5014        5115        5114
         4        5014        5015        5116        5115
         4        5015        5016        5117        5116
         4        5016        5017        5118        5117
         4        5017        5018        5119        5118
         4        5018        5019        5120        5119
         4        5019        5020        5121        5120
         4        5020        5021        5122        5121
         4        5021        5022        5123        5122
         4        5022        5023        5124        5123
         4        5023        5024        5125        5124
         4        5024        5025        5126        5125
         4        5025        5026        5127        5126
         4        5026        5027        5128        5127
         4        5027        5028        5129        5128
         4        5028        5029        5130        5129
         4        5029        5030        5131        5130
         4        5030        5031        5132        5131
         4        5031        5032        5133        5132
         4        5032        5033        5134        5133
         4        5033        5034        5135        5134
         4        5034        5035        5136        5135
         4        5035        5036        5137        5136
         4        5036        5037        5138        5137
         4        5037        5038        5139        5138
         4        5038        5039        5140        5139
         4        5039        5040        5141        5140
         4        5040        5041        5142        5141
         4        5041        5042        5143        5142
         4        5042        5043        5144        5143
         4        5043        5044        5145        5144
         4        5044        5045        5146        5145
         4        5045        5046        5147        5146
         4        5046        5047        5148        5147
         4        5047        5048        5149        5148
         4        5048        5049        5150        5149
CELL_TYPES       5000
9
9
9
9
9
9
9
9
9
9
9
9
9
9
9
9
9
9
9
9
9
9
9
9
9
9
9
9
9
9
9
9
9
9
9
9
9
9
9
9
9
9
9
9
9
9
9
9
9
9
9
9
9
9
9
9
9
9
9
9
9
9
9
9
9
9
9
9
9
9
9
9
9
9
9
9
9
9
9
9
9
9
9
9
9
9
9
9
9
9
9
9
9
9
9
9
9
9
9
9
9
9
9
9
9
9
9
9
9
9
9
9
9
9
9
9
9
9
9
9
9
9
9
9
9
9
9
9
9
9
9
9
9
9
9
9
9
9
9
9
9
9
9
9
9
9
9
9
9
9
9
9
9
9
9
9
9
9
9
9
9
9
9
9
9
9
9
9
9
9
9
9
9
9
9
9
9
9
9
9
9
9
9
9
9
9
9
9
9
9
9
9
9
9
9
9
9
9
9
9
9
9
9
9
9
9
9
9
9
9
9
9
9
9
9
9
9
9
9
9
9
9
9
9
9
9
9
9
9
9
9
9
9
9
9
9
9
9
9
9
9
9
9
9
9
9
9
9
9
9
9
9
9
9
9
9
9
9
9
9
9
9
9
9
9
9
9
9
9
9
9
9
9
9
9
9
9
9
9
9
9
9
9
9
9
9
9
9
9
9
9
9
9
9
9
9
9
9
9
9
9
9
9
9
9
9
9
9
9
9
9
9
9
9
9
9
9
9
9
9
9
9
9
9
9
9
9
9
9
9
9
9
9
9
9
9
9
9
9
9
9
9
9
9
9
9
9
9
9
9
9
9
9
9
9
9
9
9
9
9
9
9
9
9
9
9
9
9
9
9
9
9
9
9
9
9
9
9
9
9
9
9
9
9
9
9
9
9
9
9
9
9
9
9
9
9
9
9
9
9
9
9
9
9
9
9
9
9
9
9
9
9
9
9
9
9
9
9
9
9
9
9
9
9
9
9
9
9
9
9
9
9
9
9
9
9
9
9
9
9
9
9
9
9
9
9
9
9
9
9
9
9
9
9
9
9
9
9
9
9
9
9
9
9
9
9
9
9
9
9
9
9
9
9
9
9
9
9
9
9
9
9
9
9
9
9
9
9
9
9
9
9
9
9
9
9
9
9
9
9
9
9
9
9
9
9
9
9
9
9
9
9
9
9
9
9
9
9
9
9
9
9
9
9
9
9
9
9
9
9
9
9
9
9
9
9
9
9
9
9
9
9
9
9
9
9
9
9
9
9
9
9
9
9
9
9
9
9
9
9
9
9
9
9
9
9
9
9
9
9
9
9
9
9
9
9
9
9
9
9
9
9
9
9
9
9
9
9
9
9
9
9
9
9
9
9
9
9
9
9
9
9
9
9
9
9
9
9
9
9
9
9
9
9
9
9
9
9
9
9
9
9
9
9
9
9
9
9
9
9
9
9
9
9
9
9
9
9
9
9
9
9
9
9
9
9
9
9
9
9
9
9
9
9
9
9
9
9
9
9
9
9
9
9
9
9
9
9
9
9
9
9
9
9
9
9
9
9
9
9
9
9
9
9
9
9
9
9
9
9
9
9
9
9
9
9
9
9
9
9
9
9
9
9
9
9
9
9
9
9
9
9
9
9
9
9
9
9
9
9
9
9
9
9
9
9
9
9
9
9
9
9
9
9
9
9
9
9
9
9
9
9
9
9
9
9
9
9
9
9
9
9
9
9
9
9
9
9
9
9
9
9
9
9
9
9
9
9
9
9
9
9
9
9
9
9
9
9
9
9
9
9
9
9
9
9
9
9
9
9
9
9
9
9
9
9
9
9
9
9
9
9
9
9
9
9
9
9
9
9
9
9
9
9
9
9
9
9
9
9
9
9
9
9
9
9
9
9
9
9
9
9
9
9
9
9
9
9
9
9
9
9
9
9
9
9
9
9
9
9
9
9
9
9
9
9
9
9
9
9
9
9
9
9
9
9
9
9
9
9
9
9
9
9
9
9
9
9
9
9
9
9
9
9
9
9
9
9
9
9
9
9
9
9
9
9
9
9
9
9
9
9
9
9
9
9
9
9
9
9
9
9
9
9
9
9
9
9
9
9
9
9
9
9
9
9
9
9
9
9
9
9
9
9
9
9
9
9
9
9
9
9
9
9
9
9
9
9
9
9
9
9
9
9
9
9
9
9
9
9
9
9
9
9
9
9
9
9
9
9
9
9
9
9
9
9
9
9
9
9
9
9
9
9
9
9
9
9
9
9
9
9
9
9
9
9
9
9
9
9
9
9
9
9
9
9
9
9
9
9
9
9
9
9
9
9
9
9
9
9
9
9
9
9
9
9
9
9
9
9
9
9
9
9
9
9
9
9
9
9
9
9
9
9
9
9
9
9
9
9
9
9
9
9
9
9
9
9
9
9
9
9
9
9
9
9
9
9
9
9
9
9
9
9
9
9
9
9
9
9
9
9
9
9
9
9
9
9
9
9
9
9
9
9
9
9
9
9
9
9
9
9
9
9
9
9
9
9
9
9
9
9
9
9
9
9
9
9
9
9
9
9
9
9
9
9
9
9
9
9
9
9
9
9
9
9
9
9
9
9
9
9
9
9
9
9
9
9
9
9
9
9
9
9
9
9
9
9
9
9
9
9
9
9
9
9
9
9
9
9
9
9
9
9
9
9
9
9
9
9
9
9
9
9
9
9
9
9
9
9
9
9
9
9
9
9
9
9
9
9
9
9
9
9
9
9
9
9
9
9
9
9
9
9
9
9
9
9
9
9
9
9
9
9
9
9
9
9
9
9
9
9
9
9
9
9
9
9
9
9
9
9
9
9
9
9
9
9
9
9
9
9
9
9
9
9
9
9
9
9
9
9
9
9
9
9
9
9
9
9
9
9
9
9
9
9
9
9
9
9
9
9
9
9
9
9
9
9
9
9
9
9
9
9
9
9
9
9
9
9
9
9
9
9
9
9
9
9
9
9
9
9
9
9
9
9
9
9
9
9
9
9
9
9
9
9
9
9
9
9
9
9
9
9
9
9
9
9
9
9
9
9
9
9
9
9
9
9
9
9
9
9
9
9
9
9
9
9
9
9
9
9
9
9
9
9
9
9
9
9
9
9
9
9
9
9
9
9
9
9
9
9
9
9
9
9
9
9
9
9
9
9
9
9
9
9
9
9
9
9
9
9
9
9
9
9
9
9
9
9
9
9
9
9
9
9
9
9
9
9
9
9
9
9
9
9
9
9
9
9
9
9
9
9
9
9
9
9
9
9
9
9
9
9
9
9
9
9
9
9
9
9
9
9
9
9
9
9
9
9
9
9
9
9
9
9
9
9
9
9
9
9
9
9
9
9
9
9
9
9
9
9
9
9
9
9
9
9
9
9
9
9
9
9
9
9
9
9
9
9
9
9
9
9
9
9
9
9
9
9
9
9
9
9
9
9
9
9
9
9
9
9
9
9
9
9
9
9
9
9
9
9
9
9
9
9
9
9
9
9
9
9
9
9
9
9
9
9
9
9
9
9
9
9
9
9
9
9
9
9
9
9
9
9
9
9
9
9
9
9
9
9
9
9
9
9
9
9
9
9
9
9
9
9
9
9
9
9
9
9
9
9
9
9
9
9
9
9
9
9
9
9
9
9
9
9
9
9
9
9
9
9
9
9
9
9
9
9
9
9
9
9
9
9
9
9
9
9
9
9
9
9
9
9
9
9
9
9
9
9
9
9
9
9
9
9
9
9
9
9
9
9
9
9
9
9
9
9
9
9
9
9
9
9
9
9
9
9
9
9
9
9
9
9
9
9
9
9
9
9
9
9
9
9
9
9
9
9
9
9
9
9
9
9
9
9
9
9
9
9
9
9
9
9
9
9
9
9
9
9
9
9
9
9
9
9
9
9
9
9
9
9
9
9
9
9
9
9
9
9
9
9
9
9
9
9
9
9
9
9
9
9
9
9
9
9
9
9
9
9
9
9
9
9
9
9
9
9
9
9
9
9
9
9
9
9
9
9
9
9
9
9
9
9
9
9
9
9
9
9
9
9
9
9
9
9
9
9
9
9
9
9
9
9
9
9
9
9
9
9
9
9
9
9
9
9
9
9
9
9
9
9
9
9
9
9
9
9
9
9
9
9
9
9
9
9
9
9
9
9
9
9
9
9
9
9
9
9
9
9
9
9
9
9
9
9
9
9
9
9
9
9
9
9
9
9
9
9
9
9
9
9
9
9
9
9
9
9
9
9
9
9
9
9
9
9
9
9
9
9
9
9
9
9
9
9
9
9
9
9
9
9
9
9
9
9
9
9
9
9
9
9
9
9
9
9
9
9
9
9
9
9
9
9
9
9
9
9
9
9
9
9
9
9
9
9
9
9
9
9
9
9
9
9
9
9
9
9
9
9
9
9
9
9
9
9
9
9
9
9
9
9
9
9
9
9
9
9
9
9
9
9
9
9
9
9
9
9
9
9
9
9
9
9
9
9
9
9
9
9
9
9
9
9
9
9
9
9
9
9
9
9
9
9
9
9
9
9
9
9
9
9
9
9
9
9
9
9
9
9
9
9
9
9
9
9
9
9
9
9
9
9
9
9
9
9
9
9
9
9
9
9
9
9
9
9
9
9
9
9
9
9
9
9
9
9
9
9
9
9
9
9
9
9
9
9
9
9
9
9
9
9
9
9
9
9
9
9
9
9
9
9
9
9
9
9
9
9
9
9
9
9
9
9
9
9
9
9
9
9
9
9
9
9
9
9
9
9
9
9
9
9
9
9
9
9
9
9
9
9
9
9
9
9
9
9
9
9
9
9
9
9
9
9
9
9
9
9
9
9
9
9
9
9
9
9
9
9
9
9
9
9
9
9
9
9
9
9
9
9
9
9
9
9
9
9
9
9
9
9
9
9
9
9
9
9
9
9
9
9
9
9
9
9
9
9
9
9
9
9
9
9
9
9
9
9
9
9
9
9
9
9
9
9
9
9
9
9
9
9
9
9
9
9
9
9
9
9
9
9
9
9
9
9
9
9
9
9
9
9
9
9
9
9
9
9
9
9
9
9
9
9
9
9
9
9
9
9
9
9
9
9
9
9
9
9
9
9
9
9
9
9
9
9
9
9
9
9
9
9
9
9
9
9
9
9
9
9
9
9
9
9
9
9
9
9
9
9
9
9
9
9
9
9
9
9
9
9
9
9
9
9
9
9
9
9
9
9
9
9
9
9
9
9
9
9
9
9
9
9
9
9
9
9
9
9
9
9
9
9
9
9
9
9
9
9
9
9
9
9
9
9
9
9
9
9
9
9
9
9
9
9
9
9
9
9
9
9
9
9
9
9
9
9
9
9
9
9
9
9
9
9
9
9
9
9
9
9
9
9
9
9
9
9
9
9
9
9
9
9
9
9
9
9
9
9
9
9
9
9
9
9
9
9
9
9
9
9
9
9
9
9
9
9
9
9
9
9
9
9
9
9
9
9
9
9
9
9
9
9
9
9
9
9
9
9
9
9
9
9
9
9
9
9
9
9
9
9
9
9
9
9
9
9
9
9
9
9
9
9
9
9
9
9
9
9
9
9
9
9
9
9
9
9
9
9
9
9
9
9
9
9
9
9
9
9
9
9
9
9
9
9
9
9
9
9
9
9
9
9
9
9
9
9
9
9
9
9
9
9
9
9
9
9
9
9
9
9
9
9
9
9
9
9
9
9
9
9
9
9
9
9
9
9
9
9
9
9
9
9
9
9
9
9
9
9
9
9
9
9
9
9
9
9
9
9
9
9
9
9
9
9
9
9
9
9
9
9
9
9
9
9
9
9
9
9
9
9
9
9
9
9
9
9
9
9
9
9
9
9
9
9
9
9
9
9
9
9
9
9
9
9
9
9
9
9
9
9
9
9
9
9
9
9
9
9
9
9
9
9
9
9
9
9
9
9
9
9
9
9
9
9
9
9
9
9
9
9
9
9
9
9
9
9
9
9
9
9
9
9
9
9
9
9
9
9
9
9
9
9
9
9
9
9
9
9
9
9
9
9
9
9
9
9
9
9
9
9
9
9
9
9
9
9
9
9
9
9
9
9
9
9
9
9
9
9
9
9
9
9
9
9
9
9
9
9
9
9
9
9
9
9
9
9
9
9
9
9
9
9
9
9
9
9
9
9
9
9
9
9
9
9
9
9
9
9
9
9
9
9
9
9
9
9
9
9
9
9
9
9
9
9
9
9
9
9
9
9
9
9
9
9
9
9
9
9
9
9
9
9
9
9
9
9
9
9
9
9
9
9
9
9
9
9
9
9
9
9
9
9
9
9
9
9
9
9
9
9
9
9
9
9
9
9
9
9
9
9
9
9
9
9
9
9
9
9
9
9
9
9
9
9
9
9
9
9
9
9
9
9
9
9
9
9
9
9
9
9
9
9
9
9
9
9
9
9
9
9
9
9
9
9
9
9
9
9
9
9
9
9
9
9
9
9
9
9
9
9
9
9
9
9
9
9
9
9
9
9
9
9
9
9
9
9
9
9
9
9
9
9
9
9
9
9
9
9
9
9
9
9
9
9
9
9
9
9
9
9
9
9
9
9
9
9
9
9
9
9
9
9
9
9
9
9
9
9
9
9
9
9
9
9
9
9
9
9
9
9
9
9
9
9
9
9
9
9
9
9
9
9
9
9
9
9
9
9
9
9
9
9
9
9
9
9
9
9
9
9
9
9
9
9
9
9
9
9
9
9
9
9
9
9
9
9
9
9
9
9
9
9
9
9
9
9
9
9
9
9
9
9
9
9
9
9
9
9
9
9
9
9
9
9
9
9
9
9
9
9
9
9
9
9
9
9
9
9
9
9
9
9
9
9
9
9
9
9
9
9
9
9
9
9
9
9
9
9
9
9
9
9
9
9
9
9
9
9
9
9
9
9
9
9
9
9
9
9
9
9
9
9
9
9
9
9
9
9
9
9
9
9
9
9
9
9
9
9
9
9
9
9
9
9
9
9
9
9
9
9
9
9
9
9
9
9
9
9
9
9
9
9
9
9
9
9
9
9
9
9
9
9
9
9
9
9
9
9
9
9
9
9
9
9
9
9
9
9
9
9
9
9
9
9
9
9
9
9
9
9
9
9
9
9
9
9
9
9
9
9
9
9
9
9
9
9
9
9
9
9
9
9
9
9
9
9
9
9
9
9
9
9
9
9
9
9
9
9
9
9
9
9
9
9
9
9
9
9
9
9
9
9
9
9
9
9
9
9
9
9
9
9
9
9
9
9
9
9
9
9
9
9
9
9
9
9
9
9
9
9
9
9
9
9
9
9
9
9
9
9
9
9
9
9
9
9
9
9
9
9
9
9
9
9
9
9
9
9
9
9
9
9
9
9
9
9
9
9
9
9
9
9
9
9
9
9
9
9
9
9
9
9
9
9
9
9
9
9
9
9
9
9
9
9
9
9
9
9
9
9
9
9
9
9
9
9
9
9
9
9
9
9
9
9
9
9
9
9
9
9
9
9
9
9
9
9
9
9
9
9
9
9
9
9
9
9
9
9
9
9
9
9
9
9
9
9
9
9
9
9
9
9
9
9
9
9
9
9
9
9
9
9
9
9
9
9
9
9
9
9
9
9
9
9
9
9
9
9
9
9
9
9
9
9
9
9
9
9
9
9
9
9
9
9
9
9
9
9
9
9
9
9
9
9
9
9
9
9
9
9
9
9
9
9
9
9
9
9
9
9
9
9
9
9
9
9
9
9
9
9
9
9
9
9
9
9
9
9
9
9
9
9
9
9
9
9
9
9
9
9
9
9
9
9
9
9
9
9
9
9
9
9
9
9
9
9
9
9
9
9
9
9
9
9
9
9
9
9
9
9
9
9
9
9
9
9
9
9
9
9
9
9
9
9
9
9
9
9
9
9
9
9
9
9
9
9
9
9
9
9
9
9
9
9
9
9
9
9
9
9
9
9
9
9
9
9
9
9
9
9
9
9
9
9
9
9
9
9
9
9
9
9
9
9
9
9
9
9
9
9
9
9
9
9
9
9
9
9
9
9
9
9
9
9
9
9
9
9
9
9
9
9
9
9
9
9
9
9
9
9
9
9
9
9
9
9
9
9
9
9
9
9
9
9
9
9
9
9
9
9
9
9
9
9
9
9
9
9
9
9
9
9
9
9
9
9
9
9
9
9
9
9
9
9
9
9
9
9
9
9
9
9
9
9
9
9
9
9
9
9
9
9
9
9
9
9
9
9
9
9
9
9
9
9
9
9
9
9
9
9
9
9
9
9
9
9
9
9
9
9
9
9
9
9
9
9
9
9
9
9
9
9
9
9
9
9
9
9
9
9
9
9
9
9
9
9
9
9
9
9
9
9
9
9
9
9
9
9
9
9
9
9
9
9
9
9
9
9
9
9
9
9
9
9
9
9
9
9
9
9
9
9
9
9
9
9
9
9
9
9
9
9
9
9
9
9
9
9
9
9
9
9
9
9
9
9
9
9
9
9
9
9
9
9
9
9
9
9
9
9
9
9
9
9
9
9
9
9
9
9
9
9
9
9
9
9
9
9
9
9
9
9
9
9
9
9
9
9
9
9
9
9
9
9
9
9
9
9
9
9
9
9
9
9
9
9
9
9
9
9
9
9
9
9
9
9
9
9
9
9
9
9
9
9
9
9
9
9
9
9
9
9
9
9
9
9
9
9
9
9
9
9
9
9
9
9
9
9
9
9
9
9
9
9
9
9
9
9
9
9
9
9
9
9
9
9
9
9
9
9
9
9
9
9
9
9
9
9
9
9
9
9
9
9
9
9
9
9
9
9
9
9
9
9
9
9
9
9
9
9
9
9
9
9
9
9
9
9
9
9
9
9
9
9
9
9
9
9
9
9
9
9
9
9
9
9
9
9
9
9
9
9
9
9
9
9
9
9
9
9
9
9
9
9
9
9
9
9
9
9
9
9
9
9
9
9
9
9
9
9
9
9
9
9
9
9
9
9
9
9
9
9
9
9
9
9
9
9
9
9
9
9
9
9
9
9
9
9
9
9
9
9
9
9
9
9
9
9
9
9
9
9
9
9
9
9
9
9
9
9
9
9
9
9
9
9
9
9
9
9
9
9
9
9
9
9
9
9
9
9
9
9
9
9
9
9
9
9
9
9
9
9
9
9
9
9
9
9
9
9
9
9
9
9
9
9
9
9
9
9
9
9
9
9
9
9
9
9
9
9
9
9
9
9
9
9
9
9
9
9
9
9
9
9
9
9
9
9
9
9
9
9
9
9
9
9
9
9
9
9
9
9
9
9
9
9
9
9
9
9
9
9
9
9
9
9
9
9
9
9
9
9
9
9
9
9
9
9
9
9
9
9
9
9
9
9
9
9
9
9
9
9
9
9
9
9
9
9
9
9
9
9
9
9
9
9
9
9
9
9
9
9
9
9
9
9
9
9
9
9
9
9
9
9
9
9
9
9
9
9
9
9
9
9
9
9
9
9
9
9
9
9
9
9
9
9
9
9
9
9
9
9
9
9
9
9
9
9
9
9
9
9
9
9
9
9
9
9
9
9
9
9
9
9
9
9
9
9
9
9
9
9
9
9
9
9
9
9
9
9
9
9
9
9
9
9
9
9
9
9
9
9
9
9
9
9
9
9
9
9
9
9
9
9
9
9
9
9
9
9
9
9
9
9
9
9
9
9
9
9
9
9
9
9
9
9
9
9
9
9
9
9
9
9
9
9
9
9
9
9
9
9
9
9
9
9
9
9
9
9
9
9
9
9
9
9
9
9
9
9
9
9
9
9
9
9
9
9
9
9
9
9
9
9
9
9
9
9
9
9
9
9
9
9
9
9
9
9
9
9
9
9
9
9
9
9
9
9
9
9
9
9
9
9
9
9
9
9
9
9
9
9
9
9
9
9
9
9
9
9
9
9
9
9
9
9
9
9
9
9
9
9
9
9
9
9
9
9
9
9
9
9
9
9
9
9
9
9
9
9
9
9
9
9
9
9
9
9
9
9
9
9
9
9
9
9
9
9
9
9
9
9
9
9
9
9
9
9
9
9
9
9
9
9
9
9
9
9
9
9
9
9
9
9
9
9
9
9
9
9
9
9
9
9
9
9
9
9
9
9
9
9
9
9
9
9
9
9
9
9
9
9
9
9
9
9
9
9
9
9
9
9
9
9
9
9
9
9
9
9
9
9
9
9
9
9
9
9
9
9
9
9
9
9
9
9
9
9
9
9
9
9
9
9
9
9
9
9
9
9
9
9
9
9
9
9
9
9
9
9
9
9
9
9
9
9
9
9
9
9
9
9
9
9
9
9
9
9
9
9
9
9
9
9
9
9
9
9
9
9
9
9
9
9
9
9
9
9
9
9
9
9
9
9
9
9
9
9
9
9
9
9
9
9
9
9
9
9
9
9
9
9
9
9
9
9
9
9
9
9
9
9
9
9
9
9
9
9
9
9
9
9
9
9
9
9
9
9
9
9
9
9
9
9
9
9
9
9
9
9
9
9
9
9
9
9
9
9
9
9
9
9
9
9
9
9
9
9
9
9
9
9
9
9
9
9
9
9
9
9
9
9
9
9
9
9
9
9
9
9
9
9
9
9
9
9
9
9
9
9
9
9
9
9
9
9
9
9
9
9
9
9
9
9
9
9
9
9
9
9
9
9
9
9
9
9
9
9
9
9
9
9
9
9
9
9
9
9
9
9
9
9
9
9
9
9
9
9
9
9
9
9
9
9
9
9
9
9
9
9
9
9
9
9
9
9
9
9
9
9
9
9
9
9
9
9
9
9
9
9
9
9
9
9
9
9
9
9
9
9
9
9
9
9
9
9
9
9
9
9
9
9
9
9
9
9
9
9
9
9
9
9
9
9
9
9
9
9
9
9
9
9
9
9
9
9
9
9
9
9
9
9
9
9
9
9
9
9
9
9
9
9
9
9
9
9
9
9
9
9
9
9
9
9
9
9
9
9
9
9
9
9
9
9
9
9
9
9
9
9
9
9
9
9
9
9
9
9
9
9
9
9
9
9
9
9
9
9
9
9
9
9
9
9
9
9
9
9
9
9
9
9
9
9
9
9
9
9
9
9
9
9
9
9
9
9
9
9
9
9
9
9
9
9
9
9
9
9
9
9
9
9
9
9
9
9
9
9
9
9
9
9
9
9
9
9
9
9
9
9
9
9
9
9
9
9
9
9
9
9
9
9
9
9
9
9
9
9
9
9
9
9
9
9
9
9
9
9
9
9
9
9
9
9
9
9
9
9
9
9
9
9
9
9
9
9
9
9
9
9
9
9
9
9
9
9
9
9
9
9
9
9
POINT_DATA      5151
SCALARS p double 
LOOKUP_TABLE default
   50000000.0000000     
   49889501.4797052     
   49778972.7750309     
   49668380.2360793     
   49557688.9177735     
   49446863.1889047     
   49335866.9506339     
   49224663.8209522     
   49113217.2771410     
   49001490.7776395     
   48889447.8628903     
   48777052.2397622     
   48664267.8515828     
   48551058.9366641     
   48437390.0775795     
   48323226.2433143     
   48208532.8260052     
   48093275.6736870     
   47977421.1201595     
   47860936.0128400     
   47743787.7392529     
   47625944.2526438     
   47507374.0970652     
   47388046.4321753     
   47267931.0579164     
   47146998.4391709     
   47025219.7304496     
   46902566.8006389     
   46779012.2578006     
   46654529.4740118     
   46529092.6102119     
   46402676.6410247     
   46275257.3795106     
   46146811.5018106     
   46017316.5716345     
   45886751.0645474     
   45755094.3920112     
   45622326.9251323     
   45488430.0180727     
   45353386.0310752     
   45217178.3530590     
   45079791.4237382     
   44941210.7552172     
   44801422.9530157     
   44660415.7364750     
   44518177.9584999     
   44374699.6245849     
   44229971.9110792     
   44083987.1826381     
   43936739.0088136     
   43788222.1797338     
   43638432.7208204     
   43487367.9064948     
   43335026.2728242     
   43181407.6290561     
   43026513.0679939     
   42870344.9751631     
   42712907.0367230     
   42554204.2460753     
   42394242.9091251     
   42233030.6481518     
   42070576.4042455     
   41906890.4382713     
   41741984.3303253     
   41575870.9776449     
   41408564.5909454     
   41240080.6891538     
   41070436.0925185     
   40899648.9140733     
   40727738.5494433     
   40554725.6649837     
   40380632.1842470     
   40205481.2727792     
   40029297.3212529     
   39852105.9269475     
   39673933.8735867     
   39494809.1095532     
   39314760.7244891     
   39133818.9242878     
   38952015.0044733     
   38769381.3219379     
   38585951.2649784     
   38401759.2215271     
   38216840.5454061     
   38031231.5203478     
   37844969.3214072     
   37658091.9732412     
   37470638.3045413     
   37282647.8976663     
   37094161.0322427     
   36905218.6211550     
   36715862.1370175     
   36526133.5267624     
   36336075.1118437     
   36145729.4708708     
   35955139.3025314     
   35764347.2637381     
   35573395.7839941     
   35382326.8315992     
   35191181.6425216     
   35000000.0000000     
   50000000.0000000     
   49889501.3962680     
   49778972.6729908     
   49668380.1240211     
   49557688.8049276     
   49446863.0795061     
   49335866.8478176     
   49224663.7264035     
   49113217.1918303     
   49001490.7019310     
   48889447.7967879     
   48777052.1830179     
   48664267.8038039     
   48551058.8973765     
   48437390.0462757     
   48323226.2194836     
   48208532.8091529     
   48093275.6633460     
   47977421.1158955     
   47860936.0142538     
   47743787.7459803     
   47625944.2643536     
   47507374.1134565     
   47388046.4529749     
   47267931.0828759     
   47146998.4680634     
   47025219.7630673     
   46902566.8367906     
   46779012.2973096     
   46654529.5167138     
   46529092.6559533     
   46402676.6896612     
   46275257.4309058     
   46146811.5558347     
   46017316.6281637     
   45886751.1234626     
   45755094.4531971     
   45622326.9884770     
   45488430.0834669     
   45353386.0984113     
   45217178.4222310     
   45079791.4946411     
   44941210.8277460     
   44801423.0270656     
   44660415.8119407     
   44518178.0352751     
   44374699.7025621     
   44229971.9901493     
   44083987.2626901     
   43936739.0897342     
   43788222.2614072     
   43638432.8031276     
   43487367.9893140     
   43335026.3560301     
   43181407.7125197     
   43026513.1515820     
   42870345.0587385     
   42712907.1201438     
   42554204.3291949     
   42394242.9917918     
   42233030.7302083     
   42070576.4855290     
   41906890.5186131     
   41741984.4095499     
   41575871.0555703     
   41408564.6673822     
   41240080.7639050     
   41070436.1653787     
   40899648.9848283     
   40727738.6178692     
   40554725.7308461     
   40380632.2472999     
   40205481.3327641     
   40029297.3778971     
   39852105.9799625     
   39673933.9226666     
   39494809.1543723     
   39314760.7646995     
   39133818.9595166     
   38952015.0343198     
   38769381.3459702     
   38585951.2827308     
   38401759.2324970     
   38216840.5490529     
   38031231.5160924     
   37844969.3086349     
   37658091.9513083     
   37470638.2727890     
   37282647.8554430     
   37094160.9789389     
   36905218.5562596     
   36715862.0601903     
   36526133.4379581     
   36336075.0114362     
   36145729.3599355     
   35955139.1829653     
   35764347.1391080     
   35573395.6591006     
   35382326.7170042     
   35191181.5478521     
   35000000.0000000     
   50000000.0000000     
   49889501.1597152     
   49778972.3729757     
   49668379.7939543     
   49557688.4708703     
   49446862.7553410     
   49335866.5428261     
   49224663.4459046     
   49113216.9387429     
   49001490.4774077     
   48889447.6008427     
   48777052.0149143     
   48664267.6623597     
   48551058.7811668     
   48437389.9537753     
   48323226.1491595     
   48208532.7595224     
   48093275.6330103     
   47977421.1035570     
   47860936.0187217     
   47743787.7661693     
   47625944.2992782     
   47507374.1622234     
   47388046.5147737     
   47267931.1569701     
   47146998.5537814     
   47025219.8597948     
   46902566.9439625     
   46779012.4144037     
   46654529.6432450     
   46529092.7914685     
   46402676.8337343     
   46275257.5831343     
   46146811.7158360     
   46017316.7955720     
   45886751.2979262     
   45755094.6343761     
   45622327.1760409     
   45488430.2770926     
   45353386.2977817     
   45217178.6270329     
   45079791.7045636     
   44941211.0424796     
   44801423.2463005     
   44660416.0353654     
   44518178.2625757     
   44374699.9334210     
   44229972.2242438     
   44083987.4996921     
   43936739.3293086     
   43788222.5032114     
   43638433.0468105     
   43487368.2345151     
   43335026.6023787     
   43181407.9596342     
   43026513.3990690     
   42870345.3061919     
   42712907.3671444     
   42554204.5753088     
   42394243.2365704     
   42233030.9731871     
   42070576.7262264     
   41906890.7565297     
   41741984.6441676     
   41575871.2863509     
   41408564.8937659     
   41240080.9853095     
   41070436.3811971     
   40899649.1944274     
   40727738.8205875     
   40554725.9259908     
   40380632.4341442     
   40205481.5105436     
   40029297.5458059     
   39852106.1371478     
   39673934.0682234     
   39494809.2873368     
   39314760.8840415     
   39133819.0641311     
   38952015.1230179     
   38769381.4174697     
   38585951.3356467     
   38401759.2653335     
   38216840.5601976     
   38031231.5038162     
   37844969.2710991     
   37658091.8865858     
   37470638.1789035     
   37282647.7304380     
   37094160.8209845     
   36905218.3638184     
   36715861.8322518     
   36526133.1743904     
   36336074.7134313     
   36145729.0307310     
   35955138.8285614     
   35764346.7700614     
   35573395.2911995     
   35382326.3800286     
   35191181.2796502     
   35000000.0000000     
   50000000.0000000     
   49889500.7942221     
   49778971.8879667     
   49668379.2576192     
   49557687.9248037     
   49446862.2244650     
   49335866.0427012     
   49224662.9858141     
   49113216.5236479     
   49001490.1093286     
   48889447.2798249     
   48777051.7397424     
   48664267.4310587     
   48551058.5913564     
   48437389.8029091     
   48323226.0346816     
   48208532.6789656     
   48093275.5840519     
   47977421.0840469     
   47860936.0266907     
   47743787.7998269     
   47625944.3570020     
   47507374.2425453     
   47388046.6163644     
   47267931.2786237     
   47146998.6944001     
   47025220.0183749     
   46902567.1195824     
   46779012.6062122     
   46654529.8504516     
   46529093.0133350     
   46402677.0695672     
   46275257.8322782     
   46146811.9776682     
   46017317.0694968     
   45886751.5833710     
   45755094.9307871     
   45622327.4828798     
   45488430.5938332     
   45353386.6239069     
   45217178.9620321     
   45079792.0479303     
   44941211.3937089     
   44801423.6048868     
   44660416.4008010     
   44518178.6343483     
   44374700.3110120     
   44229972.6071271     
   44083987.8873317     
   43936739.7211578     
   43788222.8987108     
   43638433.4453870     
   43487368.6355801     
   43335027.0053270     
   43181408.3638427     
   43026513.8038953     
   42870345.7109732     
   42712907.7711957     
   42554204.9779222     
   42394243.6370133     
   42233031.3707011     
   42070577.1200255     
   41906891.1457987     
   41741985.0280608     
   41575871.6639897     
   41408565.2642371     
   41240081.3476629     
   41070436.7344426     
   40899649.5375321     
   40727739.1524720     
   40554726.2455251     
   40380632.7401427     
   40205481.8017592     
   40029297.8209232     
   39852106.3947748     
   39673934.3068820     
   39494809.5054514     
   39314761.0799268     
   39133819.2359773     
   38952015.2688753     
   38769381.5352322     
   38585951.4230354     
   38401759.3198826     
   38216840.5792439     
   38031231.4844974     
   37844969.2103658     
   37658091.7812350     
   37470638.0256451     
   37282647.5260089     
   37094160.5623322     
   36905218.0483775     
   36715861.4583548     
   36526132.7418456     
   36336074.2243449     
   36145728.4906140     
   35955138.2479087     
   35764346.1665784     
   35573394.6933041     
   35382325.8352125     
   35191180.8656620     
   35000000.0000000     
   50000000.0000000     
   49889500.3182298     
   49778971.2317449     
   49668378.5261197     
   49557687.1762062     
   49446861.4949951     
   49335865.3546852     
   49224662.3526353     
   49113215.9524596     
   49001489.6030645     
   48889446.8385959     
   48777051.3618595     
   48664267.1137560     
   48551058.3312963     
   48437389.5965238     
   48323225.8783955     
   48208532.5693332     
   48093275.5178362     
   47977421.0582574     
   47860936.0385954     
   47743787.8469464     
   47625944.4370948     
   47507374.3535872     
   47388046.7565263     
   47267931.4462486     
   47146998.8879822     
   47025220.2365392     
   46902567.3610673     
   46779012.8698537     
   46654530.1351696     
   46529093.3181211     
   46402677.3934743     
   46275258.1744114     
   46146812.3371769     
   46017317.4455677     
   45886751.9752220     
   45755095.3376618     
   45622327.9040425     
   45488431.0285647     
   45353387.0715004     
   45217179.4217893     
   45079792.5191585     
   44941211.8757173     
   44801424.0969839     
   44660416.9022918     
   44518179.1445315     
   44374700.8291781     
   44229973.1325554     
   44083988.4192887     
   43936740.2588946     
   43788223.4414614     
   43638433.9923663     
   43487369.1859821     
   43335027.5583229     
   43181408.9185789     
   43026514.3594919     
   42870346.2665220     
   42712908.3257588     
   42554205.5305299     
   42394244.1866622     
   42233031.9163523     
   42070577.6606027     
   41906891.6801858     
   41741985.5550996     
   41575872.1824775     
   41408565.7729237     
   41240081.8452476     
   41070437.2195703     
   40899650.0087893     
   40727739.6083815     
   40554726.6845407     
   40380633.1606419     
   40205482.2020353     
   40029298.1991752     
   39852106.7490964     
   39673934.6352476     
   39494809.8057007     
   39314761.3497464     
   39133819.4728802     
   38952015.4701788     
   38769381.6980333     
   38585951.5441879     
   38401759.3959751     
   38216840.6065848     
   38031231.4591107     
   37844969.1280067     
   37658091.6374359     
   37470637.8158086     
   37282647.2455691     
   37094160.2070139     
   36905217.6145931     
   36715860.9437880     
   36526132.1462873     
   36336073.5508707     
   36145727.7471873     
   35955137.4496825     
   35764345.3389836     
   35573393.8777070     
   35382325.0980698     
   35191180.3269996     
   35000000.0000000     
   50000000.0000000     
   49889499.7460711     
   49778970.4177864     
   49668377.6103120     
   49557686.2345698     
   49446860.5751773     
   49335864.4861576     
   49224661.5530250     
   49113215.2312234     
   49001488.9640999     
   48889446.2821046     
   48777050.8856887     
   48664266.7143523     
   48551058.0043668     
   48437389.3374823     
   48323225.6826525     
   48208532.4324736     
   48093275.4357205     
   47977421.0270696     
   47860936.0548563     
   47743787.9075059     
   47625944.5391109     
   47507374.4944988     
   47388046.9340232     
   47267931.6582420     
   47146999.1325762     
   47025220.5120055     
   46902567.6658216     
   46779013.2024355     
   46654530.4942244     
   46529093.7023849     
   46402677.8017603     
   46275258.6055984     
   46146812.7901991     
   46017317.9194059     
   45886752.4688960     
   45755095.8502234     
   45622328.4345695     
   45488431.5761550     
   45353387.6352673     
   45217180.0008570     
   45079793.1126573     
   44941212.4827802     
   44801424.7167427     
   44660417.5338737     
   44518179.7870559     
   44374701.4817536     
   44229973.7942766     
   44083989.0892337     
   43936740.9361226     
   43788224.1250099     
   43638434.6812484     
   43487369.8791848     
   43335028.2548042     
   43181409.6172661     
   43026515.0592790     
   42870346.9662675     
   42712909.0242837     
   42554206.2266153     
   42394244.8790471     
   42233032.6037310     
   42070578.3416224     
   41906892.3534440     
   41741986.2191411     
   41575872.8357913     
   41408566.4139395     
   41240082.4723314     
   41070437.8310203     
   40899650.6028302     
   40727740.1831586     
   40554727.2381124     
   40380633.6909706     
   40205482.7069774     
   40029298.6764684     
   39852107.1963447     
   39673935.0499042     
   39494810.1850471     
   39314761.6908686     
   39133819.7726422     
   38952015.7251924     
   38769381.9046271     
   38585951.6983750     
   38401759.4934251     
   38216840.6426015     
   38031231.4286259     
   37844969.0255983     
   37658091.4573861     
   37470637.5522233     
   37282646.8925862     
   37094159.7591414     
   36905217.0672266     
   36715860.2939776     
   36526131.3938384     
   36336072.6998905     
   36145726.8082256     
   35955136.4427227     
   35764344.2976350     
   35573392.8564346     
   35382324.1837927     
   35191179.6800238     
   35000000.0000000     
   50000000.0000000     
   49889499.0891148     
   49778969.4587481     
   49668376.5208638     
   49557685.1093269     
   49446859.4733601     
   49335863.4446206     
   49224660.5937799     
   49113214.3661106     
   49001488.1980274     
   48889445.6153859     
   48777050.3157179     
   48664266.2367937     
   48551057.6139768     
   48437389.0286626     
   48323225.4498082     
   48208532.2702319     
   48093275.3390532     
   47977420.9913512     
   47860936.0758787     
   47743787.9814668     
   47625944.6625874     
   47507374.6644122     
   47388047.1476022     
   47267931.9129848     
   47146999.4262158     
   47025220.8424777     
   46902568.0312364     
   46779013.6010521     
   46654530.9244294     
   46529094.1626732     
   46402678.2907192     
   46275259.1218934     
   46146813.3325617     
   46017318.4866230     
   45886753.0598006     
   45755096.4636866     
   45622329.0694927     
   45488432.2314636     
   45353388.3099048     
   45217180.6937792     
   45079793.8228275     
   44941213.2091646     
   44801425.4583058     
   44660418.2895743     
   44518180.5558432     
   44374702.2625637     
   44229974.5860291     
   44083989.8908284     
   43936741.7464362     
   43788224.9428931     
   43638435.5055233     
   43487370.7086414     
   43335029.0881987     
   43181410.4533173     
   43026515.8966662     
   42870347.8036276     
   42712909.8602090     
   42554207.0596500     
   42394245.7076856     
   42233033.4264144     
   42070579.1567357     
   41906893.1593129     
   41741987.0140287     
   41575873.6178941     
   41408567.1813833     
   41240083.2231665     
   41070438.5632164     
   40899651.3142694     
   40727740.8716283     
   40554727.9012962     
   40380634.3264381     
   40205483.3121708     
   40029299.2486878     
   39852107.7327298     
   39673935.5474125     
   39494810.6404288     
   39314762.1006369     
   39133820.1330400     
   38952016.0321552     
   38769382.1537434     
   38585951.8848460     
   38401759.6120279     
   38216840.6876615     
   38031231.3940062     
   37844968.9047205     
   37658091.2433000     
   37470637.2377516     
   37282646.4705818     
   37094159.2229036     
   36905216.4111441     
   36715859.5144812     
   36526130.4907758     
   36336071.6784582     
   36145725.6816574     
   35955135.2360032     
   35764343.0528389     
   35573391.6413163     
   35382323.1066467     
   35191178.9376706     
   35000000.0000000     
   50000000.0000000     
   49889498.3565592     
   49778968.3662779     
   49668375.2682028     
   49557683.8098276     
   49446858.1979588     
   49335862.2376871     
   49224659.4818234     
   49113213.3634134     
   49001487.3105438     
   48889444.8435587     
   48777049.6564982     
   48664265.6850702     
   48551057.1635625     
   48437388.6729566     
   48323225.1822218     
   48208532.0844484     
   48093275.2291724     
   47977420.9519559     
   47860936.1020508     
   47743788.0687722     
   47625944.8070423     
   47507374.8624412     
   47388047.3959920     
   47267932.2088404     
   47146999.7669177     
   47025221.2256438     
   46902568.4546879     
   46779014.0627841     
   46654531.4225847     
   46529094.6955204     
   46402678.8566333     
   46275259.7193396     
   46146813.9600812     
   46017319.1428205     
   45886753.7433337     
   45755097.1732562     
   45622329.8038345     
   45488432.9893406     
   45353389.0901004     
   45217181.4950908     
   45079794.6440610     
   44941214.0491284     
   44801426.3158065     
   44660419.1634116     
   44518181.4448056     
   44374703.1654245     
   44229975.5015421     
   44083990.8177245     
   43936742.6834196     
   43788225.8886379     
   43638436.4586702     
   43487371.6677947     
   43335030.0519228     
   43181411.4201339     
   43026516.8650513     
   42870348.7720083     
   42712910.8269605     
   42554208.0230929     
   42394246.6660825     
   42233034.3779665     
   42070580.0995799     
   41906894.0915177     
   41741987.9335906     
   41575874.5227328     
   41408568.0693377     
   41240084.0919885     
   41070439.4105649     
   40899652.1377029     
   40727741.6685962     
   40554728.6691284     
   40380635.0623326     
   40205484.0131788     
   40029299.9116958     
   39852108.3544376     
   39673936.1243082     
   39494811.1687581     
   39314762.5763681     
   39133820.5518237     
   38952016.3892797     
   38769382.4440863     
   38585952.1028257     
   38401759.7515583     
   38216840.7421168     
   38031231.3562070     
   37844968.7669554     
   37658090.9974068     
   37470636.8752880     
   37282645.9831296     
   37094158.6025654     
   36905215.6513126     
   36715858.6109829     
   36526129.4435242     
   36336070.4937841     
   36145724.3755519     
   35955133.8385898     
   35764341.6148220     
   35573390.2439232     
   35382321.8797447     
   35191178.1103698     
   35000000.0000000     
   50000000.0000000     
   49889497.5559857     
   49778967.1509916     
   49668373.8624478     
   49557682.3453245     
   49446856.7574262     
   49335860.8730685     
   49224658.2241951     
   49113212.2295388     
   49001486.3074462     
   48889443.9718232     
   48777048.9126417     
   48664265.0632142     
   48551056.6565865     
   48437388.2732689     
   48323224.8822542     
   48208531.8769573     
   48093275.1074038     
   47977420.9097210     
   47860936.1337425     
   47743788.1693454     
   47625944.9719737     
   47507375.0876788     
   47388047.6779019     
   47267932.5441535     
   47147000.1526807     
   47025221.6591746     
   46902568.9335363     
   46779014.5846969     
   46654531.9854763     
   46529095.2974474     
   46402679.4957721     
   46275260.3939682     
   46146814.6685625     
   46017319.8835888     
   45886754.5148823     
   45755097.9741267     
   45622330.6326073     
   45488433.8446264     
   45353389.9705322     
   45217182.3993172     
   45079795.5707396     
   44941214.9969196     
   44801427.2833683     
   44660420.1493938     
   44518182.4478456     
   44374704.1841416     
   44229976.5345343     
   44083991.8635632     
   43936743.7406462     
   43788226.9557600     
   43638437.5341576     
   43487372.7500759     
   43335031.1393814     
   43181412.5111054     
   43026517.9578197     
   42870349.8648026     
   42712911.9179513     
   42554209.1103894     
   42394247.7477284     
   42233035.4519370     
   42070581.1637774     
   41906895.1437682     
   41741988.9716390     
   41575875.5442384     
   41408569.0718684     
   41240085.0730150     
   41070440.3674536     
   40899653.0677074     
   40727742.5688477     
   40554729.5366237     
   40380635.8939201     
   40205484.8055412     
   40029300.6613295     
   39852109.0576280     
   39673936.7770997     
   39494811.7669193     
   39314763.1153503     
   39133821.0267142     
   38952016.7947489     
   38769382.7743316     
   38585952.3515130     
   38401759.9117682     
   38216840.8063019     
   38031231.3161731     
   37844968.6138849     
   37658090.7219495     
   37470636.4677570     
   37282645.4338533     
   37094157.9024648     
   36905214.7927972     
   36715857.5892885     
   36526128.2586482     
   36336069.1532227     
   36145722.8981031     
   35955132.2596046     
   35764339.9937127     
   35573388.6754852     
   35382320.5150177     
   35191177.2066871     
   35000000.0000000     
   50000000.0000000     
   49889496.6937508     
   49778965.8225309     
   49668372.3133542     
   49557680.7249555     
   49446855.1602315     
   49335859.3585606     
   49224656.8280423     
   49113210.9710019     
   49001485.1946274     
   48889443.0054576     
   48777048.0888193     
   48664264.3752988     
   48551056.0965358     
   48437387.8325148     
   48323224.5522668     
   48208531.6495849     
   48093274.9750597     
   47977420.8654663     
   47860936.1713033     
   47743788.2830878     
   47625945.1568570     
   47507375.3391964     
   47388047.9920194     
   47267932.9172478     
   47147000.5814839     
   47025222.1407227     
   46902569.4651242     
   46779015.1638397     
   46654532.6098752     
   46529095.9649609     
   46402680.2043918     
   46275261.1417973     
   46146815.4537983     
   46017320.7045066     
   45886755.3698223     
   45755098.8614817     
   45622331.5508128     
   45488434.7921505     
   45353390.9458677     
   45217183.4009733     
   45079796.5972350     
   44941216.0467763     
   44801428.3551045     
   44660421.2415191     
   44518183.5588548     
   44374705.3125103     
   44229977.6787134     
   44083993.0219747     
   43936744.9116785     
   43788228.1377639     
   43638438.7254420     
   43487373.9489040     
   43335032.3439669     
   43181413.7196087     
   43026519.1683439     
   42870351.0753904     
   42712913.1265807     
   42554210.3149706     
   42394248.9460995     
   42233036.6418601     
   42070582.3429349     
   41906896.3097580     
   41741990.1219695     
   41575876.6763239     
   41408570.1830226     
   41240086.1604446     
   41070441.4282504     
   40899654.0988390     
   40727743.5671465     
   40554730.4987742     
   40380636.8164425     
   40205485.6847725     
   40029301.4934001     
   39852109.8384333     
   39673937.5022668     
   39494812.4317667     
   39314763.7148406     
   39133821.5554008     
   38952017.2467150     
   38769383.1431248     
   38585952.6300784     
   38401760.0923846     
   38216840.8805315     
   38031231.2748377     
   37844968.4470891     
   37658090.4191820     
   37470636.0181109     
   37282644.8264246     
   37094157.1270101     
   36905213.8407575     
   36715856.4553201     
   36526126.9428452     
   36336067.6642618     
   36145721.2576136     
   35955130.5082015     
   35764338.1995210     
   35573386.9468264     
   35382319.0232799     
   35191176.2337769     
   35000000.0000000     
   50000000.0000000     
   49889495.7752681     
   49778964.3896552     
   49668370.6302833     
   49557678.9577275     
   49446853.4148445     
   49335857.7020312     
   49224655.3006109     
   49113209.5944197     
   49001483.9780722     
   48889441.9498153     
   48777047.1897583     
   48664263.6254351     
   48551055.4869194     
   48437387.3536188     
   48323224.1946191     
   48208531.4041479     
   48093274.8334365     
   47977420.8199919     
   47860936.2150605     
   47743788.4098778     
   47625945.3611444     
   47507375.6160418     
   47388048.3370094     
   47267933.3264256     
   47147001.0512858     
   47025222.6679209     
   46902570.0467762     
   46779015.7972444     
   46654533.2925356     
   46529096.6945523     
   46402680.9787339     
   46275261.9588316     
   46146816.3115682     
   46017321.6011400     
   45886756.3035172     
   45755099.8304931     
   45622332.5534412     
   45488435.8267317     
   45353392.0107634     
   45217184.4945632     
   45079797.7179084     
   44941217.1929254     
   44801429.5251176     
   44660422.4337743     
   44518184.7717143     
   44374706.5443146     
   44229978.9277762     
   44083994.2865778     
   43936746.1900671     
   43788229.4281419     
   43638440.0259676     
   43487375.2576858     
   43335033.6590589     
   43181415.0390072     
   43026520.4899827     
   42870352.3971374     
   42712914.4462335     
   42554211.6302527     
   42394250.2546564     
   42233037.9412546     
   42070583.6306427     
   41906897.5831634     
   41741991.3783599     
   41575877.9128841     
   41408571.3968285     
   41240087.3484559     
   41070442.5873021     
   40899655.2256313     
   40727744.6582332     
   40554731.5505475     
   40380637.8251162     
   40205486.6463604     
   40029302.4036902     
   39852110.6929564     
   39673938.2962584     
   39494813.1601225     
   39314764.3720635     
   39133822.1355397     
   38952017.7432965     
   38769383.5490789     
   38585952.9376616     
   38401760.2931071     
   38216840.9650983     
   38031231.2331188     
   37844968.2681435     
   37658090.0913672     
   37470635.5293273     
   37282644.1645601     
   37094156.2806769     
   36905212.8004428     
   36715855.2151112     
   36526125.5029373     
   36336066.0345124     
   36145719.4624800     
   35955128.5935465     
   35764336.2421179     
   35573385.0683273     
   35382317.4143331     
   35191175.1977086     
   35000000.0000000     
   50000000.0000000     
   49889494.8052146     
   49778962.8603440     
   49668368.8221932     
   49557677.0525024     
   49446851.5297238     
   49335855.9114095     
   49224653.6492385     
   49113208.1065054     
   49001482.6638522     
   48889440.8103206     
   48777046.2202391     
   48664262.8177700     
   48551054.8312664     
   48437386.8395121     
   48323223.8116670     
   48208531.1424509     
   48093274.6838133     
   47977420.7740765     
   47860936.2653178     
   47743788.5495684     
   47625945.5842622     
   47507375.9172378     
   47388048.7115123     
   47267933.7699655     
   47147001.5600228     
   47025223.2383813     
   46902570.6757969     
   46779016.4819243     
   46654534.0301947     
   46529097.4826963     
   46402681.8150243     
   46275262.8410609     
   46146817.2376376     
   46017322.5690418     
   45886757.3113179     
   45755100.8763203     
   45622333.6354705     
   45488436.9431764     
   45353393.1598643     
   45217185.6745793     
   45079798.9271090     
   44941218.4295826     
   44801430.7874986     
   44660423.7201351     
   44518186.0802934     
   44374707.8733269     
   44229980.2754074     
   44083995.6509791     
   43936747.5693503     
   43788230.8203738     
   43638441.4291661     
   43487376.6698146     
   43335035.0780236     
   43181416.4626506     
   43026521.9160807     
   42870353.8233946     
   42712915.8702793     
   42554213.0496364     
   42394251.6668435     
   42233039.3436220     
   42070585.0204737     
   41906898.9576430     
   41741992.7345692     
   41575879.2477942     
   41408572.7072938     
   41240088.6312063     
   41070443.8389334     
   40899656.4425953     
   40727745.8368238     
   40554732.6868857     
   40380638.9151309     
   40205487.6857646     
   40029303.3879532     
   39852111.6172689     
   39673939.1554910     
   39494813.9487754     
   39314765.0842083     
   39133822.7647512     
   38952018.2825764     
   38769383.9907719     
   38585953.2733694     
   38401760.5136056     
   38216841.0602700     
   38031231.1919174     
   37844968.0786163     
   37658089.7407738     
   37470635.0044061     
   37282643.4520179     
   37094155.3680042     
   36905211.6771886     
   36715853.8748012     
   36526123.9458649     
   36336064.2716996     
   36145717.5211798     
   35955126.5248040     
   35764334.1312185     
   35573383.0499127     
   35382315.6970848     
   35191174.1037054     
   35000000.0000000     
   50000000.0000000     
   49889493.7876853     
   49778961.2418971     
   49668366.8976461     
   49557675.0179881     
   49446849.5133082     
   49335853.9946778     
   49224651.8813473     
   49113206.5140632     
   49001481.2581217     
   48889439.5924653     
   48777045.1850921     
   48664261.9564829     
   48551054.1331230     
   48437386.2931299     
   48323223.4057601     
   48208530.8662847     
   48093274.5274491     
   47977420.7284751     
   47860936.3223527     
   47743788.7019859     
   47625945.8256098     
   47507376.2417801     
   47388049.1141427     
   47267934.2461215     
   47147002.1056075     
   47025223.8496935     
   46902571.3494700     
   46779017.2148731     
   46654534.8195711     
   46529098.3258504     
   46402682.7094728     
   46275263.7844594     
   46146818.2277575     
   46017323.6037505     
   45886758.3885618     
   45755101.9941095     
   45622334.7918663     
   45488438.1362791     
   45353394.3878029     
   45217186.9355021     
   45079800.2191746     
   44941219.7509515     
   44801432.1363266     
   44660425.0945650     
   44518187.4784492     
   44374709.2933071     
   44229981.7152793     
   44083997.1087728     
   43936749.0430534     
   43788232.3079264     
   43638442.9284553     
   43487378.1786701     
   43335036.5942129     
   43181417.9838740     
   43026523.4399675     
   42870355.3474978     
   42712917.3920717     
   42554214.5665060     
   42394253.1760885     
   42233040.8424464     
   42070586.5059824     
   41906900.4268363     
   41741994.1843368     
   41575880.6749091     
   41408574.1084050     
   41240090.0028307     
   41070445.1774458     
   40899657.7442169     
   40727747.0976089     
   40554733.9027040     
   40380640.0816474     
   40205488.7984145     
   40029304.4419106     
   39852112.6074095     
   39673940.0763462     
   39494814.7944780     
   39314765.8484276     
   39133823.4406183     
   38952018.8625996     
   38769384.4667443     
   38585953.6362728     
   38401760.7535175     
   38216841.1662872     
   38031231.1521142     
   37844967.8800659     
   37658089.3696736     
   37470634.4463660     
   37282642.6925946     
   37094154.3935903     
   36905210.4764116     
   36715852.4406296     
   36526122.2786794     
   36336062.3836547     
   36145715.4422613     
   35955124.3111259     
   35764331.8763708     
   35573380.9010594     
   35382313.8796633     
   35191172.9563225     
   35000000.0000000     
   50000000.0000000     
   49889492.7263108     
   49778959.5410283     
   49668364.8648290     
   49557672.8627357     
   49446847.3740108     
   49335851.9598648     
   49224650.0044382     
   49113204.8239825     
   49001479.7671131     
   48889438.3018048     
   48777044.0891938     
   48664261.0457827     
   48551053.3960499     
   48437385.7174092     
   48323222.9792392     
   48208530.5774236     
   48093274.3655814     
   47977420.6839170     
   47860936.3864153     
   47743788.8669275     
   47625946.0845575     
   47507376.5886362     
   47388049.5434876     
   47267934.7531212     
   47147002.6859277     
   47025224.4994239     
   46902572.0650571     
   46779017.9930639     
   46654535.6573639     
   46529099.2204541     
   46402683.6582719     
   46275264.7849852     
   46146819.2776632     
   46017324.7007900     
   45886759.5305717     
   45755103.1789933     
   45622336.0175805     
   45488439.4008209     
   45353395.6891993     
   45217188.2717996     
   45079801.5884300     
   44941221.1512237     
   44801433.5656681     
   44660426.5510150     
   44518188.9600262     
   44374710.7980027     
   44229983.2410513     
   44083998.6535397     
   43936750.6046886     
   43788233.8842526     
   43638444.5172393     
   43487379.7776177     
   43335038.2009640     
   43181419.5959976     
   43026525.0549570     
   42870356.9627666     
   42712919.0049480     
   42554216.1742284     
   42394254.7758011     
   42233042.4311939     
   42070588.0807047     
   41906901.9843630     
   41741995.7213814     
   41575882.1880621     
   41408575.5941262     
   41240091.4574408     
   41070446.5971160     
   40899659.1249570     
   40727748.4352519     
   40554735.1928891     
   40380641.3197972     
   40205489.9797084     
   40029305.5612512     
   39852113.6593823     
   39673941.0551698     
   39494815.6939451     
   39314766.6618346     
   39133824.1606835     
   38952019.4813708     
   38769384.9754971     
   38585954.0254046     
   38401761.0124448     
   38216841.2833600     
   38031231.1145670     
   37844967.6740370     
   37658088.9803372     
   37470633.8582414     
   37282641.8901204     
   37094153.3620884     
   36905209.2036047     
   36715850.9189309     
   36526120.5085377     
   36336060.3783073     
   36145713.2343354     
   35955121.9616445     
   35764329.4869515     
   35573378.6308191     
   35382311.9695257     
   35191171.7595828     
   35000000.0000000     
   50000000.0000000     
   49889491.6243480     
   49778957.7639504     
   49668362.7315820     
   49557670.5951416     
   49446845.1202168     
   49335849.8150409     
   49224648.0260856     
   49113203.0432336     
   49001478.1971323     
   48889436.9439536     
   48777042.9374632     
   48664260.0899041     
   48551052.6236183     
   48437385.1152850     
   48323222.5344337     
   48208530.2776226     
   48093274.1994227     
   47977420.6411038     
   47860936.4577252     
   47743789.0441597     
   47625946.3604449     
   47507376.9567432     
   47388049.9981049     
   47267935.2891645     
   47147003.2988451     
   47025225.1851138     
   46902572.8197969     
   46779018.8134479     
   46654536.5402518     
   46529100.1629271     
   46402684.6575958     
   46275265.8385790     
   46146820.3830736     
   46017325.8556685     
   45886760.7326557     
   45755104.4260898     
   45622337.3075511     
   45488440.7315695     
   45353397.0586599     
   45217189.6779262     
   45079803.0291872     
   44941222.6245772     
   44801435.0695768     
   44660428.0834231     
   44518190.5188560     
   44374712.3811476     
   44229984.8463693     
   44084000.2788471     
   43936752.2477540     
   43788235.5427913     
   43638446.1889077     
   43487381.4600078     
   43335039.8915988     
   43181421.2923256     
   43026526.7543472     
   42870358.6625039     
   42712920.7022280     
   42554217.8661529     
   42394256.4593727     
   42233044.1033111     
   42070589.7381563     
   41906903.6238224     
   41741997.3394006     
   41575883.7810642     
   41408577.1583981     
   41240092.9891238     
   41070448.0921954     
   40899660.5792490     
   40727749.8443881     
   40554736.5522980     
   40380642.6246802     
   40205491.2250114     
   40029306.7416289     
   39852114.7691547     
   39673942.0882692     
   39494816.6438518     
   39314767.5215015     
   39133824.9224475     
   38952020.1368521     
   38769385.5154887     
   38585954.4397566     
   38401761.2899517     
   38216841.4116651     
   38031231.0801067     
   37844967.4620573     
   37658088.5750312     
   37470633.2430774     
   37282641.0484554     
   37094152.2782023     
   36905207.8643320     
   36715849.3161288     
   36526118.6426954     
   36336058.2636798     
   36145710.9060701     
   35955119.4854689     
   35764326.9721674     
   35573376.2478501     
   35382309.9735560     
   35191170.5170816     
   35000000.0000000     
   50000000.0000000     
   49889490.4847525     
   49778955.9164510     
   49668360.5054315     
   49557668.2234554     
   49446842.7602833     
   49335847.5683158     
   49224645.9539335     
   49113201.1788626     
   49001476.5545539     
   48889435.5245810     
   48777041.7348577     
   48664259.0931038     
   48551051.8194071     
   48437384.4896878     
   48323222.0736583     
   48208529.9686150     
   48093274.0301590     
   47977420.6007066     
   47860936.5364703     
   47743789.2334161     
   47625946.6525788     
   47507377.3450067     
   47388050.4765219     
   47267935.8524220     
   47147003.9421935     
   47025225.9042789     
   46902573.6109032     
   46779019.6729533     
   46654537.4648921     
   46529101.1496694     
   46402685.7035998     
   46275266.9411639     
   46146821.5396907     
   46017327.0638780     
   45886761.9901063     
   45755105.7305019     
   45622338.6567015     
   45488442.1232780     
   45353398.4907770     
   45217191.1483230     
   45079804.5357444     
   44941224.1651766     
   44801436.6420926     
   44660429.6857136     
   44518192.1487563     
   44374714.0364621     
   44229986.5248652     
   44084001.9782478     
   43936753.9657331     
   43788237.2769664     
   43638447.9368346     
   43487383.2191754     
   43335041.6594234     
   43181423.0661459     
   43026528.5314191     
   42870360.4399952     
   42712922.4772139     
   42554219.6356103     
   42394258.2201755     
   42233045.8522249     
   42070591.4718323     
   41906905.3387922     
   41741999.0320691     
   41575885.4477030     
   41408578.7951370     
   41240094.5919415     
   41070449.6569085     
   40899662.1014984     
   40727751.3196233     
   40554737.9757567     
   40380643.9913637     
   40205492.5296543     
   40029307.9786615     
   39852115.9326562     
   39673943.1719117     
   39494817.6408313     
   39314768.4244572     
   39133825.7233662     
   38952020.8269601     
   38769386.0851325     
   38585954.8782770     
   38401761.5855610     
   38216841.5513426     
   38031231.0495344     
   37844967.2456339     
   37658088.1560138     
   37470632.6039260     
   37282640.1714847     
   37094151.1466807     
   36905206.4642234     
   36715847.6387307     
   36526116.6885018     
   36336056.0478818     
   36145708.4661865     
   35955116.8916847     
   35764324.3410648     
   35573373.7604556     
   35382307.8981523     
   35191169.2320699     
   35000000.0000000     
   50000000.0000000     
   49889489.3102355     
   49778954.0039604     
   49668358.1936274     
   49557665.7557927     
   49446840.3025424     
   49335845.2278368     
   49224643.7956921     
   49113199.2379879     
   49001474.8458172     
   48889434.0494066     
   48777040.4863684     
   48664258.0596562     
   48551050.9869984     
   48437383.8435393     
   48323221.5992098     
   48208529.6521093     
   48093273.8589461     
   47977420.5633636     
   47860936.6228037     
   47743789.4343955     
   47625946.9602316     
   47507377.7522984     
   47388050.9772337     
   47267936.4410337     
   47147004.6137780     
   47025226.6544075     
   46902574.4355646     
   46779020.5684845     
   46654538.4279194     
   46529102.1770597     
   46402686.7924192     
   46275268.0886438     
   46146822.7431984     
   46017328.3208932     
   45886763.2981996     
   45755107.0873170     
   45622340.0599400     
   45488443.5706849     
   45353399.9801289     
   45217192.6774164     
   45079806.1023858     
   44941225.7671727     
   44801438.2772415     
   44660431.3517968     
   44518193.8435305     
   44374715.7576521     
   44229988.2701564     
   44084003.7452803     
   43936755.7520946     
   43788239.0801865     
   43638449.7543788     
   43487385.0484393     
   43335043.4977273     
   43181424.9107294     
   43026530.3794360     
   42870362.2885081     
   42712924.3231888     
   42554221.4759120     
   42394260.0515618     
   42233047.6713413     
   42070593.2752064     
   41906907.1228277     
   41742000.7930388     
   41575887.1817420     
   41408580.4982339     
   41240096.2599290     
   41070451.2854519     
   40899663.6860817     
   40727752.8555325     
   40554739.4580586     
   40380645.4148807     
   40205493.8889319     
   40029309.2679285     
   39852117.1457764     
   39673944.3023228     
   39494818.6814734     
   39314769.3676851     
   39133826.5608489     
   38952021.5495642     
   38769386.6827943     
   38585955.3398671     
   38401761.8987517     
   38216841.7024924     
   38031231.0236176     
   37844967.0262492     
   37658087.7255299     
   37470631.9438416     
   37282639.2631131     
   37094149.9723121     
   36905205.0089692     
   36715845.8933220     
   36526114.6533948     
   36336053.7391062     
   36145705.9234575     
   35955114.1893572     
   35764321.6025427     
   35573371.1766262     
   35382305.7493049     
   35191167.9075200     
   35000000.0000000     
   50000000.0000000     
   49889488.1033114     
   49778952.0316119     
   49668355.8031810     
   49557663.2001512     
   49446837.7553068     
   49335842.8017897     
   49224641.5591355     
   49113197.2277958     
   49001473.0774210     
   48889432.5241954     
   48777039.1970156     
   48664256.9938491     
   48551050.1299740     
   48437383.1797492     
   48323221.1133638     
   48208529.3297858     
   48093273.6869075     
   47977420.5296777     
   47860936.7168423     
   47743789.6467596     
   47625947.2826392     
   47507378.1774548     
   47388051.4987015     
   47267937.0531077     
   47147005.3113732     
   47025227.4329593     
   46902575.2909430     
   46779021.4969210     
   46654539.4259453     
   46529103.2414548     
   46402687.9201688     
   46275269.2769030     
   46146823.9892624     
   46017329.6221713     
   45886764.6521946     
   45755108.4916060     
   45622341.5121586     
   45488445.0685131     
   45353401.5212781     
   45217194.2596180     
   45079807.7233806     
   44941227.4247012     
   44801439.9690349     
   44660433.0755684     
   44518195.5969675     
   44374717.5384084     
   44229990.0758454     
   44084005.5734674     
   43936757.6002916     
   43788240.9458444     
   43638451.6348826     
   43487386.9411016     
   43335045.3997829     
   43181426.8193297     
   43026532.2916435     
   42870364.2012914     
   42712926.2334170     
   42554223.3803495     
   42394261.9468631     
   42233049.5540451     
   42070595.1417301     
   41906908.9694610     
   41742002.6159374     
   41575888.9769192     
   41408582.2615533     
   41240097.9870939     
   41070452.9719934     
   40899665.3273449     
   40727754.4466585     
   40554740.9939637     
   40380646.8902289     
   40205495.2981013     
   40029310.6049704     
   39852118.4043629     
   39673945.4756844     
   39494819.7623217     
   39314770.3481212     
   39133827.4322557     
   38952022.3024835     
   38769387.3067895     
   38585955.8233788     
   38401762.2289546     
   38216841.8651709     
   38031231.0030861     
   37844966.8053565     
   37658087.2858071     
   37470631.2658749     
   37282638.3272597     
   37094148.7599192     
   36905203.5043138     
   36715844.0865608     
   36526112.5448960     
   36336051.3456263     
   36145703.2867076     
   35955111.3875370     
   35764318.7653721     
   35573368.5040831     
   35382303.5326660     
   35191166.5461804     
   35000000.0000000     
   50000000.0000000     
   49889486.8663373     
   49778950.0042957     
   49668353.3409039     
   49557660.5644305     
   49446835.1268781     
   49335840.2984006     
   49224639.2521004     
   49113195.1555369     
   49001471.2559194     
   48889430.9547530     
   48777037.8718438     
   48664255.8999788     
   48551049.2519101     
   48437382.5012105     
   48323220.6183706     
   48208529.0032935     
   48093273.5151311     
   47977420.5002140     
   47860936.8186633     
   47743789.8701310     
   47625947.6189989     
   47507378.6192754     
   47388052.0393510     
   47267937.6867182     
   47147006.0327222     
   47025228.2373645     
   46902576.1741723     
   46779022.4551159     
   46654540.4555564     
   46529104.3391882     
   46402689.0829416     
   46275270.5018057     
   46146825.2735286     
   46017330.9631510     
   45886766.0473327     
   45755109.9384226     
   45622343.0082333     
   45488446.6114696     
   45353403.1087719     
   45217195.8893240     
   45079809.3929829     
   44941229.1318831     
   44801441.7114690     
   44660434.8509087     
   44518197.4028409     
   44374719.3724069     
   44229991.9355187     
   44084007.4563164     
   43936759.5037608     
   43788242.8673166     
   43638453.5716718     
   43487388.8904475     
   43335047.3588450     
   43181428.7851818     
   43026534.2612682     
   42870366.1715746     
   42712928.2011426     
   42554225.3421937     
   42394263.8993896     
   42233051.4936987     
   42070597.0648317     
   41906910.8722004     
   41742004.4943671     
   41575890.8269468     
   41408584.0789327     
   41240099.7674150     
   41070454.7106706     
   40899667.0196020     
   40727756.0875112     
   40554742.5781968     
   40380648.4123687     
   40205496.7523809     
   40029311.9852861     
   39852119.7042205     
   39673946.6881328     
   39494820.8798723     
   39314771.3626514     
   39133828.3348954     
   38952023.0834844     
   38769387.9553802     
   38585956.3276110     
   38401762.5755501     
   38216842.0393869     
   38031230.9886276     
   37844966.5843754     
   37658086.8390504     
   37470630.5730688     
   37282637.3678527     
   37094147.5143528     
   36905201.9560503     
   36715842.2251721     
   36526110.3706059     
   36336048.8757935     
   36145700.5648156     
   35955108.4952699     
   35764315.8382176     
   35573365.7503234     
   35382301.2536123     
   35191165.1506207     
   35000000.0000000     
   50000000.0000000     
   49889485.6015454     
   49778947.9267082     
   49668350.8134471     
   49557657.8564541     
   49446832.4255573     
   49335837.7259398     
   49224636.8824847     
   49113193.0285235     
   49001469.3879173     
   48889429.3469201     
   48777036.5159163     
   48664254.7823452     
   48551048.3563735     
   48437381.8107960     
   48323220.1164519     
   48208528.6742465     
   48093273.3446661     
   47977420.4754963     
   47860936.9283024     
   47743790.1040909     
   47625947.9684681     
   47507379.0765208     
   47388052.5975709     
   47267938.3399046     
   47147006.7755351     
   47025229.0650225     
   46902577.0823578     
   46779023.4398957     
   46654541.5133145     
   46529105.4665701     
   46402690.2768082     
   46275271.7591948     
   46146826.5916230     
   46017332.3392520     
   45886767.4788370     
   45755111.4228033     
   45622344.5430227     
   45488448.1942447     
   45353404.7371409     
   45217197.5609146     
   45079811.1054311     
   44941230.8828233     
   44801443.4985244     
   44660436.6716827     
   44518199.2549086     
   44374721.2533072     
   44229993.8427473     
   44084009.3873180     
   43936761.4559228     
   43788244.8379624     
   43638455.5580546     
   43487390.8897440     
   43335049.3681501     
   43181430.8015023     
   43026536.2815176     
   42870368.1925673     
   42712930.2195889     
   42554227.3546942     
   42394265.9024293     
   42233053.4836419     
   42070599.0379156     
   41906912.8245291     
   41742006.4219049     
   41575892.7255098     
   41408585.9441809     
   41240101.5948417     
   41070456.4955901     
   40899668.7571349     
   40727757.7725659     
   40554744.2054464     
   40380649.9762225     
   40205498.2469485     
   40029313.4043322     
   39852121.0411088     
   39673947.9357569     
   39494822.0305717     
   39314772.4081102     
   39133829.2660229     
   38952023.8902780     
   38769388.6267728     
   38585956.8513072     
   38401762.9378639     
   38216842.2250981     
   38031230.9808842     
   37844966.3646872     
   37658086.3874369     
   37470629.8684515     
   37282636.3888222     
   37094146.2404851     
   36905200.3700137     
   36715840.3159423     
   36526108.1382004     
   36336046.3380362     
   36145697.7667175     
   35955105.5216079     
   35764312.8296636     
   35573362.9226646     
   35382298.9173010     
   35191163.7232701     
   35000000.0000000     
   50000000.0000000     
   49889484.3110728     
   49778945.8033965     
   49668348.2273395     
   49557655.0839939     
   49446829.6596566     
   49335835.0927259     
   49224634.4582478     
   49113190.8541256     
   49001467.4800651     
   48889427.7065675     
   48777035.1343101     
   48664253.6452463     
   48551047.4469161     
   48437381.1113529     
   48323219.6097962     
   48208528.3442207     
   48093273.1765198     
   47977420.4560053     
   47860937.0457515     
   47743790.3481769     
   47625948.3301614     
   47507379.5479107     
   47388053.1717116     
   47267939.0106698     
   47147007.5374879     
   47025229.9133003     
   46902578.0125744     
   46779024.4480585     
   46654542.5957548     
   46529106.6198858     
   46402691.4978161     
   46275273.0448912     
   46146827.9391510     
   46017333.7458738     
   45886768.9419117     
   45755112.9397658     
   45622346.1113678     
   45488449.8115115     
   45353406.4008993     
   45217199.2687536     
   45079812.8549472     
   44941232.6716107     
   44801445.3241655     
   44660438.5317388     
   44518201.1469120     
   44374723.1747528     
   44229995.7910851     
   44084011.3599462     
   43936763.4501808     
   43788246.8511238     
   43638457.5873213     
   43487392.9322403     
   43335051.4209158     
   43181432.8614882     
   43026538.3455788     
   42870370.2574586     
   42712932.2819584     
   42554229.4110785     
   42394267.9492475     
   42233055.5171904     
   42070601.0543616     
   41906914.8199049     
   41742008.3921003     
   41575894.6662652     
   41408587.8510777     
   41240103.4632925     
   41070458.3208263     
   40899670.5341913     
   40727759.4962621     
   40554745.8703634     
   40380651.5766731     
   40205499.7769402     
   40029314.8575209     
   39852122.4107406     
   39673949.2145965     
   39494823.2108147     
   39314773.4812777     
   39133830.2228369     
   38952024.7205178     
   38769389.3191144     
   38585957.3931511     
   38401763.3151639     
   38216842.4222068     
   38031230.9804470     
   37844966.1476299     
   37658085.9331102     
   37470629.1550314     
   37282635.3940948     
   37094144.9432037     
   36905198.7520749     
   36715838.3657133     
   36526105.8554265     
   36336043.7408589     
   36145694.9014123     
   35955102.4756241     
   35764309.7482414     
   35573360.0282896     
   35382296.5287223     
   35191162.2664502     
   35000000.0000000     
   50000000.0000000     
   49889482.9969867     
   49778943.6388004     
   49668345.5890268     
   49557652.2547959     
   49446826.8375147     
   49335832.4071318     
   49224631.9874108     
   49113188.6397683     
   49001465.5390549     
   48889426.0395904     
   48777033.7321096     
   48664252.4929730     
   48551046.5270696     
   48437380.4056989     
   48323219.1005549     
   48208528.0147495     
   48093273.0116541     
   47977420.4421745     
   47860937.1709555     
   47743790.6018808     
   47625948.7031492     
   47507380.0321227     
   47388053.7600829     
   47267939.6969789     
   47147008.3162208     
   47025230.7795319     
   46902578.9618663     
   46779025.4763735     
   46654543.6993855     
   46529107.7953952     
   46402692.7419888     
   46275274.3546933     
   46146829.3116962     
   46017335.1783960     
   45886770.4317411     
   45755114.4843095     
   45622347.7080916     
   45488451.4579254     
   45353408.0945439     
   45217201.0071875     
   45079814.6357363     
   44941234.4923177     
   44801447.1823402     
   44660440.4249094     
   44518203.0725762     
   44374725.1303701     
   44229997.7740694     
   44084013.3676579     
   43936765.4799203     
   43788248.9001247     
   43638459.6527442     
   43487395.0111661     
   43335053.5103406     
   43181434.9583167     
   43026540.4466190     
   42870372.3594161     
   42712934.3814314     
   42554231.5045512     
   42394270.0330859     
   42233057.5876355     
   42070603.1075243     
   41906916.8517589     
   41742010.3984758     
   41575896.6428411     
   41408589.7933726     
   41240105.3666545     
   41070460.1804203     
   40899672.3449840     
   40727761.2530028     
   40554747.5675600     
   40380653.2085620     
   40205501.3374487     
   40029316.3402187     
   39852123.8087806     
   39673950.5206405     
   39494824.4169425     
   39314774.5788781     
   39133831.2024777     
   38952025.5717966     
   38769390.0304901     
   38585957.9517645     
   38401763.7066559     
   38216842.6305554     
   38031230.9878521     
   37844965.9344923     
   37658085.4781750     
   37470628.4357898     
   37282634.3875860     
   37094143.6274039     
   36905197.1081333     
   36715836.3813769     
   36526103.5300987     
   36336041.0928428     
   36145691.9779682     
   35955099.3664284     
   35764306.6024601     
   35573357.0742912     
   35382294.0927466     
   35191160.7824051     
   35000000.0000000     
   50000000.0000000     
   49889481.6613075     
   49778941.4372912     
   49668342.9049090     
   49557649.3766082     
   49446823.9675114     
   49335829.6775917     
   49224629.4780571     
   49113186.3929290     
   49001463.5716146     
   48889424.3519027     
   48777032.3144010     
   48664251.3298026     
   48551045.6003405     
   48437379.6966165     
   48323218.5908374     
   48208527.6873204     
   48093272.8509825     
   47977420.4343882     
   47860937.3038098     
   47743790.8646460     
   47625949.0864553     
   47507380.5277898     
   47388054.3609527     
   47267940.3967575     
   47147009.1093375     
   47025231.6610168     
   46902579.9272453     
   46779026.5215798     
   46654544.8206866     
   46529108.9893316     
   46402694.0053252     
   46275275.6843760     
   46146830.7048203     
   46017336.6321767     
   45886771.9434899     
   45755116.0514140     
   45622349.3279980     
   45488453.1281236     
   45353409.8125534     
   45217202.7705455     
   45079816.4419863     
   44941236.3389992     
   44801449.0669792     
   44660442.3450090     
   44518205.0256086     
   44374727.1137684     
   44229999.7852195     
   44084015.4038919     
   43936767.5385088     
   43788250.9782706     
   43638461.7475762     
   43487397.1197324     
   43335055.6296028     
   43181437.0851444     
   43026542.5777838     
   42870374.4915860     
   42712936.5111654     
   42554233.6282940     
   42394272.1471619     
   42233059.6882436     
   42070605.1907317     
   41906918.9134950     
   41742012.4345253     
   41575898.6488360     
   41408591.7647840     
   41240107.2987819     
   41070462.0683790     
   40899674.1836899     
   40727763.0371529     
   40554749.2916083     
   40380654.8666888     
   40205502.9235219     
   40029317.8477449     
   39852125.2308434     
   39673951.8498247     
   39494825.6452407     
   39314775.6975770     
   39133832.2020247     
   38952026.4416438     
   38769390.7589204     
   38585958.5257032     
   38401764.1114804     
   38216842.8499229     
   38031231.0035749     
   37844965.7265096     
   37658085.0246904     
   37470627.7136751     
   37282633.3731935     
   37094142.2979818     
   36905195.4441103     
   36715834.3698685     
   36526101.1700951     
   36336038.4026463     
   36145689.0055303     
   35955096.2031858     
   35764303.4008377     
   35573354.0677160     
   35382291.6141703     
   35191159.2733277     
   35000000.0000000     
   50000000.0000000     
   49889480.3060307     
   49778939.2032090     
   49668340.1813800     
   49557646.4572090     
   49446821.0580853     
   49335826.9126083     
   49224626.9383337     
   49113184.1211346     
   49001461.5845033     
   48889422.6494305     
   48777030.8862655     
   48664250.1599931     
   48551044.6702038     
   48437378.9868479     
   48323218.0827070     
   48208527.3633701     
   48093272.6953660     
   47977420.4329776     
   47860937.4441579     
   47743791.1358653     
   47625949.4790551     
   47507381.0334994     
   47388054.9725458     
   47267941.1078904     
   47147009.9144033     
   47025232.5550190     
   46902580.9056901     
   46779027.5803856     
   46654545.9561090     
   46529110.1979017     
   46402695.2837982     
   46275277.0296902     
   46146832.1140621     
   46017338.1025524     
   45886773.4723014     
   45755117.6360388     
   45622350.9658718     
   45488454.8167244     
   45353411.5493885     
   45217204.5531388     
   45079818.2678673     
   44941238.2056926     
   44801450.9719955     
   44660444.2858352     
   44518206.9996994     
   44374729.1185390     
   44230001.8180370     
   44084017.4620687     
   43936769.6192950     
   43788253.0788478     
   43638463.8650508     
   43487399.2511296     
   43335057.7718603     
   43181439.2351069     
   43026544.7321970     
   42870376.6470916     
   42712938.6642950     
   42554235.7754641     
   42394274.2846680     
   42233061.8122550     
   42070607.2972852     
   41906920.9984891     
   41742014.4937130     
   41575900.6778177     
   41408593.7589984     
   41240109.2534955     
   41070463.9786741     
   40899676.0444486     
   40727764.8430381     
   40554751.0370389     
   40380656.5458091     
   40205504.5301616     
   40029319.3753697     
   39852126.6724919     
   39673953.1980308     
   39494826.8919373     
   39314776.8339795     
   39133833.2184936     
   38952027.3275232     
   38769391.5023577     
   38585959.1134535     
   38401764.5287082     
   38216843.0800196     
   38031231.0280259     
   37844965.5248568     
   37658084.5746637     
   37470626.9915950     
   37282632.3547894     
   37094140.9598264     
   36905193.7659414     
   36715832.3381612     
   36526098.7833543     
   36336035.6790057     
   36145685.9933287     
   35955092.9951356     
   35764300.1519342     
   35573351.0156096     
   35382289.0977592     
   35191157.7413848     
   35000000.0000000     
   50000000.0000000     
   49889478.9331473     
   49778936.9408998     
   49668337.4248647     
   49557643.5044367     
   49446818.1177511     
   49335824.1207610     
   49224624.3764523     
   49113181.8319578     
   49001459.5845061     
   48889420.9381061     
   48777029.4527730     
   48664248.9877762     
   48551043.7400973     
   48437378.2790900     
   48323217.5781756     
   48208527.0442812     
   48093272.5456095     
   47977420.4382179     
   47860937.5917883     
   47743791.4148786     
   47625949.8798736     
   47507381.5477906     
   47388055.5930418     
   47267941.8282204     
   47147010.7289443     
   47025233.4587657     
   46902581.8941451     
   46779028.6494672     
   46654547.1020742     
   46529111.4172838     
   46402696.5733550     
   46275278.3863620     
   46146833.5349370     
   46017339.5848371     
   45886775.0132979     
   45755119.2331233     
   45622352.6164777     
   45488456.5183268     
   45353413.2994906     
   45217206.3492597     
   45079820.1075309     
   44941240.0864173     
   44801452.8912842     
   44660446.2411668     
   44518208.9885204     
   44374731.1382547     
   44230003.8660049     
   44084019.5355899     
   43936771.7156086     
   43788255.1951232     
   43638465.9983817     
   43487401.3985280     
   43335059.9302500     
   43181441.4013180     
   43026546.9029606     
   42870378.8190334     
   42712940.8339310     
   42554237.9391941     
   42394276.4387711     
   42233063.9528833     
   42070609.4204583     
   41906923.1000881     
   41742016.5694736     
   41575902.7233227     
   41408595.7696691     
   41240111.2245816     
   41070465.9052409     
   40899677.9213616     
   40727766.6649439     
   40554752.7983403     
   40380658.2406339     
   40205506.1523223     
   40029320.9183133     
   39852128.1292360     
   39673954.5610839     
   39494828.1532007     
   39314777.9846283     
   39133834.2488346     
   38952028.2268298     
   38769392.2586833     
   38585959.7134291     
   38401764.9573364     
   38216843.3204831     
   38031231.0615448     
   37844965.3306430     
   37658084.1300439     
   37470626.2724098     
   37282631.3362128     
   37094139.6178115     
   36905192.0795688     
   36715830.2932591     
   36526096.3778709     
   36336032.9307366     
   36145682.9506880     
   35955089.7516124     
   35764296.8643863     
   35573347.9250602     
   35382286.5482906     
   35191156.1887410     
   35000000.0000000     
   50000000.0000000     
   49889477.5446639     
   49778934.6547514     
   49668334.6418590     
   49557640.5262203     
   49446815.1551189     
   49335821.3107142     
   49224621.8006906     
   49113179.5330148     
   49001457.5784283     
   48889419.2238607     
   48777028.0189749     
   48664247.8173513     
   48551042.8134152     
   48437377.5759882     
   48323217.0791989     
   48208526.7313770     
   48093272.4024583     
   47977420.4503253     
   47860937.7464320     
   47743791.7009703     
   47625950.2877828     
   47507382.0691530     
   47388056.2205736     
   47267942.5555468     
   47147011.5504459     
   47025234.3694463     
   46902582.8895197     
   46779029.7254679     
   46654548.2549726     
   46529112.6436275     
   46402697.8699155     
   46275279.7500921     
   46146834.9629360     
   46017341.0743221     
   45886776.5615794     
   45755120.8375855     
   45622354.2745601     
   45488458.2275100     
   45353415.0572820     
   45217208.1531818     
   45079821.9551101     
   44941241.9751736     
   44801454.8187216     
   44660448.2047647     
   44518210.9857246     
   44374733.1664698     
   44230005.9225868     
   44084021.6178381     
   43936773.8207596     
   43788257.3203437     
   43638468.1407621     
   43487403.5550766     
   43335062.0978870     
   43181443.5768694     
   43026549.0831529     
   42870381.0004883     
   42712943.0131594     
   42554240.1125916     
   42394278.6026118     
   42233066.1033149     
   42070611.5534963     
   41906925.2116094     
   41742018.6552104     
   41575904.7788550     
   41408597.7904158     
   41240113.2057907     
   41070467.8419773     
   40899679.8084913     
   40727768.4971147     
   40554754.5699573     
   40380659.9458278     
   40205507.7849095     
   40029322.4717441     
   39852129.5965306     
   39673955.9347511     
   39494829.4251381     
   39314779.1460010     
   39133835.2899296     
   38952029.1368872     
   38769393.0257042     
   38585960.3239675     
   38401765.3962846     
   38216843.5708730     
   38031231.1043955     
   37844965.1449051     
   37658083.6927148     
   37470625.5589243     
   37282630.3212607     
   37094138.2767873     
   36905190.3909331     
   36715828.2421902     
   36526093.9616921     
   36336030.1667350     
   36145679.8870372     
   35955086.4820675     
   35764293.5469426     
   35573344.8032451     
   35382283.9705953     
   35191154.6175817     
   35000000.0000000     
   50000000.0000000     
   49889476.1426232     
   49778932.3492301     
   49668331.8389690     
   49557637.5306107     
   49446812.1789129     
   49335818.4912261     
   49224619.2193935     
   49113177.2319614     
   49001455.5730891     
   48889417.5126182     
   48777026.5898967     
   48664246.6528775     
   48551041.8935012     
   48437376.8801307     
   48323216.5876709     
   48208526.4259176     
   48093272.2665937     
   47977420.4694533     
   47860937.9077590     
   47743791.9933672     
   47625950.7016001     
   47507382.5960247     
   47388056.8532263     
   47267943.2876238     
   47147012.3763516     
   47025235.2842114     
   46902583.8886870     
   46779030.8049975     
   46654549.4111634     
   46529113.8730530     
   46402699.1693718     
   46275281.1165548     
   46146836.3935256     
   46017342.5662749     
   45886778.1122236     
   45755122.4443215     
   45622355.9348424     
   45488459.9388326     
   45353416.8171649     
   45217209.9591590     
   45079823.8047185     
   44941243.8659429     
   44801456.7481652     
   44660450.1703702     
   44518212.9849461     
   44374735.1967194     
   44230007.9812273     
   44084023.7021759     
   43936775.9280379     
   43788259.4477354     
   43638470.2853641     
   43487405.7139033     
   43335064.2678645     
   43181445.7548301     
   43026551.2658295     
   42870383.1845087     
   42712945.1950415     
   42554242.2887377     
   42394280.7693037     
   42233068.2567082     
   42070613.6896150     
   41906927.3263400     
   41742020.7442954     
   41575906.8378854     
   41408599.8148233     
   41240115.1908373     
   41070469.7827431     
   40899681.6998595     
   40727770.3337521     
   40554756.3462896     
   40380661.6560083     
   40205509.4227785     
   40029324.0307774     
   39852131.0697743     
   39673957.3147397     
   39494830.7037934     
   39314780.3145082     
   39133836.3385899     
   38952030.0549449     
   38769393.8011503     
   38585960.9433256     
   38401765.8443904     
   38216843.8306666     
   38031231.1567603     
   37844964.9686022     
   37658083.2644873     
   37470624.8538799     
   37282629.3136806     
   37094136.9415712     
   36905188.7059649     
   36715826.1919998     
   36526091.5429131     
   36336027.3959787     
   36145676.8119187     
   35955083.1960910     
   35764290.2085005     
   35573341.6574755     
   35382281.3696008     
   35191153.0301368     
   35000000.0000000     
   50000000.0000000     
   49889474.7291249     
   49778930.0289186     
   49668329.0229523     
   49557634.5258136     
   49446809.1979915     
   49335815.6711573     
   49224616.6409739     
   49113174.9364894     
   49001453.5753157     
   48889415.8102868     
   48777025.1705302     
   48664245.4984668     
   48551040.9836424     
   48437376.1940422     
   48323216.1054192     
   48208526.1290949     
   48093272.1386298     
   47977420.4956891     
   47860938.0753762     
   47743792.2912354     
   47625951.1200859     
   47507383.1267903     
   47388057.4890346     
   47267944.0221594     
   47147013.2040622     
   47025236.2001716     
   46902584.8884828     
   46779031.8846310     
   46654550.5669732     
   46529115.1016504     
   46402700.4675879     
   46275282.4813980     
   46146837.8221468     
   46017344.0559389     
   45886779.6602851     
   45755124.0482054     
   45622357.5920265     
   45488461.6468325     
   45353418.5735213     
   45217211.7614252     
   45079825.6504499     
   44941245.7526871     
   44801458.6734527     
   44660452.1317054     
   44518214.9797991     
   44374737.2225183     
   44230010.0353507     
   44084025.7819457     
   43936778.0307126     
   43788261.5705036     
   43638472.4253382     
   43487407.8681134     
   43335066.4332529     
   43181447.9282454     
   43026553.4440213     
   42870385.3641223     
   42712947.3726124     
   42554244.4606872     
   42394282.9319328     
   42233070.4061928     
   42070615.8220006     
   41906929.4375358     
   41742022.8300676     
   41575908.8938510     
   41408601.8364409     
   41240117.1733983     
   41070471.7213589     
   40899683.5894471     
   40727772.1690143     
   40554758.1216911     
   40380663.3657441     
   40205511.0607331     
   40029325.5904738     
   39852132.5443078     
   39673958.6966956     
   39494831.9851450     
   39314781.4864915     
   39133837.3915538     
   38952030.9781753     
   38769394.5826706     
   38585961.5696770     
   38401766.3004051     
   38216844.0992536     
   38031231.2187340     
   37844964.8026076     
   37658082.8470928     
   37470624.1599468     
   37282628.3171605     
   37094135.6169391     
   36905187.0305749     
   36715824.1497422     
   36526089.1296724     
   36336024.6275278     
   36145673.7349990     
   35955079.9034351     
   35764286.8581432     
   35573338.4952457     
   35382278.7503745     
   35191151.4287052     
   35000000.0000000     
   50000000.0000000     
   49889473.3063473     
   49778927.6985554     
   49668326.2007599     
   49557631.5202214     
   49446806.2213668     
   49335812.8594792     
   49224614.0739134     
   49113172.6543219     
   49001451.5919364     
   48889414.1227516     
   48777023.7658256     
   48664244.3581760     
   48551040.0870614     
   48437375.5201781     
   48323215.6341986     
   48208525.8420279     
   48093272.0191085     
   47977420.5290510     
   47860938.2488243     
   47743792.5936784     
   47625951.5419417     
   47507383.6597796     
   47388058.1259825     
   47267944.7568139     
   47147014.0309339     
   47025237.1143962     
   46902585.8857050     
   46779032.9609080     
   46654551.7186959     
   46529116.3254788     
   46402701.7603984     
   46275283.8402419     
   46146839.2442146     
   46017345.5385326     
   45886781.2007946     
   45755125.6440885     
   45622359.2407922     
   45488463.3460263     
   45353420.3207120     
   45217213.5541937     
   45079827.4863781     
   44941247.6293483     
   44801460.5884023     
   44660454.0824724     
   44518216.9638781     
   44374739.2373616     
   44230012.0783609     
   44084027.8504691     
   43936780.1220319     
   43788263.6818319     
   43638474.5538129     
   43487410.0107900     
   43335068.5870995     
   43181450.0901370     
   43026555.6107349     
   42870387.5323312     
   42712949.5388814     
   42554246.6214674     
   42394285.0835566     
   42233072.5448689     
   42070617.9438086     
   41906931.5384205     
   41742024.9058330     
   41575910.9401536     
   41408603.8487816     
   41240119.1471124     
   41070473.6516052     
   40899685.4711924     
   40727773.9970150     
   40554759.8904686     
   40380665.0695539     
   40205512.6935245     
   40029327.1458378     
   39852134.0154120     
   39673960.0762015     
   39494833.2651044     
   39314782.6582212     
   39133838.4454840     
   38952031.9036715     
   38769395.3678305     
   38585962.2011076     
   38401766.7629900     
   38216844.3759312     
   38031231.2903187     
   37844964.6477036     
   37658082.4421746     
   37470623.4797147     
   37282627.3353198     
   37094134.3076152     
   36905185.3706458     
   36715822.1224725     
   36526086.7301467     
   36336021.8705250     
   36145670.6660775     
   35955076.6140361     
   35764283.5051783     
   35573335.3242811     
   35382276.1181704     
   35191149.8156800     
   35000000.0000000     
   50000000.0000000     
   49889471.8765712     
   49778925.3630768     
   49668323.3795809     
   49557628.5224478     
   49446803.2582239     
   49335810.0652813     
   49224611.5267620     
   49113170.3932092     
   49001449.6297729     
   48889412.4558661     
   48777022.3806831     
   48664243.2359990     
   48551039.2069096     
   48437374.8609174     
   48323215.1756862     
   48208525.5657579     
   48093271.9084960     
   47977420.5694839     
   47860938.4275743     
   47743792.8997344     
   47625951.9658078     
   47507384.1932651     
   47388058.7620006     
   47267945.4891984     
   47147014.8542776     
   47025238.0239127     
   46902586.8771124     
   46779034.0303319     
   46654552.8625913     
   46529117.5405653     
   46402703.0436085     
   46275285.1886787     
   46146840.6551175     
   46017347.0092497     
   45886782.7287589     
   45755127.2267991     
   45622360.8757971     
   45488465.0309086     
   45353422.0530770     
   45217215.3316571     
   45079829.3065560     
   44941249.4898476     
   44801462.4868113     
   44660456.0163529     
   44518218.9307570     
   44374741.2347236     
   44230014.1036412     
   44084029.9010466     
   43936782.1952223     
   43788265.7748822     
   43638476.6638943     
   43487412.1349929     
   43335070.7224276     
   43181452.2335022     
   43026557.7589517     
   42870389.6821117     
   42712951.6868306     
   42554248.7640779     
   42394287.2172040     
   42233074.6658067     
   42070620.0481632     
   41906933.6221855     
   41742026.9648637     
   41575912.9701599     
   41408605.8453207     
   41240121.1055792     
   41070475.5672212     
   40899687.3389907     
   40727775.8118222     
   40554761.6468808     
   40380666.7619058     
   40205514.3158495     
   40029328.6918167     
   39852135.4783073     
   39673961.4487750     
   39494834.5395139     
   39314783.8258943     
   39133839.4969654     
   38952032.8284437     
   38769396.1541086     
   38585962.8356123     
   38401767.2307109     
   38216844.6598987     
   38031231.3714169     
   37844964.5045733     
   37658082.0512809     
   37470622.8156843     
   37282626.3717000     
   37094133.0182614     
   36905183.7320210     
   36715820.1172380     
   36526084.3525449     
   36336019.1341951     
   36145667.6150958     
   35955073.3380376     
   35764280.1591772     
   35573332.1525907     
   35382273.4784778     
   35191148.1935760     
   35000000.0000000     
   50000000.0000000     
   49889470.4422060     
   49778923.0276622     
   49668320.5668885     
   49557625.5413614     
   49446800.3179402     
   49335807.2977789     
   49224609.0081373     
   49113168.1609223     
   49001447.6956330     
   48889410.8154432     
   48777021.0199433     
   48664242.1358578     
   48551038.3462592     
   48437374.2185561     
   48323214.7314750     
   48208525.3012434     
   48093271.8071785     
   47977420.6168565     
   47860938.6110252     
   47743793.2083739     
   47625952.3902615     
   47507384.7254610     
   47388059.3949656     
   47267946.2168741     
   47147015.6713579     
   47025238.9257056     
   46902587.8594236     
   46779035.0893688     
   46654553.9948845     
   46529118.7429050     
   46402704.3129928     
   46275286.5222719     
   46146842.0502169     
   46017348.4632576     
   45886784.2391600     
   45755128.7911412     
   45622362.4916757     
   45488466.6959519     
   45353423.7649340     
   45217217.0879864     
   45079831.1050156     
   44941251.3280854     
   44801464.3624565     
   44660457.9270076     
   44518220.8739887     
   44374743.2080575     
   44230016.1045533     
   44084031.9269569     
   43936784.2434884     
   43788267.8427933     
   43638478.7486653     
   43487414.2337583     
   43335072.8322367     
   43181454.3513132     
   43026559.8816272     
   42870391.8064134     
   42712953.8094144     
   42554250.8814896     
   42394289.3258740     
   42233076.7620455     
   42070622.1281565     
   41906935.6819887     
   41742029.0003964     
   41575914.9771999     
   41408607.8194957     
   41240123.0423585     
   41070477.4619040     
   40899689.1866929     
   40727777.6074572     
   40554763.3851370     
   40380668.4372154     
   40205515.9223498     
   40029330.2232989     
   39852136.9281514     
   39673962.8098675     
   39494835.8041452     
   39314784.9856323     
   39133840.5425026     
   38952033.7494172     
   38769396.9388930     
   38585963.4710909     
   38401767.7020345     
   38216844.9502526     
   38031231.4618261     
   37844964.3737944     
   37658081.6758558     
   37470622.1702580     
   37282625.4297540     
   37094131.7534673     
   36905182.1204943     
   36715818.1410684     
   36526082.0051008     
   36336016.4278442     
   36145664.5921456     
   35955070.0858122     
   35764276.8300144     
   35573328.9885209     
   35382270.8370740     
   35191146.5650603     
   35000000.0000000     
   50000000.0000000     
   49889469.0058184     
   49778920.6977839     
   49668317.7704891     
   49557622.5861205     
   49446797.4101037     
   49335804.5663190     
   49224606.5267227     
   49113165.9652473     
   49001445.7963011     
   48889409.2072458     
   48777019.6883788     
   48664241.0615945     
   48551037.5080953     
   48437373.5953007     
   48323214.3030683     
   48208525.0493554     
   48093271.7154576     
   47977420.6709573     
   47860938.7985006     
   47743793.5184971     
   47625952.8138147     
   47507385.2545207     
   47388060.0226982     
   47267946.9373503     
   47147016.4793916     
   47025239.8167152     
   46902588.8293168     
   46779036.1344472     
   46654555.1117657     
   46529119.9284600     
   46402705.5642949     
   46275287.8365562     
   46146843.4248466     
   46017349.8956976     
   45886785.7269545     
   45755130.3318951     
   45622364.0830390     
   45488468.3356057     
   45353425.4505788     
   45217218.8173308     
   45079832.8757673     
   44941253.1379408     
   44801466.2090933     
   44660459.8080763     
   44518222.7871049     
   44374745.1507950     
   44230018.0744371     
   44084033.9214566     
   43936786.2600122     
   43788269.8786817     
   43638480.8011853     
   43487416.3000984     
   43335074.9095010     
   43181456.4365168     
   43026561.9716908     
   42870393.8981586     
   42712955.8995595     
   42554252.9666444     
   42394291.4025354     
   42233078.8265932     
   42070624.1768478     
   41906937.7109539     
   41742031.0056329     
   41575916.9545664     
   41408609.7647050     
   41240124.9509689     
   41070479.3293082     
   40899691.0081047     
   40727779.3778939     
   40554765.0993961     
   40380670.0898453     
   40205517.5076107     
   40029331.7351129     
   39852138.3600379     
   39673964.1548621     
   39494837.0546972     
   39314786.1334792     
   39133841.5785177     
   38952034.6634293     
   38769397.7194786     
   38585964.1053443     
   38401768.1753237     
   38216845.2459814     
   38031231.5612322     
   37844964.2558314     
   37658081.3172312     
   37470621.5457303     
   37282624.5128362     
   37094130.5177389     
   36905180.5417987     
   36715816.2009654     
   36526079.6960663     
   36336013.7608569     
   36145661.6074753     
   35955066.8679833     
   35764273.5279080     
   35573325.8408123     
   35382268.2000825     
   35191144.9329861     
   35000000.0000000     
   50000000.0000000     
   49889467.5701657     
   49778918.3792609     
   49668314.9985738     
   49557619.6662073     
   49446794.5445305     
   49335801.8803848     
   49224604.0912645     
   49113163.8139782     
   49001443.9385297     
   48889407.6369769     
   48777018.3906837     
   48664240.0169616     
   48551036.6953080     
   48437372.9932603     
   48323213.8918735     
   48208524.8108715     
   48093271.6335465     
   47977420.7314910     
   47860938.9892459     
   47743793.8289312     
   47625953.2349120     
   47507385.7785358     
   47388060.6429617     
   47267947.6480838     
   47147017.2755467     
   47025240.6938368     
   46902589.7834284     
   46779037.1619565     
   46654556.2093888     
   46529121.0931586     
   46402706.7932270     
   46275289.1270359     
   46146844.7743119     
   46017351.3016840     
   45886787.1870735     
   45755131.8438161     
   45622365.6444741     
   45488469.9442963     
   45353427.1042842     
   45217220.5138175     
   45079834.6127992     
   44941254.9132710     
   44801468.0204554     
   44660461.6531766     
   44518224.6636152     
   44374747.0563458     
   44230020.0066103     
   44084035.8777800     
   43936788.2379527     
   43788271.8756400     
   43638482.8144900     
   43487418.3270008     
   43335076.9471699     
   43181458.4820336     
   43026564.0220447     
   42870395.9502420     
   42712957.9501635     
   42554255.0124543     
   42394293.4401264     
   42233080.8524258     
   42070626.1872634     
   41906939.7021700     
   41742032.9737383     
   41575918.8955144     
   41408611.6743074     
   41240126.8248874     
   41070481.1630442     
   40899692.7969858     
   40727781.1170573     
   40554766.7837658     
   40380671.7141034     
   40205519.0661597     
   40029333.2220256     
   39852139.7689953     
   39673965.4790722     
   39494838.2867944     
   39314787.2653996     
   39133842.6013476     
   38952035.5672262     
   38769398.4930635     
   38585964.7360710     
   38401768.6488328     
   38216845.5459597     
   38031231.6692032     
   37844964.1510282     
   37658080.9766184     
   37470620.9442781     
   37282623.6241907     
   37094129.3154861     
   36905179.0015939     
   36715814.3038914     
   36526077.4337020     
   36336011.1426926     
   36145658.6714958     
   35955063.6954446     
   35764270.2634601     
   35573322.7186607     
   35382265.5740367     
   35191143.3004309     
   35000000.0000000     
   50000000.0000000     
   49889466.1382333     
   49778916.0783203     
   49668312.2597734     
   49557616.7914630     
   49446791.7312797     
   49335799.2495996     
   49224601.7105678     
   49113161.7149080     
   49001442.1290287     
   48889406.1102690     
   48777017.1314640     
   48664239.0056128     
   48551035.9106839     
   48437372.4144402     
   48323213.4991959     
   48208524.5864716     
   48093271.5615652     
   47977420.7980753     
   47860939.1824253     
   47743794.1384287     
   47625953.6519285     
   47507386.2955338     
   47388061.2534607     
   47267948.3464769     
   47147018.0569416     
   47025241.5539200     
   46902590.7183522     
   46779038.1682472     
   46654557.2838711     
   46529122.2328948     
   46402707.9954689     
   46275290.3891855     
   46146846.0938896     
   46017352.6763038     
   45886788.6144219     
   45755133.3216344     
   45622367.1705438     
   45488471.5164266     
   45353428.7203001     
   45217222.1715504     
   45079836.3100775     
   44941256.6479111     
   44801469.7902545     
   44660463.4559043     
   44518226.4970074     
   44374748.9180970     
   44230021.8943681     
   44084037.7891381     
   43936790.1704457     
   43788273.8267372     
   43638484.7815904     
   43487420.3074279     
   43335078.9381668     
   43181460.4807578     
   43026566.0255641     
   42870397.9555300     
   42712959.9540950     
   42554257.0118012     
   42394295.4315533     
   42233082.8324862     
   42070628.1523951     
   41906941.6486908     
   41742034.8978405     
   41575920.7932600     
   41408613.5416211     
   41240128.6575487     
   41070482.9566780     
   40899694.5470490     
   40727782.8188229     
   40554768.4323013     
   40380673.3042425     
   40205520.5924652     
   40029334.6787416     
   39852141.1499854     
   39673966.7777402     
   39494839.4959853     
   39314788.3772765     
   39133843.6072423     
   38952036.4574612     
   38769399.2567462     
   38585965.3608628     
   38401769.1207035     
   38216845.8489430     
   38031231.7851828     
   37844964.0596007     
   37658080.6550990     
   37470620.3679507     
   37282622.7669409     
   37094128.1510114     
   36905177.5054547     
   36715812.4567577     
   36526075.2262674     
   36336008.5828807     
   36145655.7947840     
   35955060.5793784     
   35764267.0476970     
   35573319.6317811     
   35382262.9659508     
   35191141.6707411     
   35000000.0000000     
   50000000.0000000     
   49889464.7132788     
   49778913.8016657     
   49668309.5632162     
   49557613.9721206     
   49446788.9806686     
   49335796.6837278     
   49224599.3934910     
   49113159.6758199     
   49001440.3744550     
   48889404.6326729     
   48777015.9152261     
   48664238.0310935     
   48551035.1568974     
   48437371.8607337     
   48323213.1262320     
   48208524.3767317     
   48093271.4995364     
   47977420.8702371     
   47860939.3771188     
   47743794.4456638     
   47625954.0631682     
   47507386.8034768     
   47388061.8518397     
   47267949.0298773     
   47147018.8206439     
   47025242.3937671     
   46902591.6306390     
   46779039.1496295     
   46654558.3312925     
   46529123.3435280     
   46402709.1666679     
   46275291.6184482     
   46146847.3788272     
   46017354.0146162     
   45886790.0038779     
   45755134.7600544     
   45622368.6557861     
   45488473.0463749     
   45353430.2928528     
   45217223.7846109     
   45079837.9615451     
   44941258.3356736     
   44801471.5121794     
   44660465.2098326     
   44518228.2807462     
   44374750.7294133     
   44230023.7309824     
   44084039.6487186     
   43936792.0506028     
   43788275.7250176     
   43638486.6954727     
   43487422.2343167     
   43335080.8753887     
   43181462.4255567     
   43026567.9750962     
   42870399.9068603     
   42712961.9041927     
   42554258.9575358     
   42394297.3696907     
   42233084.7596843     
   42070630.0652004     
   41906943.5435334     
   41742036.7710300     
   41575922.6409799     
   41408615.3599229     
   41240130.4423441     
   41070484.7037298     
   40899696.2519590     
   40727784.4770158     
   40554770.0390045     
   40380674.8544585     
   40205522.0809358     
   40029336.0999015     
   39852142.4979017     
   39673968.0460354     
   39494840.6777402     
   39314789.4649093     
   39133844.5923618     
   38952037.3306912     
   38769400.0075218     
   38585965.9772016     
   38401769.5889599     
   38216846.1535624     
   38031231.9084841     
   37844963.9816288     
   37658080.3536157     
   37470619.8186588     
   37282621.9440770     
   37094127.0284962     
   36905176.0588561     
   36715810.6664110     
   36526073.0820098     
   36336006.0910137     
   36145652.9880845     
   35955057.5312720     
   35764263.8921083     
   35573316.5904750     
   35382260.3834004     
   35191140.0475837     
   35000000.0000000     
   50000000.0000000     
   49889463.2988847     
   49778911.5565540     
   49668306.9185890     
   49557611.2188384     
   49446786.3032834     
   49335794.1926747     
   49224597.1489384     
   49113157.7044768     
   49001438.6814001     
   48889403.2096457     
   48777014.7463662     
   48664237.0968302     
   48551034.4365017     
   48437371.3339150     
   48323212.7740639     
   48208524.1821193     
   48093271.4473806     
   47977420.9474084     
   47860939.5723192     
   47743794.7492314     
   47625954.4668613     
   47507387.3002596     
   47388062.4356818     
   47267949.6955758     
   47147019.5636693     
   47025243.2101334     
   46902592.5167954     
   46779040.1023727     
   46654559.3476952     
   46529124.4208817     
   46402710.3024379     
   46275292.8102361     
   46146848.6243424     
   46017355.3116521     
   45886791.3502926     
   45755136.1537547     
   45622370.0947139     
   45488474.5284955     
   45353431.8161447     
   45217225.3470564     
   45079839.5611222     
   44941259.9703478     
   44801473.1798964     
   44660466.9085118     
   44518230.0082737     
   44374752.4836358     
   44230025.5097017     
   44084041.4496855     
   43936793.8715115     
   43788277.5635011     
   43638488.5490975     
   43487424.1005781     
   43335082.7517062     
   43181464.3092697     
   43026569.8634597     
   42870401.7970410     
   42712963.7932649     
   42554260.8424776     
   42394299.2473801     
   42233086.6268960     
   42070631.9186012     
   41906945.3796784     
   41742038.5863587     
   41575924.4318107     
   41408617.1224476     
   41240132.1726207     
   41070486.3976738     
   40899697.9053318     
   40727786.0854096     
   40554771.5978229     
   40380676.3588898     
   40205523.5259189     
   40029337.4800809     
   39852143.8075685     
   39673969.2790532     
   39494841.8274501     
   39314790.5240123     
   39133845.5527747     
   38952038.1833745     
   38769400.7422796     
   38585966.5824550     
   38401770.0515037     
   38216846.4583191     
   38031232.0382824     
   37844963.9170487     
   37658080.0729636     
   37470619.2981644     
   37282621.1584441     
   37094125.9519877     
   36905174.6671603     
   36715808.9396195     
   36526071.0091516     
   36336003.6767383     
   36145650.2623084     
   35955054.5629308     
   35764260.8086853     
   35573313.6057028     
   35382257.8346126     
   35191138.4350073     
   35000000.0000000     
   50000000.0000000     
   49889461.8990207     
   49778909.3508838     
   49668304.3362014     
   49557608.5427297     
   49446783.7099884     
   49335791.7864840     
   49224594.9858517     
   49113155.8086093     
   49001437.0563778     
   48889401.8465383     
   48777013.6291585     
   48664236.2061202     
   48551033.7519201     
   48437370.8356311     
   48323212.4436518     
   48208524.0029873     
   48093271.4049124     
   47977421.0289235     
   47860939.7669290     
   47743795.0476434     
   47625954.8611631     
   47507387.7837083     
   47388063.0025071     
   47267950.3408060     
   47147020.2829811     
   47025243.9997253     
   46902593.3732834     
   46779041.0227047     
   46654560.3290825     
   46529125.4607440     
   46402711.3983589     
   46275293.9599294     
   46146849.8256228     
   46017356.5624136     
   45886792.6484896     
   45755137.4973872     
   45622371.4818143     
   45488475.9571175     
   45353433.2843537     
   45217226.8529208     
   45079841.1027050     
   44941261.5456996     
   44801474.7870482     
   44660468.5454686     
   44518231.6730081     
   44374754.1740821     
   44230027.2237506     
   44084043.1851781     
   43936795.6262347     
   43788279.3351822     
   43638490.3353999     
   43487425.8990965     
   43335084.5599625     
   43181466.1247084     
   43026571.6834444     
   42870403.6188504     
   42712965.6140888     
   42554262.6594137     
   42394301.0574302     
   42233088.4269624     
   42070633.7054833     
   41906947.1500689     
   41742040.3368394     
   41575926.1588480     
   41408618.8223871     
   41240133.8416808     
   41070488.0319368     
   40899699.5007337     
   40727787.6377256     
   40554773.1026486     
   40380677.8116164     
   40205524.9216999     
   40029338.8137889     
   39852145.0737394     
   39673970.4718133     
   39494842.9404249     
   39314791.5502123     
   39133846.4844552     
   38952039.0118680     
   38769401.4577993     
   38585967.1738730     
   38401770.5061105     
   38216846.7615786     
   38031232.1736090     
   37844963.8656451     
   37658079.8137801     
   37470618.8080695     
   37282620.4127298     
   37094124.9253853     
   36905173.3356008     
   36715807.2830576     
   36526069.0158762     
   36336001.3497452     
   36145647.6285304     
   35955051.6864886     
   35764257.8099561     
   35573310.6891578     
   35382255.3285696     
   35191136.8375158     
   35000000.0000000     
   50000000.0000000     
   49889460.5181189     
   49778907.1932957     
   49668301.8270516     
   49557605.9553901     
   49446781.2119312     
   49335789.4753320     
   49224592.9131989     
   49113153.9959025     
   49001435.5058102     
   48889400.5485822     
   48777012.5677429     
   48664235.3621212     
   48551033.1054363     
   48437370.3673939     
   48323212.1358282     
   48208523.8395693     
   48093271.3718355     
   47977421.1140145     
   47860939.9597581     
   47743795.3393269     
   47625955.2441516     
   47507388.2515787     
   47388063.5497716     
   47267950.9627428     
   47147020.9754886     
   47025244.7592000     
   46902594.1965196     
   46779041.9068116     
   46654561.2714189     
   46529126.4588659     
   46402712.4499770     
   46275295.0628760     
   46146850.9778255     
   46017357.7618737     
   45886793.8932647     
   45755138.7855770     
   45622372.8115483     
   45488477.3265447     
   45353434.6916330     
   45217228.2962132     
   45079842.5801658     
   44941263.0554712     
   44801476.3272540     
   44660470.1142063     
   44518233.2683441     
   44374755.7940459     
   44230028.8663293     
   44084044.8483114     
   43936797.3078098     
   43788281.0330297     
   43638492.0472885     
   43487427.6227294     
   43335086.2929729     
   43181467.8646558     
   43026573.4278107     
   42870405.3650363     
   42712967.3594103     
   42554264.4010987     
   42394302.7926154     
   42233090.1526896     
   42070635.4186960     
   41906948.8476097     
   41742042.0154450     
   41575927.8151457     
   41408620.4528898     
   41240135.4427808     
   41070489.5998978     
   40899701.0316807     
   40727789.1276319     
   40554774.5473179     
   40380679.2066587     
   40205526.2625006     
   40029340.0954677     
   39852146.2910959     
   39673971.6192582     
   39494844.0118916     
   39314792.5390471     
   39133847.3832816     
   38952039.8124245     
   38769402.1507484     
   38585967.7485840     
   38401770.9504244     
   38216847.0615654     
   38031232.3133445     
   37844963.8270426     
   37658079.5765357     
   37470618.3498047     
   37282619.7094511     
   37094123.9524254     
   36905172.0692673     
   36715805.7032894     
   36526067.1103125     
   36335999.1197556     
   36145645.0979819     
   35955048.9144136     
   35764254.9090173     
   35573307.8533449     
   35382252.8751263     
   35191135.2601560     
   35000000.0000000     
   50000000.0000000     
   49889459.1611664     
   49778905.0932872     
   49668299.4028946     
   49557603.4689215     
   49446778.8205451     
   49335787.2695203     
   49224590.9399617     
   49113152.2739817     
   49001434.0360131     
   48889399.3208754     
   48777011.5661123     
   48664234.5678392     
   48551032.4991849     
   48437369.9305724     
   48323211.8512906     
   48208523.6919735     
   48093271.3477382     
   47977421.2018086     
   47860940.1495202     
   47743795.6226222     
   47625955.6138255     
   47507388.7015548     
   47388064.0748663     
   47267951.5585018     
   47147021.6380469     
   47025245.4851650     
   46902594.9828743     
   46779042.7508366     
   46654562.1706293     
   46529127.4109617     
   46402713.4528032     
   46275296.1143909     
   46146852.0760763     
   46017358.9049755     
   45886795.0793851     
   45755140.0129219     
   45622374.0783508     
   45488478.6310552     
   45353436.0321108     
   45217229.6709185     
   45079843.9873526     
   44941264.4933806     
   44801477.7941088     
   44660471.6082040     
   44518234.7876521     
   44374757.3367963     
   44230030.4306133     
   44084046.4321750     
   43936798.9092491     
   43788282.6499862     
   43638493.6776452     
   43487429.2643068     
   43335087.9435248     
   43181469.5218658     
   43026575.0892889     
   42870407.0283156     
   42712969.0219433     
   42554266.0602542     
   42394304.4456759     
   42233091.7968476     
   42070637.0510516     
   41906950.4651667     
   41742043.6151079     
   41575929.3937156     
   41408622.0070601     
   41240136.9691311     
   41070491.0948869     
   40899702.4916376     
   40727790.5487427     
   40554775.9256095     
   40380680.5379764     
   40205527.5424790     
   40029341.3194908     
   39852147.4542466     
   39673972.7162520     
   39494845.0369929     
   39314793.4859635     
   39133848.2450339     
   38952040.5811907     
   38769402.8176787     
   38585968.3035912     
   38401771.3819537     
   38216847.3563574     
   38031232.4562119     
   37844963.8006983     
   37658079.3615243     
   37470617.9246180     
   37282619.0509405     
   37094123.0366664     
   36905170.8730885     
   36715804.2067513     
   36526065.3005168     
   36335996.9965064     
   36145642.6820415     
   35955046.2595109     
   35764252.1195617     
   35573305.1116588     
   35382250.4851454     
   35191133.7086269     
   35000000.0000000     
   50000000.0000000     
   49889457.8338199     
   49778903.0613446     
   49668297.0763079     
   49557601.0959486     
   49446776.5475466     
   49335785.1794641     
   49224589.0751206     
   49113150.6503960     
   49001432.6531801     
   48889398.1683679     
   48777010.6280996     
   48664233.8261181     
   48551031.9351414     
   48437369.5263840     
   48323211.5905950     
   48208523.5601775     
   48093271.3320896     
   47977421.2913240     
   47860940.3348306     
   47743795.8957802     
   47625955.9681030     
   47507389.1312475     
   47388064.5751153     
   47267952.1251377     
   47147022.2674559     
   47025246.1741768     
   46902595.7286713     
   46779043.5508797     
   46654563.0225983     
   46529128.3127081     
   46402714.4023133     
   46275297.1097561     
   46146853.1154694     
   46017359.9866324     
   45886796.2015893     
   45755141.1739918     
   45622375.2766295     
   45488479.8649012     
   45353437.2998897     
   45217230.9709962     
   45079845.3180883     
   44941265.8531214     
   44801479.1811828     
   44660473.0209161     
   44518236.2242779     
   44374758.7955774     
   44230031.9097531     
   44084047.9298333     
   43936800.4235385     
   43788284.1789680     
   43638495.2193249     
   43487430.8166308     
   43335089.5043766     
   43181471.0890629     
   43026576.6605790     
   42870408.6013738     
   42712970.5943689     
   42554267.6295678     
   42394306.0093167     
   42233093.3521704     
   42070638.5953241     
   41906951.9955664     
   41742045.1287193     
   41575930.8875264     
   41408623.4779569     
   41240138.4138945     
   41070492.5101850     
   40899703.8740169     
   40727791.8946170     
   40554777.2312443     
   40380681.7994682     
   40205528.7557275     
   40029342.4801622     
   39852148.5577257     
   39673973.7575793     
   39494846.0107860     
   39314794.3863160     
   39133849.0653921     
   38952041.3142043     
   38769403.4550240     
   38585968.8357690     
   38401771.7980670     
   38216847.6438804     
   38031232.6007700     
   37844963.7858929     
   37658079.1688527     
   37470617.5335628     
   37282618.4393332     
   37094122.1814730     
   36905169.7518146     
   36715802.7997330     
   36526063.5944547     
   36335994.9897323     
   36145640.3922223     
   35955043.7349192     
   35764249.4558979     
   35573302.4784628     
   35382248.1706517     
   35191132.1894141     
   35000000.0000000     
   50000000.0000000     
   49889456.5425499     
   49778901.1090928     
   49668294.8607556     
   49557598.8496308     
   49446774.4049290     
   49335783.2156789     
   49224587.3276377     
   49113149.1326008     
   49001431.3633656     
   48889397.0958459     
   48777009.7573640     
   48664233.1396269     
   48551031.4151127     
   48437369.1558868     
   48323211.3541496     
   48208523.4440227     
   48093271.3242347     
   47977421.3814666     
   47860940.5142029     
   47743796.1569601     
   47625956.3048194     
   47507389.5381927     
   47388065.0477755     
   47267952.6596441     
   47147022.8604590     
   47025246.8227406     
   46902596.4301873     
   46779044.3029974     
   46654563.8231697     
   46529129.1597439     
   46402715.2939478     
   46275298.0442197     
   46146854.0910675     
   46017361.0017273     
   45886797.2545867     
   45755142.2633290     
   45622376.4007654     
   45488481.0223082     
   45353438.4890463     
   45217232.1903804     
   45079846.5661713     
   44941267.1283619     
   44801480.4820219     
   44660474.3457724     
   44518237.5715421     
   44374760.1636085     
   44230033.2968733     
   44084049.3343246     
   43936801.8436378     
   43788285.6128642     
   43638496.6651547     
   43487432.2724753     
   43335090.9682581     
   43181472.5589416     
   43026578.1343501     
   42870410.0768643     
   42712972.0693352     
   42554269.1016929     
   42394307.4762073     
   42233094.8113548     
   42070640.0442491     
   41906953.4315953     
   41742046.5491287     
   41575932.2895029     
   41408624.8585937     
   41240139.7701863     
   41070493.8390225     
   40899705.1721785     
   40727793.1587586     
   40554778.4578847     
   40380682.9849704     
   40205529.8962725     
   40029343.5717155     
   39852149.5959918     
   39673974.7379438     
   39494846.9282406     
   39314795.2353644     
   39133849.8399336     
   38952042.0073916     
   38769404.0590964     
   38585969.3418592     
   38401772.1959881     
   38216847.9219027     
   38031232.7454064     
   37844963.7817227     
   37658078.9984314     
   37470617.1774857     
   37282617.8765521     
   37094121.3900000     
   36905168.7099990     
   36715801.4883572     
   36526061.9999791     
   36335993.1091456     
   36145638.2401542     
   35955041.3541030     
   35764246.9329640     
   35573299.9691621     
   35382245.9450082     
   35191130.7099584     
   35000000.0000000     
   50000000.0000000     
   49889455.2948240     
   49778899.2494653     
   49668292.7706429     
   49557596.7436647     
   49446772.4049512     
   49335781.3887621     
   49224585.7064371     
   49113147.7279387     
   49001430.1724671     
   48889396.1079162     
   48777008.9573763     
   48664232.5108486     
   48551030.9407268     
   48437368.8199709     
   48323211.1422070     
   48208523.3432092     
   48093271.3233900     
   47977421.4710268     
   47860940.6860467     
   47743796.4042279     
   47625956.6217260     
   47507389.9198507     
   47388065.4900347     
   47267953.1589522     
   47147023.4137433     
   47025247.4273096     
   46902597.0836508     
   46779045.0032018     
   46654564.5681466     
   46529129.9476695     
   46402716.1231107     
   46275298.9129960     
   46146854.9979008     
   46017361.9451125     
   45886798.2330573     
   45755143.2754468     
   45622377.4451115     
   45488482.0974751     
   45353439.5936314     
   45217233.3229795     
   45079847.7253740     
   44941268.3127454     
   44801481.6901466     
   44660475.5761773     
   44518238.8227403     
   44374761.4340830     
   44230034.5850731     
   44084050.6386607     
   43936803.1624799     
   43788286.9445367     
   43638498.0079338     
   43487433.6245855     
   43335092.3278692     
   43181473.9241660     
   43026579.5032397     
   42870411.4474083     
   42712973.4394569     
   42554270.4692480     
   42394308.8389810     
   42233096.1670599     
   42070641.3905234     
   41906954.7659993     
   41742047.8691432     
   41575933.5925260     
   41408626.1419376     
   41240141.0310732     
   41070495.0745789     
   40899706.3794286     
   40727794.3346144     
   40554779.5991330     
   40380684.0882558     
   40205530.9580733     
   40029344.5883127     
   39852150.5634275     
   39673975.6519669     
   39494847.7842382     
   39314796.0282733     
   39133850.5641318     
   38952042.6565659     
   38769404.6260844     
   38585969.8184679     
   38401772.5727919     
   38216848.1880297     
   38031232.8883311     
   37844963.7870915     
   37658078.8499638     
   37470616.8570148     
   37282617.3642936     
   37094120.6651750     
   36905167.7519791     
   36715800.2785586     
   36526060.5248080     
   36335991.3644123     
   36145636.2375640     
   35955039.1308397     
   35764244.5663298     
   35573297.6002692     
   35382243.8231160     
   35191129.2788717     
   35000000.0000000     
   50000000.0000000     
   49889454.0993444     
   49778897.4968937     
   49668290.8213582     
   49557594.7922787     
   49446770.5601222     
   49335779.7093721     
   49224584.2203835     
   49113146.4436183     
   49001429.0862058     
   48889395.2089882     
   48777008.2314051     
   48664231.9420668     
   48551030.5134219     
   48437368.5193502     
   48323210.9548582     
   48208523.2572899     
   48093271.3286398     
   47977421.5586756     
   47860940.8486650     
   47743796.6355535     
   47625956.9164883     
   47507390.2736044     
   47388065.8990114     
   47267953.6199300     
   47147023.9239380     
   47025247.9842844     
   46902597.6852421     
   46779045.6474604     
   46654565.2532904     
   46529130.6720465     
   46402716.8851700     
   46275299.7112650     
   46146855.8309668     
   46017362.8116088     
   45886799.1316511     
   45755144.2048303     
   45622378.4039932     
   45488483.0845736     
   45353440.6076687     
   45217234.3626761     
   45079848.7894433     
   44941269.3998895     
   44801482.7990519     
   44660476.7055096     
   44518239.9711421     
   44374762.6001685     
   44230035.7674251     
   44084051.8358272     
   43936804.3729706     
   43788288.1668196     
   43638499.2404330     
   43487434.8656773     
   43335093.5758798     
   43181475.1773690     
   43026580.7598536     
   42870412.7055936     
   42712974.6973144     
   42554271.7248164     
   42394310.0902347     
   42233097.4119071     
   42070642.6268039     
   41906955.9914828     
   41742049.0815266     
   41575934.7894313     
   41408627.3209088     
   41240142.1895725     
   41070496.2099823     
   40899707.4890192     
   40727795.4155743     
   40554780.6485316     
   40380685.1030337     
   40205531.9350215     
   40029345.5240436     
   39852151.4543375     
   39673976.4941870     
   39494848.5735703     
   39314796.7601095     
   39133851.2333544     
   38952043.2574243     
   38769405.1520494     
   38585970.2620620     
   38401772.9254001     
   38216848.4396984     
   38031233.0275697     
   37844963.8007020     
   37658078.7229364     
   37470616.5725469     
   37282616.9040128     
   37094120.0096810     
   36905166.8818556     
   36715799.1760608     
   36526059.1764996     
   36335989.7651269     
   36145634.3962494     
   35955037.0792005     
   35764242.3721904     
   35573295.3894520     
   35382241.8216366     
   35191127.9062150     
   35000000.0000000     
   50000000.0000000     
   49889452.9663590     
   49778895.8675123     
   49668289.0292937     
   49557593.0102186     
   49446768.8831798     
   49335778.1882031     
   49224582.8782572     
   49113145.2866923     
   49001428.1101065     
   48889394.4032575     
   48777007.5825009     
   48664231.4353537     
   48551030.1344368     
   48437368.2545534     
   48323210.7920258     
   48208523.1856653     
   48093271.3389315     
   47977421.6429619     
   47860941.0002513     
   47743796.8488094     
   47625957.1866842     
   47507390.5967586     
   47388066.2717531     
   47267954.0393815     
   47147024.3876146     
   47025248.4900127     
   46902598.2310928     
   46779046.2316955     
   46654565.8743204     
   46529131.3283972     
   46402717.5754566     
   46275300.4341716     
   46146856.5852302     
   46017363.5960057     
   45886799.9449881     
   45755145.0459350     
   45622379.2717077     
   45488483.9777478     
   45353441.5251554     
   45217235.3033257     
   45079849.7520998     
   44941270.3833859     
   44801483.8022066     
   44660477.7271226     
   44518241.0099912     
   44374763.6550064     
   44230036.8369755     
   44084052.9187824     
   43936805.4679879     
   43788289.2725190     
   43638500.3553941     
   43487435.9884370     
   43335094.7049295     
   43181476.3111526     
   43026581.8967651     
   42870413.8439749     
   42712975.8354536     
   42554272.8609454     
   42394311.2225276     
   42233098.5384787     
   42070643.7457076     
   41906957.1007084     
   41742050.1789994     
   41575935.8730091     
   41408628.3883796     
   41240143.2386517     
   41070497.2383081     
   40899708.4941473     
   40727796.3949705     
   40554781.5995613     
   40380686.0229485     
   40205532.8209395     
   40029346.3729245     
   39852152.2629482     
   39673977.2590580     
   39494849.2909372     
   39314797.4258412     
   39133851.8428612     
   38952043.8055464     
   38769405.6329235     
   38585970.6689656     
   38401773.2505772     
   38216848.6741721     
   38031233.1609566     
   37844963.8210476     
   37658078.6166082     
   37470616.3242346     
   37282616.4969080     
   37094119.4259386     
   36905166.1034719     
   36715798.1863526     
   36526057.9624254     
   36335988.3207839     
   36145632.7280492     
   35955035.2135254     
   35764240.3673497     
   35573293.3555579     
   35382239.9592316     
   35191126.6038646     
   35000000.0000000     
   50000000.0000000     
   49889451.9080775     
   49778894.3793683     
   49668287.4118355     
   49557591.4127281     
   49446767.3870640     
   49335776.8359561     
   49224581.6887287     
   49113144.2640323     
   49001427.2494760     
   48889393.6946863     
   48777007.0134808     
   48664230.9925565     
   48551029.8047997     
   48437368.0259160     
   48323210.6534567     
   48208523.1275785     
   48093271.3530715     
   47977421.7223093     
   47860941.1388878     
   47743797.0417689     
   47625957.4298033     
   47507390.8865385     
   47388066.6052365     
   47267954.4140464     
   47147024.8012857     
   47025248.9407882     
   46902598.7172853     
   46779046.7517839     
   46654566.4269138     
   46529131.9122047     
   46402718.1892646     
   46275301.0768261     
   46146857.2556222     
   46017364.2930611     
   45886800.6676575     
   45755145.7931873     
   45622380.0425236     
   45488484.7711142     
   45353442.3400613     
   45217236.1387576     
   45079850.6070377     
   44941271.2568000     
   44801484.6930536     
   44660478.6343428     
   44518241.9325048     
   44374764.5917111     
   44230037.7867432     
   44084053.8804570     
   43936806.4403821     
   43788290.2544123     
   43638501.3455299     
   43487436.9855210     
   43335095.7076271     
   43181477.3180868     
   43026582.9065148     
   42870414.8550730     
   42712976.8463851     
   42554273.8701459     
   42394312.2283817     
   42233099.5393181     
   42070644.7398101     
   41906958.0862963     
   41742051.1542375     
   41575936.8360031     
   41408629.3371743     
   41240144.1712277     
   41070498.1525789     
   40899709.3879542     
   40727797.2660763     
   40554782.4456415     
   40380686.8415791     
   40205533.6095805     
   40029347.1288975     
   39852152.9834068     
   39673977.9409483     
   39494849.9309474     
   39314798.0203365     
   39133852.3878029     
   38952044.2963919     
   38769406.0645068     
   38585971.0353572     
   38401773.5449262     
   38216848.8885358     
   38031233.2861287     
   37844963.8464040     
   37658078.5300007     
   37470616.1119741     
   37282616.1439054     
   37094118.9160867     
   36905165.4203920     
   36715797.3146621     
   36526056.8897418     
   36335987.0407459     
   36145631.2448090     
   35955033.5483920     
   35764238.5691961     
   35573291.5186025     
   35382238.2568104     
   35191125.3860004     
   35000000.0000000     
   50000000.0000000     
   49889450.9392373     
   49778893.0526131     
   49668285.9873179     
   49557590.0155257     
   49446766.0848823     
   49335775.6633051     
   49224580.6603293     
   49113143.3823038     
   49001426.5093812     
   48889393.0869849     
   48777006.5269124     
   48664230.6152849     
   48551029.5253176     
   48437367.8335718     
   48323210.5387157     
   48208523.0821097     
   48093271.3697215     
   47977421.7950123     
   47860941.2625425     
   47743797.2121039     
   47625957.6432448     
   47507391.1400888     
   47388066.8963654     
   47267954.7405990     
   47147025.1614049     
   47025249.3328511     
   46902599.1398519     
   46779047.2035568     
   46654566.9067053     
   46529132.4189120     
   46402718.7218505     
   46275301.6343029     
   46146857.8370408     
   46017364.8975006     
   45886801.2942181     
   45755146.4409839     
   45622380.7106807     
   45488485.4587613     
   45353443.0463289     
   45217236.8627736     
   45079851.3479245     
   44941272.0136706     
   44801485.4650093     
   44660479.4204703     
   44518242.7318734     
   44374765.4033703     
   44230038.6097201     
   44084054.7137542     
   43936807.2829751     
   43788291.1052477     
   43638502.2035234     
   43487437.8495553     
   43335096.5765498     
   43181478.1907092     
   43026583.7816099     
   42870415.7313741     
   42712977.7225840     
   42554274.7448921     
   42394313.1002803     
   42233100.4069289     
   42070645.6016464     
   41906958.9408237     
   41742051.9998722     
   41575937.6711107     
   41408630.1600682     
   41240144.9801665     
   41070498.9457636     
   40899710.1635248     
   40727798.0221057     
   40554783.1801285     
   40380687.5524381     
   40205534.2946272     
   40029347.7858300     
   39852153.6097800     
   39673978.5341404     
   39494850.4881157     
   39314798.5383620     
   39133852.8632192     
   38952044.7252988     
   38769406.4424651     
   38585971.3572666     
   38401773.8048851     
   38216849.0796905     
   38031233.4005187     
   37844963.8748215     
   37658078.4618868     
   37470615.9353920     
   37282615.8456428     
   37094118.4819640     
   36905164.8358778     
   36715796.5659309     
   36526055.9653588     
   36335985.9342102     
   36145629.9583423     
   35955032.0985741     
   35764236.9956758     
   35573289.8997140     
   35382236.7377535     
   35191124.2697701     
   35000000.0000000     
   50000000.0000000     
   49889450.0778855     
   49778891.9096271     
   49668284.7749379     
   49557588.8347852     
   49446764.9898628     
   49335774.6808642     
   49224579.8014195     
   49113142.6479377     
   49001425.8946254     
   48889392.5835914     
   48777006.1250974     
   48664230.3048969     
   48551029.2965657     
   48437367.6774437     
   48323210.4471790     
   48208523.0481710     
   48093271.3873945     
   47977421.8592347     
   47860941.3690675     
   47743797.3573835     
   47625957.8243169     
   47507391.3544728     
   47388067.1419710     
   47267955.0156480     
   47147025.4643660     
   47025249.6623868     
   46902599.4947756     
   46779047.5827989     
   46654567.3092865     
   46529132.8439222     
   46402719.1684330     
   46275302.1016414     
   46146858.3243497     
   46017365.4040175     
   45886801.8191973     
   45755146.9836913     
   45622381.2703897     
   45488486.0347489     
   45353443.6378726     
   45217237.4691485     
   45079851.9684004     
   44941272.6475095     
   44801486.1114631     
   44660480.0787784     
   44518243.4012605     
   44374766.0830444     
   44230039.2988702     
   44084055.4115488     
   43936807.9885602     
   43788291.8177446     
   43638502.9220277     
   43487438.5731348     
   43335097.3042434     
   43181478.9215250     
   43026584.5145240     
   42870416.4653297     
   42712978.4564896     
   42554275.4776206     
   42394313.8306680     
   42233101.1337742     
   42070646.3237091     
   41906959.6568240     
   41742052.7084891     
   41575938.3709816     
   41408630.8497868     
   41240145.6582818     
   41070499.6107770     
   40899710.8138871     
   40727798.6562130     
   40554783.7963160     
   40380688.1489714     
   40205534.8696914     
   40029348.3375135     
   39852154.1360535     
   39673979.0328292     
   39494850.9568630     
   39314798.9745818     
   39133853.2640378     
   38952045.0874815     
   38769406.7623277     
   38585971.6305716     
   38401774.0267226     
   38216849.2443485     
   38031233.5013493     
   37844963.9041162     
   37658078.4107817     
   37470615.7938326     
   37282615.6024544     
   37094118.1250891     
   36905164.3528650     
   36715795.9447859     
   36526055.1959075     
   36335985.0101711     
   36145628.8803899     
   35955030.8789863     
   35764235.6652697     
   35573288.5210340     
   35382235.4280596     
   35191123.2762078     
   35000000.0000000     
   50000000.0000000     
   49889449.3464782     
   49778890.9749852     
   49668283.7946551     
   49557587.8871175     
   49446764.1152921     
   49335773.8991531     
   49224579.1201533     
   49113142.0671023     
   49001425.4097236     
   48889392.1876515     
   48777005.8100548     
   48664230.0624857     
   48551029.1188765     
   48437367.5572359     
   48323210.3780275     
   48208523.0245018     
   48093271.4044509     
   47977421.9130056     
   47860941.4561965     
   47743797.4750726     
   47625957.9702353     
   47507391.5266717     
   47388067.3388109     
   47267955.2357356     
   47147025.7065028     
   47025249.9255261     
   46902599.7779888     
   46779047.8852487     
   46654567.6302059     
   46529133.1825980     
   46402719.5241928     
   46275302.4738445     
   46146858.7123786     
   46017365.8072725     
   45886802.2370912     
   45755147.4156459     
   45622381.7158319     
   45488486.4931084     
   45353444.1085790     
   45217237.9516292     
   45079852.4620784     
   44941273.1518016     
   44801486.6257773     
   44660480.6025131     
   44518243.9338022     
   44374766.6237659     
   44230039.8471297     
   44084055.9666874     
   43936808.5499015     
   43788292.3845925     
   43638503.4936654     
   43487439.1488237     
   43335097.8832216     
   43181479.5030062     
   43026585.0976966     
   42870417.0493561     
   42712979.0405043     
   42554276.0607303     
   42394314.4119503     
   42233101.7122767     
   42070646.8984489     
   41906960.2267866     
   41742053.2726282     
   41575938.9282176     
   41408631.3990061     
   41240146.1983354     
   41070500.1404788     
   40899711.3320115     
   40727799.1614917     
   40554784.2874330     
   40380688.6245571     
   40205535.3283131     
   40029348.7776631     
   39852154.5561315     
   39673979.4311221     
   39494851.3315146     
   39314799.3235563     
   39133853.5850728     
   38952045.3780293     
   38769407.0194852     
   38585971.8509958     
   38401774.2065348     
   38216849.3790288     
   38031233.5856261     
   37844963.9318624     
   37658078.3749315     
   37470615.6863442     
   37282615.4143536     
   37094117.8466404     
   36905163.9739391     
   36715795.4555100     
   36526054.5877063     
   36335984.2773772     
   36145628.0225807     
   35955029.9046110     
   35764234.5969717     
   35573287.4055979     
   35382234.3563032     
   35191122.4315259     
   35000000.0000000     
   50000000.0000000     
   49889448.7734454     
   49778890.2750903     
   49668283.0671510     
   49557587.1895291     
   49446763.4744425     
   49335773.3285684     
   49224578.6244347     
   49113141.6456757     
   49001425.0588755     
   48889391.9019978     
   48777005.5835030     
   48664229.8888658     
   48551028.9923287     
   48437367.4724253     
   48323210.3302406     
   48208523.0096636     
   48093271.4190952     
   47977421.9542177     
   47860941.5215431     
   47743797.5625305     
   47625958.0781222     
   47507391.6535837     
   47388067.4835686     
   47267955.3973379     
   47147025.8840889     
   47025250.1183446     
   46902599.9853733     
   46779048.1065979     
   46654567.8649686     
   46529133.4302611     
   46402719.7842726     
   46275302.7458792     
   46146858.9959229     
   46017366.1018933     
   45886802.5423645     
   45755147.7311533     
   45622382.0411588     
   45488486.8278420     
   45353444.4523062     
   45217238.3039348     
   45079852.8225438     
   44941273.5200037     
   44801487.0012867     
   44660480.9848928     
   44518244.3226067     
   44374767.0185396     
   44230040.2474061     
   44084056.3719876     
   43936808.9597337     
   43788292.7984507     
   43638503.9110284     
   43487439.5691541     
   43335098.3059653     
   43181479.9275912     
   43026585.5235327     
   42870417.4758336     
   42712979.4669939     
   42554276.4865819     
   42394314.8364928     
   42233102.1348175     
   42070647.3182731     
   41906960.6431564     
   41742053.6847826     
   41575939.3353719     
   41408631.8003508     
   41240146.5930358     
   41070500.5276732     
   40899711.7108102     
   40727799.5309741     
   40554784.6466448     
   40380688.9725054     
   40205535.6639600     
   40029349.0999170     
   39852154.8638353     
   39673979.7230372     
   39494851.6062998     
   39314799.5797412     
   39133853.8210233     
   38952045.5919050     
   38769407.2091873     
   38585972.0141055     
   38401774.3402418     
   38216849.4800525     
   38031233.6501326     
   37844963.9553846     
   37658078.3523036     
   37470615.6116671     
   37282615.2810167     
   37094117.6474354     
   36905163.7013107     
   36715795.1020100     
   36526054.1467288     
   36335983.7442801     
   36145627.3963966     
   35955029.1904127     
   35764233.8102398     
   35573286.5772871     
   35382233.5532029     
   35191121.7689524     
   35000000.0000000     
   50000000.0000000     
   49889448.3954189     
   49778889.8371667     
   49668282.6140507     
   49557586.7592501     
   49446763.0805380     
   49335772.9793355     
   49224578.3218744     
   49113141.3892179     
   49001424.8459362     
   48889391.7291291     
   48777005.4468423     
   48664229.7845594     
   48551028.9167365     
   48437367.4222534     
   48323210.3025892     
   48208523.0020355     
   48093271.4293724     
   47977421.9806239     
   47860941.5625994     
   47743797.6170097     
   47625958.1450059     
   47507391.7320236     
   47388067.5728530     
   47267955.4968635     
   47147025.9933371     
   47025250.2368630     
   46902600.1127604     
   46779048.2424914     
   46654568.0090360     
   46529133.5821930     
   46402719.9437766     
   46275302.9126761     
   46146859.1697432     
   46017366.2824746     
   45886802.7294497     
   45755147.9244885     
   45622382.2404925     
   45488487.0329232     
   45353444.6628835     
   45217238.5197560     
   45079853.0433541     
   44941273.7455455     
   44801487.2312984     
   44660481.2191083     
   44518244.5607544     
   44374767.2603419     
   44230040.4925783     
   44084056.6202379     
   43936809.2107621     
   43788293.0519484     
   43638504.1666773     
   43487439.8266264     
   43335098.5649227     
   43181480.1876847     
   43026585.7844021     
   42870417.7371066     
   42712979.7282863     
   42554276.7474971     
   42394315.0966211     
   42233102.3937361     
   42070647.5755456     
   41906960.8983328     
   41742053.9373986     
   41575939.5849487     
   41408632.0463948     
   41240146.8350380     
   41070500.7651085     
   40899711.9431365     
   40727799.7576309     
   40554784.8670512     
   40380689.1860575     
   40205535.8700269     
   40029349.2978357     
   39852155.0529035     
   39673979.9025036     
   39494851.7753514     
   39314799.7374868     
   39133853.9664729     
   38952045.7239432     
   38769407.3265415     
   38585972.1153078     
   38401774.4235844     
   38216849.5435384     
   38031233.6914237     
   37844963.9717499     
   37658078.3405765     
   37470615.5682191     
   37282615.2017673     
   37094117.5279087     
   36905163.5367917     
   36715794.8877820     
   36526053.8785701     
   36335983.4189845     
   36145627.0131169     
   35955028.7512978     
   35764233.3247935     
   35573286.0610912     
   35382233.0504356     
   35191121.3313477     
   35000000.0000000     
   50000000.0000000     
   49889448.2603305     
   49778889.6871078     
   49668282.4588770     
   49557586.6130969     
   49446762.9469724     
   49335772.8613225     
   49224578.2198156     
   49113141.3029053     
   49001424.7744031     
   48889391.6711820     
   48777005.4011391     
   48664229.7497812     
   48551028.8916392     
   48437367.4057172     
   48323210.2936306     
   48208522.9998099     
   48093271.4331647     
   47977421.9898359     
   47860941.5767337     
   47743797.6356544     
   47625958.1678195     
   47507391.7587222     
   47388067.6031984     
   47267955.5306540     
   47147026.0303996     
   47025250.2770463     
   46902600.1559303     
   46779048.2885268     
   46654568.0578259     
   46529133.6336337     
   46402719.9977703     
   46275302.9691291     
   46146859.2285652     
   46017366.3435776     
   45886802.7927474     
   45755147.9898956     
   45622382.3079243     
   45488487.1022954     
   45353444.7341117     
   45217238.5927550     
   45079853.1180384     
   44941273.8218282     
   44801487.3090915     
   44660481.2983220     
   44518244.6412973     
   44374767.3421203     
   44230040.5754965     
   44084056.7041973     
   43936809.2956616     
   43788293.1376838     
   43638504.2531414     
   43487439.9137085     
   43335098.6525088     
   43181480.2756571     
   43026585.8726391     
   42870417.8254826     
   42712979.8166720     
   42554276.8357583     
   42394315.1846198     
   42233102.4813296     
   42070647.6625868     
   41906960.9846698     
   41742054.0228748     
   41575939.6694027     
   41408632.1296602     
   41240146.9169432     
   41070500.8454764     
   40899712.0217846     
   40727799.8343703     
   40554784.9416865     
   40380689.2583853     
   40205535.9398351     
   40029349.3649014     
   39852155.1169908     
   39673979.9633600     
   39494851.8327042     
   39314799.7910369     
   39133854.0158881     
   38952045.7688492     
   38769407.3665111     
   38585972.1498479     
   38401774.4521209     
   38216849.5653990     
   38031233.7058204     
   37844963.9777604     
   37658078.3371296     
   37470615.5540842     
   37282615.1755573     
   37094117.4880947     
   36905163.4817603     
   36715794.8158964     
   36526053.7883700     
   36335983.3092769     
   36145626.8835980     
   35955028.6023712     
   35764233.1598626     
   35573285.8842306     
   35382232.8781024     
   35191121.1748432     
   35000000.0000000     
VECTORS u double 
    0.00000E+00         0.00000E+00         0.00000E+00
    0.00000E+00         0.00000E+00         0.00000E+00
    0.00000E+00         0.00000E+00         0.00000E+00
    0.00000E+00         0.00000E+00         0.00000E+00
    0.00000E+00         0.00000E+00         0.00000E+00
    0.00000E+00         0.00000E+00         0.00000E+00
    0.00000E+00         0.00000E+00         0.00000E+00
    0.00000E+00         0.00000E+00         0.00000E+00
    0.00000E+00         0.00000E+00         0.00000E+00
    0.00000E+00         0.00000E+00         0.00000E+00
    0.00000E+00         0.00000E+00         0.00000E+00
    0.00000E+00         0.00000E+00         0.00000E+00
    0.00000E+00         0.00000E+00         0.00000E+00
    0.00000E+00         0.00000E+00         0.00000E+00
    0.00000E+00         0.00000E+00         0.00000E+00
    0.00000E+00         0.00000E+00         0.00000E+00
    0.00000E+00         0.00000E+00         0.00000E+00
    0.00000E+00         0.00000E+00         0.00000E+00
    0.00000E+00         0.00000E+00         0.00000E+00
    0.00000E+00         0.00000E+00         0.00000E+00
    0.00000E+00         0.00000E+00         0.00000E+00
    0.00000E+00         0.00000E+00         0.00000E+00
    0.00000E+00         0.00000E+00         0.00000E+00
    0.00000E+00         0.00000E+00         0.00000E+00
    0.00000E+00         0.00000E+00         0.00000E+00
    0.00000E+00         0.00000E+00         0.00000E+00
    0.00000E+00         0.00000E+00         0.00000E+00
    0.00000E+00         0.00000E+00         0.00000E+00
    0.00000E+00         0.00000E+00         0.00000E+00
    0.00000E+00         0.00000E+00         0.00000E+00
    0.00000E+00         0.00000E+00         0.00000E+00
    0.00000E+00         0.00000E+00         0.00000E+00
    0.00000E+00         0.00000E+00         0.00000E+00
    0.00000E+00         0.00000E+00         0.00000E+00
    0.00000E+00         0.00000E+00         0.00000E+00
    0.00000E+00         0.00000E+00         0.00000E+00
    0.00000E+00         0.00000E+00         0.00000E+00
    0.00000E+00         0.00000E+00         0.00000E+00
    0.00000E+00         0.00000E+00         0.00000E+00
    0.00000E+00         0.00000E+00         0.00000E+00
    0.00000E+00         0.00000E+00         0.00000E+00
    0.00000E+00         0.00000E+00         0.00000E+00
    0.00000E+00         0.00000E+00         0.00000E+00
    0.00000E+00         0.00000E+00         0.00000E+00
    0.00000E+00         0.00000E+00         0.00000E+00
    0.00000E+00         0.00000E+00         0.00000E+00
    0.00000E+00         0.00000E+00         0.00000E+00
    0.00000E+00         0.00000E+00         0.00000E+00
    0.00000E+00         0.00000E+00         0.00000E+00
    0.00000E+00         0.00000E+00         0.00000E+00
    0.00000E+00         0.00000E+00         0.00000E+00
    0.00000E+00         0.00000E+00         0.00000E+00
    0.00000E+00         0.00000E+00         0.00000E+00
    0.00000E+00         0.00000E+00         0.00000E+00
    0.00000E+00         0.00000E+00         0.00000E+00
    0.00000E+00         0.00000E+00         0.00000E+00
    0.00000E+00         0.00000E+00         0.00000E+00
    0.00000E+00         0.00000E+00         0.00000E+00
    0.00000E+00         0.00000E+00         0.00000E+00
    0.00000E+00         0.00000E+00         0.00000E+00
    0.00000E+00         0.00000E+00         0.00000E+00
    0.00000E+00         0.00000E+00         0.00000E+00
    0.00000E+00         0.00000E+00         0.00000E+00
    0.00000E+00         0.00000E+00         0.00000E+00
    0.00000E+00         0.00000E+00         0.00000E+00
    0.00000E+00         0.00000E+00         0.00000E+00
    0.00000E+00         0.00000E+00         0.00000E+00
    0.00000E+00         0.00000E+00         0.00000E+00
    0.00000E+00         0.00000E+00         0.00000E+00
    0.00000E+00         0.00000E+00         0.00000E+00
    0.00000E+00         0.00000E+00         0.00000E+00
    0.00000E+00         0.00000E+00         0.00000E+00
    0.00000E+00         0.00000E+00         0.00000E+00
    0.00000E+00         0.00000E+00         0.00000E+00
    0.00000E+00         0.00000E+00         0.00000E+00
    0.00000E+00         0.00000E+00         0.00000E+00
    0.00000E+00         0.00000E+00         0.00000E+00
    0.00000E+00         0.00000E+00         0.00000E+00
    0.00000E+00         0.00000E+00         0.00000E+00
    0.00000E+00         0.00000E+00         0.00000E+00
    0.00000E+00         0.00000E+00         0.00000E+00
    0.00000E+00         0.00000E+00         0.00000E+00
    0.00000E+00         0.00000E+00         0.00000E+00
    0.00000E+00         0.00000E+00         0.00000E+00
    0.00000E+00         0.00000E+00         0.00000E+00
    0.00000E+00         0.00000E+00         0.00000E+00
    0.00000E+00         0.00000E+00         0.00000E+00
    0.00000E+00         0.00000E+00         0.00000E+00
    0.00000E+00         0.00000E+00         0.00000E+00
    0.00000E+00         0.00000E+00         0.00000E+00
    0.00000E+00         0.00000E+00         0.00000E+00
    0.00000E+00         0.00000E+00         0.00000E+00
    0.00000E+00         0.00000E+00         0.00000E+00
    0.00000E+00         0.00000E+00         0.00000E+00
    0.00000E+00         0.00000E+00         0.00000E+00
    0.00000E+00         0.00000E+00         0.00000E+00
    0.00000E+00         0.00000E+00         0.00000E+00
    0.00000E+00         0.00000E+00         0.00000E+00
    0.00000E+00         0.00000E+00         0.00000E+00
    0.00000E+00         0.00000E+00         0.00000E+00
    0.00000E+00         0.00000E+00         0.00000E+00
    0.00000E+00         0.69826E-06         0.00000E+00
    0.13706E-04        -0.89534E-06         0.00000E+00
    0.21675E-04        -0.39658E-05         0.00000E+00
    0.27915E-04        -0.72662E-05         0.00000E+00
    0.33002E-04        -0.11031E-04         0.00000E+00
    0.37417E-04        -0.15075E-04         0.00000E+00
    0.41394E-04        -0.19382E-04         0.00000E+00
    0.45082E-04        -0.23877E-04         0.00000E+00
    0.48565E-04        -0.28517E-04         0.00000E+00
    0.51890E-04        -0.33261E-04         0.00000E+00
    0.55080E-04        -0.38075E-04         0.00000E+00
    0.58144E-04        -0.42936E-04         0.00000E+00
    0.61085E-04        -0.47824E-04         0.00000E+00
    0.63902E-04        -0.52727E-04         0.00000E+00
    0.66595E-04        -0.57636E-04         0.00000E+00
    0.69164E-04        -0.62546E-04         0.00000E+00
    0.71609E-04        -0.67455E-04         0.00000E+00
    0.73932E-04        -0.72362E-04         0.00000E+00
    0.76139E-04        -0.77268E-04         0.00000E+00
    0.78233E-04        -0.82175E-04         0.00000E+00
    0.80221E-04        -0.87084E-04         0.00000E+00
    0.82109E-04        -0.91999E-04         0.00000E+00
    0.83904E-04        -0.96923E-04         0.00000E+00
    0.85613E-04        -0.10186E-03         0.00000E+00
    0.87243E-04        -0.10681E-03         0.00000E+00
    0.88801E-04        -0.11178E-03         0.00000E+00
    0.90293E-04        -0.11676E-03         0.00000E+00
    0.91726E-04        -0.12177E-03         0.00000E+00
    0.93104E-04        -0.12681E-03         0.00000E+00
    0.94434E-04        -0.13187E-03         0.00000E+00
    0.95720E-04        -0.13697E-03         0.00000E+00
    0.96967E-04        -0.14209E-03         0.00000E+00
    0.98179E-04        -0.14725E-03         0.00000E+00
    0.99358E-04        -0.15244E-03         0.00000E+00
    0.10051E-03        -0.15767E-03         0.00000E+00
    0.10163E-03        -0.16294E-03         0.00000E+00
    0.10273E-03        -0.16825E-03         0.00000E+00
    0.10381E-03        -0.17360E-03         0.00000E+00
    0.10487E-03        -0.17899E-03         0.00000E+00
    0.10591E-03        -0.18443E-03         0.00000E+00
    0.10693E-03        -0.18991E-03         0.00000E+00
    0.10793E-03        -0.19543E-03         0.00000E+00
    0.10892E-03        -0.20101E-03         0.00000E+00
    0.10989E-03        -0.20663E-03         0.00000E+00
    0.11085E-03        -0.21230E-03         0.00000E+00
    0.11179E-03        -0.21802E-03         0.00000E+00
    0.11271E-03        -0.22378E-03         0.00000E+00
    0.11362E-03        -0.22960E-03         0.00000E+00
    0.11451E-03        -0.23548E-03         0.00000E+00
    0.11538E-03        -0.24140E-03         0.00000E+00
    0.11623E-03        -0.24737E-03         0.00000E+00
    0.11706E-03        -0.25340E-03         0.00000E+00
    0.11787E-03        -0.25948E-03         0.00000E+00
    0.11865E-03        -0.26562E-03         0.00000E+00
    0.11941E-03        -0.27181E-03         0.00000E+00
    0.12014E-03        -0.27805E-03         0.00000E+00
    0.12084E-03        -0.28435E-03         0.00000E+00
    0.12151E-03        -0.29070E-03         0.00000E+00
    0.12214E-03        -0.29711E-03         0.00000E+00
    0.12273E-03        -0.30358E-03         0.00000E+00
    0.12328E-03        -0.31009E-03         0.00000E+00
    0.12378E-03        -0.31667E-03         0.00000E+00
    0.12423E-03        -0.32330E-03         0.00000E+00
    0.12463E-03        -0.32999E-03         0.00000E+00
    0.12497E-03        -0.33673E-03         0.00000E+00
    0.12525E-03        -0.34353E-03         0.00000E+00
    0.12545E-03        -0.35039E-03         0.00000E+00
    0.12558E-03        -0.35730E-03         0.00000E+00
    0.12563E-03        -0.36427E-03         0.00000E+00
    0.12559E-03        -0.37129E-03         0.00000E+00
    0.12545E-03        -0.37838E-03         0.00000E+00
    0.12520E-03        -0.38552E-03         0.00000E+00
    0.12483E-03        -0.39272E-03         0.00000E+00
    0.12435E-03        -0.39998E-03         0.00000E+00
    0.12372E-03        -0.40731E-03         0.00000E+00
    0.12295E-03        -0.41469E-03         0.00000E+00
    0.12202E-03        -0.42214E-03         0.00000E+00
    0.12092E-03        -0.42965E-03         0.00000E+00
    0.11964E-03        -0.43722E-03         0.00000E+00
    0.11816E-03        -0.44487E-03         0.00000E+00
    0.11647E-03        -0.45258E-03         0.00000E+00
    0.11456E-03        -0.46036E-03         0.00000E+00
    0.11241E-03        -0.46822E-03         0.00000E+00
    0.11003E-03        -0.47614E-03         0.00000E+00
    0.10739E-03        -0.48413E-03         0.00000E+00
    0.10450E-03        -0.49219E-03         0.00000E+00
    0.10134E-03        -0.50032E-03         0.00000E+00
    0.97926E-04        -0.50849E-03         0.00000E+00
    0.94248E-04        -0.51671E-03         0.00000E+00
    0.90312E-04        -0.52494E-03         0.00000E+00
    0.86120E-04        -0.53317E-03         0.00000E+00
    0.81668E-04        -0.54136E-03         0.00000E+00
    0.76942E-04        -0.54945E-03         0.00000E+00
    0.71905E-04        -0.55740E-03         0.00000E+00
    0.66477E-04        -0.56512E-03         0.00000E+00
    0.60516E-04        -0.57253E-03         0.00000E+00
    0.53767E-04        -0.57950E-03         0.00000E+00
    0.45828E-04        -0.58600E-03         0.00000E+00
    0.35871E-04        -0.59170E-03         0.00000E+00
    0.22904E-04        -0.59701E-03         0.00000E+00
    0.00000E+00        -0.59977E-03         0.00000E+00
    0.00000E+00        -0.65918E-06         0.00000E+00
    0.25738E-04        -0.32701E-05         0.00000E+00
    0.42077E-04        -0.88640E-05         0.00000E+00
    0.54606E-04        -0.15354E-04         0.00000E+00
    0.64932E-04        -0.22725E-04         0.00000E+00
    0.73865E-04        -0.30753E-04         0.00000E+00
    0.81911E-04        -0.39309E-04         0.00000E+00
    0.89355E-04        -0.48267E-04         0.00000E+00
    0.96372E-04        -0.57522E-04         0.00000E+00
    0.10305E-03        -0.66988E-04         0.00000E+00
    0.10945E-03        -0.76597E-04         0.00000E+00
    0.11559E-03        -0.86300E-04         0.00000E+00
    0.12147E-03        -0.96059E-04         0.00000E+00
    0.12710E-03        -0.10585E-03         0.00000E+00
    0.13247E-03        -0.11565E-03         0.00000E+00
    0.13759E-03        -0.12545E-03         0.00000E+00
    0.14246E-03        -0.13525E-03         0.00000E+00
    0.14709E-03        -0.14505E-03         0.00000E+00
    0.15149E-03        -0.15484E-03         0.00000E+00
    0.15566E-03        -0.16464E-03         0.00000E+00
    0.15962E-03        -0.17444E-03         0.00000E+00
    0.16338E-03        -0.18426E-03         0.00000E+00
    0.16695E-03        -0.19410E-03         0.00000E+00
    0.17035E-03        -0.20395E-03         0.00000E+00
    0.17360E-03        -0.21384E-03         0.00000E+00
    0.17670E-03        -0.22377E-03         0.00000E+00
    0.17967E-03        -0.23373E-03         0.00000E+00
    0.18252E-03        -0.24375E-03         0.00000E+00
    0.18527E-03        -0.25381E-03         0.00000E+00
    0.18791E-03        -0.26393E-03         0.00000E+00
    0.19047E-03        -0.27411E-03         0.00000E+00
    0.19296E-03        -0.28435E-03         0.00000E+00
    0.19537E-03        -0.29466E-03         0.00000E+00
    0.19771E-03        -0.30505E-03         0.00000E+00
    0.20000E-03        -0.31550E-03         0.00000E+00
    0.20224E-03        -0.32604E-03         0.00000E+00
    0.20443E-03        -0.33665E-03         0.00000E+00
    0.20658E-03        -0.34735E-03         0.00000E+00
    0.20868E-03        -0.35813E-03         0.00000E+00
    0.21075E-03        -0.36900E-03         0.00000E+00
    0.21278E-03        -0.37996E-03         0.00000E+00
    0.21478E-03        -0.39101E-03         0.00000E+00
    0.21675E-03        -0.40215E-03         0.00000E+00
    0.21868E-03        -0.41339E-03         0.00000E+00
    0.22058E-03        -0.42473E-03         0.00000E+00
    0.22245E-03        -0.43616E-03         0.00000E+00
    0.22429E-03        -0.44770E-03         0.00000E+00
    0.22610E-03        -0.45934E-03         0.00000E+00
    0.22786E-03        -0.47108E-03         0.00000E+00
    0.22960E-03        -0.48292E-03         0.00000E+00
    0.23129E-03        -0.49487E-03         0.00000E+00
    0.23294E-03        -0.50692E-03         0.00000E+00
    0.23455E-03        -0.51908E-03         0.00000E+00
    0.23611E-03        -0.53135E-03         0.00000E+00
    0.23761E-03        -0.54372E-03         0.00000E+00
    0.23906E-03        -0.55620E-03         0.00000E+00
    0.24045E-03        -0.56880E-03         0.00000E+00
    0.24178E-03        -0.58150E-03         0.00000E+00
    0.24303E-03        -0.59431E-03         0.00000E+00
    0.24421E-03        -0.60723E-03         0.00000E+00
    0.24530E-03        -0.62026E-03         0.00000E+00
    0.24630E-03        -0.63341E-03         0.00000E+00
    0.24720E-03        -0.64666E-03         0.00000E+00
    0.24799E-03        -0.66003E-03         0.00000E+00
    0.24867E-03        -0.67350E-03         0.00000E+00
    0.24922E-03        -0.68709E-03         0.00000E+00
    0.24962E-03        -0.70079E-03         0.00000E+00
    0.24988E-03        -0.71461E-03         0.00000E+00
    0.24997E-03        -0.72853E-03         0.00000E+00
    0.24988E-03        -0.74257E-03         0.00000E+00
    0.24960E-03        -0.75673E-03         0.00000E+00
    0.24910E-03        -0.77100E-03         0.00000E+00
    0.24838E-03        -0.78539E-03         0.00000E+00
    0.24740E-03        -0.79989E-03         0.00000E+00
    0.24616E-03        -0.81451E-03         0.00000E+00
    0.24462E-03        -0.82926E-03         0.00000E+00
    0.24277E-03        -0.84413E-03         0.00000E+00
    0.24058E-03        -0.85913E-03         0.00000E+00
    0.23802E-03        -0.87425E-03         0.00000E+00
    0.23507E-03        -0.88951E-03         0.00000E+00
    0.23170E-03        -0.90490E-03         0.00000E+00
    0.22790E-03        -0.92044E-03         0.00000E+00
    0.22363E-03        -0.93611E-03         0.00000E+00
    0.21887E-03        -0.95192E-03         0.00000E+00
    0.21362E-03        -0.96787E-03         0.00000E+00
    0.20785E-03        -0.98396E-03         0.00000E+00
    0.20155E-03        -0.10002E-02         0.00000E+00
    0.19472E-03        -0.10165E-02         0.00000E+00
    0.18737E-03        -0.10329E-02         0.00000E+00
    0.17949E-03        -0.10493E-02         0.00000E+00
    0.17108E-03        -0.10657E-02         0.00000E+00
    0.16213E-03        -0.10821E-02         0.00000E+00
    0.15262E-03        -0.10982E-02         0.00000E+00
    0.14245E-03        -0.11140E-02         0.00000E+00
    0.13146E-03        -0.11294E-02         0.00000E+00
    0.11938E-03        -0.11441E-02         0.00000E+00
    0.10569E-03        -0.11580E-02         0.00000E+00
    0.89546E-04        -0.11707E-02         0.00000E+00
    0.69544E-04        -0.11819E-02         0.00000E+00
    0.42912E-04        -0.11916E-02         0.00000E+00
    0.00000E+00        -0.11961E-02         0.00000E+00
    0.00000E+00        -0.37194E-05         0.00000E+00
    0.36547E-04        -0.70503E-05         0.00000E+00
    0.61247E-04        -0.14751E-04         0.00000E+00
    0.80173E-04        -0.24247E-04         0.00000E+00
    0.95825E-04        -0.35107E-04         0.00000E+00
    0.10938E-03        -0.47038E-04         0.00000E+00
    0.12157E-03        -0.59794E-04         0.00000E+00
    0.13284E-03        -0.73176E-04         0.00000E+00
    0.14343E-03        -0.87017E-04         0.00000E+00
    0.15350E-03        -0.10118E-03         0.00000E+00
    0.16313E-03        -0.11557E-03         0.00000E+00
    0.17234E-03        -0.13009E-03         0.00000E+00
    0.18116E-03        -0.14470E-03         0.00000E+00
    0.18959E-03        -0.15936E-03         0.00000E+00
    0.19763E-03        -0.17403E-03         0.00000E+00
    0.20529E-03        -0.18871E-03         0.00000E+00
    0.21258E-03        -0.20338E-03         0.00000E+00
    0.21950E-03        -0.21805E-03         0.00000E+00
    0.22606E-03        -0.23272E-03         0.00000E+00
    0.23229E-03        -0.24739E-03         0.00000E+00
    0.23820E-03        -0.26208E-03         0.00000E+00
    0.24381E-03        -0.27678E-03         0.00000E+00
    0.24915E-03        -0.29151E-03         0.00000E+00
    0.25423E-03        -0.30628E-03         0.00000E+00
    0.25907E-03        -0.32110E-03         0.00000E+00
    0.26370E-03        -0.33597E-03         0.00000E+00
    0.26813E-03        -0.35091E-03         0.00000E+00
    0.27239E-03        -0.36592E-03         0.00000E+00
    0.27649E-03        -0.38100E-03         0.00000E+00
    0.28044E-03        -0.39617E-03         0.00000E+00
    0.28426E-03        -0.41143E-03         0.00000E+00
    0.28797E-03        -0.42679E-03         0.00000E+00
    0.29157E-03        -0.44225E-03         0.00000E+00
    0.29507E-03        -0.45782E-03         0.00000E+00
    0.29849E-03        -0.47349E-03         0.00000E+00
    0.30183E-03        -0.48929E-03         0.00000E+00
    0.30510E-03        -0.50521E-03         0.00000E+00
    0.30830E-03        -0.52125E-03         0.00000E+00
    0.31144E-03        -0.53741E-03         0.00000E+00
    0.31453E-03        -0.55371E-03         0.00000E+00
    0.31756E-03        -0.57015E-03         0.00000E+00
    0.32054E-03        -0.58672E-03         0.00000E+00
    0.32348E-03        -0.60343E-03         0.00000E+00
    0.32636E-03        -0.62029E-03         0.00000E+00
    0.32920E-03        -0.63729E-03         0.00000E+00
    0.33199E-03        -0.65444E-03         0.00000E+00
    0.33473E-03        -0.67174E-03         0.00000E+00
    0.33743E-03        -0.68919E-03         0.00000E+00
    0.34007E-03        -0.70680E-03         0.00000E+00
    0.34265E-03        -0.72456E-03         0.00000E+00
    0.34517E-03        -0.74248E-03         0.00000E+00
    0.34764E-03        -0.76055E-03         0.00000E+00
    0.35004E-03        -0.77878E-03         0.00000E+00
    0.35236E-03        -0.79718E-03         0.00000E+00
    0.35461E-03        -0.81574E-03         0.00000E+00
    0.35677E-03        -0.83446E-03         0.00000E+00
    0.35885E-03        -0.85334E-03         0.00000E+00
    0.36082E-03        -0.87238E-03         0.00000E+00
    0.36269E-03        -0.89159E-03         0.00000E+00
    0.36445E-03        -0.91097E-03         0.00000E+00
    0.36607E-03        -0.93051E-03         0.00000E+00
    0.36757E-03        -0.95021E-03         0.00000E+00
    0.36891E-03        -0.97008E-03         0.00000E+00
    0.37009E-03        -0.99012E-03         0.00000E+00
    0.37109E-03        -0.10103E-02         0.00000E+00
    0.37191E-03        -0.10307E-02         0.00000E+00
    0.37251E-03        -0.10512E-02         0.00000E+00
    0.37289E-03        -0.10719E-02         0.00000E+00
    0.37303E-03        -0.10928E-02         0.00000E+00
    0.37289E-03        -0.11138E-02         0.00000E+00
    0.37247E-03        -0.11351E-02         0.00000E+00
    0.37173E-03        -0.11564E-02         0.00000E+00
    0.37064E-03        -0.11780E-02         0.00000E+00
    0.36919E-03        -0.11997E-02         0.00000E+00
    0.36732E-03        -0.12216E-02         0.00000E+00
    0.36503E-03        -0.12437E-02         0.00000E+00
    0.36226E-03        -0.12660E-02         0.00000E+00
    0.35898E-03        -0.12884E-02         0.00000E+00
    0.35516E-03        -0.13111E-02         0.00000E+00
    0.35076E-03        -0.13339E-02         0.00000E+00
    0.34573E-03        -0.13570E-02         0.00000E+00
    0.34004E-03        -0.13802E-02         0.00000E+00
    0.33366E-03        -0.14037E-02         0.00000E+00
    0.32656E-03        -0.14273E-02         0.00000E+00
    0.31870E-03        -0.14512E-02         0.00000E+00
    0.31006E-03        -0.14753E-02         0.00000E+00
    0.30063E-03        -0.14995E-02         0.00000E+00
    0.29041E-03        -0.15240E-02         0.00000E+00
    0.27938E-03        -0.15485E-02         0.00000E+00
    0.26754E-03        -0.15731E-02         0.00000E+00
    0.25489E-03        -0.15977E-02         0.00000E+00
    0.24141E-03        -0.16221E-02         0.00000E+00
    0.22704E-03        -0.16463E-02         0.00000E+00
    0.21165E-03        -0.16699E-02         0.00000E+00
    0.19500E-03        -0.16929E-02         0.00000E+00
    0.17664E-03        -0.17148E-02         0.00000E+00
    0.15584E-03        -0.17354E-02         0.00000E+00
    0.13133E-03        -0.17541E-02         0.00000E+00
    0.10109E-03        -0.17705E-02         0.00000E+00
    0.60809E-04        -0.17838E-02         0.00000E+00
    0.00000E+00        -0.17896E-02         0.00000E+00
    0.00000E+00        -0.82525E-05         0.00000E+00
    0.46423E-04        -0.12141E-04         0.00000E+00
    0.79294E-04        -0.21644E-04         0.00000E+00
    0.10468E-03        -0.33948E-04         0.00000E+00
    0.12573E-03        -0.48186E-04         0.00000E+00
    0.14399E-03        -0.63939E-04         0.00000E+00
    0.16040E-03        -0.80842E-04         0.00000E+00
    0.17554E-03        -0.98610E-04         0.00000E+00
    0.18976E-03        -0.11701E-03         0.00000E+00
    0.20325E-03        -0.13585E-03         0.00000E+00
    0.21611E-03        -0.15499E-03         0.00000E+00
    0.22841E-03        -0.17432E-03         0.00000E+00
    0.24016E-03        -0.19376E-03         0.00000E+00
    0.25139E-03        -0.21326E-03         0.00000E+00
    0.26209E-03        -0.23278E-03         0.00000E+00
    0.27227E-03        -0.25232E-03         0.00000E+00
    0.28195E-03        -0.27185E-03         0.00000E+00
    0.29114E-03        -0.29137E-03         0.00000E+00
    0.29986E-03        -0.31090E-03         0.00000E+00
    0.30813E-03        -0.33043E-03         0.00000E+00
    0.31597E-03        -0.34998E-03         0.00000E+00
    0.32342E-03        -0.36956E-03         0.00000E+00
    0.33050E-03        -0.38918E-03         0.00000E+00
    0.33724E-03        -0.40885E-03         0.00000E+00
    0.34367E-03        -0.42858E-03         0.00000E+00
    0.34981E-03        -0.44839E-03         0.00000E+00
    0.35569E-03        -0.46829E-03         0.00000E+00
    0.36134E-03        -0.48828E-03         0.00000E+00
    0.36677E-03        -0.50838E-03         0.00000E+00
    0.37202E-03        -0.52859E-03         0.00000E+00
    0.37709E-03        -0.54893E-03         0.00000E+00
    0.38200E-03        -0.56940E-03         0.00000E+00
    0.38678E-03        -0.59000E-03         0.00000E+00
    0.39143E-03        -0.61075E-03         0.00000E+00
    0.39596E-03        -0.63164E-03         0.00000E+00
    0.40039E-03        -0.65270E-03         0.00000E+00
    0.40473E-03        -0.67391E-03         0.00000E+00
    0.40898E-03        -0.69529E-03         0.00000E+00
    0.41315E-03        -0.71684E-03         0.00000E+00
    0.41724E-03        -0.73857E-03         0.00000E+00
    0.42127E-03        -0.76048E-03         0.00000E+00
    0.42522E-03        -0.78257E-03         0.00000E+00
    0.42911E-03        -0.80485E-03         0.00000E+00
    0.43294E-03        -0.82732E-03         0.00000E+00
    0.43671E-03        -0.84999E-03         0.00000E+00
    0.44041E-03        -0.87285E-03         0.00000E+00
    0.44404E-03        -0.89591E-03         0.00000E+00
    0.44761E-03        -0.91917E-03         0.00000E+00
    0.45111E-03        -0.94264E-03         0.00000E+00
    0.45454E-03        -0.96632E-03         0.00000E+00
    0.45789E-03        -0.99020E-03         0.00000E+00
    0.46116E-03        -0.10143E-02         0.00000E+00
    0.46434E-03        -0.10386E-02         0.00000E+00
    0.46742E-03        -0.10631E-02         0.00000E+00
    0.47040E-03        -0.10879E-02         0.00000E+00
    0.47327E-03        -0.11128E-02         0.00000E+00
    0.47602E-03        -0.11380E-02         0.00000E+00
    0.47864E-03        -0.11634E-02         0.00000E+00
    0.48112E-03        -0.11890E-02         0.00000E+00
    0.48344E-03        -0.12148E-02         0.00000E+00
    0.48560E-03        -0.12408E-02         0.00000E+00
    0.48758E-03        -0.12671E-02         0.00000E+00
    0.48936E-03        -0.12936E-02         0.00000E+00
    0.49092E-03        -0.13203E-02         0.00000E+00
    0.49225E-03        -0.13472E-02         0.00000E+00
    0.49333E-03        -0.13743E-02         0.00000E+00
    0.49413E-03        -0.14017E-02         0.00000E+00
    0.49463E-03        -0.14293E-02         0.00000E+00
    0.49481E-03        -0.14571E-02         0.00000E+00
    0.49463E-03        -0.14851E-02         0.00000E+00
    0.49406E-03        -0.15133E-02         0.00000E+00
    0.49307E-03        -0.15418E-02         0.00000E+00
    0.49163E-03        -0.15705E-02         0.00000E+00
    0.48970E-03        -0.15995E-02         0.00000E+00
    0.48723E-03        -0.16286E-02         0.00000E+00
    0.48418E-03        -0.16580E-02         0.00000E+00
    0.48050E-03        -0.16877E-02         0.00000E+00
    0.47615E-03        -0.17176E-02         0.00000E+00
    0.47108E-03        -0.17477E-02         0.00000E+00
    0.46523E-03        -0.17781E-02         0.00000E+00
    0.45856E-03        -0.18088E-02         0.00000E+00
    0.45101E-03        -0.18397E-02         0.00000E+00
    0.44253E-03        -0.18709E-02         0.00000E+00
    0.43309E-03        -0.19024E-02         0.00000E+00
    0.42265E-03        -0.19342E-02         0.00000E+00
    0.41116E-03        -0.19662E-02         0.00000E+00
    0.39862E-03        -0.19985E-02         0.00000E+00
    0.38500E-03        -0.20309E-02         0.00000E+00
    0.37029E-03        -0.20636E-02         0.00000E+00
    0.35449E-03        -0.20963E-02         0.00000E+00
    0.33759E-03        -0.21290E-02         0.00000E+00
    0.31954E-03        -0.21615E-02         0.00000E+00
    0.30025E-03        -0.21936E-02         0.00000E+00
    0.27956E-03        -0.22251E-02         0.00000E+00
    0.25713E-03        -0.22555E-02         0.00000E+00
    0.23237E-03        -0.22846E-02         0.00000E+00
    0.20430E-03        -0.23117E-02         0.00000E+00
    0.17130E-03        -0.23363E-02         0.00000E+00
    0.13070E-03        -0.23575E-02         0.00000E+00
    0.77093E-04        -0.23739E-02         0.00000E+00
    0.00000E+00        -0.23807E-02         0.00000E+00
    0.00000E+00        -0.14095E-04         0.00000E+00
    0.55557E-04        -0.18449E-04         0.00000E+00
    0.96342E-04        -0.29535E-04         0.00000E+00
    0.12821E-03        -0.44458E-04         0.00000E+00
    0.15470E-03        -0.61968E-04         0.00000E+00
    0.17772E-03        -0.81462E-04         0.00000E+00
    0.19842E-03        -0.10246E-03         0.00000E+00
    0.21749E-03        -0.12457E-03         0.00000E+00
    0.23537E-03        -0.14750E-03         0.00000E+00
    0.25230E-03        -0.17099E-03         0.00000E+00
    0.26842E-03        -0.19486E-03         0.00000E+00
    0.28381E-03        -0.21897E-03         0.00000E+00
    0.29850E-03        -0.24322E-03         0.00000E+00
    0.31251E-03        -0.26755E-03         0.00000E+00
    0.32585E-03        -0.29191E-03         0.00000E+00
    0.33855E-03        -0.31628E-03         0.00000E+00
    0.35060E-03        -0.34064E-03         0.00000E+00
    0.36204E-03        -0.36501E-03         0.00000E+00
    0.37289E-03        -0.38937E-03         0.00000E+00
    0.38318E-03        -0.41375E-03         0.00000E+00
    0.39294E-03        -0.43815E-03         0.00000E+00
    0.40220E-03        -0.46259E-03         0.00000E+00
    0.41101E-03        -0.48708E-03         0.00000E+00
    0.41939E-03        -0.51164E-03         0.00000E+00
    0.42739E-03        -0.53628E-03         0.00000E+00
    0.43503E-03        -0.56102E-03         0.00000E+00
    0.44234E-03        -0.58587E-03         0.00000E+00
    0.44937E-03        -0.61084E-03         0.00000E+00
    0.45613E-03        -0.63595E-03         0.00000E+00
    0.46265E-03        -0.66120E-03         0.00000E+00
    0.46895E-03        -0.68660E-03         0.00000E+00
    0.47507E-03        -0.71217E-03         0.00000E+00
    0.48101E-03        -0.73791E-03         0.00000E+00
    0.48679E-03        -0.76383E-03         0.00000E+00
    0.49243E-03        -0.78995E-03         0.00000E+00
    0.49794E-03        -0.81625E-03         0.00000E+00
    0.50333E-03        -0.84276E-03         0.00000E+00
    0.50861E-03        -0.86948E-03         0.00000E+00
    0.51380E-03        -0.89642E-03         0.00000E+00
    0.51889E-03        -0.92357E-03         0.00000E+00
    0.52390E-03        -0.95095E-03         0.00000E+00
    0.52882E-03        -0.97856E-03         0.00000E+00
    0.53366E-03        -0.10064E-02         0.00000E+00
    0.53842E-03        -0.10345E-02         0.00000E+00
    0.54310E-03        -0.10628E-02         0.00000E+00
    0.54770E-03        -0.10914E-02         0.00000E+00
    0.55222E-03        -0.11202E-02         0.00000E+00
    0.55666E-03        -0.11493E-02         0.00000E+00
    0.56101E-03        -0.11786E-02         0.00000E+00
    0.56527E-03        -0.12082E-02         0.00000E+00
    0.56944E-03        -0.12380E-02         0.00000E+00
    0.57350E-03        -0.12681E-02         0.00000E+00
    0.57745E-03        -0.12985E-02         0.00000E+00
    0.58128E-03        -0.13292E-02         0.00000E+00
    0.58499E-03        -0.13601E-02         0.00000E+00
    0.58856E-03        -0.13912E-02         0.00000E+00
    0.59198E-03        -0.14227E-02         0.00000E+00
    0.59523E-03        -0.14544E-02         0.00000E+00
    0.59831E-03        -0.14864E-02         0.00000E+00
    0.60120E-03        -0.15187E-02         0.00000E+00
    0.60388E-03        -0.15512E-02         0.00000E+00
    0.60634E-03        -0.15840E-02         0.00000E+00
    0.60855E-03        -0.16171E-02         0.00000E+00
    0.61050E-03        -0.16504E-02         0.00000E+00
    0.61215E-03        -0.16841E-02         0.00000E+00
    0.61349E-03        -0.17180E-02         0.00000E+00
    0.61448E-03        -0.17521E-02         0.00000E+00
    0.61510E-03        -0.17866E-02         0.00000E+00
    0.61532E-03        -0.18213E-02         0.00000E+00
    0.61509E-03        -0.18563E-02         0.00000E+00
    0.61438E-03        -0.18916E-02         0.00000E+00
    0.61315E-03        -0.19272E-02         0.00000E+00
    0.61136E-03        -0.19630E-02         0.00000E+00
    0.60895E-03        -0.19991E-02         0.00000E+00
    0.60587E-03        -0.20355E-02         0.00000E+00
    0.60208E-03        -0.20722E-02         0.00000E+00
    0.59751E-03        -0.21092E-02         0.00000E+00
    0.59209E-03        -0.21465E-02         0.00000E+00
    0.58578E-03        -0.21842E-02         0.00000E+00
    0.57850E-03        -0.22221E-02         0.00000E+00
    0.57020E-03        -0.22604E-02         0.00000E+00
    0.56080E-03        -0.22989E-02         0.00000E+00
    0.55025E-03        -0.23379E-02         0.00000E+00
    0.53850E-03        -0.23771E-02         0.00000E+00
    0.52548E-03        -0.24167E-02         0.00000E+00
    0.51117E-03        -0.24567E-02         0.00000E+00
    0.49552E-03        -0.24969E-02         0.00000E+00
    0.47852E-03        -0.25374E-02         0.00000E+00
    0.46014E-03        -0.25781E-02         0.00000E+00
    0.44037E-03        -0.26189E-02         0.00000E+00
    0.41918E-03        -0.26596E-02         0.00000E+00
    0.39652E-03        -0.27002E-02         0.00000E+00
    0.37227E-03        -0.27402E-02         0.00000E+00
    0.34620E-03        -0.27794E-02         0.00000E+00
    0.31789E-03        -0.28173E-02         0.00000E+00
    0.28661E-03        -0.28534E-02         0.00000E+00
    0.25116E-03        -0.28869E-02         0.00000E+00
    0.20958E-03        -0.29171E-02         0.00000E+00
    0.15859E-03        -0.29429E-02         0.00000E+00
    0.92098E-04        -0.29620E-02         0.00000E+00
    0.00000E+00        -0.29696E-02         0.00000E+00
    0.00000E+00        -0.21124E-04         0.00000E+00
    0.64087E-04        -0.25889E-04         0.00000E+00
    0.11250E-03        -0.38401E-04         0.00000E+00
    0.15081E-03        -0.55777E-04         0.00000E+00
    0.18279E-03        -0.76452E-04         0.00000E+00
    0.21063E-03        -0.99614E-04         0.00000E+00
    0.23565E-03        -0.12465E-03         0.00000E+00
    0.25870E-03        -0.15107E-03         0.00000E+00
    0.28027E-03        -0.17849E-03         0.00000E+00
    0.30067E-03        -0.20660E-03         0.00000E+00
    0.32006E-03        -0.23518E-03         0.00000E+00
    0.33854E-03        -0.26405E-03         0.00000E+00
    0.35617E-03        -0.29309E-03         0.00000E+00
    0.37296E-03        -0.32222E-03         0.00000E+00
    0.38893E-03        -0.35140E-03         0.00000E+00
    0.40412E-03        -0.38059E-03         0.00000E+00
    0.41853E-03        -0.40977E-03         0.00000E+00
    0.43221E-03        -0.43895E-03         0.00000E+00
    0.44517E-03        -0.46814E-03         0.00000E+00
    0.45746E-03        -0.49735E-03         0.00000E+00
    0.46911E-03        -0.52658E-03         0.00000E+00
    0.48017E-03        -0.55587E-03         0.00000E+00
    0.49069E-03        -0.58522E-03         0.00000E+00
    0.50070E-03        -0.61466E-03         0.00000E+00
    0.51024E-03        -0.64420E-03         0.00000E+00
    0.51936E-03        -0.67385E-03         0.00000E+00
    0.52809E-03        -0.70365E-03         0.00000E+00
    0.53648E-03        -0.73359E-03         0.00000E+00
    0.54455E-03        -0.76369E-03         0.00000E+00
    0.55233E-03        -0.79397E-03         0.00000E+00
    0.55986E-03        -0.82444E-03         0.00000E+00
    0.56716E-03        -0.85511E-03         0.00000E+00
    0.57425E-03        -0.88599E-03         0.00000E+00
    0.58115E-03        -0.91708E-03         0.00000E+00
    0.58789E-03        -0.94840E-03         0.00000E+00
    0.59446E-03        -0.97996E-03         0.00000E+00
    0.60090E-03        -0.10118E-02         0.00000E+00
    0.60721E-03        -0.10438E-02         0.00000E+00
    0.61340E-03        -0.10761E-02         0.00000E+00
    0.61948E-03        -0.11087E-02         0.00000E+00
    0.62545E-03        -0.11416E-02         0.00000E+00
    0.63133E-03        -0.11747E-02         0.00000E+00
    0.63710E-03        -0.12081E-02         0.00000E+00
    0.64279E-03        -0.12418E-02         0.00000E+00
    0.64838E-03        -0.12758E-02         0.00000E+00
    0.65387E-03        -0.13100E-02         0.00000E+00
    0.65927E-03        -0.13446E-02         0.00000E+00
    0.66457E-03        -0.13795E-02         0.00000E+00
    0.66976E-03        -0.14147E-02         0.00000E+00
    0.67485E-03        -0.14502E-02         0.00000E+00
    0.67982E-03        -0.14860E-02         0.00000E+00
    0.68466E-03        -0.15221E-02         0.00000E+00
    0.68938E-03        -0.15585E-02         0.00000E+00
    0.69396E-03        -0.15953E-02         0.00000E+00
    0.69838E-03        -0.16324E-02         0.00000E+00
    0.70264E-03        -0.16698E-02         0.00000E+00
    0.70672E-03        -0.17075E-02         0.00000E+00
    0.71060E-03        -0.17456E-02         0.00000E+00
    0.71428E-03        -0.17839E-02         0.00000E+00
    0.71773E-03        -0.18226E-02         0.00000E+00
    0.72093E-03        -0.18617E-02         0.00000E+00
    0.72386E-03        -0.19010E-02         0.00000E+00
    0.72650E-03        -0.19407E-02         0.00000E+00
    0.72881E-03        -0.19807E-02         0.00000E+00
    0.73079E-03        -0.20210E-02         0.00000E+00
    0.73238E-03        -0.20617E-02         0.00000E+00
    0.73357E-03        -0.21026E-02         0.00000E+00
    0.73430E-03        -0.21439E-02         0.00000E+00
    0.73456E-03        -0.21856E-02         0.00000E+00
    0.73429E-03        -0.22275E-02         0.00000E+00
    0.73344E-03        -0.22698E-02         0.00000E+00
    0.73197E-03        -0.23125E-02         0.00000E+00
    0.72983E-03        -0.23554E-02         0.00000E+00
    0.72695E-03        -0.23987E-02         0.00000E+00
    0.72328E-03        -0.24423E-02         0.00000E+00
    0.71874E-03        -0.24863E-02         0.00000E+00
    0.71328E-03        -0.25307E-02         0.00000E+00
    0.70682E-03        -0.25754E-02         0.00000E+00
    0.69928E-03        -0.26204E-02         0.00000E+00
    0.69059E-03        -0.26658E-02         0.00000E+00
    0.68067E-03        -0.27117E-02         0.00000E+00
    0.66945E-03        -0.27579E-02         0.00000E+00
    0.65684E-03        -0.28045E-02         0.00000E+00
    0.64279E-03        -0.28515E-02         0.00000E+00
    0.62723E-03        -0.28989E-02         0.00000E+00
    0.61010E-03        -0.29467E-02         0.00000E+00
    0.59136E-03        -0.29949E-02         0.00000E+00
    0.57099E-03        -0.30434E-02         0.00000E+00
    0.54894E-03        -0.30921E-02         0.00000E+00
    0.52519E-03        -0.31409E-02         0.00000E+00
    0.49970E-03        -0.31897E-02         0.00000E+00
    0.47240E-03        -0.32382E-02         0.00000E+00
    0.44312E-03        -0.32861E-02         0.00000E+00
    0.41160E-03        -0.33329E-02         0.00000E+00
    0.37733E-03        -0.33782E-02         0.00000E+00
    0.33943E-03        -0.34212E-02         0.00000E+00
    0.29651E-03        -0.34611E-02         0.00000E+00
    0.24627E-03        -0.34967E-02         0.00000E+00
    0.18496E-03        -0.35267E-02         0.00000E+00
    0.10606E-03        -0.35483E-02         0.00000E+00
    0.00000E+00        -0.35565E-02         0.00000E+00
    0.00000E+00        -0.29241E-04         0.00000E+00
    0.72114E-04        -0.34384E-04         0.00000E+00
    0.12788E-03        -0.48209E-04         0.00000E+00
    0.17256E-03        -0.67900E-04         0.00000E+00
    0.21003E-03        -0.91639E-04         0.00000E+00
    0.24272E-03        -0.11840E-03         0.00000E+00
    0.27213E-03        -0.14742E-03         0.00000E+00
    0.29919E-03        -0.17811E-03         0.00000E+00
    0.32449E-03        -0.20999E-03         0.00000E+00
    0.34837E-03        -0.24269E-03         0.00000E+00
    0.37105E-03        -0.27595E-03         0.00000E+00
    0.39263E-03        -0.30955E-03         0.00000E+00
    0.41318E-03        -0.34336E-03         0.00000E+00
    0.43274E-03        -0.37728E-03         0.00000E+00
    0.45134E-03        -0.41125E-03         0.00000E+00
    0.46900E-03        -0.44524E-03         0.00000E+00
    0.48576E-03        -0.47922E-03         0.00000E+00
    0.50164E-03        -0.51321E-03         0.00000E+00
    0.51670E-03        -0.54720E-03         0.00000E+00
    0.53096E-03        -0.58122E-03         0.00000E+00
    0.54449E-03        -0.61528E-03         0.00000E+00
    0.55734E-03        -0.64940E-03         0.00000E+00
    0.56954E-03        -0.68360E-03         0.00000E+00
    0.58115E-03        -0.71790E-03         0.00000E+00
    0.59223E-03        -0.75233E-03         0.00000E+00
    0.60281E-03        -0.78689E-03         0.00000E+00
    0.61295E-03        -0.82162E-03         0.00000E+00
    0.62268E-03        -0.85652E-03         0.00000E+00
    0.63204E-03        -0.89162E-03         0.00000E+00
    0.64108E-03        -0.92693E-03         0.00000E+00
    0.64982E-03        -0.96245E-03         0.00000E+00
    0.65829E-03        -0.99821E-03         0.00000E+00
    0.66652E-03        -0.10342E-02         0.00000E+00
    0.67453E-03        -0.10705E-02         0.00000E+00
    0.68234E-03        -0.11070E-02         0.00000E+00
    0.68997E-03        -0.11438E-02         0.00000E+00
    0.69745E-03        -0.11809E-02         0.00000E+00
    0.70477E-03        -0.12183E-02         0.00000E+00
    0.71195E-03        -0.12560E-02         0.00000E+00
    0.71901E-03        -0.12940E-02         0.00000E+00
    0.72594E-03        -0.13323E-02         0.00000E+00
    0.73276E-03        -0.13709E-02         0.00000E+00
    0.73946E-03        -0.14099E-02         0.00000E+00
    0.74606E-03        -0.14492E-02         0.00000E+00
    0.75254E-03        -0.14888E-02         0.00000E+00
    0.75892E-03        -0.15288E-02         0.00000E+00
    0.76518E-03        -0.15691E-02         0.00000E+00
    0.77133E-03        -0.16098E-02         0.00000E+00
    0.77736E-03        -0.16509E-02         0.00000E+00
    0.78326E-03        -0.16923E-02         0.00000E+00
    0.78903E-03        -0.17340E-02         0.00000E+00
    0.79466E-03        -0.17762E-02         0.00000E+00
    0.80013E-03        -0.18187E-02         0.00000E+00
    0.80544E-03        -0.18616E-02         0.00000E+00
    0.81057E-03        -0.19048E-02         0.00000E+00
    0.81551E-03        -0.19484E-02         0.00000E+00
    0.82025E-03        -0.19924E-02         0.00000E+00
    0.82475E-03        -0.20368E-02         0.00000E+00
    0.82902E-03        -0.20815E-02         0.00000E+00
    0.83302E-03        -0.21267E-02         0.00000E+00
    0.83673E-03        -0.21722E-02         0.00000E+00
    0.84013E-03        -0.22181E-02         0.00000E+00
    0.84319E-03        -0.22643E-02         0.00000E+00
    0.84588E-03        -0.23110E-02         0.00000E+00
    0.84817E-03        -0.23580E-02         0.00000E+00
    0.85002E-03        -0.24054E-02         0.00000E+00
    0.85139E-03        -0.24531E-02         0.00000E+00
    0.85225E-03        -0.25013E-02         0.00000E+00
    0.85254E-03        -0.25498E-02         0.00000E+00
    0.85222E-03        -0.25987E-02         0.00000E+00
    0.85124E-03        -0.26480E-02         0.00000E+00
    0.84954E-03        -0.26977E-02         0.00000E+00
    0.84705E-03        -0.27478E-02         0.00000E+00
    0.84371E-03        -0.27982E-02         0.00000E+00
    0.83945E-03        -0.28491E-02         0.00000E+00
    0.83419E-03        -0.29003E-02         0.00000E+00
    0.82785E-03        -0.29519E-02         0.00000E+00
    0.82035E-03        -0.30040E-02         0.00000E+00
    0.81160E-03        -0.30565E-02         0.00000E+00
    0.80151E-03        -0.31094E-02         0.00000E+00
    0.78999E-03        -0.31627E-02         0.00000E+00
    0.77696E-03        -0.32165E-02         0.00000E+00
    0.76232E-03        -0.32708E-02         0.00000E+00
    0.74599E-03        -0.33255E-02         0.00000E+00
    0.72790E-03        -0.33807E-02         0.00000E+00
    0.70797E-03        -0.34363E-02         0.00000E+00
    0.68616E-03        -0.34924E-02         0.00000E+00
    0.66242E-03        -0.35488E-02         0.00000E+00
    0.63670E-03        -0.36055E-02         0.00000E+00
    0.60897E-03        -0.36623E-02         0.00000E+00
    0.57917E-03        -0.37191E-02         0.00000E+00
    0.54719E-03        -0.37755E-02         0.00000E+00
    0.51285E-03        -0.38312E-02         0.00000E+00
    0.47581E-03        -0.38857E-02         0.00000E+00
    0.43549E-03        -0.39382E-02         0.00000E+00
    0.39090E-03        -0.39881E-02         0.00000E+00
    0.34043E-03        -0.40341E-02         0.00000E+00
    0.28150E-03        -0.40750E-02         0.00000E+00
    0.20998E-03        -0.41090E-02         0.00000E+00
    0.11916E-03        -0.41329E-02         0.00000E+00
    0.00000E+00        -0.41417E-02         0.00000E+00
    0.00000E+00        -0.38365E-04         0.00000E+00
    0.79713E-04        -0.43867E-04         0.00000E+00
    0.14257E-03        -0.58925E-04         0.00000E+00
    0.19352E-03        -0.80816E-04         0.00000E+00
    0.23649E-03        -0.10753E-03         0.00000E+00
    0.27406E-03        -0.13781E-03         0.00000E+00
    0.30787E-03        -0.17077E-03         0.00000E+00
    0.33898E-03        -0.20568E-03         0.00000E+00
    0.36804E-03        -0.24199E-03         0.00000E+00
    0.39543E-03        -0.27926E-03         0.00000E+00
    0.42140E-03        -0.31717E-03         0.00000E+00
    0.44608E-03        -0.35549E-03         0.00000E+00
    0.46956E-03        -0.39404E-03         0.00000E+00
    0.49188E-03        -0.43273E-03         0.00000E+00
    0.51308E-03        -0.47147E-03         0.00000E+00
    0.53320E-03        -0.51023E-03         0.00000E+00
    0.55228E-03        -0.54900E-03         0.00000E+00
    0.57035E-03        -0.58777E-03         0.00000E+00
    0.58748E-03        -0.62656E-03         0.00000E+00
    0.60371E-03        -0.66537E-03         0.00000E+00
    0.61909E-03        -0.70423E-03         0.00000E+00
    0.63369E-03        -0.74317E-03         0.00000E+00
    0.64756E-03        -0.78221E-03         0.00000E+00
    0.66077E-03        -0.82136E-03         0.00000E+00
    0.67336E-03        -0.86067E-03         0.00000E+00
    0.68539E-03        -0.90013E-03         0.00000E+00
    0.69691E-03        -0.93979E-03         0.00000E+00
    0.70797E-03        -0.97965E-03         0.00000E+00
    0.71862E-03        -0.10197E-02         0.00000E+00
    0.72889E-03        -0.10601E-02         0.00000E+00
    0.73882E-03        -0.11006E-02         0.00000E+00
    0.74845E-03        -0.11415E-02         0.00000E+00
    0.75780E-03        -0.11826E-02         0.00000E+00
    0.76691E-03        -0.12240E-02         0.00000E+00
    0.77579E-03        -0.12658E-02         0.00000E+00
    0.78447E-03        -0.13078E-02         0.00000E+00
    0.79296E-03        -0.13502E-02         0.00000E+00
    0.80129E-03        -0.13929E-02         0.00000E+00
    0.80946E-03        -0.14360E-02         0.00000E+00
    0.81748E-03        -0.14794E-02         0.00000E+00
    0.82536E-03        -0.15232E-02         0.00000E+00
    0.83311E-03        -0.15673E-02         0.00000E+00
    0.84073E-03        -0.16118E-02         0.00000E+00
    0.84823E-03        -0.16567E-02         0.00000E+00
    0.85560E-03        -0.17020E-02         0.00000E+00
    0.86285E-03        -0.17477E-02         0.00000E+00
    0.86997E-03        -0.17938E-02         0.00000E+00
    0.87696E-03        -0.18403E-02         0.00000E+00
    0.88381E-03        -0.18872E-02         0.00000E+00
    0.89052E-03        -0.19345E-02         0.00000E+00
    0.89708E-03        -0.19822E-02         0.00000E+00
    0.90347E-03        -0.20304E-02         0.00000E+00
    0.90969E-03        -0.20789E-02         0.00000E+00
    0.91573E-03        -0.21279E-02         0.00000E+00
    0.92156E-03        -0.21773E-02         0.00000E+00
    0.92718E-03        -0.22271E-02         0.00000E+00
    0.93256E-03        -0.22774E-02         0.00000E+00
    0.93769E-03        -0.23281E-02         0.00000E+00
    0.94254E-03        -0.23792E-02         0.00000E+00
    0.94708E-03        -0.24308E-02         0.00000E+00
    0.95130E-03        -0.24828E-02         0.00000E+00
    0.95517E-03        -0.25352E-02         0.00000E+00
    0.95865E-03        -0.25880E-02         0.00000E+00
    0.96170E-03        -0.26413E-02         0.00000E+00
    0.96430E-03        -0.26950E-02         0.00000E+00
    0.96640E-03        -0.27491E-02         0.00000E+00
    0.96797E-03        -0.28037E-02         0.00000E+00
    0.96894E-03        -0.28587E-02         0.00000E+00
    0.96927E-03        -0.29141E-02         0.00000E+00
    0.96891E-03        -0.29699E-02         0.00000E+00
    0.96779E-03        -0.30262E-02         0.00000E+00
    0.96586E-03        -0.30829E-02         0.00000E+00
    0.96303E-03        -0.31401E-02         0.00000E+00
    0.95923E-03        -0.31976E-02         0.00000E+00
    0.95439E-03        -0.32557E-02         0.00000E+00
    0.94841E-03        -0.33141E-02         0.00000E+00
    0.94121E-03        -0.33731E-02         0.00000E+00
    0.93268E-03        -0.34325E-02         0.00000E+00
    0.92274E-03        -0.34923E-02         0.00000E+00
    0.91127E-03        -0.35527E-02         0.00000E+00
    0.89818E-03        -0.36135E-02         0.00000E+00
    0.88335E-03        -0.36749E-02         0.00000E+00
    0.86669E-03        -0.37368E-02         0.00000E+00
    0.84811E-03        -0.37992E-02         0.00000E+00
    0.82751E-03        -0.38621E-02         0.00000E+00
    0.80481E-03        -0.39256E-02         0.00000E+00
    0.77994E-03        -0.39895E-02         0.00000E+00
    0.75285E-03        -0.40538E-02         0.00000E+00
    0.72347E-03        -0.41184E-02         0.00000E+00
    0.69175E-03        -0.41831E-02         0.00000E+00
    0.65761E-03        -0.42478E-02         0.00000E+00
    0.62092E-03        -0.43121E-02         0.00000E+00
    0.58147E-03        -0.43756E-02         0.00000E+00
    0.53887E-03        -0.44376E-02         0.00000E+00
    0.49244E-03        -0.44974E-02         0.00000E+00
    0.44107E-03        -0.45540E-02         0.00000E+00
    0.38300E-03        -0.46061E-02         0.00000E+00
    0.31539E-03        -0.46521E-02         0.00000E+00
    0.23381E-03        -0.46898E-02         0.00000E+00
    0.13152E-03        -0.47158E-02         0.00000E+00
    0.00000E+00        -0.47253E-02         0.00000E+00
    0.00000E+00        -0.48428E-04         0.00000E+00
    0.86946E-04        -0.54278E-04         0.00000E+00
    0.15663E-03        -0.70513E-04         0.00000E+00
    0.21375E-03        -0.94511E-04         0.00000E+00
    0.26219E-03        -0.12411E-03         0.00000E+00
    0.30466E-03        -0.15786E-03         0.00000E+00
    0.34292E-03        -0.19470E-03         0.00000E+00
    0.37810E-03        -0.23380E-03         0.00000E+00
    0.41094E-03        -0.27450E-03         0.00000E+00
    0.44185E-03        -0.31631E-03         0.00000E+00
    0.47113E-03        -0.35885E-03         0.00000E+00
    0.49891E-03        -0.40185E-03         0.00000E+00
    0.52530E-03        -0.44513E-03         0.00000E+00
    0.55037E-03        -0.48855E-03         0.00000E+00
    0.57416E-03        -0.53205E-03         0.00000E+00
    0.59673E-03        -0.57557E-03         0.00000E+00
    0.61810E-03        -0.61910E-03         0.00000E+00
    0.63835E-03        -0.66264E-03         0.00000E+00
    0.65753E-03        -0.70619E-03         0.00000E+00
    0.67570E-03        -0.74979E-03         0.00000E+00
    0.69292E-03        -0.79344E-03         0.00000E+00
    0.70925E-03        -0.83719E-03         0.00000E+00
    0.72477E-03        -0.88105E-03         0.00000E+00
    0.73954E-03        -0.92505E-03         0.00000E+00
    0.75363E-03        -0.96921E-03         0.00000E+00
    0.76709E-03        -0.10136E-02         0.00000E+00
    0.77998E-03        -0.10581E-02         0.00000E+00
    0.79236E-03        -0.11029E-02         0.00000E+00
    0.80427E-03        -0.11480E-02         0.00000E+00
    0.81576E-03        -0.11933E-02         0.00000E+00
    0.82687E-03        -0.12390E-02         0.00000E+00
    0.83765E-03        -0.12849E-02         0.00000E+00
    0.84811E-03        -0.13312E-02         0.00000E+00
    0.85830E-03        -0.13777E-02         0.00000E+00
    0.86824E-03        -0.14247E-02         0.00000E+00
    0.87795E-03        -0.14720E-02         0.00000E+00
    0.88746E-03        -0.15196E-02         0.00000E+00
    0.89677E-03        -0.15677E-02         0.00000E+00
    0.90591E-03        -0.16161E-02         0.00000E+00
    0.91489E-03        -0.16649E-02         0.00000E+00
    0.92371E-03        -0.17142E-02         0.00000E+00
    0.93238E-03        -0.17638E-02         0.00000E+00
    0.94091E-03        -0.18139E-02         0.00000E+00
    0.94930E-03        -0.18644E-02         0.00000E+00
    0.95755E-03        -0.19153E-02         0.00000E+00
    0.96566E-03        -0.19667E-02         0.00000E+00
    0.97363E-03        -0.20186E-02         0.00000E+00
    0.98145E-03        -0.20709E-02         0.00000E+00
    0.98912E-03        -0.21236E-02         0.00000E+00
    0.99662E-03        -0.21768E-02         0.00000E+00
    0.10040E-02        -0.22305E-02         0.00000E+00
    0.10111E-02        -0.22846E-02         0.00000E+00
    0.10181E-02        -0.23392E-02         0.00000E+00
    0.10248E-02        -0.23943E-02         0.00000E+00
    0.10314E-02        -0.24499E-02         0.00000E+00
    0.10376E-02        -0.25060E-02         0.00000E+00
    0.10437E-02        -0.25625E-02         0.00000E+00
    0.10494E-02        -0.26195E-02         0.00000E+00
    0.10548E-02        -0.26770E-02         0.00000E+00
    0.10599E-02        -0.27349E-02         0.00000E+00
    0.10646E-02        -0.27934E-02         0.00000E+00
    0.10690E-02        -0.28523E-02         0.00000E+00
    0.10729E-02        -0.29118E-02         0.00000E+00
    0.10763E-02        -0.29716E-02         0.00000E+00
    0.10792E-02        -0.30320E-02         0.00000E+00
    0.10815E-02        -0.30929E-02         0.00000E+00
    0.10833E-02        -0.31542E-02         0.00000E+00
    0.10844E-02        -0.32160E-02         0.00000E+00
    0.10848E-02        -0.32783E-02         0.00000E+00
    0.10844E-02        -0.33411E-02         0.00000E+00
    0.10831E-02        -0.34044E-02         0.00000E+00
    0.10809E-02        -0.34681E-02         0.00000E+00
    0.10778E-02        -0.35323E-02         0.00000E+00
    0.10735E-02        -0.35970E-02         0.00000E+00
    0.10681E-02        -0.36622E-02         0.00000E+00
    0.10614E-02        -0.37279E-02         0.00000E+00
    0.10534E-02        -0.37941E-02         0.00000E+00
    0.10438E-02        -0.38608E-02         0.00000E+00
    0.10327E-02        -0.39280E-02         0.00000E+00
    0.10199E-02        -0.39958E-02         0.00000E+00
    0.10052E-02        -0.40641E-02         0.00000E+00
    0.98864E-03        -0.41330E-02         0.00000E+00
    0.96999E-03        -0.42025E-02         0.00000E+00
    0.94917E-03        -0.42725E-02         0.00000E+00
    0.92608E-03        -0.43431E-02         0.00000E+00
    0.90063E-03        -0.44143E-02         0.00000E+00
    0.87272E-03        -0.44860E-02         0.00000E+00
    0.84228E-03        -0.45582E-02         0.00000E+00
    0.80925E-03        -0.46307E-02         0.00000E+00
    0.77354E-03        -0.47034E-02         0.00000E+00
    0.73505E-03        -0.47760E-02         0.00000E+00
    0.69364E-03        -0.48481E-02         0.00000E+00
    0.64904E-03        -0.49192E-02         0.00000E+00
    0.60081E-03        -0.49887E-02         0.00000E+00
    0.54821E-03        -0.50557E-02         0.00000E+00
    0.49002E-03        -0.51189E-02         0.00000E+00
    0.42430E-03        -0.51769E-02         0.00000E+00
    0.34804E-03        -0.52279E-02         0.00000E+00
    0.25658E-03        -0.52693E-02         0.00000E+00
    0.14326E-03        -0.52973E-02         0.00000E+00
    0.00000E+00        -0.53074E-02         0.00000E+00
    0.00000E+00        -0.59370E-04         0.00000E+00
    0.93858E-04        -0.65562E-04         0.00000E+00
    0.17015E-03        -0.82937E-04         0.00000E+00
    0.23332E-03        -0.10897E-03         0.00000E+00
    0.28720E-03        -0.14138E-03         0.00000E+00
    0.33456E-03        -0.17854E-03         0.00000E+00
    0.37729E-03        -0.21922E-03         0.00000E+00
    0.41657E-03        -0.26246E-03         0.00000E+00
    0.45320E-03        -0.30752E-03         0.00000E+00
    0.48766E-03        -0.35384E-03         0.00000E+00
    0.52024E-03        -0.40098E-03         0.00000E+00
    0.55113E-03        -0.44864E-03         0.00000E+00
    0.58043E-03        -0.49662E-03         0.00000E+00
    0.60824E-03        -0.54476E-03         0.00000E+00
    0.63460E-03        -0.59298E-03         0.00000E+00
    0.65959E-03        -0.64124E-03         0.00000E+00
    0.68325E-03        -0.68951E-03         0.00000E+00
    0.70565E-03        -0.73780E-03         0.00000E+00
    0.72686E-03        -0.78611E-03         0.00000E+00
    0.74694E-03        -0.83447E-03         0.00000E+00
    0.76597E-03        -0.88291E-03         0.00000E+00
    0.78402E-03        -0.93144E-03         0.00000E+00
    0.80117E-03        -0.98011E-03         0.00000E+00
    0.81749E-03        -0.10289E-02         0.00000E+00
    0.83305E-03        -0.10780E-02         0.00000E+00
    0.84792E-03        -0.11272E-02         0.00000E+00
    0.86217E-03        -0.11767E-02         0.00000E+00
    0.87584E-03        -0.12264E-02         0.00000E+00
    0.88900E-03        -0.12765E-02         0.00000E+00
    0.90170E-03        -0.13268E-02         0.00000E+00
    0.91398E-03        -0.13775E-02         0.00000E+00
    0.92588E-03        -0.14285E-02         0.00000E+00
    0.93745E-03        -0.14798E-02         0.00000E+00
    0.94871E-03        -0.15316E-02         0.00000E+00
    0.95969E-03        -0.15837E-02         0.00000E+00
    0.97042E-03        -0.16362E-02         0.00000E+00
    0.98093E-03        -0.16892E-02         0.00000E+00
    0.99122E-03        -0.17425E-02         0.00000E+00
    0.10013E-02        -0.17963E-02         0.00000E+00
    0.10112E-02        -0.18506E-02         0.00000E+00
    0.10210E-02        -0.19053E-02         0.00000E+00
    0.10306E-02        -0.19604E-02         0.00000E+00
    0.10400E-02        -0.20161E-02         0.00000E+00
    0.10493E-02        -0.20722E-02         0.00000E+00
    0.10584E-02        -0.21288E-02         0.00000E+00
    0.10674E-02        -0.21859E-02         0.00000E+00
    0.10762E-02        -0.22434E-02         0.00000E+00
    0.10848E-02        -0.23015E-02         0.00000E+00
    0.10933E-02        -0.23601E-02         0.00000E+00
    0.11016E-02        -0.24192E-02         0.00000E+00
    0.11097E-02        -0.24789E-02         0.00000E+00
    0.11176E-02        -0.25390E-02         0.00000E+00
    0.11253E-02        -0.25997E-02         0.00000E+00
    0.11328E-02        -0.26609E-02         0.00000E+00
    0.11400E-02        -0.27226E-02         0.00000E+00
    0.11469E-02        -0.27848E-02         0.00000E+00
    0.11536E-02        -0.28476E-02         0.00000E+00
    0.11599E-02        -0.29110E-02         0.00000E+00
    0.11659E-02        -0.29748E-02         0.00000E+00
    0.11715E-02        -0.30392E-02         0.00000E+00
    0.11768E-02        -0.31041E-02         0.00000E+00
    0.11815E-02        -0.31696E-02         0.00000E+00
    0.11858E-02        -0.32355E-02         0.00000E+00
    0.11896E-02        -0.33021E-02         0.00000E+00
    0.11928E-02        -0.33691E-02         0.00000E+00
    0.11954E-02        -0.34367E-02         0.00000E+00
    0.11974E-02        -0.35048E-02         0.00000E+00
    0.11986E-02        -0.35734E-02         0.00000E+00
    0.11990E-02        -0.36426E-02         0.00000E+00
    0.11986E-02        -0.37123E-02         0.00000E+00
    0.11972E-02        -0.37825E-02         0.00000E+00
    0.11948E-02        -0.38532E-02         0.00000E+00
    0.11913E-02        -0.39245E-02         0.00000E+00
    0.11866E-02        -0.39963E-02         0.00000E+00
    0.11806E-02        -0.40686E-02         0.00000E+00
    0.11733E-02        -0.41415E-02         0.00000E+00
    0.11644E-02        -0.42149E-02         0.00000E+00
    0.11538E-02        -0.42889E-02         0.00000E+00
    0.11415E-02        -0.43635E-02         0.00000E+00
    0.11274E-02        -0.44387E-02         0.00000E+00
    0.11112E-02        -0.45144E-02         0.00000E+00
    0.10928E-02        -0.45908E-02         0.00000E+00
    0.10722E-02        -0.46679E-02         0.00000E+00
    0.10492E-02        -0.47455E-02         0.00000E+00
    0.10236E-02        -0.48238E-02         0.00000E+00
    0.99544E-03        -0.49027E-02         0.00000E+00
    0.96451E-03        -0.49822E-02         0.00000E+00
    0.93075E-03        -0.50622E-02         0.00000E+00
    0.89407E-03        -0.51425E-02         0.00000E+00
    0.85437E-03        -0.52230E-02         0.00000E+00
    0.81152E-03        -0.53034E-02         0.00000E+00
    0.76536E-03        -0.53833E-02         0.00000E+00
    0.71557E-03        -0.54621E-02         0.00000E+00
    0.66168E-03        -0.55390E-02         0.00000E+00
    0.60285E-03        -0.56131E-02         0.00000E+00
    0.53779E-03        -0.56828E-02         0.00000E+00
    0.46442E-03        -0.57467E-02         0.00000E+00
    0.37955E-03        -0.58025E-02         0.00000E+00
    0.27841E-03        -0.58474E-02         0.00000E+00
    0.15444E-03        -0.58773E-02         0.00000E+00
    0.00000E+00        -0.58880E-02         0.00000E+00
    0.00000E+00        -0.71138E-04         0.00000E+00
    0.10049E-03        -0.77671E-04         0.00000E+00
    0.18317E-03        -0.96160E-04         0.00000E+00
    0.25227E-03        -0.12417E-03         0.00000E+00
    0.31154E-03        -0.15933E-03         0.00000E+00
    0.36381E-03        -0.19984E-03         0.00000E+00
    0.41101E-03        -0.24431E-03         0.00000E+00
    0.45442E-03        -0.29166E-03         0.00000E+00
    0.49486E-03        -0.34105E-03         0.00000E+00
    0.53287E-03        -0.39184E-03         0.00000E+00
    0.56876E-03        -0.44356E-03         0.00000E+00
    0.60275E-03        -0.49586E-03         0.00000E+00
    0.63496E-03        -0.54850E-03         0.00000E+00
    0.66549E-03        -0.60134E-03         0.00000E+00
    0.69441E-03        -0.65427E-03         0.00000E+00
    0.72180E-03        -0.70725E-03         0.00000E+00
    0.74772E-03        -0.76024E-03         0.00000E+00
    0.77225E-03        -0.81326E-03         0.00000E+00
    0.79546E-03        -0.86631E-03         0.00000E+00
    0.81743E-03        -0.91942E-03         0.00000E+00
    0.83825E-03        -0.97262E-03         0.00000E+00
    0.85800E-03        -0.10259E-02         0.00000E+00
    0.87676E-03        -0.10794E-02         0.00000E+00
    0.89461E-03        -0.11331E-02         0.00000E+00
    0.91163E-03        -0.11869E-02         0.00000E+00
    0.92789E-03        -0.12410E-02         0.00000E+00
    0.94347E-03        -0.12954E-02         0.00000E+00
    0.95843E-03        -0.13501E-02         0.00000E+00
    0.97282E-03        -0.14051E-02         0.00000E+00
    0.98671E-03        -0.14604E-02         0.00000E+00
    0.10001E-02        -0.15161E-02         0.00000E+00
    0.10132E-02        -0.15722E-02         0.00000E+00
    0.10258E-02        -0.16287E-02         0.00000E+00
    0.10381E-02        -0.16856E-02         0.00000E+00
    0.10501E-02        -0.17429E-02         0.00000E+00
    0.10619E-02        -0.18007E-02         0.00000E+00
    0.10734E-02        -0.18589E-02         0.00000E+00
    0.10846E-02        -0.19176E-02         0.00000E+00
    0.10957E-02        -0.19767E-02         0.00000E+00
    0.11065E-02        -0.20364E-02         0.00000E+00
    0.11172E-02        -0.20965E-02         0.00000E+00
    0.11277E-02        -0.21572E-02         0.00000E+00
    0.11380E-02        -0.22184E-02         0.00000E+00
    0.11481E-02        -0.22801E-02         0.00000E+00
    0.11581E-02        -0.23423E-02         0.00000E+00
    0.11679E-02        -0.24051E-02         0.00000E+00
    0.11776E-02        -0.24684E-02         0.00000E+00
    0.11870E-02        -0.25323E-02         0.00000E+00
    0.11963E-02        -0.25968E-02         0.00000E+00
    0.12054E-02        -0.26618E-02         0.00000E+00
    0.12142E-02        -0.27273E-02         0.00000E+00
    0.12229E-02        -0.27935E-02         0.00000E+00
    0.12313E-02        -0.28602E-02         0.00000E+00
    0.12395E-02        -0.29275E-02         0.00000E+00
    0.12474E-02        -0.29954E-02         0.00000E+00
    0.12550E-02        -0.30638E-02         0.00000E+00
    0.12623E-02        -0.31329E-02         0.00000E+00
    0.12692E-02        -0.32025E-02         0.00000E+00
    0.12758E-02        -0.32727E-02         0.00000E+00
    0.12819E-02        -0.33435E-02         0.00000E+00
    0.12876E-02        -0.34149E-02         0.00000E+00
    0.12929E-02        -0.34868E-02         0.00000E+00
    0.12976E-02        -0.35594E-02         0.00000E+00
    0.13017E-02        -0.36325E-02         0.00000E+00
    0.13052E-02        -0.37062E-02         0.00000E+00
    0.13081E-02        -0.37805E-02         0.00000E+00
    0.13102E-02        -0.38554E-02         0.00000E+00
    0.13115E-02        -0.39308E-02         0.00000E+00
    0.13120E-02        -0.40068E-02         0.00000E+00
    0.13115E-02        -0.40834E-02         0.00000E+00
    0.13100E-02        -0.41605E-02         0.00000E+00
    0.13074E-02        -0.42383E-02         0.00000E+00
    0.13036E-02        -0.43166E-02         0.00000E+00
    0.12985E-02        -0.43955E-02         0.00000E+00
    0.12920E-02        -0.44749E-02         0.00000E+00
    0.12839E-02        -0.45550E-02         0.00000E+00
    0.12742E-02        -0.46357E-02         0.00000E+00
    0.12627E-02        -0.47169E-02         0.00000E+00
    0.12492E-02        -0.47988E-02         0.00000E+00
    0.12337E-02        -0.48814E-02         0.00000E+00
    0.12160E-02        -0.49645E-02         0.00000E+00
    0.11960E-02        -0.50484E-02         0.00000E+00
    0.11734E-02        -0.51329E-02         0.00000E+00
    0.11482E-02        -0.52182E-02         0.00000E+00
    0.11202E-02        -0.53041E-02         0.00000E+00
    0.10893E-02        -0.53906E-02         0.00000E+00
    0.10554E-02        -0.54779E-02         0.00000E+00
    0.10183E-02        -0.55656E-02         0.00000E+00
    0.97795E-03        -0.56537E-02         0.00000E+00
    0.93426E-03        -0.57421E-02         0.00000E+00
    0.88706E-03        -0.58303E-02         0.00000E+00
    0.83612E-03        -0.59179E-02         0.00000E+00
    0.78112E-03        -0.60042E-02         0.00000E+00
    0.72152E-03        -0.60885E-02         0.00000E+00
    0.65643E-03        -0.61695E-02         0.00000E+00
    0.58446E-03        -0.62458E-02         0.00000E+00
    0.50343E-03        -0.63154E-02         0.00000E+00
    0.41002E-03        -0.63760E-02         0.00000E+00
    0.29940E-03        -0.64242E-02         0.00000E+00
    0.16515E-03        -0.64561E-02         0.00000E+00
    0.00000E+00        -0.64674E-02         0.00000E+00
    0.00000E+00        -0.83687E-04         0.00000E+00
    0.10687E-03        -0.90561E-04         0.00000E+00
    0.19574E-03        -0.11015E-03         0.00000E+00
    0.27066E-03        -0.14009E-03         0.00000E+00
    0.33528E-03        -0.17796E-03         0.00000E+00
    0.39243E-03        -0.22177E-03         0.00000E+00
    0.44411E-03        -0.26999E-03         0.00000E+00
    0.49166E-03        -0.32141E-03         0.00000E+00
    0.53593E-03        -0.37509E-03         0.00000E+00
    0.57750E-03        -0.43033E-03         0.00000E+00
    0.61670E-03        -0.48659E-03         0.00000E+00
    0.65379E-03        -0.54349E-03         0.00000E+00
    0.68889E-03        -0.60079E-03         0.00000E+00
    0.72213E-03        -0.65830E-03         0.00000E+00
    0.75359E-03        -0.71592E-03         0.00000E+00
    0.78336E-03        -0.77359E-03         0.00000E+00
    0.81153E-03        -0.83129E-03         0.00000E+00
    0.83816E-03        -0.88901E-03         0.00000E+00
    0.86335E-03        -0.94678E-03         0.00000E+00
    0.88720E-03        -0.10046E-02         0.00000E+00
    0.90978E-03        -0.10626E-02         0.00000E+00
    0.93120E-03        -0.11207E-02         0.00000E+00
    0.95155E-03        -0.11789E-02         0.00000E+00
    0.97091E-03        -0.12374E-02         0.00000E+00
    0.98937E-03        -0.12961E-02         0.00000E+00
    0.10070E-02        -0.13551E-02         0.00000E+00
    0.10239E-02        -0.14143E-02         0.00000E+00
    0.10401E-02        -0.14739E-02         0.00000E+00
    0.10557E-02        -0.15339E-02         0.00000E+00
    0.10708E-02        -0.15942E-02         0.00000E+00
    0.10854E-02        -0.16549E-02         0.00000E+00
    0.10995E-02        -0.17161E-02         0.00000E+00
    0.11132E-02        -0.17777E-02         0.00000E+00
    0.11266E-02        -0.18397E-02         0.00000E+00
    0.11396E-02        -0.19022E-02         0.00000E+00
    0.11523E-02        -0.19652E-02         0.00000E+00
    0.11648E-02        -0.20287E-02         0.00000E+00
    0.11770E-02        -0.20927E-02         0.00000E+00
    0.11890E-02        -0.21572E-02         0.00000E+00
    0.12008E-02        -0.22223E-02         0.00000E+00
    0.12123E-02        -0.22879E-02         0.00000E+00
    0.12237E-02        -0.23541E-02         0.00000E+00
    0.12349E-02        -0.24208E-02         0.00000E+00
    0.12459E-02        -0.24881E-02         0.00000E+00
    0.12567E-02        -0.25560E-02         0.00000E+00
    0.12674E-02        -0.26245E-02         0.00000E+00
    0.12778E-02        -0.26935E-02         0.00000E+00
    0.12881E-02        -0.27632E-02         0.00000E+00
    0.12982E-02        -0.28335E-02         0.00000E+00
    0.13080E-02        -0.29044E-02         0.00000E+00
    0.13176E-02        -0.29759E-02         0.00000E+00
    0.13270E-02        -0.30481E-02         0.00000E+00
    0.13362E-02        -0.31208E-02         0.00000E+00
    0.13450E-02        -0.31942E-02         0.00000E+00
    0.13536E-02        -0.32682E-02         0.00000E+00
    0.13619E-02        -0.33429E-02         0.00000E+00
    0.13698E-02        -0.34182E-02         0.00000E+00
    0.13773E-02        -0.34941E-02         0.00000E+00
    0.13844E-02        -0.35707E-02         0.00000E+00
    0.13911E-02        -0.36479E-02         0.00000E+00
    0.13973E-02        -0.37257E-02         0.00000E+00
    0.14030E-02        -0.38042E-02         0.00000E+00
    0.14081E-02        -0.38833E-02         0.00000E+00
    0.14126E-02        -0.39630E-02         0.00000E+00
    0.14164E-02        -0.40434E-02         0.00000E+00
    0.14195E-02        -0.41243E-02         0.00000E+00
    0.14218E-02        -0.42059E-02         0.00000E+00
    0.14233E-02        -0.42882E-02         0.00000E+00
    0.14238E-02        -0.43710E-02         0.00000E+00
    0.14233E-02        -0.44545E-02         0.00000E+00
    0.14216E-02        -0.45386E-02         0.00000E+00
    0.14188E-02        -0.46233E-02         0.00000E+00
    0.14147E-02        -0.47086E-02         0.00000E+00
    0.14092E-02        -0.47946E-02         0.00000E+00
    0.14021E-02        -0.48812E-02         0.00000E+00
    0.13934E-02        -0.49684E-02         0.00000E+00
    0.13828E-02        -0.50562E-02         0.00000E+00
    0.13704E-02        -0.51448E-02         0.00000E+00
    0.13558E-02        -0.52339E-02         0.00000E+00
    0.13390E-02        -0.53238E-02         0.00000E+00
    0.13198E-02        -0.54144E-02         0.00000E+00
    0.12980E-02        -0.55057E-02         0.00000E+00
    0.12735E-02        -0.55977E-02         0.00000E+00
    0.12462E-02        -0.56905E-02         0.00000E+00
    0.12158E-02        -0.57840E-02         0.00000E+00
    0.11822E-02        -0.58782E-02         0.00000E+00
    0.11453E-02        -0.59731E-02         0.00000E+00
    0.11049E-02        -0.60685E-02         0.00000E+00
    0.10609E-02        -0.61644E-02         0.00000E+00
    0.10133E-02        -0.62605E-02         0.00000E+00
    0.96168E-03        -0.63565E-02         0.00000E+00
    0.90596E-03        -0.64517E-02         0.00000E+00
    0.84572E-03        -0.65456E-02         0.00000E+00
    0.78038E-03        -0.66372E-02         0.00000E+00
    0.70899E-03        -0.67252E-02         0.00000E+00
    0.63009E-03        -0.68078E-02         0.00000E+00
    0.54141E-03        -0.68831E-02         0.00000E+00
    0.43954E-03        -0.69483E-02         0.00000E+00
    0.31963E-03        -0.69998E-02         0.00000E+00
    0.17544E-03        -0.70336E-02         0.00000E+00
    0.00000E+00        -0.70454E-02         0.00000E+00
    0.00000E+00        -0.96973E-04         0.00000E+00
    0.11304E-03        -0.10419E-03         0.00000E+00
    0.20791E-03        -0.12487E-03         0.00000E+00
    0.28852E-03        -0.15672E-03         0.00000E+00
    0.35843E-03        -0.19724E-03         0.00000E+00
    0.42046E-03        -0.24431E-03         0.00000E+00
    0.47663E-03        -0.29625E-03         0.00000E+00
    0.52832E-03        -0.35170E-03         0.00000E+00
    0.57643E-03        -0.40965E-03         0.00000E+00
    0.62156E-03        -0.46929E-03         0.00000E+00
    0.66409E-03        -0.53007E-03         0.00000E+00
    0.70426E-03        -0.59156E-03         0.00000E+00
    0.74224E-03        -0.65347E-03         0.00000E+00
    0.77818E-03        -0.71563E-03         0.00000E+00
    0.81216E-03        -0.77791E-03         0.00000E+00
    0.84430E-03        -0.84025E-03         0.00000E+00
    0.87467E-03        -0.90263E-03         0.00000E+00
    0.90339E-03        -0.96506E-03         0.00000E+00
    0.93054E-03        -0.10275E-02         0.00000E+00
    0.95623E-03        -0.10901E-02         0.00000E+00
    0.98056E-03        -0.11528E-02         0.00000E+00
    0.10036E-02        -0.12156E-02         0.00000E+00
    0.10255E-02        -0.12786E-02         0.00000E+00
    0.10464E-02        -0.13419E-02         0.00000E+00
    0.10663E-02        -0.14054E-02         0.00000E+00
    0.10853E-02        -0.14693E-02         0.00000E+00
    0.11034E-02        -0.15334E-02         0.00000E+00
    0.11209E-02        -0.15979E-02         0.00000E+00
    0.11377E-02        -0.16628E-02         0.00000E+00
    0.11539E-02        -0.17282E-02         0.00000E+00
    0.11696E-02        -0.17939E-02         0.00000E+00
    0.11848E-02        -0.18601E-02         0.00000E+00
    0.11996E-02        -0.19268E-02         0.00000E+00
    0.12140E-02        -0.19940E-02         0.00000E+00
    0.12281E-02        -0.20617E-02         0.00000E+00
    0.12418E-02        -0.21299E-02         0.00000E+00
    0.12552E-02        -0.21987E-02         0.00000E+00
    0.12684E-02        -0.22680E-02         0.00000E+00
    0.12813E-02        -0.23379E-02         0.00000E+00
    0.12940E-02        -0.24083E-02         0.00000E+00
    0.13064E-02        -0.24794E-02         0.00000E+00
    0.13187E-02        -0.25511E-02         0.00000E+00
    0.13307E-02        -0.26233E-02         0.00000E+00
    0.13426E-02        -0.26962E-02         0.00000E+00
    0.13543E-02        -0.27698E-02         0.00000E+00
    0.13657E-02        -0.28439E-02         0.00000E+00
    0.13770E-02        -0.29188E-02         0.00000E+00
    0.13881E-02        -0.29942E-02         0.00000E+00
    0.13989E-02        -0.30703E-02         0.00000E+00
    0.14095E-02        -0.31471E-02         0.00000E+00
    0.14199E-02        -0.32246E-02         0.00000E+00
    0.14300E-02        -0.33027E-02         0.00000E+00
    0.14399E-02        -0.33815E-02         0.00000E+00
    0.14494E-02        -0.34610E-02         0.00000E+00
    0.14586E-02        -0.35412E-02         0.00000E+00
    0.14675E-02        -0.36221E-02         0.00000E+00
    0.14761E-02        -0.37036E-02         0.00000E+00
    0.14842E-02        -0.37858E-02         0.00000E+00
    0.14918E-02        -0.38687E-02         0.00000E+00
    0.14991E-02        -0.39523E-02         0.00000E+00
    0.15057E-02        -0.40366E-02         0.00000E+00
    0.15119E-02        -0.41216E-02         0.00000E+00
    0.15174E-02        -0.42072E-02         0.00000E+00
    0.15222E-02        -0.42935E-02         0.00000E+00
    0.15264E-02        -0.43805E-02         0.00000E+00
    0.15297E-02        -0.44682E-02         0.00000E+00
    0.15322E-02        -0.45566E-02         0.00000E+00
    0.15338E-02        -0.46456E-02         0.00000E+00
    0.15343E-02        -0.47353E-02         0.00000E+00
    0.15338E-02        -0.48256E-02         0.00000E+00
    0.15320E-02        -0.49166E-02         0.00000E+00
    0.15290E-02        -0.50083E-02         0.00000E+00
    0.15246E-02        -0.51006E-02         0.00000E+00
    0.15186E-02        -0.51936E-02         0.00000E+00
    0.15110E-02        -0.52873E-02         0.00000E+00
    0.15017E-02        -0.53817E-02         0.00000E+00
    0.14903E-02        -0.54767E-02         0.00000E+00
    0.14769E-02        -0.55724E-02         0.00000E+00
    0.14613E-02        -0.56689E-02         0.00000E+00
    0.14432E-02        -0.57661E-02         0.00000E+00
    0.14225E-02        -0.58640E-02         0.00000E+00
    0.13991E-02        -0.59627E-02         0.00000E+00
    0.13727E-02        -0.60622E-02         0.00000E+00
    0.13432E-02        -0.61624E-02         0.00000E+00
    0.13104E-02        -0.62635E-02         0.00000E+00
    0.12741E-02        -0.63653E-02         0.00000E+00
    0.12342E-02        -0.64678E-02         0.00000E+00
    0.11906E-02        -0.65710E-02         0.00000E+00
    0.11430E-02        -0.66746E-02         0.00000E+00
    0.10914E-02        -0.67784E-02         0.00000E+00
    0.10354E-02        -0.68820E-02         0.00000E+00
    0.97490E-03        -0.69849E-02         0.00000E+00
    0.90941E-03        -0.70862E-02         0.00000E+00
    0.83830E-03        -0.71850E-02         0.00000E+00
    0.76059E-03        -0.72799E-02         0.00000E+00
    0.67474E-03        -0.73689E-02         0.00000E+00
    0.57843E-03        -0.74497E-02         0.00000E+00
    0.46818E-03        -0.75194E-02         0.00000E+00
    0.33918E-03        -0.75743E-02         0.00000E+00
    0.18535E-03        -0.76099E-02         0.00000E+00
    0.00000E+00        -0.76224E-02         0.00000E+00
    0.00000E+00        -0.11096E-03         0.00000E+00
    0.11900E-03        -0.11853E-03         0.00000E+00
    0.21971E-03        -0.14030E-03         0.00000E+00
    0.30592E-03        -0.17403E-03         0.00000E+00
    0.38106E-03        -0.21717E-03         0.00000E+00
    0.44794E-03        -0.26747E-03         0.00000E+00
    0.50860E-03        -0.32308E-03         0.00000E+00
    0.56443E-03        -0.38254E-03         0.00000E+00
    0.61639E-03        -0.44471E-03         0.00000E+00
    0.66508E-03        -0.50874E-03         0.00000E+00
    0.71092E-03        -0.57400E-03         0.00000E+00
    0.75417E-03        -0.64004E-03         0.00000E+00
    0.79503E-03        -0.70655E-03         0.00000E+00
    0.83365E-03        -0.77333E-03         0.00000E+00
    0.87013E-03        -0.84025E-03         0.00000E+00
    0.90461E-03        -0.90724E-03         0.00000E+00
    0.93718E-03        -0.97429E-03         0.00000E+00
    0.96795E-03        -0.10414E-02         0.00000E+00
    0.99704E-03        -0.11085E-02         0.00000E+00
    0.10245E-02        -0.11758E-02         0.00000E+00
    0.10506E-02        -0.12432E-02         0.00000E+00
    0.10753E-02        -0.13108E-02         0.00000E+00
    0.10987E-02        -0.13786E-02         0.00000E+00
    0.11211E-02        -0.14466E-02         0.00000E+00
    0.11423E-02        -0.15150E-02         0.00000E+00
    0.11627E-02        -0.15836E-02         0.00000E+00
    0.11821E-02        -0.16527E-02         0.00000E+00
    0.12008E-02        -0.17221E-02         0.00000E+00
    0.12188E-02        -0.17920E-02         0.00000E+00
    0.12362E-02        -0.18623E-02         0.00000E+00
    0.12530E-02        -0.19330E-02         0.00000E+00
    0.12693E-02        -0.20043E-02         0.00000E+00
    0.12851E-02        -0.20761E-02         0.00000E+00
    0.13005E-02        -0.21484E-02         0.00000E+00
    0.13155E-02        -0.22213E-02         0.00000E+00
    0.13302E-02        -0.22947E-02         0.00000E+00
    0.13446E-02        -0.23688E-02         0.00000E+00
    0.13587E-02        -0.24434E-02         0.00000E+00
    0.13725E-02        -0.25186E-02         0.00000E+00
    0.13861E-02        -0.25945E-02         0.00000E+00
    0.13994E-02        -0.26710E-02         0.00000E+00
    0.14126E-02        -0.27482E-02         0.00000E+00
    0.14255E-02        -0.28260E-02         0.00000E+00
    0.14382E-02        -0.29045E-02         0.00000E+00
    0.14507E-02        -0.29837E-02         0.00000E+00
    0.14630E-02        -0.30635E-02         0.00000E+00
    0.14750E-02        -0.31441E-02         0.00000E+00
    0.14869E-02        -0.32253E-02         0.00000E+00
    0.14985E-02        -0.33073E-02         0.00000E+00
    0.15099E-02        -0.33900E-02         0.00000E+00
    0.15210E-02        -0.34734E-02         0.00000E+00
    0.15318E-02        -0.35575E-02         0.00000E+00
    0.15424E-02        -0.36423E-02         0.00000E+00
    0.15526E-02        -0.37279E-02         0.00000E+00
    0.15625E-02        -0.38142E-02         0.00000E+00
    0.15720E-02        -0.39013E-02         0.00000E+00
    0.15811E-02        -0.39891E-02         0.00000E+00
    0.15898E-02        -0.40776E-02         0.00000E+00
    0.15981E-02        -0.41668E-02         0.00000E+00
    0.16058E-02        -0.42568E-02         0.00000E+00
    0.16130E-02        -0.43476E-02         0.00000E+00
    0.16195E-02        -0.44390E-02         0.00000E+00
    0.16254E-02        -0.45312E-02         0.00000E+00
    0.16306E-02        -0.46241E-02         0.00000E+00
    0.16351E-02        -0.47177E-02         0.00000E+00
    0.16387E-02        -0.48121E-02         0.00000E+00
    0.16413E-02        -0.49072E-02         0.00000E+00
    0.16430E-02        -0.50030E-02         0.00000E+00
    0.16436E-02        -0.50995E-02         0.00000E+00
    0.16431E-02        -0.51967E-02         0.00000E+00
    0.16412E-02        -0.52946E-02         0.00000E+00
    0.16380E-02        -0.53932E-02         0.00000E+00
    0.16333E-02        -0.54926E-02         0.00000E+00
    0.16269E-02        -0.55926E-02         0.00000E+00
    0.16188E-02        -0.56934E-02         0.00000E+00
    0.16088E-02        -0.57948E-02         0.00000E+00
    0.15967E-02        -0.58970E-02         0.00000E+00
    0.15824E-02        -0.60000E-02         0.00000E+00
    0.15656E-02        -0.61037E-02         0.00000E+00
    0.15463E-02        -0.62081E-02         0.00000E+00
    0.15241E-02        -0.63134E-02         0.00000E+00
    0.14990E-02        -0.64195E-02         0.00000E+00
    0.14708E-02        -0.65264E-02         0.00000E+00
    0.14392E-02        -0.66341E-02         0.00000E+00
    0.14040E-02        -0.67427E-02         0.00000E+00
    0.13651E-02        -0.68520E-02         0.00000E+00
    0.13223E-02        -0.69622E-02         0.00000E+00
    0.12754E-02        -0.70729E-02         0.00000E+00
    0.12243E-02        -0.71842E-02         0.00000E+00
    0.11686E-02        -0.72956E-02         0.00000E+00
    0.11083E-02        -0.74069E-02         0.00000E+00
    0.10430E-02        -0.75173E-02         0.00000E+00
    0.97222E-03        -0.76261E-02         0.00000E+00
    0.89533E-03        -0.77321E-02         0.00000E+00
    0.81127E-03        -0.78337E-02         0.00000E+00
    0.71848E-03        -0.79290E-02         0.00000E+00
    0.61456E-03        -0.80154E-02         0.00000E+00
    0.49603E-03        -0.80896E-02         0.00000E+00
    0.35812E-03        -0.81476E-02         0.00000E+00
    0.19493E-03        -0.81851E-02         0.00000E+00
    0.00000E+00        -0.81982E-02         0.00000E+00
    0.00000E+00        -0.12561E-03         0.00000E+00
    0.12479E-03        -0.13353E-03         0.00000E+00
    0.23119E-03        -0.15639E-03         0.00000E+00
    0.32287E-03        -0.19200E-03         0.00000E+00
    0.40319E-03        -0.23775E-03         0.00000E+00
    0.47490E-03        -0.29123E-03         0.00000E+00
    0.54003E-03        -0.35048E-03         0.00000E+00
    0.60002E-03        -0.41391E-03         0.00000E+00
    0.65582E-03        -0.48028E-03         0.00000E+00
    0.70808E-03        -0.54866E-03         0.00000E+00
    0.75723E-03        -0.61837E-03         0.00000E+00
    0.80355E-03        -0.68894E-03         0.00000E+00
    0.84727E-03        -0.76002E-03         0.00000E+00
    0.88854E-03        -0.83139E-03         0.00000E+00
    0.92751E-03        -0.90293E-03         0.00000E+00
    0.96430E-03        -0.97455E-03         0.00000E+00
    0.99904E-03        -0.10462E-02         0.00000E+00
    0.10318E-02        -0.11180E-02         0.00000E+00
    0.10628E-02        -0.11898E-02         0.00000E+00
    0.10921E-02        -0.12618E-02         0.00000E+00
    0.11199E-02        -0.13339E-02         0.00000E+00
    0.11462E-02        -0.14062E-02         0.00000E+00
    0.11712E-02        -0.14787E-02         0.00000E+00
    0.11949E-02        -0.15516E-02         0.00000E+00
    0.12176E-02        -0.16247E-02         0.00000E+00
    0.12392E-02        -0.16982E-02         0.00000E+00
    0.12599E-02        -0.17721E-02         0.00000E+00
    0.12798E-02        -0.18465E-02         0.00000E+00
    0.12990E-02        -0.19212E-02         0.00000E+00
    0.13175E-02        -0.19965E-02         0.00000E+00
    0.13354E-02        -0.20723E-02         0.00000E+00
    0.13527E-02        -0.21486E-02         0.00000E+00
    0.13696E-02        -0.22255E-02         0.00000E+00
    0.13860E-02        -0.23030E-02         0.00000E+00
    0.14020E-02        -0.23810E-02         0.00000E+00
    0.14176E-02        -0.24597E-02         0.00000E+00
    0.14330E-02        -0.25390E-02         0.00000E+00
    0.14480E-02        -0.26189E-02         0.00000E+00
    0.14627E-02        -0.26995E-02         0.00000E+00
    0.14772E-02        -0.27808E-02         0.00000E+00
    0.14914E-02        -0.28628E-02         0.00000E+00
    0.15054E-02        -0.29454E-02         0.00000E+00
    0.15191E-02        -0.30288E-02         0.00000E+00
    0.15327E-02        -0.31128E-02         0.00000E+00
    0.15460E-02        -0.31977E-02         0.00000E+00
    0.15591E-02        -0.32832E-02         0.00000E+00
    0.15719E-02        -0.33695E-02         0.00000E+00
    0.15846E-02        -0.34565E-02         0.00000E+00
    0.15969E-02        -0.35443E-02         0.00000E+00
    0.16091E-02        -0.36329E-02         0.00000E+00
    0.16209E-02        -0.37222E-02         0.00000E+00
    0.16325E-02        -0.38124E-02         0.00000E+00
    0.16437E-02        -0.39032E-02         0.00000E+00
    0.16546E-02        -0.39949E-02         0.00000E+00
    0.16652E-02        -0.40874E-02         0.00000E+00
    0.16753E-02        -0.41806E-02         0.00000E+00
    0.16850E-02        -0.42746E-02         0.00000E+00
    0.16943E-02        -0.43694E-02         0.00000E+00
    0.17031E-02        -0.44650E-02         0.00000E+00
    0.17113E-02        -0.45614E-02         0.00000E+00
    0.17190E-02        -0.46586E-02         0.00000E+00
    0.17260E-02        -0.47565E-02         0.00000E+00
    0.17323E-02        -0.48552E-02         0.00000E+00
    0.17378E-02        -0.49547E-02         0.00000E+00
    0.17426E-02        -0.50550E-02         0.00000E+00
    0.17464E-02        -0.51560E-02         0.00000E+00
    0.17493E-02        -0.52578E-02         0.00000E+00
    0.17511E-02        -0.53604E-02         0.00000E+00
    0.17518E-02        -0.54637E-02         0.00000E+00
    0.17512E-02        -0.55677E-02         0.00000E+00
    0.17492E-02        -0.56726E-02         0.00000E+00
    0.17458E-02        -0.57781E-02         0.00000E+00
    0.17408E-02        -0.58844E-02         0.00000E+00
    0.17341E-02        -0.59915E-02         0.00000E+00
    0.17254E-02        -0.60993E-02         0.00000E+00
    0.17148E-02        -0.62079E-02         0.00000E+00
    0.17019E-02        -0.63172E-02         0.00000E+00
    0.16867E-02        -0.64273E-02         0.00000E+00
    0.16689E-02        -0.65383E-02         0.00000E+00
    0.16483E-02        -0.66500E-02         0.00000E+00
    0.16247E-02        -0.67626E-02         0.00000E+00
    0.15980E-02        -0.68760E-02         0.00000E+00
    0.15679E-02        -0.69902E-02         0.00000E+00
    0.15342E-02        -0.71054E-02         0.00000E+00
    0.14968E-02        -0.72214E-02         0.00000E+00
    0.14553E-02        -0.73383E-02         0.00000E+00
    0.14095E-02        -0.74560E-02         0.00000E+00
    0.13594E-02        -0.75744E-02         0.00000E+00
    0.13047E-02        -0.76933E-02         0.00000E+00
    0.12451E-02        -0.78123E-02         0.00000E+00
    0.11804E-02        -0.79311E-02         0.00000E+00
    0.11103E-02        -0.80491E-02         0.00000E+00
    0.10342E-02        -0.81652E-02         0.00000E+00
    0.95151E-03        -0.82783E-02         0.00000E+00
    0.86110E-03        -0.83867E-02         0.00000E+00
    0.76135E-03        -0.84882E-02         0.00000E+00
    0.64986E-03        -0.85800E-02         0.00000E+00
    0.52314E-03        -0.86586E-02         0.00000E+00
    0.37650E-03        -0.87199E-02         0.00000E+00
    0.20421E-03        -0.87593E-02         0.00000E+00
    0.00000E+00        -0.87729E-02         0.00000E+00
    0.00000E+00        -0.14089E-03         0.00000E+00
    0.13042E-03        -0.14917E-03         0.00000E+00
    0.24237E-03        -0.17314E-03         0.00000E+00
    0.33942E-03        -0.21062E-03         0.00000E+00
    0.42486E-03        -0.25894E-03         0.00000E+00
    0.50136E-03        -0.31560E-03         0.00000E+00
    0.57097E-03        -0.37846E-03         0.00000E+00
    0.63511E-03        -0.44582E-03         0.00000E+00
    0.69476E-03        -0.51635E-03         0.00000E+00
    0.75058E-03        -0.58905E-03         0.00000E+00
    0.80303E-03        -0.66320E-03         0.00000E+00
    0.85242E-03        -0.73825E-03         0.00000E+00
    0.89897E-03        -0.81387E-03         0.00000E+00
    0.94289E-03        -0.88982E-03         0.00000E+00
    0.98431E-03        -0.96595E-03         0.00000E+00
    0.10234E-02        -0.10422E-02         0.00000E+00
    0.10603E-02        -0.11185E-02         0.00000E+00
    0.10951E-02        -0.11949E-02         0.00000E+00
    0.11280E-02        -0.12714E-02         0.00000E+00
    0.11590E-02        -0.13480E-02         0.00000E+00
    0.11885E-02        -0.14248E-02         0.00000E+00
    0.12163E-02        -0.15018E-02         0.00000E+00
    0.12428E-02        -0.15791E-02         0.00000E+00
    0.12680E-02        -0.16567E-02         0.00000E+00
    0.12920E-02        -0.17346E-02         0.00000E+00
    0.13149E-02        -0.18130E-02         0.00000E+00
    0.13369E-02        -0.18917E-02         0.00000E+00
    0.13580E-02        -0.19710E-02         0.00000E+00
    0.13783E-02        -0.20507E-02         0.00000E+00
    0.13979E-02        -0.21309E-02         0.00000E+00
    0.14168E-02        -0.22117E-02         0.00000E+00
    0.14352E-02        -0.22931E-02         0.00000E+00
    0.14531E-02        -0.23751E-02         0.00000E+00
    0.14705E-02        -0.24577E-02         0.00000E+00
    0.14875E-02        -0.25409E-02         0.00000E+00
    0.15041E-02        -0.26248E-02         0.00000E+00
    0.15203E-02        -0.27093E-02         0.00000E+00
    0.15362E-02        -0.27946E-02         0.00000E+00
    0.15519E-02        -0.28805E-02         0.00000E+00
    0.15672E-02        -0.29672E-02         0.00000E+00
    0.15823E-02        -0.30546E-02         0.00000E+00
    0.15971E-02        -0.31427E-02         0.00000E+00
    0.16117E-02        -0.32316E-02         0.00000E+00
    0.16261E-02        -0.33213E-02         0.00000E+00
    0.16402E-02        -0.34118E-02         0.00000E+00
    0.16541E-02        -0.35030E-02         0.00000E+00
    0.16677E-02        -0.35950E-02         0.00000E+00
    0.16811E-02        -0.36878E-02         0.00000E+00
    0.16943E-02        -0.37815E-02         0.00000E+00
    0.17071E-02        -0.38759E-02         0.00000E+00
    0.17197E-02        -0.39712E-02         0.00000E+00
    0.17319E-02        -0.40673E-02         0.00000E+00
    0.17439E-02        -0.41642E-02         0.00000E+00
    0.17554E-02        -0.42620E-02         0.00000E+00
    0.17666E-02        -0.43606E-02         0.00000E+00
    0.17774E-02        -0.44600E-02         0.00000E+00
    0.17877E-02        -0.45603E-02         0.00000E+00
    0.17976E-02        -0.46613E-02         0.00000E+00
    0.18069E-02        -0.47633E-02         0.00000E+00
    0.18156E-02        -0.48660E-02         0.00000E+00
    0.18238E-02        -0.49696E-02         0.00000E+00
    0.18312E-02        -0.50740E-02         0.00000E+00
    0.18379E-02        -0.51793E-02         0.00000E+00
    0.18438E-02        -0.52854E-02         0.00000E+00
    0.18488E-02        -0.53923E-02         0.00000E+00
    0.18529E-02        -0.55000E-02         0.00000E+00
    0.18560E-02        -0.56085E-02         0.00000E+00
    0.18579E-02        -0.57178E-02         0.00000E+00
    0.18587E-02        -0.58279E-02         0.00000E+00
    0.18581E-02        -0.59388E-02         0.00000E+00
    0.18560E-02        -0.60505E-02         0.00000E+00
    0.18524E-02        -0.61630E-02         0.00000E+00
    0.18471E-02        -0.62763E-02         0.00000E+00
    0.18400E-02        -0.63903E-02         0.00000E+00
    0.18309E-02        -0.65052E-02         0.00000E+00
    0.18196E-02        -0.66208E-02         0.00000E+00
    0.18060E-02        -0.67373E-02         0.00000E+00
    0.17899E-02        -0.68546E-02         0.00000E+00
    0.17710E-02        -0.69727E-02         0.00000E+00
    0.17493E-02        -0.70917E-02         0.00000E+00
    0.17243E-02        -0.72115E-02         0.00000E+00
    0.16960E-02        -0.73322E-02         0.00000E+00
    0.16641E-02        -0.74539E-02         0.00000E+00
    0.16284E-02        -0.75764E-02         0.00000E+00
    0.15886E-02        -0.76999E-02         0.00000E+00
    0.15445E-02        -0.78243E-02         0.00000E+00
    0.14959E-02        -0.79495E-02         0.00000E+00
    0.14426E-02        -0.80754E-02         0.00000E+00
    0.13843E-02        -0.82018E-02         0.00000E+00
    0.13208E-02        -0.83284E-02         0.00000E+00
    0.12517E-02        -0.84547E-02         0.00000E+00
    0.11768E-02        -0.85801E-02         0.00000E+00
    0.10954E-02        -0.87035E-02         0.00000E+00
    0.10069E-02        -0.88237E-02         0.00000E+00
    0.91013E-03        -0.89388E-02         0.00000E+00
    0.80343E-03        -0.90464E-02         0.00000E+00
    0.68440E-03        -0.91437E-02         0.00000E+00
    0.54959E-03        -0.92267E-02         0.00000E+00
    0.39439E-03        -0.92912E-02         0.00000E+00
    0.21322E-03        -0.93325E-02         0.00000E+00
    0.00000E+00        -0.93467E-02         0.00000E+00
    0.00000E+00        -0.15677E-03         0.00000E+00
    0.13590E-03        -0.16542E-03         0.00000E+00
    0.25327E-03        -0.19051E-03         0.00000E+00
    0.35561E-03        -0.22986E-03         0.00000E+00
    0.44610E-03        -0.28075E-03         0.00000E+00
    0.52738E-03        -0.34055E-03         0.00000E+00
    0.60144E-03        -0.40700E-03         0.00000E+00
    0.66973E-03        -0.47826E-03         0.00000E+00
    0.73322E-03        -0.55293E-03         0.00000E+00
    0.79260E-03        -0.62992E-03         0.00000E+00
    0.84834E-03        -0.70846E-03         0.00000E+00
    0.90077E-03        -0.78799E-03         0.00000E+00
    0.95015E-03        -0.86812E-03         0.00000E+00
    0.99669E-03        -0.94861E-03         0.00000E+00
    0.10405E-02        -0.10293E-02         0.00000E+00
    0.10819E-02        -0.11101E-02         0.00000E+00
    0.11209E-02        -0.11910E-02         0.00000E+00
    0.11577E-02        -0.12720E-02         0.00000E+00
    0.11924E-02        -0.13532E-02         0.00000E+00
    0.12252E-02        -0.14344E-02         0.00000E+00
    0.12563E-02        -0.15159E-02         0.00000E+00
    0.12857E-02        -0.15976E-02         0.00000E+00
    0.13137E-02        -0.16796E-02         0.00000E+00
    0.13402E-02        -0.17620E-02         0.00000E+00
    0.13656E-02        -0.18447E-02         0.00000E+00
    0.13898E-02        -0.19279E-02         0.00000E+00
    0.14130E-02        -0.20115E-02         0.00000E+00
    0.14352E-02        -0.20956E-02         0.00000E+00
    0.14567E-02        -0.21803E-02         0.00000E+00
    0.14774E-02        -0.22655E-02         0.00000E+00
    0.14974E-02        -0.23513E-02         0.00000E+00
    0.15168E-02        -0.24377E-02         0.00000E+00
    0.15357E-02        -0.25248E-02         0.00000E+00
    0.15540E-02        -0.26125E-02         0.00000E+00
    0.15720E-02        -0.27009E-02         0.00000E+00
    0.15895E-02        -0.27900E-02         0.00000E+00
    0.16067E-02        -0.28798E-02         0.00000E+00
    0.16235E-02        -0.29703E-02         0.00000E+00
    0.16400E-02        -0.30616E-02         0.00000E+00
    0.16562E-02        -0.31537E-02         0.00000E+00
    0.16721E-02        -0.32466E-02         0.00000E+00
    0.16878E-02        -0.33402E-02         0.00000E+00
    0.17032E-02        -0.34346E-02         0.00000E+00
    0.17184E-02        -0.35299E-02         0.00000E+00
    0.17333E-02        -0.36260E-02         0.00000E+00
    0.17480E-02        -0.37229E-02         0.00000E+00
    0.17624E-02        -0.38206E-02         0.00000E+00
    0.17765E-02        -0.39193E-02         0.00000E+00
    0.17904E-02        -0.40187E-02         0.00000E+00
    0.18040E-02        -0.41191E-02         0.00000E+00
    0.18173E-02        -0.42203E-02         0.00000E+00
    0.18303E-02        -0.43223E-02         0.00000E+00
    0.18429E-02        -0.44253E-02         0.00000E+00
    0.18551E-02        -0.45291E-02         0.00000E+00
    0.18669E-02        -0.46339E-02         0.00000E+00
    0.18783E-02        -0.47395E-02         0.00000E+00
    0.18893E-02        -0.48460E-02         0.00000E+00
    0.18997E-02        -0.49533E-02         0.00000E+00
    0.19095E-02        -0.50616E-02         0.00000E+00
    0.19188E-02        -0.51707E-02         0.00000E+00
    0.19274E-02        -0.52807E-02         0.00000E+00
    0.19352E-02        -0.53916E-02         0.00000E+00
    0.19423E-02        -0.55034E-02         0.00000E+00
    0.19486E-02        -0.56160E-02         0.00000E+00
    0.19539E-02        -0.57296E-02         0.00000E+00
    0.19582E-02        -0.58439E-02         0.00000E+00
    0.19615E-02        -0.59591E-02         0.00000E+00
    0.19636E-02        -0.60752E-02         0.00000E+00
    0.19644E-02        -0.61921E-02         0.00000E+00
    0.19637E-02        -0.63098E-02         0.00000E+00
    0.19616E-02        -0.64284E-02         0.00000E+00
    0.19579E-02        -0.65478E-02         0.00000E+00
    0.19523E-02        -0.66680E-02         0.00000E+00
    0.19448E-02        -0.67891E-02         0.00000E+00
    0.19352E-02        -0.69110E-02         0.00000E+00
    0.19234E-02        -0.70337E-02         0.00000E+00
    0.19090E-02        -0.71572E-02         0.00000E+00
    0.18920E-02        -0.72817E-02         0.00000E+00
    0.18722E-02        -0.74069E-02         0.00000E+00
    0.18492E-02        -0.75331E-02         0.00000E+00
    0.18229E-02        -0.76602E-02         0.00000E+00
    0.17930E-02        -0.77882E-02         0.00000E+00
    0.17593E-02        -0.79172E-02         0.00000E+00
    0.17216E-02        -0.80471E-02         0.00000E+00
    0.16795E-02        -0.81780E-02         0.00000E+00
    0.16329E-02        -0.83098E-02         0.00000E+00
    0.15815E-02        -0.84424E-02         0.00000E+00
    0.15250E-02        -0.85759E-02         0.00000E+00
    0.14631E-02        -0.87098E-02         0.00000E+00
    0.13957E-02        -0.88439E-02         0.00000E+00
    0.13223E-02        -0.89777E-02         0.00000E+00
    0.12425E-02        -0.91105E-02         0.00000E+00
    0.11559E-02        -0.92411E-02         0.00000E+00
    0.10616E-02        -0.93683E-02         0.00000E+00
    0.95841E-03        -0.94900E-02         0.00000E+00
    0.84478E-03        -0.96038E-02         0.00000E+00
    0.71825E-03        -0.97064E-02         0.00000E+00
    0.57543E-03        -0.97938E-02         0.00000E+00
    0.41182E-03        -0.98615E-02         0.00000E+00
    0.22199E-03        -0.99047E-02         0.00000E+00
    0.00000E+00        -0.99196E-02         0.00000E+00
    0.00000E+00        -0.17323E-03         0.00000E+00
    0.14125E-03        -0.18225E-03         0.00000E+00
    0.26393E-03        -0.20847E-03         0.00000E+00
    0.37147E-03        -0.24970E-03         0.00000E+00
    0.46695E-03        -0.30315E-03         0.00000E+00
    0.55297E-03        -0.36608E-03         0.00000E+00
    0.63148E-03        -0.43610E-03         0.00000E+00
    0.70390E-03        -0.51124E-03         0.00000E+00
    0.77123E-03        -0.59001E-03         0.00000E+00
    0.83416E-03        -0.67126E-03         0.00000E+00
    0.89318E-03        -0.75416E-03         0.00000E+00
    0.94864E-03        -0.83813E-03         0.00000E+00
    0.10008E-02        -0.92274E-03         0.00000E+00
    0.10500E-02        -0.10078E-02         0.00000E+00
    0.10962E-02        -0.10930E-02         0.00000E+00
    0.11398E-02        -0.11784E-02         0.00000E+00
    0.11809E-02        -0.12639E-02         0.00000E+00
    0.12196E-02        -0.13495E-02         0.00000E+00
    0.12562E-02        -0.14352E-02         0.00000E+00
    0.12907E-02        -0.15211E-02         0.00000E+00
    0.13234E-02        -0.16073E-02         0.00000E+00
    0.13544E-02        -0.16937E-02         0.00000E+00
    0.13837E-02        -0.17804E-02         0.00000E+00
    0.14117E-02        -0.18675E-02         0.00000E+00
    0.14383E-02        -0.19550E-02         0.00000E+00
    0.14638E-02        -0.20430E-02         0.00000E+00
    0.14882E-02        -0.21314E-02         0.00000E+00
    0.15116E-02        -0.22204E-02         0.00000E+00
    0.15342E-02        -0.23100E-02         0.00000E+00
    0.15559E-02        -0.24002E-02         0.00000E+00
    0.15770E-02        -0.24910E-02         0.00000E+00
    0.15974E-02        -0.25825E-02         0.00000E+00
    0.16173E-02        -0.26746E-02         0.00000E+00
    0.16366E-02        -0.27674E-02         0.00000E+00
    0.16555E-02        -0.28610E-02         0.00000E+00
    0.16739E-02        -0.29553E-02         0.00000E+00
    0.16920E-02        -0.30504E-02         0.00000E+00
    0.17097E-02        -0.31462E-02         0.00000E+00
    0.17271E-02        -0.32429E-02         0.00000E+00
    0.17441E-02        -0.33403E-02         0.00000E+00
    0.17609E-02        -0.34386E-02         0.00000E+00
    0.17774E-02        -0.35378E-02         0.00000E+00
    0.17936E-02        -0.36377E-02         0.00000E+00
    0.18096E-02        -0.37386E-02         0.00000E+00
    0.18253E-02        -0.38403E-02         0.00000E+00
    0.18408E-02        -0.39429E-02         0.00000E+00
    0.18559E-02        -0.40464E-02         0.00000E+00
    0.18708E-02        -0.41508E-02         0.00000E+00
    0.18855E-02        -0.42561E-02         0.00000E+00
    0.18998E-02        -0.43623E-02         0.00000E+00
    0.19138E-02        -0.44694E-02         0.00000E+00
    0.19274E-02        -0.45775E-02         0.00000E+00
    0.19407E-02        -0.46865E-02         0.00000E+00
    0.19536E-02        -0.47964E-02         0.00000E+00
    0.19661E-02        -0.49072E-02         0.00000E+00
    0.19781E-02        -0.50190E-02         0.00000E+00
    0.19896E-02        -0.51317E-02         0.00000E+00
    0.20005E-02        -0.52454E-02         0.00000E+00
    0.20109E-02        -0.53600E-02         0.00000E+00
    0.20207E-02        -0.54755E-02         0.00000E+00
    0.20297E-02        -0.55919E-02         0.00000E+00
    0.20380E-02        -0.57093E-02         0.00000E+00
    0.20455E-02        -0.58276E-02         0.00000E+00
    0.20521E-02        -0.59468E-02         0.00000E+00
    0.20578E-02        -0.60669E-02         0.00000E+00
    0.20623E-02        -0.61879E-02         0.00000E+00
    0.20658E-02        -0.63098E-02         0.00000E+00
    0.20680E-02        -0.64326E-02         0.00000E+00
    0.20688E-02        -0.65563E-02         0.00000E+00
    0.20682E-02        -0.66808E-02         0.00000E+00
    0.20660E-02        -0.68063E-02         0.00000E+00
    0.20621E-02        -0.69326E-02         0.00000E+00
    0.20563E-02        -0.70597E-02         0.00000E+00
    0.20485E-02        -0.71878E-02         0.00000E+00
    0.20384E-02        -0.73167E-02         0.00000E+00
    0.20260E-02        -0.74464E-02         0.00000E+00
    0.20109E-02        -0.75771E-02         0.00000E+00
    0.19931E-02        -0.77086E-02         0.00000E+00
    0.19722E-02        -0.78410E-02         0.00000E+00
    0.19481E-02        -0.79744E-02         0.00000E+00
    0.19204E-02        -0.81087E-02         0.00000E+00
    0.18890E-02        -0.82440E-02         0.00000E+00
    0.18536E-02        -0.83802E-02         0.00000E+00
    0.18139E-02        -0.85175E-02         0.00000E+00
    0.17696E-02        -0.86557E-02         0.00000E+00
    0.17205E-02        -0.87949E-02         0.00000E+00
    0.16662E-02        -0.89350E-02         0.00000E+00
    0.16066E-02        -0.90759E-02         0.00000E+00
    0.15412E-02        -0.92172E-02         0.00000E+00
    0.14699E-02        -0.93588E-02         0.00000E+00
    0.13922E-02        -0.95000E-02         0.00000E+00
    0.13076E-02        -0.96401E-02         0.00000E+00
    0.12157E-02        -0.97780E-02         0.00000E+00
    0.11155E-02        -0.99121E-02         0.00000E+00
    0.10060E-02        -0.10040E-01         0.00000E+00
    0.88544E-03        -0.10160E-01         0.00000E+00
    0.75147E-03        -0.10268E-01         0.00000E+00
    0.60073E-03        -0.10360E-01         0.00000E+00
    0.42884E-03        -0.10431E-01         0.00000E+00
    0.23054E-03        -0.10476E-01         0.00000E+00
    0.00000E+00        -0.10492E-01         0.00000E+00
    0.00000E+00        -0.19023E-03         0.00000E+00
    0.14648E-03        -0.19964E-03         0.00000E+00
    0.27437E-03        -0.22700E-03         0.00000E+00
    0.38702E-03        -0.27013E-03         0.00000E+00
    0.48745E-03        -0.32615E-03         0.00000E+00
    0.57817E-03        -0.39220E-03         0.00000E+00
    0.66111E-03        -0.46575E-03         0.00000E+00
    0.73766E-03        -0.54475E-03         0.00000E+00
    0.80882E-03        -0.62759E-03         0.00000E+00
    0.87529E-03        -0.71307E-03         0.00000E+00
    0.93757E-03        -0.80031E-03         0.00000E+00
    0.99604E-03        -0.88868E-03         0.00000E+00
    0.10510E-02        -0.97775E-03         0.00000E+00
    0.11027E-02        -0.10673E-02         0.00000E+00
    0.11514E-02        -0.11570E-02         0.00000E+00
    0.11972E-02        -0.12469E-02         0.00000E+00
    0.12403E-02        -0.13370E-02         0.00000E+00
    0.12810E-02        -0.14272E-02         0.00000E+00
    0.13193E-02        -0.15175E-02         0.00000E+00
    0.13555E-02        -0.16081E-02         0.00000E+00
    0.13898E-02        -0.16988E-02         0.00000E+00
    0.14223E-02        -0.17899E-02         0.00000E+00
    0.14531E-02        -0.18814E-02         0.00000E+00
    0.14824E-02        -0.19732E-02         0.00000E+00
    0.15103E-02        -0.20655E-02         0.00000E+00
    0.15370E-02        -0.21582E-02         0.00000E+00
    0.15625E-02        -0.22515E-02         0.00000E+00
    0.15871E-02        -0.23454E-02         0.00000E+00
    0.16108E-02        -0.24399E-02         0.00000E+00
    0.16336E-02        -0.25350E-02         0.00000E+00
    0.16557E-02        -0.26308E-02         0.00000E+00
    0.16771E-02        -0.27273E-02         0.00000E+00
    0.16979E-02        -0.28245E-02         0.00000E+00
    0.17182E-02        -0.29225E-02         0.00000E+00
    0.17380E-02        -0.30212E-02         0.00000E+00
    0.17573E-02        -0.31208E-02         0.00000E+00
    0.17763E-02        -0.32211E-02         0.00000E+00
    0.17949E-02        -0.33222E-02         0.00000E+00
    0.18131E-02        -0.34242E-02         0.00000E+00
    0.18310E-02        -0.35271E-02         0.00000E+00
    0.18486E-02        -0.36308E-02         0.00000E+00
    0.18659E-02        -0.37354E-02         0.00000E+00
    0.18830E-02        -0.38409E-02         0.00000E+00
    0.18997E-02        -0.39474E-02         0.00000E+00
    0.19162E-02        -0.40547E-02         0.00000E+00
    0.19324E-02        -0.41630E-02         0.00000E+00
    0.19484E-02        -0.42722E-02         0.00000E+00
    0.19640E-02        -0.43824E-02         0.00000E+00
    0.19794E-02        -0.44935E-02         0.00000E+00
    0.19944E-02        -0.46056E-02         0.00000E+00
    0.20091E-02        -0.47186E-02         0.00000E+00
    0.20234E-02        -0.48327E-02         0.00000E+00
    0.20374E-02        -0.49477E-02         0.00000E+00
    0.20509E-02        -0.50637E-02         0.00000E+00
    0.20640E-02        -0.51807E-02         0.00000E+00
    0.20766E-02        -0.52986E-02         0.00000E+00
    0.20887E-02        -0.54176E-02         0.00000E+00
    0.21002E-02        -0.55375E-02         0.00000E+00
    0.21111E-02        -0.56584E-02         0.00000E+00
    0.21214E-02        -0.57803E-02         0.00000E+00
    0.21309E-02        -0.59031E-02         0.00000E+00
    0.21396E-02        -0.60270E-02         0.00000E+00
    0.21475E-02        -0.61518E-02         0.00000E+00
    0.21545E-02        -0.62775E-02         0.00000E+00
    0.21604E-02        -0.64042E-02         0.00000E+00
    0.21652E-02        -0.65319E-02         0.00000E+00
    0.21689E-02        -0.66605E-02         0.00000E+00
    0.21712E-02        -0.67900E-02         0.00000E+00
    0.21721E-02        -0.69205E-02         0.00000E+00
    0.21715E-02        -0.70518E-02         0.00000E+00
    0.21693E-02        -0.71841E-02         0.00000E+00
    0.21652E-02        -0.73173E-02         0.00000E+00
    0.21591E-02        -0.74514E-02         0.00000E+00
    0.21510E-02        -0.75864E-02         0.00000E+00
    0.21405E-02        -0.77223E-02         0.00000E+00
    0.21275E-02        -0.78591E-02         0.00000E+00
    0.21117E-02        -0.79968E-02         0.00000E+00
    0.20931E-02        -0.81354E-02         0.00000E+00
    0.20712E-02        -0.82750E-02         0.00000E+00
    0.20460E-02        -0.84155E-02         0.00000E+00
    0.20170E-02        -0.85570E-02         0.00000E+00
    0.19841E-02        -0.86995E-02         0.00000E+00
    0.19470E-02        -0.88430E-02         0.00000E+00
    0.19053E-02        -0.89875E-02         0.00000E+00
    0.18588E-02        -0.91331E-02         0.00000E+00
    0.18072E-02        -0.92796E-02         0.00000E+00
    0.17502E-02        -0.94271E-02         0.00000E+00
    0.16874E-02        -0.95754E-02         0.00000E+00
    0.16186E-02        -0.97242E-02         0.00000E+00
    0.15434E-02        -0.98731E-02         0.00000E+00
    0.14613E-02        -0.10022E-01         0.00000E+00
    0.13720E-02        -0.10169E-01         0.00000E+00
    0.12748E-02        -0.10314E-01         0.00000E+00
    0.11688E-02        -0.10455E-01         0.00000E+00
    0.10529E-02        -0.10590E-01         0.00000E+00
    0.92549E-03        -0.10716E-01         0.00000E+00
    0.78410E-03        -0.10829E-01         0.00000E+00
    0.62552E-03        -0.10925E-01         0.00000E+00
    0.44550E-03        -0.10999E-01         0.00000E+00
    0.23890E-03        -0.11046E-01         0.00000E+00
    0.00000E+00        -0.11063E-01         0.00000E+00
    0.00000E+00        -0.20776E-03         0.00000E+00
    0.15161E-03        -0.21755E-03         0.00000E+00
    0.28461E-03        -0.24609E-03         0.00000E+00
    0.40229E-03        -0.29113E-03         0.00000E+00
    0.50762E-03        -0.34972E-03         0.00000E+00
    0.60302E-03        -0.41888E-03         0.00000E+00
    0.69037E-03        -0.49595E-03         0.00000E+00
    0.77104E-03        -0.57878E-03         0.00000E+00
    0.84601E-03        -0.66567E-03         0.00000E+00
    0.91600E-03        -0.75534E-03         0.00000E+00
    0.98153E-03        -0.84688E-03         0.00000E+00
    0.10430E-02        -0.93963E-03         0.00000E+00
    0.11007E-02        -0.10331E-02         0.00000E+00
    0.11550E-02        -0.11271E-02         0.00000E+00
    0.12060E-02        -0.12214E-02         0.00000E+00
    0.12539E-02        -0.13158E-02         0.00000E+00
    0.12991E-02        -0.14104E-02         0.00000E+00
    0.13417E-02        -0.15051E-02         0.00000E+00
    0.13818E-02        -0.16001E-02         0.00000E+00
    0.14197E-02        -0.16952E-02         0.00000E+00
    0.14555E-02        -0.17906E-02         0.00000E+00
    0.14894E-02        -0.18864E-02         0.00000E+00
    0.15216E-02        -0.19825E-02         0.00000E+00
    0.15522E-02        -0.20791E-02         0.00000E+00
    0.15814E-02        -0.21761E-02         0.00000E+00
    0.16093E-02        -0.22737E-02         0.00000E+00
    0.16361E-02        -0.23718E-02         0.00000E+00
    0.16617E-02        -0.24705E-02         0.00000E+00
    0.16865E-02        -0.25699E-02         0.00000E+00
    0.17103E-02        -0.26700E-02         0.00000E+00
    0.17334E-02        -0.27708E-02         0.00000E+00
    0.17558E-02        -0.28723E-02         0.00000E+00
    0.17776E-02        -0.29746E-02         0.00000E+00
    0.17988E-02        -0.30777E-02         0.00000E+00
    0.18195E-02        -0.31816E-02         0.00000E+00
    0.18398E-02        -0.32863E-02         0.00000E+00
    0.18596E-02        -0.33919E-02         0.00000E+00
    0.18790E-02        -0.34983E-02         0.00000E+00
    0.18981E-02        -0.36057E-02         0.00000E+00
    0.19168E-02        -0.37139E-02         0.00000E+00
    0.19353E-02        -0.38231E-02         0.00000E+00
    0.19534E-02        -0.39332E-02         0.00000E+00
    0.19712E-02        -0.40442E-02         0.00000E+00
    0.19888E-02        -0.41562E-02         0.00000E+00
    0.20060E-02        -0.42692E-02         0.00000E+00
    0.20230E-02        -0.43832E-02         0.00000E+00
    0.20397E-02        -0.44981E-02         0.00000E+00
    0.20561E-02        -0.46141E-02         0.00000E+00
    0.20721E-02        -0.47310E-02         0.00000E+00
    0.20879E-02        -0.48490E-02         0.00000E+00
    0.21033E-02        -0.49680E-02         0.00000E+00
    0.21183E-02        -0.50880E-02         0.00000E+00
    0.21329E-02        -0.52090E-02         0.00000E+00
    0.21471E-02        -0.53311E-02         0.00000E+00
    0.21608E-02        -0.54542E-02         0.00000E+00
    0.21740E-02        -0.55783E-02         0.00000E+00
    0.21866E-02        -0.57035E-02         0.00000E+00
    0.21987E-02        -0.58297E-02         0.00000E+00
    0.22102E-02        -0.59569E-02         0.00000E+00
    0.22209E-02        -0.60852E-02         0.00000E+00
    0.22309E-02        -0.62144E-02         0.00000E+00
    0.22400E-02        -0.63447E-02         0.00000E+00
    0.22483E-02        -0.64760E-02         0.00000E+00
    0.22556E-02        -0.66083E-02         0.00000E+00
    0.22618E-02        -0.67416E-02         0.00000E+00
    0.22669E-02        -0.68759E-02         0.00000E+00
    0.22708E-02        -0.70112E-02         0.00000E+00
    0.22732E-02        -0.71474E-02         0.00000E+00
    0.22743E-02        -0.72847E-02         0.00000E+00
    0.22737E-02        -0.74228E-02         0.00000E+00
    0.22713E-02        -0.75619E-02         0.00000E+00
    0.22671E-02        -0.77020E-02         0.00000E+00
    0.22608E-02        -0.78430E-02         0.00000E+00
    0.22523E-02        -0.79849E-02         0.00000E+00
    0.22414E-02        -0.81278E-02         0.00000E+00
    0.22278E-02        -0.82716E-02         0.00000E+00
    0.22115E-02        -0.84164E-02         0.00000E+00
    0.21920E-02        -0.85621E-02         0.00000E+00
    0.21692E-02        -0.87087E-02         0.00000E+00
    0.21429E-02        -0.88564E-02         0.00000E+00
    0.21126E-02        -0.90051E-02         0.00000E+00
    0.20783E-02        -0.91547E-02         0.00000E+00
    0.20394E-02        -0.93055E-02         0.00000E+00
    0.19959E-02        -0.94573E-02         0.00000E+00
    0.19472E-02        -0.96101E-02         0.00000E+00
    0.18932E-02        -0.97640E-02         0.00000E+00
    0.18334E-02        -0.99188E-02         0.00000E+00
    0.17676E-02        -0.10074E-01         0.00000E+00
    0.16953E-02        -0.10231E-01         0.00000E+00
    0.16162E-02        -0.10387E-01         0.00000E+00
    0.15299E-02        -0.10543E-01         0.00000E+00
    0.14358E-02        -0.10697E-01         0.00000E+00
    0.13333E-02        -0.10849E-01         0.00000E+00
    0.12215E-02        -0.10997E-01         0.00000E+00
    0.10993E-02        -0.11139E-01         0.00000E+00
    0.96497E-03        -0.11270E-01         0.00000E+00
    0.81621E-03        -0.11389E-01         0.00000E+00
    0.64988E-03        -0.11490E-01         0.00000E+00
    0.46184E-03        -0.11567E-01         0.00000E+00
    0.24708E-03        -0.11616E-01         0.00000E+00
    0.00000E+00        -0.11633E-01         0.00000E+00
    0.00000E+00        -0.22578E-03         0.00000E+00
    0.15665E-03        -0.23597E-03         0.00000E+00
    0.29466E-03        -0.26571E-03         0.00000E+00
    0.41732E-03        -0.31268E-03         0.00000E+00
    0.52750E-03        -0.37385E-03         0.00000E+00
    0.62755E-03        -0.44611E-03         0.00000E+00
    0.71928E-03        -0.52670E-03         0.00000E+00
    0.80405E-03        -0.61333E-03         0.00000E+00
    0.88282E-03        -0.70423E-03         0.00000E+00
    0.95632E-03        -0.79808E-03         0.00000E+00
    0.10251E-02        -0.89389E-03         0.00000E+00
    0.10895E-02        -0.99098E-03         0.00000E+00
    0.11500E-02        -0.10889E-02         0.00000E+00
    0.12067E-02        -0.11873E-02         0.00000E+00
    0.12601E-02        -0.12860E-02         0.00000E+00
    0.13102E-02        -0.13849E-02         0.00000E+00
    0.13573E-02        -0.14841E-02         0.00000E+00
    0.14018E-02        -0.15834E-02         0.00000E+00
    0.14436E-02        -0.16828E-02         0.00000E+00
    0.14831E-02        -0.17826E-02         0.00000E+00
    0.15205E-02        -0.18826E-02         0.00000E+00
    0.15558E-02        -0.19830E-02         0.00000E+00
    0.15894E-02        -0.20838E-02         0.00000E+00
    0.16213E-02        -0.21851E-02         0.00000E+00
    0.16518E-02        -0.22869E-02         0.00000E+00
    0.16809E-02        -0.23892E-02         0.00000E+00
    0.17087E-02        -0.24922E-02         0.00000E+00
    0.17355E-02        -0.25958E-02         0.00000E+00
    0.17613E-02        -0.27001E-02         0.00000E+00
    0.17862E-02        -0.28051E-02         0.00000E+00
    0.18102E-02        -0.29109E-02         0.00000E+00
    0.18336E-02        -0.30175E-02         0.00000E+00
    0.18563E-02        -0.31248E-02         0.00000E+00
    0.18785E-02        -0.32330E-02         0.00000E+00
    0.19001E-02        -0.33421E-02         0.00000E+00
    0.19212E-02        -0.34520E-02         0.00000E+00
    0.19419E-02        -0.35628E-02         0.00000E+00
    0.19622E-02        -0.36746E-02         0.00000E+00
    0.19821E-02        -0.37873E-02         0.00000E+00
    0.20016E-02        -0.39009E-02         0.00000E+00
    0.20209E-02        -0.40155E-02         0.00000E+00
    0.20398E-02        -0.41311E-02         0.00000E+00
    0.20584E-02        -0.42476E-02         0.00000E+00
    0.20767E-02        -0.43652E-02         0.00000E+00
    0.20947E-02        -0.44838E-02         0.00000E+00
    0.21125E-02        -0.46035E-02         0.00000E+00
    0.21299E-02        -0.47241E-02         0.00000E+00
    0.21470E-02        -0.48458E-02         0.00000E+00
    0.21638E-02        -0.49686E-02         0.00000E+00
    0.21802E-02        -0.50925E-02         0.00000E+00
    0.21963E-02        -0.52174E-02         0.00000E+00
    0.22119E-02        -0.53434E-02         0.00000E+00
    0.22272E-02        -0.54704E-02         0.00000E+00
    0.22420E-02        -0.55986E-02         0.00000E+00
    0.22564E-02        -0.57278E-02         0.00000E+00
    0.22702E-02        -0.58581E-02         0.00000E+00
    0.22834E-02        -0.59895E-02         0.00000E+00
    0.22960E-02        -0.61219E-02         0.00000E+00
    0.23080E-02        -0.62555E-02         0.00000E+00
    0.23192E-02        -0.63901E-02         0.00000E+00
    0.23297E-02        -0.65258E-02         0.00000E+00
    0.23392E-02        -0.66625E-02         0.00000E+00
    0.23479E-02        -0.68003E-02         0.00000E+00
    0.23555E-02        -0.69391E-02         0.00000E+00
    0.23621E-02        -0.70790E-02         0.00000E+00
    0.23674E-02        -0.72200E-02         0.00000E+00
    0.23715E-02        -0.73619E-02         0.00000E+00
    0.23741E-02        -0.75049E-02         0.00000E+00
    0.23752E-02        -0.76488E-02         0.00000E+00
    0.23746E-02        -0.77938E-02         0.00000E+00
    0.23722E-02        -0.79397E-02         0.00000E+00
    0.23679E-02        -0.80867E-02         0.00000E+00
    0.23614E-02        -0.82346E-02         0.00000E+00
    0.23525E-02        -0.83834E-02         0.00000E+00
    0.23412E-02        -0.85333E-02         0.00000E+00
    0.23271E-02        -0.86841E-02         0.00000E+00
    0.23101E-02        -0.88359E-02         0.00000E+00
    0.22899E-02        -0.89886E-02         0.00000E+00
    0.22662E-02        -0.91424E-02         0.00000E+00
    0.22387E-02        -0.92971E-02         0.00000E+00
    0.22073E-02        -0.94529E-02         0.00000E+00
    0.21715E-02        -0.96098E-02         0.00000E+00
    0.21310E-02        -0.97677E-02         0.00000E+00
    0.20856E-02        -0.99267E-02         0.00000E+00
    0.20348E-02        -0.10087E-01         0.00000E+00
    0.19784E-02        -0.10248E-01         0.00000E+00
    0.19159E-02        -0.10410E-01         0.00000E+00
    0.18470E-02        -0.10573E-01         0.00000E+00
    0.17714E-02        -0.10736E-01         0.00000E+00
    0.16885E-02        -0.10900E-01         0.00000E+00
    0.15979E-02        -0.11063E-01         0.00000E+00
    0.14990E-02        -0.11225E-01         0.00000E+00
    0.13913E-02        -0.11384E-01         0.00000E+00
    0.12737E-02        -0.11539E-01         0.00000E+00
    0.11451E-02        -0.11686E-01         0.00000E+00
    0.10039E-02        -0.11824E-01         0.00000E+00
    0.84786E-03        -0.11948E-01         0.00000E+00
    0.67384E-03        -0.12053E-01         0.00000E+00
    0.47788E-03        -0.12134E-01         0.00000E+00
    0.25512E-03        -0.12185E-01         0.00000E+00
    0.00000E+00        -0.12202E-01         0.00000E+00
    0.00000E+00        -0.24427E-03         0.00000E+00
    0.16159E-03        -0.25488E-03         0.00000E+00
    0.30456E-03        -0.28584E-03         0.00000E+00
    0.43213E-03        -0.33477E-03         0.00000E+00
    0.54711E-03        -0.39853E-03         0.00000E+00
    0.65178E-03        -0.47390E-03         0.00000E+00
    0.74789E-03        -0.55798E-03         0.00000E+00
    0.83673E-03        -0.64839E-03         0.00000E+00
    0.91929E-03        -0.74329E-03         0.00000E+00
    0.99627E-03        -0.84127E-03         0.00000E+00
    0.10682E-02        -0.94132E-03         0.00000E+00
    0.11356E-02        -0.10427E-02         0.00000E+00
    0.11988E-02        -0.11450E-02         0.00000E+00
    0.12580E-02        -0.12478E-02         0.00000E+00
    0.13136E-02        -0.13510E-02         0.00000E+00
    0.13659E-02        -0.14544E-02         0.00000E+00
    0.14150E-02        -0.15580E-02         0.00000E+00
    0.14612E-02        -0.16618E-02         0.00000E+00
    0.15048E-02        -0.17659E-02         0.00000E+00
    0.15459E-02        -0.18702E-02         0.00000E+00
    0.15848E-02        -0.19748E-02         0.00000E+00
    0.16215E-02        -0.20799E-02         0.00000E+00
    0.16565E-02        -0.21853E-02         0.00000E+00
    0.16897E-02        -0.22913E-02         0.00000E+00
    0.17213E-02        -0.23979E-02         0.00000E+00
    0.17516E-02        -0.25050E-02         0.00000E+00
    0.17805E-02        -0.26128E-02         0.00000E+00
    0.18084E-02        -0.27212E-02         0.00000E+00
    0.18352E-02        -0.28304E-02         0.00000E+00
    0.18611E-02        -0.29404E-02         0.00000E+00
    0.18862E-02        -0.30512E-02         0.00000E+00
    0.19105E-02        -0.31627E-02         0.00000E+00
    0.19341E-02        -0.32752E-02         0.00000E+00
    0.19571E-02        -0.33885E-02         0.00000E+00
    0.19796E-02        -0.35027E-02         0.00000E+00
    0.20016E-02        -0.36178E-02         0.00000E+00
    0.20232E-02        -0.37339E-02         0.00000E+00
    0.20443E-02        -0.38509E-02         0.00000E+00
    0.20650E-02        -0.39689E-02         0.00000E+00
    0.20854E-02        -0.40879E-02         0.00000E+00
    0.21054E-02        -0.42080E-02         0.00000E+00
    0.21251E-02        -0.43290E-02         0.00000E+00
    0.21445E-02        -0.44511E-02         0.00000E+00
    0.21636E-02        -0.45743E-02         0.00000E+00
    0.21823E-02        -0.46985E-02         0.00000E+00
    0.22008E-02        -0.48238E-02         0.00000E+00
    0.22190E-02        -0.49502E-02         0.00000E+00
    0.22368E-02        -0.50777E-02         0.00000E+00
    0.22543E-02        -0.52063E-02         0.00000E+00
    0.22714E-02        -0.53360E-02         0.00000E+00
    0.22881E-02        -0.54669E-02         0.00000E+00
    0.23045E-02        -0.55988E-02         0.00000E+00
    0.23204E-02        -0.57319E-02         0.00000E+00
    0.23358E-02        -0.58661E-02         0.00000E+00
    0.23508E-02        -0.60015E-02         0.00000E+00
    0.23652E-02        -0.61379E-02         0.00000E+00
    0.23790E-02        -0.62755E-02         0.00000E+00
    0.23921E-02        -0.64142E-02         0.00000E+00
    0.24046E-02        -0.65541E-02         0.00000E+00
    0.24163E-02        -0.66951E-02         0.00000E+00
    0.24272E-02        -0.68371E-02         0.00000E+00
    0.24372E-02        -0.69803E-02         0.00000E+00
    0.24463E-02        -0.71246E-02         0.00000E+00
    0.24543E-02        -0.72700E-02         0.00000E+00
    0.24611E-02        -0.74165E-02         0.00000E+00
    0.24667E-02        -0.75640E-02         0.00000E+00
    0.24710E-02        -0.77126E-02         0.00000E+00
    0.24737E-02        -0.78623E-02         0.00000E+00
    0.24749E-02        -0.80130E-02         0.00000E+00
    0.24744E-02        -0.81648E-02         0.00000E+00
    0.24719E-02        -0.83175E-02         0.00000E+00
    0.24675E-02        -0.84713E-02         0.00000E+00
    0.24608E-02        -0.86261E-02         0.00000E+00
    0.24516E-02        -0.87819E-02         0.00000E+00
    0.24399E-02        -0.89387E-02         0.00000E+00
    0.24253E-02        -0.90964E-02         0.00000E+00
    0.24077E-02        -0.92552E-02         0.00000E+00
    0.23867E-02        -0.94150E-02         0.00000E+00
    0.23621E-02        -0.95758E-02         0.00000E+00
    0.23336E-02        -0.97377E-02         0.00000E+00
    0.23010E-02        -0.99006E-02         0.00000E+00
    0.22638E-02        -0.10065E-01         0.00000E+00
    0.22217E-02        -0.10230E-01         0.00000E+00
    0.21744E-02        -0.10396E-01         0.00000E+00
    0.21216E-02        -0.10563E-01         0.00000E+00
    0.20628E-02        -0.10732E-01         0.00000E+00
    0.19977E-02        -0.10901E-01         0.00000E+00
    0.19258E-02        -0.11071E-01         0.00000E+00
    0.18468E-02        -0.11242E-01         0.00000E+00
    0.17601E-02        -0.11413E-01         0.00000E+00
    0.16653E-02        -0.11583E-01         0.00000E+00
    0.15617E-02        -0.11752E-01         0.00000E+00
    0.14487E-02        -0.11918E-01         0.00000E+00
    0.13254E-02        -0.12079E-01         0.00000E+00
    0.11905E-02        -0.12233E-01         0.00000E+00
    0.10425E-02        -0.12377E-01         0.00000E+00
    0.87910E-03        -0.12506E-01         0.00000E+00
    0.69745E-03        -0.12616E-01         0.00000E+00
    0.49367E-03        -0.12700E-01         0.00000E+00
    0.26301E-03        -0.12753E-01         0.00000E+00
    0.00000E+00        -0.12771E-01         0.00000E+00
    0.00000E+00        -0.26322E-03         0.00000E+00
    0.16647E-03        -0.27426E-03         0.00000E+00
    0.31431E-03        -0.30646E-03         0.00000E+00
    0.44674E-03        -0.35738E-03         0.00000E+00
    0.56649E-03        -0.42376E-03         0.00000E+00
    0.67575E-03        -0.50224E-03         0.00000E+00
    0.77621E-03        -0.58980E-03         0.00000E+00
    0.86912E-03        -0.68397E-03         0.00000E+00
    0.95544E-03        -0.78282E-03         0.00000E+00
    0.10359E-02        -0.88491E-03         0.00000E+00
    0.11110E-02        -0.98917E-03         0.00000E+00
    0.11813E-02        -0.10949E-02         0.00000E+00
    0.12471E-02        -0.12015E-02         0.00000E+00
    0.13088E-02        -0.13087E-02         0.00000E+00
    0.13667E-02        -0.14163E-02         0.00000E+00
    0.14210E-02        -0.15241E-02         0.00000E+00
    0.14721E-02        -0.16322E-02         0.00000E+00
    0.15201E-02        -0.17405E-02         0.00000E+00
    0.15654E-02        -0.18491E-02         0.00000E+00
    0.16080E-02        -0.19580E-02         0.00000E+00
    0.16483E-02        -0.20672E-02         0.00000E+00
    0.16865E-02        -0.21769E-02         0.00000E+00
    0.17227E-02        -0.22870E-02         0.00000E+00
    0.17572E-02        -0.23977E-02         0.00000E+00
    0.17900E-02        -0.25090E-02         0.00000E+00
    0.18214E-02        -0.26209E-02         0.00000E+00
    0.18515E-02        -0.27335E-02         0.00000E+00
    0.18804E-02        -0.28468E-02         0.00000E+00
    0.19082E-02        -0.29609E-02         0.00000E+00
    0.19351E-02        -0.30758E-02         0.00000E+00
    0.19611E-02        -0.31915E-02         0.00000E+00
    0.19864E-02        -0.33081E-02         0.00000E+00
    0.20109E-02        -0.34256E-02         0.00000E+00
    0.20349E-02        -0.35440E-02         0.00000E+00
    0.20582E-02        -0.36634E-02         0.00000E+00
    0.20810E-02        -0.37837E-02         0.00000E+00
    0.21034E-02        -0.39050E-02         0.00000E+00
    0.21254E-02        -0.40273E-02         0.00000E+00
    0.21469E-02        -0.41507E-02         0.00000E+00
    0.21681E-02        -0.42751E-02         0.00000E+00
    0.21889E-02        -0.44006E-02         0.00000E+00
    0.22094E-02        -0.45271E-02         0.00000E+00
    0.22295E-02        -0.46547E-02         0.00000E+00
    0.22493E-02        -0.47835E-02         0.00000E+00
    0.22689E-02        -0.49133E-02         0.00000E+00
    0.22881E-02        -0.50443E-02         0.00000E+00
    0.23069E-02        -0.51764E-02         0.00000E+00
    0.23255E-02        -0.53097E-02         0.00000E+00
    0.23436E-02        -0.54441E-02         0.00000E+00
    0.23614E-02        -0.55797E-02         0.00000E+00
    0.23789E-02        -0.57164E-02         0.00000E+00
    0.23959E-02        -0.58544E-02         0.00000E+00
    0.24124E-02        -0.59935E-02         0.00000E+00
    0.24285E-02        -0.61337E-02         0.00000E+00
    0.24440E-02        -0.62752E-02         0.00000E+00
    0.24590E-02        -0.64178E-02         0.00000E+00
    0.24734E-02        -0.65616E-02         0.00000E+00
    0.24871E-02        -0.67066E-02         0.00000E+00
    0.25001E-02        -0.68528E-02         0.00000E+00
    0.25123E-02        -0.70001E-02         0.00000E+00
    0.25236E-02        -0.71486E-02         0.00000E+00
    0.25340E-02        -0.72982E-02         0.00000E+00
    0.25435E-02        -0.74490E-02         0.00000E+00
    0.25518E-02        -0.76009E-02         0.00000E+00
    0.25590E-02        -0.77540E-02         0.00000E+00
    0.25648E-02        -0.79081E-02         0.00000E+00
    0.25693E-02        -0.80634E-02         0.00000E+00
    0.25722E-02        -0.82197E-02         0.00000E+00
    0.25735E-02        -0.83772E-02         0.00000E+00
    0.25730E-02        -0.85357E-02         0.00000E+00
    0.25705E-02        -0.86953E-02         0.00000E+00
    0.25659E-02        -0.88559E-02         0.00000E+00
    0.25590E-02        -0.90176E-02         0.00000E+00
    0.25496E-02        -0.91802E-02         0.00000E+00
    0.25375E-02        -0.93440E-02         0.00000E+00
    0.25225E-02        -0.95087E-02         0.00000E+00
    0.25042E-02        -0.96745E-02         0.00000E+00
    0.24825E-02        -0.98413E-02         0.00000E+00
    0.24571E-02        -0.10009E-01         0.00000E+00
    0.24276E-02        -0.10178E-01         0.00000E+00
    0.23937E-02        -0.10348E-01         0.00000E+00
    0.23552E-02        -0.10519E-01         0.00000E+00
    0.23116E-02        -0.10691E-01         0.00000E+00
    0.22625E-02        -0.10865E-01         0.00000E+00
    0.22076E-02        -0.11039E-01         0.00000E+00
    0.21465E-02        -0.11215E-01         0.00000E+00
    0.20788E-02        -0.11391E-01         0.00000E+00
    0.20040E-02        -0.11569E-01         0.00000E+00
    0.19216E-02        -0.11747E-01         0.00000E+00
    0.18312E-02        -0.11925E-01         0.00000E+00
    0.17322E-02        -0.12102E-01         0.00000E+00
    0.16240E-02        -0.12278E-01         0.00000E+00
    0.15058E-02        -0.12451E-01         0.00000E+00
    0.13767E-02        -0.12619E-01         0.00000E+00
    0.12355E-02        -0.12780E-01         0.00000E+00
    0.10806E-02        -0.12929E-01         0.00000E+00
    0.90999E-03        -0.13064E-01         0.00000E+00
    0.72076E-03        -0.13178E-01         0.00000E+00
    0.50924E-03        -0.13265E-01         0.00000E+00
    0.27079E-03        -0.13320E-01         0.00000E+00
    0.00000E+00        -0.13339E-01         0.00000E+00
    0.00000E+00        -0.28260E-03         0.00000E+00
    0.17128E-03        -0.29408E-03         0.00000E+00
    0.32395E-03        -0.32756E-03         0.00000E+00
    0.46119E-03        -0.38050E-03         0.00000E+00
    0.58567E-03        -0.44952E-03         0.00000E+00
    0.69950E-03        -0.53111E-03         0.00000E+00
    0.80428E-03        -0.62214E-03         0.00000E+00
    0.90124E-03        -0.72005E-03         0.00000E+00
    0.99130E-03        -0.82284E-03         0.00000E+00
    0.10752E-02        -0.92900E-03         0.00000E+00
    0.11535E-02        -0.10374E-02         0.00000E+00
    0.12266E-02        -0.11474E-02         0.00000E+00
    0.12951E-02        -0.12583E-02         0.00000E+00
    0.13592E-02        -0.13699E-02         0.00000E+00
    0.14193E-02        -0.14819E-02         0.00000E+00
    0.14757E-02        -0.15941E-02         0.00000E+00
    0.15286E-02        -0.17067E-02         0.00000E+00
    0.15784E-02        -0.18195E-02         0.00000E+00
    0.16253E-02        -0.19326E-02         0.00000E+00
    0.16695E-02        -0.20460E-02         0.00000E+00
    0.17113E-02        -0.21598E-02         0.00000E+00
    0.17508E-02        -0.22741E-02         0.00000E+00
    0.17883E-02        -0.23889E-02         0.00000E+00
    0.18240E-02        -0.25043E-02         0.00000E+00
    0.18580E-02        -0.26203E-02         0.00000E+00
    0.18905E-02        -0.27369E-02         0.00000E+00
    0.19216E-02        -0.28543E-02         0.00000E+00
    0.19516E-02        -0.29725E-02         0.00000E+00
    0.19804E-02        -0.30915E-02         0.00000E+00
    0.20082E-02        -0.32113E-02         0.00000E+00
    0.20352E-02        -0.33320E-02         0.00000E+00
    0.20614E-02        -0.34536E-02         0.00000E+00
    0.20868E-02        -0.35762E-02         0.00000E+00
    0.21116E-02        -0.36997E-02         0.00000E+00
    0.21358E-02        -0.38242E-02         0.00000E+00
    0.21595E-02        -0.39497E-02         0.00000E+00
    0.21827E-02        -0.40763E-02         0.00000E+00
    0.22054E-02        -0.42039E-02         0.00000E+00
    0.22278E-02        -0.43326E-02         0.00000E+00
    0.22497E-02        -0.44624E-02         0.00000E+00
    0.22713E-02        -0.45933E-02         0.00000E+00
    0.22925E-02        -0.47253E-02         0.00000E+00
    0.23134E-02        -0.48584E-02         0.00000E+00
    0.23340E-02        -0.49927E-02         0.00000E+00
    0.23543E-02        -0.51282E-02         0.00000E+00
    0.23742E-02        -0.52649E-02         0.00000E+00
    0.23938E-02        -0.54027E-02         0.00000E+00
    0.24130E-02        -0.55417E-02         0.00000E+00
    0.24319E-02        -0.56820E-02         0.00000E+00
    0.24504E-02        -0.58234E-02         0.00000E+00
    0.24684E-02        -0.59661E-02         0.00000E+00
    0.24861E-02        -0.61100E-02         0.00000E+00
    0.25033E-02        -0.62551E-02         0.00000E+00
    0.25199E-02        -0.64014E-02         0.00000E+00
    0.25361E-02        -0.65490E-02         0.00000E+00
    0.25516E-02        -0.66978E-02         0.00000E+00
    0.25666E-02        -0.68478E-02         0.00000E+00
    0.25808E-02        -0.69991E-02         0.00000E+00
    0.25943E-02        -0.71515E-02         0.00000E+00
    0.26070E-02        -0.73052E-02         0.00000E+00
    0.26188E-02        -0.74601E-02         0.00000E+00
    0.26297E-02        -0.76161E-02         0.00000E+00
    0.26395E-02        -0.77734E-02         0.00000E+00
    0.26482E-02        -0.79318E-02         0.00000E+00
    0.26556E-02        -0.80915E-02         0.00000E+00
    0.26617E-02        -0.82522E-02         0.00000E+00
    0.26664E-02        -0.84141E-02         0.00000E+00
    0.26695E-02        -0.85772E-02         0.00000E+00
    0.26709E-02        -0.87414E-02         0.00000E+00
    0.26704E-02        -0.89066E-02         0.00000E+00
    0.26679E-02        -0.90730E-02         0.00000E+00
    0.26632E-02        -0.92405E-02         0.00000E+00
    0.26562E-02        -0.94090E-02         0.00000E+00
    0.26465E-02        -0.95786E-02         0.00000E+00
    0.26340E-02        -0.97492E-02         0.00000E+00
    0.26185E-02        -0.99209E-02         0.00000E+00
    0.25997E-02        -0.10094E-01         0.00000E+00
    0.25773E-02        -0.10267E-01         0.00000E+00
    0.25510E-02        -0.10442E-01         0.00000E+00
    0.25206E-02        -0.10618E-01         0.00000E+00
    0.24856E-02        -0.10795E-01         0.00000E+00
    0.24457E-02        -0.10974E-01         0.00000E+00
    0.24005E-02        -0.11153E-01         0.00000E+00
    0.23498E-02        -0.11333E-01         0.00000E+00
    0.22929E-02        -0.11515E-01         0.00000E+00
    0.22296E-02        -0.11698E-01         0.00000E+00
    0.21592E-02        -0.11881E-01         0.00000E+00
    0.20815E-02        -0.12066E-01         0.00000E+00
    0.19959E-02        -0.12251E-01         0.00000E+00
    0.19018E-02        -0.12436E-01         0.00000E+00
    0.17986E-02        -0.12621E-01         0.00000E+00
    0.16857E-02        -0.12804E-01         0.00000E+00
    0.15624E-02        -0.12983E-01         0.00000E+00
    0.14275E-02        -0.13158E-01         0.00000E+00
    0.12801E-02        -0.13325E-01         0.00000E+00
    0.11184E-02        -0.13481E-01         0.00000E+00
    0.94057E-03        -0.13620E-01         0.00000E+00
    0.74382E-03        -0.13739E-01         0.00000E+00
    0.52462E-03        -0.13830E-01         0.00000E+00
    0.27847E-03        -0.13887E-01         0.00000E+00
    0.00000E+00        -0.13907E-01         0.00000E+00
    0.00000E+00        -0.30240E-03         0.00000E+00
    0.17603E-03        -0.31433E-03         0.00000E+00
    0.33348E-03        -0.34913E-03         0.00000E+00
    0.47550E-03        -0.40413E-03         0.00000E+00
    0.60468E-03        -0.47580E-03         0.00000E+00
    0.72305E-03        -0.56051E-03         0.00000E+00
    0.83214E-03        -0.65501E-03         0.00000E+00
    0.93312E-03        -0.75663E-03         0.00000E+00
    0.10269E-02        -0.86333E-03         0.00000E+00
    0.11142E-02        -0.97354E-03         0.00000E+00
    0.11956E-02        -0.10861E-02         0.00000E+00
    0.12716E-02        -0.12003E-02         0.00000E+00
    0.13427E-02        -0.13155E-02         0.00000E+00
    0.14092E-02        -0.14314E-02         0.00000E+00
    0.14714E-02        -0.15477E-02         0.00000E+00
    0.15298E-02        -0.16644E-02         0.00000E+00
    0.15846E-02        -0.17814E-02         0.00000E+00
    0.16361E-02        -0.18987E-02         0.00000E+00
    0.16846E-02        -0.20163E-02         0.00000E+00
    0.17303E-02        -0.21342E-02         0.00000E+00
    0.17735E-02        -0.22526E-02         0.00000E+00
    0.18143E-02        -0.23715E-02         0.00000E+00
    0.18531E-02        -0.24910E-02         0.00000E+00
    0.18900E-02        -0.26110E-02         0.00000E+00
    0.19251E-02        -0.27317E-02         0.00000E+00
    0.19587E-02        -0.28531E-02         0.00000E+00
    0.19909E-02        -0.29753E-02         0.00000E+00
    0.20219E-02        -0.30983E-02         0.00000E+00
    0.20517E-02        -0.32222E-02         0.00000E+00
    0.20805E-02        -0.33469E-02         0.00000E+00
    0.21083E-02        -0.34726E-02         0.00000E+00
    0.21354E-02        -0.35992E-02         0.00000E+00
    0.21617E-02        -0.37268E-02         0.00000E+00
    0.21874E-02        -0.38555E-02         0.00000E+00
    0.22124E-02        -0.39851E-02         0.00000E+00
    0.22369E-02        -0.41158E-02         0.00000E+00
    0.22609E-02        -0.42476E-02         0.00000E+00
    0.22845E-02        -0.43805E-02         0.00000E+00
    0.23076E-02        -0.45146E-02         0.00000E+00
    0.23303E-02        -0.46497E-02         0.00000E+00
    0.23527E-02        -0.47860E-02         0.00000E+00
    0.23747E-02        -0.49235E-02         0.00000E+00
    0.23963E-02        -0.50622E-02         0.00000E+00
    0.24176E-02        -0.52021E-02         0.00000E+00
    0.24386E-02        -0.53432E-02         0.00000E+00
    0.24592E-02        -0.54855E-02         0.00000E+00
    0.24795E-02        -0.56291E-02         0.00000E+00
    0.24994E-02        -0.57739E-02         0.00000E+00
    0.25190E-02        -0.59199E-02         0.00000E+00
    0.25381E-02        -0.60673E-02         0.00000E+00
    0.25569E-02        -0.62158E-02         0.00000E+00
    0.25752E-02        -0.63657E-02         0.00000E+00
    0.25930E-02        -0.65168E-02         0.00000E+00
    0.26103E-02        -0.66692E-02         0.00000E+00
    0.26270E-02        -0.68229E-02         0.00000E+00
    0.26431E-02        -0.69778E-02         0.00000E+00
    0.26586E-02        -0.71341E-02         0.00000E+00
    0.26734E-02        -0.72915E-02         0.00000E+00
    0.26874E-02        -0.74503E-02         0.00000E+00
    0.27005E-02        -0.76103E-02         0.00000E+00
    0.27128E-02        -0.77716E-02         0.00000E+00
    0.27241E-02        -0.79341E-02         0.00000E+00
    0.27343E-02        -0.80978E-02         0.00000E+00
    0.27433E-02        -0.82628E-02         0.00000E+00
    0.27511E-02        -0.84290E-02         0.00000E+00
    0.27575E-02        -0.85964E-02         0.00000E+00
    0.27624E-02        -0.87649E-02         0.00000E+00
    0.27656E-02        -0.89346E-02         0.00000E+00
    0.27671E-02        -0.91055E-02         0.00000E+00
    0.27667E-02        -0.92776E-02         0.00000E+00
    0.27642E-02        -0.94507E-02         0.00000E+00
    0.27594E-02        -0.96250E-02         0.00000E+00
    0.27522E-02        -0.98004E-02         0.00000E+00
    0.27423E-02        -0.99768E-02         0.00000E+00
    0.27295E-02        -0.10154E-01         0.00000E+00
    0.27135E-02        -0.10333E-01         0.00000E+00
    0.26941E-02        -0.10513E-01         0.00000E+00
    0.26711E-02        -0.10693E-01         0.00000E+00
    0.26440E-02        -0.10875E-01         0.00000E+00
    0.26126E-02        -0.11058E-01         0.00000E+00
    0.25765E-02        -0.11242E-01         0.00000E+00
    0.25353E-02        -0.11428E-01         0.00000E+00
    0.24887E-02        -0.11614E-01         0.00000E+00
    0.24362E-02        -0.11802E-01         0.00000E+00
    0.23774E-02        -0.11990E-01         0.00000E+00
    0.23119E-02        -0.12180E-01         0.00000E+00
    0.22391E-02        -0.12371E-01         0.00000E+00
    0.21585E-02        -0.12563E-01         0.00000E+00
    0.20696E-02        -0.12755E-01         0.00000E+00
    0.19719E-02        -0.12947E-01         0.00000E+00
    0.18646E-02        -0.13139E-01         0.00000E+00
    0.17471E-02        -0.13328E-01         0.00000E+00
    0.16186E-02        -0.13515E-01         0.00000E+00
    0.14781E-02        -0.13696E-01         0.00000E+00
    0.13244E-02        -0.13869E-01         0.00000E+00
    0.11560E-02        -0.14031E-01         0.00000E+00
    0.97091E-03        -0.14176E-01         0.00000E+00
    0.76667E-03        -0.14299E-01         0.00000E+00
    0.53985E-03        -0.14393E-01         0.00000E+00
    0.28607E-03        -0.14453E-01         0.00000E+00
    0.00000E+00        -0.14474E-01         0.00000E+00
    0.00000E+00        -0.32259E-03         0.00000E+00
    0.18074E-03        -0.33499E-03         0.00000E+00
    0.34292E-03        -0.37114E-03         0.00000E+00
    0.48969E-03        -0.42824E-03         0.00000E+00
    0.62355E-03        -0.50260E-03         0.00000E+00
    0.74644E-03        -0.59043E-03         0.00000E+00
    0.85982E-03        -0.68838E-03         0.00000E+00
    0.96479E-03        -0.79371E-03         0.00000E+00
    0.10622E-02        -0.90429E-03         0.00000E+00
    0.11529E-02        -0.10185E-02         0.00000E+00
    0.12374E-02        -0.11352E-02         0.00000E+00
    0.13162E-02        -0.12536E-02         0.00000E+00
    0.13899E-02        -0.13730E-02         0.00000E+00
    0.14587E-02        -0.14932E-02         0.00000E+00
    0.15231E-02        -0.16139E-02         0.00000E+00
    0.15835E-02        -0.17350E-02         0.00000E+00
    0.16401E-02        -0.18564E-02         0.00000E+00
    0.16933E-02        -0.19781E-02         0.00000E+00
    0.17433E-02        -0.21002E-02         0.00000E+00
    0.17905E-02        -0.22227E-02         0.00000E+00
    0.18350E-02        -0.23456E-02         0.00000E+00
    0.18772E-02        -0.24691E-02         0.00000E+00
    0.19172E-02        -0.25932E-02         0.00000E+00
    0.19552E-02        -0.27179E-02         0.00000E+00
    0.19915E-02        -0.28433E-02         0.00000E+00
    0.20261E-02        -0.29695E-02         0.00000E+00
    0.20594E-02        -0.30965E-02         0.00000E+00
    0.20913E-02        -0.32243E-02         0.00000E+00
    0.21221E-02        -0.33530E-02         0.00000E+00
    0.21518E-02        -0.34827E-02         0.00000E+00
    0.21806E-02        -0.36133E-02         0.00000E+00
    0.22085E-02        -0.37450E-02         0.00000E+00
    0.22357E-02        -0.38776E-02         0.00000E+00
    0.22622E-02        -0.40114E-02         0.00000E+00
    0.22881E-02        -0.41462E-02         0.00000E+00
    0.23134E-02        -0.42821E-02         0.00000E+00
    0.23382E-02        -0.44191E-02         0.00000E+00
    0.23625E-02        -0.45573E-02         0.00000E+00
    0.23864E-02        -0.46966E-02         0.00000E+00
    0.24099E-02        -0.48372E-02         0.00000E+00
    0.24330E-02        -0.49789E-02         0.00000E+00
    0.24557E-02        -0.51219E-02         0.00000E+00
    0.24781E-02        -0.52661E-02         0.00000E+00
    0.25001E-02        -0.54115E-02         0.00000E+00
    0.25218E-02        -0.55583E-02         0.00000E+00
    0.25432E-02        -0.57063E-02         0.00000E+00
    0.25641E-02        -0.58555E-02         0.00000E+00
    0.25847E-02        -0.60061E-02         0.00000E+00
    0.26050E-02        -0.61580E-02         0.00000E+00
    0.26248E-02        -0.63112E-02         0.00000E+00
    0.26441E-02        -0.64656E-02         0.00000E+00
    0.26631E-02        -0.66215E-02         0.00000E+00
    0.26815E-02        -0.67786E-02         0.00000E+00
    0.26994E-02        -0.69371E-02         0.00000E+00
    0.27167E-02        -0.70968E-02         0.00000E+00
    0.27334E-02        -0.72579E-02         0.00000E+00
    0.27495E-02        -0.74204E-02         0.00000E+00
    0.27648E-02        -0.75841E-02         0.00000E+00
    0.27793E-02        -0.77492E-02         0.00000E+00
    0.27929E-02        -0.79155E-02         0.00000E+00
    0.28056E-02        -0.80832E-02         0.00000E+00
    0.28173E-02        -0.82521E-02         0.00000E+00
    0.28279E-02        -0.84223E-02         0.00000E+00
    0.28373E-02        -0.85938E-02         0.00000E+00
    0.28454E-02        -0.87665E-02         0.00000E+00
    0.28520E-02        -0.89405E-02         0.00000E+00
    0.28571E-02        -0.91157E-02         0.00000E+00
    0.28606E-02        -0.92921E-02         0.00000E+00
    0.28622E-02        -0.94697E-02         0.00000E+00
    0.28618E-02        -0.96485E-02         0.00000E+00
    0.28593E-02        -0.98284E-02         0.00000E+00
    0.28545E-02        -0.10009E-01         0.00000E+00
    0.28471E-02        -0.10192E-01         0.00000E+00
    0.28369E-02        -0.10375E-01         0.00000E+00
    0.28238E-02        -0.10559E-01         0.00000E+00
    0.28074E-02        -0.10745E-01         0.00000E+00
    0.27876E-02        -0.10932E-01         0.00000E+00
    0.27638E-02        -0.11119E-01         0.00000E+00
    0.27360E-02        -0.11308E-01         0.00000E+00
    0.27037E-02        -0.11498E-01         0.00000E+00
    0.26665E-02        -0.11689E-01         0.00000E+00
    0.26241E-02        -0.11882E-01         0.00000E+00
    0.25761E-02        -0.12075E-01         0.00000E+00
    0.25219E-02        -0.12270E-01         0.00000E+00
    0.24613E-02        -0.12466E-01         0.00000E+00
    0.23935E-02        -0.12662E-01         0.00000E+00
    0.23183E-02        -0.12860E-01         0.00000E+00
    0.22349E-02        -0.13059E-01         0.00000E+00
    0.21429E-02        -0.13258E-01         0.00000E+00
    0.20415E-02        -0.13458E-01         0.00000E+00
    0.19302E-02        -0.13656E-01         0.00000E+00
    0.18081E-02        -0.13853E-01         0.00000E+00
    0.16745E-02        -0.14046E-01         0.00000E+00
    0.15284E-02        -0.14234E-01         0.00000E+00
    0.13684E-02        -0.14413E-01         0.00000E+00
    0.11933E-02        -0.14581E-01         0.00000E+00
    0.10011E-02        -0.14731E-01         0.00000E+00
    0.78936E-03        -0.14858E-01         0.00000E+00
    0.55496E-03        -0.14956E-01         0.00000E+00
    0.29360E-03        -0.15019E-01         0.00000E+00
    0.00000E+00        -0.15040E-01         0.00000E+00
    0.00000E+00        -0.34317E-03         0.00000E+00
    0.18541E-03        -0.35605E-03         0.00000E+00
    0.35230E-03        -0.39359E-03         0.00000E+00
    0.50379E-03        -0.45283E-03         0.00000E+00
    0.64232E-03        -0.52990E-03         0.00000E+00
    0.76971E-03        -0.62087E-03         0.00000E+00
    0.88734E-03        -0.72227E-03         0.00000E+00
    0.99628E-03        -0.83128E-03         0.00000E+00
    0.10974E-02        -0.94570E-03         0.00000E+00
    0.11914E-02        -0.10639E-02         0.00000E+00
    0.12789E-02        -0.11847E-02         0.00000E+00
    0.13605E-02        -0.13072E-02         0.00000E+00
    0.14367E-02        -0.14309E-02         0.00000E+00
    0.15078E-02        -0.15554E-02         0.00000E+00
    0.15743E-02        -0.16804E-02         0.00000E+00
    0.16366E-02        -0.18058E-02         0.00000E+00
    0.16950E-02        -0.19316E-02         0.00000E+00
    0.17498E-02        -0.20578E-02         0.00000E+00
    0.18014E-02        -0.21843E-02         0.00000E+00
    0.18500E-02        -0.23113E-02         0.00000E+00
    0.18959E-02        -0.24388E-02         0.00000E+00
    0.19393E-02        -0.25668E-02         0.00000E+00
    0.19805E-02        -0.26955E-02         0.00000E+00
    0.20197E-02        -0.28249E-02         0.00000E+00
    0.20570E-02        -0.29550E-02         0.00000E+00
    0.20927E-02        -0.30859E-02         0.00000E+00
    0.21270E-02        -0.32177E-02         0.00000E+00
    0.21599E-02        -0.33504E-02         0.00000E+00
    0.21916E-02        -0.34840E-02         0.00000E+00
    0.22222E-02        -0.36186E-02         0.00000E+00
    0.22519E-02        -0.37542E-02         0.00000E+00
    0.22807E-02        -0.38908E-02         0.00000E+00
    0.23087E-02        -0.40285E-02         0.00000E+00
    0.23360E-02        -0.41673E-02         0.00000E+00
    0.23627E-02        -0.43073E-02         0.00000E+00
    0.23888E-02        -0.44484E-02         0.00000E+00
    0.24144E-02        -0.45907E-02         0.00000E+00
    0.24395E-02        -0.47341E-02         0.00000E+00
    0.24642E-02        -0.48788E-02         0.00000E+00
    0.24884E-02        -0.50247E-02         0.00000E+00
    0.25122E-02        -0.51719E-02         0.00000E+00
    0.25357E-02        -0.53203E-02         0.00000E+00
    0.25588E-02        -0.54701E-02         0.00000E+00
    0.25816E-02        -0.56211E-02         0.00000E+00
    0.26039E-02        -0.57734E-02         0.00000E+00
    0.26260E-02        -0.59271E-02         0.00000E+00
    0.26476E-02        -0.60821E-02         0.00000E+00
    0.26689E-02        -0.62384E-02         0.00000E+00
    0.26898E-02        -0.63961E-02         0.00000E+00
    0.27103E-02        -0.65551E-02         0.00000E+00
    0.27303E-02        -0.67155E-02         0.00000E+00
    0.27498E-02        -0.68773E-02         0.00000E+00
    0.27689E-02        -0.70405E-02         0.00000E+00
    0.27874E-02        -0.72050E-02         0.00000E+00
    0.28053E-02        -0.73709E-02         0.00000E+00
    0.28226E-02        -0.75381E-02         0.00000E+00
    0.28391E-02        -0.77067E-02         0.00000E+00
    0.28550E-02        -0.78767E-02         0.00000E+00
    0.28700E-02        -0.80481E-02         0.00000E+00
    0.28841E-02        -0.82208E-02         0.00000E+00
    0.28972E-02        -0.83948E-02         0.00000E+00
    0.29093E-02        -0.85702E-02         0.00000E+00
    0.29203E-02        -0.87468E-02         0.00000E+00
    0.29301E-02        -0.89248E-02         0.00000E+00
    0.29384E-02        -0.91041E-02         0.00000E+00
    0.29454E-02        -0.92847E-02         0.00000E+00
    0.29507E-02        -0.94665E-02         0.00000E+00
    0.29543E-02        -0.96496E-02         0.00000E+00
    0.29561E-02        -0.98339E-02         0.00000E+00
    0.29558E-02        -0.10019E-01         0.00000E+00
    0.29533E-02        -0.10206E-01         0.00000E+00
    0.29484E-02        -0.10394E-01         0.00000E+00
    0.29409E-02        -0.10583E-01         0.00000E+00
    0.29305E-02        -0.10773E-01         0.00000E+00
    0.29171E-02        -0.10965E-01         0.00000E+00
    0.29003E-02        -0.11157E-01         0.00000E+00
    0.28799E-02        -0.11351E-01         0.00000E+00
    0.28556E-02        -0.11545E-01         0.00000E+00
    0.28270E-02        -0.11741E-01         0.00000E+00
    0.27938E-02        -0.11938E-01         0.00000E+00
    0.27557E-02        -0.12136E-01         0.00000E+00
    0.27121E-02        -0.12335E-01         0.00000E+00
    0.26626E-02        -0.12536E-01         0.00000E+00
    0.26069E-02        -0.12738E-01         0.00000E+00
    0.25444E-02        -0.12940E-01         0.00000E+00
    0.24746E-02        -0.13144E-01         0.00000E+00
    0.23969E-02        -0.13349E-01         0.00000E+00
    0.23108E-02        -0.13555E-01         0.00000E+00
    0.22156E-02        -0.13761E-01         0.00000E+00
    0.21108E-02        -0.13967E-01         0.00000E+00
    0.19954E-02        -0.14173E-01         0.00000E+00
    0.18689E-02        -0.14376E-01         0.00000E+00
    0.17302E-02        -0.14576E-01         0.00000E+00
    0.15784E-02        -0.14771E-01         0.00000E+00
    0.14123E-02        -0.14956E-01         0.00000E+00
    0.12304E-02        -0.15129E-01         0.00000E+00
    0.10311E-02        -0.15285E-01         0.00000E+00
    0.81194E-03        -0.15417E-01         0.00000E+00
    0.56998E-03        -0.15519E-01         0.00000E+00
    0.30108E-03        -0.15583E-01         0.00000E+00
    0.00000E+00        -0.15605E-01         0.00000E+00
    0.00000E+00        -0.36410E-03         0.00000E+00
    0.19006E-03        -0.37749E-03         0.00000E+00
    0.36163E-03        -0.41646E-03         0.00000E+00
    0.51783E-03        -0.47788E-03         0.00000E+00
    0.66101E-03        -0.55770E-03         0.00000E+00
    0.79289E-03        -0.65182E-03         0.00000E+00
    0.91476E-03        -0.75666E-03         0.00000E+00
    0.10276E-02        -0.86932E-03         0.00000E+00
    0.11324E-02        -0.98758E-03         0.00000E+00
    0.12297E-02        -0.11097E-02         0.00000E+00
    0.13202E-02        -0.12346E-02         0.00000E+00
    0.14046E-02        -0.13612E-02         0.00000E+00
    0.14832E-02        -0.14891E-02         0.00000E+00
    0.15566E-02        -0.16178E-02         0.00000E+00
    0.16251E-02        -0.17471E-02         0.00000E+00
    0.16893E-02        -0.18769E-02         0.00000E+00
    0.17494E-02        -0.20071E-02         0.00000E+00
    0.18059E-02        -0.21376E-02         0.00000E+00
    0.18589E-02        -0.22686E-02         0.00000E+00
    0.19089E-02        -0.24001E-02         0.00000E+00
    0.19561E-02        -0.25321E-02         0.00000E+00
    0.20008E-02        -0.26648E-02         0.00000E+00
    0.20431E-02        -0.27980E-02         0.00000E+00
    0.20834E-02        -0.29321E-02         0.00000E+00
    0.21218E-02        -0.30669E-02         0.00000E+00
    0.21585E-02        -0.32025E-02         0.00000E+00
    0.21938E-02        -0.33391E-02         0.00000E+00
    0.22276E-02        -0.34766E-02         0.00000E+00
    0.22602E-02        -0.36151E-02         0.00000E+00
    0.22918E-02        -0.37546E-02         0.00000E+00
    0.23223E-02        -0.38951E-02         0.00000E+00
    0.23519E-02        -0.40368E-02         0.00000E+00
    0.23808E-02        -0.41795E-02         0.00000E+00
    0.24089E-02        -0.43234E-02         0.00000E+00
    0.24364E-02        -0.44685E-02         0.00000E+00
    0.24633E-02        -0.46148E-02         0.00000E+00
    0.24896E-02        -0.47623E-02         0.00000E+00
    0.25155E-02        -0.49111E-02         0.00000E+00
    0.25409E-02        -0.50611E-02         0.00000E+00
    0.25659E-02        -0.52124E-02         0.00000E+00
    0.25905E-02        -0.53650E-02         0.00000E+00
    0.26146E-02        -0.55189E-02         0.00000E+00
    0.26385E-02        -0.56741E-02         0.00000E+00
    0.26619E-02        -0.58307E-02         0.00000E+00
    0.26850E-02        -0.59887E-02         0.00000E+00
    0.27077E-02        -0.61480E-02         0.00000E+00
    0.27300E-02        -0.63087E-02         0.00000E+00
    0.27520E-02        -0.64708E-02         0.00000E+00
    0.27735E-02        -0.66343E-02         0.00000E+00
    0.27946E-02        -0.67992E-02         0.00000E+00
    0.28153E-02        -0.69655E-02         0.00000E+00
    0.28355E-02        -0.71332E-02         0.00000E+00
    0.28551E-02        -0.73024E-02         0.00000E+00
    0.28742E-02        -0.74729E-02         0.00000E+00
    0.28927E-02        -0.76449E-02         0.00000E+00
    0.29105E-02        -0.78183E-02         0.00000E+00
    0.29276E-02        -0.79932E-02         0.00000E+00
    0.29440E-02        -0.81694E-02         0.00000E+00
    0.29595E-02        -0.83470E-02         0.00000E+00
    0.29741E-02        -0.85260E-02         0.00000E+00
    0.29877E-02        -0.87065E-02         0.00000E+00
    0.30002E-02        -0.88882E-02         0.00000E+00
    0.30116E-02        -0.90714E-02         0.00000E+00
    0.30217E-02        -0.92559E-02         0.00000E+00
    0.30304E-02        -0.94417E-02         0.00000E+00
    0.30376E-02        -0.96289E-02         0.00000E+00
    0.30431E-02        -0.98173E-02         0.00000E+00
    0.30470E-02        -0.10007E-01         0.00000E+00
    0.30488E-02        -0.10198E-01         0.00000E+00
    0.30486E-02        -0.10390E-01         0.00000E+00
    0.30461E-02        -0.10584E-01         0.00000E+00
    0.30412E-02        -0.10778E-01         0.00000E+00
    0.30336E-02        -0.10974E-01         0.00000E+00
    0.30230E-02        -0.11171E-01         0.00000E+00
    0.30093E-02        -0.11369E-01         0.00000E+00
    0.29922E-02        -0.11569E-01         0.00000E+00
    0.29713E-02        -0.11769E-01         0.00000E+00
    0.29464E-02        -0.11971E-01         0.00000E+00
    0.29171E-02        -0.12174E-01         0.00000E+00
    0.28831E-02        -0.12378E-01         0.00000E+00
    0.28439E-02        -0.12583E-01         0.00000E+00
    0.27992E-02        -0.12789E-01         0.00000E+00
    0.27484E-02        -0.12996E-01         0.00000E+00
    0.26911E-02        -0.13205E-01         0.00000E+00
    0.26268E-02        -0.13415E-01         0.00000E+00
    0.25550E-02        -0.13626E-01         0.00000E+00
    0.24750E-02        -0.13838E-01         0.00000E+00
    0.23862E-02        -0.14050E-01         0.00000E+00
    0.22880E-02        -0.14264E-01         0.00000E+00
    0.21796E-02        -0.14477E-01         0.00000E+00
    0.20604E-02        -0.14689E-01         0.00000E+00
    0.19294E-02        -0.14899E-01         0.00000E+00
    0.17857E-02        -0.15106E-01         0.00000E+00
    0.16283E-02        -0.15307E-01         0.00000E+00
    0.14561E-02        -0.15498E-01         0.00000E+00
    0.12675E-02        -0.15677E-01         0.00000E+00
    0.10610E-02        -0.15838E-01         0.00000E+00
    0.83445E-03        -0.15975E-01         0.00000E+00
    0.58494E-03        -0.16081E-01         0.00000E+00
    0.30853E-03        -0.16148E-01         0.00000E+00
    0.00000E+00        -0.16171E-01         0.00000E+00
    0.00000E+00        -0.38539E-03         0.00000E+00
    0.19468E-03        -0.39930E-03         0.00000E+00
    0.37094E-03        -0.43974E-03         0.00000E+00
    0.53183E-03        -0.50340E-03         0.00000E+00
    0.67965E-03        -0.58599E-03         0.00000E+00
    0.81601E-03        -0.68327E-03         0.00000E+00
    0.94209E-03        -0.79154E-03         0.00000E+00
    0.10589E-02        -0.90785E-03         0.00000E+00
    0.11672E-02        -0.10299E-02         0.00000E+00
    0.12678E-02        -0.11560E-02         0.00000E+00
    0.13613E-02        -0.12848E-02         0.00000E+00
    0.14483E-02        -0.14156E-02         0.00000E+00
    0.15293E-02        -0.15476E-02         0.00000E+00
    0.16049E-02        -0.16806E-02         0.00000E+00
    0.16755E-02        -0.18141E-02         0.00000E+00
    0.17415E-02        -0.19482E-02         0.00000E+00
    0.18033E-02        -0.20827E-02         0.00000E+00
    0.18613E-02        -0.22177E-02         0.00000E+00
    0.19158E-02        -0.23531E-02         0.00000E+00
    0.19672E-02        -0.24891E-02         0.00000E+00
    0.20156E-02        -0.26256E-02         0.00000E+00
    0.20615E-02        -0.27628E-02         0.00000E+00
    0.21050E-02        -0.29007E-02         0.00000E+00
    0.21464E-02        -0.30394E-02         0.00000E+00
    0.21858E-02        -0.31789E-02         0.00000E+00
    0.22235E-02        -0.33193E-02         0.00000E+00
    0.22597E-02        -0.34606E-02         0.00000E+00
    0.22945E-02        -0.36029E-02         0.00000E+00
    0.23280E-02        -0.37463E-02         0.00000E+00
    0.23604E-02        -0.38907E-02         0.00000E+00
    0.23918E-02        -0.40362E-02         0.00000E+00
    0.24223E-02        -0.41828E-02         0.00000E+00
    0.24519E-02        -0.43306E-02         0.00000E+00
    0.24808E-02        -0.44796E-02         0.00000E+00
    0.25091E-02        -0.46299E-02         0.00000E+00
    0.25368E-02        -0.47813E-02         0.00000E+00
    0.25639E-02        -0.49341E-02         0.00000E+00
    0.25905E-02        -0.50881E-02         0.00000E+00
    0.26166E-02        -0.52434E-02         0.00000E+00
    0.26423E-02        -0.54001E-02         0.00000E+00
    0.26676E-02        -0.55581E-02         0.00000E+00
    0.26925E-02        -0.57175E-02         0.00000E+00
    0.27170E-02        -0.58783E-02         0.00000E+00
    0.27412E-02        -0.60404E-02         0.00000E+00
    0.27649E-02        -0.62040E-02         0.00000E+00
    0.27883E-02        -0.63690E-02         0.00000E+00
    0.28113E-02        -0.65354E-02         0.00000E+00
    0.28339E-02        -0.67032E-02         0.00000E+00
    0.28561E-02        -0.68725E-02         0.00000E+00
    0.28779E-02        -0.70433E-02         0.00000E+00
    0.28991E-02        -0.72155E-02         0.00000E+00
    0.29199E-02        -0.73892E-02         0.00000E+00
    0.29402E-02        -0.75644E-02         0.00000E+00
    0.29599E-02        -0.77410E-02         0.00000E+00
    0.29789E-02        -0.79191E-02         0.00000E+00
    0.29973E-02        -0.80986E-02         0.00000E+00
    0.30150E-02        -0.82797E-02         0.00000E+00
    0.30318E-02        -0.84621E-02         0.00000E+00
    0.30478E-02        -0.86460E-02         0.00000E+00
    0.30629E-02        -0.88314E-02         0.00000E+00
    0.30769E-02        -0.90182E-02         0.00000E+00
    0.30899E-02        -0.92064E-02         0.00000E+00
    0.31016E-02        -0.93960E-02         0.00000E+00
    0.31121E-02        -0.95870E-02         0.00000E+00
    0.31211E-02        -0.97794E-02         0.00000E+00
    0.31286E-02        -0.99731E-02         0.00000E+00
    0.31344E-02        -0.10168E-01         0.00000E+00
    0.31384E-02        -0.10365E-01         0.00000E+00
    0.31404E-02        -0.10562E-01         0.00000E+00
    0.31403E-02        -0.10761E-01         0.00000E+00
    0.31379E-02        -0.10961E-01         0.00000E+00
    0.31329E-02        -0.11163E-01         0.00000E+00
    0.31251E-02        -0.11365E-01         0.00000E+00
    0.31144E-02        -0.11569E-01         0.00000E+00
    0.31005E-02        -0.11774E-01         0.00000E+00
    0.30830E-02        -0.11981E-01         0.00000E+00
    0.30617E-02        -0.12188E-01         0.00000E+00
    0.30362E-02        -0.12397E-01         0.00000E+00
    0.30063E-02        -0.12606E-01         0.00000E+00
    0.29714E-02        -0.12817E-01         0.00000E+00
    0.29313E-02        -0.13029E-01         0.00000E+00
    0.28855E-02        -0.13242E-01         0.00000E+00
    0.28334E-02        -0.13457E-01         0.00000E+00
    0.27746E-02        -0.13672E-01         0.00000E+00
    0.27086E-02        -0.13889E-01         0.00000E+00
    0.26348E-02        -0.14107E-01         0.00000E+00
    0.25525E-02        -0.14326E-01         0.00000E+00
    0.24611E-02        -0.14546E-01         0.00000E+00
    0.23599E-02        -0.14766E-01         0.00000E+00
    0.22482E-02        -0.14986E-01         0.00000E+00
    0.21250E-02        -0.15205E-01         0.00000E+00
    0.19897E-02        -0.15422E-01         0.00000E+00
    0.18411E-02        -0.15635E-01         0.00000E+00
    0.16782E-02        -0.15842E-01         0.00000E+00
    0.14998E-02        -0.16040E-01         0.00000E+00
    0.13046E-02        -0.16225E-01         0.00000E+00
    0.10910E-02        -0.16391E-01         0.00000E+00
    0.85695E-03        -0.16533E-01         0.00000E+00
    0.59988E-03        -0.16642E-01         0.00000E+00
    0.31596E-03        -0.16711E-01         0.00000E+00
    0.00000E+00        -0.16735E-01         0.00000E+00
    0.00000E+00        -0.40701E-03         0.00000E+00
    0.19931E-03        -0.42146E-03         0.00000E+00
    0.38023E-03        -0.46343E-03         0.00000E+00
    0.54584E-03        -0.52938E-03         0.00000E+00
    0.69830E-03        -0.61478E-03         0.00000E+00
    0.83911E-03        -0.71521E-03         0.00000E+00
    0.96938E-03        -0.82691E-03         0.00000E+00
    0.10900E-02        -0.94684E-03         0.00000E+00
    0.12019E-02        -0.10727E-02         0.00000E+00
    0.13057E-02        -0.12026E-02         0.00000E+00
    0.14021E-02        -0.13355E-02         0.00000E+00
    0.14917E-02        -0.14703E-02         0.00000E+00
    0.15752E-02        -0.16065E-02         0.00000E+00
    0.16529E-02        -0.17436E-02         0.00000E+00
    0.17255E-02        -0.18814E-02         0.00000E+00
    0.17933E-02        -0.20198E-02         0.00000E+00
    0.18567E-02        -0.21586E-02         0.00000E+00
    0.19163E-02        -0.22980E-02         0.00000E+00
    0.19722E-02        -0.24379E-02         0.00000E+00
    0.20248E-02        -0.25783E-02         0.00000E+00
    0.20745E-02        -0.27193E-02         0.00000E+00
    0.21216E-02        -0.28611E-02         0.00000E+00
    0.21662E-02        -0.30035E-02         0.00000E+00
    0.22086E-02        -0.31469E-02         0.00000E+00
    0.22490E-02        -0.32910E-02         0.00000E+00
    0.22877E-02        -0.34362E-02         0.00000E+00
    0.23248E-02        -0.35822E-02         0.00000E+00
    0.23605E-02        -0.37294E-02         0.00000E+00
    0.23949E-02        -0.38776E-02         0.00000E+00
    0.24281E-02        -0.40269E-02         0.00000E+00
    0.24604E-02        -0.41773E-02         0.00000E+00
    0.24916E-02        -0.43290E-02         0.00000E+00
    0.25221E-02        -0.44818E-02         0.00000E+00
    0.25518E-02        -0.46359E-02         0.00000E+00
    0.25808E-02        -0.47913E-02         0.00000E+00
    0.26092E-02        -0.49479E-02         0.00000E+00
    0.26371E-02        -0.51059E-02         0.00000E+00
    0.26644E-02        -0.52652E-02         0.00000E+00
    0.26913E-02        -0.54259E-02         0.00000E+00
    0.27177E-02        -0.55879E-02         0.00000E+00
    0.27437E-02        -0.57513E-02         0.00000E+00
    0.27693E-02        -0.59162E-02         0.00000E+00
    0.27945E-02        -0.60825E-02         0.00000E+00
    0.28193E-02        -0.62502E-02         0.00000E+00
    0.28438E-02        -0.64194E-02         0.00000E+00
    0.28678E-02        -0.65900E-02         0.00000E+00
    0.28915E-02        -0.67622E-02         0.00000E+00
    0.29147E-02        -0.69358E-02         0.00000E+00
    0.29376E-02        -0.71109E-02         0.00000E+00
    0.29600E-02        -0.72875E-02         0.00000E+00
    0.29819E-02        -0.74656E-02         0.00000E+00
    0.30033E-02        -0.76453E-02         0.00000E+00
    0.30241E-02        -0.78264E-02         0.00000E+00
    0.30444E-02        -0.80091E-02         0.00000E+00
    0.30640E-02        -0.81933E-02         0.00000E+00
    0.30829E-02        -0.83790E-02         0.00000E+00
    0.31011E-02        -0.85662E-02         0.00000E+00
    0.31185E-02        -0.87549E-02         0.00000E+00
    0.31350E-02        -0.89451E-02         0.00000E+00
    0.31505E-02        -0.91368E-02         0.00000E+00
    0.31650E-02        -0.93299E-02         0.00000E+00
    0.31784E-02        -0.95246E-02         0.00000E+00
    0.31905E-02        -0.97206E-02         0.00000E+00
    0.32013E-02        -0.99181E-02         0.00000E+00
    0.32107E-02        -0.10117E-01         0.00000E+00
    0.32184E-02        -0.10317E-01         0.00000E+00
    0.32245E-02        -0.10519E-01         0.00000E+00
    0.32287E-02        -0.10722E-01         0.00000E+00
    0.32309E-02        -0.10926E-01         0.00000E+00
    0.32309E-02        -0.11132E-01         0.00000E+00
    0.32284E-02        -0.11339E-01         0.00000E+00
    0.32234E-02        -0.11547E-01         0.00000E+00
    0.32156E-02        -0.11757E-01         0.00000E+00
    0.32048E-02        -0.11967E-01         0.00000E+00
    0.31906E-02        -0.12179E-01         0.00000E+00
    0.31728E-02        -0.12392E-01         0.00000E+00
    0.31510E-02        -0.12607E-01         0.00000E+00
    0.31251E-02        -0.12822E-01         0.00000E+00
    0.30945E-02        -0.13039E-01         0.00000E+00
    0.30589E-02        -0.13256E-01         0.00000E+00
    0.30179E-02        -0.13475E-01         0.00000E+00
    0.29710E-02        -0.13696E-01         0.00000E+00
    0.29177E-02        -0.13917E-01         0.00000E+00
    0.28575E-02        -0.14139E-01         0.00000E+00
    0.27898E-02        -0.14363E-01         0.00000E+00
    0.27140E-02        -0.14588E-01         0.00000E+00
    0.26295E-02        -0.14814E-01         0.00000E+00
    0.25356E-02        -0.15040E-01         0.00000E+00
    0.24315E-02        -0.15267E-01         0.00000E+00
    0.23164E-02        -0.15494E-01         0.00000E+00
    0.21895E-02        -0.15720E-01         0.00000E+00
    0.20498E-02        -0.15943E-01         0.00000E+00
    0.18963E-02        -0.16163E-01         0.00000E+00
    0.17279E-02        -0.16376E-01         0.00000E+00
    0.15435E-02        -0.16580E-01         0.00000E+00
    0.13417E-02        -0.16771E-01         0.00000E+00
    0.11209E-02        -0.16943E-01         0.00000E+00
    0.87948E-03        -0.17089E-01         0.00000E+00
    0.61484E-03        -0.17202E-01         0.00000E+00
    0.32340E-03        -0.17274E-01         0.00000E+00
    0.00000E+00        -0.17299E-01         0.00000E+00
    0.00000E+00        -0.42894E-03         0.00000E+00
    0.20393E-03        -0.44396E-03         0.00000E+00
    0.38955E-03        -0.48752E-03         0.00000E+00
    0.55987E-03        -0.55580E-03         0.00000E+00
    0.71697E-03        -0.64404E-03         0.00000E+00
    0.86223E-03        -0.74765E-03         0.00000E+00
    0.99667E-03        -0.86277E-03         0.00000E+00
    0.11212E-02        -0.98629E-03         0.00000E+00
    0.12365E-02        -0.11159E-02         0.00000E+00
    0.13435E-02        -0.12497E-02         0.00000E+00
    0.14428E-02        -0.13865E-02         0.00000E+00
    0.15350E-02        -0.15254E-02         0.00000E+00
    0.16207E-02        -0.16656E-02         0.00000E+00
    0.17006E-02        -0.18069E-02         0.00000E+00
    0.17750E-02        -0.19490E-02         0.00000E+00
    0.18446E-02        -0.20916E-02         0.00000E+00
    0.19096E-02        -0.22348E-02         0.00000E+00
    0.19706E-02        -0.23785E-02         0.00000E+00
    0.20279E-02        -0.25227E-02         0.00000E+00
    0.20819E-02        -0.26676E-02         0.00000E+00
    0.21328E-02        -0.28132E-02         0.00000E+00
    0.21809E-02        -0.29594E-02         0.00000E+00
    0.22266E-02        -0.31065E-02         0.00000E+00
    0.22700E-02        -0.32544E-02         0.00000E+00
    0.23115E-02        -0.34033E-02         0.00000E+00
    0.23511E-02        -0.35531E-02         0.00000E+00
    0.23891E-02        -0.37040E-02         0.00000E+00
    0.24257E-02        -0.38559E-02         0.00000E+00
    0.24609E-02        -0.40090E-02         0.00000E+00
    0.24950E-02        -0.41632E-02         0.00000E+00
    0.25280E-02        -0.43186E-02         0.00000E+00
    0.25601E-02        -0.44753E-02         0.00000E+00
    0.25913E-02        -0.46331E-02         0.00000E+00
    0.26218E-02        -0.47923E-02         0.00000E+00
    0.26516E-02        -0.49528E-02         0.00000E+00
    0.26807E-02        -0.51146E-02         0.00000E+00
    0.27093E-02        -0.52778E-02         0.00000E+00
    0.27374E-02        -0.54424E-02         0.00000E+00
    0.27649E-02        -0.56084E-02         0.00000E+00
    0.27921E-02        -0.57758E-02         0.00000E+00
    0.28188E-02        -0.59447E-02         0.00000E+00
    0.28450E-02        -0.61150E-02         0.00000E+00
    0.28709E-02        -0.62868E-02         0.00000E+00
    0.28964E-02        -0.64601E-02         0.00000E+00
    0.29215E-02        -0.66349E-02         0.00000E+00
    0.29462E-02        -0.68112E-02         0.00000E+00
    0.29706E-02        -0.69890E-02         0.00000E+00
    0.29945E-02        -0.71684E-02         0.00000E+00
    0.30179E-02        -0.73493E-02         0.00000E+00
    0.30409E-02        -0.75318E-02         0.00000E+00
    0.30634E-02        -0.77158E-02         0.00000E+00
    0.30854E-02        -0.79014E-02         0.00000E+00
    0.31069E-02        -0.80886E-02         0.00000E+00
    0.31277E-02        -0.82773E-02         0.00000E+00
    0.31479E-02        -0.84676E-02         0.00000E+00
    0.31674E-02        -0.86594E-02         0.00000E+00
    0.31861E-02        -0.88528E-02         0.00000E+00
    0.32040E-02        -0.90477E-02         0.00000E+00
    0.32210E-02        -0.92442E-02         0.00000E+00
    0.32370E-02        -0.94422E-02         0.00000E+00
    0.32519E-02        -0.96418E-02         0.00000E+00
    0.32657E-02        -0.98428E-02         0.00000E+00
    0.32782E-02        -0.10045E-01         0.00000E+00
    0.32894E-02        -0.10249E-01         0.00000E+00
    0.32991E-02        -0.10455E-01         0.00000E+00
    0.33071E-02        -0.10662E-01         0.00000E+00
    0.33134E-02        -0.10870E-01         0.00000E+00
    0.33178E-02        -0.11080E-01         0.00000E+00
    0.33202E-02        -0.11291E-01         0.00000E+00
    0.33203E-02        -0.11503E-01         0.00000E+00
    0.33179E-02        -0.11717E-01         0.00000E+00
    0.33129E-02        -0.11932E-01         0.00000E+00
    0.33050E-02        -0.12148E-01         0.00000E+00
    0.32940E-02        -0.12365E-01         0.00000E+00
    0.32796E-02        -0.12584E-01         0.00000E+00
    0.32615E-02        -0.12804E-01         0.00000E+00
    0.32394E-02        -0.13025E-01         0.00000E+00
    0.32130E-02        -0.13247E-01         0.00000E+00
    0.31818E-02        -0.13471E-01         0.00000E+00
    0.31455E-02        -0.13696E-01         0.00000E+00
    0.31036E-02        -0.13921E-01         0.00000E+00
    0.30556E-02        -0.14149E-01         0.00000E+00
    0.30012E-02        -0.14377E-01         0.00000E+00
    0.29396E-02        -0.14606E-01         0.00000E+00
    0.28703E-02        -0.14837E-01         0.00000E+00
    0.27927E-02        -0.15069E-01         0.00000E+00
    0.27061E-02        -0.15301E-01         0.00000E+00
    0.26097E-02        -0.15535E-01         0.00000E+00
    0.25027E-02        -0.15768E-01         0.00000E+00
    0.23844E-02        -0.16002E-01         0.00000E+00
    0.22537E-02        -0.16234E-01         0.00000E+00
    0.21098E-02        -0.16464E-01         0.00000E+00
    0.19515E-02        -0.16690E-01         0.00000E+00
    0.17778E-02        -0.16910E-01         0.00000E+00
    0.15873E-02        -0.17120E-01         0.00000E+00
    0.13789E-02        -0.17317E-01         0.00000E+00
    0.11510E-02        -0.17494E-01         0.00000E+00
    0.90210E-03        -0.17645E-01         0.00000E+00
    0.62986E-03        -0.17762E-01         0.00000E+00
    0.33085E-03        -0.17837E-01         0.00000E+00
    0.00000E+00        -0.17863E-01         0.00000E+00
    0.00000E+00        -0.45119E-03         0.00000E+00
    0.20858E-03        -0.46680E-03         0.00000E+00
    0.39890E-03        -0.51200E-03         0.00000E+00
    0.57396E-03        -0.58267E-03         0.00000E+00
    0.73572E-03        -0.67378E-03         0.00000E+00
    0.88541E-03        -0.78058E-03         0.00000E+00
    0.10240E-02        -0.89910E-03         0.00000E+00
    0.11523E-02        -0.10262E-02         0.00000E+00
    0.12711E-02        -0.11595E-02         0.00000E+00
    0.13812E-02        -0.12971E-02         0.00000E+00
    0.14832E-02        -0.14379E-02         0.00000E+00
    0.15780E-02        -0.15807E-02         0.00000E+00
    0.16660E-02        -0.17251E-02         0.00000E+00
    0.17479E-02        -0.18705E-02         0.00000E+00
    0.18242E-02        -0.20167E-02         0.00000E+00
    0.18955E-02        -0.21636E-02         0.00000E+00
    0.19621E-02        -0.23111E-02         0.00000E+00
    0.20245E-02        -0.24592E-02         0.00000E+00
    0.20831E-02        -0.26078E-02         0.00000E+00
    0.21383E-02        -0.27571E-02         0.00000E+00
    0.21903E-02        -0.29072E-02         0.00000E+00
    0.22396E-02        -0.30580E-02         0.00000E+00
    0.22863E-02        -0.32096E-02         0.00000E+00
    0.23308E-02        -0.33622E-02         0.00000E+00
    0.23731E-02        -0.35157E-02         0.00000E+00
    0.24137E-02        -0.36702E-02         0.00000E+00
    0.24526E-02        -0.38259E-02         0.00000E+00
    0.24900E-02        -0.39826E-02         0.00000E+00
    0.25261E-02        -0.41405E-02         0.00000E+00
    0.25610E-02        -0.42996E-02         0.00000E+00
    0.25948E-02        -0.44600E-02         0.00000E+00
    0.26276E-02        -0.46216E-02         0.00000E+00
    0.26596E-02        -0.47845E-02         0.00000E+00
    0.26908E-02        -0.49488E-02         0.00000E+00
    0.27214E-02        -0.51144E-02         0.00000E+00
    0.27512E-02        -0.52814E-02         0.00000E+00
    0.27805E-02        -0.54499E-02         0.00000E+00
    0.28093E-02        -0.56197E-02         0.00000E+00
    0.28376E-02        -0.57910E-02         0.00000E+00
    0.28654E-02        -0.59638E-02         0.00000E+00
    0.28928E-02        -0.61381E-02         0.00000E+00
    0.29197E-02        -0.63138E-02         0.00000E+00
    0.29463E-02        -0.64912E-02         0.00000E+00
    0.29724E-02        -0.66700E-02         0.00000E+00
    0.29982E-02        -0.68504E-02         0.00000E+00
    0.30236E-02        -0.70324E-02         0.00000E+00
    0.30485E-02        -0.72159E-02         0.00000E+00
    0.30730E-02        -0.74011E-02         0.00000E+00
    0.30971E-02        -0.75878E-02         0.00000E+00
    0.31208E-02        -0.77761E-02         0.00000E+00
    0.31439E-02        -0.79661E-02         0.00000E+00
    0.31665E-02        -0.81576E-02         0.00000E+00
    0.31885E-02        -0.83508E-02         0.00000E+00
    0.32099E-02        -0.85455E-02         0.00000E+00
    0.32306E-02        -0.87419E-02         0.00000E+00
    0.32507E-02        -0.89399E-02         0.00000E+00
    0.32699E-02        -0.91395E-02         0.00000E+00
    0.32883E-02        -0.93406E-02         0.00000E+00
    0.33058E-02        -0.95434E-02         0.00000E+00
    0.33223E-02        -0.97477E-02         0.00000E+00
    0.33376E-02        -0.99536E-02         0.00000E+00
    0.33518E-02        -0.10161E-01         0.00000E+00
    0.33648E-02        -0.10370E-01         0.00000E+00
    0.33763E-02        -0.10580E-01         0.00000E+00
    0.33863E-02        -0.10792E-01         0.00000E+00
    0.33947E-02        -0.11006E-01         0.00000E+00
    0.34012E-02        -0.11221E-01         0.00000E+00
    0.34058E-02        -0.11437E-01         0.00000E+00
    0.34084E-02        -0.11655E-01         0.00000E+00
    0.34086E-02        -0.11874E-01         0.00000E+00
    0.34063E-02        -0.12094E-01         0.00000E+00
    0.34013E-02        -0.12316E-01         0.00000E+00
    0.33934E-02        -0.12539E-01         0.00000E+00
    0.33822E-02        -0.12763E-01         0.00000E+00
    0.33676E-02        -0.12989E-01         0.00000E+00
    0.33493E-02        -0.13216E-01         0.00000E+00
    0.33268E-02        -0.13444E-01         0.00000E+00
    0.32999E-02        -0.13673E-01         0.00000E+00
    0.32681E-02        -0.13903E-01         0.00000E+00
    0.32311E-02        -0.14135E-01         0.00000E+00
    0.31884E-02        -0.14367E-01         0.00000E+00
    0.31396E-02        -0.14601E-01         0.00000E+00
    0.30839E-02        -0.14837E-01         0.00000E+00
    0.30210E-02        -0.15073E-01         0.00000E+00
    0.29502E-02        -0.15310E-01         0.00000E+00
    0.28708E-02        -0.15549E-01         0.00000E+00
    0.27821E-02        -0.15788E-01         0.00000E+00
    0.26834E-02        -0.16028E-01         0.00000E+00
    0.25737E-02        -0.16269E-01         0.00000E+00
    0.24522E-02        -0.16509E-01         0.00000E+00
    0.23179E-02        -0.16748E-01         0.00000E+00
    0.21698E-02        -0.16985E-01         0.00000E+00
    0.20068E-02        -0.17217E-01         0.00000E+00
    0.18277E-02        -0.17443E-01         0.00000E+00
    0.16313E-02        -0.17659E-01         0.00000E+00
    0.14162E-02        -0.17862E-01         0.00000E+00
    0.11813E-02        -0.18044E-01         0.00000E+00
    0.92488E-03        -0.18200E-01         0.00000E+00
    0.64497E-03        -0.18322E-01         0.00000E+00
    0.33836E-03        -0.18399E-01         0.00000E+00
    0.00000E+00        -0.18426E-01         0.00000E+00
    0.00000E+00        -0.47373E-03         0.00000E+00
    0.21325E-03        -0.48996E-03         0.00000E+00
    0.40831E-03        -0.53687E-03         0.00000E+00
    0.58815E-03        -0.60999E-03         0.00000E+00
    0.75457E-03        -0.70400E-03         0.00000E+00
    0.90869E-03        -0.81399E-03         0.00000E+00
    0.10514E-02        -0.93589E-03         0.00000E+00
    0.11834E-02        -0.10665E-02         0.00000E+00
    0.13056E-02        -0.12035E-02         0.00000E+00
    0.14188E-02        -0.13450E-02         0.00000E+00
    0.15236E-02        -0.14896E-02         0.00000E+00
    0.16208E-02        -0.16364E-02         0.00000E+00
    0.17110E-02        -0.17848E-02         0.00000E+00
    0.17949E-02        -0.19344E-02         0.00000E+00
    0.18730E-02        -0.20848E-02         0.00000E+00
    0.19459E-02        -0.22359E-02         0.00000E+00
    0.20140E-02        -0.23876E-02         0.00000E+00
    0.20778E-02        -0.25400E-02         0.00000E+00
    0.21377E-02        -0.26931E-02         0.00000E+00
    0.21941E-02        -0.28468E-02         0.00000E+00
    0.22473E-02        -0.30013E-02         0.00000E+00
    0.22976E-02        -0.31566E-02         0.00000E+00
    0.23453E-02        -0.33128E-02         0.00000E+00
    0.23907E-02        -0.34700E-02         0.00000E+00
    0.24340E-02        -0.36282E-02         0.00000E+00
    0.24755E-02        -0.37875E-02         0.00000E+00
    0.25152E-02        -0.39478E-02         0.00000E+00
    0.25535E-02        -0.41094E-02         0.00000E+00
    0.25904E-02        -0.42721E-02         0.00000E+00
    0.26260E-02        -0.44362E-02         0.00000E+00
    0.26606E-02        -0.46014E-02         0.00000E+00
    0.26942E-02        -0.47681E-02         0.00000E+00
    0.27270E-02        -0.49360E-02         0.00000E+00
    0.27589E-02        -0.51054E-02         0.00000E+00
    0.27902E-02        -0.52761E-02         0.00000E+00
    0.28208E-02        -0.54483E-02         0.00000E+00
    0.28507E-02        -0.56220E-02         0.00000E+00
    0.28802E-02        -0.57971E-02         0.00000E+00
    0.29092E-02        -0.59737E-02         0.00000E+00
    0.29377E-02        -0.61519E-02         0.00000E+00
    0.29657E-02        -0.63315E-02         0.00000E+00
    0.29933E-02        -0.65128E-02         0.00000E+00
    0.30205E-02        -0.66956E-02         0.00000E+00
    0.30474E-02        -0.68800E-02         0.00000E+00
    0.30738E-02        -0.70660E-02         0.00000E+00
    0.30998E-02        -0.72537E-02         0.00000E+00
    0.31254E-02        -0.74429E-02         0.00000E+00
    0.31505E-02        -0.76338E-02         0.00000E+00
    0.31752E-02        -0.78264E-02         0.00000E+00
    0.31995E-02        -0.80205E-02         0.00000E+00
    0.32232E-02        -0.82164E-02         0.00000E+00
    0.32464E-02        -0.84139E-02         0.00000E+00
    0.32690E-02        -0.86130E-02         0.00000E+00
    0.32909E-02        -0.88138E-02         0.00000E+00
    0.33122E-02        -0.90163E-02         0.00000E+00
    0.33328E-02        -0.92204E-02         0.00000E+00
    0.33526E-02        -0.94262E-02         0.00000E+00
    0.33715E-02        -0.96336E-02         0.00000E+00
    0.33894E-02        -0.98426E-02         0.00000E+00
    0.34064E-02        -0.10053E-01         0.00000E+00
    0.34222E-02        -0.10266E-01         0.00000E+00
    0.34368E-02        -0.10479E-01         0.00000E+00
    0.34501E-02        -0.10695E-01         0.00000E+00
    0.34620E-02        -0.10912E-01         0.00000E+00
    0.34724E-02        -0.11130E-01         0.00000E+00
    0.34810E-02        -0.11350E-01         0.00000E+00
    0.34878E-02        -0.11572E-01         0.00000E+00
    0.34927E-02        -0.11795E-01         0.00000E+00
    0.34954E-02        -0.12019E-01         0.00000E+00
    0.34957E-02        -0.12245E-01         0.00000E+00
    0.34935E-02        -0.12472E-01         0.00000E+00
    0.34886E-02        -0.12700E-01         0.00000E+00
    0.34806E-02        -0.12930E-01         0.00000E+00
    0.34694E-02        -0.13161E-01         0.00000E+00
    0.34546E-02        -0.13394E-01         0.00000E+00
    0.34360E-02        -0.13627E-01         0.00000E+00
    0.34132E-02        -0.13862E-01         0.00000E+00
    0.33859E-02        -0.14098E-01         0.00000E+00
    0.33536E-02        -0.14335E-01         0.00000E+00
    0.33160E-02        -0.14574E-01         0.00000E+00
    0.32725E-02        -0.14813E-01         0.00000E+00
    0.32227E-02        -0.15054E-01         0.00000E+00
    0.31660E-02        -0.15296E-01         0.00000E+00
    0.31018E-02        -0.15539E-01         0.00000E+00
    0.30296E-02        -0.15784E-01         0.00000E+00
    0.29485E-02        -0.16029E-01         0.00000E+00
    0.28578E-02        -0.16275E-01         0.00000E+00
    0.27567E-02        -0.16522E-01         0.00000E+00
    0.26443E-02        -0.16769E-01         0.00000E+00
    0.25197E-02        -0.17016E-01         0.00000E+00
    0.23819E-02        -0.17262E-01         0.00000E+00
    0.22298E-02        -0.17505E-01         0.00000E+00
    0.20621E-02        -0.17744E-01         0.00000E+00
    0.18777E-02        -0.17976E-01         0.00000E+00
    0.16754E-02        -0.18198E-01         0.00000E+00
    0.14539E-02        -0.18406E-01         0.00000E+00
    0.12118E-02        -0.18594E-01         0.00000E+00
    0.94786E-03        -0.18755E-01         0.00000E+00
    0.66023E-03        -0.18880E-01         0.00000E+00
    0.34592E-03        -0.18961E-01         0.00000E+00
    0.00000E+00        -0.18989E-01         0.00000E+00
    0.00000E+00        -0.49656E-03         0.00000E+00
    0.21796E-03        -0.51344E-03         0.00000E+00
    0.41782E-03        -0.56212E-03         0.00000E+00
    0.60247E-03        -0.63775E-03         0.00000E+00
    0.77358E-03        -0.73470E-03         0.00000E+00
    0.93212E-03        -0.84787E-03         0.00000E+00
    0.10789E-02        -0.97316E-03         0.00000E+00
    0.12146E-02        -0.11073E-02         0.00000E+00
    0.13402E-02        -0.12479E-02         0.00000E+00
    0.14563E-02        -0.13932E-02         0.00000E+00
    0.15638E-02        -0.15416E-02         0.00000E+00
    0.16634E-02        -0.16924E-02         0.00000E+00
    0.17558E-02        -0.18449E-02         0.00000E+00
    0.18416E-02        -0.19985E-02         0.00000E+00
    0.19215E-02        -0.21530E-02         0.00000E+00
    0.19959E-02        -0.23084E-02         0.00000E+00
    0.20655E-02        -0.24644E-02         0.00000E+00
    0.21306E-02        -0.26211E-02         0.00000E+00
    0.21918E-02        -0.27785E-02         0.00000E+00
    0.22493E-02        -0.29366E-02         0.00000E+00
    0.23036E-02        -0.30956E-02         0.00000E+00
    0.23549E-02        -0.32554E-02         0.00000E+00
    0.24036E-02        -0.34162E-02         0.00000E+00
    0.24499E-02        -0.35780E-02         0.00000E+00
    0.24942E-02        -0.37408E-02         0.00000E+00
    0.25365E-02        -0.39048E-02         0.00000E+00
    0.25770E-02        -0.40699E-02         0.00000E+00
    0.26161E-02        -0.42363E-02         0.00000E+00
    0.26538E-02        -0.44039E-02         0.00000E+00
    0.26902E-02        -0.45728E-02         0.00000E+00
    0.27256E-02        -0.47430E-02         0.00000E+00
    0.27599E-02        -0.49146E-02         0.00000E+00
    0.27934E-02        -0.50876E-02         0.00000E+00
    0.28260E-02        -0.52620E-02         0.00000E+00
    0.28580E-02        -0.54379E-02         0.00000E+00
    0.28893E-02        -0.56153E-02         0.00000E+00
    0.29200E-02        -0.57941E-02         0.00000E+00
    0.29501E-02        -0.59745E-02         0.00000E+00
    0.29797E-02        -0.61565E-02         0.00000E+00
    0.30089E-02        -0.63400E-02         0.00000E+00
    0.30376E-02        -0.65251E-02         0.00000E+00
    0.30659E-02        -0.67118E-02         0.00000E+00
    0.30937E-02        -0.69001E-02         0.00000E+00
    0.31212E-02        -0.70901E-02         0.00000E+00
    0.31482E-02        -0.72817E-02         0.00000E+00
    0.31749E-02        -0.74750E-02         0.00000E+00
    0.32011E-02        -0.76700E-02         0.00000E+00
    0.32269E-02        -0.78666E-02         0.00000E+00
    0.32522E-02        -0.80650E-02         0.00000E+00
    0.32770E-02        -0.82650E-02         0.00000E+00
    0.33013E-02        -0.84668E-02         0.00000E+00
    0.33251E-02        -0.86702E-02         0.00000E+00
    0.33483E-02        -0.88753E-02         0.00000E+00
    0.33708E-02        -0.90822E-02         0.00000E+00
    0.33927E-02        -0.92908E-02         0.00000E+00
    0.34138E-02        -0.95010E-02         0.00000E+00
    0.34340E-02        -0.97130E-02         0.00000E+00
    0.34534E-02        -0.99266E-02         0.00000E+00
    0.34719E-02        -0.10142E-01         0.00000E+00
    0.34893E-02        -0.10359E-01         0.00000E+00
    0.35056E-02        -0.10577E-01         0.00000E+00
    0.35206E-02        -0.10798E-01         0.00000E+00
    0.35343E-02        -0.11020E-01         0.00000E+00
    0.35466E-02        -0.11243E-01         0.00000E+00
    0.35573E-02        -0.11468E-01         0.00000E+00
    0.35662E-02        -0.11695E-01         0.00000E+00
    0.35733E-02        -0.11923E-01         0.00000E+00
    0.35784E-02        -0.12152E-01         0.00000E+00
    0.35813E-02        -0.12383E-01         0.00000E+00
    0.35818E-02        -0.12616E-01         0.00000E+00
    0.35797E-02        -0.12849E-01         0.00000E+00
    0.35747E-02        -0.13085E-01         0.00000E+00
    0.35668E-02        -0.13321E-01         0.00000E+00
    0.35555E-02        -0.13559E-01         0.00000E+00
    0.35406E-02        -0.13798E-01         0.00000E+00
    0.35217E-02        -0.14039E-01         0.00000E+00
    0.34986E-02        -0.14280E-01         0.00000E+00
    0.34709E-02        -0.14523E-01         0.00000E+00
    0.34381E-02        -0.14767E-01         0.00000E+00
    0.33999E-02        -0.15012E-01         0.00000E+00
    0.33557E-02        -0.15259E-01         0.00000E+00
    0.33051E-02        -0.15507E-01         0.00000E+00
    0.32474E-02        -0.15755E-01         0.00000E+00
    0.31820E-02        -0.16005E-01         0.00000E+00
    0.31083E-02        -0.16257E-01         0.00000E+00
    0.30256E-02        -0.16509E-01         0.00000E+00
    0.29330E-02        -0.16762E-01         0.00000E+00
    0.28297E-02        -0.17015E-01         0.00000E+00
    0.27148E-02        -0.17269E-01         0.00000E+00
    0.25872E-02        -0.17522E-01         0.00000E+00
    0.24459E-02        -0.17775E-01         0.00000E+00
    0.22898E-02        -0.18024E-01         0.00000E+00
    0.21176E-02        -0.18269E-01         0.00000E+00
    0.19280E-02        -0.18507E-01         0.00000E+00
    0.17199E-02        -0.18736E-01         0.00000E+00
    0.14918E-02        -0.18949E-01         0.00000E+00
    0.12427E-02        -0.19143E-01         0.00000E+00
    0.97113E-03        -0.19309E-01         0.00000E+00
    0.67568E-03        -0.19438E-01         0.00000E+00
    0.35358E-03        -0.19522E-01         0.00000E+00
    0.00000E+00        -0.19551E-01         0.00000E+00
    0.00000E+00        -0.51966E-03         0.00000E+00
    0.22274E-03        -0.53723E-03         0.00000E+00
    0.42745E-03        -0.58776E-03         0.00000E+00
    0.61697E-03        -0.66596E-03         0.00000E+00
    0.79278E-03        -0.76586E-03         0.00000E+00
    0.95573E-03        -0.88223E-03         0.00000E+00
    0.11065E-02        -0.10109E-02         0.00000E+00
    0.12460E-02        -0.11485E-02         0.00000E+00
    0.13748E-02        -0.12928E-02         0.00000E+00
    0.14939E-02        -0.14417E-02         0.00000E+00
    0.16040E-02        -0.15940E-02         0.00000E+00
    0.17059E-02        -0.17487E-02         0.00000E+00
    0.18003E-02        -0.19052E-02         0.00000E+00
    0.18880E-02        -0.20628E-02         0.00000E+00
    0.19696E-02        -0.22215E-02         0.00000E+00
    0.20456E-02        -0.23810E-02         0.00000E+00
    0.21165E-02        -0.25413E-02         0.00000E+00
    0.21830E-02        -0.27023E-02         0.00000E+00
    0.22453E-02        -0.28640E-02         0.00000E+00
    0.23039E-02        -0.30266E-02         0.00000E+00
    0.23592E-02        -0.31900E-02         0.00000E+00
    0.24116E-02        -0.33544E-02         0.00000E+00
    0.24612E-02        -0.35197E-02         0.00000E+00
    0.25084E-02        -0.36861E-02         0.00000E+00
    0.25535E-02        -0.38536E-02         0.00000E+00
    0.25966E-02        -0.40222E-02         0.00000E+00
    0.26380E-02        -0.41921E-02         0.00000E+00
    0.26779E-02        -0.43632E-02         0.00000E+00
    0.27163E-02        -0.45357E-02         0.00000E+00
    0.27535E-02        -0.47095E-02         0.00000E+00
    0.27896E-02        -0.48846E-02         0.00000E+00
    0.28247E-02        -0.50612E-02         0.00000E+00
    0.28588E-02        -0.52393E-02         0.00000E+00
    0.28922E-02        -0.54188E-02         0.00000E+00
    0.29248E-02        -0.55998E-02         0.00000E+00
    0.29568E-02        -0.57823E-02         0.00000E+00
    0.29882E-02        -0.59664E-02         0.00000E+00
    0.30190E-02        -0.61521E-02         0.00000E+00
    0.30493E-02        -0.63393E-02         0.00000E+00
    0.30791E-02        -0.65282E-02         0.00000E+00
    0.31084E-02        -0.67187E-02         0.00000E+00
    0.31374E-02        -0.69109E-02         0.00000E+00
    0.31659E-02        -0.71047E-02         0.00000E+00
    0.31940E-02        -0.73003E-02         0.00000E+00
    0.32216E-02        -0.74975E-02         0.00000E+00
    0.32489E-02        -0.76965E-02         0.00000E+00
    0.32757E-02        -0.78971E-02         0.00000E+00
    0.33021E-02        -0.80995E-02         0.00000E+00
    0.33280E-02        -0.83037E-02         0.00000E+00
    0.33535E-02        -0.85096E-02         0.00000E+00
    0.33784E-02        -0.87172E-02         0.00000E+00
    0.34027E-02        -0.89266E-02         0.00000E+00
    0.34264E-02        -0.91377E-02         0.00000E+00
    0.34495E-02        -0.93506E-02         0.00000E+00
    0.34719E-02        -0.95653E-02         0.00000E+00
    0.34936E-02        -0.97817E-02         0.00000E+00
    0.35144E-02        -0.99998E-02         0.00000E+00
    0.35343E-02        -0.10220E-01         0.00000E+00
    0.35532E-02        -0.10441E-01         0.00000E+00
    0.35711E-02        -0.10664E-01         0.00000E+00
    0.35878E-02        -0.10889E-01         0.00000E+00
    0.36032E-02        -0.11116E-01         0.00000E+00
    0.36174E-02        -0.11344E-01         0.00000E+00
    0.36300E-02        -0.11574E-01         0.00000E+00
    0.36410E-02        -0.11806E-01         0.00000E+00
    0.36503E-02        -0.12039E-01         0.00000E+00
    0.36576E-02        -0.12274E-01         0.00000E+00
    0.36630E-02        -0.12510E-01         0.00000E+00
    0.36660E-02        -0.12747E-01         0.00000E+00
    0.36667E-02        -0.12986E-01         0.00000E+00
    0.36647E-02        -0.13227E-01         0.00000E+00
    0.36598E-02        -0.13469E-01         0.00000E+00
    0.36519E-02        -0.13712E-01         0.00000E+00
    0.36405E-02        -0.13957E-01         0.00000E+00
    0.36255E-02        -0.14203E-01         0.00000E+00
    0.36065E-02        -0.14450E-01         0.00000E+00
    0.35831E-02        -0.14699E-01         0.00000E+00
    0.35550E-02        -0.14948E-01         0.00000E+00
    0.35218E-02        -0.15199E-01         0.00000E+00
    0.34830E-02        -0.15451E-01         0.00000E+00
    0.34382E-02        -0.15705E-01         0.00000E+00
    0.33867E-02        -0.15959E-01         0.00000E+00
    0.33280E-02        -0.16215E-01         0.00000E+00
    0.32616E-02        -0.16471E-01         0.00000E+00
    0.31865E-02        -0.16729E-01         0.00000E+00
    0.31022E-02        -0.16988E-01         0.00000E+00
    0.30078E-02        -0.17248E-01         0.00000E+00
    0.29024E-02        -0.17508E-01         0.00000E+00
    0.27850E-02        -0.17768E-01         0.00000E+00
    0.26545E-02        -0.18028E-01         0.00000E+00
    0.25099E-02        -0.18287E-01         0.00000E+00
    0.23499E-02        -0.18543E-01         0.00000E+00
    0.21732E-02        -0.18794E-01         0.00000E+00
    0.19786E-02        -0.19039E-01         0.00000E+00
    0.17647E-02        -0.19273E-01         0.00000E+00
    0.15302E-02        -0.19492E-01         0.00000E+00
    0.12739E-02        -0.19691E-01         0.00000E+00
    0.99475E-03        -0.19862E-01         0.00000E+00
    0.69137E-03        -0.19996E-01         0.00000E+00
    0.36136E-03        -0.20083E-01         0.00000E+00
    0.00000E+00        -0.20113E-01         0.00000E+00
    0.00000E+00        -0.54303E-03         0.00000E+00
    0.22759E-03        -0.56133E-03         0.00000E+00
    0.43724E-03        -0.61378E-03         0.00000E+00
    0.63168E-03        -0.69461E-03         0.00000E+00
    0.81223E-03        -0.79750E-03         0.00000E+00
    0.97958E-03        -0.91705E-03         0.00000E+00
    0.11344E-02        -0.10490E-02         0.00000E+00
    0.12774E-02        -0.11902E-02         0.00000E+00
    0.14095E-02        -0.13380E-02         0.00000E+00
    0.15314E-02        -0.14907E-02         0.00000E+00
    0.16440E-02        -0.16468E-02         0.00000E+00
    0.17482E-02        -0.18053E-02         0.00000E+00
    0.18447E-02        -0.19657E-02         0.00000E+00
    0.19342E-02        -0.21274E-02         0.00000E+00
    0.20173E-02        -0.22902E-02         0.00000E+00
    0.20948E-02        -0.24539E-02         0.00000E+00
    0.21671E-02        -0.26184E-02         0.00000E+00
    0.22348E-02        -0.27837E-02         0.00000E+00
    0.22982E-02        -0.29498E-02         0.00000E+00
    0.23579E-02        -0.31167E-02         0.00000E+00
    0.24143E-02        -0.32846E-02         0.00000E+00
    0.24675E-02        -0.34534E-02         0.00000E+00
    0.25181E-02        -0.36233E-02         0.00000E+00
    0.25662E-02        -0.37943E-02         0.00000E+00
    0.26121E-02        -0.39664E-02         0.00000E+00
    0.26560E-02        -0.41398E-02         0.00000E+00
    0.26982E-02        -0.43144E-02         0.00000E+00
    0.27388E-02        -0.44903E-02         0.00000E+00
    0.27780E-02        -0.46676E-02         0.00000E+00
    0.28159E-02        -0.48463E-02         0.00000E+00
    0.28527E-02        -0.50264E-02         0.00000E+00
    0.28885E-02        -0.52079E-02         0.00000E+00
    0.29234E-02        -0.53910E-02         0.00000E+00
    0.29574E-02        -0.55756E-02         0.00000E+00
    0.29907E-02        -0.57617E-02         0.00000E+00
    0.30234E-02        -0.59494E-02         0.00000E+00
    0.30554E-02        -0.61387E-02         0.00000E+00
    0.30868E-02        -0.63297E-02         0.00000E+00
    0.31178E-02        -0.65223E-02         0.00000E+00
    0.31482E-02        -0.67165E-02         0.00000E+00
    0.31782E-02        -0.69124E-02         0.00000E+00
    0.32078E-02        -0.71101E-02         0.00000E+00
    0.32369E-02        -0.73094E-02         0.00000E+00
    0.32656E-02        -0.75105E-02         0.00000E+00
    0.32939E-02        -0.77134E-02         0.00000E+00
    0.33218E-02        -0.79180E-02         0.00000E+00
    0.33492E-02        -0.81243E-02         0.00000E+00
    0.33762E-02        -0.83325E-02         0.00000E+00
    0.34027E-02        -0.85424E-02         0.00000E+00
    0.34288E-02        -0.87542E-02         0.00000E+00
    0.34542E-02        -0.89677E-02         0.00000E+00
    0.34792E-02        -0.91830E-02         0.00000E+00
    0.35035E-02        -0.94002E-02         0.00000E+00
    0.35271E-02        -0.96191E-02         0.00000E+00
    0.35500E-02        -0.98398E-02         0.00000E+00
    0.35722E-02        -0.10062E-01         0.00000E+00
    0.35935E-02        -0.10287E-01         0.00000E+00
    0.36139E-02        -0.10513E-01         0.00000E+00
    0.36333E-02        -0.10741E-01         0.00000E+00
    0.36517E-02        -0.10970E-01         0.00000E+00
    0.36688E-02        -0.11201E-01         0.00000E+00
    0.36847E-02        -0.11434E-01         0.00000E+00
    0.36992E-02        -0.11669E-01         0.00000E+00
    0.37122E-02        -0.11906E-01         0.00000E+00
    0.37236E-02        -0.12144E-01         0.00000E+00
    0.37332E-02        -0.12383E-01         0.00000E+00
    0.37408E-02        -0.12624E-01         0.00000E+00
    0.37464E-02        -0.12867E-01         0.00000E+00
    0.37497E-02        -0.13112E-01         0.00000E+00
    0.37505E-02        -0.13357E-01         0.00000E+00
    0.37486E-02        -0.13605E-01         0.00000E+00
    0.37438E-02        -0.13853E-01         0.00000E+00
    0.37359E-02        -0.14103E-01         0.00000E+00
    0.37245E-02        -0.14355E-01         0.00000E+00
    0.37094E-02        -0.14607E-01         0.00000E+00
    0.36902E-02        -0.14861E-01         0.00000E+00
    0.36666E-02        -0.15117E-01         0.00000E+00
    0.36382E-02        -0.15373E-01         0.00000E+00
    0.36046E-02        -0.15631E-01         0.00000E+00
    0.35653E-02        -0.15890E-01         0.00000E+00
    0.35198E-02        -0.16150E-01         0.00000E+00
    0.34676E-02        -0.16411E-01         0.00000E+00
    0.34080E-02        -0.16674E-01         0.00000E+00
    0.33405E-02        -0.16937E-01         0.00000E+00
    0.32642E-02        -0.17202E-01         0.00000E+00
    0.31784E-02        -0.17467E-01         0.00000E+00
    0.30823E-02        -0.17734E-01         0.00000E+00
    0.29748E-02        -0.18001E-01         0.00000E+00
    0.28550E-02        -0.18268E-01         0.00000E+00
    0.27218E-02        -0.18534E-01         0.00000E+00
    0.25739E-02        -0.18799E-01         0.00000E+00
    0.24101E-02        -0.19061E-01         0.00000E+00
    0.22291E-02        -0.19319E-01         0.00000E+00
    0.20295E-02        -0.19569E-01         0.00000E+00
    0.18099E-02        -0.19809E-01         0.00000E+00
    0.15690E-02        -0.20034E-01         0.00000E+00
    0.13057E-02        -0.20238E-01         0.00000E+00
    0.10188E-02        -0.20414E-01         0.00000E+00
    0.70737E-03        -0.20553E-01         0.00000E+00
    0.36928E-03        -0.20643E-01         0.00000E+00
    0.00000E+00        -0.20674E-01         0.00000E+00
    0.00000E+00        -0.56666E-03         0.00000E+00
    0.23253E-03        -0.58574E-03         0.00000E+00
    0.44722E-03        -0.64020E-03         0.00000E+00
    0.64667E-03        -0.72372E-03         0.00000E+00
    0.83198E-03        -0.82960E-03         0.00000E+00
    0.10037E-02        -0.95233E-03         0.00000E+00
    0.11625E-02        -0.10876E-02         0.00000E+00
    0.13090E-02        -0.12322E-02         0.00000E+00
    0.14442E-02        -0.13836E-02         0.00000E+00
    0.15689E-02        -0.15399E-02         0.00000E+00
    0.16840E-02        -0.16998E-02         0.00000E+00
    0.17904E-02        -0.18622E-02         0.00000E+00
    0.18888E-02        -0.20265E-02         0.00000E+00
    0.19800E-02        -0.21923E-02         0.00000E+00
    0.20648E-02        -0.23591E-02         0.00000E+00
    0.21436E-02        -0.25269E-02         0.00000E+00
    0.22172E-02        -0.26956E-02         0.00000E+00
    0.22861E-02        -0.28652E-02         0.00000E+00
    0.23506E-02        -0.30356E-02         0.00000E+00
    0.24114E-02        -0.32070E-02         0.00000E+00
    0.24686E-02        -0.33793E-02         0.00000E+00
    0.25228E-02        -0.35526E-02         0.00000E+00
    0.25743E-02        -0.37270E-02         0.00000E+00
    0.26232E-02        -0.39026E-02         0.00000E+00
    0.26699E-02        -0.40794E-02         0.00000E+00
    0.27146E-02        -0.42574E-02         0.00000E+00
    0.27576E-02        -0.44368E-02         0.00000E+00
    0.27989E-02        -0.46175E-02         0.00000E+00
    0.28388E-02        -0.47996E-02         0.00000E+00
    0.28775E-02        -0.49832E-02         0.00000E+00
    0.29149E-02        -0.51682E-02         0.00000E+00
    0.29514E-02        -0.53547E-02         0.00000E+00
    0.29870E-02        -0.55428E-02         0.00000E+00
    0.30217E-02        -0.57325E-02         0.00000E+00
    0.30556E-02        -0.59237E-02         0.00000E+00
    0.30889E-02        -0.61166E-02         0.00000E+00
    0.31216E-02        -0.63111E-02         0.00000E+00
    0.31537E-02        -0.65074E-02         0.00000E+00
    0.31853E-02        -0.67052E-02         0.00000E+00
    0.32164E-02        -0.69049E-02         0.00000E+00
    0.32470E-02        -0.71062E-02         0.00000E+00
    0.32772E-02        -0.73093E-02         0.00000E+00
    0.33069E-02        -0.75142E-02         0.00000E+00
    0.33362E-02        -0.77208E-02         0.00000E+00
    0.33651E-02        -0.79293E-02         0.00000E+00
    0.33936E-02        -0.81395E-02         0.00000E+00
    0.34217E-02        -0.83516E-02         0.00000E+00
    0.34492E-02        -0.85655E-02         0.00000E+00
    0.34763E-02        -0.87812E-02         0.00000E+00
    0.35029E-02        -0.89988E-02         0.00000E+00
    0.35290E-02        -0.92183E-02         0.00000E+00
    0.35545E-02        -0.94395E-02         0.00000E+00
    0.35793E-02        -0.96627E-02         0.00000E+00
    0.36035E-02        -0.98876E-02         0.00000E+00
    0.36270E-02        -0.10114E-01         0.00000E+00
    0.36497E-02        -0.10343E-01         0.00000E+00
    0.36715E-02        -0.10574E-01         0.00000E+00
    0.36924E-02        -0.10806E-01         0.00000E+00
    0.37123E-02        -0.11040E-01         0.00000E+00
    0.37311E-02        -0.11276E-01         0.00000E+00
    0.37487E-02        -0.11514E-01         0.00000E+00
    0.37650E-02        -0.11753E-01         0.00000E+00
    0.37799E-02        -0.11994E-01         0.00000E+00
    0.37933E-02        -0.12237E-01         0.00000E+00
    0.38050E-02        -0.12481E-01         0.00000E+00
    0.38149E-02        -0.12728E-01         0.00000E+00
    0.38229E-02        -0.12975E-01         0.00000E+00
    0.38287E-02        -0.13225E-01         0.00000E+00
    0.38322E-02        -0.13476E-01         0.00000E+00
    0.38332E-02        -0.13728E-01         0.00000E+00
    0.38315E-02        -0.13982E-01         0.00000E+00
    0.38268E-02        -0.14238E-01         0.00000E+00
    0.38189E-02        -0.14494E-01         0.00000E+00
    0.38075E-02        -0.14753E-01         0.00000E+00
    0.37923E-02        -0.15012E-01         0.00000E+00
    0.37729E-02        -0.15273E-01         0.00000E+00
    0.37491E-02        -0.15535E-01         0.00000E+00
    0.37205E-02        -0.15798E-01         0.00000E+00
    0.36865E-02        -0.16063E-01         0.00000E+00
    0.36467E-02        -0.16328E-01         0.00000E+00
    0.36007E-02        -0.16595E-01         0.00000E+00
    0.35477E-02        -0.16863E-01         0.00000E+00
    0.34874E-02        -0.17133E-01         0.00000E+00
    0.34188E-02        -0.17403E-01         0.00000E+00
    0.33414E-02        -0.17674E-01         0.00000E+00
    0.32542E-02        -0.17946E-01         0.00000E+00
    0.31564E-02        -0.18219E-01         0.00000E+00
    0.30470E-02        -0.18493E-01         0.00000E+00
    0.29249E-02        -0.18766E-01         0.00000E+00
    0.27890E-02        -0.19039E-01         0.00000E+00
    0.26380E-02        -0.19310E-01         0.00000E+00
    0.24706E-02        -0.19579E-01         0.00000E+00
    0.22854E-02        -0.19842E-01         0.00000E+00
    0.20809E-02        -0.20099E-01         0.00000E+00
    0.18557E-02        -0.20344E-01         0.00000E+00
    0.16085E-02        -0.20575E-01         0.00000E+00
    0.13380E-02        -0.20785E-01         0.00000E+00
    0.10434E-02        -0.20966E-01         0.00000E+00
    0.72373E-03        -0.21109E-01         0.00000E+00
    0.37739E-03        -0.21203E-01         0.00000E+00
    0.00000E+00        -0.21235E-01         0.00000E+00
    0.00000E+00        -0.59055E-03         0.00000E+00
    0.23759E-03        -0.61045E-03         0.00000E+00
    0.45743E-03        -0.66702E-03         0.00000E+00
    0.66198E-03        -0.75328E-03         0.00000E+00
    0.85208E-03        -0.86217E-03         0.00000E+00
    0.10282E-02        -0.98806E-03         0.00000E+00
    0.11909E-02        -0.11266E-02         0.00000E+00
    0.13409E-02        -0.12746E-02         0.00000E+00
    0.14792E-02        -0.14296E-02         0.00000E+00
    0.16066E-02        -0.15895E-02         0.00000E+00
    0.17241E-02        -0.17531E-02         0.00000E+00
    0.18325E-02        -0.19194E-02         0.00000E+00
    0.19328E-02        -0.20876E-02         0.00000E+00
    0.20257E-02        -0.22573E-02         0.00000E+00
    0.21119E-02        -0.24282E-02         0.00000E+00
    0.21921E-02        -0.26002E-02         0.00000E+00
    0.22669E-02        -0.27731E-02         0.00000E+00
    0.23369E-02        -0.29469E-02         0.00000E+00
    0.24025E-02        -0.31216E-02         0.00000E+00
    0.24642E-02        -0.32973E-02         0.00000E+00
    0.25224E-02        -0.34741E-02         0.00000E+00
    0.25775E-02        -0.36519E-02         0.00000E+00
    0.26297E-02        -0.38308E-02         0.00000E+00
    0.26795E-02        -0.40110E-02         0.00000E+00
    0.27270E-02        -0.41924E-02         0.00000E+00
    0.27724E-02        -0.43751E-02         0.00000E+00
    0.28161E-02        -0.45592E-02         0.00000E+00
    0.28582E-02        -0.47447E-02         0.00000E+00
    0.28988E-02        -0.49317E-02         0.00000E+00
    0.29381E-02        -0.51201E-02         0.00000E+00
    0.29763E-02        -0.53101E-02         0.00000E+00
    0.30134E-02        -0.55016E-02         0.00000E+00
    0.30496E-02        -0.56947E-02         0.00000E+00
    0.30850E-02        -0.58895E-02         0.00000E+00
    0.31196E-02        -0.60858E-02         0.00000E+00
    0.31535E-02        -0.62839E-02         0.00000E+00
    0.31868E-02        -0.64836E-02         0.00000E+00
    0.32195E-02        -0.66851E-02         0.00000E+00
    0.32517E-02        -0.68883E-02         0.00000E+00
    0.32834E-02        -0.70933E-02         0.00000E+00
    0.33147E-02        -0.73000E-02         0.00000E+00
    0.33455E-02        -0.75086E-02         0.00000E+00
    0.33758E-02        -0.77190E-02         0.00000E+00
    0.34058E-02        -0.79312E-02         0.00000E+00
    0.34353E-02        -0.81452E-02         0.00000E+00
    0.34643E-02        -0.83612E-02         0.00000E+00
    0.34930E-02        -0.85789E-02         0.00000E+00
    0.35211E-02        -0.87986E-02         0.00000E+00
    0.35488E-02        -0.90201E-02         0.00000E+00
    0.35760E-02        -0.92436E-02         0.00000E+00
    0.36026E-02        -0.94689E-02         0.00000E+00
    0.36286E-02        -0.96961E-02         0.00000E+00
    0.36541E-02        -0.99252E-02         0.00000E+00
    0.36788E-02        -0.10156E-01         0.00000E+00
    0.37028E-02        -0.10389E-01         0.00000E+00
    0.37260E-02        -0.10624E-01         0.00000E+00
    0.37483E-02        -0.10861E-01         0.00000E+00
    0.37697E-02        -0.11099E-01         0.00000E+00
    0.37901E-02        -0.11339E-01         0.00000E+00
    0.38093E-02        -0.11582E-01         0.00000E+00
    0.38274E-02        -0.11826E-01         0.00000E+00
    0.38441E-02        -0.12071E-01         0.00000E+00
    0.38594E-02        -0.12319E-01         0.00000E+00
    0.38732E-02        -0.12568E-01         0.00000E+00
    0.38853E-02        -0.12819E-01         0.00000E+00
    0.38955E-02        -0.13072E-01         0.00000E+00
    0.39038E-02        -0.13326E-01         0.00000E+00
    0.39098E-02        -0.13582E-01         0.00000E+00
    0.39136E-02        -0.13840E-01         0.00000E+00
    0.39148E-02        -0.14099E-01         0.00000E+00
    0.39132E-02        -0.14360E-01         0.00000E+00
    0.39086E-02        -0.14622E-01         0.00000E+00
    0.39008E-02        -0.14885E-01         0.00000E+00
    0.38894E-02        -0.15150E-01         0.00000E+00
    0.38741E-02        -0.15417E-01         0.00000E+00
    0.38547E-02        -0.15684E-01         0.00000E+00
    0.38307E-02        -0.15953E-01         0.00000E+00
    0.38018E-02        -0.16223E-01         0.00000E+00
    0.37675E-02        -0.16494E-01         0.00000E+00
    0.37273E-02        -0.16767E-01         0.00000E+00
    0.36807E-02        -0.17041E-01         0.00000E+00
    0.36272E-02        -0.17315E-01         0.00000E+00
    0.35660E-02        -0.17591E-01         0.00000E+00
    0.34966E-02        -0.17868E-01         0.00000E+00
    0.34180E-02        -0.18146E-01         0.00000E+00
    0.33295E-02        -0.18425E-01         0.00000E+00
    0.32302E-02        -0.18705E-01         0.00000E+00
    0.31189E-02        -0.18985E-01         0.00000E+00
    0.29947E-02        -0.19265E-01         0.00000E+00
    0.28562E-02        -0.19544E-01         0.00000E+00
    0.27023E-02        -0.19822E-01         0.00000E+00
    0.25313E-02        -0.20096E-01         0.00000E+00
    0.23420E-02        -0.20366E-01         0.00000E+00
    0.21328E-02        -0.20628E-01         0.00000E+00
    0.19021E-02        -0.20879E-01         0.00000E+00
    0.16486E-02        -0.21115E-01         0.00000E+00
    0.13710E-02        -0.21330E-01         0.00000E+00
    0.10685E-02        -0.21517E-01         0.00000E+00
    0.74054E-03        -0.21665E-01         0.00000E+00
    0.38571E-03        -0.21762E-01         0.00000E+00
    0.00000E+00        -0.21796E-01         0.00000E+00
    0.00000E+00        -0.61469E-03         0.00000E+00
    0.24279E-03        -0.63548E-03         0.00000E+00
    0.46793E-03        -0.69425E-03         0.00000E+00
    0.67767E-03        -0.78330E-03         0.00000E+00
    0.87259E-03        -0.89520E-03         0.00000E+00
    0.10530E-02        -0.10242E-02         0.00000E+00
    0.12196E-02        -0.11661E-02         0.00000E+00
    0.13730E-02        -0.13175E-02         0.00000E+00
    0.15142E-02        -0.14759E-02         0.00000E+00
    0.16443E-02        -0.16394E-02         0.00000E+00
    0.17641E-02        -0.18067E-02         0.00000E+00
    0.18745E-02        -0.19768E-02         0.00000E+00
    0.19766E-02        -0.21489E-02         0.00000E+00
    0.20711E-02        -0.23226E-02         0.00000E+00
    0.21587E-02        -0.24975E-02         0.00000E+00
    0.22402E-02        -0.26736E-02         0.00000E+00
    0.23162E-02        -0.28507E-02         0.00000E+00
    0.23872E-02        -0.30287E-02         0.00000E+00
    0.24538E-02        -0.32078E-02         0.00000E+00
    0.25165E-02        -0.33878E-02         0.00000E+00
    0.25755E-02        -0.35690E-02         0.00000E+00
    0.26315E-02        -0.37513E-02         0.00000E+00
    0.26845E-02        -0.39348E-02         0.00000E+00
    0.27350E-02        -0.41195E-02         0.00000E+00
    0.27833E-02        -0.43055E-02         0.00000E+00
    0.28295E-02        -0.44930E-02         0.00000E+00
    0.28738E-02        -0.46818E-02         0.00000E+00
    0.29166E-02        -0.48721E-02         0.00000E+00
    0.29579E-02        -0.50638E-02         0.00000E+00
    0.29979E-02        -0.52572E-02         0.00000E+00
    0.30367E-02        -0.54521E-02         0.00000E+00
    0.30745E-02        -0.56486E-02         0.00000E+00
    0.31113E-02        -0.58467E-02         0.00000E+00
    0.31473E-02        -0.60465E-02         0.00000E+00
    0.31825E-02        -0.62480E-02         0.00000E+00
    0.32171E-02        -0.64512E-02         0.00000E+00
    0.32510E-02        -0.66562E-02         0.00000E+00
    0.32843E-02        -0.68629E-02         0.00000E+00
    0.33172E-02        -0.70715E-02         0.00000E+00
    0.33495E-02        -0.72818E-02         0.00000E+00
    0.33813E-02        -0.74940E-02         0.00000E+00
    0.34127E-02        -0.77080E-02         0.00000E+00
    0.34437E-02        -0.79239E-02         0.00000E+00
    0.34742E-02        -0.81416E-02         0.00000E+00
    0.35043E-02        -0.83613E-02         0.00000E+00
    0.35340E-02        -0.85828E-02         0.00000E+00
    0.35632E-02        -0.88063E-02         0.00000E+00
    0.35919E-02        -0.90317E-02         0.00000E+00
    0.36202E-02        -0.92591E-02         0.00000E+00
    0.36479E-02        -0.94884E-02         0.00000E+00
    0.36751E-02        -0.97196E-02         0.00000E+00
    0.37017E-02        -0.99527E-02         0.00000E+00
    0.37276E-02        -0.10188E-01         0.00000E+00
    0.37529E-02        -0.10425E-01         0.00000E+00
    0.37774E-02        -0.10664E-01         0.00000E+00
    0.38011E-02        -0.10905E-01         0.00000E+00
    0.38240E-02        -0.11148E-01         0.00000E+00
    0.38459E-02        -0.11392E-01         0.00000E+00
    0.38667E-02        -0.11639E-01         0.00000E+00
    0.38864E-02        -0.11887E-01         0.00000E+00
    0.39049E-02        -0.12138E-01         0.00000E+00
    0.39221E-02        -0.12390E-01         0.00000E+00
    0.39378E-02        -0.12644E-01         0.00000E+00
    0.39520E-02        -0.12900E-01         0.00000E+00
    0.39644E-02        -0.13157E-01         0.00000E+00
    0.39750E-02        -0.13417E-01         0.00000E+00
    0.39835E-02        -0.13677E-01         0.00000E+00
    0.39899E-02        -0.13940E-01         0.00000E+00
    0.39939E-02        -0.14204E-01         0.00000E+00
    0.39952E-02        -0.14470E-01         0.00000E+00
    0.39938E-02        -0.14737E-01         0.00000E+00
    0.39894E-02        -0.15006E-01         0.00000E+00
    0.39816E-02        -0.15276E-01         0.00000E+00
    0.39703E-02        -0.15548E-01         0.00000E+00
    0.39550E-02        -0.15821E-01         0.00000E+00
    0.39355E-02        -0.16095E-01         0.00000E+00
    0.39114E-02        -0.16371E-01         0.00000E+00
    0.38823E-02        -0.16648E-01         0.00000E+00
    0.38477E-02        -0.16926E-01         0.00000E+00
    0.38071E-02        -0.17205E-01         0.00000E+00
    0.37601E-02        -0.17486E-01         0.00000E+00
    0.37059E-02        -0.17767E-01         0.00000E+00
    0.36441E-02        -0.18050E-01         0.00000E+00
    0.35737E-02        -0.18334E-01         0.00000E+00
    0.34942E-02        -0.18618E-01         0.00000E+00
    0.34044E-02        -0.18904E-01         0.00000E+00
    0.33036E-02        -0.19190E-01         0.00000E+00
    0.31907E-02        -0.19476E-01         0.00000E+00
    0.30644E-02        -0.19763E-01         0.00000E+00
    0.29235E-02        -0.20048E-01         0.00000E+00
    0.27667E-02        -0.20332E-01         0.00000E+00
    0.25924E-02        -0.20613E-01         0.00000E+00
    0.23991E-02        -0.20888E-01         0.00000E+00
    0.21852E-02        -0.21157E-01         0.00000E+00
    0.19491E-02        -0.21414E-01         0.00000E+00
    0.16894E-02        -0.21655E-01         0.00000E+00
    0.14048E-02        -0.21876E-01         0.00000E+00
    0.10944E-02        -0.22067E-01         0.00000E+00
    0.75788E-03        -0.22220E-01         0.00000E+00
    0.39430E-03        -0.22321E-01         0.00000E+00
    0.00000E+00        -0.22356E-01         0.00000E+00
    0.00000E+00        -0.63907E-03         0.00000E+00
    0.24817E-03        -0.66083E-03         0.00000E+00
    0.47878E-03        -0.72191E-03         0.00000E+00
    0.69380E-03        -0.81379E-03         0.00000E+00
    0.89357E-03        -0.92870E-03         0.00000E+00
    0.10783E-02        -0.10608E-02         0.00000E+00
    0.12487E-02        -0.12059E-02         0.00000E+00
    0.14054E-02        -0.13606E-02         0.00000E+00
    0.15496E-02        -0.15225E-02         0.00000E+00
    0.16821E-02        -0.16896E-02         0.00000E+00
    0.18041E-02        -0.18606E-02         0.00000E+00
    0.19165E-02        -0.20344E-02         0.00000E+00
    0.20203E-02        -0.22104E-02         0.00000E+00
    0.21162E-02        -0.23880E-02         0.00000E+00
    0.22052E-02        -0.25670E-02         0.00000E+00
    0.22879E-02        -0.27471E-02         0.00000E+00
    0.23650E-02        -0.29284E-02         0.00000E+00
    0.24371E-02        -0.31107E-02         0.00000E+00
    0.25046E-02        -0.32940E-02         0.00000E+00
    0.25681E-02        -0.34784E-02         0.00000E+00
    0.26281E-02        -0.36640E-02         0.00000E+00
    0.26848E-02        -0.38508E-02         0.00000E+00
    0.27386E-02        -0.40388E-02         0.00000E+00
    0.27898E-02        -0.42281E-02         0.00000E+00
    0.28388E-02        -0.44188E-02         0.00000E+00
    0.28857E-02        -0.46109E-02         0.00000E+00
    0.29307E-02        -0.48044E-02         0.00000E+00
    0.29742E-02        -0.49995E-02         0.00000E+00
    0.30161E-02        -0.51961E-02         0.00000E+00
    0.30567E-02        -0.53943E-02         0.00000E+00
    0.30962E-02        -0.55941E-02         0.00000E+00
    0.31346E-02        -0.57956E-02         0.00000E+00
    0.31721E-02        -0.59987E-02         0.00000E+00
    0.32087E-02        -0.62036E-02         0.00000E+00
    0.32445E-02        -0.64102E-02         0.00000E+00
    0.32797E-02        -0.66186E-02         0.00000E+00
    0.33142E-02        -0.68288E-02         0.00000E+00
    0.33482E-02        -0.70408E-02         0.00000E+00
    0.33816E-02        -0.72547E-02         0.00000E+00
    0.34145E-02        -0.74703E-02         0.00000E+00
    0.34469E-02        -0.76879E-02         0.00000E+00
    0.34789E-02        -0.79074E-02         0.00000E+00
    0.35104E-02        -0.81288E-02         0.00000E+00
    0.35416E-02        -0.83521E-02         0.00000E+00
    0.35722E-02        -0.85774E-02         0.00000E+00
    0.36025E-02        -0.88046E-02         0.00000E+00
    0.36323E-02        -0.90338E-02         0.00000E+00
    0.36616E-02        -0.92649E-02         0.00000E+00
    0.36904E-02        -0.94981E-02         0.00000E+00
    0.37187E-02        -0.97332E-02         0.00000E+00
    0.37464E-02        -0.99703E-02         0.00000E+00
    0.37736E-02        -0.10209E-01         0.00000E+00
    0.38001E-02        -0.10451E-01         0.00000E+00
    0.38259E-02        -0.10694E-01         0.00000E+00
    0.38509E-02        -0.10939E-01         0.00000E+00
    0.38751E-02        -0.11186E-01         0.00000E+00
    0.38985E-02        -0.11435E-01         0.00000E+00
    0.39209E-02        -0.11686E-01         0.00000E+00
    0.39422E-02        -0.11938E-01         0.00000E+00
    0.39624E-02        -0.12193E-01         0.00000E+00
    0.39813E-02        -0.12450E-01         0.00000E+00
    0.39989E-02        -0.12709E-01         0.00000E+00
    0.40150E-02        -0.12969E-01         0.00000E+00
    0.40296E-02        -0.13231E-01         0.00000E+00
    0.40423E-02        -0.13495E-01         0.00000E+00
    0.40533E-02        -0.13761E-01         0.00000E+00
    0.40621E-02        -0.14029E-01         0.00000E+00
    0.40688E-02        -0.14298E-01         0.00000E+00
    0.40730E-02        -0.14569E-01         0.00000E+00
    0.40746E-02        -0.14841E-01         0.00000E+00
    0.40734E-02        -0.15115E-01         0.00000E+00
    0.40691E-02        -0.15391E-01         0.00000E+00
    0.40614E-02        -0.15667E-01         0.00000E+00
    0.40501E-02        -0.15946E-01         0.00000E+00
    0.40349E-02        -0.16226E-01         0.00000E+00
    0.40153E-02        -0.16507E-01         0.00000E+00
    0.39911E-02        -0.16789E-01         0.00000E+00
    0.39618E-02        -0.17073E-01         0.00000E+00
    0.39269E-02        -0.17358E-01         0.00000E+00
    0.38861E-02        -0.17644E-01         0.00000E+00
    0.38386E-02        -0.17931E-01         0.00000E+00
    0.37839E-02        -0.18219E-01         0.00000E+00
    0.37214E-02        -0.18508E-01         0.00000E+00
    0.36503E-02        -0.18799E-01         0.00000E+00
    0.35698E-02        -0.19090E-01         0.00000E+00
    0.34790E-02        -0.19382E-01         0.00000E+00
    0.33768E-02        -0.19675E-01         0.00000E+00
    0.32623E-02        -0.19968E-01         0.00000E+00
    0.31341E-02        -0.20261E-01         0.00000E+00
    0.29909E-02        -0.20552E-01         0.00000E+00
    0.28313E-02        -0.20842E-01         0.00000E+00
    0.26538E-02        -0.21129E-01         0.00000E+00
    0.24566E-02        -0.21411E-01         0.00000E+00
    0.22382E-02        -0.21684E-01         0.00000E+00
    0.19969E-02        -0.21947E-01         0.00000E+00
    0.17311E-02        -0.22194E-01         0.00000E+00
    0.14395E-02        -0.22420E-01         0.00000E+00
    0.11211E-02        -0.22617E-01         0.00000E+00
    0.77585E-03        -0.22774E-01         0.00000E+00
    0.40321E-03        -0.22879E-01         0.00000E+00
    0.00000E+00        -0.22916E-01         0.00000E+00
    0.00000E+00        -0.66371E-03         0.00000E+00
    0.25375E-03        -0.68651E-03         0.00000E+00
    0.49002E-03        -0.75002E-03         0.00000E+00
    0.71046E-03        -0.84476E-03         0.00000E+00
    0.91509E-03        -0.96265E-03         0.00000E+00
    0.11041E-02        -0.10979E-02         0.00000E+00
    0.12782E-02        -0.12462E-02         0.00000E+00
    0.14382E-02        -0.14042E-02         0.00000E+00
    0.15851E-02        -0.15695E-02         0.00000E+00
    0.17201E-02        -0.17401E-02         0.00000E+00
    0.18442E-02        -0.19147E-02         0.00000E+00
    0.19584E-02        -0.20923E-02         0.00000E+00
    0.20638E-02        -0.22721E-02         0.00000E+00
    0.21612E-02        -0.24536E-02         0.00000E+00
    0.22514E-02        -0.26366E-02         0.00000E+00
    0.23353E-02        -0.28208E-02         0.00000E+00
    0.24134E-02        -0.30062E-02         0.00000E+00
    0.24864E-02        -0.31928E-02         0.00000E+00
    0.25549E-02        -0.33804E-02         0.00000E+00
    0.26192E-02        -0.35692E-02         0.00000E+00
    0.26800E-02        -0.37591E-02         0.00000E+00
    0.27374E-02        -0.39503E-02         0.00000E+00
    0.27920E-02        -0.41429E-02         0.00000E+00
    0.28439E-02        -0.43368E-02         0.00000E+00
    0.28936E-02        -0.45321E-02         0.00000E+00
    0.29411E-02        -0.47288E-02         0.00000E+00
    0.29868E-02        -0.49271E-02         0.00000E+00
    0.30309E-02        -0.51270E-02         0.00000E+00
    0.30735E-02        -0.53284E-02         0.00000E+00
    0.31147E-02        -0.55315E-02         0.00000E+00
    0.31548E-02        -0.57362E-02         0.00000E+00
    0.31938E-02        -0.59427E-02         0.00000E+00
    0.32319E-02        -0.61508E-02         0.00000E+00
    0.32691E-02        -0.63608E-02         0.00000E+00
    0.33055E-02        -0.65725E-02         0.00000E+00
    0.33413E-02        -0.67861E-02         0.00000E+00
    0.33764E-02        -0.70015E-02         0.00000E+00
    0.34110E-02        -0.72188E-02         0.00000E+00
    0.34449E-02        -0.74379E-02         0.00000E+00
    0.34784E-02        -0.76590E-02         0.00000E+00
    0.35115E-02        -0.78820E-02         0.00000E+00
    0.35440E-02        -0.81069E-02         0.00000E+00
    0.35761E-02        -0.83338E-02         0.00000E+00
    0.36078E-02        -0.85627E-02         0.00000E+00
    0.36391E-02        -0.87935E-02         0.00000E+00
    0.36699E-02        -0.90264E-02         0.00000E+00
    0.37002E-02        -0.92613E-02         0.00000E+00
    0.37301E-02        -0.94982E-02         0.00000E+00
    0.37595E-02        -0.97371E-02         0.00000E+00
    0.37883E-02        -0.99781E-02         0.00000E+00
    0.38166E-02        -0.10221E-01         0.00000E+00
    0.38443E-02        -0.10466E-01         0.00000E+00
    0.38713E-02        -0.10713E-01         0.00000E+00
    0.38977E-02        -0.10962E-01         0.00000E+00
    0.39232E-02        -0.11213E-01         0.00000E+00
    0.39480E-02        -0.11467E-01         0.00000E+00
    0.39718E-02        -0.11722E-01         0.00000E+00
    0.39947E-02        -0.11979E-01         0.00000E+00
    0.40165E-02        -0.12238E-01         0.00000E+00
    0.40371E-02        -0.12499E-01         0.00000E+00
    0.40565E-02        -0.12762E-01         0.00000E+00
    0.40745E-02        -0.13027E-01         0.00000E+00
    0.40911E-02        -0.13294E-01         0.00000E+00
    0.41060E-02        -0.13563E-01         0.00000E+00
    0.41192E-02        -0.13833E-01         0.00000E+00
    0.41304E-02        -0.14106E-01         0.00000E+00
    0.41396E-02        -0.14380E-01         0.00000E+00
    0.41466E-02        -0.14655E-01         0.00000E+00
    0.41511E-02        -0.14933E-01         0.00000E+00
    0.41529E-02        -0.15212E-01         0.00000E+00
    0.41519E-02        -0.15493E-01         0.00000E+00
    0.41477E-02        -0.15775E-01         0.00000E+00
    0.41402E-02        -0.16058E-01         0.00000E+00
    0.41290E-02        -0.16344E-01         0.00000E+00
    0.41137E-02        -0.16630E-01         0.00000E+00
    0.40942E-02        -0.16918E-01         0.00000E+00
    0.40699E-02        -0.17207E-01         0.00000E+00
    0.40404E-02        -0.17498E-01         0.00000E+00
    0.40054E-02        -0.17789E-01         0.00000E+00
    0.39642E-02        -0.18082E-01         0.00000E+00
    0.39164E-02        -0.18376E-01         0.00000E+00
    0.38613E-02        -0.18671E-01         0.00000E+00
    0.37982E-02        -0.18967E-01         0.00000E+00
    0.37264E-02        -0.19264E-01         0.00000E+00
    0.36450E-02        -0.19562E-01         0.00000E+00
    0.35532E-02        -0.19860E-01         0.00000E+00
    0.34498E-02        -0.20160E-01         0.00000E+00
    0.33337E-02        -0.20459E-01         0.00000E+00
    0.32037E-02        -0.20758E-01         0.00000E+00
    0.30583E-02        -0.21056E-01         0.00000E+00
    0.28962E-02        -0.21352E-01         0.00000E+00
    0.27156E-02        -0.21645E-01         0.00000E+00
    0.25148E-02        -0.21932E-01         0.00000E+00
    0.22920E-02        -0.22212E-01         0.00000E+00
    0.20456E-02        -0.22480E-01         0.00000E+00
    0.17738E-02        -0.22733E-01         0.00000E+00
    0.14752E-02        -0.22964E-01         0.00000E+00
    0.11488E-02        -0.23165E-01         0.00000E+00
    0.79456E-03        -0.23328E-01         0.00000E+00
    0.41250E-03        -0.23437E-01         0.00000E+00
    0.00000E+00        -0.23476E-01         0.00000E+00
    0.00000E+00        -0.68859E-03         0.00000E+00
    0.25959E-03        -0.71255E-03         0.00000E+00
    0.50175E-03        -0.77859E-03         0.00000E+00
    0.72771E-03        -0.87621E-03         0.00000E+00
    0.93721E-03        -0.99706E-03         0.00000E+00
    0.11305E-02        -0.11354E-02         0.00000E+00
    0.13082E-02        -0.12868E-02         0.00000E+00
    0.14713E-02        -0.14481E-02         0.00000E+00
    0.16209E-02        -0.16167E-02         0.00000E+00
    0.17582E-02        -0.17909E-02         0.00000E+00
    0.18843E-02        -0.19691E-02         0.00000E+00
    0.20003E-02        -0.21503E-02         0.00000E+00
    0.21072E-02        -0.23340E-02         0.00000E+00
    0.22059E-02        -0.25194E-02         0.00000E+00
    0.22974E-02        -0.27064E-02         0.00000E+00
    0.23823E-02        -0.28947E-02         0.00000E+00
    0.24614E-02        -0.30842E-02         0.00000E+00
    0.25353E-02        -0.32749E-02         0.00000E+00
    0.26046E-02        -0.34669E-02         0.00000E+00
    0.26698E-02        -0.36600E-02         0.00000E+00
    0.27312E-02        -0.38543E-02         0.00000E+00
    0.27894E-02        -0.40500E-02         0.00000E+00
    0.28447E-02        -0.42471E-02         0.00000E+00
    0.28973E-02        -0.44455E-02         0.00000E+00
    0.29476E-02        -0.46454E-02         0.00000E+00
    0.29958E-02        -0.48469E-02         0.00000E+00
    0.30421E-02        -0.50499E-02         0.00000E+00
    0.30868E-02        -0.52545E-02         0.00000E+00
    0.31300E-02        -0.54608E-02         0.00000E+00
    0.31718E-02        -0.56687E-02         0.00000E+00
    0.32125E-02        -0.58784E-02         0.00000E+00
    0.32521E-02        -0.60898E-02         0.00000E+00
    0.32908E-02        -0.63030E-02         0.00000E+00
    0.33286E-02        -0.65180E-02         0.00000E+00
    0.33656E-02        -0.67349E-02         0.00000E+00
    0.34019E-02        -0.69536E-02         0.00000E+00
    0.34376E-02        -0.71742E-02         0.00000E+00
    0.34727E-02        -0.73968E-02         0.00000E+00
    0.35073E-02        -0.76212E-02         0.00000E+00
    0.35414E-02        -0.78477E-02         0.00000E+00
    0.35750E-02        -0.80761E-02         0.00000E+00
    0.36081E-02        -0.83065E-02         0.00000E+00
    0.36408E-02        -0.85389E-02         0.00000E+00
    0.36730E-02        -0.87733E-02         0.00000E+00
    0.37048E-02        -0.90098E-02         0.00000E+00
    0.37362E-02        -0.92483E-02         0.00000E+00
    0.37671E-02        -0.94889E-02         0.00000E+00
    0.37975E-02        -0.97315E-02         0.00000E+00
    0.38275E-02        -0.99762E-02         0.00000E+00
    0.38569E-02        -0.10223E-01         0.00000E+00
    0.38857E-02        -0.10472E-01         0.00000E+00
    0.39139E-02        -0.10723E-01         0.00000E+00
    0.39415E-02        -0.10976E-01         0.00000E+00
    0.39683E-02        -0.11231E-01         0.00000E+00
    0.39944E-02        -0.11488E-01         0.00000E+00
    0.40197E-02        -0.11748E-01         0.00000E+00
    0.40440E-02        -0.12009E-01         0.00000E+00
    0.40674E-02        -0.12272E-01         0.00000E+00
    0.40896E-02        -0.12538E-01         0.00000E+00
    0.41107E-02        -0.12805E-01         0.00000E+00
    0.41306E-02        -0.13074E-01         0.00000E+00
    0.41490E-02        -0.13346E-01         0.00000E+00
    0.41660E-02        -0.13619E-01         0.00000E+00
    0.41813E-02        -0.13894E-01         0.00000E+00
    0.41948E-02        -0.14171E-01         0.00000E+00
    0.42064E-02        -0.14450E-01         0.00000E+00
    0.42160E-02        -0.14731E-01         0.00000E+00
    0.42232E-02        -0.15013E-01         0.00000E+00
    0.42280E-02        -0.15297E-01         0.00000E+00
    0.42301E-02        -0.15583E-01         0.00000E+00
    0.42293E-02        -0.15870E-01         0.00000E+00
    0.42253E-02        -0.16159E-01         0.00000E+00
    0.42179E-02        -0.16449E-01         0.00000E+00
    0.42068E-02        -0.16741E-01         0.00000E+00
    0.41916E-02        -0.17035E-01         0.00000E+00
    0.41721E-02        -0.17329E-01         0.00000E+00
    0.41477E-02        -0.17625E-01         0.00000E+00
    0.41182E-02        -0.17922E-01         0.00000E+00
    0.40830E-02        -0.18221E-01         0.00000E+00
    0.40416E-02        -0.18520E-01         0.00000E+00
    0.39934E-02        -0.18821E-01         0.00000E+00
    0.39379E-02        -0.19122E-01         0.00000E+00
    0.38744E-02        -0.19425E-01         0.00000E+00
    0.38019E-02        -0.19729E-01         0.00000E+00
    0.37198E-02        -0.20033E-01         0.00000E+00
    0.36270E-02        -0.20339E-01         0.00000E+00
    0.35225E-02        -0.20644E-01         0.00000E+00
    0.34050E-02        -0.20950E-01         0.00000E+00
    0.32733E-02        -0.21255E-01         0.00000E+00
    0.31260E-02        -0.21560E-01         0.00000E+00
    0.29614E-02        -0.21862E-01         0.00000E+00
    0.27778E-02        -0.22160E-01         0.00000E+00
    0.25735E-02        -0.22454E-01         0.00000E+00
    0.23466E-02        -0.22739E-01         0.00000E+00
    0.20952E-02        -0.23013E-01         0.00000E+00
    0.18175E-02        -0.23270E-01         0.00000E+00
    0.15120E-02        -0.23506E-01         0.00000E+00
    0.11776E-02        -0.23713E-01         0.00000E+00
    0.81413E-03        -0.23880E-01         0.00000E+00
    0.42225E-03        -0.23994E-01         0.00000E+00
    0.00000E+00        -0.24035E-01         0.00000E+00
    0.00000E+00        -0.71373E-03         0.00000E+00
    0.26573E-03        -0.73896E-03         0.00000E+00
    0.51405E-03        -0.80766E-03         0.00000E+00
    0.74564E-03        -0.90815E-03         0.00000E+00
    0.96001E-03        -0.10319E-02         0.00000E+00
    0.11574E-02        -0.11732E-02         0.00000E+00
    0.13387E-02        -0.13278E-02         0.00000E+00
    0.15048E-02        -0.14923E-02         0.00000E+00
    0.16571E-02        -0.16643E-02         0.00000E+00
    0.17966E-02        -0.18419E-02         0.00000E+00
    0.19246E-02        -0.20237E-02         0.00000E+00
    0.20422E-02        -0.22086E-02         0.00000E+00
    0.21505E-02        -0.23960E-02         0.00000E+00
    0.22505E-02        -0.25854E-02         0.00000E+00
    0.23431E-02        -0.27763E-02         0.00000E+00
    0.24290E-02        -0.29687E-02         0.00000E+00
    0.25090E-02        -0.31623E-02         0.00000E+00
    0.25838E-02        -0.33573E-02         0.00000E+00
    0.26538E-02        -0.35534E-02         0.00000E+00
    0.27197E-02        -0.37509E-02         0.00000E+00
    0.27819E-02        -0.39496E-02         0.00000E+00
    0.28407E-02        -0.41498E-02         0.00000E+00
    0.28966E-02        -0.43513E-02         0.00000E+00
    0.29499E-02        -0.45544E-02         0.00000E+00
    0.30008E-02        -0.47589E-02         0.00000E+00
    0.30496E-02        -0.49650E-02         0.00000E+00
    0.30966E-02        -0.51727E-02         0.00000E+00
    0.31418E-02        -0.53821E-02         0.00000E+00
    0.31856E-02        -0.55932E-02         0.00000E+00
    0.32281E-02        -0.58060E-02         0.00000E+00
    0.32693E-02        -0.60206E-02         0.00000E+00
    0.33095E-02        -0.62370E-02         0.00000E+00
    0.33487E-02        -0.64553E-02         0.00000E+00
    0.33871E-02        -0.66754E-02         0.00000E+00
    0.34247E-02        -0.68973E-02         0.00000E+00
    0.34616E-02        -0.71212E-02         0.00000E+00
    0.34978E-02        -0.73471E-02         0.00000E+00
    0.35335E-02        -0.75748E-02         0.00000E+00
    0.35686E-02        -0.78046E-02         0.00000E+00
    0.36033E-02        -0.80364E-02         0.00000E+00
    0.36374E-02        -0.82702E-02         0.00000E+00
    0.36711E-02        -0.85061E-02         0.00000E+00
    0.37043E-02        -0.87440E-02         0.00000E+00
    0.37371E-02        -0.89840E-02         0.00000E+00
    0.37695E-02        -0.92260E-02         0.00000E+00
    0.38014E-02        -0.94702E-02         0.00000E+00
    0.38329E-02        -0.97165E-02         0.00000E+00
    0.38639E-02        -0.99649E-02         0.00000E+00
    0.38943E-02        -0.10215E-01         0.00000E+00
    0.39243E-02        -0.10468E-01         0.00000E+00
    0.39536E-02        -0.10723E-01         0.00000E+00
    0.39824E-02        -0.10980E-01         0.00000E+00
    0.40105E-02        -0.11239E-01         0.00000E+00
    0.40379E-02        -0.11500E-01         0.00000E+00
    0.40645E-02        -0.11763E-01         0.00000E+00
    0.40902E-02        -0.12029E-01         0.00000E+00
    0.41150E-02        -0.12296E-01         0.00000E+00
    0.41389E-02        -0.12566E-01         0.00000E+00
    0.41616E-02        -0.12837E-01         0.00000E+00
    0.41832E-02        -0.13111E-01         0.00000E+00
    0.42035E-02        -0.13387E-01         0.00000E+00
    0.42224E-02        -0.13665E-01         0.00000E+00
    0.42397E-02        -0.13944E-01         0.00000E+00
    0.42554E-02        -0.14226E-01         0.00000E+00
    0.42694E-02        -0.14509E-01         0.00000E+00
    0.42813E-02        -0.14795E-01         0.00000E+00
    0.42912E-02        -0.15082E-01         0.00000E+00
    0.42987E-02        -0.15371E-01         0.00000E+00
    0.43038E-02        -0.15661E-01         0.00000E+00
    0.43062E-02        -0.15954E-01         0.00000E+00
    0.43056E-02        -0.16248E-01         0.00000E+00
    0.43018E-02        -0.16543E-01         0.00000E+00
    0.42946E-02        -0.16841E-01         0.00000E+00
    0.42836E-02        -0.17139E-01         0.00000E+00
    0.42685E-02        -0.17439E-01         0.00000E+00
    0.42490E-02        -0.17740E-01         0.00000E+00
    0.42246E-02        -0.18043E-01         0.00000E+00
    0.41950E-02        -0.18347E-01         0.00000E+00
    0.41597E-02        -0.18652E-01         0.00000E+00
    0.41181E-02        -0.18958E-01         0.00000E+00
    0.40698E-02        -0.19266E-01         0.00000E+00
    0.40139E-02        -0.19574E-01         0.00000E+00
    0.39499E-02        -0.19883E-01         0.00000E+00
    0.38769E-02        -0.20194E-01         0.00000E+00
    0.37941E-02        -0.20505E-01         0.00000E+00
    0.37005E-02        -0.20816E-01         0.00000E+00
    0.35949E-02        -0.21129E-01         0.00000E+00
    0.34762E-02        -0.21441E-01         0.00000E+00
    0.33430E-02        -0.21752E-01         0.00000E+00
    0.31938E-02        -0.22063E-01         0.00000E+00
    0.30269E-02        -0.22371E-01         0.00000E+00
    0.28406E-02        -0.22676E-01         0.00000E+00
    0.26330E-02        -0.22974E-01         0.00000E+00
    0.24020E-02        -0.23265E-01         0.00000E+00
    0.21458E-02        -0.23544E-01         0.00000E+00
    0.18624E-02        -0.23807E-01         0.00000E+00
    0.15500E-02        -0.24049E-01         0.00000E+00
    0.12076E-02        -0.24260E-01         0.00000E+00
    0.83474E-03        -0.24432E-01         0.00000E+00
    0.43254E-03        -0.24550E-01         0.00000E+00
    0.00000E+00        -0.24594E-01         0.00000E+00
    0.00000E+00        -0.73912E-03         0.00000E+00
    0.27225E-03        -0.76579E-03         0.00000E+00
    0.52702E-03        -0.83724E-03         0.00000E+00
    0.76434E-03        -0.94058E-03         0.00000E+00
    0.98356E-03        -0.10672E-02         0.00000E+00
    0.11851E-02        -0.12115E-02         0.00000E+00
    0.13698E-02        -0.13691E-02         0.00000E+00
    0.15389E-02        -0.15368E-02         0.00000E+00
    0.16936E-02        -0.17121E-02         0.00000E+00
    0.18352E-02        -0.18931E-02         0.00000E+00
    0.19650E-02        -0.20785E-02         0.00000E+00
    0.20841E-02        -0.22671E-02         0.00000E+00
    0.21937E-02        -0.24582E-02         0.00000E+00
    0.22949E-02        -0.26514E-02         0.00000E+00
    0.23885E-02        -0.28464E-02         0.00000E+00
    0.24753E-02        -0.30428E-02         0.00000E+00
    0.25562E-02        -0.32405E-02         0.00000E+00
    0.26317E-02        -0.34397E-02         0.00000E+00
    0.27025E-02        -0.36401E-02         0.00000E+00
    0.27691E-02        -0.38419E-02         0.00000E+00
    0.28319E-02        -0.40450E-02         0.00000E+00
    0.28914E-02        -0.42496E-02         0.00000E+00
    0.29479E-02        -0.44557E-02         0.00000E+00
    0.30018E-02        -0.46633E-02         0.00000E+00
    0.30533E-02        -0.48724E-02         0.00000E+00
    0.31027E-02        -0.50832E-02         0.00000E+00
    0.31502E-02        -0.52957E-02         0.00000E+00
    0.31961E-02        -0.55098E-02         0.00000E+00
    0.32404E-02        -0.57257E-02         0.00000E+00
    0.32834E-02        -0.59434E-02         0.00000E+00
    0.33252E-02        -0.61629E-02         0.00000E+00
    0.33659E-02        -0.63843E-02         0.00000E+00
    0.34057E-02        -0.66076E-02         0.00000E+00
    0.34446E-02        -0.68327E-02         0.00000E+00
    0.34828E-02        -0.70598E-02         0.00000E+00
    0.35202E-02        -0.72889E-02         0.00000E+00
    0.35570E-02        -0.75199E-02         0.00000E+00
    0.35932E-02        -0.77530E-02         0.00000E+00
    0.36289E-02        -0.79881E-02         0.00000E+00
    0.36641E-02        -0.82252E-02         0.00000E+00
    0.36988E-02        -0.84644E-02         0.00000E+00
    0.37330E-02        -0.87057E-02         0.00000E+00
    0.37668E-02        -0.89491E-02         0.00000E+00
    0.38002E-02        -0.91947E-02         0.00000E+00
    0.38331E-02        -0.94424E-02         0.00000E+00
    0.38656E-02        -0.96922E-02         0.00000E+00
    0.38976E-02        -0.99442E-02         0.00000E+00
    0.39291E-02        -0.10198E-01         0.00000E+00
    0.39601E-02        -0.10455E-01         0.00000E+00
    0.39906E-02        -0.10713E-01         0.00000E+00
    0.40205E-02        -0.10974E-01         0.00000E+00
    0.40497E-02        -0.11237E-01         0.00000E+00
    0.40783E-02        -0.11502E-01         0.00000E+00
    0.41062E-02        -0.11769E-01         0.00000E+00
    0.41333E-02        -0.12038E-01         0.00000E+00
    0.41596E-02        -0.12310E-01         0.00000E+00
    0.41849E-02        -0.12583E-01         0.00000E+00
    0.42092E-02        -0.12859E-01         0.00000E+00
    0.42324E-02        -0.13137E-01         0.00000E+00
    0.42545E-02        -0.13417E-01         0.00000E+00
    0.42752E-02        -0.13699E-01         0.00000E+00
    0.42945E-02        -0.13983E-01         0.00000E+00
    0.43123E-02        -0.14269E-01         0.00000E+00
    0.43284E-02        -0.14557E-01         0.00000E+00
    0.43427E-02        -0.14847E-01         0.00000E+00
    0.43551E-02        -0.15139E-01         0.00000E+00
    0.43653E-02        -0.15433E-01         0.00000E+00
    0.43732E-02        -0.15729E-01         0.00000E+00
    0.43785E-02        -0.16026E-01         0.00000E+00
    0.43812E-02        -0.16325E-01         0.00000E+00
    0.43808E-02        -0.16625E-01         0.00000E+00
    0.43773E-02        -0.16928E-01         0.00000E+00
    0.43702E-02        -0.17232E-01         0.00000E+00
    0.43594E-02        -0.17537E-01         0.00000E+00
    0.43444E-02        -0.17844E-01         0.00000E+00
    0.43250E-02        -0.18152E-01         0.00000E+00
    0.43006E-02        -0.18461E-01         0.00000E+00
    0.42710E-02        -0.18772E-01         0.00000E+00
    0.42356E-02        -0.19083E-01         0.00000E+00
    0.41939E-02        -0.19396E-01         0.00000E+00
    0.41453E-02        -0.19710E-01         0.00000E+00
    0.40892E-02        -0.20026E-01         0.00000E+00
    0.40248E-02        -0.20342E-01         0.00000E+00
    0.39514E-02        -0.20658E-01         0.00000E+00
    0.38680E-02        -0.20976E-01         0.00000E+00
    0.37736E-02        -0.21294E-01         0.00000E+00
    0.36672E-02        -0.21613E-01         0.00000E+00
    0.35473E-02        -0.21931E-01         0.00000E+00
    0.34127E-02        -0.22249E-01         0.00000E+00
    0.32618E-02        -0.22566E-01         0.00000E+00
    0.30928E-02        -0.22880E-01         0.00000E+00
    0.29040E-02        -0.23190E-01         0.00000E+00
    0.26932E-02        -0.23495E-01         0.00000E+00
    0.24584E-02        -0.23791E-01         0.00000E+00
    0.21976E-02        -0.24076E-01         0.00000E+00
    0.19085E-02        -0.24344E-01         0.00000E+00
    0.15895E-02        -0.24590E-01         0.00000E+00
    0.12390E-02        -0.24807E-01         0.00000E+00
    0.85655E-03        -0.24984E-01         0.00000E+00
    0.44351E-03        -0.25106E-01         0.00000E+00
    0.00000E+00        -0.25152E-01         0.00000E+00
    0.00000E+00        -0.76477E-03         0.00000E+00
    0.27923E-03        -0.79310E-03         0.00000E+00
    0.54079E-03        -0.86739E-03         0.00000E+00
    0.78392E-03        -0.97350E-03         0.00000E+00
    0.10079E-02        -0.11030E-02         0.00000E+00
    0.12135E-02        -0.12501E-02         0.00000E+00
    0.14015E-02        -0.14107E-02         0.00000E+00
    0.15734E-02        -0.15816E-02         0.00000E+00
    0.17304E-02        -0.17602E-02         0.00000E+00
    0.18740E-02        -0.19446E-02         0.00000E+00
    0.20055E-02        -0.21335E-02         0.00000E+00
    0.21260E-02        -0.23257E-02         0.00000E+00
    0.22369E-02        -0.25206E-02         0.00000E+00
    0.23391E-02        -0.27177E-02         0.00000E+00
    0.24336E-02        -0.29165E-02         0.00000E+00
    0.25213E-02        -0.31169E-02         0.00000E+00
    0.26030E-02        -0.33188E-02         0.00000E+00
    0.26792E-02        -0.35221E-02         0.00000E+00
    0.27507E-02        -0.37268E-02         0.00000E+00
    0.28179E-02        -0.39329E-02         0.00000E+00
    0.28814E-02        -0.41405E-02         0.00000E+00
    0.29415E-02        -0.43495E-02         0.00000E+00
    0.29985E-02        -0.45601E-02         0.00000E+00
    0.30530E-02        -0.47722E-02         0.00000E+00
    0.31050E-02        -0.49860E-02         0.00000E+00
    0.31550E-02        -0.52015E-02         0.00000E+00
    0.32031E-02        -0.54186E-02         0.00000E+00
    0.32494E-02        -0.56376E-02         0.00000E+00
    0.32943E-02        -0.58583E-02         0.00000E+00
    0.33378E-02        -0.60809E-02         0.00000E+00
    0.33802E-02        -0.63053E-02         0.00000E+00
    0.34215E-02        -0.65316E-02         0.00000E+00
    0.34618E-02        -0.67599E-02         0.00000E+00
    0.35012E-02        -0.69901E-02         0.00000E+00
    0.35399E-02        -0.72223E-02         0.00000E+00
    0.35779E-02        -0.74566E-02         0.00000E+00
    0.36152E-02        -0.76928E-02         0.00000E+00
    0.36520E-02        -0.79312E-02         0.00000E+00
    0.36882E-02        -0.81716E-02         0.00000E+00
    0.37239E-02        -0.84141E-02         0.00000E+00
    0.37591E-02        -0.86587E-02         0.00000E+00
    0.37939E-02        -0.89054E-02         0.00000E+00
    0.38283E-02        -0.91544E-02         0.00000E+00
    0.38621E-02        -0.94055E-02         0.00000E+00
    0.38956E-02        -0.96587E-02         0.00000E+00
    0.39286E-02        -0.99142E-02         0.00000E+00
    0.39611E-02        -0.10172E-01         0.00000E+00
    0.39932E-02        -0.10432E-01         0.00000E+00
    0.40247E-02        -0.10694E-01         0.00000E+00
    0.40557E-02        -0.10958E-01         0.00000E+00
    0.40861E-02        -0.11225E-01         0.00000E+00
    0.41159E-02        -0.11494E-01         0.00000E+00
    0.41451E-02        -0.11765E-01         0.00000E+00
    0.41735E-02        -0.12038E-01         0.00000E+00
    0.42011E-02        -0.12313E-01         0.00000E+00
    0.42278E-02        -0.12591E-01         0.00000E+00
    0.42536E-02        -0.12871E-01         0.00000E+00
    0.42784E-02        -0.13153E-01         0.00000E+00
    0.43021E-02        -0.13437E-01         0.00000E+00
    0.43246E-02        -0.13723E-01         0.00000E+00
    0.43458E-02        -0.14012E-01         0.00000E+00
    0.43655E-02        -0.14302E-01         0.00000E+00
    0.43838E-02        -0.14595E-01         0.00000E+00
    0.44003E-02        -0.14889E-01         0.00000E+00
    0.44150E-02        -0.15185E-01         0.00000E+00
    0.44277E-02        -0.15484E-01         0.00000E+00
    0.44382E-02        -0.15784E-01         0.00000E+00
    0.44465E-02        -0.16086E-01         0.00000E+00
    0.44521E-02        -0.16390E-01         0.00000E+00
    0.44551E-02        -0.16696E-01         0.00000E+00
    0.44550E-02        -0.17003E-01         0.00000E+00
    0.44517E-02        -0.17312E-01         0.00000E+00
    0.44448E-02        -0.17623E-01         0.00000E+00
    0.44341E-02        -0.17935E-01         0.00000E+00
    0.44193E-02        -0.18248E-01         0.00000E+00
    0.44000E-02        -0.18563E-01         0.00000E+00
    0.43757E-02        -0.18879E-01         0.00000E+00
    0.43461E-02        -0.19196E-01         0.00000E+00
    0.43107E-02        -0.19515E-01         0.00000E+00
    0.42689E-02        -0.19834E-01         0.00000E+00
    0.42202E-02        -0.20155E-01         0.00000E+00
    0.41639E-02        -0.20477E-01         0.00000E+00
    0.40992E-02        -0.20800E-01         0.00000E+00
    0.40254E-02        -0.21123E-01         0.00000E+00
    0.39415E-02        -0.21447E-01         0.00000E+00
    0.38465E-02        -0.21772E-01         0.00000E+00
    0.37392E-02        -0.22097E-01         0.00000E+00
    0.36184E-02        -0.22422E-01         0.00000E+00
    0.34826E-02        -0.22746E-01         0.00000E+00
    0.33301E-02        -0.23068E-01         0.00000E+00
    0.31592E-02        -0.23389E-01         0.00000E+00
    0.29679E-02        -0.23705E-01         0.00000E+00
    0.27542E-02        -0.24015E-01         0.00000E+00
    0.25158E-02        -0.24317E-01         0.00000E+00
    0.22505E-02        -0.24606E-01         0.00000E+00
    0.19561E-02        -0.24880E-01         0.00000E+00
    0.16304E-02        -0.25131E-01         0.00000E+00
    0.12720E-02        -0.25352E-01         0.00000E+00
    0.87979E-03        -0.25534E-01         0.00000E+00
    0.45530E-03        -0.25661E-01         0.00000E+00
    0.00000E+00        -0.25710E-01         0.00000E+00
    0.00000E+00        -0.79070E-03         0.00000E+00
    0.28680E-03        -0.82095E-03         0.00000E+00
    0.55550E-03        -0.89811E-03         0.00000E+00
    0.80448E-03        -0.10069E-02         0.00000E+00
    0.10332E-02        -0.11391E-02         0.00000E+00
    0.12427E-02        -0.12891E-02         0.00000E+00
    0.14340E-02        -0.14527E-02         0.00000E+00
    0.16085E-02        -0.16267E-02         0.00000E+00
    0.17677E-02        -0.18085E-02         0.00000E+00
    0.19131E-02        -0.19963E-02         0.00000E+00
    0.20461E-02        -0.21886E-02         0.00000E+00
    0.21680E-02        -0.23845E-02         0.00000E+00
    0.22800E-02        -0.25831E-02         0.00000E+00
    0.23832E-02        -0.27840E-02         0.00000E+00
    0.24786E-02        -0.29868E-02         0.00000E+00
    0.25670E-02        -0.31912E-02         0.00000E+00
    0.26494E-02        -0.33972E-02         0.00000E+00
    0.27263E-02        -0.36047E-02         0.00000E+00
    0.27984E-02        -0.38137E-02         0.00000E+00
    0.28662E-02        -0.40241E-02         0.00000E+00
    0.29302E-02        -0.42360E-02         0.00000E+00
    0.29908E-02        -0.44495E-02         0.00000E+00
    0.30485E-02        -0.46645E-02         0.00000E+00
    0.31034E-02        -0.48813E-02         0.00000E+00
    0.31560E-02        -0.50996E-02         0.00000E+00
    0.32065E-02        -0.53198E-02         0.00000E+00
    0.32551E-02        -0.55417E-02         0.00000E+00
    0.33020E-02        -0.57654E-02         0.00000E+00
    0.33474E-02        -0.59909E-02         0.00000E+00
    0.33914E-02        -0.62184E-02         0.00000E+00
    0.34343E-02        -0.64477E-02         0.00000E+00
    0.34761E-02        -0.66790E-02         0.00000E+00
    0.35169E-02        -0.69123E-02         0.00000E+00
    0.35569E-02        -0.71476E-02         0.00000E+00
    0.35961E-02        -0.73849E-02         0.00000E+00
    0.36346E-02        -0.76243E-02         0.00000E+00
    0.36724E-02        -0.78658E-02         0.00000E+00
    0.37097E-02        -0.81094E-02         0.00000E+00
    0.37465E-02        -0.83551E-02         0.00000E+00
    0.37827E-02        -0.86030E-02         0.00000E+00
    0.38184E-02        -0.88530E-02         0.00000E+00
    0.38537E-02        -0.91052E-02         0.00000E+00
    0.38886E-02        -0.93596E-02         0.00000E+00
    0.39230E-02        -0.96163E-02         0.00000E+00
    0.39570E-02        -0.98752E-02         0.00000E+00
    0.39905E-02        -0.10136E-01         0.00000E+00
    0.40236E-02        -0.10400E-01         0.00000E+00
    0.40562E-02        -0.10665E-01         0.00000E+00
    0.40882E-02        -0.10933E-01         0.00000E+00
    0.41197E-02        -0.11203E-01         0.00000E+00
    0.41507E-02        -0.11476E-01         0.00000E+00
    0.41810E-02        -0.11751E-01         0.00000E+00
    0.42106E-02        -0.12028E-01         0.00000E+00
    0.42395E-02        -0.12307E-01         0.00000E+00
    0.42676E-02        -0.12588E-01         0.00000E+00
    0.42949E-02        -0.12872E-01         0.00000E+00
    0.43212E-02        -0.13158E-01         0.00000E+00
    0.43465E-02        -0.13446E-01         0.00000E+00
    0.43706E-02        -0.13737E-01         0.00000E+00
    0.43936E-02        -0.14029E-01         0.00000E+00
    0.44152E-02        -0.14324E-01         0.00000E+00
    0.44354E-02        -0.14621E-01         0.00000E+00
    0.44540E-02        -0.14920E-01         0.00000E+00
    0.44710E-02        -0.15221E-01         0.00000E+00
    0.44861E-02        -0.15524E-01         0.00000E+00
    0.44992E-02        -0.15829E-01         0.00000E+00
    0.45101E-02        -0.16135E-01         0.00000E+00
    0.45186E-02        -0.16444E-01         0.00000E+00
    0.45246E-02        -0.16755E-01         0.00000E+00
    0.45279E-02        -0.17067E-01         0.00000E+00
    0.45281E-02        -0.17381E-01         0.00000E+00
    0.45250E-02        -0.17696E-01         0.00000E+00
    0.45184E-02        -0.18014E-01         0.00000E+00
    0.45079E-02        -0.18332E-01         0.00000E+00
    0.44932E-02        -0.18652E-01         0.00000E+00
    0.44740E-02        -0.18974E-01         0.00000E+00
    0.44499E-02        -0.19297E-01         0.00000E+00
    0.44203E-02        -0.19621E-01         0.00000E+00
    0.43849E-02        -0.19946E-01         0.00000E+00
    0.43431E-02        -0.20273E-01         0.00000E+00
    0.42943E-02        -0.20600E-01         0.00000E+00
    0.42378E-02        -0.20928E-01         0.00000E+00
    0.41730E-02        -0.21258E-01         0.00000E+00
    0.40989E-02        -0.21588E-01         0.00000E+00
    0.40146E-02        -0.21918E-01         0.00000E+00
    0.39191E-02        -0.22250E-01         0.00000E+00
    0.38111E-02        -0.22581E-01         0.00000E+00
    0.36895E-02        -0.22912E-01         0.00000E+00
    0.35525E-02        -0.23242E-01         0.00000E+00
    0.33987E-02        -0.23571E-01         0.00000E+00
    0.32260E-02        -0.23897E-01         0.00000E+00
    0.30326E-02        -0.24219E-01         0.00000E+00
    0.28161E-02        -0.24535E-01         0.00000E+00
    0.25743E-02        -0.24842E-01         0.00000E+00
    0.23048E-02        -0.25136E-01         0.00000E+00
    0.20052E-02        -0.25415E-01         0.00000E+00
    0.16731E-02        -0.25671E-01         0.00000E+00
    0.13067E-02        -0.25897E-01         0.00000E+00
    0.90470E-03        -0.26083E-01         0.00000E+00
    0.46812E-03        -0.26215E-01         0.00000E+00
    0.00000E+00        -0.26267E-01         0.00000E+00
    0.00000E+00        -0.81691E-03         0.00000E+00
    0.29512E-03        -0.84944E-03         0.00000E+00
    0.57132E-03        -0.92942E-03         0.00000E+00
    0.82610E-03        -0.10408E-02         0.00000E+00
    0.10595E-02        -0.11757E-02         0.00000E+00
    0.12728E-02        -0.13285E-02         0.00000E+00
    0.14671E-02        -0.14950E-02         0.00000E+00
    0.16442E-02        -0.16720E-02         0.00000E+00
    0.18055E-02        -0.18570E-02         0.00000E+00
    0.19526E-02        -0.20481E-02         0.00000E+00
    0.20870E-02        -0.22439E-02         0.00000E+00
    0.22101E-02        -0.24434E-02         0.00000E+00
    0.23230E-02        -0.26457E-02         0.00000E+00
    0.24271E-02        -0.28504E-02         0.00000E+00
    0.25232E-02        -0.30571E-02         0.00000E+00
    0.26124E-02        -0.32656E-02         0.00000E+00
    0.26954E-02        -0.34757E-02         0.00000E+00
    0.27729E-02        -0.36873E-02         0.00000E+00
    0.28455E-02        -0.39005E-02         0.00000E+00
    0.29139E-02        -0.41153E-02         0.00000E+00
    0.29784E-02        -0.43316E-02         0.00000E+00
    0.30395E-02        -0.45495E-02         0.00000E+00
    0.30977E-02        -0.47691E-02         0.00000E+00
    0.31532E-02        -0.49903E-02         0.00000E+00
    0.32062E-02        -0.52133E-02         0.00000E+00
    0.32572E-02        -0.54381E-02         0.00000E+00
    0.33063E-02        -0.56647E-02         0.00000E+00
    0.33537E-02        -0.58932E-02         0.00000E+00
    0.33996E-02        -0.61236E-02         0.00000E+00
    0.34441E-02        -0.63559E-02         0.00000E+00
    0.34875E-02        -0.65902E-02         0.00000E+00
    0.35298E-02        -0.68265E-02         0.00000E+00
    0.35711E-02        -0.70648E-02         0.00000E+00
    0.36116E-02        -0.73051E-02         0.00000E+00
    0.36513E-02        -0.75476E-02         0.00000E+00
    0.36903E-02        -0.77921E-02         0.00000E+00
    0.37286E-02        -0.80388E-02         0.00000E+00
    0.37664E-02        -0.82877E-02         0.00000E+00
    0.38037E-02        -0.85387E-02         0.00000E+00
    0.38404E-02        -0.87919E-02         0.00000E+00
    0.38767E-02        -0.90474E-02         0.00000E+00
    0.39125E-02        -0.93050E-02         0.00000E+00
    0.39479E-02        -0.95650E-02         0.00000E+00
    0.39828E-02        -0.98272E-02         0.00000E+00
    0.40173E-02        -0.10092E-01         0.00000E+00
    0.40513E-02        -0.10358E-01         0.00000E+00
    0.40849E-02        -0.10628E-01         0.00000E+00
    0.41180E-02        -0.10899E-01         0.00000E+00
    0.41506E-02        -0.11173E-01         0.00000E+00
    0.41826E-02        -0.11449E-01         0.00000E+00
    0.42141E-02        -0.11727E-01         0.00000E+00
    0.42449E-02        -0.12008E-01         0.00000E+00
    0.42750E-02        -0.12291E-01         0.00000E+00
    0.43045E-02        -0.12576E-01         0.00000E+00
    0.43331E-02        -0.12864E-01         0.00000E+00
    0.43608E-02        -0.13153E-01         0.00000E+00
    0.43876E-02        -0.13446E-01         0.00000E+00
    0.44133E-02        -0.13740E-01         0.00000E+00
    0.44380E-02        -0.14037E-01         0.00000E+00
    0.44614E-02        -0.14335E-01         0.00000E+00
    0.44835E-02        -0.14636E-01         0.00000E+00
    0.45041E-02        -0.14940E-01         0.00000E+00
    0.45232E-02        -0.15245E-01         0.00000E+00
    0.45405E-02        -0.15552E-01         0.00000E+00
    0.45560E-02        -0.15862E-01         0.00000E+00
    0.45695E-02        -0.16173E-01         0.00000E+00
    0.45808E-02        -0.16487E-01         0.00000E+00
    0.45897E-02        -0.16802E-01         0.00000E+00
    0.45961E-02        -0.17119E-01         0.00000E+00
    0.45996E-02        -0.17438E-01         0.00000E+00
    0.46001E-02        -0.17759E-01         0.00000E+00
    0.45973E-02        -0.18081E-01         0.00000E+00
    0.45909E-02        -0.18405E-01         0.00000E+00
    0.45807E-02        -0.18730E-01         0.00000E+00
    0.45662E-02        -0.19057E-01         0.00000E+00
    0.45471E-02        -0.19385E-01         0.00000E+00
    0.45231E-02        -0.19715E-01         0.00000E+00
    0.44937E-02        -0.20046E-01         0.00000E+00
    0.44583E-02        -0.20378E-01         0.00000E+00
    0.44165E-02        -0.20711E-01         0.00000E+00
    0.43677E-02        -0.21045E-01         0.00000E+00
    0.43112E-02        -0.21380E-01         0.00000E+00
    0.42462E-02        -0.21716E-01         0.00000E+00
    0.41718E-02        -0.22052E-01         0.00000E+00
    0.40873E-02        -0.22390E-01         0.00000E+00
    0.39913E-02        -0.22727E-01         0.00000E+00
    0.38829E-02        -0.23065E-01         0.00000E+00
    0.37605E-02        -0.23402E-01         0.00000E+00
    0.36226E-02        -0.23738E-01         0.00000E+00
    0.34675E-02        -0.24073E-01         0.00000E+00
    0.32934E-02        -0.24405E-01         0.00000E+00
    0.30979E-02        -0.24733E-01         0.00000E+00
    0.28790E-02        -0.25054E-01         0.00000E+00
    0.26340E-02        -0.25366E-01         0.00000E+00
    0.23605E-02        -0.25666E-01         0.00000E+00
    0.20558E-02        -0.25949E-01         0.00000E+00
    0.17175E-02        -0.26210E-01         0.00000E+00
    0.13434E-02        -0.26441E-01         0.00000E+00
    0.93157E-03        -0.26631E-01         0.00000E+00
    0.48227E-03        -0.26769E-01         0.00000E+00
    0.00000E+00        -0.26825E-01         0.00000E+00
    0.00000E+00        -0.84343E-03         0.00000E+00
    0.30446E-03        -0.87872E-03         0.00000E+00
    0.58842E-03        -0.96131E-03         0.00000E+00
    0.84891E-03        -0.10751E-02         0.00000E+00
    0.10869E-02        -0.12126E-02         0.00000E+00
    0.13038E-02        -0.13681E-02         0.00000E+00
    0.15011E-02        -0.15375E-02         0.00000E+00
    0.16805E-02        -0.17175E-02         0.00000E+00
    0.18437E-02        -0.19057E-02         0.00000E+00
    0.19924E-02        -0.21001E-02         0.00000E+00
    0.21281E-02        -0.22994E-02         0.00000E+00
    0.22522E-02        -0.25024E-02         0.00000E+00
    0.23660E-02        -0.27085E-02         0.00000E+00
    0.24709E-02        -0.29170E-02         0.00000E+00
    0.25677E-02        -0.31276E-02         0.00000E+00
    0.26575E-02        -0.33400E-02         0.00000E+00
    0.27410E-02        -0.35542E-02         0.00000E+00
    0.28190E-02        -0.37700E-02         0.00000E+00
    0.28921E-02        -0.39875E-02         0.00000E+00
    0.29610E-02        -0.42065E-02         0.00000E+00
    0.30260E-02        -0.44272E-02         0.00000E+00
    0.30876E-02        -0.46496E-02         0.00000E+00
    0.31462E-02        -0.48736E-02         0.00000E+00
    0.32021E-02        -0.50995E-02         0.00000E+00
    0.32557E-02        -0.53271E-02         0.00000E+00
    0.33071E-02        -0.55565E-02         0.00000E+00
    0.33567E-02        -0.57879E-02         0.00000E+00
    0.34045E-02        -0.60211E-02         0.00000E+00
    0.34509E-02        -0.62563E-02         0.00000E+00
    0.34959E-02        -0.64935E-02         0.00000E+00
    0.35398E-02        -0.67327E-02         0.00000E+00
    0.35825E-02        -0.69739E-02         0.00000E+00
    0.36243E-02        -0.72173E-02         0.00000E+00
    0.36653E-02        -0.74627E-02         0.00000E+00
    0.37055E-02        -0.77103E-02         0.00000E+00
    0.37450E-02        -0.79600E-02         0.00000E+00
    0.37838E-02        -0.82119E-02         0.00000E+00
    0.38221E-02        -0.84660E-02         0.00000E+00
    0.38599E-02        -0.87223E-02         0.00000E+00
    0.38971E-02        -0.89809E-02         0.00000E+00
    0.39339E-02        -0.92418E-02         0.00000E+00
    0.39702E-02        -0.95049E-02         0.00000E+00
    0.40061E-02        -0.97703E-02         0.00000E+00
    0.40415E-02        -0.10038E-01         0.00000E+00
    0.40765E-02        -0.10308E-01         0.00000E+00
    0.41111E-02        -0.10581E-01         0.00000E+00
    0.41452E-02        -0.10855E-01         0.00000E+00
    0.41788E-02        -0.11133E-01         0.00000E+00
    0.42119E-02        -0.11412E-01         0.00000E+00
    0.42444E-02        -0.11694E-01         0.00000E+00
    0.42764E-02        -0.11978E-01         0.00000E+00
    0.43077E-02        -0.12265E-01         0.00000E+00
    0.43383E-02        -0.12554E-01         0.00000E+00
    0.43682E-02        -0.12845E-01         0.00000E+00
    0.43973E-02        -0.13139E-01         0.00000E+00
    0.44256E-02        -0.13435E-01         0.00000E+00
    0.44528E-02        -0.13733E-01         0.00000E+00
    0.44791E-02        -0.14034E-01         0.00000E+00
    0.45042E-02        -0.14336E-01         0.00000E+00
    0.45281E-02        -0.14642E-01         0.00000E+00
    0.45506E-02        -0.14949E-01         0.00000E+00
    0.45717E-02        -0.15259E-01         0.00000E+00
    0.45912E-02        -0.15570E-01         0.00000E+00
    0.46090E-02        -0.15884E-01         0.00000E+00
    0.46249E-02        -0.16200E-01         0.00000E+00
    0.46387E-02        -0.16518E-01         0.00000E+00
    0.46504E-02        -0.16838E-01         0.00000E+00
    0.46597E-02        -0.17160E-01         0.00000E+00
    0.46664E-02        -0.17483E-01         0.00000E+00
    0.46702E-02        -0.17809E-01         0.00000E+00
    0.46710E-02        -0.18136E-01         0.00000E+00
    0.46685E-02        -0.18465E-01         0.00000E+00
    0.46624E-02        -0.18796E-01         0.00000E+00
    0.46524E-02        -0.19128E-01         0.00000E+00
    0.46382E-02        -0.19461E-01         0.00000E+00
    0.46193E-02        -0.19796E-01         0.00000E+00
    0.45955E-02        -0.20133E-01         0.00000E+00
    0.45662E-02        -0.20470E-01         0.00000E+00
    0.45309E-02        -0.20809E-01         0.00000E+00
    0.44892E-02        -0.21149E-01         0.00000E+00
    0.44404E-02        -0.21489E-01         0.00000E+00
    0.43838E-02        -0.21831E-01         0.00000E+00
    0.43188E-02        -0.22174E-01         0.00000E+00
    0.42443E-02        -0.22517E-01         0.00000E+00
    0.41596E-02        -0.22861E-01         0.00000E+00
    0.40633E-02        -0.23205E-01         0.00000E+00
    0.39545E-02        -0.23549E-01         0.00000E+00
    0.38315E-02        -0.23892E-01         0.00000E+00
    0.36929E-02        -0.24235E-01         0.00000E+00
    0.35368E-02        -0.24575E-01         0.00000E+00
    0.33612E-02        -0.24913E-01         0.00000E+00
    0.31641E-02        -0.25246E-01         0.00000E+00
    0.29428E-02        -0.25573E-01         0.00000E+00
    0.26949E-02        -0.25891E-01         0.00000E+00
    0.24177E-02        -0.26196E-01         0.00000E+00
    0.21083E-02        -0.26483E-01         0.00000E+00
    0.17640E-02        -0.26749E-01         0.00000E+00
    0.13821E-02        -0.26984E-01         0.00000E+00
    0.96071E-03        -0.27179E-01         0.00000E+00
    0.49820E-03        -0.27320E-01         0.00000E+00
    0.00000E+00        -0.27381E-01         0.00000E+00
    0.00000E+00        -0.87031E-03         0.00000E+00
    0.31520E-03        -0.90896E-03         0.00000E+00
    0.60694E-03        -0.99372E-03         0.00000E+00
    0.87300E-03        -0.11099E-02         0.00000E+00
    0.11155E-02        -0.12499E-02         0.00000E+00
    0.13358E-02        -0.14081E-02         0.00000E+00
    0.15359E-02        -0.15803E-02         0.00000E+00
    0.17175E-02        -0.17632E-02         0.00000E+00
    0.18825E-02        -0.19545E-02         0.00000E+00
    0.20325E-02        -0.21523E-02         0.00000E+00
    0.21693E-02        -0.23549E-02         0.00000E+00
    0.22944E-02        -0.25615E-02         0.00000E+00
    0.24090E-02        -0.27713E-02         0.00000E+00
    0.25145E-02        -0.29836E-02         0.00000E+00
    0.26119E-02        -0.31981E-02         0.00000E+00
    0.27022E-02        -0.34145E-02         0.00000E+00
    0.27862E-02        -0.36328E-02         0.00000E+00
    0.28647E-02        -0.38528E-02         0.00000E+00
    0.29383E-02        -0.40745E-02         0.00000E+00
    0.30075E-02        -0.42978E-02         0.00000E+00
    0.30730E-02        -0.45229E-02         0.00000E+00
    0.31350E-02        -0.47497E-02         0.00000E+00
    0.31941E-02        -0.49783E-02         0.00000E+00
    0.32504E-02        -0.52086E-02         0.00000E+00
    0.33044E-02        -0.54409E-02         0.00000E+00
    0.33563E-02        -0.56750E-02         0.00000E+00
    0.34062E-02        -0.59110E-02         0.00000E+00
    0.34546E-02        -0.61491E-02         0.00000E+00
    0.35014E-02        -0.63891E-02         0.00000E+00
    0.35468E-02        -0.66311E-02         0.00000E+00
    0.35911E-02        -0.68753E-02         0.00000E+00
    0.36344E-02        -0.71215E-02         0.00000E+00
    0.36766E-02        -0.73698E-02         0.00000E+00
    0.37181E-02        -0.76203E-02         0.00000E+00
    0.37587E-02        -0.78730E-02         0.00000E+00
    0.37987E-02        -0.81279E-02         0.00000E+00
    0.38380E-02        -0.83850E-02         0.00000E+00
    0.38768E-02        -0.86444E-02         0.00000E+00
    0.39150E-02        -0.89060E-02         0.00000E+00
    0.39528E-02        -0.91700E-02         0.00000E+00
    0.39900E-02        -0.94362E-02         0.00000E+00
    0.40269E-02        -0.97048E-02         0.00000E+00
    0.40632E-02        -0.99758E-02         0.00000E+00
    0.40992E-02        -0.10249E-01         0.00000E+00
    0.41347E-02        -0.10525E-01         0.00000E+00
    0.41697E-02        -0.10803E-01         0.00000E+00
    0.42043E-02        -0.11083E-01         0.00000E+00
    0.42384E-02        -0.11366E-01         0.00000E+00
    0.42720E-02        -0.11651E-01         0.00000E+00
    0.43051E-02        -0.11939E-01         0.00000E+00
    0.43375E-02        -0.12229E-01         0.00000E+00
    0.43693E-02        -0.12522E-01         0.00000E+00
    0.44005E-02        -0.12817E-01         0.00000E+00
    0.44309E-02        -0.13114E-01         0.00000E+00
    0.44605E-02        -0.13414E-01         0.00000E+00
    0.44892E-02        -0.13716E-01         0.00000E+00
    0.45169E-02        -0.14020E-01         0.00000E+00
    0.45436E-02        -0.14327E-01         0.00000E+00
    0.45692E-02        -0.14636E-01         0.00000E+00
    0.45936E-02        -0.14948E-01         0.00000E+00
    0.46166E-02        -0.15262E-01         0.00000E+00
    0.46381E-02        -0.15577E-01         0.00000E+00
    0.46580E-02        -0.15896E-01         0.00000E+00
    0.46762E-02        -0.16216E-01         0.00000E+00
    0.46926E-02        -0.16538E-01         0.00000E+00
    0.47068E-02        -0.16863E-01         0.00000E+00
    0.47189E-02        -0.17189E-01         0.00000E+00
    0.47285E-02        -0.17518E-01         0.00000E+00
    0.47356E-02        -0.17848E-01         0.00000E+00
    0.47398E-02        -0.18180E-01         0.00000E+00
    0.47409E-02        -0.18514E-01         0.00000E+00
    0.47387E-02        -0.18850E-01         0.00000E+00
    0.47329E-02        -0.19187E-01         0.00000E+00
    0.47232E-02        -0.19526E-01         0.00000E+00
    0.47092E-02        -0.19866E-01         0.00000E+00
    0.46905E-02        -0.20208E-01         0.00000E+00
    0.46669E-02        -0.20551E-01         0.00000E+00
    0.46378E-02        -0.20895E-01         0.00000E+00
    0.46027E-02        -0.21240E-01         0.00000E+00
    0.45611E-02        -0.21587E-01         0.00000E+00
    0.45124E-02        -0.21934E-01         0.00000E+00
    0.44559E-02        -0.22283E-01         0.00000E+00
    0.43908E-02        -0.22632E-01         0.00000E+00
    0.43163E-02        -0.22981E-01         0.00000E+00
    0.42315E-02        -0.23332E-01         0.00000E+00
    0.41351E-02        -0.23682E-01         0.00000E+00
    0.40259E-02        -0.24032E-01         0.00000E+00
    0.39025E-02        -0.24382E-01         0.00000E+00
    0.37633E-02        -0.24731E-01         0.00000E+00
    0.36064E-02        -0.25077E-01         0.00000E+00
    0.34297E-02        -0.25421E-01         0.00000E+00
    0.32310E-02        -0.25760E-01         0.00000E+00
    0.30078E-02        -0.26092E-01         0.00000E+00
    0.27572E-02        -0.26415E-01         0.00000E+00
    0.24765E-02        -0.26724E-01         0.00000E+00
    0.21626E-02        -0.27017E-01         0.00000E+00
    0.18125E-02        -0.27287E-01         0.00000E+00
    0.14232E-02        -0.27526E-01         0.00000E+00
    0.99235E-03        -0.27725E-01         0.00000E+00
    0.51659E-03        -0.27870E-01         0.00000E+00
    0.00000E+00        -0.27937E-01         0.00000E+00
    0.00000E+00        -0.89770E-03         0.00000E+00
    0.32805E-03        -0.94038E-03         0.00000E+00
    0.62687E-03        -0.10265E-02         0.00000E+00
    0.89858E-03        -0.11453E-02         0.00000E+00
    0.11453E-02        -0.12876E-02         0.00000E+00
    0.13689E-02        -0.14483E-02         0.00000E+00
    0.15716E-02        -0.16233E-02         0.00000E+00
    0.17552E-02        -0.18092E-02         0.00000E+00
    0.19218E-02        -0.20035E-02         0.00000E+00
    0.20731E-02        -0.22045E-02         0.00000E+00
    0.22109E-02        -0.24106E-02         0.00000E+00
    0.23367E-02        -0.26207E-02         0.00000E+00
    0.24520E-02        -0.28341E-02         0.00000E+00
    0.25580E-02        -0.30502E-02         0.00000E+00
    0.26559E-02        -0.32686E-02         0.00000E+00
    0.27466E-02        -0.34891E-02         0.00000E+00
    0.28310E-02        -0.37114E-02         0.00000E+00
    0.29099E-02        -0.39356E-02         0.00000E+00
    0.29839E-02        -0.41615E-02         0.00000E+00
    0.30535E-02        -0.43892E-02         0.00000E+00
    0.31193E-02        -0.46186E-02         0.00000E+00
    0.31818E-02        -0.48499E-02         0.00000E+00
    0.32412E-02        -0.50829E-02         0.00000E+00
    0.32980E-02        -0.53179E-02         0.00000E+00
    0.33523E-02        -0.55547E-02         0.00000E+00
    0.34046E-02        -0.57935E-02         0.00000E+00
    0.34550E-02        -0.60343E-02         0.00000E+00
    0.35037E-02        -0.62770E-02         0.00000E+00
    0.35510E-02        -0.65219E-02         0.00000E+00
    0.35969E-02        -0.67688E-02         0.00000E+00
    0.36416E-02        -0.70178E-02         0.00000E+00
    0.36853E-02        -0.72690E-02         0.00000E+00
    0.37280E-02        -0.75224E-02         0.00000E+00
    0.37699E-02        -0.77780E-02         0.00000E+00
    0.38110E-02        -0.80358E-02         0.00000E+00
    0.38514E-02        -0.82958E-02         0.00000E+00
    0.38912E-02        -0.85582E-02         0.00000E+00
    0.39305E-02        -0.88228E-02         0.00000E+00
    0.39692E-02        -0.90897E-02         0.00000E+00
    0.40074E-02        -0.93590E-02         0.00000E+00
    0.40451E-02        -0.96307E-02         0.00000E+00
    0.40824E-02        -0.99048E-02         0.00000E+00
    0.41193E-02        -0.10181E-01         0.00000E+00
    0.41557E-02        -0.10460E-01         0.00000E+00
    0.41917E-02        -0.10741E-01         0.00000E+00
    0.42273E-02        -0.11025E-01         0.00000E+00
    0.42623E-02        -0.11311E-01         0.00000E+00
    0.42969E-02        -0.11600E-01         0.00000E+00
    0.43310E-02        -0.11891E-01         0.00000E+00
    0.43646E-02        -0.12185E-01         0.00000E+00
    0.43975E-02        -0.12481E-01         0.00000E+00
    0.44298E-02        -0.12779E-01         0.00000E+00
    0.44615E-02        -0.13080E-01         0.00000E+00
    0.44924E-02        -0.13383E-01         0.00000E+00
    0.45224E-02        -0.13689E-01         0.00000E+00
    0.45516E-02        -0.13997E-01         0.00000E+00
    0.45799E-02        -0.14308E-01         0.00000E+00
    0.46071E-02        -0.14621E-01         0.00000E+00
    0.46331E-02        -0.14936E-01         0.00000E+00
    0.46579E-02        -0.15254E-01         0.00000E+00
    0.46814E-02        -0.15574E-01         0.00000E+00
    0.47033E-02        -0.15896E-01         0.00000E+00
    0.47237E-02        -0.16221E-01         0.00000E+00
    0.47424E-02        -0.16548E-01         0.00000E+00
    0.47591E-02        -0.16877E-01         0.00000E+00
    0.47738E-02        -0.17207E-01         0.00000E+00
    0.47862E-02        -0.17541E-01         0.00000E+00
    0.47963E-02        -0.17875E-01         0.00000E+00
    0.48037E-02        -0.18212E-01         0.00000E+00
    0.48083E-02        -0.18551E-01         0.00000E+00
    0.48097E-02        -0.18892E-01         0.00000E+00
    0.48079E-02        -0.19234E-01         0.00000E+00
    0.48024E-02        -0.19578E-01         0.00000E+00
    0.47929E-02        -0.19923E-01         0.00000E+00
    0.47792E-02        -0.20270E-01         0.00000E+00
    0.47608E-02        -0.20619E-01         0.00000E+00
    0.47374E-02        -0.20969E-01         0.00000E+00
    0.47085E-02        -0.21319E-01         0.00000E+00
    0.46736E-02        -0.21672E-01         0.00000E+00
    0.46322E-02        -0.22025E-01         0.00000E+00
    0.45836E-02        -0.22379E-01         0.00000E+00
    0.45273E-02        -0.22734E-01         0.00000E+00
    0.44623E-02        -0.23090E-01         0.00000E+00
    0.43879E-02        -0.23446E-01         0.00000E+00
    0.43030E-02        -0.23803E-01         0.00000E+00
    0.42066E-02        -0.24159E-01         0.00000E+00
    0.40972E-02        -0.24516E-01         0.00000E+00
    0.39736E-02        -0.24872E-01         0.00000E+00
    0.38339E-02        -0.25227E-01         0.00000E+00
    0.36764E-02        -0.25579E-01         0.00000E+00
    0.34988E-02        -0.25928E-01         0.00000E+00
    0.32988E-02        -0.26273E-01         0.00000E+00
    0.30738E-02        -0.26610E-01         0.00000E+00
    0.28209E-02        -0.26938E-01         0.00000E+00
    0.25370E-02        -0.27253E-01         0.00000E+00
    0.22189E-02        -0.27550E-01         0.00000E+00
    0.18633E-02        -0.27824E-01         0.00000E+00
    0.14669E-02        -0.28067E-01         0.00000E+00
    0.10265E-02        -0.28271E-01         0.00000E+00
    0.53864E-03        -0.28419E-01         0.00000E+00
    0.00000E+00        -0.28492E-01         0.00000E+00
CELL_DATA       5000
VECTORS vDarcy double 
    0.11050E-07         0.20859E-13         0.00000E+00
    0.11053E-07         0.46369E-13         0.00000E+00
    0.11059E-07         0.53525E-13         0.00000E+00
    0.11069E-07         0.56226E-13         0.00000E+00
    0.11083E-07         0.55561E-13         0.00000E+00
    0.11100E-07         0.53054E-13         0.00000E+00
    0.11120E-07         0.49341E-13         0.00000E+00
    0.11145E-07         0.44965E-13         0.00000E+00
    0.11173E-07         0.40255E-13         0.00000E+00
    0.11204E-07         0.35453E-13         0.00000E+00
    0.11240E-07         0.30712E-13         0.00000E+00
    0.11278E-07         0.26131E-13         0.00000E+00
    0.11321E-07         0.21767E-13         0.00000E+00
    0.11367E-07         0.17648E-13         0.00000E+00
    0.11416E-07         0.13784E-13         0.00000E+00
    0.11469E-07         0.10171E-13         0.00000E+00
    0.11526E-07         0.67983E-14         0.00000E+00
    0.11585E-07         0.36513E-14         0.00000E+00
    0.11649E-07         0.71256E-15         0.00000E+00
    0.11715E-07        -0.20353E-14         0.00000E+00
    0.11784E-07        -0.46093E-14         0.00000E+00
    0.11857E-07        -0.70253E-14         0.00000E+00
    0.11933E-07        -0.92977E-14         0.00000E+00
    0.12012E-07        -0.11440E-13         0.00000E+00
    0.12093E-07        -0.13463E-13         0.00000E+00
    0.12178E-07        -0.15378E-13         0.00000E+00
    0.12265E-07        -0.17192E-13         0.00000E+00
    0.12355E-07        -0.18915E-13         0.00000E+00
    0.12448E-07        -0.20553E-13         0.00000E+00
    0.12544E-07        -0.22111E-13         0.00000E+00
    0.12642E-07        -0.23594E-13         0.00000E+00
    0.12742E-07        -0.25008E-13         0.00000E+00
    0.12845E-07        -0.26355E-13         0.00000E+00
    0.12949E-07        -0.27638E-13         0.00000E+00
    0.13057E-07        -0.28861E-13         0.00000E+00
    0.13166E-07        -0.30025E-13         0.00000E+00
    0.13277E-07        -0.31133E-13         0.00000E+00
    0.13390E-07        -0.32185E-13         0.00000E+00
    0.13504E-07        -0.33183E-13         0.00000E+00
    0.13621E-07        -0.34127E-13         0.00000E+00
    0.13739E-07        -0.35019E-13         0.00000E+00
    0.13858E-07        -0.35858E-13         0.00000E+00
    0.13979E-07        -0.36645E-13         0.00000E+00
    0.14101E-07        -0.37379E-13         0.00000E+00
    0.14224E-07        -0.38060E-13         0.00000E+00
    0.14348E-07        -0.38688E-13         0.00000E+00
    0.14473E-07        -0.39262E-13         0.00000E+00
    0.14598E-07        -0.39781E-13         0.00000E+00
    0.14725E-07        -0.40243E-13         0.00000E+00
    0.14852E-07        -0.40648E-13         0.00000E+00
    0.14979E-07        -0.40995E-13         0.00000E+00
    0.15106E-07        -0.41282E-13         0.00000E+00
    0.15234E-07        -0.41506E-13         0.00000E+00
    0.15362E-07        -0.41667E-13         0.00000E+00
    0.15489E-07        -0.41763E-13         0.00000E+00
    0.15617E-07        -0.41791E-13         0.00000E+00
    0.15744E-07        -0.41749E-13         0.00000E+00
    0.15870E-07        -0.41635E-13         0.00000E+00
    0.15996E-07        -0.41447E-13         0.00000E+00
    0.16121E-07        -0.41181E-13         0.00000E+00
    0.16245E-07        -0.40835E-13         0.00000E+00
    0.16369E-07        -0.40406E-13         0.00000E+00
    0.16491E-07        -0.39892E-13         0.00000E+00
    0.16611E-07        -0.39287E-13         0.00000E+00
    0.16731E-07        -0.38591E-13         0.00000E+00
    0.16848E-07        -0.37797E-13         0.00000E+00
    0.16964E-07        -0.36903E-13         0.00000E+00
    0.17079E-07        -0.35904E-13         0.00000E+00
    0.17191E-07        -0.34795E-13         0.00000E+00
    0.17301E-07        -0.33572E-13         0.00000E+00
    0.17409E-07        -0.32229E-13         0.00000E+00
    0.17515E-07        -0.30759E-13         0.00000E+00
    0.17618E-07        -0.29157E-13         0.00000E+00
    0.17719E-07        -0.27415E-13         0.00000E+00
    0.17817E-07        -0.25524E-13         0.00000E+00
    0.17912E-07        -0.23475E-13         0.00000E+00
    0.18005E-07        -0.21257E-13         0.00000E+00
    0.18094E-07        -0.18860E-13         0.00000E+00
    0.18180E-07        -0.16269E-13         0.00000E+00
    0.18263E-07        -0.13470E-13         0.00000E+00
    0.18343E-07        -0.10446E-13         0.00000E+00
    0.18419E-07        -0.71806E-14         0.00000E+00
    0.18492E-07        -0.36542E-14         0.00000E+00
    0.18561E-07         0.15214E-15         0.00000E+00
    0.18626E-07         0.42569E-14         0.00000E+00
    0.18688E-07         0.86763E-14         0.00000E+00
    0.18745E-07         0.13421E-13         0.00000E+00
    0.18799E-07         0.18494E-13         0.00000E+00
    0.18849E-07         0.23882E-13         0.00000E+00
    0.18894E-07         0.29550E-13         0.00000E+00
    0.18936E-07         0.35431E-13         0.00000E+00
    0.18973E-07         0.41408E-13         0.00000E+00
    0.19006E-07         0.47303E-13         0.00000E+00
    0.19035E-07         0.52836E-13         0.00000E+00
    0.19059E-07         0.57625E-13         0.00000E+00
    0.19079E-07         0.61049E-13         0.00000E+00
    0.19095E-07         0.62381E-13         0.00000E+00
    0.19107E-07         0.59872E-13         0.00000E+00
    0.19115E-07         0.52316E-13         0.00000E+00
    0.19118E-07         0.23667E-13         0.00000E+00
    0.11050E-07         0.59138E-13         0.00000E+00
    0.11053E-07         0.13414E-12         0.00000E+00
    0.11059E-07         0.15752E-12         0.00000E+00
    0.11069E-07         0.16603E-12         0.00000E+00
    0.11083E-07         0.16456E-12         0.00000E+00
    0.11100E-07         0.15729E-12         0.00000E+00
    0.11120E-07         0.14637E-12         0.00000E+00
    0.11145E-07         0.13340E-12         0.00000E+00
    0.11173E-07         0.11940E-12         0.00000E+00
    0.11204E-07         0.10512E-12         0.00000E+00
    0.11240E-07         0.91012E-13         0.00000E+00
    0.11278E-07         0.77387E-13         0.00000E+00
    0.11321E-07         0.64413E-13         0.00000E+00
    0.11367E-07         0.52178E-13         0.00000E+00
    0.11416E-07         0.40706E-13         0.00000E+00
    0.11469E-07         0.29989E-13         0.00000E+00
    0.11526E-07         0.19992E-13         0.00000E+00
    0.11585E-07         0.10669E-13         0.00000E+00
    0.11649E-07         0.19676E-14         0.00000E+00
    0.11715E-07        -0.61642E-14         0.00000E+00
    0.11784E-07        -0.13778E-13         0.00000E+00
    0.11857E-07        -0.20923E-13         0.00000E+00
    0.11933E-07        -0.27641E-13         0.00000E+00
    0.12012E-07        -0.33973E-13         0.00000E+00
    0.12093E-07        -0.39953E-13         0.00000E+00
    0.12178E-07        -0.45611E-13         0.00000E+00
    0.12265E-07        -0.50975E-13         0.00000E+00
    0.12355E-07        -0.56066E-13         0.00000E+00
    0.12448E-07        -0.60906E-13         0.00000E+00
    0.12544E-07        -0.65512E-13         0.00000E+00
    0.12642E-07        -0.69897E-13         0.00000E+00
    0.12742E-07        -0.74075E-13         0.00000E+00
    0.12845E-07        -0.78057E-13         0.00000E+00
    0.12949E-07        -0.81852E-13         0.00000E+00
    0.13057E-07        -0.85468E-13         0.00000E+00
    0.13166E-07        -0.88911E-13         0.00000E+00
    0.13277E-07        -0.92186E-13         0.00000E+00
    0.13390E-07        -0.95297E-13         0.00000E+00
    0.13504E-07        -0.98249E-13         0.00000E+00
    0.13621E-07        -0.10104E-12         0.00000E+00
    0.13739E-07        -0.10368E-12         0.00000E+00
    0.13858E-07        -0.10616E-12         0.00000E+00
    0.13979E-07        -0.10849E-12         0.00000E+00
    0.14101E-07        -0.11066E-12         0.00000E+00
    0.14224E-07        -0.11268E-12         0.00000E+00
    0.14348E-07        -0.11454E-12         0.00000E+00
    0.14473E-07        -0.11624E-12         0.00000E+00
    0.14598E-07        -0.11777E-12         0.00000E+00
    0.14725E-07        -0.11914E-12         0.00000E+00
    0.14852E-07        -0.12034E-12         0.00000E+00
    0.14979E-07        -0.12137E-12         0.00000E+00
    0.15106E-07        -0.12222E-12         0.00000E+00
    0.15234E-07        -0.12289E-12         0.00000E+00
    0.15362E-07        -0.12337E-12         0.00000E+00
    0.15489E-07        -0.12365E-12         0.00000E+00
    0.15617E-07        -0.12374E-12         0.00000E+00
    0.15744E-07        -0.12361E-12         0.00000E+00
    0.15870E-07        -0.12328E-12         0.00000E+00
    0.15996E-07        -0.12272E-12         0.00000E+00
    0.16121E-07        -0.12194E-12         0.00000E+00
    0.16245E-07        -0.12092E-12         0.00000E+00
    0.16369E-07        -0.11965E-12         0.00000E+00
    0.16491E-07        -0.11813E-12         0.00000E+00
    0.16611E-07        -0.11635E-12         0.00000E+00
    0.16731E-07        -0.11429E-12         0.00000E+00
    0.16848E-07        -0.11195E-12         0.00000E+00
    0.16964E-07        -0.10931E-12         0.00000E+00
    0.17079E-07        -0.10635E-12         0.00000E+00
    0.17191E-07        -0.10308E-12         0.00000E+00
    0.17301E-07        -0.99466E-13         0.00000E+00
    0.17409E-07        -0.95497E-13         0.00000E+00
    0.17515E-07        -0.91156E-13         0.00000E+00
    0.17618E-07        -0.86422E-13         0.00000E+00
    0.17719E-07        -0.81274E-13         0.00000E+00
    0.17817E-07        -0.75686E-13         0.00000E+00
    0.17912E-07        -0.69630E-13         0.00000E+00
    0.18005E-07        -0.63077E-13         0.00000E+00
    0.18094E-07        -0.55989E-13         0.00000E+00
    0.18180E-07        -0.48328E-13         0.00000E+00
    0.18263E-07        -0.40049E-13         0.00000E+00
    0.18343E-07        -0.31104E-13         0.00000E+00
    0.18419E-07        -0.21438E-13         0.00000E+00
    0.18492E-07        -0.10995E-13         0.00000E+00
    0.18561E-07         0.28287E-15         0.00000E+00
    0.18626E-07         0.12453E-13         0.00000E+00
    0.18688E-07         0.25565E-13         0.00000E+00
    0.18745E-07         0.39652E-13         0.00000E+00
    0.18799E-07         0.54723E-13         0.00000E+00
    0.18849E-07         0.70740E-13         0.00000E+00
    0.18894E-07         0.87599E-13         0.00000E+00
    0.18936E-07         0.10509E-12         0.00000E+00
    0.18973E-07         0.12288E-12         0.00000E+00
    0.19006E-07         0.14039E-12         0.00000E+00
    0.19035E-07         0.15680E-12         0.00000E+00
    0.19059E-07         0.17090E-12         0.00000E+00
    0.19079E-07         0.18086E-12         0.00000E+00
    0.19095E-07         0.18424E-12         0.00000E+00
    0.19107E-07         0.17622E-12         0.00000E+00
    0.19115E-07         0.15129E-12         0.00000E+00
    0.19118E-07         0.67050E-13         0.00000E+00
    0.11050E-07         0.91373E-13         0.00000E+00
    0.11053E-07         0.21263E-12         0.00000E+00
    0.11059E-07         0.25534E-12         0.00000E+00
    0.11069E-07         0.27060E-12         0.00000E+00
    0.11083E-07         0.26924E-12         0.00000E+00
    0.11100E-07         0.25775E-12         0.00000E+00
    0.11120E-07         0.24005E-12         0.00000E+00
    0.11145E-07         0.21880E-12         0.00000E+00
    0.11173E-07         0.19579E-12         0.00000E+00
    0.11204E-07         0.17227E-12         0.00000E+00
    0.11240E-07         0.14905E-12         0.00000E+00
    0.11278E-07         0.12662E-12         0.00000E+00
    0.11321E-07         0.10528E-12         0.00000E+00
    0.11367E-07         0.85169E-13         0.00000E+00
    0.11416E-07         0.66336E-13         0.00000E+00
    0.11469E-07         0.48759E-13         0.00000E+00
    0.11526E-07         0.32379E-13         0.00000E+00
    0.11585E-07         0.17117E-13         0.00000E+00
    0.11649E-07         0.28853E-14         0.00000E+00
    0.11715E-07        -0.10407E-13         0.00000E+00
    0.11784E-07        -0.22845E-13         0.00000E+00
    0.11857E-07        -0.34511E-13         0.00000E+00
    0.11933E-07        -0.45478E-13         0.00000E+00
    0.12012E-07        -0.55811E-13         0.00000E+00
    0.12093E-07        -0.65568E-13         0.00000E+00
    0.12178E-07        -0.74800E-13         0.00000E+00
    0.12265E-07        -0.83550E-13         0.00000E+00
    0.12355E-07        -0.91857E-13         0.00000E+00
    0.12448E-07        -0.99754E-13         0.00000E+00
    0.12544E-07        -0.10727E-12         0.00000E+00
    0.12642E-07        -0.11442E-12         0.00000E+00
    0.12742E-07        -0.12124E-12         0.00000E+00
    0.12845E-07        -0.12774E-12         0.00000E+00
    0.12949E-07        -0.13394E-12         0.00000E+00
    0.13057E-07        -0.13984E-12         0.00000E+00
    0.13166E-07        -0.14546E-12         0.00000E+00
    0.13277E-07        -0.15081E-12         0.00000E+00
    0.13390E-07        -0.15589E-12         0.00000E+00
    0.13504E-07        -0.16072E-12         0.00000E+00
    0.13621E-07        -0.16528E-12         0.00000E+00
    0.13739E-07        -0.16959E-12         0.00000E+00
    0.13858E-07        -0.17365E-12         0.00000E+00
    0.13979E-07        -0.17745E-12         0.00000E+00
    0.14101E-07        -0.18101E-12         0.00000E+00
    0.14224E-07        -0.18430E-12         0.00000E+00
    0.14348E-07        -0.18734E-12         0.00000E+00
    0.14473E-07        -0.19012E-12         0.00000E+00
    0.14598E-07        -0.19263E-12         0.00000E+00
    0.14725E-07        -0.19487E-12         0.00000E+00
    0.14852E-07        -0.19684E-12         0.00000E+00
    0.14979E-07        -0.19852E-12         0.00000E+00
    0.15106E-07        -0.19991E-12         0.00000E+00
    0.15234E-07        -0.20100E-12         0.00000E+00
    0.15362E-07        -0.20179E-12         0.00000E+00
    0.15489E-07        -0.20226E-12         0.00000E+00
    0.15617E-07        -0.20240E-12         0.00000E+00
    0.15744E-07        -0.20221E-12         0.00000E+00
    0.15870E-07        -0.20167E-12         0.00000E+00
    0.15996E-07        -0.20076E-12         0.00000E+00
    0.16121E-07        -0.19949E-12         0.00000E+00
    0.16245E-07        -0.19783E-12         0.00000E+00
    0.16369E-07        -0.19577E-12         0.00000E+00
    0.16491E-07        -0.19329E-12         0.00000E+00
    0.16611E-07        -0.19038E-12         0.00000E+00
    0.16731E-07        -0.18703E-12         0.00000E+00
    0.16848E-07        -0.18321E-12         0.00000E+00
    0.16964E-07        -0.17890E-12         0.00000E+00
    0.17079E-07        -0.17409E-12         0.00000E+00
    0.17191E-07        -0.16875E-12         0.00000E+00
    0.17301E-07        -0.16285E-12         0.00000E+00
    0.17409E-07        -0.15638E-12         0.00000E+00
    0.17515E-07        -0.14930E-12         0.00000E+00
    0.17618E-07        -0.14158E-12         0.00000E+00
    0.17719E-07        -0.13319E-12         0.00000E+00
    0.17817E-07        -0.12407E-12         0.00000E+00
    0.17912E-07        -0.11419E-12         0.00000E+00
    0.18005E-07        -0.10350E-12         0.00000E+00
    0.18094E-07        -0.91933E-13         0.00000E+00
    0.18180E-07        -0.79426E-13         0.00000E+00
    0.18263E-07        -0.65905E-13         0.00000E+00
    0.18343E-07        -0.51288E-13         0.00000E+00
    0.18419E-07        -0.35484E-13         0.00000E+00
    0.18492E-07        -0.18399E-13         0.00000E+00
    0.18561E-07         0.68129E-16         0.00000E+00
    0.18626E-07         0.20013E-13         0.00000E+00
    0.18688E-07         0.41521E-13         0.00000E+00
    0.18745E-07         0.64652E-13         0.00000E+00
    0.18799E-07         0.89422E-13         0.00000E+00
    0.18849E-07         0.11577E-12         0.00000E+00
    0.18894E-07         0.14352E-12         0.00000E+00
    0.18936E-07         0.17233E-12         0.00000E+00
    0.18973E-07         0.20161E-12         0.00000E+00
    0.19006E-07         0.23041E-12         0.00000E+00
    0.19035E-07         0.25730E-12         0.00000E+00
    0.19059E-07         0.28019E-12         0.00000E+00
    0.19079E-07         0.29603E-12         0.00000E+00
    0.19095E-07         0.30034E-12         0.00000E+00
    0.19107E-07         0.28568E-12         0.00000E+00
    0.19115E-07         0.23970E-12         0.00000E+00
    0.19118E-07         0.10350E-12         0.00000E+00
    0.11050E-07         0.11900E-12         0.00000E+00
    0.11053E-07         0.28305E-12         0.00000E+00
    0.11059E-07         0.34693E-12         0.00000E+00
    0.11069E-07         0.37002E-12         0.00000E+00
    0.11083E-07         0.36952E-12         0.00000E+00
    0.11100E-07         0.35437E-12         0.00000E+00
    0.11120E-07         0.33030E-12         0.00000E+00
    0.11145E-07         0.30109E-12         0.00000E+00
    0.11173E-07         0.26936E-12         0.00000E+00
    0.11204E-07         0.23687E-12         0.00000E+00
    0.11240E-07         0.20478E-12         0.00000E+00
    0.11278E-07         0.17380E-12         0.00000E+00
    0.11321E-07         0.14434E-12         0.00000E+00
    0.11367E-07         0.11661E-12         0.00000E+00
    0.11416E-07         0.90668E-13         0.00000E+00
    0.11469E-07         0.66480E-13         0.00000E+00
    0.11526E-07         0.43962E-13         0.00000E+00
    0.11585E-07         0.23001E-13         0.00000E+00
    0.11649E-07         0.34712E-14         0.00000E+00
    0.11715E-07        -0.14756E-13         0.00000E+00
    0.11784E-07        -0.31803E-13         0.00000E+00
    0.11857E-07        -0.47784E-13         0.00000E+00
    0.11933E-07        -0.62801E-13         0.00000E+00
    0.12012E-07        -0.76947E-13         0.00000E+00
    0.12093E-07        -0.90302E-13         0.00000E+00
    0.12178E-07        -0.10294E-12         0.00000E+00
    0.12265E-07        -0.11491E-12         0.00000E+00
    0.12355E-07        -0.12628E-12         0.00000E+00
    0.12448E-07        -0.13709E-12         0.00000E+00
    0.12544E-07        -0.14738E-12         0.00000E+00
    0.12642E-07        -0.15717E-12         0.00000E+00
    0.12742E-07        -0.16651E-12         0.00000E+00
    0.12845E-07        -0.17541E-12         0.00000E+00
    0.12949E-07        -0.18389E-12         0.00000E+00
    0.13057E-07        -0.19198E-12         0.00000E+00
    0.13166E-07        -0.19968E-12         0.00000E+00
    0.13277E-07        -0.20701E-12         0.00000E+00
    0.13390E-07        -0.21397E-12         0.00000E+00
    0.13504E-07        -0.22058E-12         0.00000E+00
    0.13621E-07        -0.22684E-12         0.00000E+00
    0.13739E-07        -0.23275E-12         0.00000E+00
    0.13858E-07        -0.23831E-12         0.00000E+00
    0.13979E-07        -0.24353E-12         0.00000E+00
    0.14101E-07        -0.24840E-12         0.00000E+00
    0.14224E-07        -0.25292E-12         0.00000E+00
    0.14348E-07        -0.25709E-12         0.00000E+00
    0.14473E-07        -0.26090E-12         0.00000E+00
    0.14598E-07        -0.26435E-12         0.00000E+00
    0.14725E-07        -0.26742E-12         0.00000E+00
    0.14852E-07        -0.27012E-12         0.00000E+00
    0.14979E-07        -0.27243E-12         0.00000E+00
    0.15106E-07        -0.27435E-12         0.00000E+00
    0.15234E-07        -0.27585E-12         0.00000E+00
    0.15362E-07        -0.27693E-12         0.00000E+00
    0.15489E-07        -0.27758E-12         0.00000E+00
    0.15617E-07        -0.27779E-12         0.00000E+00
    0.15744E-07        -0.27753E-12         0.00000E+00
    0.15870E-07        -0.27679E-12         0.00000E+00
    0.15996E-07        -0.27556E-12         0.00000E+00
    0.16121E-07        -0.27383E-12         0.00000E+00
    0.16245E-07        -0.27156E-12         0.00000E+00
    0.16369E-07        -0.26874E-12         0.00000E+00
    0.16491E-07        -0.26536E-12         0.00000E+00
    0.16611E-07        -0.26138E-12         0.00000E+00
    0.16731E-07        -0.25679E-12         0.00000E+00
    0.16848E-07        -0.25157E-12         0.00000E+00
    0.16964E-07        -0.24568E-12         0.00000E+00
    0.17079E-07        -0.23910E-12         0.00000E+00
    0.17191E-07        -0.23179E-12         0.00000E+00
    0.17301E-07        -0.22373E-12         0.00000E+00
    0.17409E-07        -0.21488E-12         0.00000E+00
    0.17515E-07        -0.20519E-12         0.00000E+00
    0.17618E-07        -0.19463E-12         0.00000E+00
    0.17719E-07        -0.18314E-12         0.00000E+00
    0.17817E-07        -0.17067E-12         0.00000E+00
    0.17912E-07        -0.15715E-12         0.00000E+00
    0.18005E-07        -0.14252E-12         0.00000E+00
    0.18094E-07        -0.12668E-12         0.00000E+00
    0.18180E-07        -0.10955E-12         0.00000E+00
    0.18263E-07        -0.91026E-13         0.00000E+00
    0.18343E-07        -0.70988E-13         0.00000E+00
    0.18419E-07        -0.49311E-13         0.00000E+00
    0.18492E-07        -0.25858E-13         0.00000E+00
    0.18561E-07        -0.48856E-15         0.00000E+00
    0.18626E-07         0.26936E-13         0.00000E+00
    0.18688E-07         0.56540E-13         0.00000E+00
    0.18745E-07         0.88409E-13         0.00000E+00
    0.18799E-07         0.12257E-12         0.00000E+00
    0.18849E-07         0.15894E-12         0.00000E+00
    0.18894E-07         0.19728E-12         0.00000E+00
    0.18936E-07         0.23709E-12         0.00000E+00
    0.18973E-07         0.27753E-12         0.00000E+00
    0.19006E-07         0.31726E-12         0.00000E+00
    0.19035E-07         0.35423E-12         0.00000E+00
    0.19059E-07         0.38541E-12         0.00000E+00
    0.19079E-07         0.40646E-12         0.00000E+00
    0.19095E-07         0.41080E-12         0.00000E+00
    0.19107E-07         0.38818E-12         0.00000E+00
    0.19114E-07         0.31895E-12         0.00000E+00
    0.19118E-07         0.13467E-12         0.00000E+00
    0.11050E-07         0.14304E-12         0.00000E+00
    0.11053E-07         0.34653E-12         0.00000E+00
    0.11059E-07         0.43244E-12         0.00000E+00
    0.11069E-07         0.46436E-12         0.00000E+00
    0.11083E-07         0.46536E-12         0.00000E+00
    0.11100E-07         0.44709E-12         0.00000E+00
    0.11120E-07         0.41703E-12         0.00000E+00
    0.11145E-07         0.38021E-12         0.00000E+00
    0.11173E-07         0.34005E-12         0.00000E+00
    0.11204E-07         0.29886E-12         0.00000E+00
    0.11240E-07         0.25817E-12         0.00000E+00
    0.11278E-07         0.21889E-12         0.00000E+00
    0.11321E-07         0.18158E-12         0.00000E+00
    0.11367E-07         0.14649E-12         0.00000E+00
    0.11416E-07         0.11370E-12         0.00000E+00
    0.11469E-07         0.83151E-13         0.00000E+00
    0.11526E-07         0.54744E-13         0.00000E+00
    0.11585E-07         0.28326E-13         0.00000E+00
    0.11648E-07         0.37317E-14         0.00000E+00
    0.11715E-07        -0.19205E-13         0.00000E+00
    0.11784E-07        -0.40644E-13         0.00000E+00
    0.11857E-07        -0.60732E-13         0.00000E+00
    0.11933E-07        -0.79602E-13         0.00000E+00
    0.12012E-07        -0.97373E-13         0.00000E+00
    0.12093E-07        -0.11415E-12         0.00000E+00
    0.12178E-07        -0.13002E-12         0.00000E+00
    0.12265E-07        -0.14506E-12         0.00000E+00
    0.12355E-07        -0.15933E-12         0.00000E+00
    0.12448E-07        -0.17291E-12         0.00000E+00
    0.12544E-07        -0.18583E-12         0.00000E+00
    0.12642E-07        -0.19814E-12         0.00000E+00
    0.12742E-07        -0.20987E-12         0.00000E+00
    0.12845E-07        -0.22105E-12         0.00000E+00
    0.12949E-07        -0.23172E-12         0.00000E+00
    0.13057E-07        -0.24188E-12         0.00000E+00
    0.13166E-07        -0.25156E-12         0.00000E+00
    0.13277E-07        -0.26077E-12         0.00000E+00
    0.13390E-07        -0.26953E-12         0.00000E+00
    0.13504E-07        -0.27784E-12         0.00000E+00
    0.13621E-07        -0.28571E-12         0.00000E+00
    0.13739E-07        -0.29314E-12         0.00000E+00
    0.13858E-07        -0.30014E-12         0.00000E+00
    0.13979E-07        -0.30671E-12         0.00000E+00
    0.14101E-07        -0.31284E-12         0.00000E+00
    0.14224E-07        -0.31853E-12         0.00000E+00
    0.14348E-07        -0.32377E-12         0.00000E+00
    0.14473E-07        -0.32857E-12         0.00000E+00
    0.14598E-07        -0.33292E-12         0.00000E+00
    0.14725E-07        -0.33679E-12         0.00000E+00
    0.14852E-07        -0.34019E-12         0.00000E+00
    0.14979E-07        -0.34311E-12         0.00000E+00
    0.15106E-07        -0.34552E-12         0.00000E+00
    0.15234E-07        -0.34742E-12         0.00000E+00
    0.15362E-07        -0.34879E-12         0.00000E+00
    0.15489E-07        -0.34962E-12         0.00000E+00
    0.15617E-07        -0.34988E-12         0.00000E+00
    0.15744E-07        -0.34957E-12         0.00000E+00
    0.15870E-07        -0.34865E-12         0.00000E+00
    0.15996E-07        -0.34712E-12         0.00000E+00
    0.16121E-07        -0.34494E-12         0.00000E+00
    0.16245E-07        -0.34210E-12         0.00000E+00
    0.16369E-07        -0.33857E-12         0.00000E+00
    0.16491E-07        -0.33432E-12         0.00000E+00
    0.16611E-07        -0.32934E-12         0.00000E+00
    0.16731E-07        -0.32358E-12         0.00000E+00
    0.16848E-07        -0.31702E-12         0.00000E+00
    0.16964E-07        -0.30963E-12         0.00000E+00
    0.17079E-07        -0.30137E-12         0.00000E+00
    0.17191E-07        -0.29220E-12         0.00000E+00
    0.17301E-07        -0.28209E-12         0.00000E+00
    0.17409E-07        -0.27098E-12         0.00000E+00
    0.17515E-07        -0.25882E-12         0.00000E+00
    0.17618E-07        -0.24556E-12         0.00000E+00
    0.17719E-07        -0.23114E-12         0.00000E+00
    0.17817E-07        -0.21548E-12         0.00000E+00
    0.17912E-07        -0.19850E-12         0.00000E+00
    0.18005E-07        -0.18012E-12         0.00000E+00
    0.18094E-07        -0.16022E-12         0.00000E+00
    0.18180E-07        -0.13869E-12         0.00000E+00
    0.18263E-07        -0.11540E-12         0.00000E+00
    0.18343E-07        -0.90195E-13         0.00000E+00
    0.18419E-07        -0.62909E-13         0.00000E+00
    0.18492E-07        -0.33367E-13         0.00000E+00
    0.18561E-07        -0.13830E-14         0.00000E+00
    0.18626E-07         0.33223E-13         0.00000E+00
    0.18688E-07         0.70615E-13         0.00000E+00
    0.18745E-07         0.11091E-12         0.00000E+00
    0.18799E-07         0.15414E-12         0.00000E+00
    0.18849E-07         0.20021E-12         0.00000E+00
    0.18894E-07         0.24881E-12         0.00000E+00
    0.18936E-07         0.29929E-12         0.00000E+00
    0.18973E-07         0.35056E-12         0.00000E+00
    0.19006E-07         0.40086E-12         0.00000E+00
    0.19035E-07         0.44749E-12         0.00000E+00
    0.19059E-07         0.48648E-12         0.00000E+00
    0.19079E-07         0.51208E-12         0.00000E+00
    0.19095E-07         0.51566E-12         0.00000E+00
    0.19107E-07         0.48389E-12         0.00000E+00
    0.19114E-07         0.39031E-12         0.00000E+00
    0.19118E-07         0.16174E-12         0.00000E+00
    0.11050E-07         0.16424E-12         0.00000E+00
    0.11053E-07         0.40400E-12         0.00000E+00
    0.11059E-07         0.51212E-12         0.00000E+00
    0.11069E-07         0.55367E-12         0.00000E+00
    0.11083E-07         0.55677E-12         0.00000E+00
    0.11100E-07         0.53584E-12         0.00000E+00
    0.11120E-07         0.50020E-12         0.00000E+00
    0.11145E-07         0.45609E-12         0.00000E+00
    0.11173E-07         0.40780E-12         0.00000E+00
    0.11204E-07         0.35820E-12         0.00000E+00
    0.11240E-07         0.30917E-12         0.00000E+00
    0.11278E-07         0.26188E-12         0.00000E+00
    0.11321E-07         0.21699E-12         0.00000E+00
    0.11367E-07         0.17480E-12         0.00000E+00
    0.11416E-07         0.13542E-12         0.00000E+00
    0.11469E-07         0.98771E-13         0.00000E+00
    0.11526E-07         0.64727E-13         0.00000E+00
    0.11585E-07         0.33096E-13         0.00000E+00
    0.11648E-07         0.36740E-14         0.00000E+00
    0.11715E-07        -0.23746E-13         0.00000E+00
    0.11784E-07        -0.49359E-13         0.00000E+00
    0.11857E-07        -0.73347E-13         0.00000E+00
    0.11933E-07        -0.95873E-13         0.00000E+00
    0.12012E-07        -0.11708E-12         0.00000E+00
    0.12093E-07        -0.13710E-12         0.00000E+00
    0.12178E-07        -0.15603E-12         0.00000E+00
    0.12265E-07        -0.17397E-12         0.00000E+00
    0.12355E-07        -0.19101E-12         0.00000E+00
    0.12448E-07        -0.20721E-12         0.00000E+00
    0.12544E-07        -0.22262E-12         0.00000E+00
    0.12642E-07        -0.23731E-12         0.00000E+00
    0.12742E-07        -0.25131E-12         0.00000E+00
    0.12845E-07        -0.26466E-12         0.00000E+00
    0.12949E-07        -0.27739E-12         0.00000E+00
    0.13057E-07        -0.28953E-12         0.00000E+00
    0.13166E-07        -0.30109E-12         0.00000E+00
    0.13277E-07        -0.31210E-12         0.00000E+00
    0.13390E-07        -0.32256E-12         0.00000E+00
    0.13504E-07        -0.33249E-12         0.00000E+00
    0.13621E-07        -0.34189E-12         0.00000E+00
    0.13739E-07        -0.35077E-12         0.00000E+00
    0.13858E-07        -0.35914E-12         0.00000E+00
    0.13979E-07        -0.36699E-12         0.00000E+00
    0.14101E-07        -0.37432E-12         0.00000E+00
    0.14224E-07        -0.38112E-12         0.00000E+00
    0.14348E-07        -0.38740E-12         0.00000E+00
    0.14473E-07        -0.39314E-12         0.00000E+00
    0.14598E-07        -0.39834E-12         0.00000E+00
    0.14725E-07        -0.40298E-12         0.00000E+00
    0.14852E-07        -0.40705E-12         0.00000E+00
    0.14979E-07        -0.41054E-12         0.00000E+00
    0.15106E-07        -0.41343E-12         0.00000E+00
    0.15234E-07        -0.41571E-12         0.00000E+00
    0.15362E-07        -0.41736E-12         0.00000E+00
    0.15489E-07        -0.41836E-12         0.00000E+00
    0.15617E-07        -0.41869E-12         0.00000E+00
    0.15744E-07        -0.41832E-12         0.00000E+00
    0.15870E-07        -0.41724E-12         0.00000E+00
    0.15996E-07        -0.41542E-12         0.00000E+00
    0.16121E-07        -0.41283E-12         0.00000E+00
    0.16245E-07        -0.40945E-12         0.00000E+00
    0.16369E-07        -0.40525E-12         0.00000E+00
    0.16491E-07        -0.40019E-12         0.00000E+00
    0.16611E-07        -0.39425E-12         0.00000E+00
    0.16731E-07        -0.38739E-12         0.00000E+00
    0.16848E-07        -0.37957E-12         0.00000E+00
    0.16964E-07        -0.37076E-12         0.00000E+00
    0.17079E-07        -0.36091E-12         0.00000E+00
    0.17191E-07        -0.34998E-12         0.00000E+00
    0.17301E-07        -0.33791E-12         0.00000E+00
    0.17409E-07        -0.32466E-12         0.00000E+00
    0.17515E-07        -0.31017E-12         0.00000E+00
    0.17618E-07        -0.29435E-12         0.00000E+00
    0.17719E-07        -0.27715E-12         0.00000E+00
    0.17817E-07        -0.25847E-12         0.00000E+00
    0.17912E-07        -0.23822E-12         0.00000E+00
    0.18005E-07        -0.21629E-12         0.00000E+00
    0.18094E-07        -0.19254E-12         0.00000E+00
    0.18180E-07        -0.16684E-12         0.00000E+00
    0.18263E-07        -0.13902E-12         0.00000E+00
    0.18343E-07        -0.10890E-12         0.00000E+00
    0.18419E-07        -0.76268E-13         0.00000E+00
    0.18492E-07        -0.40916E-13         0.00000E+00
    0.18561E-07        -0.26101E-14         0.00000E+00
    0.18626E-07         0.38874E-13         0.00000E+00
    0.18688E-07         0.83741E-13         0.00000E+00
    0.18745E-07         0.13214E-12         0.00000E+00
    0.18799E-07         0.18412E-12         0.00000E+00
    0.18849E-07         0.23956E-12         0.00000E+00
    0.18894E-07         0.29808E-12         0.00000E+00
    0.18936E-07         0.35889E-12         0.00000E+00
    0.18973E-07         0.42064E-12         0.00000E+00
    0.19006E-07         0.48112E-12         0.00000E+00
    0.19035E-07         0.53700E-12         0.00000E+00
    0.19059E-07         0.58332E-12         0.00000E+00
    0.19079E-07         0.61288E-12         0.00000E+00
    0.19095E-07         0.61498E-12         0.00000E+00
    0.19107E-07         0.57307E-12         0.00000E+00
    0.19114E-07         0.45487E-12         0.00000E+00
    0.19118E-07         0.18559E-12         0.00000E+00
    0.11050E-07         0.18314E-12         0.00000E+00
    0.11053E-07         0.45626E-12         0.00000E+00
    0.11059E-07         0.58628E-12         0.00000E+00
    0.11069E-07         0.63804E-12         0.00000E+00
    0.11083E-07         0.64373E-12         0.00000E+00
    0.11100E-07         0.62058E-12         0.00000E+00
    0.11120E-07         0.57972E-12         0.00000E+00
    0.11145E-07         0.52866E-12         0.00000E+00
    0.11173E-07         0.47255E-12         0.00000E+00
    0.11204E-07         0.41483E-12         0.00000E+00
    0.11240E-07         0.35776E-12         0.00000E+00
    0.11278E-07         0.30274E-12         0.00000E+00
    0.11321E-07         0.25053E-12         0.00000E+00
    0.11367E-07         0.20153E-12         0.00000E+00
    0.11416E-07         0.15582E-12         0.00000E+00
    0.11469E-07         0.11334E-12         0.00000E+00
    0.11526E-07         0.73916E-13         0.00000E+00
    0.11585E-07         0.37319E-13         0.00000E+00
    0.11648E-07         0.33058E-14         0.00000E+00
    0.11715E-07        -0.28369E-13         0.00000E+00
    0.11784E-07        -0.57940E-13         0.00000E+00
    0.11857E-07        -0.85621E-13         0.00000E+00
    0.11933E-07        -0.11160E-12         0.00000E+00
    0.12012E-07        -0.13606E-12         0.00000E+00
    0.12093E-07        -0.15914E-12         0.00000E+00
    0.12178E-07        -0.18097E-12         0.00000E+00
    0.12265E-07        -0.20165E-12         0.00000E+00
    0.12355E-07        -0.22130E-12         0.00000E+00
    0.12448E-07        -0.23997E-12         0.00000E+00
    0.12544E-07        -0.25775E-12         0.00000E+00
    0.12642E-07        -0.27469E-12         0.00000E+00
    0.12742E-07        -0.29084E-12         0.00000E+00
    0.12845E-07        -0.30624E-12         0.00000E+00
    0.12949E-07        -0.32093E-12         0.00000E+00
    0.13057E-07        -0.33493E-12         0.00000E+00
    0.13166E-07        -0.34828E-12         0.00000E+00
    0.13277E-07        -0.36098E-12         0.00000E+00
    0.13390E-07        -0.37305E-12         0.00000E+00
    0.13504E-07        -0.38452E-12         0.00000E+00
    0.13621E-07        -0.39538E-12         0.00000E+00
    0.13739E-07        -0.40564E-12         0.00000E+00
    0.13858E-07        -0.41530E-12         0.00000E+00
    0.13979E-07        -0.42437E-12         0.00000E+00
    0.14101E-07        -0.43283E-12         0.00000E+00
    0.14224E-07        -0.44070E-12         0.00000E+00
    0.14348E-07        -0.44796E-12         0.00000E+00
    0.14473E-07        -0.45459E-12         0.00000E+00
    0.14598E-07        -0.46060E-12         0.00000E+00
    0.14725E-07        -0.46597E-12         0.00000E+00
    0.14852E-07        -0.47068E-12         0.00000E+00
    0.14979E-07        -0.47472E-12         0.00000E+00
    0.15106E-07        -0.47808E-12         0.00000E+00
    0.15234E-07        -0.48072E-12         0.00000E+00
    0.15362E-07        -0.48264E-12         0.00000E+00
    0.15489E-07        -0.48380E-12         0.00000E+00
    0.15617E-07        -0.48419E-12         0.00000E+00
    0.15744E-07        -0.48378E-12         0.00000E+00
    0.15870E-07        -0.48255E-12         0.00000E+00
    0.15996E-07        -0.48046E-12         0.00000E+00
    0.16121E-07        -0.47749E-12         0.00000E+00
    0.16245E-07        -0.47360E-12         0.00000E+00
    0.16369E-07        -0.46876E-12         0.00000E+00
    0.16491E-07        -0.46294E-12         0.00000E+00
    0.16611E-07        -0.45610E-12         0.00000E+00
    0.16731E-07        -0.44820E-12         0.00000E+00
    0.16848E-07        -0.43919E-12         0.00000E+00
    0.16964E-07        -0.42904E-12         0.00000E+00
    0.17079E-07        -0.41770E-12         0.00000E+00
    0.17191E-07        -0.40510E-12         0.00000E+00
    0.17301E-07        -0.39120E-12         0.00000E+00
    0.17409E-07        -0.37593E-12         0.00000E+00
    0.17515E-07        -0.35923E-12         0.00000E+00
    0.17618E-07        -0.34100E-12         0.00000E+00
    0.17719E-07        -0.32118E-12         0.00000E+00
    0.17817E-07        -0.29965E-12         0.00000E+00
    0.17912E-07        -0.27631E-12         0.00000E+00
    0.18005E-07        -0.25102E-12         0.00000E+00
    0.18094E-07        -0.22363E-12         0.00000E+00
    0.18180E-07        -0.19398E-12         0.00000E+00
    0.18263E-07        -0.16187E-12         0.00000E+00
    0.18343E-07        -0.12708E-12         0.00000E+00
    0.18419E-07        -0.89378E-13         0.00000E+00
    0.18492E-07        -0.48496E-13         0.00000E+00
    0.18561E-07        -0.41640E-14         0.00000E+00
    0.18626E-07         0.43891E-13         0.00000E+00
    0.18688E-07         0.95915E-13         0.00000E+00
    0.18745E-07         0.15209E-12         0.00000E+00
    0.18799E-07         0.21248E-12         0.00000E+00
    0.18849E-07         0.27695E-12         0.00000E+00
    0.18894E-07         0.34504E-12         0.00000E+00
    0.18936E-07         0.41583E-12         0.00000E+00
    0.18973E-07         0.48769E-12         0.00000E+00
    0.19006E-07         0.55798E-12         0.00000E+00
    0.19035E-07         0.62269E-12         0.00000E+00
    0.19059E-07         0.67588E-12         0.00000E+00
    0.19079E-07         0.70886E-12         0.00000E+00
    0.19095E-07         0.70885E-12         0.00000E+00
    0.19107E-07         0.65607E-12         0.00000E+00
    0.19114E-07         0.51355E-12         0.00000E+00
    0.19118E-07         0.20683E-12         0.00000E+00
    0.11050E-07         0.20014E-12         0.00000E+00
    0.11053E-07         0.50396E-12         0.00000E+00
    0.11059E-07         0.65526E-12         0.00000E+00
    0.11069E-07         0.71756E-12         0.00000E+00
    0.11083E-07         0.72626E-12         0.00000E+00
    0.11100E-07         0.70129E-12         0.00000E+00
    0.11120E-07         0.65556E-12         0.00000E+00
    0.11145E-07         0.59788E-12         0.00000E+00
    0.11173E-07         0.53424E-12         0.00000E+00
    0.11204E-07         0.46871E-12         0.00000E+00
    0.11240E-07         0.40390E-12         0.00000E+00
    0.11278E-07         0.34143E-12         0.00000E+00
    0.11321E-07         0.28221E-12         0.00000E+00
    0.11367E-07         0.22667E-12         0.00000E+00
    0.11416E-07         0.17491E-12         0.00000E+00
    0.11469E-07         0.12686E-12         0.00000E+00
    0.11526E-07         0.82315E-13         0.00000E+00
    0.11585E-07         0.41001E-13         0.00000E+00
    0.11648E-07         0.26358E-14         0.00000E+00
    0.11715E-07        -0.33066E-13         0.00000E+00
    0.11784E-07        -0.66376E-13         0.00000E+00
    0.11857E-07        -0.97542E-13         0.00000E+00
    0.11933E-07        -0.12679E-12         0.00000E+00
    0.12012E-07        -0.15431E-12         0.00000E+00
    0.12093E-07        -0.18027E-12         0.00000E+00
    0.12178E-07        -0.20482E-12         0.00000E+00
    0.12265E-07        -0.22809E-12         0.00000E+00
    0.12355E-07        -0.25019E-12         0.00000E+00
    0.12448E-07        -0.27120E-12         0.00000E+00
    0.12544E-07        -0.29120E-12         0.00000E+00
    0.12642E-07        -0.31027E-12         0.00000E+00
    0.12742E-07        -0.32844E-12         0.00000E+00
    0.12845E-07        -0.34578E-12         0.00000E+00
    0.12949E-07        -0.36231E-12         0.00000E+00
    0.13057E-07        -0.37808E-12         0.00000E+00
    0.13166E-07        -0.39310E-12         0.00000E+00
    0.13277E-07        -0.40741E-12         0.00000E+00
    0.13390E-07        -0.42101E-12         0.00000E+00
    0.13504E-07        -0.43393E-12         0.00000E+00
    0.13621E-07        -0.44616E-12         0.00000E+00
    0.13739E-07        -0.45773E-12         0.00000E+00
    0.13858E-07        -0.46862E-12         0.00000E+00
    0.13979E-07        -0.47884E-12         0.00000E+00
    0.14101E-07        -0.48839E-12         0.00000E+00
    0.14224E-07        -0.49726E-12         0.00000E+00
    0.14348E-07        -0.50544E-12         0.00000E+00
    0.14473E-07        -0.51293E-12         0.00000E+00
    0.14598E-07        -0.51971E-12         0.00000E+00
    0.14725E-07        -0.52577E-12         0.00000E+00
    0.14852E-07        -0.53109E-12         0.00000E+00
    0.14979E-07        -0.53565E-12         0.00000E+00
    0.15106E-07        -0.53944E-12         0.00000E+00
    0.15234E-07        -0.54243E-12         0.00000E+00
    0.15362E-07        -0.54461E-12         0.00000E+00
    0.15489E-07        -0.54593E-12         0.00000E+00
    0.15617E-07        -0.54639E-12         0.00000E+00
    0.15744E-07        -0.54595E-12         0.00000E+00
    0.15870E-07        -0.54457E-12         0.00000E+00
    0.15996E-07        -0.54224E-12         0.00000E+00
    0.16121E-07        -0.53890E-12         0.00000E+00
    0.16245E-07        -0.53454E-12         0.00000E+00
    0.16369E-07        -0.52911E-12         0.00000E+00
    0.16491E-07        -0.52257E-12         0.00000E+00
    0.16611E-07        -0.51489E-12         0.00000E+00
    0.16731E-07        -0.50601E-12         0.00000E+00
    0.16848E-07        -0.49589E-12         0.00000E+00
    0.16964E-07        -0.48448E-12         0.00000E+00
    0.17079E-07        -0.47172E-12         0.00000E+00
    0.17191E-07        -0.45756E-12         0.00000E+00
    0.17301E-07        -0.44194E-12         0.00000E+00
    0.17409E-07        -0.42477E-12         0.00000E+00
    0.17515E-07        -0.40599E-12         0.00000E+00
    0.17618E-07        -0.38550E-12         0.00000E+00
    0.17719E-07        -0.36321E-12         0.00000E+00
    0.17817E-07        -0.33900E-12         0.00000E+00
    0.17912E-07        -0.31274E-12         0.00000E+00
    0.18005E-07        -0.28429E-12         0.00000E+00
    0.18094E-07        -0.25347E-12         0.00000E+00
    0.18180E-07        -0.22009E-12         0.00000E+00
    0.18263E-07        -0.18393E-12         0.00000E+00
    0.18343E-07        -0.14473E-12         0.00000E+00
    0.18419E-07        -0.10222E-12         0.00000E+00
    0.18492E-07        -0.56099E-13         0.00000E+00
    0.18561E-07        -0.60378E-14         0.00000E+00
    0.18626E-07         0.48276E-13         0.00000E+00
    0.18688E-07         0.10713E-12         0.00000E+00
    0.18745E-07         0.17075E-12         0.00000E+00
    0.18799E-07         0.23920E-12         0.00000E+00
    0.18849E-07         0.31234E-12         0.00000E+00
    0.18894E-07         0.38965E-12         0.00000E+00
    0.18936E-07         0.47005E-12         0.00000E+00
    0.18973E-07         0.55164E-12         0.00000E+00
    0.19006E-07         0.63136E-12         0.00000E+00
    0.19035E-07         0.70450E-12         0.00000E+00
    0.19059E-07         0.76411E-12         0.00000E+00
    0.19079E-07         0.80002E-12         0.00000E+00
    0.19095E-07         0.79739E-12         0.00000E+00
    0.19107E-07         0.73329E-12         0.00000E+00
    0.19114E-07         0.56710E-12         0.00000E+00
    0.19118E-07         0.22592E-12         0.00000E+00
    0.11050E-07         0.21556E-12         0.00000E+00
    0.11053E-07         0.54767E-12         0.00000E+00
    0.11059E-07         0.71939E-12         0.00000E+00
    0.11069E-07         0.79237E-12         0.00000E+00
    0.11083E-07         0.80439E-12         0.00000E+00
    0.11100E-07         0.77793E-12         0.00000E+00
    0.11120E-07         0.72767E-12         0.00000E+00
    0.11145E-07         0.66367E-12         0.00000E+00
    0.11173E-07         0.59284E-12         0.00000E+00
    0.11204E-07         0.51980E-12         0.00000E+00
    0.11239E-07         0.44755E-12         0.00000E+00
    0.11278E-07         0.37793E-12         0.00000E+00
    0.11321E-07         0.31199E-12         0.00000E+00
    0.11367E-07         0.25020E-12         0.00000E+00
    0.11416E-07         0.19269E-12         0.00000E+00
    0.11469E-07         0.13934E-12         0.00000E+00
    0.11526E-07         0.89929E-13         0.00000E+00
    0.11585E-07         0.44150E-13         0.00000E+00
    0.11648E-07         0.16735E-14         0.00000E+00
    0.11715E-07        -0.37826E-13         0.00000E+00
    0.11784E-07        -0.74656E-13         0.00000E+00
    0.11857E-07        -0.10910E-12         0.00000E+00
    0.11933E-07        -0.14141E-12         0.00000E+00
    0.12012E-07        -0.17180E-12         0.00000E+00
    0.12093E-07        -0.20047E-12         0.00000E+00
    0.12178E-07        -0.22759E-12         0.00000E+00
    0.12265E-07        -0.25328E-12         0.00000E+00
    0.12355E-07        -0.27768E-12         0.00000E+00
    0.12448E-07        -0.30089E-12         0.00000E+00
    0.12544E-07        -0.32298E-12         0.00000E+00
    0.12642E-07        -0.34403E-12         0.00000E+00
    0.12742E-07        -0.36411E-12         0.00000E+00
    0.12845E-07        -0.38327E-12         0.00000E+00
    0.12949E-07        -0.40154E-12         0.00000E+00
    0.13057E-07        -0.41896E-12         0.00000E+00
    0.13166E-07        -0.43557E-12         0.00000E+00
    0.13277E-07        -0.45139E-12         0.00000E+00
    0.13390E-07        -0.46643E-12         0.00000E+00
    0.13504E-07        -0.48071E-12         0.00000E+00
    0.13621E-07        -0.49425E-12         0.00000E+00
    0.13739E-07        -0.50704E-12         0.00000E+00
    0.13858E-07        -0.51909E-12         0.00000E+00
    0.13979E-07        -0.53040E-12         0.00000E+00
    0.14101E-07        -0.54097E-12         0.00000E+00
    0.14224E-07        -0.55078E-12         0.00000E+00
    0.14348E-07        -0.55984E-12         0.00000E+00
    0.14473E-07        -0.56814E-12         0.00000E+00
    0.14598E-07        -0.57565E-12         0.00000E+00
    0.14725E-07        -0.58236E-12         0.00000E+00
    0.14852E-07        -0.58826E-12         0.00000E+00
    0.14979E-07        -0.59332E-12         0.00000E+00
    0.15106E-07        -0.59753E-12         0.00000E+00
    0.15234E-07        -0.60085E-12         0.00000E+00
    0.15362E-07        -0.60327E-12         0.00000E+00
    0.15489E-07        -0.60476E-12         0.00000E+00
    0.15617E-07        -0.60528E-12         0.00000E+00
    0.15744E-07        -0.60480E-12         0.00000E+00
    0.15870E-07        -0.60330E-12         0.00000E+00
    0.15996E-07        -0.60074E-12         0.00000E+00
    0.16121E-07        -0.59707E-12         0.00000E+00
    0.16245E-07        -0.59227E-12         0.00000E+00
    0.16369E-07        -0.58629E-12         0.00000E+00
    0.16491E-07        -0.57908E-12         0.00000E+00
    0.16611E-07        -0.57060E-12         0.00000E+00
    0.16731E-07        -0.56081E-12         0.00000E+00
    0.16848E-07        -0.54965E-12         0.00000E+00
    0.16964E-07        -0.53706E-12         0.00000E+00
    0.17079E-07        -0.52298E-12         0.00000E+00
    0.17191E-07        -0.50736E-12         0.00000E+00
    0.17301E-07        -0.49011E-12         0.00000E+00
    0.17409E-07        -0.47117E-12         0.00000E+00
    0.17515E-07        -0.45044E-12         0.00000E+00
    0.17618E-07        -0.42783E-12         0.00000E+00
    0.17719E-07        -0.40322E-12         0.00000E+00
    0.17817E-07        -0.37649E-12         0.00000E+00
    0.17913E-07        -0.34750E-12         0.00000E+00
    0.18005E-07        -0.31608E-12         0.00000E+00
    0.18094E-07        -0.28204E-12         0.00000E+00
    0.18180E-07        -0.24516E-12         0.00000E+00
    0.18263E-07        -0.20519E-12         0.00000E+00
    0.18343E-07        -0.16184E-12         0.00000E+00
    0.18419E-07        -0.11480E-12         0.00000E+00
    0.18492E-07        -0.63712E-13         0.00000E+00
    0.18561E-07        -0.82235E-14         0.00000E+00
    0.18626E-07         0.52033E-13         0.00000E+00
    0.18688E-07         0.11739E-12         0.00000E+00
    0.18745E-07         0.18810E-12         0.00000E+00
    0.18799E-07         0.26427E-12         0.00000E+00
    0.18849E-07         0.34572E-12         0.00000E+00
    0.18894E-07         0.43187E-12         0.00000E+00
    0.18936E-07         0.52150E-12         0.00000E+00
    0.18973E-07         0.61244E-12         0.00000E+00
    0.19006E-07         0.70119E-12         0.00000E+00
    0.19035E-07         0.78236E-12         0.00000E+00
    0.19059E-07         0.84797E-12         0.00000E+00
    0.19079E-07         0.88640E-12         0.00000E+00
    0.19095E-07         0.88071E-12         0.00000E+00
    0.19107E-07         0.80510E-12         0.00000E+00
    0.19114E-07         0.61616E-12         0.00000E+00
    0.19118E-07         0.24323E-12         0.00000E+00
    0.11050E-07         0.22962E-12         0.00000E+00
    0.11053E-07         0.58784E-12         0.00000E+00
    0.11059E-07         0.77899E-12         0.00000E+00
    0.11069E-07         0.86257E-12         0.00000E+00
    0.11083E-07         0.87815E-12         0.00000E+00
    0.11100E-07         0.85048E-12         0.00000E+00
    0.11120E-07         0.79599E-12         0.00000E+00
    0.11145E-07         0.72600E-12         0.00000E+00
    0.11173E-07         0.64828E-12         0.00000E+00
    0.11204E-07         0.56805E-12         0.00000E+00
    0.11239E-07         0.48868E-12         0.00000E+00
    0.11278E-07         0.41223E-12         0.00000E+00
    0.11321E-07         0.33987E-12         0.00000E+00
    0.11367E-07         0.27213E-12         0.00000E+00
    0.11416E-07         0.20914E-12         0.00000E+00
    0.11469E-07         0.15077E-12         0.00000E+00
    0.11526E-07         0.96765E-13         0.00000E+00
    0.11585E-07         0.46774E-13         0.00000E+00
    0.11648E-07         0.42929E-15         0.00000E+00
    0.11715E-07        -0.42637E-13         0.00000E+00
    0.11784E-07        -0.82769E-13         0.00000E+00
    0.11857E-07        -0.12028E-12         0.00000E+00
    0.11933E-07        -0.15546E-12         0.00000E+00
    0.12012E-07        -0.18854E-12         0.00000E+00
    0.12093E-07        -0.21974E-12         0.00000E+00
    0.12178E-07        -0.24925E-12         0.00000E+00
    0.12265E-07        -0.27721E-12         0.00000E+00
    0.12355E-07        -0.30376E-12         0.00000E+00
    0.12448E-07        -0.32902E-12         0.00000E+00
    0.12544E-07        -0.35306E-12         0.00000E+00
    0.12642E-07        -0.37598E-12         0.00000E+00
    0.12742E-07        -0.39784E-12         0.00000E+00
    0.12845E-07        -0.41870E-12         0.00000E+00
    0.12949E-07        -0.43860E-12         0.00000E+00
    0.13057E-07        -0.45758E-12         0.00000E+00
    0.13166E-07        -0.47568E-12         0.00000E+00
    0.13277E-07        -0.49291E-12         0.00000E+00
    0.13390E-07        -0.50930E-12         0.00000E+00
    0.13504E-07        -0.52487E-12         0.00000E+00
    0.13621E-07        -0.53962E-12         0.00000E+00
    0.13739E-07        -0.55357E-12         0.00000E+00
    0.13858E-07        -0.56671E-12         0.00000E+00
    0.13979E-07        -0.57904E-12         0.00000E+00
    0.14101E-07        -0.59057E-12         0.00000E+00
    0.14224E-07        -0.60128E-12         0.00000E+00
    0.14348E-07        -0.61117E-12         0.00000E+00
    0.14473E-07        -0.62022E-12         0.00000E+00
    0.14598E-07        -0.62842E-12         0.00000E+00
    0.14725E-07        -0.63575E-12         0.00000E+00
    0.14852E-07        -0.64219E-12         0.00000E+00
    0.14979E-07        -0.64773E-12         0.00000E+00
    0.15106E-07        -0.65233E-12         0.00000E+00
    0.15234E-07        -0.65597E-12         0.00000E+00
    0.15362E-07        -0.65862E-12         0.00000E+00
    0.15489E-07        -0.66026E-12         0.00000E+00
    0.15617E-07        -0.66085E-12         0.00000E+00
    0.15744E-07        -0.66035E-12         0.00000E+00
    0.15870E-07        -0.65873E-12         0.00000E+00
    0.15996E-07        -0.65596E-12         0.00000E+00
    0.16121E-07        -0.65199E-12         0.00000E+00
    0.16245E-07        -0.64678E-12         0.00000E+00
    0.16369E-07        -0.64028E-12         0.00000E+00
    0.16491E-07        -0.63245E-12         0.00000E+00
    0.16611E-07        -0.62324E-12         0.00000E+00
    0.16731E-07        -0.61259E-12         0.00000E+00
    0.16848E-07        -0.60045E-12         0.00000E+00
    0.16964E-07        -0.58677E-12         0.00000E+00
    0.17079E-07        -0.57146E-12         0.00000E+00
    0.17191E-07        -0.55447E-12         0.00000E+00
    0.17301E-07        -0.53571E-12         0.00000E+00
    0.17409E-07        -0.51511E-12         0.00000E+00
    0.17515E-07        -0.49257E-12         0.00000E+00
    0.17618E-07        -0.46797E-12         0.00000E+00
    0.17719E-07        -0.44120E-12         0.00000E+00
    0.17817E-07        -0.41213E-12         0.00000E+00
    0.17913E-07        -0.38059E-12         0.00000E+00
    0.18005E-07        -0.34639E-12         0.00000E+00
    0.18094E-07        -0.30934E-12         0.00000E+00
    0.18180E-07        -0.26918E-12         0.00000E+00
    0.18263E-07        -0.22563E-12         0.00000E+00
    0.18343E-07        -0.17838E-12         0.00000E+00
    0.18419E-07        -0.12708E-12         0.00000E+00
    0.18492E-07        -0.71322E-13         0.00000E+00
    0.18561E-07        -0.10712E-13         0.00000E+00
    0.18626E-07         0.55166E-13         0.00000E+00
    0.18688E-07         0.12669E-12         0.00000E+00
    0.18745E-07         0.20415E-12         0.00000E+00
    0.18799E-07         0.28766E-12         0.00000E+00
    0.18849E-07         0.37705E-12         0.00000E+00
    0.18894E-07         0.47166E-12         0.00000E+00
    0.18936E-07         0.57013E-12         0.00000E+00
    0.18973E-07         0.67003E-12         0.00000E+00
    0.19006E-07         0.76741E-12         0.00000E+00
    0.19035E-07         0.85622E-12         0.00000E+00
    0.19059E-07         0.92745E-12         0.00000E+00
    0.19079E-07         0.96801E-12         0.00000E+00
    0.19095E-07         0.95898E-12         0.00000E+00
    0.19107E-07         0.87186E-12         0.00000E+00
    0.19114E-07         0.66125E-12         0.00000E+00
    0.19118E-07         0.25902E-12         0.00000E+00
    0.11050E-07         0.24251E-12         0.00000E+00
    0.11053E-07         0.62484E-12         0.00000E+00
    0.11059E-07         0.83435E-12         0.00000E+00
    0.11069E-07         0.92833E-12         0.00000E+00
    0.11083E-07         0.94759E-12         0.00000E+00
    0.11100E-07         0.91894E-12         0.00000E+00
    0.11120E-07         0.86050E-12         0.00000E+00
    0.11145E-07         0.78482E-12         0.00000E+00
    0.11173E-07         0.70053E-12         0.00000E+00
    0.11204E-07         0.61343E-12         0.00000E+00
    0.11239E-07         0.52725E-12         0.00000E+00
    0.11278E-07         0.44430E-12         0.00000E+00
    0.11321E-07         0.36583E-12         0.00000E+00
    0.11367E-07         0.29244E-12         0.00000E+00
    0.11416E-07         0.22426E-12         0.00000E+00
    0.11469E-07         0.16116E-12         0.00000E+00
    0.11526E-07         0.10283E-12         0.00000E+00
    0.11585E-07         0.48885E-13         0.00000E+00
    0.11648E-07        -0.10854E-14         0.00000E+00
    0.11715E-07        -0.47487E-13         0.00000E+00
    0.11784E-07        -0.90702E-13         0.00000E+00
    0.11857E-07        -0.13108E-12         0.00000E+00
    0.11933E-07        -0.16892E-12         0.00000E+00
    0.12011E-07        -0.20451E-12         0.00000E+00
    0.12093E-07        -0.23807E-12         0.00000E+00
    0.12178E-07        -0.26980E-12         0.00000E+00
    0.12265E-07        -0.29987E-12         0.00000E+00
    0.12355E-07        -0.32843E-12         0.00000E+00
    0.12448E-07        -0.35558E-12         0.00000E+00
    0.12544E-07        -0.38145E-12         0.00000E+00
    0.12642E-07        -0.40611E-12         0.00000E+00
    0.12742E-07        -0.42963E-12         0.00000E+00
    0.12845E-07        -0.45207E-12         0.00000E+00
    0.12949E-07        -0.47349E-12         0.00000E+00
    0.13057E-07        -0.49393E-12         0.00000E+00
    0.13166E-07        -0.51341E-12         0.00000E+00
    0.13277E-07        -0.53196E-12         0.00000E+00
    0.13390E-07        -0.54962E-12         0.00000E+00
    0.13504E-07        -0.56639E-12         0.00000E+00
    0.13621E-07        -0.58228E-12         0.00000E+00
    0.13739E-07        -0.59730E-12         0.00000E+00
    0.13858E-07        -0.61146E-12         0.00000E+00
    0.13979E-07        -0.62476E-12         0.00000E+00
    0.14101E-07        -0.63719E-12         0.00000E+00
    0.14224E-07        -0.64873E-12         0.00000E+00
    0.14348E-07        -0.65940E-12         0.00000E+00
    0.14473E-07        -0.66916E-12         0.00000E+00
    0.14598E-07        -0.67801E-12         0.00000E+00
    0.14725E-07        -0.68592E-12         0.00000E+00
    0.14852E-07        -0.69288E-12         0.00000E+00
    0.14979E-07        -0.69886E-12         0.00000E+00
    0.15106E-07        -0.70383E-12         0.00000E+00
    0.15234E-07        -0.70777E-12         0.00000E+00
    0.15362E-07        -0.71065E-12         0.00000E+00
    0.15489E-07        -0.71244E-12         0.00000E+00
    0.15617E-07        -0.71309E-12         0.00000E+00
    0.15744E-07        -0.71258E-12         0.00000E+00
    0.15870E-07        -0.71086E-12         0.00000E+00
    0.15996E-07        -0.70789E-12         0.00000E+00
    0.16121E-07        -0.70364E-12         0.00000E+00
    0.16245E-07        -0.69805E-12         0.00000E+00
    0.16369E-07        -0.69108E-12         0.00000E+00
    0.16491E-07        -0.68267E-12         0.00000E+00
    0.16611E-07        -0.67278E-12         0.00000E+00
    0.16731E-07        -0.66134E-12         0.00000E+00
    0.16848E-07        -0.64830E-12         0.00000E+00
    0.16964E-07        -0.63360E-12         0.00000E+00
    0.17079E-07        -0.61715E-12         0.00000E+00
    0.17191E-07        -0.59889E-12         0.00000E+00
    0.17301E-07        -0.57873E-12         0.00000E+00
    0.17409E-07        -0.55659E-12         0.00000E+00
    0.17515E-07        -0.53235E-12         0.00000E+00
    0.17618E-07        -0.50592E-12         0.00000E+00
    0.17719E-07        -0.47714E-12         0.00000E+00
    0.17817E-07        -0.44589E-12         0.00000E+00
    0.17913E-07        -0.41197E-12         0.00000E+00
    0.18005E-07        -0.37520E-12         0.00000E+00
    0.18094E-07        -0.33534E-12         0.00000E+00
    0.18180E-07        -0.29212E-12         0.00000E+00
    0.18263E-07        -0.24524E-12         0.00000E+00
    0.18343E-07        -0.19435E-12         0.00000E+00
    0.18419E-07        -0.13905E-12         0.00000E+00
    0.18492E-07        -0.78918E-13         0.00000E+00
    0.18561E-07        -0.13493E-13         0.00000E+00
    0.18626E-07         0.57682E-13         0.00000E+00
    0.18688E-07         0.13503E-12         0.00000E+00
    0.18745E-07         0.21888E-12         0.00000E+00
    0.18799E-07         0.30937E-12         0.00000E+00
    0.18849E-07         0.40630E-12         0.00000E+00
    0.18894E-07         0.50898E-12         0.00000E+00
    0.18936E-07         0.61589E-12         0.00000E+00
    0.18973E-07         0.72435E-12         0.00000E+00
    0.19006E-07         0.82997E-12         0.00000E+00
    0.19035E-07         0.92603E-12         0.00000E+00
    0.19059E-07         0.10025E-11         0.00000E+00
    0.19079E-07         0.10449E-11         0.00000E+00
    0.19095E-07         0.10323E-11         0.00000E+00
    0.19107E-07         0.93392E-12         0.00000E+00
    0.19114E-07         0.70281E-12         0.00000E+00
    0.19117E-07         0.27350E-12         0.00000E+00
    0.11051E-07         0.25438E-12         0.00000E+00
    0.11053E-07         0.65899E-12         0.00000E+00
    0.11059E-07         0.88575E-12         0.00000E+00
    0.11069E-07         0.98977E-12         0.00000E+00
    0.11083E-07         0.10127E-11         0.00000E+00
    0.11100E-07         0.98329E-12         0.00000E+00
    0.11120E-07         0.92116E-12         0.00000E+00
    0.11145E-07         0.84008E-12         0.00000E+00
    0.11173E-07         0.74954E-12         0.00000E+00
    0.11204E-07         0.65590E-12         0.00000E+00
    0.11239E-07         0.56325E-12         0.00000E+00
    0.11278E-07         0.47411E-12         0.00000E+00
    0.11321E-07         0.38986E-12         0.00000E+00
    0.11367E-07         0.31113E-12         0.00000E+00
    0.11416E-07         0.23807E-12         0.00000E+00
    0.11469E-07         0.17052E-12         0.00000E+00
    0.11526E-07         0.10813E-12         0.00000E+00
    0.11585E-07         0.50491E-13         0.00000E+00
    0.11648E-07        -0.28584E-14         0.00000E+00
    0.11715E-07        -0.52363E-13         0.00000E+00
    0.11784E-07        -0.98441E-13         0.00000E+00
    0.11857E-07        -0.14147E-12         0.00000E+00
    0.11933E-07        -0.18179E-12         0.00000E+00
    0.12011E-07        -0.21970E-12         0.00000E+00
    0.12093E-07        -0.25544E-12         0.00000E+00
    0.12178E-07        -0.28922E-12         0.00000E+00
    0.12265E-07        -0.32125E-12         0.00000E+00
    0.12355E-07        -0.35166E-12         0.00000E+00
    0.12448E-07        -0.38058E-12         0.00000E+00
    0.12544E-07        -0.40813E-12         0.00000E+00
    0.12642E-07        -0.43440E-12         0.00000E+00
    0.12742E-07        -0.45946E-12         0.00000E+00
    0.12845E-07        -0.48338E-12         0.00000E+00
    0.12949E-07        -0.50621E-12         0.00000E+00
    0.13057E-07        -0.52799E-12         0.00000E+00
    0.13166E-07        -0.54876E-12         0.00000E+00
    0.13277E-07        -0.56855E-12         0.00000E+00
    0.13390E-07        -0.58737E-12         0.00000E+00
    0.13504E-07        -0.60526E-12         0.00000E+00
    0.13621E-07        -0.62222E-12         0.00000E+00
    0.13739E-07        -0.63825E-12         0.00000E+00
    0.13858E-07        -0.65336E-12         0.00000E+00
    0.13979E-07        -0.66755E-12         0.00000E+00
    0.14101E-07        -0.68081E-12         0.00000E+00
    0.14224E-07        -0.69315E-12         0.00000E+00
    0.14348E-07        -0.70453E-12         0.00000E+00
    0.14473E-07        -0.71496E-12         0.00000E+00
    0.14598E-07        -0.72442E-12         0.00000E+00
    0.14725E-07        -0.73287E-12         0.00000E+00
    0.14852E-07        -0.74031E-12         0.00000E+00
    0.14979E-07        -0.74671E-12         0.00000E+00
    0.15106E-07        -0.75204E-12         0.00000E+00
    0.15234E-07        -0.75626E-12         0.00000E+00
    0.15362E-07        -0.75935E-12         0.00000E+00
    0.15489E-07        -0.76128E-12         0.00000E+00
    0.15617E-07        -0.76200E-12         0.00000E+00
    0.15744E-07        -0.76147E-12         0.00000E+00
    0.15870E-07        -0.75967E-12         0.00000E+00
    0.15996E-07        -0.75653E-12         0.00000E+00
    0.16121E-07        -0.75202E-12         0.00000E+00
    0.16245E-07        -0.74608E-12         0.00000E+00
    0.16369E-07        -0.73868E-12         0.00000E+00
    0.16491E-07        -0.72974E-12         0.00000E+00
    0.16611E-07        -0.71922E-12         0.00000E+00
    0.16731E-07        -0.70706E-12         0.00000E+00
    0.16848E-07        -0.69318E-12         0.00000E+00
    0.16964E-07        -0.67753E-12         0.00000E+00
    0.17079E-07        -0.66003E-12         0.00000E+00
    0.17191E-07        -0.64060E-12         0.00000E+00
    0.17301E-07        -0.61915E-12         0.00000E+00
    0.17409E-07        -0.59558E-12         0.00000E+00
    0.17515E-07        -0.56979E-12         0.00000E+00
    0.17618E-07        -0.54165E-12         0.00000E+00
    0.17719E-07        -0.51102E-12         0.00000E+00
    0.17817E-07        -0.47775E-12         0.00000E+00
    0.17913E-07        -0.44164E-12         0.00000E+00
    0.18005E-07        -0.40248E-12         0.00000E+00
    0.18094E-07        -0.36002E-12         0.00000E+00
    0.18180E-07        -0.31397E-12         0.00000E+00
    0.18263E-07        -0.26400E-12         0.00000E+00
    0.18343E-07        -0.20972E-12         0.00000E+00
    0.18419E-07        -0.15070E-12         0.00000E+00
    0.18492E-07        -0.86482E-13         0.00000E+00
    0.18561E-07        -0.16554E-13         0.00000E+00
    0.18626E-07         0.59588E-13         0.00000E+00
    0.18688E-07         0.14241E-12         0.00000E+00
    0.18745E-07         0.23229E-12         0.00000E+00
    0.18799E-07         0.32937E-12         0.00000E+00
    0.18849E-07         0.43346E-12         0.00000E+00
    0.18894E-07         0.54380E-12         0.00000E+00
    0.18936E-07         0.65874E-12         0.00000E+00
    0.18973E-07         0.77534E-12         0.00000E+00
    0.19006E-07         0.88881E-12         0.00000E+00
    0.19035E-07         0.99174E-12         0.00000E+00
    0.19059E-07         0.10731E-11         0.00000E+00
    0.19079E-07         0.11171E-11         0.00000E+00
    0.19095E-07         0.11009E-11         0.00000E+00
    0.19107E-07         0.99157E-12         0.00000E+00
    0.19114E-07         0.74120E-12         0.00000E+00
    0.19117E-07         0.28685E-12         0.00000E+00
    0.11051E-07         0.26534E-12         0.00000E+00
    0.11053E-07         0.69056E-12         0.00000E+00
    0.11059E-07         0.93342E-12         0.00000E+00
    0.11069E-07         0.10470E-11         0.00000E+00
    0.11083E-07         0.10736E-11         0.00000E+00
    0.11100E-07         0.10435E-11         0.00000E+00
    0.11120E-07         0.97793E-12         0.00000E+00
    0.11145E-07         0.89175E-12         0.00000E+00
    0.11173E-07         0.79527E-12         0.00000E+00
    0.11204E-07         0.69542E-12         0.00000E+00
    0.11239E-07         0.59664E-12         0.00000E+00
    0.11278E-07         0.50165E-12         0.00000E+00
    0.11321E-07         0.41194E-12         0.00000E+00
    0.11367E-07         0.32820E-12         0.00000E+00
    0.11416E-07         0.25056E-12         0.00000E+00
    0.11469E-07         0.17885E-12         0.00000E+00
    0.11526E-07         0.11268E-12         0.00000E+00
    0.11585E-07         0.51606E-13         0.00000E+00
    0.11648E-07        -0.48761E-14         0.00000E+00
    0.11715E-07        -0.57251E-13         0.00000E+00
    0.11784E-07        -0.10597E-12         0.00000E+00
    0.11857E-07        -0.15145E-12         0.00000E+00
    0.11933E-07        -0.19405E-12         0.00000E+00
    0.12011E-07        -0.23409E-12         0.00000E+00
    0.12093E-07        -0.27183E-12         0.00000E+00
    0.12178E-07        -0.30751E-12         0.00000E+00
    0.12265E-07        -0.34133E-12         0.00000E+00
    0.12355E-07        -0.37344E-12         0.00000E+00
    0.12448E-07        -0.40400E-12         0.00000E+00
    0.12544E-07        -0.43310E-12         0.00000E+00
    0.12642E-07        -0.46085E-12         0.00000E+00
    0.12742E-07        -0.48733E-12         0.00000E+00
    0.12845E-07        -0.51261E-12         0.00000E+00
    0.12949E-07        -0.53674E-12         0.00000E+00
    0.13057E-07        -0.55976E-12         0.00000E+00
    0.13166E-07        -0.58172E-12         0.00000E+00
    0.13277E-07        -0.60265E-12         0.00000E+00
    0.13390E-07        -0.62256E-12         0.00000E+00
    0.13504E-07        -0.64148E-12         0.00000E+00
    0.13621E-07        -0.65942E-12         0.00000E+00
    0.13739E-07        -0.67639E-12         0.00000E+00
    0.13858E-07        -0.69238E-12         0.00000E+00
    0.13979E-07        -0.70740E-12         0.00000E+00
    0.14101E-07        -0.72145E-12         0.00000E+00
    0.14224E-07        -0.73451E-12         0.00000E+00
    0.14348E-07        -0.74657E-12         0.00000E+00
    0.14473E-07        -0.75762E-12         0.00000E+00
    0.14598E-07        -0.76763E-12         0.00000E+00
    0.14725E-07        -0.77660E-12         0.00000E+00
    0.14852E-07        -0.78449E-12         0.00000E+00
    0.14979E-07        -0.79128E-12         0.00000E+00
    0.15106E-07        -0.79693E-12         0.00000E+00
    0.15234E-07        -0.80142E-12         0.00000E+00
    0.15362E-07        -0.80472E-12         0.00000E+00
    0.15489E-07        -0.80678E-12         0.00000E+00
    0.15617E-07        -0.80756E-12         0.00000E+00
    0.15744E-07        -0.80704E-12         0.00000E+00
    0.15870E-07        -0.80515E-12         0.00000E+00
    0.15996E-07        -0.80186E-12         0.00000E+00
    0.16121E-07        -0.79712E-12         0.00000E+00
    0.16245E-07        -0.79087E-12         0.00000E+00
    0.16369E-07        -0.78306E-12         0.00000E+00
    0.16491E-07        -0.77364E-12         0.00000E+00
    0.16611E-07        -0.76255E-12         0.00000E+00
    0.16731E-07        -0.74972E-12         0.00000E+00
    0.16848E-07        -0.73508E-12         0.00000E+00
    0.16964E-07        -0.71857E-12         0.00000E+00
    0.17079E-07        -0.70010E-12         0.00000E+00
    0.17191E-07        -0.67960E-12         0.00000E+00
    0.17301E-07        -0.65696E-12         0.00000E+00
    0.17409E-07        -0.63208E-12         0.00000E+00
    0.17515E-07        -0.60486E-12         0.00000E+00
    0.17618E-07        -0.57516E-12         0.00000E+00
    0.17719E-07        -0.54283E-12         0.00000E+00
    0.17817E-07        -0.50770E-12         0.00000E+00
    0.17913E-07        -0.46957E-12         0.00000E+00
    0.18005E-07        -0.42822E-12         0.00000E+00
    0.18094E-07        -0.38337E-12         0.00000E+00
    0.18180E-07        -0.33471E-12         0.00000E+00
    0.18263E-07        -0.28188E-12         0.00000E+00
    0.18343E-07        -0.22447E-12         0.00000E+00
    0.18419E-07        -0.16201E-12         0.00000E+00
    0.18492E-07        -0.94000E-13         0.00000E+00
    0.18561E-07        -0.19881E-13         0.00000E+00
    0.18626E-07         0.60894E-13         0.00000E+00
    0.18688E-07         0.14884E-12         0.00000E+00
    0.18746E-07         0.24437E-12         0.00000E+00
    0.18799E-07         0.34765E-12         0.00000E+00
    0.18849E-07         0.45849E-12         0.00000E+00
    0.18894E-07         0.57608E-12         0.00000E+00
    0.18936E-07         0.69863E-12         0.00000E+00
    0.18973E-07         0.82296E-12         0.00000E+00
    0.19006E-07         0.94387E-12         0.00000E+00
    0.19035E-07         0.10533E-11         0.00000E+00
    0.19059E-07         0.11394E-11         0.00000E+00
    0.19079E-07         0.11847E-11         0.00000E+00
    0.19095E-07         0.11649E-11         0.00000E+00
    0.19107E-07         0.10451E-11         0.00000E+00
    0.19114E-07         0.77672E-12         0.00000E+00
    0.19117E-07         0.29918E-12         0.00000E+00
    0.11051E-07         0.27549E-12         0.00000E+00
    0.11053E-07         0.71976E-12         0.00000E+00
    0.11059E-07         0.97758E-12         0.00000E+00
    0.11069E-07         0.11002E-11         0.00000E+00
    0.11083E-07         0.11303E-11         0.00000E+00
    0.11100E-07         0.10997E-11         0.00000E+00
    0.11120E-07         0.10308E-11         0.00000E+00
    0.11145E-07         0.93978E-12         0.00000E+00
    0.11172E-07         0.83768E-12         0.00000E+00
    0.11204E-07         0.73196E-12         0.00000E+00
    0.11239E-07         0.62740E-12         0.00000E+00
    0.11278E-07         0.52690E-12         0.00000E+00
    0.11321E-07         0.43208E-12         0.00000E+00
    0.11367E-07         0.34364E-12         0.00000E+00
    0.11416E-07         0.26173E-12         0.00000E+00
    0.11469E-07         0.18615E-12         0.00000E+00
    0.11526E-07         0.11649E-12         0.00000E+00
    0.11585E-07         0.52243E-13         0.00000E+00
    0.11648E-07        -0.71242E-14         0.00000E+00
    0.11715E-07        -0.62136E-13         0.00000E+00
    0.11784E-07        -0.11328E-12         0.00000E+00
    0.11857E-07        -0.16100E-12         0.00000E+00
    0.11933E-07        -0.20568E-12         0.00000E+00
    0.12011E-07        -0.24767E-12         0.00000E+00
    0.12093E-07        -0.28724E-12         0.00000E+00
    0.12178E-07        -0.32465E-12         0.00000E+00
    0.12265E-07        -0.36011E-12         0.00000E+00
    0.12355E-07        -0.39378E-12         0.00000E+00
    0.12448E-07        -0.42582E-12         0.00000E+00
    0.12544E-07        -0.45634E-12         0.00000E+00
    0.12642E-07        -0.48545E-12         0.00000E+00
    0.12742E-07        -0.51323E-12         0.00000E+00
    0.12845E-07        -0.53975E-12         0.00000E+00
    0.12949E-07        -0.56507E-12         0.00000E+00
    0.13057E-07        -0.58924E-12         0.00000E+00
    0.13166E-07        -0.61230E-12         0.00000E+00
    0.13277E-07        -0.63427E-12         0.00000E+00
    0.13390E-07        -0.65518E-12         0.00000E+00
    0.13504E-07        -0.67505E-12         0.00000E+00
    0.13621E-07        -0.69390E-12         0.00000E+00
    0.13739E-07        -0.71172E-12         0.00000E+00
    0.13858E-07        -0.72853E-12         0.00000E+00
    0.13979E-07        -0.74432E-12         0.00000E+00
    0.14101E-07        -0.75908E-12         0.00000E+00
    0.14224E-07        -0.77281E-12         0.00000E+00
    0.14348E-07        -0.78549E-12         0.00000E+00
    0.14473E-07        -0.79712E-12         0.00000E+00
    0.14598E-07        -0.80766E-12         0.00000E+00
    0.14725E-07        -0.81709E-12         0.00000E+00
    0.14852E-07        -0.82540E-12         0.00000E+00
    0.14979E-07        -0.83255E-12         0.00000E+00
    0.15106E-07        -0.83851E-12         0.00000E+00
    0.15234E-07        -0.84326E-12         0.00000E+00
    0.15362E-07        -0.84674E-12         0.00000E+00
    0.15489E-07        -0.84893E-12         0.00000E+00
    0.15617E-07        -0.84978E-12         0.00000E+00
    0.15744E-07        -0.84925E-12         0.00000E+00
    0.15870E-07        -0.84730E-12         0.00000E+00
    0.15996E-07        -0.84387E-12         0.00000E+00
    0.16121E-07        -0.83892E-12         0.00000E+00
    0.16245E-07        -0.83239E-12         0.00000E+00
    0.16369E-07        -0.82423E-12         0.00000E+00
    0.16491E-07        -0.81437E-12         0.00000E+00
    0.16611E-07        -0.80276E-12         0.00000E+00
    0.16731E-07        -0.78932E-12         0.00000E+00
    0.16848E-07        -0.77399E-12         0.00000E+00
    0.16964E-07        -0.75669E-12         0.00000E+00
    0.17079E-07        -0.73734E-12         0.00000E+00
    0.17191E-07        -0.71586E-12         0.00000E+00
    0.17301E-07        -0.69214E-12         0.00000E+00
    0.17409E-07        -0.66607E-12         0.00000E+00
    0.17515E-07        -0.63755E-12         0.00000E+00
    0.17618E-07        -0.60642E-12         0.00000E+00
    0.17719E-07        -0.57254E-12         0.00000E+00
    0.17817E-07        -0.53572E-12         0.00000E+00
    0.17913E-07        -0.49575E-12         0.00000E+00
    0.18005E-07        -0.45239E-12         0.00000E+00
    0.18094E-07        -0.40536E-12         0.00000E+00
    0.18180E-07        -0.35431E-12         0.00000E+00
    0.18263E-07        -0.29887E-12         0.00000E+00
    0.18343E-07        -0.23859E-12         0.00000E+00
    0.18419E-07        -0.17296E-12         0.00000E+00
    0.18492E-07        -0.10145E-12         0.00000E+00
    0.18561E-07        -0.23461E-13         0.00000E+00
    0.18626E-07         0.61610E-13         0.00000E+00
    0.18688E-07         0.15432E-12         0.00000E+00
    0.18746E-07         0.25512E-12         0.00000E+00
    0.18799E-07         0.36421E-12         0.00000E+00
    0.18849E-07         0.48139E-12         0.00000E+00
    0.18894E-07         0.60579E-12         0.00000E+00
    0.18936E-07         0.73552E-12         0.00000E+00
    0.18973E-07         0.86716E-12         0.00000E+00
    0.19006E-07         0.99512E-12         0.00000E+00
    0.19035E-07         0.11107E-11         0.00000E+00
    0.19059E-07         0.12011E-11         0.00000E+00
    0.19079E-07         0.12477E-11         0.00000E+00
    0.19095E-07         0.12244E-11         0.00000E+00
    0.19107E-07         0.10947E-11         0.00000E+00
    0.19114E-07         0.80962E-12         0.00000E+00
    0.19117E-07         0.31063E-12         0.00000E+00
    0.11051E-07         0.28490E-12         0.00000E+00
    0.11053E-07         0.74677E-12         0.00000E+00
    0.11060E-07         0.10184E-11         0.00000E+00
    0.11069E-07         0.11495E-11         0.00000E+00
    0.11083E-07         0.11829E-11         0.00000E+00
    0.11100E-07         0.11517E-11         0.00000E+00
    0.11120E-07         0.10797E-11         0.00000E+00
    0.11144E-07         0.98413E-12         0.00000E+00
    0.11172E-07         0.87674E-12         0.00000E+00
    0.11204E-07         0.76549E-12         0.00000E+00
    0.11239E-07         0.65549E-12         0.00000E+00
    0.11278E-07         0.54985E-12         0.00000E+00
    0.11321E-07         0.45025E-12         0.00000E+00
    0.11367E-07         0.35745E-12         0.00000E+00
    0.11416E-07         0.27159E-12         0.00000E+00
    0.11469E-07         0.19245E-12         0.00000E+00
    0.11526E-07         0.11957E-12         0.00000E+00
    0.11585E-07         0.52415E-13         0.00000E+00
    0.11648E-07        -0.95870E-14         0.00000E+00
    0.11715E-07        -0.67000E-13         0.00000E+00
    0.11784E-07        -0.12035E-12         0.00000E+00
    0.11857E-07        -0.17010E-12         0.00000E+00
    0.11933E-07        -0.21667E-12         0.00000E+00
    0.12011E-07        -0.26042E-12         0.00000E+00
    0.12093E-07        -0.30165E-12         0.00000E+00
    0.12178E-07        -0.34063E-12         0.00000E+00
    0.12265E-07        -0.37757E-12         0.00000E+00
    0.12355E-07        -0.41265E-12         0.00000E+00
    0.12448E-07        -0.44604E-12         0.00000E+00
    0.12544E-07        -0.47785E-12         0.00000E+00
    0.12642E-07        -0.50819E-12         0.00000E+00
    0.12742E-07        -0.53715E-12         0.00000E+00
    0.12845E-07        -0.56480E-12         0.00000E+00
    0.12949E-07        -0.59121E-12         0.00000E+00
    0.13057E-07        -0.61642E-12         0.00000E+00
    0.13166E-07        -0.64047E-12         0.00000E+00
    0.13277E-07        -0.66339E-12         0.00000E+00
    0.13390E-07        -0.68521E-12         0.00000E+00
    0.13504E-07        -0.70596E-12         0.00000E+00
    0.13621E-07        -0.72563E-12         0.00000E+00
    0.13739E-07        -0.74424E-12         0.00000E+00
    0.13858E-07        -0.76179E-12         0.00000E+00
    0.13979E-07        -0.77828E-12         0.00000E+00
    0.14101E-07        -0.79370E-12         0.00000E+00
    0.14224E-07        -0.80805E-12         0.00000E+00
    0.14348E-07        -0.82130E-12         0.00000E+00
    0.14473E-07        -0.83345E-12         0.00000E+00
    0.14598E-07        -0.84447E-12         0.00000E+00
    0.14725E-07        -0.85434E-12         0.00000E+00
    0.14852E-07        -0.86304E-12         0.00000E+00
    0.14979E-07        -0.87053E-12         0.00000E+00
    0.15106E-07        -0.87677E-12         0.00000E+00
    0.15234E-07        -0.88175E-12         0.00000E+00
    0.15362E-07        -0.88541E-12         0.00000E+00
    0.15489E-07        -0.88772E-12         0.00000E+00
    0.15617E-07        -0.88864E-12         0.00000E+00
    0.15744E-07        -0.88812E-12         0.00000E+00
    0.15870E-07        -0.88611E-12         0.00000E+00
    0.15996E-07        -0.88257E-12         0.00000E+00
    0.16121E-07        -0.87743E-12         0.00000E+00
    0.16245E-07        -0.87065E-12         0.00000E+00
    0.16369E-07        -0.86216E-12         0.00000E+00
    0.16491E-07        -0.85191E-12         0.00000E+00
    0.16611E-07        -0.83983E-12         0.00000E+00
    0.16731E-07        -0.82584E-12         0.00000E+00
    0.16848E-07        -0.80989E-12         0.00000E+00
    0.16964E-07        -0.79188E-12         0.00000E+00
    0.17079E-07        -0.77174E-12         0.00000E+00
    0.17191E-07        -0.74937E-12         0.00000E+00
    0.17301E-07        -0.72467E-12         0.00000E+00
    0.17409E-07        -0.69754E-12         0.00000E+00
    0.17515E-07        -0.66783E-12         0.00000E+00
    0.17618E-07        -0.63542E-12         0.00000E+00
    0.17719E-07        -0.60013E-12         0.00000E+00
    0.17817E-07        -0.56179E-12         0.00000E+00
    0.17913E-07        -0.52016E-12         0.00000E+00
    0.18005E-07        -0.47498E-12         0.00000E+00
    0.18094E-07        -0.42597E-12         0.00000E+00
    0.18180E-07        -0.37276E-12         0.00000E+00
    0.18263E-07        -0.31494E-12         0.00000E+00
    0.18343E-07        -0.25204E-12         0.00000E+00
    0.18419E-07        -0.18353E-12         0.00000E+00
    0.18492E-07        -0.10882E-12         0.00000E+00
    0.18561E-07        -0.27276E-13         0.00000E+00
    0.18626E-07         0.61749E-13         0.00000E+00
    0.18688E-07         0.15886E-12         0.00000E+00
    0.18746E-07         0.26454E-12         0.00000E+00
    0.18799E-07         0.37903E-12         0.00000E+00
    0.18849E-07         0.50212E-12         0.00000E+00
    0.18894E-07         0.63291E-12         0.00000E+00
    0.18936E-07         0.76938E-12         0.00000E+00
    0.18973E-07         0.90790E-12         0.00000E+00
    0.19006E-07         0.10425E-11         0.00000E+00
    0.19035E-07         0.11639E-11         0.00000E+00
    0.19059E-07         0.12584E-11         0.00000E+00
    0.19079E-07         0.13062E-11         0.00000E+00
    0.19095E-07         0.12796E-11         0.00000E+00
    0.19107E-07         0.11407E-11         0.00000E+00
    0.19114E-07         0.84010E-12         0.00000E+00
    0.19117E-07         0.32125E-12         0.00000E+00
    0.11051E-07         0.29363E-12         0.00000E+00
    0.11053E-07         0.77175E-12         0.00000E+00
    0.11060E-07         0.10561E-11         0.00000E+00
    0.11069E-07         0.11949E-11         0.00000E+00
    0.11083E-07         0.12314E-11         0.00000E+00
    0.11100E-07         0.11996E-11         0.00000E+00
    0.11120E-07         0.11247E-11         0.00000E+00
    0.11144E-07         0.10248E-11         0.00000E+00
    0.11172E-07         0.91240E-12         0.00000E+00
    0.11204E-07         0.79598E-12         0.00000E+00
    0.11239E-07         0.68092E-12         0.00000E+00
    0.11278E-07         0.57048E-12         0.00000E+00
    0.11321E-07         0.46646E-12         0.00000E+00
    0.11367E-07         0.36964E-12         0.00000E+00
    0.11416E-07         0.28015E-12         0.00000E+00
    0.11469E-07         0.19774E-12         0.00000E+00
    0.11526E-07         0.12193E-12         0.00000E+00
    0.11585E-07         0.52139E-13         0.00000E+00
    0.11648E-07        -0.12248E-13         0.00000E+00
    0.11715E-07        -0.71828E-13         0.00000E+00
    0.11784E-07        -0.12716E-12         0.00000E+00
    0.11857E-07        -0.17874E-12         0.00000E+00
    0.11933E-07        -0.22700E-12         0.00000E+00
    0.12011E-07        -0.27233E-12         0.00000E+00
    0.12093E-07        -0.31505E-12         0.00000E+00
    0.12178E-07        -0.35543E-12         0.00000E+00
    0.12265E-07        -0.39370E-12         0.00000E+00
    0.12355E-07        -0.43005E-12         0.00000E+00
    0.12448E-07        -0.46464E-12         0.00000E+00
    0.12544E-07        -0.49760E-12         0.00000E+00
    0.12642E-07        -0.52905E-12         0.00000E+00
    0.12742E-07        -0.55907E-12         0.00000E+00
    0.12845E-07        -0.58775E-12         0.00000E+00
    0.12949E-07        -0.61513E-12         0.00000E+00
    0.13057E-07        -0.64128E-12         0.00000E+00
    0.13166E-07        -0.66623E-12         0.00000E+00
    0.13277E-07        -0.69001E-12         0.00000E+00
    0.13390E-07        -0.71266E-12         0.00000E+00
    0.13504E-07        -0.73419E-12         0.00000E+00
    0.13621E-07        -0.75461E-12         0.00000E+00
    0.13739E-07        -0.77393E-12         0.00000E+00
    0.13858E-07        -0.79216E-12         0.00000E+00
    0.13979E-07        -0.80929E-12         0.00000E+00
    0.14101E-07        -0.82531E-12         0.00000E+00
    0.14224E-07        -0.84021E-12         0.00000E+00
    0.14348E-07        -0.85399E-12         0.00000E+00
    0.14473E-07        -0.86662E-12         0.00000E+00
    0.14598E-07        -0.87808E-12         0.00000E+00
    0.14725E-07        -0.88835E-12         0.00000E+00
    0.14852E-07        -0.89740E-12         0.00000E+00
    0.14979E-07        -0.90519E-12         0.00000E+00
    0.15106E-07        -0.91170E-12         0.00000E+00
    0.15234E-07        -0.91689E-12         0.00000E+00
    0.15362E-07        -0.92072E-12         0.00000E+00
    0.15489E-07        -0.92315E-12         0.00000E+00
    0.15617E-07        -0.92413E-12         0.00000E+00
    0.15744E-07        -0.92362E-12         0.00000E+00
    0.15870E-07        -0.92157E-12         0.00000E+00
    0.15996E-07        -0.91792E-12         0.00000E+00
    0.16121E-07        -0.91263E-12         0.00000E+00
    0.16245E-07        -0.90562E-12         0.00000E+00
    0.16369E-07        -0.89685E-12         0.00000E+00
    0.16491E-07        -0.88625E-12         0.00000E+00
    0.16611E-07        -0.87375E-12         0.00000E+00
    0.16731E-07        -0.85928E-12         0.00000E+00
    0.16848E-07        -0.84277E-12         0.00000E+00
    0.16964E-07        -0.82413E-12         0.00000E+00
    0.17079E-07        -0.80328E-12         0.00000E+00
    0.17191E-07        -0.78012E-12         0.00000E+00
    0.17301E-07        -0.75455E-12         0.00000E+00
    0.17409E-07        -0.72645E-12         0.00000E+00
    0.17515E-07        -0.69570E-12         0.00000E+00
    0.17618E-07        -0.66214E-12         0.00000E+00
    0.17719E-07        -0.62560E-12         0.00000E+00
    0.17817E-07        -0.58588E-12         0.00000E+00
    0.17913E-07        -0.54276E-12         0.00000E+00
    0.18005E-07        -0.49597E-12         0.00000E+00
    0.18094E-07        -0.44518E-12         0.00000E+00
    0.18180E-07        -0.39002E-12         0.00000E+00
    0.18263E-07        -0.33007E-12         0.00000E+00
    0.18343E-07        -0.26481E-12         0.00000E+00
    0.18419E-07        -0.19370E-12         0.00000E+00
    0.18492E-07        -0.11609E-12         0.00000E+00
    0.18561E-07        -0.31308E-13         0.00000E+00
    0.18626E-07         0.61325E-13         0.00000E+00
    0.18688E-07         0.16247E-12         0.00000E+00
    0.18746E-07         0.27264E-12         0.00000E+00
    0.18799E-07         0.39211E-12         0.00000E+00
    0.18849E-07         0.52069E-12         0.00000E+00
    0.18894E-07         0.65741E-12         0.00000E+00
    0.18936E-07         0.80017E-12         0.00000E+00
    0.18973E-07         0.94513E-12         0.00000E+00
    0.19006E-07         0.10860E-11         0.00000E+00
    0.19035E-07         0.12129E-11         0.00000E+00
    0.19059E-07         0.13113E-11         0.00000E+00
    0.19079E-07         0.13602E-11         0.00000E+00
    0.19095E-07         0.13306E-11         0.00000E+00
    0.19107E-07         0.11832E-11         0.00000E+00
    0.19114E-07         0.86835E-12         0.00000E+00
    0.19117E-07         0.33114E-12         0.00000E+00
    0.11051E-07         0.30173E-12         0.00000E+00
    0.11054E-07         0.79482E-12         0.00000E+00
    0.11060E-07         0.10907E-11         0.00000E+00
    0.11069E-07         0.12365E-11         0.00000E+00
    0.11083E-07         0.12757E-11         0.00000E+00
    0.11100E-07         0.12433E-11         0.00000E+00
    0.11120E-07         0.11657E-11         0.00000E+00
    0.11144E-07         0.10617E-11         0.00000E+00
    0.11172E-07         0.94465E-12         0.00000E+00
    0.11204E-07         0.82340E-12         0.00000E+00
    0.11239E-07         0.70364E-12         0.00000E+00
    0.11278E-07         0.58879E-12         0.00000E+00
    0.11321E-07         0.48071E-12         0.00000E+00
    0.11367E-07         0.38020E-12         0.00000E+00
    0.11416E-07         0.28741E-12         0.00000E+00
    0.11469E-07         0.20204E-12         0.00000E+00
    0.11526E-07         0.12359E-12         0.00000E+00
    0.11585E-07         0.51431E-13         0.00000E+00
    0.11648E-07        -0.15088E-13         0.00000E+00
    0.11715E-07        -0.76601E-13         0.00000E+00
    0.11784E-07        -0.13369E-12         0.00000E+00
    0.11857E-07        -0.18689E-12         0.00000E+00
    0.11933E-07        -0.23666E-12         0.00000E+00
    0.12011E-07        -0.28339E-12         0.00000E+00
    0.12093E-07        -0.32742E-12         0.00000E+00
    0.12178E-07        -0.36904E-12         0.00000E+00
    0.12265E-07        -0.40848E-12         0.00000E+00
    0.12355E-07        -0.44595E-12         0.00000E+00
    0.12448E-07        -0.48162E-12         0.00000E+00
    0.12544E-07        -0.51561E-12         0.00000E+00
    0.12642E-07        -0.54804E-12         0.00000E+00
    0.12742E-07        -0.57900E-12         0.00000E+00
    0.12845E-07        -0.60858E-12         0.00000E+00
    0.12949E-07        -0.63684E-12         0.00000E+00
    0.13056E-07        -0.66382E-12         0.00000E+00
    0.13166E-07        -0.68957E-12         0.00000E+00
    0.13277E-07        -0.71413E-12         0.00000E+00
    0.13390E-07        -0.73751E-12         0.00000E+00
    0.13504E-07        -0.75974E-12         0.00000E+00
    0.13621E-07        -0.78084E-12         0.00000E+00
    0.13739E-07        -0.80080E-12         0.00000E+00
    0.13858E-07        -0.81963E-12         0.00000E+00
    0.13979E-07        -0.83733E-12         0.00000E+00
    0.14101E-07        -0.85389E-12         0.00000E+00
    0.14224E-07        -0.86930E-12         0.00000E+00
    0.14348E-07        -0.88355E-12         0.00000E+00
    0.14473E-07        -0.89661E-12         0.00000E+00
    0.14598E-07        -0.90847E-12         0.00000E+00
    0.14725E-07        -0.91910E-12         0.00000E+00
    0.14852E-07        -0.92846E-12         0.00000E+00
    0.14979E-07        -0.93654E-12         0.00000E+00
    0.15106E-07        -0.94329E-12         0.00000E+00
    0.15234E-07        -0.94868E-12         0.00000E+00
    0.15362E-07        -0.95266E-12         0.00000E+00
    0.15489E-07        -0.95520E-12         0.00000E+00
    0.15617E-07        -0.95625E-12         0.00000E+00
    0.15744E-07        -0.95575E-12         0.00000E+00
    0.15870E-07        -0.95367E-12         0.00000E+00
    0.15996E-07        -0.94993E-12         0.00000E+00
    0.16121E-07        -0.94450E-12         0.00000E+00
    0.16245E-07        -0.93731E-12         0.00000E+00
    0.16369E-07        -0.92829E-12         0.00000E+00
    0.16491E-07        -0.91738E-12         0.00000E+00
    0.16611E-07        -0.90452E-12         0.00000E+00
    0.16731E-07        -0.88962E-12         0.00000E+00
    0.16848E-07        -0.87262E-12         0.00000E+00
    0.16964E-07        -0.85343E-12         0.00000E+00
    0.17079E-07        -0.83195E-12         0.00000E+00
    0.17191E-07        -0.80810E-12         0.00000E+00
    0.17301E-07        -0.78176E-12         0.00000E+00
    0.17409E-07        -0.75281E-12         0.00000E+00
    0.17515E-07        -0.72113E-12         0.00000E+00
    0.17618E-07        -0.68655E-12         0.00000E+00
    0.17719E-07        -0.64891E-12         0.00000E+00
    0.17817E-07        -0.60799E-12         0.00000E+00
    0.17913E-07        -0.56355E-12         0.00000E+00
    0.18005E-07        -0.51532E-12         0.00000E+00
    0.18094E-07        -0.46296E-12         0.00000E+00
    0.18181E-07        -0.40608E-12         0.00000E+00
    0.18263E-07        -0.34423E-12         0.00000E+00
    0.18343E-07        -0.27688E-12         0.00000E+00
    0.18419E-07        -0.20343E-12         0.00000E+00
    0.18492E-07        -0.12322E-12         0.00000E+00
    0.18561E-07        -0.35537E-13         0.00000E+00
    0.18626E-07         0.60356E-13         0.00000E+00
    0.18688E-07         0.16515E-12         0.00000E+00
    0.18746E-07         0.27942E-12         0.00000E+00
    0.18799E-07         0.40345E-12         0.00000E+00
    0.18849E-07         0.53706E-12         0.00000E+00
    0.18895E-07         0.67926E-12         0.00000E+00
    0.18936E-07         0.82785E-12         0.00000E+00
    0.18973E-07         0.97882E-12         0.00000E+00
    0.19006E-07         0.11255E-11         0.00000E+00
    0.19035E-07         0.12576E-11         0.00000E+00
    0.19059E-07         0.13596E-11         0.00000E+00
    0.19079E-07         0.14097E-11         0.00000E+00
    0.19095E-07         0.13774E-11         0.00000E+00
    0.19107E-07         0.12223E-11         0.00000E+00
    0.19114E-07         0.89449E-12         0.00000E+00
    0.19117E-07         0.34033E-12         0.00000E+00
    0.11051E-07         0.30924E-12         0.00000E+00
    0.11054E-07         0.81607E-12         0.00000E+00
    0.11060E-07         0.11224E-11         0.00000E+00
    0.11069E-07         0.12745E-11         0.00000E+00
    0.11083E-07         0.13160E-11         0.00000E+00
    0.11099E-07         0.12830E-11         0.00000E+00
    0.11120E-07         0.12026E-11         0.00000E+00
    0.11144E-07         0.10948E-11         0.00000E+00
    0.11172E-07         0.97344E-12         0.00000E+00
    0.11204E-07         0.84774E-12         0.00000E+00
    0.11239E-07         0.72365E-12         0.00000E+00
    0.11278E-07         0.60476E-12         0.00000E+00
    0.11321E-07         0.49298E-12         0.00000E+00
    0.11367E-07         0.38915E-12         0.00000E+00
    0.11416E-07         0.29338E-12         0.00000E+00
    0.11469E-07         0.20537E-12         0.00000E+00
    0.11526E-07         0.12457E-12         0.00000E+00
    0.11585E-07         0.50310E-13         0.00000E+00
    0.11648E-07        -0.18089E-13         0.00000E+00
    0.11715E-07        -0.81298E-13         0.00000E+00
    0.11784E-07        -0.13993E-12         0.00000E+00
    0.11857E-07        -0.19455E-12         0.00000E+00
    0.11933E-07        -0.24562E-12         0.00000E+00
    0.12011E-07        -0.29356E-12         0.00000E+00
    0.12093E-07        -0.33874E-12         0.00000E+00
    0.12178E-07        -0.38144E-12         0.00000E+00
    0.12265E-07        -0.42191E-12         0.00000E+00
    0.12355E-07        -0.46036E-12         0.00000E+00
    0.12448E-07        -0.49695E-12         0.00000E+00
    0.12544E-07        -0.53184E-12         0.00000E+00
    0.12642E-07        -0.56513E-12         0.00000E+00
    0.12742E-07        -0.59692E-12         0.00000E+00
    0.12845E-07        -0.62729E-12         0.00000E+00
    0.12949E-07        -0.65631E-12         0.00000E+00
    0.13056E-07        -0.68403E-12         0.00000E+00
    0.13166E-07        -0.71049E-12         0.00000E+00
    0.13277E-07        -0.73572E-12         0.00000E+00
    0.13390E-07        -0.75976E-12         0.00000E+00
    0.13504E-07        -0.78261E-12         0.00000E+00
    0.13621E-07        -0.80430E-12         0.00000E+00
    0.13739E-07        -0.82483E-12         0.00000E+00
    0.13858E-07        -0.84420E-12         0.00000E+00
    0.13979E-07        -0.86240E-12         0.00000E+00
    0.14101E-07        -0.87944E-12         0.00000E+00
    0.14224E-07        -0.89530E-12         0.00000E+00
    0.14348E-07        -0.90997E-12         0.00000E+00
    0.14473E-07        -0.92342E-12         0.00000E+00
    0.14598E-07        -0.93563E-12         0.00000E+00
    0.14725E-07        -0.94658E-12         0.00000E+00
    0.14852E-07        -0.95624E-12         0.00000E+00
    0.14979E-07        -0.96457E-12         0.00000E+00
    0.15106E-07        -0.97153E-12         0.00000E+00
    0.15234E-07        -0.97710E-12         0.00000E+00
    0.15362E-07        -0.98123E-12         0.00000E+00
    0.15489E-07        -0.98387E-12         0.00000E+00
    0.15617E-07        -0.98498E-12         0.00000E+00
    0.15744E-07        -0.98450E-12         0.00000E+00
    0.15870E-07        -0.98239E-12         0.00000E+00
    0.15996E-07        -0.97859E-12         0.00000E+00
    0.16121E-07        -0.97305E-12         0.00000E+00
    0.16245E-07        -0.96569E-12         0.00000E+00
    0.16369E-07        -0.95646E-12         0.00000E+00
    0.16491E-07        -0.94529E-12         0.00000E+00
    0.16611E-07        -0.93211E-12         0.00000E+00
    0.16731E-07        -0.91685E-12         0.00000E+00
    0.16848E-07        -0.89943E-12         0.00000E+00
    0.16965E-07        -0.87975E-12         0.00000E+00
    0.17079E-07        -0.85773E-12         0.00000E+00
    0.17191E-07        -0.83328E-12         0.00000E+00
    0.17301E-07        -0.80627E-12         0.00000E+00
    0.17409E-07        -0.77659E-12         0.00000E+00
    0.17515E-07        -0.74410E-12         0.00000E+00
    0.17618E-07        -0.70865E-12         0.00000E+00
    0.17719E-07        -0.67004E-12         0.00000E+00
    0.17817E-07        -0.62808E-12         0.00000E+00
    0.17913E-07        -0.58250E-12         0.00000E+00
    0.18005E-07        -0.53302E-12         0.00000E+00
    0.18094E-07        -0.47929E-12         0.00000E+00
    0.18181E-07        -0.42091E-12         0.00000E+00
    0.18264E-07        -0.35740E-12         0.00000E+00
    0.18343E-07        -0.28821E-12         0.00000E+00
    0.18419E-07        -0.21271E-12         0.00000E+00
    0.18492E-07        -0.13020E-12         0.00000E+00
    0.18561E-07        -0.39939E-13         0.00000E+00
    0.18626E-07         0.58860E-13         0.00000E+00
    0.18688E-07         0.16693E-12         0.00000E+00
    0.18746E-07         0.28489E-12         0.00000E+00
    0.18799E-07         0.41305E-12         0.00000E+00
    0.18849E-07         0.55124E-12         0.00000E+00
    0.18895E-07         0.69846E-12         0.00000E+00
    0.18936E-07         0.85241E-12         0.00000E+00
    0.18973E-07         0.10089E-11         0.00000E+00
    0.19006E-07         0.11610E-11         0.00000E+00
    0.19035E-07         0.12979E-11         0.00000E+00
    0.19059E-07         0.14035E-11         0.00000E+00
    0.19079E-07         0.14549E-11         0.00000E+00
    0.19095E-07         0.14202E-11         0.00000E+00
    0.19106E-07         0.12582E-11         0.00000E+00
    0.19114E-07         0.91865E-12         0.00000E+00
    0.19117E-07         0.34889E-12         0.00000E+00
    0.11051E-07         0.31620E-12         0.00000E+00
    0.11054E-07         0.83559E-12         0.00000E+00
    0.11060E-07         0.11513E-11         0.00000E+00
    0.11069E-07         0.13089E-11         0.00000E+00
    0.11083E-07         0.13523E-11         0.00000E+00
    0.11099E-07         0.13184E-11         0.00000E+00
    0.11120E-07         0.12355E-11         0.00000E+00
    0.11144E-07         0.11242E-11         0.00000E+00
    0.11172E-07         0.99875E-12         0.00000E+00
    0.11204E-07         0.86896E-12         0.00000E+00
    0.11239E-07         0.74094E-12         0.00000E+00
    0.11278E-07         0.61839E-12         0.00000E+00
    0.11321E-07         0.50329E-12         0.00000E+00
    0.11367E-07         0.39649E-12         0.00000E+00
    0.11416E-07         0.29808E-12         0.00000E+00
    0.11469E-07         0.20774E-12         0.00000E+00
    0.11526E-07         0.12488E-12         0.00000E+00
    0.11585E-07         0.48796E-13         0.00000E+00
    0.11648E-07        -0.21230E-13         0.00000E+00
    0.11715E-07        -0.85900E-13         0.00000E+00
    0.11784E-07        -0.14586E-12         0.00000E+00
    0.11857E-07        -0.20168E-12         0.00000E+00
    0.11933E-07        -0.25387E-12         0.00000E+00
    0.12011E-07        -0.30285E-12         0.00000E+00
    0.12093E-07        -0.34900E-12         0.00000E+00
    0.12178E-07        -0.39262E-12         0.00000E+00
    0.12265E-07        -0.43396E-12         0.00000E+00
    0.12355E-07        -0.47324E-12         0.00000E+00
    0.12448E-07        -0.51063E-12         0.00000E+00
    0.12544E-07        -0.54628E-12         0.00000E+00
    0.12642E-07        -0.58031E-12         0.00000E+00
    0.12742E-07        -0.61281E-12         0.00000E+00
    0.12845E-07        -0.64387E-12         0.00000E+00
    0.12949E-07        -0.67355E-12         0.00000E+00
    0.13056E-07        -0.70190E-12         0.00000E+00
    0.13166E-07        -0.72897E-12         0.00000E+00
    0.13277E-07        -0.75479E-12         0.00000E+00
    0.13390E-07        -0.77939E-12         0.00000E+00
    0.13504E-07        -0.80279E-12         0.00000E+00
    0.13621E-07        -0.82499E-12         0.00000E+00
    0.13739E-07        -0.84601E-12         0.00000E+00
    0.13858E-07        -0.86585E-12         0.00000E+00
    0.13979E-07        -0.88450E-12         0.00000E+00
    0.14101E-07        -0.90196E-12         0.00000E+00
    0.14224E-07        -0.91821E-12         0.00000E+00
    0.14348E-07        -0.93324E-12         0.00000E+00
    0.14473E-07        -0.94703E-12         0.00000E+00
    0.14598E-07        -0.95956E-12         0.00000E+00
    0.14725E-07        -0.97079E-12         0.00000E+00
    0.14852E-07        -0.98070E-12         0.00000E+00
    0.14979E-07        -0.98926E-12         0.00000E+00
    0.15106E-07        -0.99642E-12         0.00000E+00
    0.15234E-07        -0.10022E-11         0.00000E+00
    0.15362E-07        -0.10064E-11         0.00000E+00
    0.15489E-07        -0.10091E-11         0.00000E+00
    0.15617E-07        -0.10103E-11         0.00000E+00
    0.15744E-07        -0.10099E-11         0.00000E+00
    0.15870E-07        -0.10077E-11         0.00000E+00
    0.15996E-07        -0.10039E-11         0.00000E+00
    0.16121E-07        -0.99825E-12         0.00000E+00
    0.16245E-07        -0.99076E-12         0.00000E+00
    0.16369E-07        -0.98135E-12         0.00000E+00
    0.16491E-07        -0.96997E-12         0.00000E+00
    0.16611E-07        -0.95653E-12         0.00000E+00
    0.16731E-07        -0.94095E-12         0.00000E+00
    0.16848E-07        -0.92317E-12         0.00000E+00
    0.16965E-07        -0.90309E-12         0.00000E+00
    0.17079E-07        -0.88061E-12         0.00000E+00
    0.17191E-07        -0.85565E-12         0.00000E+00
    0.17301E-07        -0.82808E-12         0.00000E+00
    0.17409E-07        -0.79778E-12         0.00000E+00
    0.17515E-07        -0.76461E-12         0.00000E+00
    0.17618E-07        -0.72840E-12         0.00000E+00
    0.17719E-07        -0.68898E-12         0.00000E+00
    0.17817E-07        -0.64613E-12         0.00000E+00
    0.17913E-07        -0.59958E-12         0.00000E+00
    0.18005E-07        -0.54904E-12         0.00000E+00
    0.18094E-07        -0.49415E-12         0.00000E+00
    0.18181E-07        -0.43448E-12         0.00000E+00
    0.18264E-07        -0.36955E-12         0.00000E+00
    0.18343E-07        -0.29877E-12         0.00000E+00
    0.18419E-07        -0.22150E-12         0.00000E+00
    0.18492E-07        -0.13701E-12         0.00000E+00
    0.18561E-07        -0.44492E-13         0.00000E+00
    0.18626E-07         0.56858E-13         0.00000E+00
    0.18688E-07         0.16783E-12         0.00000E+00
    0.18746E-07         0.28906E-12         0.00000E+00
    0.18799E-07         0.42091E-12         0.00000E+00
    0.18849E-07         0.56322E-12         0.00000E+00
    0.18895E-07         0.71498E-12         0.00000E+00
    0.18936E-07         0.87382E-12         0.00000E+00
    0.18973E-07         0.10354E-11         0.00000E+00
    0.19006E-07         0.11925E-11         0.00000E+00
    0.19035E-07         0.13340E-11         0.00000E+00
    0.19059E-07         0.14429E-11         0.00000E+00
    0.19079E-07         0.14956E-11         0.00000E+00
    0.19095E-07         0.14591E-11         0.00000E+00
    0.19106E-07         0.12910E-11         0.00000E+00
    0.19114E-07         0.94092E-12         0.00000E+00
    0.19116E-07         0.35684E-12         0.00000E+00
    0.11052E-07         0.32262E-12         0.00000E+00
    0.11054E-07         0.85345E-12         0.00000E+00
    0.11060E-07         0.11774E-11         0.00000E+00
    0.11069E-07         0.13396E-11         0.00000E+00
    0.11083E-07         0.13846E-11         0.00000E+00
    0.11099E-07         0.13498E-11         0.00000E+00
    0.11120E-07         0.12644E-11         0.00000E+00
    0.11144E-07         0.11497E-11         0.00000E+00
    0.11172E-07         0.10206E-11         0.00000E+00
    0.11204E-07         0.88705E-12         0.00000E+00
    0.11239E-07         0.75549E-12         0.00000E+00
    0.11278E-07         0.62968E-12         0.00000E+00
    0.11321E-07         0.51164E-12         0.00000E+00
    0.11367E-07         0.40223E-12         0.00000E+00
    0.11416E-07         0.30152E-12         0.00000E+00
    0.11469E-07         0.20917E-12         0.00000E+00
    0.11526E-07         0.12454E-12         0.00000E+00
    0.11585E-07         0.46909E-13         0.00000E+00
    0.11648E-07        -0.24490E-13         0.00000E+00
    0.11715E-07        -0.90384E-13         0.00000E+00
    0.11784E-07        -0.15144E-12         0.00000E+00
    0.11857E-07        -0.20827E-12         0.00000E+00
    0.11933E-07        -0.26138E-12         0.00000E+00
    0.12011E-07        -0.31123E-12         0.00000E+00
    0.12093E-07        -0.35818E-12         0.00000E+00
    0.12178E-07        -0.40256E-12         0.00000E+00
    0.12265E-07        -0.44462E-12         0.00000E+00
    0.12355E-07        -0.48459E-12         0.00000E+00
    0.12448E-07        -0.52265E-12         0.00000E+00
    0.12544E-07        -0.55894E-12         0.00000E+00
    0.12642E-07        -0.59358E-12         0.00000E+00
    0.12742E-07        -0.62668E-12         0.00000E+00
    0.12845E-07        -0.65831E-12         0.00000E+00
    0.12949E-07        -0.68854E-12         0.00000E+00
    0.13056E-07        -0.71742E-12         0.00000E+00
    0.13166E-07        -0.74501E-12         0.00000E+00
    0.13277E-07        -0.77133E-12         0.00000E+00
    0.13390E-07        -0.79640E-12         0.00000E+00
    0.13504E-07        -0.82026E-12         0.00000E+00
    0.13621E-07        -0.84290E-12         0.00000E+00
    0.13739E-07        -0.86434E-12         0.00000E+00
    0.13858E-07        -0.88458E-12         0.00000E+00
    0.13979E-07        -0.90361E-12         0.00000E+00
    0.14101E-07        -0.92142E-12         0.00000E+00
    0.14224E-07        -0.93801E-12         0.00000E+00
    0.14348E-07        -0.95336E-12         0.00000E+00
    0.14473E-07        -0.96745E-12         0.00000E+00
    0.14598E-07        -0.98024E-12         0.00000E+00
    0.14725E-07        -0.99172E-12         0.00000E+00
    0.14852E-07        -0.10019E-11         0.00000E+00
    0.14979E-07        -0.10106E-11         0.00000E+00
    0.15106E-07        -0.10179E-11         0.00000E+00
    0.15234E-07        -0.10238E-11         0.00000E+00
    0.15362E-07        -0.10282E-11         0.00000E+00
    0.15489E-07        -0.10310E-11         0.00000E+00
    0.15617E-07        -0.10322E-11         0.00000E+00
    0.15744E-07        -0.10318E-11         0.00000E+00
    0.15870E-07        -0.10297E-11         0.00000E+00
    0.15996E-07        -0.10258E-11         0.00000E+00
    0.16121E-07        -0.10201E-11         0.00000E+00
    0.16245E-07        -0.10125E-11         0.00000E+00
    0.16369E-07        -0.10030E-11         0.00000E+00
    0.16491E-07        -0.99139E-12         0.00000E+00
    0.16611E-07        -0.97774E-12         0.00000E+00
    0.16731E-07        -0.96191E-12         0.00000E+00
    0.16848E-07        -0.94384E-12         0.00000E+00
    0.16965E-07        -0.92342E-12         0.00000E+00
    0.17079E-07        -0.90057E-12         0.00000E+00
    0.17191E-07        -0.87519E-12         0.00000E+00
    0.17301E-07        -0.84715E-12         0.00000E+00
    0.17409E-07        -0.81634E-12         0.00000E+00
    0.17515E-07        -0.78261E-12         0.00000E+00
    0.17618E-07        -0.74580E-12         0.00000E+00
    0.17719E-07        -0.70571E-12         0.00000E+00
    0.17817E-07        -0.66212E-12         0.00000E+00
    0.17913E-07        -0.61477E-12         0.00000E+00
    0.18005E-07        -0.56335E-12         0.00000E+00
    0.18094E-07        -0.50750E-12         0.00000E+00
    0.18181E-07        -0.44676E-12         0.00000E+00
    0.18264E-07        -0.38065E-12         0.00000E+00
    0.18343E-07        -0.30855E-12         0.00000E+00
    0.18419E-07        -0.22979E-12         0.00000E+00
    0.18492E-07        -0.14360E-12         0.00000E+00
    0.18561E-07        -0.49168E-13         0.00000E+00
    0.18626E-07         0.54374E-13         0.00000E+00
    0.18688E-07         0.16785E-12         0.00000E+00
    0.18746E-07         0.29194E-12         0.00000E+00
    0.18799E-07         0.42704E-12         0.00000E+00
    0.18849E-07         0.57300E-12         0.00000E+00
    0.18895E-07         0.72881E-12         0.00000E+00
    0.18936E-07         0.89204E-12         0.00000E+00
    0.18973E-07         0.10583E-11         0.00000E+00
    0.19006E-07         0.12200E-11         0.00000E+00
    0.19035E-07         0.13656E-11         0.00000E+00
    0.19059E-07         0.14778E-11         0.00000E+00
    0.19079E-07         0.15319E-11         0.00000E+00
    0.19095E-07         0.14939E-11         0.00000E+00
    0.19106E-07         0.13207E-11         0.00000E+00
    0.19113E-07         0.96135E-12         0.00000E+00
    0.19116E-07         0.36420E-12         0.00000E+00
    0.11052E-07         0.32852E-12         0.00000E+00
    0.11054E-07         0.86967E-12         0.00000E+00
    0.11060E-07         0.12007E-11         0.00000E+00
    0.11069E-07         0.13669E-11         0.00000E+00
    0.11083E-07         0.14128E-11         0.00000E+00
    0.11099E-07         0.13769E-11         0.00000E+00
    0.11120E-07         0.12891E-11         0.00000E+00
    0.11144E-07         0.11713E-11         0.00000E+00
    0.11172E-07         0.10388E-11         0.00000E+00
    0.11204E-07         0.90200E-12         0.00000E+00
    0.11239E-07         0.76729E-12         0.00000E+00
    0.11278E-07         0.63862E-12         0.00000E+00
    0.11321E-07         0.51803E-12         0.00000E+00
    0.11367E-07         0.40638E-12         0.00000E+00
    0.11416E-07         0.30372E-12         0.00000E+00
    0.11469E-07         0.20968E-12         0.00000E+00
    0.11526E-07         0.12358E-12         0.00000E+00
    0.11585E-07         0.44674E-13         0.00000E+00
    0.11648E-07        -0.27843E-13         0.00000E+00
    0.11715E-07        -0.94727E-13         0.00000E+00
    0.11784E-07        -0.15667E-12         0.00000E+00
    0.11857E-07        -0.21430E-12         0.00000E+00
    0.11933E-07        -0.26815E-12         0.00000E+00
    0.12011E-07        -0.31867E-12         0.00000E+00
    0.12093E-07        -0.36626E-12         0.00000E+00
    0.12178E-07        -0.41124E-12         0.00000E+00
    0.12265E-07        -0.45388E-12         0.00000E+00
    0.12355E-07        -0.49440E-12         0.00000E+00
    0.12448E-07        -0.53299E-12         0.00000E+00
    0.12544E-07        -0.56979E-12         0.00000E+00
    0.12642E-07        -0.60492E-12         0.00000E+00
    0.12742E-07        -0.63849E-12         0.00000E+00
    0.12845E-07        -0.67059E-12         0.00000E+00
    0.12949E-07        -0.70127E-12         0.00000E+00
    0.13056E-07        -0.73059E-12         0.00000E+00
    0.13166E-07        -0.75859E-12         0.00000E+00
    0.13277E-07        -0.78532E-12         0.00000E+00
    0.13390E-07        -0.81078E-12         0.00000E+00
    0.13504E-07        -0.83501E-12         0.00000E+00
    0.13621E-07        -0.85802E-12         0.00000E+00
    0.13739E-07        -0.87981E-12         0.00000E+00
    0.13858E-07        -0.90037E-12         0.00000E+00
    0.13979E-07        -0.91972E-12         0.00000E+00
    0.14101E-07        -0.93784E-12         0.00000E+00
    0.14224E-07        -0.95471E-12         0.00000E+00
    0.14348E-07        -0.97032E-12         0.00000E+00
    0.14473E-07        -0.98465E-12         0.00000E+00
    0.14598E-07        -0.99767E-12         0.00000E+00
    0.14725E-07        -0.10094E-11         0.00000E+00
    0.14852E-07        -0.10197E-11         0.00000E+00
    0.14979E-07        -0.10286E-11         0.00000E+00
    0.15106E-07        -0.10361E-11         0.00000E+00
    0.15234E-07        -0.10421E-11         0.00000E+00
    0.15362E-07        -0.10466E-11         0.00000E+00
    0.15489E-07        -0.10495E-11         0.00000E+00
    0.15617E-07        -0.10507E-11         0.00000E+00
    0.15744E-07        -0.10504E-11         0.00000E+00
    0.15870E-07        -0.10482E-11         0.00000E+00
    0.15996E-07        -0.10443E-11         0.00000E+00
    0.16121E-07        -0.10386E-11         0.00000E+00
    0.16245E-07        -0.10309E-11         0.00000E+00
    0.16369E-07        -0.10213E-11         0.00000E+00
    0.16491E-07        -0.10096E-11         0.00000E+00
    0.16611E-07        -0.99574E-12         0.00000E+00
    0.16731E-07        -0.97972E-12         0.00000E+00
    0.16848E-07        -0.96141E-12         0.00000E+00
    0.16965E-07        -0.94074E-12         0.00000E+00
    0.17079E-07        -0.91760E-12         0.00000E+00
    0.17191E-07        -0.89188E-12         0.00000E+00
    0.17301E-07        -0.86348E-12         0.00000E+00
    0.17409E-07        -0.83227E-12         0.00000E+00
    0.17515E-07        -0.79810E-12         0.00000E+00
    0.17618E-07        -0.76080E-12         0.00000E+00
    0.17719E-07        -0.72018E-12         0.00000E+00
    0.17817E-07        -0.67602E-12         0.00000E+00
    0.17913E-07        -0.62804E-12         0.00000E+00
    0.18005E-07        -0.57593E-12         0.00000E+00
    0.18094E-07        -0.51931E-12         0.00000E+00
    0.18181E-07        -0.45773E-12         0.00000E+00
    0.18264E-07        -0.39066E-12         0.00000E+00
    0.18343E-07        -0.31750E-12         0.00000E+00
    0.18419E-07        -0.23753E-12         0.00000E+00
    0.18492E-07        -0.14996E-12         0.00000E+00
    0.18561E-07        -0.53938E-13         0.00000E+00
    0.18626E-07         0.51433E-13         0.00000E+00
    0.18688E-07         0.16702E-12         0.00000E+00
    0.18746E-07         0.29354E-12         0.00000E+00
    0.18799E-07         0.43144E-12         0.00000E+00
    0.18849E-07         0.58058E-12         0.00000E+00
    0.18895E-07         0.73994E-12         0.00000E+00
    0.18936E-07         0.90707E-12         0.00000E+00
    0.18973E-07         0.10774E-11         0.00000E+00
    0.19006E-07         0.12433E-11         0.00000E+00
    0.19035E-07         0.13929E-11         0.00000E+00
    0.19059E-07         0.15082E-11         0.00000E+00
    0.19079E-07         0.15637E-11         0.00000E+00
    0.19095E-07         0.15249E-11         0.00000E+00
    0.19106E-07         0.13475E-11         0.00000E+00
    0.19113E-07         0.98001E-12         0.00000E+00
    0.19116E-07         0.37101E-12         0.00000E+00
    0.11052E-07         0.33392E-12         0.00000E+00
    0.11054E-07         0.88430E-12         0.00000E+00
    0.11060E-07         0.12214E-11         0.00000E+00
    0.11069E-07         0.13906E-11         0.00000E+00
    0.11083E-07         0.14370E-11         0.00000E+00
    0.11099E-07         0.13999E-11         0.00000E+00
    0.11120E-07         0.13097E-11         0.00000E+00
    0.11144E-07         0.11890E-11         0.00000E+00
    0.11172E-07         0.10536E-11         0.00000E+00
    0.11204E-07         0.91378E-12         0.00000E+00
    0.11239E-07         0.77635E-12         0.00000E+00
    0.11278E-07         0.64522E-12         0.00000E+00
    0.11321E-07         0.52247E-12         0.00000E+00
    0.11367E-07         0.40895E-12         0.00000E+00
    0.11416E-07         0.30470E-12         0.00000E+00
    0.11469E-07         0.20929E-12         0.00000E+00
    0.11525E-07         0.12203E-12         0.00000E+00
    0.11585E-07         0.42114E-13         0.00000E+00
    0.11648E-07        -0.31267E-13         0.00000E+00
    0.11715E-07        -0.98905E-13         0.00000E+00
    0.11784E-07        -0.16152E-12         0.00000E+00
    0.11857E-07        -0.21974E-12         0.00000E+00
    0.11933E-07        -0.27413E-12         0.00000E+00
    0.12011E-07        -0.32516E-12         0.00000E+00
    0.12093E-07        -0.37322E-12         0.00000E+00
    0.12178E-07        -0.41865E-12         0.00000E+00
    0.12265E-07        -0.46172E-12         0.00000E+00
    0.12355E-07        -0.50265E-12         0.00000E+00
    0.12448E-07        -0.54163E-12         0.00000E+00
    0.12544E-07        -0.57881E-12         0.00000E+00
    0.12642E-07        -0.61432E-12         0.00000E+00
    0.12742E-07        -0.64825E-12         0.00000E+00
    0.12845E-07        -0.68070E-12         0.00000E+00
    0.12949E-07        -0.71173E-12         0.00000E+00
    0.13056E-07        -0.74138E-12         0.00000E+00
    0.13166E-07        -0.76971E-12         0.00000E+00
    0.13277E-07        -0.79675E-12         0.00000E+00
    0.13390E-07        -0.82253E-12         0.00000E+00
    0.13504E-07        -0.84705E-12         0.00000E+00
    0.13621E-07        -0.87034E-12         0.00000E+00
    0.13739E-07        -0.89240E-12         0.00000E+00
    0.13858E-07        -0.91323E-12         0.00000E+00
    0.13979E-07        -0.93283E-12         0.00000E+00
    0.14101E-07        -0.95118E-12         0.00000E+00
    0.14224E-07        -0.96828E-12         0.00000E+00
    0.14348E-07        -0.98411E-12         0.00000E+00
    0.14473E-07        -0.99864E-12         0.00000E+00
    0.14598E-07        -0.10118E-11         0.00000E+00
    0.14725E-07        -0.10237E-11         0.00000E+00
    0.14852E-07        -0.10342E-11         0.00000E+00
    0.14979E-07        -0.10432E-11         0.00000E+00
    0.15106E-07        -0.10508E-11         0.00000E+00
    0.15234E-07        -0.10570E-11         0.00000E+00
    0.15362E-07        -0.10615E-11         0.00000E+00
    0.15489E-07        -0.10645E-11         0.00000E+00
    0.15617E-07        -0.10658E-11         0.00000E+00
    0.15744E-07        -0.10655E-11         0.00000E+00
    0.15870E-07        -0.10634E-11         0.00000E+00
    0.15996E-07        -0.10595E-11         0.00000E+00
    0.16121E-07        -0.10537E-11         0.00000E+00
    0.16245E-07        -0.10460E-11         0.00000E+00
    0.16369E-07        -0.10362E-11         0.00000E+00
    0.16491E-07        -0.10244E-11         0.00000E+00
    0.16611E-07        -0.10105E-11         0.00000E+00
    0.16731E-07        -0.99435E-12         0.00000E+00
    0.16848E-07        -0.97588E-12         0.00000E+00
    0.16965E-07        -0.95502E-12         0.00000E+00
    0.17079E-07        -0.93167E-12         0.00000E+00
    0.17191E-07        -0.90571E-12         0.00000E+00
    0.17301E-07        -0.87705E-12         0.00000E+00
    0.17409E-07        -0.84554E-12         0.00000E+00
    0.17515E-07        -0.81105E-12         0.00000E+00
    0.17619E-07        -0.77340E-12         0.00000E+00
    0.17719E-07        -0.73240E-12         0.00000E+00
    0.17817E-07        -0.68781E-12         0.00000E+00
    0.17913E-07        -0.63937E-12         0.00000E+00
    0.18005E-07        -0.58675E-12         0.00000E+00
    0.18094E-07        -0.52956E-12         0.00000E+00
    0.18181E-07        -0.46735E-12         0.00000E+00
    0.18264E-07        -0.39957E-12         0.00000E+00
    0.18343E-07        -0.32559E-12         0.00000E+00
    0.18419E-07        -0.24469E-12         0.00000E+00
    0.18492E-07        -0.15605E-12         0.00000E+00
    0.18561E-07        -0.58773E-13         0.00000E+00
    0.18627E-07         0.48065E-13         0.00000E+00
    0.18688E-07         0.16537E-12         0.00000E+00
    0.18746E-07         0.29390E-12         0.00000E+00
    0.18799E-07         0.43413E-12         0.00000E+00
    0.18849E-07         0.58595E-12         0.00000E+00
    0.18895E-07         0.74836E-12         0.00000E+00
    0.18936E-07         0.91888E-12         0.00000E+00
    0.18973E-07         0.10929E-11         0.00000E+00
    0.19006E-07         0.12626E-11         0.00000E+00
    0.19035E-07         0.14157E-11         0.00000E+00
    0.19059E-07         0.15339E-11         0.00000E+00
    0.19079E-07         0.15912E-11         0.00000E+00
    0.19095E-07         0.15520E-11         0.00000E+00
    0.19106E-07         0.13713E-11         0.00000E+00
    0.19113E-07         0.99691E-12         0.00000E+00
    0.19116E-07         0.37727E-12         0.00000E+00
    0.11052E-07         0.33882E-12         0.00000E+00
    0.11054E-07         0.89734E-12         0.00000E+00
    0.11060E-07         0.12394E-11         0.00000E+00
    0.11069E-07         0.14107E-11         0.00000E+00
    0.11083E-07         0.14572E-11         0.00000E+00
    0.11099E-07         0.14186E-11         0.00000E+00
    0.11120E-07         0.13262E-11         0.00000E+00
    0.11144E-07         0.12029E-11         0.00000E+00
    0.11172E-07         0.10647E-11         0.00000E+00
    0.11204E-07         0.92240E-12         0.00000E+00
    0.11239E-07         0.78265E-12         0.00000E+00
    0.11278E-07         0.64949E-12         0.00000E+00
    0.11321E-07         0.52499E-12         0.00000E+00
    0.11367E-07         0.40998E-12         0.00000E+00
    0.11416E-07         0.30447E-12         0.00000E+00
    0.11469E-07         0.20802E-12         0.00000E+00
    0.11525E-07         0.11989E-12         0.00000E+00
    0.11585E-07         0.39257E-13         0.00000E+00
    0.11648E-07        -0.34734E-13         0.00000E+00
    0.11715E-07        -0.10289E-12         0.00000E+00
    0.11784E-07        -0.16595E-12         0.00000E+00
    0.11857E-07        -0.22458E-12         0.00000E+00
    0.11933E-07        -0.27933E-12         0.00000E+00
    0.12011E-07        -0.33068E-12         0.00000E+00
    0.12093E-07        -0.37905E-12         0.00000E+00
    0.12178E-07        -0.42477E-12         0.00000E+00
    0.12265E-07        -0.46811E-12         0.00000E+00
    0.12355E-07        -0.50931E-12         0.00000E+00
    0.12448E-07        -0.54856E-12         0.00000E+00
    0.12544E-07        -0.58600E-12         0.00000E+00
    0.12641E-07        -0.62176E-12         0.00000E+00
    0.12742E-07        -0.65595E-12         0.00000E+00
    0.12844E-07        -0.68864E-12         0.00000E+00
    0.12949E-07        -0.71990E-12         0.00000E+00
    0.13056E-07        -0.74980E-12         0.00000E+00
    0.13166E-07        -0.77836E-12         0.00000E+00
    0.13277E-07        -0.80562E-12         0.00000E+00
    0.13390E-07        -0.83162E-12         0.00000E+00
    0.13504E-07        -0.85636E-12         0.00000E+00
    0.13621E-07        -0.87986E-12         0.00000E+00
    0.13739E-07        -0.90212E-12         0.00000E+00
    0.13858E-07        -0.92314E-12         0.00000E+00
    0.13979E-07        -0.94293E-12         0.00000E+00
    0.14101E-07        -0.96146E-12         0.00000E+00
    0.14224E-07        -0.97873E-12         0.00000E+00
    0.14348E-07        -0.99472E-12         0.00000E+00
    0.14473E-07        -0.10094E-11         0.00000E+00
    0.14598E-07        -0.10227E-11         0.00000E+00
    0.14725E-07        -0.10347E-11         0.00000E+00
    0.14852E-07        -0.10453E-11         0.00000E+00
    0.14979E-07        -0.10545E-11         0.00000E+00
    0.15106E-07        -0.10622E-11         0.00000E+00
    0.15234E-07        -0.10684E-11         0.00000E+00
    0.15362E-07        -0.10731E-11         0.00000E+00
    0.15489E-07        -0.10761E-11         0.00000E+00
    0.15617E-07        -0.10775E-11         0.00000E+00
    0.15744E-07        -0.10772E-11         0.00000E+00
    0.15870E-07        -0.10751E-11         0.00000E+00
    0.15996E-07        -0.10712E-11         0.00000E+00
    0.16121E-07        -0.10654E-11         0.00000E+00
    0.16245E-07        -0.10576E-11         0.00000E+00
    0.16369E-07        -0.10479E-11         0.00000E+00
    0.16491E-07        -0.10360E-11         0.00000E+00
    0.16611E-07        -0.10220E-11         0.00000E+00
    0.16731E-07        -0.10058E-11         0.00000E+00
    0.16848E-07        -0.98723E-12         0.00000E+00
    0.16965E-07        -0.96625E-12         0.00000E+00
    0.17079E-07        -0.94276E-12         0.00000E+00
    0.17191E-07        -0.91666E-12         0.00000E+00
    0.17301E-07        -0.88783E-12         0.00000E+00
    0.17409E-07        -0.85614E-12         0.00000E+00
    0.17515E-07        -0.82144E-12         0.00000E+00
    0.17619E-07        -0.78357E-12         0.00000E+00
    0.17719E-07        -0.74232E-12         0.00000E+00
    0.17817E-07        -0.69746E-12         0.00000E+00
    0.17913E-07        -0.64873E-12         0.00000E+00
    0.18005E-07        -0.59577E-12         0.00000E+00
    0.18094E-07        -0.53822E-12         0.00000E+00
    0.18181E-07        -0.47559E-12         0.00000E+00
    0.18264E-07        -0.40733E-12         0.00000E+00
    0.18343E-07        -0.33280E-12         0.00000E+00
    0.18419E-07        -0.25124E-12         0.00000E+00
    0.18492E-07        -0.16183E-12         0.00000E+00
    0.18561E-07        -0.63637E-13         0.00000E+00
    0.18627E-07         0.44300E-13         0.00000E+00
    0.18688E-07         0.16292E-12         0.00000E+00
    0.18746E-07         0.29303E-12         0.00000E+00
    0.18799E-07         0.43512E-12         0.00000E+00
    0.18849E-07         0.58914E-12         0.00000E+00
    0.18895E-07         0.75408E-12         0.00000E+00
    0.18936E-07         0.92747E-12         0.00000E+00
    0.18973E-07         0.11046E-11         0.00000E+00
    0.19006E-07         0.12776E-11         0.00000E+00
    0.19035E-07         0.14340E-11         0.00000E+00
    0.19059E-07         0.15551E-11         0.00000E+00
    0.19079E-07         0.16142E-11         0.00000E+00
    0.19095E-07         0.15753E-11         0.00000E+00
    0.19106E-07         0.13921E-11         0.00000E+00
    0.19113E-07         0.10121E-11         0.00000E+00
    0.19116E-07         0.38299E-12         0.00000E+00
    0.11052E-07         0.34322E-12         0.00000E+00
    0.11054E-07         0.90880E-12         0.00000E+00
    0.11060E-07         0.12547E-11         0.00000E+00
    0.11069E-07         0.14273E-11         0.00000E+00
    0.11083E-07         0.14733E-11         0.00000E+00
    0.11099E-07         0.14330E-11         0.00000E+00
    0.11120E-07         0.13384E-11         0.00000E+00
    0.11144E-07         0.12128E-11         0.00000E+00
    0.11172E-07         0.10723E-11         0.00000E+00
    0.11204E-07         0.92783E-12         0.00000E+00
    0.11239E-07         0.78620E-12         0.00000E+00
    0.11278E-07         0.65143E-12         0.00000E+00
    0.11321E-07         0.52558E-12         0.00000E+00
    0.11367E-07         0.40947E-12         0.00000E+00
    0.11416E-07         0.30307E-12         0.00000E+00
    0.11469E-07         0.20591E-12         0.00000E+00
    0.11525E-07         0.11721E-12         0.00000E+00
    0.11585E-07         0.36129E-13         0.00000E+00
    0.11648E-07        -0.38218E-13         0.00000E+00
    0.11715E-07        -0.10666E-12         0.00000E+00
    0.11784E-07        -0.16996E-12         0.00000E+00
    0.11857E-07        -0.22878E-12         0.00000E+00
    0.11933E-07        -0.28370E-12         0.00000E+00
    0.12011E-07        -0.33521E-12         0.00000E+00
    0.12093E-07        -0.38372E-12         0.00000E+00
    0.12178E-07        -0.42957E-12         0.00000E+00
    0.12265E-07        -0.47305E-12         0.00000E+00
    0.12355E-07        -0.51438E-12         0.00000E+00
    0.12448E-07        -0.55376E-12         0.00000E+00
    0.12544E-07        -0.59134E-12         0.00000E+00
    0.12641E-07        -0.62723E-12         0.00000E+00
    0.12742E-07        -0.66156E-12         0.00000E+00
    0.12844E-07        -0.69439E-12         0.00000E+00
    0.12949E-07        -0.72579E-12         0.00000E+00
    0.13056E-07        -0.75582E-12         0.00000E+00
    0.13166E-07        -0.78452E-12         0.00000E+00
    0.13277E-07        -0.81192E-12         0.00000E+00
    0.13390E-07        -0.83805E-12         0.00000E+00
    0.13504E-07        -0.86293E-12         0.00000E+00
    0.13621E-07        -0.88656E-12         0.00000E+00
    0.13739E-07        -0.90895E-12         0.00000E+00
    0.13858E-07        -0.93010E-12         0.00000E+00
    0.13979E-07        -0.95000E-12         0.00000E+00
    0.14101E-07        -0.96866E-12         0.00000E+00
    0.14224E-07        -0.98604E-12         0.00000E+00
    0.14348E-07        -0.10021E-11         0.00000E+00
    0.14473E-07        -0.10169E-11         0.00000E+00
    0.14598E-07        -0.10304E-11         0.00000E+00
    0.14725E-07        -0.10425E-11         0.00000E+00
    0.14852E-07        -0.10531E-11         0.00000E+00
    0.14979E-07        -0.10624E-11         0.00000E+00
    0.15106E-07        -0.10702E-11         0.00000E+00
    0.15234E-07        -0.10764E-11         0.00000E+00
    0.15362E-07        -0.10812E-11         0.00000E+00
    0.15489E-07        -0.10842E-11         0.00000E+00
    0.15617E-07        -0.10857E-11         0.00000E+00
    0.15744E-07        -0.10854E-11         0.00000E+00
    0.15870E-07        -0.10833E-11         0.00000E+00
    0.15996E-07        -0.10795E-11         0.00000E+00
    0.16121E-07        -0.10737E-11         0.00000E+00
    0.16245E-07        -0.10660E-11         0.00000E+00
    0.16369E-07        -0.10562E-11         0.00000E+00
    0.16491E-07        -0.10443E-11         0.00000E+00
    0.16611E-07        -0.10303E-11         0.00000E+00
    0.16731E-07        -0.10140E-11         0.00000E+00
    0.16848E-07        -0.99544E-12         0.00000E+00
    0.16965E-07        -0.97441E-12         0.00000E+00
    0.17079E-07        -0.95087E-12         0.00000E+00
    0.17191E-07        -0.92470E-12         0.00000E+00
    0.17301E-07        -0.89580E-12         0.00000E+00
    0.17409E-07        -0.86403E-12         0.00000E+00
    0.17515E-07        -0.82925E-12         0.00000E+00
    0.17619E-07        -0.79128E-12         0.00000E+00
    0.17719E-07        -0.74992E-12         0.00000E+00
    0.17817E-07        -0.70495E-12         0.00000E+00
    0.17913E-07        -0.65608E-12         0.00000E+00
    0.18005E-07        -0.60298E-12         0.00000E+00
    0.18094E-07        -0.54525E-12         0.00000E+00
    0.18181E-07        -0.48241E-12         0.00000E+00
    0.18264E-07        -0.41391E-12         0.00000E+00
    0.18343E-07        -0.33908E-12         0.00000E+00
    0.18419E-07        -0.25715E-12         0.00000E+00
    0.18492E-07        -0.16727E-12         0.00000E+00
    0.18561E-07        -0.68496E-13         0.00000E+00
    0.18627E-07         0.40174E-13         0.00000E+00
    0.18688E-07         0.15971E-12         0.00000E+00
    0.18746E-07         0.29095E-12         0.00000E+00
    0.18799E-07         0.43444E-12         0.00000E+00
    0.18849E-07         0.59015E-12         0.00000E+00
    0.18895E-07         0.75710E-12         0.00000E+00
    0.18936E-07         0.93282E-12         0.00000E+00
    0.18973E-07         0.11126E-11         0.00000E+00
    0.19006E-07         0.12884E-11         0.00000E+00
    0.19035E-07         0.14477E-11         0.00000E+00
    0.19059E-07         0.15715E-11         0.00000E+00
    0.19079E-07         0.16328E-11         0.00000E+00
    0.19095E-07         0.15945E-11         0.00000E+00
    0.19106E-07         0.14100E-11         0.00000E+00
    0.19113E-07         0.10255E-11         0.00000E+00
    0.19116E-07         0.38816E-12         0.00000E+00
    0.11052E-07         0.34712E-12         0.00000E+00
    0.11054E-07         0.91866E-12         0.00000E+00
    0.11060E-07         0.12673E-11         0.00000E+00
    0.11069E-07         0.14403E-11         0.00000E+00
    0.11083E-07         0.14852E-11         0.00000E+00
    0.11099E-07         0.14432E-11         0.00000E+00
    0.11120E-07         0.13465E-11         0.00000E+00
    0.11144E-07         0.12187E-11         0.00000E+00
    0.11172E-07         0.10763E-11         0.00000E+00
    0.11204E-07         0.93008E-12         0.00000E+00
    0.11239E-07         0.78701E-12         0.00000E+00
    0.11278E-07         0.65106E-12         0.00000E+00
    0.11321E-07         0.52428E-12         0.00000E+00
    0.11367E-07         0.40745E-12         0.00000E+00
    0.11416E-07         0.30052E-12         0.00000E+00
    0.11469E-07         0.20297E-12         0.00000E+00
    0.11525E-07         0.11401E-12         0.00000E+00
    0.11585E-07         0.32761E-13         0.00000E+00
    0.11648E-07        -0.41688E-13         0.00000E+00
    0.11715E-07        -0.11018E-12         0.00000E+00
    0.11784E-07        -0.17350E-12         0.00000E+00
    0.11857E-07        -0.23232E-12         0.00000E+00
    0.11933E-07        -0.28722E-12         0.00000E+00
    0.12011E-07        -0.33871E-12         0.00000E+00
    0.12093E-07        -0.38721E-12         0.00000E+00
    0.12178E-07        -0.43305E-12         0.00000E+00
    0.12265E-07        -0.47651E-12         0.00000E+00
    0.12355E-07        -0.51784E-12         0.00000E+00
    0.12448E-07        -0.55722E-12         0.00000E+00
    0.12544E-07        -0.59481E-12         0.00000E+00
    0.12641E-07        -0.63073E-12         0.00000E+00
    0.12742E-07        -0.66507E-12         0.00000E+00
    0.12844E-07        -0.69793E-12         0.00000E+00
    0.12949E-07        -0.72937E-12         0.00000E+00
    0.13056E-07        -0.75944E-12         0.00000E+00
    0.13166E-07        -0.78819E-12         0.00000E+00
    0.13277E-07        -0.81564E-12         0.00000E+00
    0.13390E-07        -0.84182E-12         0.00000E+00
    0.13504E-07        -0.86674E-12         0.00000E+00
    0.13621E-07        -0.89043E-12         0.00000E+00
    0.13739E-07        -0.91288E-12         0.00000E+00
    0.13858E-07        -0.93408E-12         0.00000E+00
    0.13979E-07        -0.95405E-12         0.00000E+00
    0.14101E-07        -0.97276E-12         0.00000E+00
    0.14224E-07        -0.99020E-12         0.00000E+00
    0.14348E-07        -0.10064E-11         0.00000E+00
    0.14473E-07        -0.10212E-11         0.00000E+00
    0.14598E-07        -0.10347E-11         0.00000E+00
    0.14725E-07        -0.10468E-11         0.00000E+00
    0.14852E-07        -0.10576E-11         0.00000E+00
    0.14979E-07        -0.10669E-11         0.00000E+00
    0.15106E-07        -0.10747E-11         0.00000E+00
    0.15234E-07        -0.10810E-11         0.00000E+00
    0.15362E-07        -0.10858E-11         0.00000E+00
    0.15489E-07        -0.10889E-11         0.00000E+00
    0.15617E-07        -0.10904E-11         0.00000E+00
    0.15744E-07        -0.10902E-11         0.00000E+00
    0.15870E-07        -0.10882E-11         0.00000E+00
    0.15996E-07        -0.10843E-11         0.00000E+00
    0.16121E-07        -0.10786E-11         0.00000E+00
    0.16245E-07        -0.10709E-11         0.00000E+00
    0.16369E-07        -0.10611E-11         0.00000E+00
    0.16491E-07        -0.10493E-11         0.00000E+00
    0.16611E-07        -0.10353E-11         0.00000E+00
    0.16731E-07        -0.10191E-11         0.00000E+00
    0.16848E-07        -0.10005E-11         0.00000E+00
    0.16965E-07        -0.97949E-12         0.00000E+00
    0.17079E-07        -0.95597E-12         0.00000E+00
    0.17191E-07        -0.92983E-12         0.00000E+00
    0.17301E-07        -0.90095E-12         0.00000E+00
    0.17409E-07        -0.86920E-12         0.00000E+00
    0.17515E-07        -0.83445E-12         0.00000E+00
    0.17619E-07        -0.79650E-12         0.00000E+00
    0.17719E-07        -0.75518E-12         0.00000E+00
    0.17817E-07        -0.71024E-12         0.00000E+00
    0.17913E-07        -0.66140E-12         0.00000E+00
    0.18005E-07        -0.60833E-12         0.00000E+00
    0.18094E-07        -0.55062E-12         0.00000E+00
    0.18181E-07        -0.48779E-12         0.00000E+00
    0.18264E-07        -0.41927E-12         0.00000E+00
    0.18343E-07        -0.34439E-12         0.00000E+00
    0.18419E-07        -0.26237E-12         0.00000E+00
    0.18492E-07        -0.17233E-12         0.00000E+00
    0.18561E-07        -0.73310E-13         0.00000E+00
    0.18627E-07         0.35722E-13         0.00000E+00
    0.18688E-07         0.15577E-12         0.00000E+00
    0.18746E-07         0.28770E-12         0.00000E+00
    0.18800E-07         0.43211E-12         0.00000E+00
    0.18849E-07         0.58899E-12         0.00000E+00
    0.18895E-07         0.75741E-12         0.00000E+00
    0.18936E-07         0.93493E-12         0.00000E+00
    0.18973E-07         0.11168E-11         0.00000E+00
    0.19006E-07         0.12950E-11         0.00000E+00
    0.19035E-07         0.14569E-11         0.00000E+00
    0.19059E-07         0.15833E-11         0.00000E+00
    0.19079E-07         0.16467E-11         0.00000E+00
    0.19095E-07         0.16098E-11         0.00000E+00
    0.19106E-07         0.14249E-11         0.00000E+00
    0.19113E-07         0.10372E-11         0.00000E+00
    0.19116E-07         0.39279E-12         0.00000E+00
    0.11052E-07         0.35051E-12         0.00000E+00
    0.11054E-07         0.92689E-12         0.00000E+00
    0.11060E-07         0.12771E-11         0.00000E+00
    0.11069E-07         0.14496E-11         0.00000E+00
    0.11083E-07         0.14930E-11         0.00000E+00
    0.11099E-07         0.14489E-11         0.00000E+00
    0.11120E-07         0.13502E-11         0.00000E+00
    0.11144E-07         0.12206E-11         0.00000E+00
    0.11172E-07         0.10766E-11         0.00000E+00
    0.11204E-07         0.92915E-12         0.00000E+00
    0.11239E-07         0.78508E-12         0.00000E+00
    0.11278E-07         0.64839E-12         0.00000E+00
    0.11320E-07         0.52110E-12         0.00000E+00
    0.11367E-07         0.40394E-12         0.00000E+00
    0.11416E-07         0.29685E-12         0.00000E+00
    0.11469E-07         0.19925E-12         0.00000E+00
    0.11525E-07         0.11033E-12         0.00000E+00
    0.11585E-07         0.29184E-13         0.00000E+00
    0.11648E-07        -0.45114E-13         0.00000E+00
    0.11715E-07        -0.11343E-12         0.00000E+00
    0.11784E-07        -0.17655E-12         0.00000E+00
    0.11857E-07        -0.23517E-12         0.00000E+00
    0.11933E-07        -0.28988E-12         0.00000E+00
    0.12011E-07        -0.34118E-12         0.00000E+00
    0.12093E-07        -0.38950E-12         0.00000E+00
    0.12178E-07        -0.43517E-12         0.00000E+00
    0.12265E-07        -0.47848E-12         0.00000E+00
    0.12355E-07        -0.51967E-12         0.00000E+00
    0.12448E-07        -0.55893E-12         0.00000E+00
    0.12544E-07        -0.59640E-12         0.00000E+00
    0.12641E-07        -0.63222E-12         0.00000E+00
    0.12742E-07        -0.66648E-12         0.00000E+00
    0.12844E-07        -0.69926E-12         0.00000E+00
    0.12949E-07        -0.73064E-12         0.00000E+00
    0.13056E-07        -0.76065E-12         0.00000E+00
    0.13166E-07        -0.78935E-12         0.00000E+00
    0.13277E-07        -0.81675E-12         0.00000E+00
    0.13390E-07        -0.84290E-12         0.00000E+00
    0.13504E-07        -0.86780E-12         0.00000E+00
    0.13621E-07        -0.89147E-12         0.00000E+00
    0.13739E-07        -0.91390E-12         0.00000E+00
    0.13858E-07        -0.93509E-12         0.00000E+00
    0.13979E-07        -0.95505E-12         0.00000E+00
    0.14101E-07        -0.97376E-12         0.00000E+00
    0.14224E-07        -0.99121E-12         0.00000E+00
    0.14348E-07        -0.10074E-11         0.00000E+00
    0.14473E-07        -0.10222E-11         0.00000E+00
    0.14598E-07        -0.10357E-11         0.00000E+00
    0.14725E-07        -0.10479E-11         0.00000E+00
    0.14852E-07        -0.10587E-11         0.00000E+00
    0.14979E-07        -0.10680E-11         0.00000E+00
    0.15106E-07        -0.10759E-11         0.00000E+00
    0.15234E-07        -0.10822E-11         0.00000E+00
    0.15362E-07        -0.10870E-11         0.00000E+00
    0.15489E-07        -0.10902E-11         0.00000E+00
    0.15617E-07        -0.10917E-11         0.00000E+00
    0.15744E-07        -0.10915E-11         0.00000E+00
    0.15870E-07        -0.10895E-11         0.00000E+00
    0.15996E-07        -0.10857E-11         0.00000E+00
    0.16121E-07        -0.10800E-11         0.00000E+00
    0.16245E-07        -0.10724E-11         0.00000E+00
    0.16369E-07        -0.10627E-11         0.00000E+00
    0.16491E-07        -0.10510E-11         0.00000E+00
    0.16611E-07        -0.10370E-11         0.00000E+00
    0.16731E-07        -0.10209E-11         0.00000E+00
    0.16848E-07        -0.10024E-11         0.00000E+00
    0.16965E-07        -0.98145E-12         0.00000E+00
    0.17079E-07        -0.95803E-12         0.00000E+00
    0.17191E-07        -0.93200E-12         0.00000E+00
    0.17301E-07        -0.90324E-12         0.00000E+00
    0.17409E-07        -0.87163E-12         0.00000E+00
    0.17515E-07        -0.83701E-12         0.00000E+00
    0.17619E-07        -0.79923E-12         0.00000E+00
    0.17719E-07        -0.75807E-12         0.00000E+00
    0.17817E-07        -0.71331E-12         0.00000E+00
    0.17913E-07        -0.66466E-12         0.00000E+00
    0.18005E-07        -0.61179E-12         0.00000E+00
    0.18094E-07        -0.55429E-12         0.00000E+00
    0.18181E-07        -0.49168E-12         0.00000E+00
    0.18264E-07        -0.42338E-12         0.00000E+00
    0.18343E-07        -0.34870E-12         0.00000E+00
    0.18420E-07        -0.26687E-12         0.00000E+00
    0.18492E-07        -0.17697E-12         0.00000E+00
    0.18561E-07        -0.78040E-13         0.00000E+00
    0.18627E-07         0.30985E-13         0.00000E+00
    0.18688E-07         0.15113E-12         0.00000E+00
    0.18746E-07         0.28332E-12         0.00000E+00
    0.18800E-07         0.42816E-12         0.00000E+00
    0.18849E-07         0.58570E-12         0.00000E+00
    0.18895E-07         0.75505E-12         0.00000E+00
    0.18936E-07         0.93379E-12         0.00000E+00
    0.18973E-07         0.11172E-11         0.00000E+00
    0.19006E-07         0.12974E-11         0.00000E+00
    0.19035E-07         0.14615E-11         0.00000E+00
    0.19059E-07         0.15903E-11         0.00000E+00
    0.19079E-07         0.16561E-11         0.00000E+00
    0.19095E-07         0.16211E-11         0.00000E+00
    0.19106E-07         0.14367E-11         0.00000E+00
    0.19113E-07         0.10471E-11         0.00000E+00
    0.19115E-07         0.39686E-12         0.00000E+00
    0.11052E-07         0.35337E-12         0.00000E+00
    0.11054E-07         0.93345E-12         0.00000E+00
    0.11060E-07         0.12841E-11         0.00000E+00
    0.11069E-07         0.14552E-11         0.00000E+00
    0.11083E-07         0.14964E-11         0.00000E+00
    0.11099E-07         0.14502E-11         0.00000E+00
    0.11120E-07         0.13496E-11         0.00000E+00
    0.11144E-07         0.12185E-11         0.00000E+00
    0.11172E-07         0.10733E-11         0.00000E+00
    0.11204E-07         0.92503E-12         0.00000E+00
    0.11239E-07         0.78042E-12         0.00000E+00
    0.11278E-07         0.64344E-12         0.00000E+00
    0.11320E-07         0.51607E-12         0.00000E+00
    0.11366E-07         0.39899E-12         0.00000E+00
    0.11416E-07         0.29209E-12         0.00000E+00
    0.11469E-07         0.19477E-12         0.00000E+00
    0.11525E-07         0.10620E-12         0.00000E+00
    0.11585E-07         0.25432E-13         0.00000E+00
    0.11648E-07        -0.48463E-13         0.00000E+00
    0.11715E-07        -0.11637E-12         0.00000E+00
    0.11784E-07        -0.17909E-12         0.00000E+00
    0.11857E-07        -0.23731E-12         0.00000E+00
    0.11933E-07        -0.29164E-12         0.00000E+00
    0.12011E-07        -0.34259E-12         0.00000E+00
    0.12093E-07        -0.39056E-12         0.00000E+00
    0.12178E-07        -0.43592E-12         0.00000E+00
    0.12265E-07        -0.47894E-12         0.00000E+00
    0.12355E-07        -0.51986E-12         0.00000E+00
    0.12448E-07        -0.55886E-12         0.00000E+00
    0.12544E-07        -0.59610E-12         0.00000E+00
    0.12641E-07        -0.63170E-12         0.00000E+00
    0.12742E-07        -0.66576E-12         0.00000E+00
    0.12844E-07        -0.69837E-12         0.00000E+00
    0.12949E-07        -0.72957E-12         0.00000E+00
    0.13056E-07        -0.75943E-12         0.00000E+00
    0.13166E-07        -0.78799E-12         0.00000E+00
    0.13277E-07        -0.81527E-12         0.00000E+00
    0.13390E-07        -0.84130E-12         0.00000E+00
    0.13504E-07        -0.86609E-12         0.00000E+00
    0.13621E-07        -0.88966E-12         0.00000E+00
    0.13739E-07        -0.91200E-12         0.00000E+00
    0.13858E-07        -0.93312E-12         0.00000E+00
    0.13979E-07        -0.95301E-12         0.00000E+00
    0.14101E-07        -0.97166E-12         0.00000E+00
    0.14224E-07        -0.98905E-12         0.00000E+00
    0.14348E-07        -0.10052E-11         0.00000E+00
    0.14473E-07        -0.10200E-11         0.00000E+00
    0.14598E-07        -0.10335E-11         0.00000E+00
    0.14725E-07        -0.10456E-11         0.00000E+00
    0.14852E-07        -0.10564E-11         0.00000E+00
    0.14979E-07        -0.10657E-11         0.00000E+00
    0.15106E-07        -0.10735E-11         0.00000E+00
    0.15234E-07        -0.10799E-11         0.00000E+00
    0.15362E-07        -0.10847E-11         0.00000E+00
    0.15489E-07        -0.10879E-11         0.00000E+00
    0.15617E-07        -0.10895E-11         0.00000E+00
    0.15744E-07        -0.10893E-11         0.00000E+00
    0.15870E-07        -0.10874E-11         0.00000E+00
    0.15996E-07        -0.10836E-11         0.00000E+00
    0.16121E-07        -0.10780E-11         0.00000E+00
    0.16245E-07        -0.10705E-11         0.00000E+00
    0.16369E-07        -0.10609E-11         0.00000E+00
    0.16491E-07        -0.10492E-11         0.00000E+00
    0.16611E-07        -0.10354E-11         0.00000E+00
    0.16731E-07        -0.10194E-11         0.00000E+00
    0.16848E-07        -0.10010E-11         0.00000E+00
    0.16965E-07        -0.98029E-12         0.00000E+00
    0.17079E-07        -0.95705E-12         0.00000E+00
    0.17191E-07        -0.93121E-12         0.00000E+00
    0.17301E-07        -0.90267E-12         0.00000E+00
    0.17409E-07        -0.87128E-12         0.00000E+00
    0.17515E-07        -0.83692E-12         0.00000E+00
    0.17619E-07        -0.79941E-12         0.00000E+00
    0.17719E-07        -0.75856E-12         0.00000E+00
    0.17817E-07        -0.71412E-12         0.00000E+00
    0.17913E-07        -0.66583E-12         0.00000E+00
    0.18005E-07        -0.61333E-12         0.00000E+00
    0.18094E-07        -0.55624E-12         0.00000E+00
    0.18181E-07        -0.49405E-12         0.00000E+00
    0.18264E-07        -0.42619E-12         0.00000E+00
    0.18343E-07        -0.35197E-12         0.00000E+00
    0.18420E-07        -0.27059E-12         0.00000E+00
    0.18492E-07        -0.18115E-12         0.00000E+00
    0.18561E-07        -0.82640E-13         0.00000E+00
    0.18627E-07         0.26005E-13         0.00000E+00
    0.18688E-07         0.14585E-12         0.00000E+00
    0.18746E-07         0.27783E-12         0.00000E+00
    0.18800E-07         0.42261E-12         0.00000E+00
    0.18849E-07         0.58029E-12         0.00000E+00
    0.18895E-07         0.75001E-12         0.00000E+00
    0.18936E-07         0.92941E-12         0.00000E+00
    0.18973E-07         0.11139E-11         0.00000E+00
    0.19006E-07         0.12954E-11         0.00000E+00
    0.19035E-07         0.14613E-11         0.00000E+00
    0.19059E-07         0.15924E-11         0.00000E+00
    0.19079E-07         0.16608E-11         0.00000E+00
    0.19095E-07         0.16281E-11         0.00000E+00
    0.19106E-07         0.14454E-11         0.00000E+00
    0.19113E-07         0.10552E-11         0.00000E+00
    0.19115E-07         0.40036E-12         0.00000E+00
    0.11053E-07         0.35569E-12         0.00000E+00
    0.11055E-07         0.93829E-12         0.00000E+00
    0.11060E-07         0.12881E-11         0.00000E+00
    0.11069E-07         0.14569E-11         0.00000E+00
    0.11083E-07         0.14956E-11         0.00000E+00
    0.11099E-07         0.14471E-11         0.00000E+00
    0.11120E-07         0.13447E-11         0.00000E+00
    0.11144E-07         0.12123E-11         0.00000E+00
    0.11172E-07         0.10664E-11         0.00000E+00
    0.11204E-07         0.91773E-12         0.00000E+00
    0.11239E-07         0.77306E-12         0.00000E+00
    0.11278E-07         0.63625E-12         0.00000E+00
    0.11320E-07         0.50922E-12         0.00000E+00
    0.11366E-07         0.39261E-12         0.00000E+00
    0.11416E-07         0.28627E-12         0.00000E+00
    0.11469E-07         0.18957E-12         0.00000E+00
    0.11525E-07         0.10165E-12         0.00000E+00
    0.11585E-07         0.21540E-13         0.00000E+00
    0.11648E-07        -0.51702E-13         0.00000E+00
    0.11715E-07        -0.11897E-12         0.00000E+00
    0.11784E-07        -0.18107E-12         0.00000E+00
    0.11857E-07        -0.23871E-12         0.00000E+00
    0.11933E-07        -0.29248E-12         0.00000E+00
    0.12011E-07        -0.34290E-12         0.00000E+00
    0.12093E-07        -0.39038E-12         0.00000E+00
    0.12178E-07        -0.43527E-12         0.00000E+00
    0.12265E-07        -0.47786E-12         0.00000E+00
    0.12355E-07        -0.51837E-12         0.00000E+00
    0.12448E-07        -0.55700E-12         0.00000E+00
    0.12544E-07        -0.59389E-12         0.00000E+00
    0.12641E-07        -0.62916E-12         0.00000E+00
    0.12742E-07        -0.66291E-12         0.00000E+00
    0.12844E-07        -0.69523E-12         0.00000E+00
    0.12949E-07        -0.72617E-12         0.00000E+00
    0.13056E-07        -0.75578E-12         0.00000E+00
    0.13166E-07        -0.78410E-12         0.00000E+00
    0.13277E-07        -0.81116E-12         0.00000E+00
    0.13390E-07        -0.83699E-12         0.00000E+00
    0.13504E-07        -0.86160E-12         0.00000E+00
    0.13621E-07        -0.88499E-12         0.00000E+00
    0.13739E-07        -0.90717E-12         0.00000E+00
    0.13858E-07        -0.92815E-12         0.00000E+00
    0.13979E-07        -0.94790E-12         0.00000E+00
    0.14101E-07        -0.96643E-12         0.00000E+00
    0.14224E-07        -0.98371E-12         0.00000E+00
    0.14348E-07        -0.99973E-12         0.00000E+00
    0.14473E-07        -0.10145E-11         0.00000E+00
    0.14598E-07        -0.10279E-11         0.00000E+00
    0.14725E-07        -0.10400E-11         0.00000E+00
    0.14852E-07        -0.10507E-11         0.00000E+00
    0.14979E-07        -0.10600E-11         0.00000E+00
    0.15106E-07        -0.10678E-11         0.00000E+00
    0.15234E-07        -0.10741E-11         0.00000E+00
    0.15362E-07        -0.10789E-11         0.00000E+00
    0.15489E-07        -0.10822E-11         0.00000E+00
    0.15617E-07        -0.10837E-11         0.00000E+00
    0.15744E-07        -0.10836E-11         0.00000E+00
    0.15870E-07        -0.10818E-11         0.00000E+00
    0.15996E-07        -0.10781E-11         0.00000E+00
    0.16121E-07        -0.10726E-11         0.00000E+00
    0.16245E-07        -0.10651E-11         0.00000E+00
    0.16369E-07        -0.10557E-11         0.00000E+00
    0.16491E-07        -0.10442E-11         0.00000E+00
    0.16611E-07        -0.10305E-11         0.00000E+00
    0.16731E-07        -0.10147E-11         0.00000E+00
    0.16848E-07        -0.99651E-12         0.00000E+00
    0.16965E-07        -0.97599E-12         0.00000E+00
    0.17079E-07        -0.95300E-12         0.00000E+00
    0.17191E-07        -0.92744E-12         0.00000E+00
    0.17301E-07        -0.89919E-12         0.00000E+00
    0.17409E-07        -0.86815E-12         0.00000E+00
    0.17515E-07        -0.83415E-12         0.00000E+00
    0.17619E-07        -0.79704E-12         0.00000E+00
    0.17719E-07        -0.75662E-12         0.00000E+00
    0.17817E-07        -0.71265E-12         0.00000E+00
    0.17913E-07        -0.66487E-12         0.00000E+00
    0.18005E-07        -0.61292E-12         0.00000E+00
    0.18094E-07        -0.55641E-12         0.00000E+00
    0.18181E-07        -0.49486E-12         0.00000E+00
    0.18264E-07        -0.42766E-12         0.00000E+00
    0.18343E-07        -0.35415E-12         0.00000E+00
    0.18420E-07        -0.27350E-12         0.00000E+00
    0.18492E-07        -0.18482E-12         0.00000E+00
    0.18561E-07        -0.87066E-13         0.00000E+00
    0.18627E-07         0.20830E-13         0.00000E+00
    0.18688E-07         0.13996E-12         0.00000E+00
    0.18746E-07         0.27129E-12         0.00000E+00
    0.18800E-07         0.41552E-12         0.00000E+00
    0.18849E-07         0.57279E-12         0.00000E+00
    0.18895E-07         0.74231E-12         0.00000E+00
    0.18936E-07         0.92180E-12         0.00000E+00
    0.18974E-07         0.11067E-11         0.00000E+00
    0.19006E-07         0.12891E-11         0.00000E+00
    0.19035E-07         0.14565E-11         0.00000E+00
    0.19059E-07         0.15896E-11         0.00000E+00
    0.19079E-07         0.16606E-11         0.00000E+00
    0.19095E-07         0.16310E-11         0.00000E+00
    0.19106E-07         0.14508E-11         0.00000E+00
    0.19113E-07         0.10613E-11         0.00000E+00
    0.19115E-07         0.40326E-12         0.00000E+00
    0.11053E-07         0.35744E-12         0.00000E+00
    0.11055E-07         0.94131E-12         0.00000E+00
    0.11060E-07         0.12892E-11         0.00000E+00
    0.11069E-07         0.14547E-11         0.00000E+00
    0.11083E-07         0.14902E-11         0.00000E+00
    0.11099E-07         0.14393E-11         0.00000E+00
    0.11120E-07         0.13353E-11         0.00000E+00
    0.11144E-07         0.12021E-11         0.00000E+00
    0.11172E-07         0.10558E-11         0.00000E+00
    0.11204E-07         0.90726E-12         0.00000E+00
    0.11239E-07         0.76301E-12         0.00000E+00
    0.11278E-07         0.62683E-12         0.00000E+00
    0.11320E-07         0.50058E-12         0.00000E+00
    0.11366E-07         0.38485E-12         0.00000E+00
    0.11416E-07         0.27944E-12         0.00000E+00
    0.11469E-07         0.18370E-12         0.00000E+00
    0.11525E-07         0.96721E-13         0.00000E+00
    0.11585E-07         0.17545E-13         0.00000E+00
    0.11648E-07        -0.54796E-13         0.00000E+00
    0.11715E-07        -0.12120E-12         0.00000E+00
    0.11784E-07        -0.18248E-12         0.00000E+00
    0.11857E-07        -0.23934E-12         0.00000E+00
    0.11933E-07        -0.29238E-12         0.00000E+00
    0.12011E-07        -0.34210E-12         0.00000E+00
    0.12093E-07        -0.38893E-12         0.00000E+00
    0.12178E-07        -0.43322E-12         0.00000E+00
    0.12265E-07        -0.47523E-12         0.00000E+00
    0.12355E-07        -0.51521E-12         0.00000E+00
    0.12448E-07        -0.55333E-12         0.00000E+00
    0.12544E-07        -0.58975E-12         0.00000E+00
    0.12641E-07        -0.62457E-12         0.00000E+00
    0.12742E-07        -0.65791E-12         0.00000E+00
    0.12844E-07        -0.68983E-12         0.00000E+00
    0.12949E-07        -0.72040E-12         0.00000E+00
    0.13056E-07        -0.74967E-12         0.00000E+00
    0.13166E-07        -0.77767E-12         0.00000E+00
    0.13277E-07        -0.80443E-12         0.00000E+00
    0.13390E-07        -0.82997E-12         0.00000E+00
    0.13504E-07        -0.85431E-12         0.00000E+00
    0.13621E-07        -0.87746E-12         0.00000E+00
    0.13739E-07        -0.89941E-12         0.00000E+00
    0.13858E-07        -0.92017E-12         0.00000E+00
    0.13979E-07        -0.93973E-12         0.00000E+00
    0.14101E-07        -0.95807E-12         0.00000E+00
    0.14224E-07        -0.97519E-12         0.00000E+00
    0.14348E-07        -0.99106E-12         0.00000E+00
    0.14473E-07        -0.10057E-11         0.00000E+00
    0.14598E-07        -0.10190E-11         0.00000E+00
    0.14725E-07        -0.10309E-11         0.00000E+00
    0.14852E-07        -0.10416E-11         0.00000E+00
    0.14979E-07        -0.10508E-11         0.00000E+00
    0.15106E-07        -0.10586E-11         0.00000E+00
    0.15234E-07        -0.10649E-11         0.00000E+00
    0.15362E-07        -0.10697E-11         0.00000E+00
    0.15489E-07        -0.10729E-11         0.00000E+00
    0.15617E-07        -0.10745E-11         0.00000E+00
    0.15744E-07        -0.10744E-11         0.00000E+00
    0.15870E-07        -0.10726E-11         0.00000E+00
    0.15996E-07        -0.10691E-11         0.00000E+00
    0.16121E-07        -0.10636E-11         0.00000E+00
    0.16245E-07        -0.10563E-11         0.00000E+00
    0.16369E-07        -0.10470E-11         0.00000E+00
    0.16491E-07        -0.10357E-11         0.00000E+00
    0.16611E-07        -0.10223E-11         0.00000E+00
    0.16731E-07        -0.10066E-11         0.00000E+00
    0.16848E-07        -0.98875E-12         0.00000E+00
    0.16965E-07        -0.96852E-12         0.00000E+00
    0.17079E-07        -0.94585E-12         0.00000E+00
    0.17191E-07        -0.92065E-12         0.00000E+00
    0.17301E-07        -0.89280E-12         0.00000E+00
    0.17409E-07        -0.86219E-12         0.00000E+00
    0.17515E-07        -0.82867E-12         0.00000E+00
    0.17619E-07        -0.79208E-12         0.00000E+00
    0.17719E-07        -0.75222E-12         0.00000E+00
    0.17817E-07        -0.70887E-12         0.00000E+00
    0.17913E-07        -0.66175E-12         0.00000E+00
    0.18005E-07        -0.61052E-12         0.00000E+00
    0.18094E-07        -0.55479E-12         0.00000E+00
    0.18181E-07        -0.49406E-12         0.00000E+00
    0.18264E-07        -0.42776E-12         0.00000E+00
    0.18343E-07        -0.35520E-12         0.00000E+00
    0.18420E-07        -0.27556E-12         0.00000E+00
    0.18492E-07        -0.18792E-12         0.00000E+00
    0.18561E-07        -0.91266E-13         0.00000E+00
    0.18627E-07         0.15508E-13         0.00000E+00
    0.18688E-07         0.13351E-12         0.00000E+00
    0.18746E-07         0.26373E-12         0.00000E+00
    0.18800E-07         0.40691E-12         0.00000E+00
    0.18849E-07         0.56324E-12         0.00000E+00
    0.18895E-07         0.73199E-12         0.00000E+00
    0.18936E-07         0.91096E-12         0.00000E+00
    0.18974E-07         0.10957E-11         0.00000E+00
    0.19007E-07         0.12785E-11         0.00000E+00
    0.19035E-07         0.14468E-11         0.00000E+00
    0.19059E-07         0.15817E-11         0.00000E+00
    0.19079E-07         0.16555E-11         0.00000E+00
    0.19095E-07         0.16294E-11         0.00000E+00
    0.19106E-07         0.14528E-11         0.00000E+00
    0.19113E-07         0.10654E-11         0.00000E+00
    0.19115E-07         0.40553E-12         0.00000E+00
    0.11053E-07         0.35859E-12         0.00000E+00
    0.11055E-07         0.94244E-12         0.00000E+00
    0.11060E-07         0.12870E-11         0.00000E+00
    0.11069E-07         0.14484E-11         0.00000E+00
    0.11083E-07         0.14803E-11         0.00000E+00
    0.11099E-07         0.14269E-11         0.00000E+00
    0.11120E-07         0.13215E-11         0.00000E+00
    0.11144E-07         0.11877E-11         0.00000E+00
    0.11172E-07         0.10416E-11         0.00000E+00
    0.11204E-07         0.89364E-12         0.00000E+00
    0.11239E-07         0.75029E-12         0.00000E+00
    0.11278E-07         0.61522E-12         0.00000E+00
    0.11320E-07         0.49020E-12         0.00000E+00
    0.11366E-07         0.37575E-12         0.00000E+00
    0.11416E-07         0.27164E-12         0.00000E+00
    0.11469E-07         0.17718E-12         0.00000E+00
    0.11525E-07         0.91458E-13         0.00000E+00
    0.11585E-07         0.13486E-13         0.00000E+00
    0.11648E-07        -0.57706E-13         0.00000E+00
    0.11715E-07        -0.12302E-12         0.00000E+00
    0.11784E-07        -0.18327E-12         0.00000E+00
    0.11857E-07        -0.23916E-12         0.00000E+00
    0.11933E-07        -0.29129E-12         0.00000E+00
    0.12011E-07        -0.34016E-12         0.00000E+00
    0.12093E-07        -0.38619E-12         0.00000E+00
    0.12178E-07        -0.42972E-12         0.00000E+00
    0.12265E-07        -0.47103E-12         0.00000E+00
    0.12355E-07        -0.51034E-12         0.00000E+00
    0.12448E-07        -0.54783E-12         0.00000E+00
    0.12544E-07        -0.58366E-12         0.00000E+00
    0.12641E-07        -0.61793E-12         0.00000E+00
    0.12742E-07        -0.65074E-12         0.00000E+00
    0.12844E-07        -0.68217E-12         0.00000E+00
    0.12949E-07        -0.71228E-12         0.00000E+00
    0.13056E-07        -0.74110E-12         0.00000E+00
    0.13166E-07        -0.76869E-12         0.00000E+00
    0.13277E-07        -0.79506E-12         0.00000E+00
    0.13390E-07        -0.82023E-12         0.00000E+00
    0.13504E-07        -0.84423E-12         0.00000E+00
    0.13621E-07        -0.86705E-12         0.00000E+00
    0.13739E-07        -0.88870E-12         0.00000E+00
    0.13858E-07        -0.90917E-12         0.00000E+00
    0.13979E-07        -0.92847E-12         0.00000E+00
    0.14101E-07        -0.94657E-12         0.00000E+00
    0.14224E-07        -0.96347E-12         0.00000E+00
    0.14348E-07        -0.97914E-12         0.00000E+00
    0.14473E-07        -0.99356E-12         0.00000E+00
    0.14598E-07        -0.10067E-11         0.00000E+00
    0.14725E-07        -0.10185E-11         0.00000E+00
    0.14852E-07        -0.10290E-11         0.00000E+00
    0.14979E-07        -0.10382E-11         0.00000E+00
    0.15106E-07        -0.10459E-11         0.00000E+00
    0.15234E-07        -0.10521E-11         0.00000E+00
    0.15362E-07        -0.10569E-11         0.00000E+00
    0.15489E-07        -0.10601E-11         0.00000E+00
    0.15617E-07        -0.10617E-11         0.00000E+00
    0.15744E-07        -0.10617E-11         0.00000E+00
    0.15870E-07        -0.10600E-11         0.00000E+00
    0.15996E-07        -0.10565E-11         0.00000E+00
    0.16121E-07        -0.10512E-11         0.00000E+00
    0.16245E-07        -0.10441E-11         0.00000E+00
    0.16369E-07        -0.10349E-11         0.00000E+00
    0.16491E-07        -0.10238E-11         0.00000E+00
    0.16611E-07        -0.10106E-11         0.00000E+00
    0.16731E-07        -0.99530E-12         0.00000E+00
    0.16848E-07        -0.97774E-12         0.00000E+00
    0.16965E-07        -0.95787E-12         0.00000E+00
    0.17079E-07        -0.93560E-12         0.00000E+00
    0.17191E-07        -0.91083E-12         0.00000E+00
    0.17301E-07        -0.88347E-12         0.00000E+00
    0.17409E-07        -0.85339E-12         0.00000E+00
    0.17515E-07        -0.82045E-12         0.00000E+00
    0.17619E-07        -0.78450E-12         0.00000E+00
    0.17719E-07        -0.74533E-12         0.00000E+00
    0.17817E-07        -0.70273E-12         0.00000E+00
    0.17913E-07        -0.65643E-12         0.00000E+00
    0.18005E-07        -0.60609E-12         0.00000E+00
    0.18094E-07        -0.55132E-12         0.00000E+00
    0.18181E-07        -0.49163E-12         0.00000E+00
    0.18264E-07        -0.42644E-12         0.00000E+00
    0.18343E-07        -0.35507E-12         0.00000E+00
    0.18420E-07        -0.27670E-12         0.00000E+00
    0.18492E-07        -0.19042E-12         0.00000E+00
    0.18561E-07        -0.95191E-13         0.00000E+00
    0.18627E-07         0.10092E-13         0.00000E+00
    0.18688E-07         0.12655E-12         0.00000E+00
    0.18746E-07         0.25521E-12         0.00000E+00
    0.18800E-07         0.39684E-12         0.00000E+00
    0.18849E-07         0.55168E-12         0.00000E+00
    0.18895E-07         0.71908E-12         0.00000E+00
    0.18936E-07         0.89692E-12         0.00000E+00
    0.18974E-07         0.10809E-11         0.00000E+00
    0.19007E-07         0.12634E-11         0.00000E+00
    0.19035E-07         0.14323E-11         0.00000E+00
    0.19059E-07         0.15688E-11         0.00000E+00
    0.19079E-07         0.16453E-11         0.00000E+00
    0.19095E-07         0.16233E-11         0.00000E+00
    0.19106E-07         0.14514E-11         0.00000E+00
    0.19112E-07         0.10675E-11         0.00000E+00
    0.19115E-07         0.40713E-12         0.00000E+00
    0.11053E-07         0.35910E-12         0.00000E+00
    0.11055E-07         0.94157E-12         0.00000E+00
    0.11060E-07         0.12816E-11         0.00000E+00
    0.11070E-07         0.14379E-11         0.00000E+00
    0.11083E-07         0.14658E-11         0.00000E+00
    0.11099E-07         0.14098E-11         0.00000E+00
    0.11120E-07         0.13032E-11         0.00000E+00
    0.11144E-07         0.11693E-11         0.00000E+00
    0.11172E-07         0.10238E-11         0.00000E+00
    0.11204E-07         0.87688E-12         0.00000E+00
    0.11239E-07         0.73494E-12         0.00000E+00
    0.11278E-07         0.60146E-12         0.00000E+00
    0.11320E-07         0.47811E-12         0.00000E+00
    0.11366E-07         0.36535E-12         0.00000E+00
    0.11416E-07         0.26292E-12         0.00000E+00
    0.11469E-07         0.17007E-12         0.00000E+00
    0.11525E-07         0.85902E-13         0.00000E+00
    0.11585E-07         0.94050E-14         0.00000E+00
    0.11648E-07        -0.60394E-13         0.00000E+00
    0.11715E-07        -0.12440E-12         0.00000E+00
    0.11784E-07        -0.18342E-12         0.00000E+00
    0.11857E-07        -0.23815E-12         0.00000E+00
    0.11933E-07        -0.28920E-12         0.00000E+00
    0.12011E-07        -0.33705E-12         0.00000E+00
    0.12093E-07        -0.38213E-12         0.00000E+00
    0.12178E-07        -0.42476E-12         0.00000E+00
    0.12265E-07        -0.46523E-12         0.00000E+00
    0.12355E-07        -0.50374E-12         0.00000E+00
    0.12448E-07        -0.54049E-12         0.00000E+00
    0.12544E-07        -0.57561E-12         0.00000E+00
    0.12641E-07        -0.60921E-12         0.00000E+00
    0.12742E-07        -0.64140E-12         0.00000E+00
    0.12844E-07        -0.67223E-12         0.00000E+00
    0.12949E-07        -0.70177E-12         0.00000E+00
    0.13056E-07        -0.73006E-12         0.00000E+00
    0.13166E-07        -0.75714E-12         0.00000E+00
    0.13277E-07        -0.78303E-12         0.00000E+00
    0.13390E-07        -0.80775E-12         0.00000E+00
    0.13504E-07        -0.83132E-12         0.00000E+00
    0.13621E-07        -0.85375E-12         0.00000E+00
    0.13739E-07        -0.87502E-12         0.00000E+00
    0.13858E-07        -0.89515E-12         0.00000E+00
    0.13979E-07        -0.91412E-12         0.00000E+00
    0.14101E-07        -0.93193E-12         0.00000E+00
    0.14224E-07        -0.94855E-12         0.00000E+00
    0.14348E-07        -0.96396E-12         0.00000E+00
    0.14473E-07        -0.97816E-12         0.00000E+00
    0.14598E-07        -0.99110E-12         0.00000E+00
    0.14725E-07        -0.10028E-11         0.00000E+00
    0.14852E-07        -0.10131E-11         0.00000E+00
    0.14979E-07        -0.10221E-11         0.00000E+00
    0.15106E-07        -0.10297E-11         0.00000E+00
    0.15234E-07        -0.10359E-11         0.00000E+00
    0.15362E-07        -0.10406E-11         0.00000E+00
    0.15489E-07        -0.10438E-11         0.00000E+00
    0.15617E-07        -0.10455E-11         0.00000E+00
    0.15744E-07        -0.10455E-11         0.00000E+00
    0.15870E-07        -0.10438E-11         0.00000E+00
    0.15996E-07        -0.10405E-11         0.00000E+00
    0.16121E-07        -0.10353E-11         0.00000E+00
    0.16245E-07        -0.10283E-11         0.00000E+00
    0.16369E-07        -0.10194E-11         0.00000E+00
    0.16491E-07        -0.10086E-11         0.00000E+00
    0.16611E-07        -0.99565E-12         0.00000E+00
    0.16731E-07        -0.98064E-12         0.00000E+00
    0.16848E-07        -0.96345E-12         0.00000E+00
    0.16965E-07        -0.94400E-12         0.00000E+00
    0.17079E-07        -0.92220E-12         0.00000E+00
    0.17191E-07        -0.89796E-12         0.00000E+00
    0.17301E-07        -0.87117E-12         0.00000E+00
    0.17409E-07        -0.84172E-12         0.00000E+00
    0.17515E-07        -0.80947E-12         0.00000E+00
    0.17619E-07        -0.77427E-12         0.00000E+00
    0.17719E-07        -0.73593E-12         0.00000E+00
    0.17817E-07        -0.69422E-12         0.00000E+00
    0.17913E-07        -0.64889E-12         0.00000E+00
    0.18005E-07        -0.59960E-12         0.00000E+00
    0.18094E-07        -0.54597E-12         0.00000E+00
    0.18181E-07        -0.48751E-12         0.00000E+00
    0.18264E-07        -0.42365E-12         0.00000E+00
    0.18343E-07        -0.35371E-12         0.00000E+00
    0.18420E-07        -0.27689E-12         0.00000E+00
    0.18492E-07        -0.19225E-12         0.00000E+00
    0.18561E-07        -0.98784E-13         0.00000E+00
    0.18627E-07         0.46392E-14         0.00000E+00
    0.18688E-07         0.11915E-12         0.00000E+00
    0.18746E-07         0.24579E-12         0.00000E+00
    0.18800E-07         0.38536E-12         0.00000E+00
    0.18849E-07         0.53816E-12         0.00000E+00
    0.18895E-07         0.70361E-12         0.00000E+00
    0.18936E-07         0.87970E-12         0.00000E+00
    0.18974E-07         0.10623E-11         0.00000E+00
    0.19007E-07         0.12440E-11         0.00000E+00
    0.19035E-07         0.14129E-11         0.00000E+00
    0.19059E-07         0.15506E-11         0.00000E+00
    0.19079E-07         0.16300E-11         0.00000E+00
    0.19095E-07         0.16125E-11         0.00000E+00
    0.19106E-07         0.14462E-11         0.00000E+00
    0.19112E-07         0.10673E-11         0.00000E+00
    0.19115E-07         0.40802E-12         0.00000E+00
    0.11053E-07         0.35891E-12         0.00000E+00
    0.11055E-07         0.93854E-12         0.00000E+00
    0.11060E-07         0.12726E-11         0.00000E+00
    0.11070E-07         0.14230E-11         0.00000E+00
    0.11083E-07         0.14464E-11         0.00000E+00
    0.11099E-07         0.13879E-11         0.00000E+00
    0.11120E-07         0.12803E-11         0.00000E+00
    0.11144E-07         0.11467E-11         0.00000E+00
    0.11172E-07         0.10023E-11         0.00000E+00
    0.11204E-07         0.85701E-12         0.00000E+00
    0.11239E-07         0.71699E-12         0.00000E+00
    0.11278E-07         0.58558E-12         0.00000E+00
    0.11320E-07         0.46436E-12         0.00000E+00
    0.11366E-07         0.35371E-12         0.00000E+00
    0.11416E-07         0.25331E-12         0.00000E+00
    0.11469E-07         0.16242E-12         0.00000E+00
    0.11525E-07         0.80099E-13         0.00000E+00
    0.11585E-07         0.53443E-14         0.00000E+00
    0.11648E-07        -0.62820E-13         0.00000E+00
    0.11715E-07        -0.12529E-12         0.00000E+00
    0.11784E-07        -0.18288E-12         0.00000E+00
    0.11857E-07        -0.23628E-12         0.00000E+00
    0.11933E-07        -0.28607E-12         0.00000E+00
    0.12011E-07        -0.33275E-12         0.00000E+00
    0.12093E-07        -0.37672E-12         0.00000E+00
    0.12178E-07        -0.41832E-12         0.00000E+00
    0.12265E-07        -0.45781E-12         0.00000E+00
    0.12355E-07        -0.49541E-12         0.00000E+00
    0.12448E-07        -0.53128E-12         0.00000E+00
    0.12544E-07        -0.56558E-12         0.00000E+00
    0.12641E-07        -0.59841E-12         0.00000E+00
    0.12742E-07        -0.62985E-12         0.00000E+00
    0.12844E-07        -0.65999E-12         0.00000E+00
    0.12949E-07        -0.68886E-12         0.00000E+00
    0.13056E-07        -0.71653E-12         0.00000E+00
    0.13166E-07        -0.74301E-12         0.00000E+00
    0.13277E-07        -0.76834E-12         0.00000E+00
    0.13390E-07        -0.79253E-12         0.00000E+00
    0.13504E-07        -0.81560E-12         0.00000E+00
    0.13621E-07        -0.83755E-12         0.00000E+00
    0.13739E-07        -0.85838E-12         0.00000E+00
    0.13858E-07        -0.87809E-12         0.00000E+00
    0.13979E-07        -0.89667E-12         0.00000E+00
    0.14101E-07        -0.91412E-12         0.00000E+00
    0.14224E-07        -0.93040E-12         0.00000E+00
    0.14348E-07        -0.94552E-12         0.00000E+00
    0.14473E-07        -0.95943E-12         0.00000E+00
    0.14598E-07        -0.97212E-12         0.00000E+00
    0.14725E-07        -0.98357E-12         0.00000E+00
    0.14852E-07        -0.99372E-12         0.00000E+00
    0.14979E-07        -0.10026E-11         0.00000E+00
    0.15106E-07        -0.10101E-11         0.00000E+00
    0.15234E-07        -0.10161E-11         0.00000E+00
    0.15362E-07        -0.10208E-11         0.00000E+00
    0.15489E-07        -0.10240E-11         0.00000E+00
    0.15617E-07        -0.10256E-11         0.00000E+00
    0.15744E-07        -0.10257E-11         0.00000E+00
    0.15870E-07        -0.10241E-11         0.00000E+00
    0.15996E-07        -0.10209E-11         0.00000E+00
    0.16121E-07        -0.10159E-11         0.00000E+00
    0.16245E-07        -0.10091E-11         0.00000E+00
    0.16369E-07        -0.10004E-11         0.00000E+00
    0.16491E-07        -0.98983E-12         0.00000E+00
    0.16611E-07        -0.97726E-12         0.00000E+00
    0.16731E-07        -0.96264E-12         0.00000E+00
    0.16848E-07        -0.94588E-12         0.00000E+00
    0.16965E-07        -0.92691E-12         0.00000E+00
    0.17079E-07        -0.90565E-12         0.00000E+00
    0.17191E-07        -0.88201E-12         0.00000E+00
    0.17301E-07        -0.85588E-12         0.00000E+00
    0.17410E-07        -0.82716E-12         0.00000E+00
    0.17515E-07        -0.79570E-12         0.00000E+00
    0.17619E-07        -0.76137E-12         0.00000E+00
    0.17719E-07        -0.72397E-12         0.00000E+00
    0.17817E-07        -0.68329E-12         0.00000E+00
    0.17913E-07        -0.63908E-12         0.00000E+00
    0.18005E-07        -0.59100E-12         0.00000E+00
    0.18094E-07        -0.53869E-12         0.00000E+00
    0.18181E-07        -0.48166E-12         0.00000E+00
    0.18264E-07        -0.41935E-12         0.00000E+00
    0.18343E-07        -0.35108E-12         0.00000E+00
    0.18420E-07        -0.27606E-12         0.00000E+00
    0.18492E-07        -0.19337E-12         0.00000E+00
    0.18561E-07        -0.10199E-12         0.00000E+00
    0.18627E-07        -0.79197E-15         0.00000E+00
    0.18688E-07         0.11135E-12         0.00000E+00
    0.18746E-07         0.23552E-12         0.00000E+00
    0.18800E-07         0.37252E-12         0.00000E+00
    0.18849E-07         0.52272E-12         0.00000E+00
    0.18895E-07         0.68561E-12         0.00000E+00
    0.18936E-07         0.85932E-12         0.00000E+00
    0.18974E-07         0.10399E-11         0.00000E+00
    0.19007E-07         0.12201E-11         0.00000E+00
    0.19035E-07         0.13885E-11         0.00000E+00
    0.19059E-07         0.15271E-11         0.00000E+00
    0.19079E-07         0.16092E-11         0.00000E+00
    0.19095E-07         0.15966E-11         0.00000E+00
    0.19106E-07         0.14370E-11         0.00000E+00
    0.19112E-07         0.10647E-11         0.00000E+00
    0.19114E-07         0.40814E-12         0.00000E+00
    0.11053E-07         0.35798E-12         0.00000E+00
    0.11055E-07         0.93322E-12         0.00000E+00
    0.11060E-07         0.12599E-11         0.00000E+00
    0.11070E-07         0.14034E-11         0.00000E+00
    0.11083E-07         0.14220E-11         0.00000E+00
    0.11099E-07         0.13610E-11         0.00000E+00
    0.11120E-07         0.12529E-11         0.00000E+00
    0.11144E-07         0.11199E-11         0.00000E+00
    0.11172E-07         0.97714E-12         0.00000E+00
    0.11204E-07         0.83405E-12         0.00000E+00
    0.11239E-07         0.69648E-12         0.00000E+00
    0.11278E-07         0.56764E-12         0.00000E+00
    0.11320E-07         0.44899E-12         0.00000E+00
    0.11366E-07         0.34086E-12         0.00000E+00
    0.11416E-07         0.24287E-12         0.00000E+00
    0.11469E-07         0.15427E-12         0.00000E+00
    0.11525E-07         0.74095E-13         0.00000E+00
    0.11585E-07         0.13492E-14         0.00000E+00
    0.11648E-07        -0.64941E-13         0.00000E+00
    0.11715E-07        -0.12567E-12         0.00000E+00
    0.11784E-07        -0.18163E-12         0.00000E+00
    0.11857E-07        -0.23350E-12         0.00000E+00
    0.11933E-07        -0.28187E-12         0.00000E+00
    0.12011E-07        -0.32722E-12         0.00000E+00
    0.12093E-07        -0.36995E-12         0.00000E+00
    0.12178E-07        -0.41037E-12         0.00000E+00
    0.12265E-07        -0.44875E-12         0.00000E+00
    0.12355E-07        -0.48530E-12         0.00000E+00
    0.12448E-07        -0.52019E-12         0.00000E+00
    0.12544E-07        -0.55355E-12         0.00000E+00
    0.12641E-07        -0.58549E-12         0.00000E+00
    0.12742E-07        -0.61610E-12         0.00000E+00
    0.12844E-07        -0.64543E-12         0.00000E+00
    0.12949E-07        -0.67355E-12         0.00000E+00
    0.13056E-07        -0.70049E-12         0.00000E+00
    0.13166E-07        -0.72629E-12         0.00000E+00
    0.13277E-07        -0.75097E-12         0.00000E+00
    0.13390E-07        -0.77455E-12         0.00000E+00
    0.13504E-07        -0.79704E-12         0.00000E+00
    0.13621E-07        -0.81844E-12         0.00000E+00
    0.13739E-07        -0.83875E-12         0.00000E+00
    0.13858E-07        -0.85798E-12         0.00000E+00
    0.13979E-07        -0.87611E-12         0.00000E+00
    0.14101E-07        -0.89313E-12         0.00000E+00
    0.14224E-07        -0.90903E-12         0.00000E+00
    0.14348E-07        -0.92379E-12         0.00000E+00
    0.14473E-07        -0.93738E-12         0.00000E+00
    0.14598E-07        -0.94978E-12         0.00000E+00
    0.14725E-07        -0.96096E-12         0.00000E+00
    0.14852E-07        -0.97090E-12         0.00000E+00
    0.14979E-07        -0.97955E-12         0.00000E+00
    0.15106E-07        -0.98688E-12         0.00000E+00
    0.15234E-07        -0.99286E-12         0.00000E+00
    0.15362E-07        -0.99743E-12         0.00000E+00
    0.15489E-07        -0.10006E-11         0.00000E+00
    0.15617E-07        -0.10022E-11         0.00000E+00
    0.15744E-07        -0.10023E-11         0.00000E+00
    0.15870E-07        -0.10008E-11         0.00000E+00
    0.15996E-07        -0.99769E-12         0.00000E+00
    0.16121E-07        -0.99287E-12         0.00000E+00
    0.16245E-07        -0.98630E-12         0.00000E+00
    0.16369E-07        -0.97791E-12         0.00000E+00
    0.16491E-07        -0.96766E-12         0.00000E+00
    0.16611E-07        -0.95546E-12         0.00000E+00
    0.16731E-07        -0.94126E-12         0.00000E+00
    0.16848E-07        -0.92499E-12         0.00000E+00
    0.16965E-07        -0.90657E-12         0.00000E+00
    0.17079E-07        -0.88592E-12         0.00000E+00
    0.17191E-07        -0.86296E-12         0.00000E+00
    0.17301E-07        -0.83758E-12         0.00000E+00
    0.17410E-07        -0.80967E-12         0.00000E+00
    0.17515E-07        -0.77911E-12         0.00000E+00
    0.17619E-07        -0.74576E-12         0.00000E+00
    0.17719E-07        -0.70943E-12         0.00000E+00
    0.17817E-07        -0.66991E-12         0.00000E+00
    0.17913E-07        -0.62696E-12         0.00000E+00
    0.18005E-07        -0.58027E-12         0.00000E+00
    0.18094E-07        -0.52944E-12         0.00000E+00
    0.18181E-07        -0.47403E-12         0.00000E+00
    0.18264E-07        -0.41348E-12         0.00000E+00
    0.18343E-07        -0.34712E-12         0.00000E+00
    0.18420E-07        -0.27417E-12         0.00000E+00
    0.18492E-07        -0.19371E-12         0.00000E+00
    0.18561E-07        -0.10474E-12         0.00000E+00
    0.18627E-07        -0.61380E-14         0.00000E+00
    0.18688E-07         0.10324E-12         0.00000E+00
    0.18746E-07         0.22446E-12         0.00000E+00
    0.18800E-07         0.35839E-12         0.00000E+00
    0.18849E-07         0.50543E-12         0.00000E+00
    0.18895E-07         0.66515E-12         0.00000E+00
    0.18936E-07         0.83582E-12         0.00000E+00
    0.18974E-07         0.10136E-11         0.00000E+00
    0.19007E-07         0.11918E-11         0.00000E+00
    0.19035E-07         0.13591E-11         0.00000E+00
    0.19060E-07         0.14982E-11         0.00000E+00
    0.19079E-07         0.15830E-11         0.00000E+00
    0.19095E-07         0.15757E-11         0.00000E+00
    0.19106E-07         0.14237E-11         0.00000E+00
    0.19112E-07         0.10594E-11         0.00000E+00
    0.19114E-07         0.40742E-12         0.00000E+00
    0.11053E-07         0.35624E-12         0.00000E+00
    0.11055E-07         0.92540E-12         0.00000E+00
    0.11060E-07         0.12433E-11         0.00000E+00
    0.11070E-07         0.13790E-11         0.00000E+00
    0.11083E-07         0.13925E-11         0.00000E+00
    0.11099E-07         0.13291E-11         0.00000E+00
    0.11120E-07         0.12207E-11         0.00000E+00
    0.11144E-07         0.10890E-11         0.00000E+00
    0.11172E-07         0.94842E-12         0.00000E+00
    0.11204E-07         0.80804E-12         0.00000E+00
    0.11239E-07         0.67346E-12         0.00000E+00
    0.11278E-07         0.54769E-12         0.00000E+00
    0.11320E-07         0.43208E-12         0.00000E+00
    0.11366E-07         0.32687E-12         0.00000E+00
    0.11416E-07         0.23167E-12         0.00000E+00
    0.11469E-07         0.14568E-12         0.00000E+00
    0.11525E-07         0.67942E-13         0.00000E+00
    0.11585E-07        -0.25332E-14         0.00000E+00
    0.11648E-07        -0.66714E-13         0.00000E+00
    0.11714E-07        -0.12548E-12         0.00000E+00
    0.11784E-07        -0.17962E-12         0.00000E+00
    0.11857E-07        -0.22980E-12         0.00000E+00
    0.11932E-07        -0.27658E-12         0.00000E+00
    0.12011E-07        -0.32044E-12         0.00000E+00
    0.12093E-07        -0.36178E-12         0.00000E+00
    0.12178E-07        -0.40089E-12         0.00000E+00
    0.12265E-07        -0.43803E-12         0.00000E+00
    0.12355E-07        -0.47342E-12         0.00000E+00
    0.12448E-07        -0.50720E-12         0.00000E+00
    0.12544E-07        -0.53951E-12         0.00000E+00
    0.12641E-07        -0.57046E-12         0.00000E+00
    0.12742E-07        -0.60012E-12         0.00000E+00
    0.12844E-07        -0.62855E-12         0.00000E+00
    0.12949E-07        -0.65581E-12         0.00000E+00
    0.13056E-07        -0.68194E-12         0.00000E+00
    0.13166E-07        -0.70697E-12         0.00000E+00
    0.13277E-07        -0.73092E-12         0.00000E+00
    0.13390E-07        -0.75380E-12         0.00000E+00
    0.13504E-07        -0.77563E-12         0.00000E+00
    0.13621E-07        -0.79640E-12         0.00000E+00
    0.13739E-07        -0.81613E-12         0.00000E+00
    0.13858E-07        -0.83481E-12         0.00000E+00
    0.13979E-07        -0.85242E-12         0.00000E+00
    0.14101E-07        -0.86896E-12         0.00000E+00
    0.14224E-07        -0.88442E-12         0.00000E+00
    0.14348E-07        -0.89876E-12         0.00000E+00
    0.14473E-07        -0.91198E-12         0.00000E+00
    0.14598E-07        -0.92405E-12         0.00000E+00
    0.14725E-07        -0.93493E-12         0.00000E+00
    0.14852E-07        -0.94461E-12         0.00000E+00
    0.14979E-07        -0.95304E-12         0.00000E+00
    0.15106E-07        -0.96019E-12         0.00000E+00
    0.15234E-07        -0.96603E-12         0.00000E+00
    0.15362E-07        -0.97051E-12         0.00000E+00
    0.15489E-07        -0.97358E-12         0.00000E+00
    0.15617E-07        -0.97522E-12         0.00000E+00
    0.15744E-07        -0.97536E-12         0.00000E+00
    0.15870E-07        -0.97396E-12         0.00000E+00
    0.15996E-07        -0.97097E-12         0.00000E+00
    0.16121E-07        -0.96633E-12         0.00000E+00
    0.16245E-07        -0.96000E-12         0.00000E+00
    0.16369E-07        -0.95191E-12         0.00000E+00
    0.16491E-07        -0.94201E-12         0.00000E+00
    0.16611E-07        -0.93023E-12         0.00000E+00
    0.16731E-07        -0.91651E-12         0.00000E+00
    0.16848E-07        -0.90077E-12         0.00000E+00
    0.16965E-07        -0.88296E-12         0.00000E+00
    0.17079E-07        -0.86299E-12         0.00000E+00
    0.17191E-07        -0.84078E-12         0.00000E+00
    0.17301E-07        -0.81622E-12         0.00000E+00
    0.17410E-07        -0.78923E-12         0.00000E+00
    0.17515E-07        -0.75967E-12         0.00000E+00
    0.17619E-07        -0.72741E-12         0.00000E+00
    0.17719E-07        -0.69227E-12         0.00000E+00
    0.17817E-07        -0.65405E-12         0.00000E+00
    0.17913E-07        -0.61251E-12         0.00000E+00
    0.18005E-07        -0.56735E-12         0.00000E+00
    0.18094E-07        -0.51819E-12         0.00000E+00
    0.18181E-07        -0.46459E-12         0.00000E+00
    0.18264E-07        -0.40600E-12         0.00000E+00
    0.18343E-07        -0.34178E-12         0.00000E+00
    0.18420E-07        -0.27115E-12         0.00000E+00
    0.18492E-07        -0.19322E-12         0.00000E+00
    0.18561E-07        -0.10698E-12         0.00000E+00
    0.18627E-07        -0.11332E-13         0.00000E+00
    0.18688E-07         0.94864E-13         0.00000E+00
    0.18746E-07         0.21269E-12         0.00000E+00
    0.18800E-07         0.34304E-12         0.00000E+00
    0.18849E-07         0.48634E-12         0.00000E+00
    0.18895E-07         0.64228E-12         0.00000E+00
    0.18937E-07         0.80924E-12         0.00000E+00
    0.18974E-07         0.98365E-12         0.00000E+00
    0.19007E-07         0.11590E-11         0.00000E+00
    0.19035E-07         0.13246E-11         0.00000E+00
    0.19060E-07         0.14637E-11         0.00000E+00
    0.19079E-07         0.15509E-11         0.00000E+00
    0.19095E-07         0.15492E-11         0.00000E+00
    0.19106E-07         0.14060E-11         0.00000E+00
    0.19112E-07         0.10514E-11         0.00000E+00
    0.19114E-07         0.40579E-12         0.00000E+00
    0.11054E-07         0.35360E-12         0.00000E+00
    0.11055E-07         0.91488E-12         0.00000E+00
    0.11060E-07         0.12224E-11         0.00000E+00
    0.11070E-07         0.13495E-11         0.00000E+00
    0.11082E-07         0.13577E-11         0.00000E+00
    0.11099E-07         0.12921E-11         0.00000E+00
    0.11120E-07         0.11839E-11         0.00000E+00
    0.11144E-07         0.10540E-11         0.00000E+00
    0.11172E-07         0.91610E-12         0.00000E+00
    0.11204E-07         0.77902E-12         0.00000E+00
    0.11239E-07         0.64797E-12         0.00000E+00
    0.11278E-07         0.52578E-12         0.00000E+00
    0.11320E-07         0.41366E-12         0.00000E+00
    0.11366E-07         0.31180E-12         0.00000E+00
    0.11416E-07         0.21975E-12         0.00000E+00
    0.11469E-07         0.13670E-12         0.00000E+00
    0.11525E-07         0.61692E-13         0.00000E+00
    0.11585E-07        -0.62539E-14         0.00000E+00
    0.11648E-07        -0.68093E-13         0.00000E+00
    0.11714E-07        -0.12469E-12         0.00000E+00
    0.11784E-07        -0.17682E-12         0.00000E+00
    0.11857E-07        -0.22512E-12         0.00000E+00
    0.11932E-07        -0.27016E-12         0.00000E+00
    0.12011E-07        -0.31239E-12         0.00000E+00
    0.12093E-07        -0.35218E-12         0.00000E+00
    0.12178E-07        -0.38985E-12         0.00000E+00
    0.12265E-07        -0.42563E-12         0.00000E+00
    0.12355E-07        -0.45972E-12         0.00000E+00
    0.12448E-07        -0.49229E-12         0.00000E+00
    0.12543E-07        -0.52344E-12         0.00000E+00
    0.12641E-07        -0.55328E-12         0.00000E+00
    0.12742E-07        -0.58189E-12         0.00000E+00
    0.12844E-07        -0.60933E-12         0.00000E+00
    0.12949E-07        -0.63564E-12         0.00000E+00
    0.13056E-07        -0.66086E-12         0.00000E+00
    0.13166E-07        -0.68503E-12         0.00000E+00
    0.13277E-07        -0.70816E-12         0.00000E+00
    0.13390E-07        -0.73026E-12         0.00000E+00
    0.13504E-07        -0.75135E-12         0.00000E+00
    0.13621E-07        -0.77143E-12         0.00000E+00
    0.13739E-07        -0.79051E-12         0.00000E+00
    0.13858E-07        -0.80856E-12         0.00000E+00
    0.13979E-07        -0.82560E-12         0.00000E+00
    0.14101E-07        -0.84160E-12         0.00000E+00
    0.14224E-07        -0.85655E-12         0.00000E+00
    0.14348E-07        -0.87044E-12         0.00000E+00
    0.14473E-07        -0.88324E-12         0.00000E+00
    0.14598E-07        -0.89492E-12         0.00000E+00
    0.14725E-07        -0.90547E-12         0.00000E+00
    0.14852E-07        -0.91485E-12         0.00000E+00
    0.14979E-07        -0.92303E-12         0.00000E+00
    0.15106E-07        -0.92997E-12         0.00000E+00
    0.15234E-07        -0.93564E-12         0.00000E+00
    0.15362E-07        -0.94001E-12         0.00000E+00
    0.15489E-07        -0.94302E-12         0.00000E+00
    0.15617E-07        -0.94464E-12         0.00000E+00
    0.15744E-07        -0.94481E-12         0.00000E+00
    0.15870E-07        -0.94350E-12         0.00000E+00
    0.15996E-07        -0.94066E-12         0.00000E+00
    0.16121E-07        -0.93623E-12         0.00000E+00
    0.16245E-07        -0.93015E-12         0.00000E+00
    0.16369E-07        -0.92239E-12         0.00000E+00
    0.16491E-07        -0.91287E-12         0.00000E+00
    0.16611E-07        -0.90154E-12         0.00000E+00
    0.16731E-07        -0.88834E-12         0.00000E+00
    0.16848E-07        -0.87320E-12         0.00000E+00
    0.16965E-07        -0.85606E-12         0.00000E+00
    0.17079E-07        -0.83683E-12         0.00000E+00
    0.17191E-07        -0.81544E-12         0.00000E+00
    0.17301E-07        -0.79180E-12         0.00000E+00
    0.17410E-07        -0.76581E-12         0.00000E+00
    0.17515E-07        -0.73735E-12         0.00000E+00
    0.17619E-07        -0.70629E-12         0.00000E+00
    0.17719E-07        -0.67246E-12         0.00000E+00
    0.17817E-07        -0.63567E-12         0.00000E+00
    0.17913E-07        -0.59568E-12         0.00000E+00
    0.18005E-07        -0.55220E-12         0.00000E+00
    0.18094E-07        -0.50488E-12         0.00000E+00
    0.18181E-07        -0.45327E-12         0.00000E+00
    0.18264E-07        -0.39686E-12         0.00000E+00
    0.18343E-07        -0.33500E-12         0.00000E+00
    0.18420E-07        -0.26695E-12         0.00000E+00
    0.18492E-07        -0.19183E-12         0.00000E+00
    0.18561E-07        -0.10864E-12         0.00000E+00
    0.18627E-07        -0.16305E-13         0.00000E+00
    0.18688E-07         0.86308E-13         0.00000E+00
    0.18746E-07         0.20029E-12         0.00000E+00
    0.18800E-07         0.32653E-12         0.00000E+00
    0.18850E-07         0.46554E-12         0.00000E+00
    0.18895E-07         0.61705E-12         0.00000E+00
    0.18937E-07         0.77962E-12         0.00000E+00
    0.18974E-07         0.94991E-12         0.00000E+00
    0.19007E-07         0.11218E-11         0.00000E+00
    0.19035E-07         0.12850E-11         0.00000E+00
    0.19060E-07         0.14235E-11         0.00000E+00
    0.19079E-07         0.15129E-11         0.00000E+00
    0.19095E-07         0.15170E-11         0.00000E+00
    0.19106E-07         0.13834E-11         0.00000E+00
    0.19112E-07         0.10403E-11         0.00000E+00
    0.19114E-07         0.40314E-12         0.00000E+00
    0.11054E-07         0.34997E-12         0.00000E+00
    0.11055E-07         0.90138E-12         0.00000E+00
    0.11060E-07         0.11970E-11         0.00000E+00
    0.11070E-07         0.13146E-11         0.00000E+00
    0.11082E-07         0.13174E-11         0.00000E+00
    0.11099E-07         0.12499E-11         0.00000E+00
    0.11120E-07         0.11423E-11         0.00000E+00
    0.11144E-07         0.10147E-11         0.00000E+00
    0.11172E-07         0.88022E-12         0.00000E+00
    0.11204E-07         0.74703E-12         0.00000E+00
    0.11239E-07         0.62008E-12         0.00000E+00
    0.11278E-07         0.50198E-12         0.00000E+00
    0.11320E-07         0.39382E-12         0.00000E+00
    0.11366E-07         0.29572E-12         0.00000E+00
    0.11416E-07         0.20717E-12         0.00000E+00
    0.11469E-07         0.12739E-12         0.00000E+00
    0.11525E-07         0.55400E-13         0.00000E+00
    0.11585E-07        -0.97617E-14         0.00000E+00
    0.11648E-07        -0.69031E-13         0.00000E+00
    0.11714E-07        -0.12326E-12         0.00000E+00
    0.11784E-07        -0.17318E-12         0.00000E+00
    0.11857E-07        -0.21944E-12         0.00000E+00
    0.11932E-07        -0.26257E-12         0.00000E+00
    0.12011E-07        -0.30301E-12         0.00000E+00
    0.12093E-07        -0.34114E-12         0.00000E+00
    0.12178E-07        -0.37723E-12         0.00000E+00
    0.12265E-07        -0.41152E-12         0.00000E+00
    0.12355E-07        -0.44421E-12         0.00000E+00
    0.12448E-07        -0.47543E-12         0.00000E+00
    0.12543E-07        -0.50531E-12         0.00000E+00
    0.12641E-07        -0.53395E-12         0.00000E+00
    0.12742E-07        -0.56140E-12         0.00000E+00
    0.12844E-07        -0.58774E-12         0.00000E+00
    0.12949E-07        -0.61301E-12         0.00000E+00
    0.13056E-07        -0.63724E-12         0.00000E+00
    0.13166E-07        -0.66046E-12         0.00000E+00
    0.13277E-07        -0.68268E-12         0.00000E+00
    0.13390E-07        -0.70393E-12         0.00000E+00
    0.13504E-07        -0.72421E-12         0.00000E+00
    0.13621E-07        -0.74352E-12         0.00000E+00
    0.13739E-07        -0.76186E-12         0.00000E+00
    0.13858E-07        -0.77923E-12         0.00000E+00
    0.13979E-07        -0.79563E-12         0.00000E+00
    0.14101E-07        -0.81103E-12         0.00000E+00
    0.14224E-07        -0.82542E-12         0.00000E+00
    0.14348E-07        -0.83880E-12         0.00000E+00
    0.14473E-07        -0.85112E-12         0.00000E+00
    0.14598E-07        -0.86239E-12         0.00000E+00
    0.14725E-07        -0.87255E-12         0.00000E+00
    0.14852E-07        -0.88160E-12         0.00000E+00
    0.14979E-07        -0.88950E-12         0.00000E+00
    0.15106E-07        -0.89621E-12         0.00000E+00
    0.15234E-07        -0.90169E-12         0.00000E+00
    0.15362E-07        -0.90592E-12         0.00000E+00
    0.15489E-07        -0.90886E-12         0.00000E+00
    0.15617E-07        -0.91045E-12         0.00000E+00
    0.15744E-07        -0.91066E-12         0.00000E+00
    0.15870E-07        -0.90944E-12         0.00000E+00
    0.15996E-07        -0.90675E-12         0.00000E+00
    0.16121E-07        -0.90253E-12         0.00000E+00
    0.16245E-07        -0.89674E-12         0.00000E+00
    0.16369E-07        -0.88932E-12         0.00000E+00
    0.16491E-07        -0.88022E-12         0.00000E+00
    0.16611E-07        -0.86938E-12         0.00000E+00
    0.16731E-07        -0.85674E-12         0.00000E+00
    0.16848E-07        -0.84225E-12         0.00000E+00
    0.16965E-07        -0.82583E-12         0.00000E+00
    0.17079E-07        -0.80742E-12         0.00000E+00
    0.17191E-07        -0.78693E-12         0.00000E+00
    0.17301E-07        -0.76429E-12         0.00000E+00
    0.17410E-07        -0.73939E-12         0.00000E+00
    0.17515E-07        -0.71213E-12         0.00000E+00
    0.17619E-07        -0.68237E-12         0.00000E+00
    0.17719E-07        -0.64997E-12         0.00000E+00
    0.17817E-07        -0.61473E-12         0.00000E+00
    0.17913E-07        -0.57643E-12         0.00000E+00
    0.18005E-07        -0.53479E-12         0.00000E+00
    0.18095E-07        -0.48947E-12         0.00000E+00
    0.18181E-07        -0.44004E-12         0.00000E+00
    0.18264E-07        -0.38600E-12         0.00000E+00
    0.18343E-07        -0.32673E-12         0.00000E+00
    0.18420E-07        -0.26151E-12         0.00000E+00
    0.18492E-07        -0.18947E-12         0.00000E+00
    0.18561E-07        -0.10965E-12         0.00000E+00
    0.18627E-07        -0.20981E-13         0.00000E+00
    0.18688E-07         0.77647E-13         0.00000E+00
    0.18746E-07         0.18732E-12         0.00000E+00
    0.18800E-07         0.30895E-12         0.00000E+00
    0.18850E-07         0.44308E-12         0.00000E+00
    0.18895E-07         0.58954E-12         0.00000E+00
    0.18937E-07         0.74703E-12         0.00000E+00
    0.18974E-07         0.91246E-12         0.00000E+00
    0.19007E-07         0.10801E-11         0.00000E+00
    0.19035E-07         0.12402E-11         0.00000E+00
    0.19060E-07         0.13776E-11         0.00000E+00
    0.19079E-07         0.14688E-11         0.00000E+00
    0.19095E-07         0.14788E-11         0.00000E+00
    0.19106E-07         0.13556E-11         0.00000E+00
    0.19112E-07         0.10259E-11         0.00000E+00
    0.19114E-07         0.39937E-12         0.00000E+00
    0.11054E-07         0.34523E-12         0.00000E+00
    0.11055E-07         0.88462E-12         0.00000E+00
    0.11061E-07         0.11667E-11         0.00000E+00
    0.11070E-07         0.12741E-11         0.00000E+00
    0.11082E-07         0.12713E-11         0.00000E+00
    0.11099E-07         0.12023E-11         0.00000E+00
    0.11120E-07         0.10960E-11         0.00000E+00
    0.11144E-07         0.97134E-12         0.00000E+00
    0.11172E-07         0.84082E-12         0.00000E+00
    0.11204E-07         0.71213E-12         0.00000E+00
    0.11239E-07         0.58984E-12         0.00000E+00
    0.11278E-07         0.47635E-12         0.00000E+00
    0.11320E-07         0.37262E-12         0.00000E+00
    0.11366E-07         0.27868E-12         0.00000E+00
    0.11416E-07         0.19402E-12         0.00000E+00
    0.11469E-07         0.11781E-12         0.00000E+00
    0.11525E-07         0.49124E-13         0.00000E+00
    0.11585E-07        -0.13004E-13         0.00000E+00
    0.11648E-07        -0.69480E-13         0.00000E+00
    0.11714E-07        -0.12113E-12         0.00000E+00
    0.11784E-07        -0.16867E-12         0.00000E+00
    0.11857E-07        -0.21271E-12         0.00000E+00
    0.11932E-07        -0.25378E-12         0.00000E+00
    0.12011E-07        -0.29230E-12         0.00000E+00
    0.12093E-07        -0.32861E-12         0.00000E+00
    0.12178E-07        -0.36300E-12         0.00000E+00
    0.12265E-07        -0.39568E-12         0.00000E+00
    0.12355E-07        -0.42684E-12         0.00000E+00
    0.12448E-07        -0.45661E-12         0.00000E+00
    0.12543E-07        -0.48511E-12         0.00000E+00
    0.12641E-07        -0.51243E-12         0.00000E+00
    0.12742E-07        -0.53864E-12         0.00000E+00
    0.12844E-07        -0.56379E-12         0.00000E+00
    0.12949E-07        -0.58792E-12         0.00000E+00
    0.13056E-07        -0.61106E-12         0.00000E+00
    0.13166E-07        -0.63324E-12         0.00000E+00
    0.13277E-07        -0.65448E-12         0.00000E+00
    0.13390E-07        -0.67479E-12         0.00000E+00
    0.13504E-07        -0.69418E-12         0.00000E+00
    0.13621E-07        -0.71264E-12         0.00000E+00
    0.13739E-07        -0.73019E-12         0.00000E+00
    0.13858E-07        -0.74681E-12         0.00000E+00
    0.13979E-07        -0.76249E-12         0.00000E+00
    0.14101E-07        -0.77724E-12         0.00000E+00
    0.14224E-07        -0.79102E-12         0.00000E+00
    0.14348E-07        -0.80382E-12         0.00000E+00
    0.14473E-07        -0.81564E-12         0.00000E+00
    0.14598E-07        -0.82643E-12         0.00000E+00
    0.14725E-07        -0.83618E-12         0.00000E+00
    0.14852E-07        -0.84486E-12         0.00000E+00
    0.14979E-07        -0.85243E-12         0.00000E+00
    0.15106E-07        -0.85888E-12         0.00000E+00
    0.15234E-07        -0.86416E-12         0.00000E+00
    0.15362E-07        -0.86824E-12         0.00000E+00
    0.15489E-07        -0.87108E-12         0.00000E+00
    0.15617E-07        -0.87264E-12         0.00000E+00
    0.15744E-07        -0.87288E-12         0.00000E+00
    0.15870E-07        -0.87175E-12         0.00000E+00
    0.15996E-07        -0.86922E-12         0.00000E+00
    0.16121E-07        -0.86523E-12         0.00000E+00
    0.16245E-07        -0.85973E-12         0.00000E+00
    0.16369E-07        -0.85269E-12         0.00000E+00
    0.16491E-07        -0.84404E-12         0.00000E+00
    0.16611E-07        -0.83373E-12         0.00000E+00
    0.16731E-07        -0.82170E-12         0.00000E+00
    0.16848E-07        -0.80790E-12         0.00000E+00
    0.16965E-07        -0.79227E-12         0.00000E+00
    0.17079E-07        -0.77473E-12         0.00000E+00
    0.17191E-07        -0.75521E-12         0.00000E+00
    0.17301E-07        -0.73364E-12         0.00000E+00
    0.17410E-07        -0.70993E-12         0.00000E+00
    0.17515E-07        -0.68396E-12         0.00000E+00
    0.17619E-07        -0.65562E-12         0.00000E+00
    0.17719E-07        -0.62476E-12         0.00000E+00
    0.17817E-07        -0.59120E-12         0.00000E+00
    0.17913E-07        -0.55473E-12         0.00000E+00
    0.18005E-07        -0.51508E-12         0.00000E+00
    0.18095E-07        -0.47192E-12         0.00000E+00
    0.18181E-07        -0.42485E-12         0.00000E+00
    0.18264E-07        -0.37338E-12         0.00000E+00
    0.18343E-07        -0.31692E-12         0.00000E+00
    0.18420E-07        -0.25476E-12         0.00000E+00
    0.18492E-07        -0.18608E-12         0.00000E+00
    0.18561E-07        -0.10993E-12         0.00000E+00
    0.18627E-07        -0.25283E-13         0.00000E+00
    0.18688E-07         0.68962E-13         0.00000E+00
    0.18746E-07         0.17388E-12         0.00000E+00
    0.18800E-07         0.29039E-12         0.00000E+00
    0.18850E-07         0.41906E-12         0.00000E+00
    0.18895E-07         0.55982E-12         0.00000E+00
    0.18937E-07         0.71153E-12         0.00000E+00
    0.18974E-07         0.87133E-12         0.00000E+00
    0.19007E-07         0.10339E-11         0.00000E+00
    0.19035E-07         0.11901E-11         0.00000E+00
    0.19060E-07         0.13257E-11         0.00000E+00
    0.19079E-07         0.14183E-11         0.00000E+00
    0.19095E-07         0.14342E-11         0.00000E+00
    0.19106E-07         0.13223E-11         0.00000E+00
    0.19112E-07         0.10077E-11         0.00000E+00
    0.19114E-07         0.39434E-12         0.00000E+00
    0.11054E-07         0.33924E-12         0.00000E+00
    0.11055E-07         0.86424E-12         0.00000E+00
    0.11061E-07         0.11310E-11         0.00000E+00
    0.11070E-07         0.12277E-11         0.00000E+00
    0.11082E-07         0.12195E-11         0.00000E+00
    0.11099E-07         0.11493E-11         0.00000E+00
    0.11120E-07         0.10448E-11         0.00000E+00
    0.11144E-07         0.92379E-12         0.00000E+00
    0.11172E-07         0.79793E-12         0.00000E+00
    0.11203E-07         0.67438E-12         0.00000E+00
    0.11239E-07         0.55733E-12         0.00000E+00
    0.11278E-07         0.44898E-12         0.00000E+00
    0.11320E-07         0.35013E-12         0.00000E+00
    0.11366E-07         0.26077E-12         0.00000E+00
    0.11416E-07         0.18034E-12         0.00000E+00
    0.11469E-07         0.10803E-12         0.00000E+00
    0.11525E-07         0.42923E-13         0.00000E+00
    0.11585E-07        -0.15924E-13         0.00000E+00
    0.11648E-07        -0.69389E-13         0.00000E+00
    0.11714E-07        -0.11826E-12         0.00000E+00
    0.11784E-07        -0.16324E-12         0.00000E+00
    0.11857E-07        -0.20491E-12         0.00000E+00
    0.11932E-07        -0.24377E-12         0.00000E+00
    0.12011E-07        -0.28021E-12         0.00000E+00
    0.12093E-07        -0.31458E-12         0.00000E+00
    0.12178E-07        -0.34713E-12         0.00000E+00
    0.12265E-07        -0.37808E-12         0.00000E+00
    0.12355E-07        -0.40759E-12         0.00000E+00
    0.12448E-07        -0.43581E-12         0.00000E+00
    0.12543E-07        -0.46283E-12         0.00000E+00
    0.12641E-07        -0.48873E-12         0.00000E+00
    0.12742E-07        -0.51359E-12         0.00000E+00
    0.12844E-07        -0.53744E-12         0.00000E+00
    0.12949E-07        -0.56034E-12         0.00000E+00
    0.13056E-07        -0.58231E-12         0.00000E+00
    0.13166E-07        -0.60337E-12         0.00000E+00
    0.13277E-07        -0.62354E-12         0.00000E+00
    0.13390E-07        -0.64283E-12         0.00000E+00
    0.13504E-07        -0.66125E-12         0.00000E+00
    0.13621E-07        -0.67880E-12         0.00000E+00
    0.13739E-07        -0.69547E-12         0.00000E+00
    0.13858E-07        -0.71127E-12         0.00000E+00
    0.13979E-07        -0.72619E-12         0.00000E+00
    0.14101E-07        -0.74021E-12         0.00000E+00
    0.14224E-07        -0.75333E-12         0.00000E+00
    0.14348E-07        -0.76551E-12         0.00000E+00
    0.14473E-07        -0.77676E-12         0.00000E+00
    0.14598E-07        -0.78704E-12         0.00000E+00
    0.14725E-07        -0.79633E-12         0.00000E+00
    0.14852E-07        -0.80460E-12         0.00000E+00
    0.14979E-07        -0.81183E-12         0.00000E+00
    0.15106E-07        -0.81798E-12         0.00000E+00
    0.15234E-07        -0.82303E-12         0.00000E+00
    0.15362E-07        -0.82694E-12         0.00000E+00
    0.15489E-07        -0.82967E-12         0.00000E+00
    0.15617E-07        -0.83119E-12         0.00000E+00
    0.15744E-07        -0.83145E-12         0.00000E+00
    0.15870E-07        -0.83042E-12         0.00000E+00
    0.15996E-07        -0.82805E-12         0.00000E+00
    0.16121E-07        -0.82430E-12         0.00000E+00
    0.16245E-07        -0.81913E-12         0.00000E+00
    0.16369E-07        -0.81248E-12         0.00000E+00
    0.16491E-07        -0.80430E-12         0.00000E+00
    0.16611E-07        -0.79456E-12         0.00000E+00
    0.16731E-07        -0.78319E-12         0.00000E+00
    0.16849E-07        -0.77013E-12         0.00000E+00
    0.16965E-07        -0.75533E-12         0.00000E+00
    0.17079E-07        -0.73874E-12         0.00000E+00
    0.17191E-07        -0.72027E-12         0.00000E+00
    0.17301E-07        -0.69985E-12         0.00000E+00
    0.17410E-07        -0.67740E-12         0.00000E+00
    0.17515E-07        -0.65282E-12         0.00000E+00
    0.17619E-07        -0.62600E-12         0.00000E+00
    0.17719E-07        -0.59679E-12         0.00000E+00
    0.17817E-07        -0.56504E-12         0.00000E+00
    0.17913E-07        -0.53052E-12         0.00000E+00
    0.18005E-07        -0.49300E-12         0.00000E+00
    0.18095E-07        -0.45217E-12         0.00000E+00
    0.18181E-07        -0.40763E-12         0.00000E+00
    0.18264E-07        -0.35892E-12         0.00000E+00
    0.18343E-07        -0.30548E-12         0.00000E+00
    0.18420E-07        -0.24663E-12         0.00000E+00
    0.18492E-07        -0.18158E-12         0.00000E+00
    0.18561E-07        -0.10941E-12         0.00000E+00
    0.18627E-07        -0.29131E-13         0.00000E+00
    0.18688E-07         0.60339E-13         0.00000E+00
    0.18746E-07         0.16005E-12         0.00000E+00
    0.18800E-07         0.27092E-12         0.00000E+00
    0.18850E-07         0.39357E-12         0.00000E+00
    0.18895E-07         0.52798E-12         0.00000E+00
    0.18937E-07         0.67318E-12         0.00000E+00
    0.18974E-07         0.82658E-12         0.00000E+00
    0.19007E-07         0.98326E-12         0.00000E+00
    0.19035E-07         0.11348E-11         0.00000E+00
    0.19060E-07         0.12677E-11         0.00000E+00
    0.19079E-07         0.13611E-11         0.00000E+00
    0.19095E-07         0.13828E-11         0.00000E+00
    0.19105E-07         0.12829E-11         0.00000E+00
    0.19112E-07         0.98538E-12         0.00000E+00
    0.19113E-07         0.38788E-12         0.00000E+00
    0.11054E-07         0.33184E-12         0.00000E+00
    0.11055E-07         0.83982E-12         0.00000E+00
    0.11061E-07         0.10896E-11         0.00000E+00
    0.11070E-07         0.11749E-11         0.00000E+00
    0.11082E-07         0.11615E-11         0.00000E+00
    0.11099E-07         0.10908E-11         0.00000E+00
    0.11120E-07         0.98872E-12         0.00000E+00
    0.11144E-07         0.87211E-12         0.00000E+00
    0.11172E-07         0.75160E-12         0.00000E+00
    0.11203E-07         0.63384E-12         0.00000E+00
    0.11239E-07         0.52263E-12         0.00000E+00
    0.11278E-07         0.41993E-12         0.00000E+00
    0.11320E-07         0.32644E-12         0.00000E+00
    0.11366E-07         0.24206E-12         0.00000E+00
    0.11416E-07         0.16622E-12         0.00000E+00
    0.11469E-07         0.98123E-13         0.00000E+00
    0.11525E-07         0.36861E-13         0.00000E+00
    0.11585E-07        -0.18467E-13         0.00000E+00
    0.11648E-07        -0.68706E-13         0.00000E+00
    0.11714E-07        -0.11462E-12         0.00000E+00
    0.11784E-07        -0.15686E-12         0.00000E+00
    0.11857E-07        -0.19599E-12         0.00000E+00
    0.11932E-07        -0.23249E-12         0.00000E+00
    0.12011E-07        -0.26672E-12         0.00000E+00
    0.12093E-07        -0.29901E-12         0.00000E+00
    0.12178E-07        -0.32961E-12         0.00000E+00
    0.12265E-07        -0.35870E-12         0.00000E+00
    0.12355E-07        -0.38646E-12         0.00000E+00
    0.12448E-07        -0.41300E-12         0.00000E+00
    0.12543E-07        -0.43843E-12         0.00000E+00
    0.12641E-07        -0.46281E-12         0.00000E+00
    0.12742E-07        -0.48622E-12         0.00000E+00
    0.12844E-07        -0.50869E-12         0.00000E+00
    0.12949E-07        -0.53026E-12         0.00000E+00
    0.13056E-07        -0.55097E-12         0.00000E+00
    0.13166E-07        -0.57082E-12         0.00000E+00
    0.13277E-07        -0.58984E-12         0.00000E+00
    0.13390E-07        -0.60803E-12         0.00000E+00
    0.13504E-07        -0.62541E-12         0.00000E+00
    0.13621E-07        -0.64196E-12         0.00000E+00
    0.13739E-07        -0.65770E-12         0.00000E+00
    0.13858E-07        -0.67262E-12         0.00000E+00
    0.13979E-07        -0.68670E-12         0.00000E+00
    0.14101E-07        -0.69995E-12         0.00000E+00
    0.14224E-07        -0.71233E-12         0.00000E+00
    0.14348E-07        -0.72385E-12         0.00000E+00
    0.14473E-07        -0.73448E-12         0.00000E+00
    0.14598E-07        -0.74420E-12         0.00000E+00
    0.14725E-07        -0.75299E-12         0.00000E+00
    0.14852E-07        -0.76082E-12         0.00000E+00
    0.14979E-07        -0.76767E-12         0.00000E+00
    0.15106E-07        -0.77350E-12         0.00000E+00
    0.15234E-07        -0.77829E-12         0.00000E+00
    0.15362E-07        -0.78201E-12         0.00000E+00
    0.15489E-07        -0.78462E-12         0.00000E+00
    0.15617E-07        -0.78609E-12         0.00000E+00
    0.15744E-07        -0.78637E-12         0.00000E+00
    0.15870E-07        -0.78543E-12         0.00000E+00
    0.15996E-07        -0.78324E-12         0.00000E+00
    0.16121E-07        -0.77974E-12         0.00000E+00
    0.16245E-07        -0.77490E-12         0.00000E+00
    0.16369E-07        -0.76867E-12         0.00000E+00
    0.16491E-07        -0.76100E-12         0.00000E+00
    0.16611E-07        -0.75186E-12         0.00000E+00
    0.16731E-07        -0.74118E-12         0.00000E+00
    0.16849E-07        -0.72892E-12         0.00000E+00
    0.16965E-07        -0.71502E-12         0.00000E+00
    0.17079E-07        -0.69942E-12         0.00000E+00
    0.17191E-07        -0.68206E-12         0.00000E+00
    0.17301E-07        -0.66288E-12         0.00000E+00
    0.17410E-07        -0.64178E-12         0.00000E+00
    0.17515E-07        -0.61869E-12         0.00000E+00
    0.17619E-07        -0.59348E-12         0.00000E+00
    0.17719E-07        -0.56604E-12         0.00000E+00
    0.17817E-07        -0.53620E-12         0.00000E+00
    0.17913E-07        -0.50378E-12         0.00000E+00
    0.18005E-07        -0.46854E-12         0.00000E+00
    0.18095E-07        -0.43018E-12         0.00000E+00
    0.18181E-07        -0.38834E-12         0.00000E+00
    0.18264E-07        -0.34259E-12         0.00000E+00
    0.18343E-07        -0.29238E-12         0.00000E+00
    0.18420E-07        -0.23707E-12         0.00000E+00
    0.18492E-07        -0.17591E-12         0.00000E+00
    0.18561E-07        -0.10802E-12         0.00000E+00
    0.18627E-07        -0.32438E-13         0.00000E+00
    0.18688E-07         0.51869E-13         0.00000E+00
    0.18746E-07         0.14593E-12         0.00000E+00
    0.18800E-07         0.25067E-12         0.00000E+00
    0.18850E-07         0.36670E-12         0.00000E+00
    0.18895E-07         0.49412E-12         0.00000E+00
    0.18937E-07         0.63207E-12         0.00000E+00
    0.18974E-07         0.77827E-12         0.00000E+00
    0.19007E-07         0.92821E-12         0.00000E+00
    0.19035E-07         0.10741E-11         0.00000E+00
    0.19060E-07         0.12036E-11         0.00000E+00
    0.19079E-07         0.12971E-11         0.00000E+00
    0.19095E-07         0.13242E-11         0.00000E+00
    0.19105E-07         0.12369E-11         0.00000E+00
    0.19112E-07         0.95843E-12         0.00000E+00
    0.19113E-07         0.37980E-12         0.00000E+00
    0.11054E-07         0.32282E-12         0.00000E+00
    0.11056E-07         0.81088E-12         0.00000E+00
    0.11061E-07         0.10420E-11         0.00000E+00
    0.11070E-07         0.11155E-11         0.00000E+00
    0.11082E-07         0.10972E-11         0.00000E+00
    0.11099E-07         0.10266E-11         0.00000E+00
    0.11120E-07         0.92782E-12         0.00000E+00
    0.11144E-07         0.81632E-12         0.00000E+00
    0.11172E-07         0.70190E-12         0.00000E+00
    0.11203E-07         0.59058E-12         0.00000E+00
    0.11239E-07         0.48581E-12         0.00000E+00
    0.11278E-07         0.38931E-12         0.00000E+00
    0.11320E-07         0.30163E-12         0.00000E+00
    0.11366E-07         0.22263E-12         0.00000E+00
    0.11416E-07         0.15174E-12         0.00000E+00
    0.11469E-07         0.88150E-13         0.00000E+00
    0.11525E-07         0.31002E-13         0.00000E+00
    0.11585E-07        -0.20572E-13         0.00000E+00
    0.11648E-07        -0.67379E-13         0.00000E+00
    0.11714E-07        -0.11014E-12         0.00000E+00
    0.11784E-07        -0.14947E-12         0.00000E+00
    0.11857E-07        -0.18592E-12         0.00000E+00
    0.11932E-07        -0.21990E-12         0.00000E+00
    0.12011E-07        -0.25179E-12         0.00000E+00
    0.12093E-07        -0.28188E-12         0.00000E+00
    0.12178E-07        -0.31039E-12         0.00000E+00
    0.12265E-07        -0.33752E-12         0.00000E+00
    0.12355E-07        -0.36341E-12         0.00000E+00
    0.12448E-07        -0.38817E-12         0.00000E+00
    0.12543E-07        -0.41190E-12         0.00000E+00
    0.12641E-07        -0.43467E-12         0.00000E+00
    0.12742E-07        -0.45652E-12         0.00000E+00
    0.12844E-07        -0.47752E-12         0.00000E+00
    0.12949E-07        -0.49767E-12         0.00000E+00
    0.13056E-07        -0.51702E-12         0.00000E+00
    0.13166E-07        -0.53558E-12         0.00000E+00
    0.13277E-07        -0.55337E-12         0.00000E+00
    0.13390E-07        -0.57039E-12         0.00000E+00
    0.13504E-07        -0.58664E-12         0.00000E+00
    0.13621E-07        -0.60214E-12         0.00000E+00
    0.13739E-07        -0.61687E-12         0.00000E+00
    0.13858E-07        -0.63083E-12         0.00000E+00
    0.13979E-07        -0.64402E-12         0.00000E+00
    0.14101E-07        -0.65642E-12         0.00000E+00
    0.14224E-07        -0.66803E-12         0.00000E+00
    0.14348E-07        -0.67882E-12         0.00000E+00
    0.14473E-07        -0.68879E-12         0.00000E+00
    0.14598E-07        -0.69790E-12         0.00000E+00
    0.14725E-07        -0.70615E-12         0.00000E+00
    0.14852E-07        -0.71350E-12         0.00000E+00
    0.14979E-07        -0.71993E-12         0.00000E+00
    0.15106E-07        -0.72542E-12         0.00000E+00
    0.15234E-07        -0.72993E-12         0.00000E+00
    0.15362E-07        -0.73344E-12         0.00000E+00
    0.15489E-07        -0.73591E-12         0.00000E+00
    0.15617E-07        -0.73732E-12         0.00000E+00
    0.15744E-07        -0.73761E-12         0.00000E+00
    0.15870E-07        -0.73677E-12         0.00000E+00
    0.15996E-07        -0.73475E-12         0.00000E+00
    0.16121E-07        -0.73152E-12         0.00000E+00
    0.16245E-07        -0.72703E-12         0.00000E+00
    0.16369E-07        -0.72124E-12         0.00000E+00
    0.16491E-07        -0.71411E-12         0.00000E+00
    0.16611E-07        -0.70560E-12         0.00000E+00
    0.16731E-07        -0.69565E-12         0.00000E+00
    0.16849E-07        -0.68423E-12         0.00000E+00
    0.16965E-07        -0.67128E-12         0.00000E+00
    0.17079E-07        -0.65675E-12         0.00000E+00
    0.17191E-07        -0.64058E-12         0.00000E+00
    0.17301E-07        -0.62270E-12         0.00000E+00
    0.17410E-07        -0.60304E-12         0.00000E+00
    0.17515E-07        -0.58151E-12         0.00000E+00
    0.17619E-07        -0.55802E-12         0.00000E+00
    0.17719E-07        -0.53245E-12         0.00000E+00
    0.17817E-07        -0.50466E-12         0.00000E+00
    0.17913E-07        -0.47445E-12         0.00000E+00
    0.18005E-07        -0.44163E-12         0.00000E+00
    0.18095E-07        -0.40590E-12         0.00000E+00
    0.18181E-07        -0.36693E-12         0.00000E+00
    0.18264E-07        -0.32431E-12         0.00000E+00
    0.18343E-07        -0.27754E-12         0.00000E+00
    0.18420E-07        -0.22600E-12         0.00000E+00
    0.18492E-07        -0.16899E-12         0.00000E+00
    0.18562E-07        -0.10566E-12         0.00000E+00
    0.18627E-07        -0.35117E-13         0.00000E+00
    0.18688E-07         0.43648E-13         0.00000E+00
    0.18746E-07         0.13162E-12         0.00000E+00
    0.18800E-07         0.22971E-12         0.00000E+00
    0.18850E-07         0.33856E-12         0.00000E+00
    0.18895E-07         0.45832E-12         0.00000E+00
    0.18937E-07         0.58830E-12         0.00000E+00
    0.18974E-07         0.72646E-12         0.00000E+00
    0.19007E-07         0.86877E-12         0.00000E+00
    0.19035E-07         0.10082E-11         0.00000E+00
    0.19060E-07         0.11332E-11         0.00000E+00
    0.19079E-07         0.12259E-11         0.00000E+00
    0.19095E-07         0.12581E-11         0.00000E+00
    0.19105E-07         0.11837E-11         0.00000E+00
    0.19112E-07         0.92627E-12         0.00000E+00
    0.19113E-07         0.36986E-12         0.00000E+00
    0.11054E-07         0.31193E-12         0.00000E+00
    0.11056E-07         0.77684E-12         0.00000E+00
    0.11061E-07         0.98744E-12         0.00000E+00
    0.11070E-07         0.10490E-11         0.00000E+00
    0.11082E-07         0.10265E-11         0.00000E+00
    0.11099E-07         0.95672E-12         0.00000E+00
    0.11120E-07         0.86203E-12         0.00000E+00
    0.11144E-07         0.75647E-12         0.00000E+00
    0.11172E-07         0.64889E-12         0.00000E+00
    0.11203E-07         0.54471E-12         0.00000E+00
    0.11239E-07         0.44698E-12         0.00000E+00
    0.11278E-07         0.35719E-12         0.00000E+00
    0.11320E-07         0.27579E-12         0.00000E+00
    0.11366E-07         0.20258E-12         0.00000E+00
    0.11416E-07         0.13696E-12         0.00000E+00
    0.11469E-07         0.78189E-13         0.00000E+00
    0.11525E-07         0.25415E-13         0.00000E+00
    0.11585E-07        -0.22179E-13         0.00000E+00
    0.11648E-07        -0.65351E-13         0.00000E+00
    0.11714E-07        -0.10478E-12         0.00000E+00
    0.11784E-07        -0.14104E-12         0.00000E+00
    0.11857E-07        -0.17464E-12         0.00000E+00
    0.11932E-07        -0.20598E-12         0.00000E+00
    0.12011E-07        -0.23539E-12         0.00000E+00
    0.12093E-07        -0.26315E-12         0.00000E+00
    0.12178E-07        -0.28946E-12         0.00000E+00
    0.12265E-07        -0.31451E-12         0.00000E+00
    0.12355E-07        -0.33842E-12         0.00000E+00
    0.12448E-07        -0.36130E-12         0.00000E+00
    0.12543E-07        -0.38323E-12         0.00000E+00
    0.12641E-07        -0.40427E-12         0.00000E+00
    0.12742E-07        -0.42448E-12         0.00000E+00
    0.12844E-07        -0.44390E-12         0.00000E+00
    0.12949E-07        -0.46255E-12         0.00000E+00
    0.13056E-07        -0.48046E-12         0.00000E+00
    0.13165E-07        -0.49765E-12         0.00000E+00
    0.13277E-07        -0.51412E-12         0.00000E+00
    0.13390E-07        -0.52988E-12         0.00000E+00
    0.13504E-07        -0.54494E-12         0.00000E+00
    0.13621E-07        -0.55930E-12         0.00000E+00
    0.13739E-07        -0.57295E-12         0.00000E+00
    0.13858E-07        -0.58590E-12         0.00000E+00
    0.13979E-07        -0.59813E-12         0.00000E+00
    0.14101E-07        -0.60963E-12         0.00000E+00
    0.14224E-07        -0.62040E-12         0.00000E+00
    0.14348E-07        -0.63042E-12         0.00000E+00
    0.14473E-07        -0.63967E-12         0.00000E+00
    0.14598E-07        -0.64813E-12         0.00000E+00
    0.14725E-07        -0.65579E-12         0.00000E+00
    0.14852E-07        -0.66263E-12         0.00000E+00
    0.14979E-07        -0.66861E-12         0.00000E+00
    0.15106E-07        -0.67372E-12         0.00000E+00
    0.15234E-07        -0.67793E-12         0.00000E+00
    0.15362E-07        -0.68121E-12         0.00000E+00
    0.15489E-07        -0.68353E-12         0.00000E+00
    0.15617E-07        -0.68486E-12         0.00000E+00
    0.15744E-07        -0.68517E-12         0.00000E+00
    0.15870E-07        -0.68442E-12         0.00000E+00
    0.15996E-07        -0.68258E-12         0.00000E+00
    0.16121E-07        -0.67962E-12         0.00000E+00
    0.16245E-07        -0.67549E-12         0.00000E+00
    0.16369E-07        -0.67017E-12         0.00000E+00
    0.16491E-07        -0.66360E-12         0.00000E+00
    0.16611E-07        -0.65576E-12         0.00000E+00
    0.16731E-07        -0.64659E-12         0.00000E+00
    0.16849E-07        -0.63606E-12         0.00000E+00
    0.16965E-07        -0.62411E-12         0.00000E+00
    0.17079E-07        -0.61070E-12         0.00000E+00
    0.17191E-07        -0.59578E-12         0.00000E+00
    0.17301E-07        -0.57928E-12         0.00000E+00
    0.17410E-07        -0.56113E-12         0.00000E+00
    0.17515E-07        -0.54127E-12         0.00000E+00
    0.17619E-07        -0.51960E-12         0.00000E+00
    0.17719E-07        -0.49601E-12         0.00000E+00
    0.17817E-07        -0.47036E-12         0.00000E+00
    0.17913E-07        -0.44251E-12         0.00000E+00
    0.18005E-07        -0.41223E-12         0.00000E+00
    0.18095E-07        -0.37928E-12         0.00000E+00
    0.18181E-07        -0.34334E-12         0.00000E+00
    0.18264E-07        -0.30404E-12         0.00000E+00
    0.18343E-07        -0.26090E-12         0.00000E+00
    0.18420E-07        -0.21335E-12         0.00000E+00
    0.18492E-07        -0.16073E-12         0.00000E+00
    0.18562E-07        -0.10226E-12         0.00000E+00
    0.18627E-07        -0.37073E-13         0.00000E+00
    0.18688E-07         0.35775E-13         0.00000E+00
    0.18746E-07         0.11723E-12         0.00000E+00
    0.18800E-07         0.20818E-12         0.00000E+00
    0.18850E-07         0.30927E-12         0.00000E+00
    0.18895E-07         0.42071E-12         0.00000E+00
    0.18937E-07         0.54195E-12         0.00000E+00
    0.18974E-07         0.67124E-12         0.00000E+00
    0.19007E-07         0.80498E-12         0.00000E+00
    0.19035E-07         0.93683E-12         0.00000E+00
    0.19060E-07         0.10565E-11         0.00000E+00
    0.19079E-07         0.11475E-11         0.00000E+00
    0.19095E-07         0.11839E-11         0.00000E+00
    0.19105E-07         0.11227E-11         0.00000E+00
    0.19111E-07         0.88824E-12         0.00000E+00
    0.19113E-07         0.35777E-12         0.00000E+00
    0.11055E-07         0.29887E-12         0.00000E+00
    0.11056E-07         0.73701E-12         0.00000E+00
    0.11061E-07         0.92546E-12         0.00000E+00
    0.11070E-07         0.97517E-12         0.00000E+00
    0.11082E-07         0.94905E-12         0.00000E+00
    0.11099E-07         0.88105E-12         0.00000E+00
    0.11120E-07         0.79136E-12         0.00000E+00
    0.11144E-07         0.69259E-12         0.00000E+00
    0.11172E-07         0.59265E-12         0.00000E+00
    0.11203E-07         0.49630E-12         0.00000E+00
    0.11239E-07         0.40622E-12         0.00000E+00
    0.11278E-07         0.32369E-12         0.00000E+00
    0.11320E-07         0.24902E-12         0.00000E+00
    0.11366E-07         0.18198E-12         0.00000E+00
    0.11416E-07         0.12199E-12         0.00000E+00
    0.11469E-07         0.68317E-13         0.00000E+00
    0.11525E-07         0.20167E-13         0.00000E+00
    0.11585E-07        -0.23225E-13         0.00000E+00
    0.11648E-07        -0.62567E-13         0.00000E+00
    0.11714E-07        -0.98486E-13         0.00000E+00
    0.11784E-07        -0.13152E-12         0.00000E+00
    0.11857E-07        -0.16213E-12         0.00000E+00
    0.11932E-07        -0.19068E-12         0.00000E+00
    0.12011E-07        -0.21749E-12         0.00000E+00
    0.12093E-07        -0.24279E-12         0.00000E+00
    0.12178E-07        -0.26679E-12         0.00000E+00
    0.12265E-07        -0.28964E-12         0.00000E+00
    0.12355E-07        -0.31146E-12         0.00000E+00
    0.12448E-07        -0.33235E-12         0.00000E+00
    0.12543E-07        -0.35238E-12         0.00000E+00
    0.12641E-07        -0.37161E-12         0.00000E+00
    0.12742E-07        -0.39008E-12         0.00000E+00
    0.12844E-07        -0.40783E-12         0.00000E+00
    0.12949E-07        -0.42489E-12         0.00000E+00
    0.13056E-07        -0.44127E-12         0.00000E+00
    0.13165E-07        -0.45699E-12         0.00000E+00
    0.13277E-07        -0.47207E-12         0.00000E+00
    0.13390E-07        -0.48650E-12         0.00000E+00
    0.13504E-07        -0.50028E-12         0.00000E+00
    0.13621E-07        -0.51343E-12         0.00000E+00
    0.13739E-07        -0.52594E-12         0.00000E+00
    0.13858E-07        -0.53780E-12         0.00000E+00
    0.13979E-07        -0.54901E-12         0.00000E+00
    0.14101E-07        -0.55956E-12         0.00000E+00
    0.14224E-07        -0.56943E-12         0.00000E+00
    0.14348E-07        -0.57862E-12         0.00000E+00
    0.14473E-07        -0.58711E-12         0.00000E+00
    0.14598E-07        -0.59488E-12         0.00000E+00
    0.14725E-07        -0.60191E-12         0.00000E+00
    0.14852E-07        -0.60819E-12         0.00000E+00
    0.14979E-07        -0.61370E-12         0.00000E+00
    0.15106E-07        -0.61840E-12         0.00000E+00
    0.15234E-07        -0.62228E-12         0.00000E+00
    0.15362E-07        -0.62530E-12         0.00000E+00
    0.15489E-07        -0.62745E-12         0.00000E+00
    0.15617E-07        -0.62870E-12         0.00000E+00
    0.15744E-07        -0.62901E-12         0.00000E+00
    0.15870E-07        -0.62836E-12         0.00000E+00
    0.15996E-07        -0.62671E-12         0.00000E+00
    0.16121E-07        -0.62403E-12         0.00000E+00
    0.16245E-07        -0.62028E-12         0.00000E+00
    0.16369E-07        -0.61544E-12         0.00000E+00
    0.16491E-07        -0.60947E-12         0.00000E+00
    0.16611E-07        -0.60232E-12         0.00000E+00
    0.16731E-07        -0.59397E-12         0.00000E+00
    0.16849E-07        -0.58437E-12         0.00000E+00
    0.16965E-07        -0.57348E-12         0.00000E+00
    0.17079E-07        -0.56125E-12         0.00000E+00
    0.17191E-07        -0.54764E-12         0.00000E+00
    0.17301E-07        -0.53259E-12         0.00000E+00
    0.17410E-07        -0.51604E-12         0.00000E+00
    0.17515E-07        -0.49793E-12         0.00000E+00
    0.17619E-07        -0.47817E-12         0.00000E+00
    0.17719E-07        -0.45666E-12         0.00000E+00
    0.17817E-07        -0.43328E-12         0.00000E+00
    0.17913E-07        -0.40789E-12         0.00000E+00
    0.18005E-07        -0.38029E-12         0.00000E+00
    0.18095E-07        -0.35026E-12         0.00000E+00
    0.18181E-07        -0.31752E-12         0.00000E+00
    0.18264E-07        -0.28171E-12         0.00000E+00
    0.18343E-07        -0.24239E-12         0.00000E+00
    0.18420E-07        -0.19905E-12         0.00000E+00
    0.18492E-07        -0.15107E-12         0.00000E+00
    0.18562E-07        -0.97727E-13         0.00000E+00
    0.18627E-07        -0.38212E-13         0.00000E+00
    0.18689E-07         0.28354E-13         0.00000E+00
    0.18746E-07         0.10287E-12         0.00000E+00
    0.18800E-07         0.18619E-12         0.00000E+00
    0.18850E-07         0.27894E-12         0.00000E+00
    0.18895E-07         0.38140E-12         0.00000E+00
    0.18937E-07         0.49316E-12         0.00000E+00
    0.18974E-07         0.61270E-12         0.00000E+00
    0.19007E-07         0.73690E-12         0.00000E+00
    0.19036E-07         0.86015E-12         0.00000E+00
    0.19060E-07         0.97324E-12         0.00000E+00
    0.19079E-07         0.10614E-11         0.00000E+00
    0.19095E-07         0.11012E-11         0.00000E+00
    0.19105E-07         0.10531E-11         0.00000E+00
    0.19111E-07         0.84353E-12         0.00000E+00
    0.19113E-07         0.34316E-12         0.00000E+00
    0.11055E-07         0.28325E-12         0.00000E+00
    0.11056E-07         0.69059E-12         0.00000E+00
    0.11061E-07         0.85536E-12         0.00000E+00
    0.11070E-07         0.89353E-12         0.00000E+00
    0.11082E-07         0.86475E-12         0.00000E+00
    0.11099E-07         0.79953E-12         0.00000E+00
    0.11120E-07         0.71582E-12         0.00000E+00
    0.11144E-07         0.62476E-12         0.00000E+00
    0.11172E-07         0.53326E-12         0.00000E+00
    0.11203E-07         0.44546E-12         0.00000E+00
    0.11239E-07         0.36366E-12         0.00000E+00
    0.11278E-07         0.28890E-12         0.00000E+00
    0.11320E-07         0.22142E-12         0.00000E+00
    0.11366E-07         0.16095E-12         0.00000E+00
    0.11416E-07         0.10691E-12         0.00000E+00
    0.11469E-07         0.58614E-13         0.00000E+00
    0.11525E-07         0.15333E-13         0.00000E+00
    0.11585E-07        -0.23645E-13         0.00000E+00
    0.11648E-07        -0.58968E-13         0.00000E+00
    0.11714E-07        -0.91211E-13         0.00000E+00
    0.11784E-07        -0.12086E-12         0.00000E+00
    0.11857E-07        -0.14834E-12         0.00000E+00
    0.11932E-07        -0.17397E-12         0.00000E+00
    0.12011E-07        -0.19805E-12         0.00000E+00
    0.12093E-07        -0.22078E-12         0.00000E+00
    0.12178E-07        -0.24235E-12         0.00000E+00
    0.12265E-07        -0.26289E-12         0.00000E+00
    0.12355E-07        -0.28252E-12         0.00000E+00
    0.12448E-07        -0.30132E-12         0.00000E+00
    0.12543E-07        -0.31935E-12         0.00000E+00
    0.12641E-07        -0.33666E-12         0.00000E+00
    0.12742E-07        -0.35330E-12         0.00000E+00
    0.12844E-07        -0.36929E-12         0.00000E+00
    0.12949E-07        -0.38467E-12         0.00000E+00
    0.13056E-07        -0.39943E-12         0.00000E+00
    0.13165E-07        -0.41361E-12         0.00000E+00
    0.13277E-07        -0.42720E-12         0.00000E+00
    0.13390E-07        -0.44022E-12         0.00000E+00
    0.13504E-07        -0.45267E-12         0.00000E+00
    0.13621E-07        -0.46453E-12         0.00000E+00
    0.13739E-07        -0.47583E-12         0.00000E+00
    0.13858E-07        -0.48654E-12         0.00000E+00
    0.13979E-07        -0.49666E-12         0.00000E+00
    0.14101E-07        -0.50619E-12         0.00000E+00
    0.14224E-07        -0.51512E-12         0.00000E+00
    0.14348E-07        -0.52342E-12         0.00000E+00
    0.14473E-07        -0.53110E-12         0.00000E+00
    0.14598E-07        -0.53813E-12         0.00000E+00
    0.14725E-07        -0.54449E-12         0.00000E+00
    0.14852E-07        -0.55018E-12         0.00000E+00
    0.14979E-07        -0.55517E-12         0.00000E+00
    0.15106E-07        -0.55943E-12         0.00000E+00
    0.15234E-07        -0.56295E-12         0.00000E+00
    0.15362E-07        -0.56571E-12         0.00000E+00
    0.15489E-07        -0.56767E-12         0.00000E+00
    0.15617E-07        -0.56882E-12         0.00000E+00
    0.15744E-07        -0.56913E-12         0.00000E+00
    0.15870E-07        -0.56857E-12         0.00000E+00
    0.15996E-07        -0.56711E-12         0.00000E+00
    0.16121E-07        -0.56472E-12         0.00000E+00
    0.16245E-07        -0.56137E-12         0.00000E+00
    0.16369E-07        -0.55703E-12         0.00000E+00
    0.16491E-07        -0.55167E-12         0.00000E+00
    0.16611E-07        -0.54526E-12         0.00000E+00
    0.16731E-07        -0.53776E-12         0.00000E+00
    0.16849E-07        -0.52914E-12         0.00000E+00
    0.16965E-07        -0.51935E-12         0.00000E+00
    0.17079E-07        -0.50836E-12         0.00000E+00
    0.17191E-07        -0.49613E-12         0.00000E+00
    0.17301E-07        -0.48261E-12         0.00000E+00
    0.17410E-07        -0.46774E-12         0.00000E+00
    0.17515E-07        -0.45146E-12         0.00000E+00
    0.17619E-07        -0.43370E-12         0.00000E+00
    0.17719E-07        -0.41437E-12         0.00000E+00
    0.17817E-07        -0.39337E-12         0.00000E+00
    0.17913E-07        -0.37056E-12         0.00000E+00
    0.18005E-07        -0.34577E-12         0.00000E+00
    0.18095E-07        -0.31881E-12         0.00000E+00
    0.18181E-07        -0.28941E-12         0.00000E+00
    0.18264E-07        -0.25725E-12         0.00000E+00
    0.18343E-07        -0.22194E-12         0.00000E+00
    0.18420E-07        -0.18302E-12         0.00000E+00
    0.18492E-07        -0.13991E-12         0.00000E+00
    0.18562E-07        -0.91965E-13         0.00000E+00
    0.18627E-07        -0.38433E-13         0.00000E+00
    0.18689E-07         0.21496E-13         0.00000E+00
    0.18746E-07         0.88660E-13         0.00000E+00
    0.18800E-07         0.16385E-12         0.00000E+00
    0.18850E-07         0.24771E-12         0.00000E+00
    0.18895E-07         0.34053E-12         0.00000E+00
    0.18937E-07         0.44202E-12         0.00000E+00
    0.18974E-07         0.55095E-12         0.00000E+00
    0.19007E-07         0.66460E-12         0.00000E+00
    0.19036E-07         0.77814E-12         0.00000E+00
    0.19060E-07         0.88347E-12         0.00000E+00
    0.19079E-07         0.96763E-12         0.00000E+00
    0.19095E-07         0.10097E-11         0.00000E+00
    0.19105E-07         0.97407E-12         0.00000E+00
    0.19111E-07         0.79119E-12         0.00000E+00
    0.19113E-07         0.32559E-12         0.00000E+00
    0.11055E-07         0.26457E-12         0.00000E+00
    0.11056E-07         0.63661E-12         0.00000E+00
    0.11061E-07         0.77640E-12         0.00000E+00
    0.11070E-07         0.80374E-12         0.00000E+00
    0.11082E-07         0.77340E-12         0.00000E+00
    0.11099E-07         0.71209E-12         0.00000E+00
    0.11120E-07         0.63544E-12         0.00000E+00
    0.11144E-07         0.55305E-12         0.00000E+00
    0.11172E-07         0.47082E-12         0.00000E+00
    0.11203E-07         0.39230E-12         0.00000E+00
    0.11239E-07         0.31940E-12         0.00000E+00
    0.11278E-07         0.25295E-12         0.00000E+00
    0.11320E-07         0.19311E-12         0.00000E+00
    0.11366E-07         0.13957E-12         0.00000E+00
    0.11416E-07         0.91802E-13         0.00000E+00
    0.11469E-07         0.49164E-13         0.00000E+00
    0.11525E-07         0.10987E-13         0.00000E+00
    0.11585E-07        -0.23372E-13         0.00000E+00
    0.11648E-07        -0.54496E-13         0.00000E+00
    0.11714E-07        -0.82899E-13         0.00000E+00
    0.11784E-07        -0.10902E-12         0.00000E+00
    0.11857E-07        -0.13322E-12         0.00000E+00
    0.11932E-07        -0.15582E-12         0.00000E+00
    0.12011E-07        -0.17704E-12         0.00000E+00
    0.12093E-07        -0.19708E-12         0.00000E+00
    0.12178E-07        -0.21611E-12         0.00000E+00
    0.12265E-07        -0.23424E-12         0.00000E+00
    0.12355E-07        -0.25157E-12         0.00000E+00
    0.12448E-07        -0.26817E-12         0.00000E+00
    0.12543E-07        -0.28410E-12         0.00000E+00
    0.12641E-07        -0.29940E-12         0.00000E+00
    0.12742E-07        -0.31412E-12         0.00000E+00
    0.12844E-07        -0.32826E-12         0.00000E+00
    0.12949E-07        -0.34186E-12         0.00000E+00
    0.13056E-07        -0.35493E-12         0.00000E+00
    0.13165E-07        -0.36748E-12         0.00000E+00
    0.13277E-07        -0.37952E-12         0.00000E+00
    0.13390E-07        -0.39105E-12         0.00000E+00
    0.13504E-07        -0.40207E-12         0.00000E+00
    0.13621E-07        -0.41258E-12         0.00000E+00
    0.13739E-07        -0.42259E-12         0.00000E+00
    0.13858E-07        -0.43209E-12         0.00000E+00
    0.13979E-07        -0.44107E-12         0.00000E+00
    0.14101E-07        -0.44952E-12         0.00000E+00
    0.14224E-07        -0.45743E-12         0.00000E+00
    0.14348E-07        -0.46480E-12         0.00000E+00
    0.14473E-07        -0.47162E-12         0.00000E+00
    0.14598E-07        -0.47786E-12         0.00000E+00
    0.14725E-07        -0.48352E-12         0.00000E+00
    0.14852E-07        -0.48857E-12         0.00000E+00
    0.14979E-07        -0.49301E-12         0.00000E+00
    0.15106E-07        -0.49680E-12         0.00000E+00
    0.15234E-07        -0.49995E-12         0.00000E+00
    0.15362E-07        -0.50241E-12         0.00000E+00
    0.15489E-07        -0.50417E-12         0.00000E+00
    0.15617E-07        -0.50521E-12         0.00000E+00
    0.15744E-07        -0.50551E-12         0.00000E+00
    0.15870E-07        -0.50503E-12         0.00000E+00
    0.15996E-07        -0.50376E-12         0.00000E+00
    0.16121E-07        -0.50167E-12         0.00000E+00
    0.16245E-07        -0.49874E-12         0.00000E+00
    0.16369E-07        -0.49492E-12         0.00000E+00
    0.16491E-07        -0.49021E-12         0.00000E+00
    0.16611E-07        -0.48456E-12         0.00000E+00
    0.16731E-07        -0.47795E-12         0.00000E+00
    0.16849E-07        -0.47034E-12         0.00000E+00
    0.16965E-07        -0.46171E-12         0.00000E+00
    0.17079E-07        -0.45202E-12         0.00000E+00
    0.17191E-07        -0.44123E-12         0.00000E+00
    0.17301E-07        -0.42930E-12         0.00000E+00
    0.17410E-07        -0.41618E-12         0.00000E+00
    0.17515E-07        -0.40182E-12         0.00000E+00
    0.17619E-07        -0.38615E-12         0.00000E+00
    0.17719E-07        -0.36911E-12         0.00000E+00
    0.17818E-07        -0.35059E-12         0.00000E+00
    0.17913E-07        -0.33048E-12         0.00000E+00
    0.18005E-07        -0.30863E-12         0.00000E+00
    0.18095E-07        -0.28486E-12         0.00000E+00
    0.18181E-07        -0.25895E-12         0.00000E+00
    0.18264E-07        -0.23061E-12         0.00000E+00
    0.18343E-07        -0.19949E-12         0.00000E+00
    0.18420E-07        -0.16519E-12         0.00000E+00
    0.18492E-07        -0.12718E-12         0.00000E+00
    0.18562E-07        -0.84884E-13         0.00000E+00
    0.18627E-07        -0.37632E-13         0.00000E+00
    0.18689E-07         0.15313E-13         0.00000E+00
    0.18746E-07         0.74717E-13         0.00000E+00
    0.18800E-07         0.14132E-12         0.00000E+00
    0.18850E-07         0.21571E-12         0.00000E+00
    0.18895E-07         0.29823E-12         0.00000E+00
    0.18937E-07         0.38869E-12         0.00000E+00
    0.18974E-07         0.48609E-12         0.00000E+00
    0.19007E-07         0.58818E-12         0.00000E+00
    0.19036E-07         0.69082E-12         0.00000E+00
    0.19060E-07         0.78709E-12         0.00000E+00
    0.19079E-07         0.86582E-12         0.00000E+00
    0.19095E-07         0.90878E-12         0.00000E+00
    0.19105E-07         0.88484E-12         0.00000E+00
    0.19111E-07         0.73007E-12         0.00000E+00
    0.19113E-07         0.30447E-12         0.00000E+00
    0.11055E-07         0.24221E-12         0.00000E+00
    0.11056E-07         0.57390E-12         0.00000E+00
    0.11061E-07         0.68782E-12         0.00000E+00
    0.11070E-07         0.70543E-12         0.00000E+00
    0.11082E-07         0.67485E-12         0.00000E+00
    0.11099E-07         0.61871E-12         0.00000E+00
    0.11120E-07         0.55026E-12         0.00000E+00
    0.11144E-07         0.47753E-12         0.00000E+00
    0.11172E-07         0.40546E-12         0.00000E+00
    0.11203E-07         0.33695E-12         0.00000E+00
    0.11239E-07         0.27357E-12         0.00000E+00
    0.11278E-07         0.21596E-12         0.00000E+00
    0.11320E-07         0.16419E-12         0.00000E+00
    0.11366E-07         0.11796E-12         0.00000E+00
    0.11416E-07         0.76771E-13         0.00000E+00
    0.11469E-07         0.40052E-13         0.00000E+00
    0.11525E-07         0.72047E-14         0.00000E+00
    0.11585E-07        -0.22338E-13         0.00000E+00
    0.11648E-07        -0.49089E-13         0.00000E+00
    0.11714E-07        -0.73497E-13         0.00000E+00
    0.11784E-07        -0.95944E-13         0.00000E+00
    0.11857E-07        -0.11675E-12         0.00000E+00
    0.11932E-07        -0.13617E-12         0.00000E+00
    0.12011E-07        -0.15442E-12         0.00000E+00
    0.12093E-07        -0.17167E-12         0.00000E+00
    0.12178E-07        -0.18805E-12         0.00000E+00
    0.12265E-07        -0.20366E-12         0.00000E+00
    0.12355E-07        -0.21858E-12         0.00000E+00
    0.12448E-07        -0.23289E-12         0.00000E+00
    0.12543E-07        -0.24662E-12         0.00000E+00
    0.12641E-07        -0.25982E-12         0.00000E+00
    0.12742E-07        -0.27252E-12         0.00000E+00
    0.12844E-07        -0.28472E-12         0.00000E+00
    0.12949E-07        -0.29646E-12         0.00000E+00
    0.13056E-07        -0.30775E-12         0.00000E+00
    0.13165E-07        -0.31859E-12         0.00000E+00
    0.13277E-07        -0.32899E-12         0.00000E+00
    0.13390E-07        -0.33895E-12         0.00000E+00
    0.13504E-07        -0.34848E-12         0.00000E+00
    0.13621E-07        -0.35757E-12         0.00000E+00
    0.13739E-07        -0.36623E-12         0.00000E+00
    0.13858E-07        -0.37444E-12         0.00000E+00
    0.13979E-07        -0.38221E-12         0.00000E+00
    0.14101E-07        -0.38952E-12         0.00000E+00
    0.14224E-07        -0.39637E-12         0.00000E+00
    0.14348E-07        -0.40276E-12         0.00000E+00
    0.14473E-07        -0.40866E-12         0.00000E+00
    0.14598E-07        -0.41407E-12         0.00000E+00
    0.14725E-07        -0.41897E-12         0.00000E+00
    0.14852E-07        -0.42336E-12         0.00000E+00
    0.14979E-07        -0.42721E-12         0.00000E+00
    0.15106E-07        -0.43051E-12         0.00000E+00
    0.15234E-07        -0.43324E-12         0.00000E+00
    0.15362E-07        -0.43539E-12         0.00000E+00
    0.15489E-07        -0.43693E-12         0.00000E+00
    0.15617E-07        -0.43785E-12         0.00000E+00
    0.15744E-07        -0.43813E-12         0.00000E+00
    0.15870E-07        -0.43774E-12         0.00000E+00
    0.15996E-07        -0.43666E-12         0.00000E+00
    0.16121E-07        -0.43488E-12         0.00000E+00
    0.16245E-07        -0.43236E-12         0.00000E+00
    0.16369E-07        -0.42909E-12         0.00000E+00
    0.16491E-07        -0.42504E-12         0.00000E+00
    0.16611E-07        -0.42019E-12         0.00000E+00
    0.16731E-07        -0.41450E-12         0.00000E+00
    0.16849E-07        -0.40796E-12         0.00000E+00
    0.16965E-07        -0.40053E-12         0.00000E+00
    0.17079E-07        -0.39219E-12         0.00000E+00
    0.17191E-07        -0.38290E-12         0.00000E+00
    0.17301E-07        -0.37263E-12         0.00000E+00
    0.17410E-07        -0.36134E-12         0.00000E+00
    0.17515E-07        -0.34898E-12         0.00000E+00
    0.17619E-07        -0.33549E-12         0.00000E+00
    0.17719E-07        -0.32083E-12         0.00000E+00
    0.17818E-07        -0.30489E-12         0.00000E+00
    0.17913E-07        -0.28759E-12         0.00000E+00
    0.18005E-07        -0.26880E-12         0.00000E+00
    0.18095E-07        -0.24836E-12         0.00000E+00
    0.18181E-07        -0.22608E-12         0.00000E+00
    0.18264E-07        -0.20172E-12         0.00000E+00
    0.18344E-07        -0.17497E-12         0.00000E+00
    0.18420E-07        -0.14547E-12         0.00000E+00
    0.18492E-07        -0.11278E-12         0.00000E+00
    0.18562E-07        -0.76386E-13         0.00000E+00
    0.18627E-07        -0.35702E-13         0.00000E+00
    0.18689E-07         0.99241E-14         0.00000E+00
    0.18746E-07         0.61174E-13         0.00000E+00
    0.18800E-07         0.11871E-12         0.00000E+00
    0.18850E-07         0.18310E-12         0.00000E+00
    0.18895E-07         0.25466E-12         0.00000E+00
    0.18937E-07         0.33331E-12         0.00000E+00
    0.18974E-07         0.41828E-12         0.00000E+00
    0.19007E-07         0.50773E-12         0.00000E+00
    0.19036E-07         0.59825E-12         0.00000E+00
    0.19060E-07         0.68407E-12         0.00000E+00
    0.19080E-07         0.75583E-12         0.00000E+00
    0.19095E-07         0.79810E-12         0.00000E+00
    0.19105E-07         0.78449E-12         0.00000E+00
    0.19111E-07         0.65882E-12         0.00000E+00
    0.19112E-07         0.27906E-12         0.00000E+00
    0.11055E-07         0.21534E-12         0.00000E+00
    0.11056E-07         0.50108E-12         0.00000E+00
    0.11061E-07         0.58884E-12         0.00000E+00
    0.11070E-07         0.59828E-12         0.00000E+00
    0.11082E-07         0.56894E-12         0.00000E+00
    0.11099E-07         0.51937E-12         0.00000E+00
    0.11119E-07         0.46034E-12         0.00000E+00
    0.11144E-07         0.39832E-12         0.00000E+00
    0.11172E-07         0.33728E-12         0.00000E+00
    0.11203E-07         0.27954E-12         0.00000E+00
    0.11239E-07         0.22630E-12         0.00000E+00
    0.11278E-07         0.17805E-12         0.00000E+00
    0.11320E-07         0.13478E-12         0.00000E+00
    0.11366E-07         0.96220E-13         0.00000E+00
    0.11416E-07         0.61916E-13         0.00000E+00
    0.11469E-07         0.31369E-13         0.00000E+00
    0.11525E-07         0.40664E-14         0.00000E+00
    0.11585E-07        -0.20474E-13         0.00000E+00
    0.11648E-07        -0.42687E-13         0.00000E+00
    0.11714E-07        -0.62951E-13         0.00000E+00
    0.11784E-07        -0.81588E-13         0.00000E+00
    0.11857E-07        -0.98864E-13         0.00000E+00
    0.11932E-07        -0.11500E-12         0.00000E+00
    0.12011E-07        -0.13016E-12         0.00000E+00
    0.12093E-07        -0.14450E-12         0.00000E+00
    0.12178E-07        -0.15812E-12         0.00000E+00
    0.12265E-07        -0.17111E-12         0.00000E+00
    0.12355E-07        -0.18354E-12         0.00000E+00
    0.12448E-07        -0.19546E-12         0.00000E+00
    0.12543E-07        -0.20690E-12         0.00000E+00
    0.12641E-07        -0.21790E-12         0.00000E+00
    0.12742E-07        -0.22848E-12         0.00000E+00
    0.12844E-07        -0.23866E-12         0.00000E+00
    0.12949E-07        -0.24846E-12         0.00000E+00
    0.13056E-07        -0.25787E-12         0.00000E+00
    0.13165E-07        -0.26692E-12         0.00000E+00
    0.13277E-07        -0.27560E-12         0.00000E+00
    0.13390E-07        -0.28392E-12         0.00000E+00
    0.13504E-07        -0.29188E-12         0.00000E+00
    0.13621E-07        -0.29948E-12         0.00000E+00
    0.13739E-07        -0.30671E-12         0.00000E+00
    0.13858E-07        -0.31358E-12         0.00000E+00
    0.13979E-07        -0.32007E-12         0.00000E+00
    0.14101E-07        -0.32619E-12         0.00000E+00
    0.14224E-07        -0.33192E-12         0.00000E+00
    0.14348E-07        -0.33727E-12         0.00000E+00
    0.14473E-07        -0.34221E-12         0.00000E+00
    0.14598E-07        -0.34674E-12         0.00000E+00
    0.14725E-07        -0.35084E-12         0.00000E+00
    0.14852E-07        -0.35452E-12         0.00000E+00
    0.14979E-07        -0.35775E-12         0.00000E+00
    0.15106E-07        -0.36052E-12         0.00000E+00
    0.15234E-07        -0.36282E-12         0.00000E+00
    0.15362E-07        -0.36463E-12         0.00000E+00
    0.15489E-07        -0.36593E-12         0.00000E+00
    0.15617E-07        -0.36672E-12         0.00000E+00
    0.15744E-07        -0.36697E-12         0.00000E+00
    0.15870E-07        -0.36666E-12         0.00000E+00
    0.15996E-07        -0.36578E-12         0.00000E+00
    0.16121E-07        -0.36431E-12         0.00000E+00
    0.16245E-07        -0.36223E-12         0.00000E+00
    0.16369E-07        -0.35952E-12         0.00000E+00
    0.16491E-07        -0.35615E-12         0.00000E+00
    0.16611E-07        -0.35212E-12         0.00000E+00
    0.16731E-07        -0.34740E-12         0.00000E+00
    0.16849E-07        -0.34196E-12         0.00000E+00
    0.16965E-07        -0.33578E-12         0.00000E+00
    0.17079E-07        -0.32884E-12         0.00000E+00
    0.17191E-07        -0.32112E-12         0.00000E+00
    0.17301E-07        -0.31257E-12         0.00000E+00
    0.17410E-07        -0.30318E-12         0.00000E+00
    0.17515E-07        -0.29290E-12         0.00000E+00
    0.17619E-07        -0.28169E-12         0.00000E+00
    0.17719E-07        -0.26949E-12         0.00000E+00
    0.17818E-07        -0.25624E-12         0.00000E+00
    0.17913E-07        -0.24186E-12         0.00000E+00
    0.18005E-07        -0.22624E-12         0.00000E+00
    0.18095E-07        -0.20926E-12         0.00000E+00
    0.18181E-07        -0.19075E-12         0.00000E+00
    0.18264E-07        -0.17051E-12         0.00000E+00
    0.18344E-07        -0.14829E-12         0.00000E+00
    0.18420E-07        -0.12379E-12         0.00000E+00
    0.18492E-07        -0.96624E-13         0.00000E+00
    0.18562E-07        -0.66372E-13         0.00000E+00
    0.18627E-07        -0.32531E-13         0.00000E+00
    0.18689E-07         0.54526E-14         0.00000E+00
    0.18746E-07         0.48166E-13         0.00000E+00
    0.18800E-07         0.96187E-13         0.00000E+00
    0.18850E-07         0.15002E-12         0.00000E+00
    0.18895E-07         0.20997E-12         0.00000E+00
    0.18937E-07         0.27604E-12         0.00000E+00
    0.18974E-07         0.34765E-12         0.00000E+00
    0.19007E-07         0.42337E-12         0.00000E+00
    0.19036E-07         0.50050E-12         0.00000E+00
    0.19060E-07         0.57439E-12         0.00000E+00
    0.19080E-07         0.63750E-12         0.00000E+00
    0.19095E-07         0.67727E-12         0.00000E+00
    0.19105E-07         0.67209E-12         0.00000E+00
    0.19111E-07         0.57581E-12         0.00000E+00
    0.19112E-07         0.24839E-12         0.00000E+00
    0.11055E-07         0.18285E-12         0.00000E+00
    0.11056E-07         0.41651E-12         0.00000E+00
    0.11061E-07         0.47873E-12         0.00000E+00
    0.11070E-07         0.48199E-12         0.00000E+00
    0.11082E-07         0.45556E-12         0.00000E+00
    0.11099E-07         0.41407E-12         0.00000E+00
    0.11119E-07         0.36574E-12         0.00000E+00
    0.11144E-07         0.31553E-12         0.00000E+00
    0.11172E-07         0.26643E-12         0.00000E+00
    0.11203E-07         0.22021E-12         0.00000E+00
    0.11239E-07         0.17775E-12         0.00000E+00
    0.11278E-07         0.13936E-12         0.00000E+00
    0.11320E-07         0.10503E-12         0.00000E+00
    0.11366E-07         0.74474E-13         0.00000E+00
    0.11416E-07         0.47340E-13         0.00000E+00
    0.11469E-07         0.23205E-13         0.00000E+00
    0.11525E-07         0.16532E-14         0.00000E+00
    0.11585E-07        -0.17707E-13         0.00000E+00
    0.11648E-07        -0.35225E-13         0.00000E+00
    0.11714E-07        -0.51205E-13         0.00000E+00
    0.11784E-07        -0.65902E-13         0.00000E+00
    0.11857E-07        -0.79529E-13         0.00000E+00
    0.11932E-07        -0.92260E-13         0.00000E+00
    0.12011E-07        -0.10423E-12         0.00000E+00
    0.12093E-07        -0.11556E-12         0.00000E+00
    0.12178E-07        -0.12632E-12         0.00000E+00
    0.12265E-07        -0.13659E-12         0.00000E+00
    0.12355E-07        -0.14642E-12         0.00000E+00
    0.12448E-07        -0.15584E-12         0.00000E+00
    0.12543E-07        -0.16490E-12         0.00000E+00
    0.12641E-07        -0.17361E-12         0.00000E+00
    0.12742E-07        -0.18199E-12         0.00000E+00
    0.12844E-07        -0.19006E-12         0.00000E+00
    0.12949E-07        -0.19782E-12         0.00000E+00
    0.13056E-07        -0.20529E-12         0.00000E+00
    0.13165E-07        -0.21246E-12         0.00000E+00
    0.13277E-07        -0.21935E-12         0.00000E+00
    0.13390E-07        -0.22595E-12         0.00000E+00
    0.13504E-07        -0.23227E-12         0.00000E+00
    0.13621E-07        -0.23830E-12         0.00000E+00
    0.13739E-07        -0.24404E-12         0.00000E+00
    0.13858E-07        -0.24949E-12         0.00000E+00
    0.13979E-07        -0.25465E-12         0.00000E+00
    0.14101E-07        -0.25951E-12         0.00000E+00
    0.14224E-07        -0.26407E-12         0.00000E+00
    0.14348E-07        -0.26832E-12         0.00000E+00
    0.14473E-07        -0.27225E-12         0.00000E+00
    0.14598E-07        -0.27585E-12         0.00000E+00
    0.14725E-07        -0.27912E-12         0.00000E+00
    0.14852E-07        -0.28205E-12         0.00000E+00
    0.14979E-07        -0.28462E-12         0.00000E+00
    0.15106E-07        -0.28683E-12         0.00000E+00
    0.15234E-07        -0.28867E-12         0.00000E+00
    0.15362E-07        -0.29011E-12         0.00000E+00
    0.15489E-07        -0.29116E-12         0.00000E+00
    0.15617E-07        -0.29180E-12         0.00000E+00
    0.15744E-07        -0.29201E-12         0.00000E+00
    0.15870E-07        -0.29178E-12         0.00000E+00
    0.15996E-07        -0.29110E-12         0.00000E+00
    0.16121E-07        -0.28995E-12         0.00000E+00
    0.16245E-07        -0.28831E-12         0.00000E+00
    0.16369E-07        -0.28618E-12         0.00000E+00
    0.16491E-07        -0.28353E-12         0.00000E+00
    0.16611E-07        -0.28034E-12         0.00000E+00
    0.16731E-07        -0.27661E-12         0.00000E+00
    0.16849E-07        -0.27232E-12         0.00000E+00
    0.16965E-07        -0.26744E-12         0.00000E+00
    0.17079E-07        -0.26196E-12         0.00000E+00
    0.17191E-07        -0.25585E-12         0.00000E+00
    0.17301E-07        -0.24910E-12         0.00000E+00
    0.17410E-07        -0.24168E-12         0.00000E+00
    0.17515E-07        -0.23355E-12         0.00000E+00
    0.17619E-07        -0.22469E-12         0.00000E+00
    0.17719E-07        -0.21506E-12         0.00000E+00
    0.17818E-07        -0.20459E-12         0.00000E+00
    0.17913E-07        -0.19324E-12         0.00000E+00
    0.18005E-07        -0.18091E-12         0.00000E+00
    0.18095E-07        -0.16750E-12         0.00000E+00
    0.18181E-07        -0.15290E-12         0.00000E+00
    0.18264E-07        -0.13693E-12         0.00000E+00
    0.18344E-07        -0.11940E-12         0.00000E+00
    0.18420E-07        -0.10006E-12         0.00000E+00
    0.18492E-07        -0.78623E-13         0.00000E+00
    0.18562E-07        -0.54739E-13         0.00000E+00
    0.18627E-07        -0.28006E-13         0.00000E+00
    0.18689E-07         0.20260E-14         0.00000E+00
    0.18746E-07         0.35835E-13         0.00000E+00
    0.18800E-07         0.73897E-13         0.00000E+00
    0.18850E-07         0.11664E-12         0.00000E+00
    0.18895E-07         0.16434E-12         0.00000E+00
    0.18937E-07         0.21705E-12         0.00000E+00
    0.18974E-07         0.27437E-12         0.00000E+00
    0.19007E-07         0.33525E-12         0.00000E+00
    0.19036E-07         0.39765E-12         0.00000E+00
    0.19060E-07         0.45805E-12         0.00000E+00
    0.19080E-07         0.51067E-12         0.00000E+00
    0.19095E-07         0.54593E-12         0.00000E+00
    0.19105E-07         0.54680E-12         0.00000E+00
    0.19111E-07         0.47911E-12         0.00000E+00
    0.19112E-07         0.21117E-12         0.00000E+00
    0.11055E-07         0.14326E-12         0.00000E+00
    0.11056E-07         0.31823E-12         0.00000E+00
    0.11061E-07         0.35685E-12         0.00000E+00
    0.11070E-07         0.35627E-12         0.00000E+00
    0.11082E-07         0.33461E-12         0.00000E+00
    0.11099E-07         0.30286E-12         0.00000E+00
    0.11119E-07         0.26658E-12         0.00000E+00
    0.11144E-07         0.22929E-12         0.00000E+00
    0.11172E-07         0.19307E-12         0.00000E+00
    0.11203E-07         0.15913E-12         0.00000E+00
    0.11239E-07         0.12805E-12         0.00000E+00
    0.11278E-07         0.10004E-12         0.00000E+00
    0.11320E-07         0.75042E-13         0.00000E+00
    0.11366E-07         0.52840E-13         0.00000E+00
    0.11416E-07         0.33149E-13         0.00000E+00
    0.11469E-07         0.15656E-13         0.00000E+00
    0.11525E-07         0.48484E-16         0.00000E+00
    0.11585E-07        -0.13964E-13         0.00000E+00
    0.11648E-07        -0.26640E-13         0.00000E+00
    0.11714E-07        -0.38201E-13         0.00000E+00
    0.11784E-07        -0.48836E-13         0.00000E+00
    0.11857E-07        -0.58700E-13         0.00000E+00
    0.11932E-07        -0.67917E-13         0.00000E+00
    0.12011E-07        -0.76590E-13         0.00000E+00
    0.12093E-07        -0.84797E-13         0.00000E+00
    0.12178E-07        -0.92601E-13         0.00000E+00
    0.12265E-07        -0.10005E-12         0.00000E+00
    0.12355E-07        -0.10718E-12         0.00000E+00
    0.12448E-07        -0.11403E-12         0.00000E+00
    0.12543E-07        -0.12061E-12         0.00000E+00
    0.12641E-07        -0.12694E-12         0.00000E+00
    0.12742E-07        -0.13303E-12         0.00000E+00
    0.12844E-07        -0.13889E-12         0.00000E+00
    0.12949E-07        -0.14454E-12         0.00000E+00
    0.13056E-07        -0.14997E-12         0.00000E+00
    0.13165E-07        -0.15520E-12         0.00000E+00
    0.13277E-07        -0.16021E-12         0.00000E+00
    0.13390E-07        -0.16502E-12         0.00000E+00
    0.13504E-07        -0.16962E-12         0.00000E+00
    0.13621E-07        -0.17401E-12         0.00000E+00
    0.13739E-07        -0.17819E-12         0.00000E+00
    0.13858E-07        -0.18217E-12         0.00000E+00
    0.13979E-07        -0.18593E-12         0.00000E+00
    0.14101E-07        -0.18947E-12         0.00000E+00
    0.14224E-07        -0.19280E-12         0.00000E+00
    0.14348E-07        -0.19589E-12         0.00000E+00
    0.14473E-07        -0.19876E-12         0.00000E+00
    0.14598E-07        -0.20139E-12         0.00000E+00
    0.14725E-07        -0.20378E-12         0.00000E+00
    0.14852E-07        -0.20592E-12         0.00000E+00
    0.14979E-07        -0.20781E-12         0.00000E+00
    0.15106E-07        -0.20942E-12         0.00000E+00
    0.15234E-07        -0.21077E-12         0.00000E+00
    0.15362E-07        -0.21183E-12         0.00000E+00
    0.15489E-07        -0.21261E-12         0.00000E+00
    0.15617E-07        -0.21308E-12         0.00000E+00
    0.15744E-07        -0.21324E-12         0.00000E+00
    0.15870E-07        -0.21309E-12         0.00000E+00
    0.15996E-07        -0.21260E-12         0.00000E+00
    0.16121E-07        -0.21177E-12         0.00000E+00
    0.16245E-07        -0.21059E-12         0.00000E+00
    0.16369E-07        -0.20905E-12         0.00000E+00
    0.16491E-07        -0.20713E-12         0.00000E+00
    0.16611E-07        -0.20483E-12         0.00000E+00
    0.16731E-07        -0.20212E-12         0.00000E+00
    0.16849E-07        -0.19901E-12         0.00000E+00
    0.16965E-07        -0.19547E-12         0.00000E+00
    0.17079E-07        -0.19150E-12         0.00000E+00
    0.17191E-07        -0.18707E-12         0.00000E+00
    0.17301E-07        -0.18217E-12         0.00000E+00
    0.17410E-07        -0.17679E-12         0.00000E+00
    0.17515E-07        -0.17090E-12         0.00000E+00
    0.17619E-07        -0.16448E-12         0.00000E+00
    0.17719E-07        -0.15749E-12         0.00000E+00
    0.17818E-07        -0.14990E-12         0.00000E+00
    0.17913E-07        -0.14168E-12         0.00000E+00
    0.18005E-07        -0.13274E-12         0.00000E+00
    0.18095E-07        -0.12303E-12         0.00000E+00
    0.18181E-07        -0.11246E-12         0.00000E+00
    0.18264E-07        -0.10089E-12         0.00000E+00
    0.18344E-07        -0.88203E-13         0.00000E+00
    0.18420E-07        -0.74204E-13         0.00000E+00
    0.18492E-07        -0.58683E-13         0.00000E+00
    0.18562E-07        -0.41383E-13         0.00000E+00
    0.18627E-07        -0.22007E-13         0.00000E+00
    0.18689E-07        -0.22359E-15         0.00000E+00
    0.18746E-07         0.24326E-13         0.00000E+00
    0.18800E-07         0.52003E-13         0.00000E+00
    0.18850E-07         0.83135E-13         0.00000E+00
    0.18895E-07         0.11796E-12         0.00000E+00
    0.18937E-07         0.15653E-12         0.00000E+00
    0.18974E-07         0.19862E-12         0.00000E+00
    0.19007E-07         0.24352E-12         0.00000E+00
    0.19036E-07         0.28982E-12         0.00000E+00
    0.19060E-07         0.33510E-12         0.00000E+00
    0.19080E-07         0.37523E-12         0.00000E+00
    0.19095E-07         0.40376E-12         0.00000E+00
    0.19105E-07         0.40785E-12         0.00000E+00
    0.19111E-07         0.36642E-12         0.00000E+00
    0.19112E-07         0.16564E-12         0.00000E+00
    0.11055E-07         0.94507E-13         0.00000E+00
    0.11056E-07         0.20399E-12         0.00000E+00
    0.11061E-07         0.22276E-12         0.00000E+00
    0.11070E-07         0.22084E-12         0.00000E+00
    0.11082E-07         0.20605E-12         0.00000E+00
    0.11099E-07         0.18578E-12         0.00000E+00
    0.11119E-07         0.16295E-12         0.00000E+00
    0.11144E-07         0.13975E-12         0.00000E+00
    0.11172E-07         0.11735E-12         0.00000E+00
    0.11203E-07         0.96452E-13         0.00000E+00
    0.11239E-07         0.77382E-13         0.00000E+00
    0.11278E-07         0.60242E-13         0.00000E+00
    0.11320E-07         0.44975E-13         0.00000E+00
    0.11366E-07         0.31441E-13         0.00000E+00
    0.11416E-07         0.19456E-13         0.00000E+00
    0.11469E-07         0.88199E-14         0.00000E+00
    0.11525E-07        -0.66228E-15         0.00000E+00
    0.11585E-07        -0.91709E-14         0.00000E+00
    0.11648E-07        -0.16866E-13         0.00000E+00
    0.11714E-07        -0.23884E-13         0.00000E+00
    0.11784E-07        -0.30341E-13         0.00000E+00
    0.11857E-07        -0.36331E-13         0.00000E+00
    0.11932E-07        -0.41931E-13         0.00000E+00
    0.12011E-07        -0.47203E-13         0.00000E+00
    0.12093E-07        -0.52193E-13         0.00000E+00
    0.12178E-07        -0.56942E-13         0.00000E+00
    0.12265E-07        -0.61476E-13         0.00000E+00
    0.12355E-07        -0.65820E-13         0.00000E+00
    0.12448E-07        -0.69990E-13         0.00000E+00
    0.12543E-07        -0.74000E-13         0.00000E+00
    0.12641E-07        -0.77859E-13         0.00000E+00
    0.12742E-07        -0.81575E-13         0.00000E+00
    0.12844E-07        -0.85154E-13         0.00000E+00
    0.12949E-07        -0.88600E-13         0.00000E+00
    0.13056E-07        -0.91917E-13         0.00000E+00
    0.13165E-07        -0.95105E-13         0.00000E+00
    0.13277E-07        -0.98167E-13         0.00000E+00
    0.13390E-07        -0.10110E-12         0.00000E+00
    0.13504E-07        -0.10391E-12         0.00000E+00
    0.13621E-07        -0.10660E-12         0.00000E+00
    0.13739E-07        -0.10916E-12         0.00000E+00
    0.13858E-07        -0.11159E-12         0.00000E+00
    0.13979E-07        -0.11389E-12         0.00000E+00
    0.14101E-07        -0.11606E-12         0.00000E+00
    0.14224E-07        -0.11809E-12         0.00000E+00
    0.14348E-07        -0.11999E-12         0.00000E+00
    0.14473E-07        -0.12174E-12         0.00000E+00
    0.14598E-07        -0.12336E-12         0.00000E+00
    0.14725E-07        -0.12482E-12         0.00000E+00
    0.14852E-07        -0.12613E-12         0.00000E+00
    0.14979E-07        -0.12729E-12         0.00000E+00
    0.15106E-07        -0.12828E-12         0.00000E+00
    0.15234E-07        -0.12911E-12         0.00000E+00
    0.15362E-07        -0.12976E-12         0.00000E+00
    0.15489E-07        -0.13024E-12         0.00000E+00
    0.15617E-07        -0.13054E-12         0.00000E+00
    0.15744E-07        -0.13064E-12         0.00000E+00
    0.15870E-07        -0.13055E-12         0.00000E+00
    0.15996E-07        -0.13026E-12         0.00000E+00
    0.16121E-07        -0.12976E-12         0.00000E+00
    0.16245E-07        -0.12905E-12         0.00000E+00
    0.16369E-07        -0.12811E-12         0.00000E+00
    0.16491E-07        -0.12695E-12         0.00000E+00
    0.16611E-07        -0.12555E-12         0.00000E+00
    0.16731E-07        -0.12391E-12         0.00000E+00
    0.16849E-07        -0.12201E-12         0.00000E+00
    0.16965E-07        -0.11986E-12         0.00000E+00
    0.17079E-07        -0.11744E-12         0.00000E+00
    0.17191E-07        -0.11475E-12         0.00000E+00
    0.17301E-07        -0.11177E-12         0.00000E+00
    0.17410E-07        -0.10849E-12         0.00000E+00
    0.17515E-07        -0.10490E-12         0.00000E+00
    0.17619E-07        -0.10100E-12         0.00000E+00
    0.17719E-07        -0.96747E-13         0.00000E+00
    0.17818E-07        -0.92134E-13         0.00000E+00
    0.17913E-07        -0.87129E-13         0.00000E+00
    0.18005E-07        -0.81699E-13         0.00000E+00
    0.18095E-07        -0.75799E-13         0.00000E+00
    0.18181E-07        -0.69372E-13         0.00000E+00
    0.18264E-07        -0.62348E-13         0.00000E+00
    0.18344E-07        -0.54639E-13         0.00000E+00
    0.18420E-07        -0.46136E-13         0.00000E+00
    0.18492E-07        -0.36707E-13         0.00000E+00
    0.18562E-07        -0.26194E-13         0.00000E+00
    0.18627E-07        -0.14414E-13         0.00000E+00
    0.18689E-07        -0.11596E-14         0.00000E+00
    0.18746E-07         0.13794E-13         0.00000E+00
    0.18800E-07         0.30674E-13         0.00000E+00
    0.18850E-07         0.49694E-13         0.00000E+00
    0.18895E-07         0.71011E-13         0.00000E+00
    0.18937E-07         0.94687E-13         0.00000E+00
    0.18974E-07         0.12060E-12         0.00000E+00
    0.19007E-07         0.14836E-12         0.00000E+00
    0.19036E-07         0.17714E-12         0.00000E+00
    0.19060E-07         0.20560E-12         0.00000E+00
    0.19080E-07         0.23114E-12         0.00000E+00
    0.19095E-07         0.25041E-12         0.00000E+00
    0.19105E-07         0.25474E-12         0.00000E+00
    0.19111E-07         0.23509E-12         0.00000E+00
    0.19112E-07         0.10940E-12         0.00000E+00
    0.11055E-07         0.33772E-13         0.00000E+00
    0.11056E-07         0.71287E-13         0.00000E+00
    0.11061E-07         0.76308E-13         0.00000E+00
    0.11070E-07         0.75332E-13         0.00000E+00
    0.11082E-07         0.69930E-13         0.00000E+00
    0.11099E-07         0.62895E-13         0.00000E+00
    0.11119E-07         0.55018E-13         0.00000E+00
    0.11144E-07         0.47093E-13         0.00000E+00
    0.11172E-07         0.39461E-13         0.00000E+00
    0.11203E-07         0.32370E-13         0.00000E+00
    0.11239E-07         0.25913E-13         0.00000E+00
    0.11278E-07         0.20120E-13         0.00000E+00
    0.11320E-07         0.14969E-13         0.00000E+00
    0.11366E-07         0.10408E-13         0.00000E+00
    0.11416E-07         0.63737E-14         0.00000E+00
    0.11469E-07         0.27961E-14         0.00000E+00
    0.11525E-07        -0.39167E-15         0.00000E+00
    0.11585E-07        -0.32511E-14         0.00000E+00
    0.11648E-07        -0.58366E-14         0.00000E+00
    0.11714E-07        -0.81948E-14         0.00000E+00
    0.11784E-07        -0.10365E-13         0.00000E+00
    0.11857E-07        -0.12378E-13         0.00000E+00
    0.11932E-07        -0.14261E-13         0.00000E+00
    0.12011E-07        -0.16034E-13         0.00000E+00
    0.12093E-07        -0.17713E-13         0.00000E+00
    0.12178E-07        -0.19311E-13         0.00000E+00
    0.12265E-07        -0.20838E-13         0.00000E+00
    0.12355E-07        -0.22301E-13         0.00000E+00
    0.12448E-07        -0.23706E-13         0.00000E+00
    0.12543E-07        -0.25058E-13         0.00000E+00
    0.12641E-07        -0.26359E-13         0.00000E+00
    0.12742E-07        -0.27612E-13         0.00000E+00
    0.12844E-07        -0.28819E-13         0.00000E+00
    0.12949E-07        -0.29981E-13         0.00000E+00
    0.13056E-07        -0.31100E-13         0.00000E+00
    0.13165E-07        -0.32176E-13         0.00000E+00
    0.13277E-07        -0.33210E-13         0.00000E+00
    0.13390E-07        -0.34201E-13         0.00000E+00
    0.13504E-07        -0.35150E-13         0.00000E+00
    0.13621E-07        -0.36057E-13         0.00000E+00
    0.13739E-07        -0.36921E-13         0.00000E+00
    0.13858E-07        -0.37742E-13         0.00000E+00
    0.13979E-07        -0.38519E-13         0.00000E+00
    0.14101E-07        -0.39252E-13         0.00000E+00
    0.14224E-07        -0.39939E-13         0.00000E+00
    0.14348E-07        -0.40580E-13         0.00000E+00
    0.14473E-07        -0.41174E-13         0.00000E+00
    0.14598E-07        -0.41719E-13         0.00000E+00
    0.14725E-07        -0.42215E-13         0.00000E+00
    0.14852E-07        -0.42659E-13         0.00000E+00
    0.14979E-07        -0.43050E-13         0.00000E+00
    0.15106E-07        -0.43387E-13         0.00000E+00
    0.15234E-07        -0.43667E-13         0.00000E+00
    0.15362E-07        -0.43890E-13         0.00000E+00
    0.15489E-07        -0.44052E-13         0.00000E+00
    0.15617E-07        -0.44153E-13         0.00000E+00
    0.15744E-07        -0.44190E-13         0.00000E+00
    0.15870E-07        -0.44162E-13         0.00000E+00
    0.15996E-07        -0.44065E-13         0.00000E+00
    0.16121E-07        -0.43898E-13         0.00000E+00
    0.16245E-07        -0.43659E-13         0.00000E+00
    0.16369E-07        -0.43345E-13         0.00000E+00
    0.16491E-07        -0.42953E-13         0.00000E+00
    0.16611E-07        -0.42483E-13         0.00000E+00
    0.16731E-07        -0.41930E-13         0.00000E+00
    0.16849E-07        -0.41293E-13         0.00000E+00
    0.16965E-07        -0.40568E-13         0.00000E+00
    0.17079E-07        -0.39754E-13         0.00000E+00
    0.17191E-07        -0.38847E-13         0.00000E+00
    0.17301E-07        -0.37844E-13         0.00000E+00
    0.17410E-07        -0.36741E-13         0.00000E+00
    0.17515E-07        -0.35534E-13         0.00000E+00
    0.17619E-07        -0.34218E-13         0.00000E+00
    0.17719E-07        -0.32788E-13         0.00000E+00
    0.17818E-07        -0.31236E-13         0.00000E+00
    0.17913E-07        -0.29552E-13         0.00000E+00
    0.18005E-07        -0.27726E-13         0.00000E+00
    0.18095E-07        -0.25741E-13         0.00000E+00
    0.18181E-07        -0.23580E-13         0.00000E+00
    0.18264E-07        -0.21219E-13         0.00000E+00
    0.18344E-07        -0.18627E-13         0.00000E+00
    0.18420E-07        -0.15769E-13         0.00000E+00
    0.18492E-07        -0.12599E-13         0.00000E+00
    0.18562E-07        -0.90643E-14         0.00000E+00
    0.18627E-07        -0.51018E-14         0.00000E+00
    0.18689E-07        -0.64090E-15         0.00000E+00
    0.18746E-07         0.43955E-14         0.00000E+00
    0.18800E-07         0.10086E-13         0.00000E+00
    0.18850E-07         0.16506E-13         0.00000E+00
    0.18895E-07         0.23711E-13         0.00000E+00
    0.18937E-07         0.31729E-13         0.00000E+00
    0.18974E-07         0.40521E-13         0.00000E+00
    0.19007E-07         0.49977E-13         0.00000E+00
    0.19036E-07         0.59807E-13         0.00000E+00
    0.19060E-07         0.69611E-13         0.00000E+00
    0.19080E-07         0.78464E-13         0.00000E+00
    0.19095E-07         0.85448E-13         0.00000E+00
    0.19105E-07         0.87298E-13         0.00000E+00
    0.19111E-07         0.82209E-13         0.00000E+00
    0.19112E-07         0.39126E-13         0.00000E+00
TENSORS stressef double 
    0.12681E+08         0.30122E+05         0.00000E+00
    0.30122E+05         0.29547E+08         0.00000E+00
    0.00000E+00         0.00000E+00         0.12668E+08
 
    0.12656E+08         0.78227E+05         0.00000E+00
    0.78227E+05         0.29506E+08         0.00000E+00
    0.00000E+00         0.00000E+00         0.12649E+08
 
    0.12632E+08         0.11009E+06         0.00000E+00
    0.11009E+06         0.29455E+08         0.00000E+00
    0.00000E+00         0.00000E+00         0.12626E+08
 
    0.12606E+08         0.13537E+06         0.00000E+00
    0.13537E+06         0.29398E+08         0.00000E+00
    0.00000E+00         0.00000E+00         0.12601E+08
 
    0.12578E+08         0.15662E+06         0.00000E+00
    0.15662E+06         0.29336E+08         0.00000E+00
    0.00000E+00         0.00000E+00         0.12574E+08
 
    0.12550E+08         0.17539E+06         0.00000E+00
    0.17539E+06         0.29270E+08         0.00000E+00
    0.00000E+00         0.00000E+00         0.12546E+08
 
    0.12519E+08         0.19255E+06         0.00000E+00
    0.19255E+06         0.29201E+08         0.00000E+00
    0.00000E+00         0.00000E+00         0.12516E+08
 
    0.12488E+08         0.20862E+06         0.00000E+00
    0.20862E+06         0.29129E+08         0.00000E+00
    0.00000E+00         0.00000E+00         0.12485E+08
 
    0.12456E+08         0.22389E+06         0.00000E+00
    0.22389E+06         0.29055E+08         0.00000E+00
    0.00000E+00         0.00000E+00         0.12453E+08
 
    0.12424E+08         0.23852E+06         0.00000E+00
    0.23852E+06         0.28979E+08         0.00000E+00
    0.00000E+00         0.00000E+00         0.12421E+08
 
    0.12391E+08         0.25257E+06         0.00000E+00
    0.25257E+06         0.28903E+08         0.00000E+00
    0.00000E+00         0.00000E+00         0.12388E+08
 
    0.12358E+08         0.26607E+06         0.00000E+00
    0.26607E+06         0.28826E+08         0.00000E+00
    0.00000E+00         0.00000E+00         0.12355E+08
 
    0.12325E+08         0.27902E+06         0.00000E+00
    0.27902E+06         0.28749E+08         0.00000E+00
    0.00000E+00         0.00000E+00         0.12322E+08
 
    0.12291E+08         0.29141E+06         0.00000E+00
    0.29141E+06         0.28672E+08         0.00000E+00
    0.00000E+00         0.00000E+00         0.12289E+08
 
    0.12258E+08         0.30325E+06         0.00000E+00
    0.30325E+06         0.28594E+08         0.00000E+00
    0.00000E+00         0.00000E+00         0.12256E+08
 
    0.12225E+08         0.31453E+06         0.00000E+00
    0.31453E+06         0.28517E+08         0.00000E+00
    0.00000E+00         0.00000E+00         0.12222E+08
 
    0.12191E+08         0.32526E+06         0.00000E+00
    0.32526E+06         0.28440E+08         0.00000E+00
    0.00000E+00         0.00000E+00         0.12189E+08
 
    0.12158E+08         0.33545E+06         0.00000E+00
    0.33545E+06         0.28362E+08         0.00000E+00
    0.00000E+00         0.00000E+00         0.12156E+08
 
    0.12125E+08         0.34513E+06         0.00000E+00
    0.34513E+06         0.28285E+08         0.00000E+00
    0.00000E+00         0.00000E+00         0.12123E+08
 
    0.12091E+08         0.35431E+06         0.00000E+00
    0.35431E+06         0.28207E+08         0.00000E+00
    0.00000E+00         0.00000E+00         0.12090E+08
 
    0.12058E+08         0.36303E+06         0.00000E+00
    0.36303E+06         0.28130E+08         0.00000E+00
    0.00000E+00         0.00000E+00         0.12056E+08
 
    0.12025E+08         0.37131E+06         0.00000E+00
    0.37131E+06         0.28052E+08         0.00000E+00
    0.00000E+00         0.00000E+00         0.12023E+08
 
    0.11991E+08         0.37919E+06         0.00000E+00
    0.37919E+06         0.27975E+08         0.00000E+00
    0.00000E+00         0.00000E+00         0.11990E+08
 
    0.11958E+08         0.38670E+06         0.00000E+00
    0.38670E+06         0.27897E+08         0.00000E+00
    0.00000E+00         0.00000E+00         0.11956E+08
 
    0.11924E+08         0.39386E+06         0.00000E+00
    0.39386E+06         0.27819E+08         0.00000E+00
    0.00000E+00         0.00000E+00         0.11923E+08
 
    0.11891E+08         0.40072E+06         0.00000E+00
    0.40072E+06         0.27740E+08         0.00000E+00
    0.00000E+00         0.00000E+00         0.11889E+08
 
    0.11857E+08         0.40729E+06         0.00000E+00
    0.40729E+06         0.27662E+08         0.00000E+00
    0.00000E+00         0.00000E+00         0.11855E+08
 
    0.11823E+08         0.41360E+06         0.00000E+00
    0.41360E+06         0.27582E+08         0.00000E+00
    0.00000E+00         0.00000E+00         0.11822E+08
 
    0.11789E+08         0.41968E+06         0.00000E+00
    0.41968E+06         0.27503E+08         0.00000E+00
    0.00000E+00         0.00000E+00         0.11787E+08
 
    0.11754E+08         0.42556E+06         0.00000E+00
    0.42556E+06         0.27423E+08         0.00000E+00
    0.00000E+00         0.00000E+00         0.11753E+08
 
    0.11720E+08         0.43124E+06         0.00000E+00
    0.43124E+06         0.27342E+08         0.00000E+00
    0.00000E+00         0.00000E+00         0.11719E+08
 
    0.11685E+08         0.43676E+06         0.00000E+00
    0.43676E+06         0.27261E+08         0.00000E+00
    0.00000E+00         0.00000E+00         0.11684E+08
 
    0.11650E+08         0.44212E+06         0.00000E+00
    0.44212E+06         0.27180E+08         0.00000E+00
    0.00000E+00         0.00000E+00         0.11649E+08
 
    0.11615E+08         0.44735E+06         0.00000E+00
    0.44735E+06         0.27098E+08         0.00000E+00
    0.00000E+00         0.00000E+00         0.11614E+08
 
    0.11579E+08         0.45245E+06         0.00000E+00
    0.45245E+06         0.27015E+08         0.00000E+00
    0.00000E+00         0.00000E+00         0.11578E+08
 
    0.11544E+08         0.45743E+06         0.00000E+00
    0.45743E+06         0.26932E+08         0.00000E+00
    0.00000E+00         0.00000E+00         0.11543E+08
 
    0.11508E+08         0.46232E+06         0.00000E+00
    0.46232E+06         0.26848E+08         0.00000E+00
    0.00000E+00         0.00000E+00         0.11507E+08
 
    0.11471E+08         0.46711E+06         0.00000E+00
    0.46711E+06         0.26763E+08         0.00000E+00
    0.00000E+00         0.00000E+00         0.11470E+08
 
    0.11435E+08         0.47180E+06         0.00000E+00
    0.47180E+06         0.26678E+08         0.00000E+00
    0.00000E+00         0.00000E+00         0.11434E+08
 
    0.11398E+08         0.47642E+06         0.00000E+00
    0.47642E+06         0.26592E+08         0.00000E+00
    0.00000E+00         0.00000E+00         0.11397E+08
 
    0.11361E+08         0.48096E+06         0.00000E+00
    0.48096E+06         0.26505E+08         0.00000E+00
    0.00000E+00         0.00000E+00         0.11360E+08
 
    0.11323E+08         0.48542E+06         0.00000E+00
    0.48542E+06         0.26418E+08         0.00000E+00
    0.00000E+00         0.00000E+00         0.11322E+08
 
    0.11285E+08         0.48981E+06         0.00000E+00
    0.48981E+06         0.26330E+08         0.00000E+00
    0.00000E+00         0.00000E+00         0.11284E+08
 
    0.11247E+08         0.49412E+06         0.00000E+00
    0.49412E+06         0.26241E+08         0.00000E+00
    0.00000E+00         0.00000E+00         0.11246E+08
 
    0.11209E+08         0.49837E+06         0.00000E+00
    0.49837E+06         0.26151E+08         0.00000E+00
    0.00000E+00         0.00000E+00         0.11208E+08
 
    0.11170E+08         0.50254E+06         0.00000E+00
    0.50254E+06         0.26060E+08         0.00000E+00
    0.00000E+00         0.00000E+00         0.11169E+08
 
    0.11131E+08         0.50663E+06         0.00000E+00
    0.50663E+06         0.25969E+08         0.00000E+00
    0.00000E+00         0.00000E+00         0.11130E+08
 
    0.11091E+08         0.51065E+06         0.00000E+00
    0.51065E+06         0.25877E+08         0.00000E+00
    0.00000E+00         0.00000E+00         0.11091E+08
 
    0.11052E+08         0.51459E+06         0.00000E+00
    0.51459E+06         0.25784E+08         0.00000E+00
    0.00000E+00         0.00000E+00         0.11051E+08
 
    0.11011E+08         0.51844E+06         0.00000E+00
    0.51844E+06         0.25691E+08         0.00000E+00
    0.00000E+00         0.00000E+00         0.11011E+08
 
    0.10971E+08         0.52219E+06         0.00000E+00
    0.52219E+06         0.25596E+08         0.00000E+00
    0.00000E+00         0.00000E+00         0.10970E+08
 
    0.10930E+08         0.52586E+06         0.00000E+00
    0.52586E+06         0.25501E+08         0.00000E+00
    0.00000E+00         0.00000E+00         0.10929E+08
 
    0.10889E+08         0.52941E+06         0.00000E+00
    0.52941E+06         0.25404E+08         0.00000E+00
    0.00000E+00         0.00000E+00         0.10888E+08
 
    0.10847E+08         0.53286E+06         0.00000E+00
    0.53286E+06         0.25307E+08         0.00000E+00
    0.00000E+00         0.00000E+00         0.10846E+08
 
    0.10805E+08         0.53618E+06         0.00000E+00
    0.53618E+06         0.25209E+08         0.00000E+00
    0.00000E+00         0.00000E+00         0.10804E+08
 
    0.10763E+08         0.53937E+06         0.00000E+00
    0.53937E+06         0.25111E+08         0.00000E+00
    0.00000E+00         0.00000E+00         0.10762E+08
 
    0.10720E+08         0.54242E+06         0.00000E+00
    0.54242E+06         0.25011E+08         0.00000E+00
    0.00000E+00         0.00000E+00         0.10719E+08
 
    0.10677E+08         0.54531E+06         0.00000E+00
    0.54531E+06         0.24910E+08         0.00000E+00
    0.00000E+00         0.00000E+00         0.10676E+08
 
    0.10633E+08         0.54803E+06         0.00000E+00
    0.54803E+06         0.24809E+08         0.00000E+00
    0.00000E+00         0.00000E+00         0.10633E+08
 
    0.10589E+08         0.55057E+06         0.00000E+00
    0.55057E+06         0.24707E+08         0.00000E+00
    0.00000E+00         0.00000E+00         0.10589E+08
 
    0.10545E+08         0.55292E+06         0.00000E+00
    0.55292E+06         0.24604E+08         0.00000E+00
    0.00000E+00         0.00000E+00         0.10545E+08
 
    0.10500E+08         0.55505E+06         0.00000E+00
    0.55505E+06         0.24500E+08         0.00000E+00
    0.00000E+00         0.00000E+00         0.10500E+08
 
    0.10455E+08         0.55694E+06         0.00000E+00
    0.55694E+06         0.24395E+08         0.00000E+00
    0.00000E+00         0.00000E+00         0.10455E+08
 
    0.10410E+08         0.55858E+06         0.00000E+00
    0.55858E+06         0.24289E+08         0.00000E+00
    0.00000E+00         0.00000E+00         0.10410E+08
 
    0.10364E+08         0.55994E+06         0.00000E+00
    0.55994E+06         0.24182E+08         0.00000E+00
    0.00000E+00         0.00000E+00         0.10364E+08
 
    0.10318E+08         0.56099E+06         0.00000E+00
    0.56099E+06         0.24075E+08         0.00000E+00
    0.00000E+00         0.00000E+00         0.10318E+08
 
    0.10271E+08         0.56172E+06         0.00000E+00
    0.56172E+06         0.23966E+08         0.00000E+00
    0.00000E+00         0.00000E+00         0.10271E+08
 
    0.10224E+08         0.56209E+06         0.00000E+00
    0.56209E+06         0.23857E+08         0.00000E+00
    0.00000E+00         0.00000E+00         0.10224E+08
 
    0.10177E+08         0.56207E+06         0.00000E+00
    0.56207E+06         0.23746E+08         0.00000E+00
    0.00000E+00         0.00000E+00         0.10177E+08
 
    0.10129E+08         0.56163E+06         0.00000E+00
    0.56163E+06         0.23635E+08         0.00000E+00
    0.00000E+00         0.00000E+00         0.10129E+08
 
    0.10081E+08         0.56073E+06         0.00000E+00
    0.56073E+06         0.23523E+08         0.00000E+00
    0.00000E+00         0.00000E+00         0.10081E+08
 
    0.10032E+08         0.55933E+06         0.00000E+00
    0.55933E+06         0.23410E+08         0.00000E+00
    0.00000E+00         0.00000E+00         0.10033E+08
 
    0.99834E+07         0.55739E+06         0.00000E+00
    0.55739E+06         0.23296E+08         0.00000E+00
    0.00000E+00         0.00000E+00         0.99839E+07
 
    0.99340E+07         0.55486E+06         0.00000E+00
    0.55486E+06         0.23181E+08         0.00000E+00
    0.00000E+00         0.00000E+00         0.99346E+07
 
    0.98841E+07         0.55169E+06         0.00000E+00
    0.55169E+06         0.23065E+08         0.00000E+00
    0.00000E+00         0.00000E+00         0.98848E+07
 
    0.98338E+07         0.54783E+06         0.00000E+00
    0.54783E+06         0.22948E+08         0.00000E+00
    0.00000E+00         0.00000E+00         0.98347E+07
 
    0.97831E+07         0.54324E+06         0.00000E+00
    0.54324E+06         0.22831E+08         0.00000E+00
    0.00000E+00         0.00000E+00         0.97841E+07
 
    0.97319E+07         0.53784E+06         0.00000E+00
    0.53784E+06         0.22712E+08         0.00000E+00
    0.00000E+00         0.00000E+00         0.97330E+07
 
    0.96802E+07         0.53159E+06         0.00000E+00
    0.53159E+06         0.22592E+08         0.00000E+00
    0.00000E+00         0.00000E+00         0.96815E+07
 
    0.96280E+07         0.52443E+06         0.00000E+00
    0.52443E+06         0.22471E+08         0.00000E+00
    0.00000E+00         0.00000E+00         0.96296E+07
 
    0.95754E+07         0.51630E+06         0.00000E+00
    0.51630E+06         0.22348E+08         0.00000E+00
    0.00000E+00         0.00000E+00         0.95771E+07
 
    0.95223E+07         0.50715E+06         0.00000E+00
    0.50715E+06         0.22225E+08         0.00000E+00
    0.00000E+00         0.00000E+00         0.95242E+07
 
    0.94686E+07         0.49693E+06         0.00000E+00
    0.49693E+06         0.22101E+08         0.00000E+00
    0.00000E+00         0.00000E+00         0.94708E+07
 
    0.94145E+07         0.48560E+06         0.00000E+00
    0.48560E+06         0.21975E+08         0.00000E+00
    0.00000E+00         0.00000E+00         0.94169E+07
 
    0.93599E+07         0.47312E+06         0.00000E+00
    0.47312E+06         0.21849E+08         0.00000E+00
    0.00000E+00         0.00000E+00         0.93625E+07
 
    0.93049E+07         0.45949E+06         0.00000E+00
    0.45949E+06         0.21721E+08         0.00000E+00
    0.00000E+00         0.00000E+00         0.93077E+07
 
    0.92495E+07         0.44468E+06         0.00000E+00
    0.44468E+06         0.21592E+08         0.00000E+00
    0.00000E+00         0.00000E+00         0.92526E+07
 
    0.91938E+07         0.42870E+06         0.00000E+00
    0.42870E+06         0.21463E+08         0.00000E+00
    0.00000E+00         0.00000E+00         0.91971E+07
 
    0.91378E+07         0.41155E+06         0.00000E+00
    0.41155E+06         0.21333E+08         0.00000E+00
    0.00000E+00         0.00000E+00         0.91414E+07
 
    0.90819E+07         0.39327E+06         0.00000E+00
    0.39327E+06         0.21204E+08         0.00000E+00
    0.00000E+00         0.00000E+00         0.90856E+07
 
    0.90260E+07         0.37384E+06         0.00000E+00
    0.37384E+06         0.21074E+08         0.00000E+00
    0.00000E+00         0.00000E+00         0.90301E+07
 
    0.89707E+07         0.35323E+06         0.00000E+00
    0.35323E+06         0.20946E+08         0.00000E+00
    0.00000E+00         0.00000E+00         0.89749E+07
 
    0.89160E+07         0.33133E+06         0.00000E+00
    0.33133E+06         0.20819E+08         0.00000E+00
    0.00000E+00         0.00000E+00         0.89206E+07
 
    0.88626E+07         0.30789E+06         0.00000E+00
    0.30789E+06         0.20696E+08         0.00000E+00
    0.00000E+00         0.00000E+00         0.88674E+07
 
    0.88107E+07         0.28240E+06         0.00000E+00
    0.28240E+06         0.20576E+08         0.00000E+00
    0.00000E+00         0.00000E+00         0.88160E+07
 
    0.87609E+07         0.25400E+06         0.00000E+00
    0.25400E+06         0.20462E+08         0.00000E+00
    0.00000E+00         0.00000E+00         0.87669E+07
 
    0.87135E+07         0.22116E+06         0.00000E+00
    0.22116E+06         0.20355E+08         0.00000E+00
    0.00000E+00         0.00000E+00         0.87207E+07
 
    0.86692E+07         0.18126E+06         0.00000E+00
    0.18126E+06         0.20258E+08         0.00000E+00
    0.00000E+00         0.00000E+00         0.86781E+07
 
    0.86273E+07         0.12986E+06         0.00000E+00
    0.12986E+06         0.20169E+08         0.00000E+00
    0.00000E+00         0.00000E+00         0.86389E+07
 
    0.85844E+07         0.50294E+05         0.00000E+00
    0.50294E+05         0.20099E+08         0.00000E+00
    0.00000E+00         0.00000E+00         0.86050E+07
 
    0.12709E+08         0.25178E+05         0.00000E+00
    0.25178E+05         0.29536E+08         0.00000E+00
    0.00000E+00         0.00000E+00         0.12674E+08
 
    0.12673E+08         0.69076E+05         0.00000E+00
    0.69076E+05         0.29498E+08         0.00000E+00
    0.00000E+00         0.00000E+00         0.12651E+08
 
    0.12645E+08         0.10155E+06         0.00000E+00
    0.10155E+06         0.29449E+08         0.00000E+00
    0.00000E+00         0.00000E+00         0.12628E+08
 
    0.12617E+08         0.12688E+06         0.00000E+00
    0.12688E+06         0.29394E+08         0.00000E+00
    0.00000E+00         0.00000E+00         0.12603E+08
 
    0.12588E+08         0.14842E+06         0.00000E+00
    0.14842E+06         0.29333E+08         0.00000E+00
    0.00000E+00         0.00000E+00         0.12576E+08
 
    0.12558E+08         0.16738E+06         0.00000E+00
    0.16738E+06         0.29267E+08         0.00000E+00
    0.00000E+00         0.00000E+00         0.12548E+08
 
    0.12528E+08         0.18473E+06         0.00000E+00
    0.18473E+06         0.29198E+08         0.00000E+00
    0.00000E+00         0.00000E+00         0.12518E+08
 
    0.12496E+08         0.20093E+06         0.00000E+00
    0.20093E+06         0.29126E+08         0.00000E+00
    0.00000E+00         0.00000E+00         0.12486E+08
 
    0.12464E+08         0.21629E+06         0.00000E+00
    0.21629E+06         0.29052E+08         0.00000E+00
    0.00000E+00         0.00000E+00         0.12455E+08
 
    0.12431E+08         0.23096E+06         0.00000E+00
    0.23096E+06         0.28977E+08         0.00000E+00
    0.00000E+00         0.00000E+00         0.12422E+08
 
    0.12398E+08         0.24503E+06         0.00000E+00
    0.24503E+06         0.28900E+08         0.00000E+00
    0.00000E+00         0.00000E+00         0.12389E+08
 
    0.12364E+08         0.25852E+06         0.00000E+00
    0.25852E+06         0.28824E+08         0.00000E+00
    0.00000E+00         0.00000E+00         0.12356E+08
 
    0.12331E+08         0.27144E+06         0.00000E+00
    0.27144E+06         0.28747E+08         0.00000E+00
    0.00000E+00         0.00000E+00         0.12323E+08
 
    0.12297E+08         0.28378E+06         0.00000E+00
    0.28378E+06         0.28669E+08         0.00000E+00
    0.00000E+00         0.00000E+00         0.12290E+08
 
    0.12264E+08         0.29556E+06         0.00000E+00
    0.29556E+06         0.28592E+08         0.00000E+00
    0.00000E+00         0.00000E+00         0.12257E+08
 
    0.12230E+08         0.30677E+06         0.00000E+00
    0.30677E+06         0.28515E+08         0.00000E+00
    0.00000E+00         0.00000E+00         0.12223E+08
 
    0.12196E+08         0.31743E+06         0.00000E+00
    0.31743E+06         0.28437E+08         0.00000E+00
    0.00000E+00         0.00000E+00         0.12190E+08
 
    0.12163E+08         0.32754E+06         0.00000E+00
    0.32754E+06         0.28360E+08         0.00000E+00
    0.00000E+00         0.00000E+00         0.12157E+08
 
    0.12129E+08         0.33713E+06         0.00000E+00
    0.33713E+06         0.28283E+08         0.00000E+00
    0.00000E+00         0.00000E+00         0.12124E+08
 
    0.12096E+08         0.34624E+06         0.00000E+00
    0.34624E+06         0.28206E+08         0.00000E+00
    0.00000E+00         0.00000E+00         0.12090E+08
 
    0.12062E+08         0.35487E+06         0.00000E+00
    0.35487E+06         0.28128E+08         0.00000E+00
    0.00000E+00         0.00000E+00         0.12057E+08
 
    0.12029E+08         0.36307E+06         0.00000E+00
    0.36307E+06         0.28051E+08         0.00000E+00
    0.00000E+00         0.00000E+00         0.12024E+08
 
    0.11995E+08         0.37087E+06         0.00000E+00
    0.37087E+06         0.27973E+08         0.00000E+00
    0.00000E+00         0.00000E+00         0.11991E+08
 
    0.11961E+08         0.37829E+06         0.00000E+00
    0.37829E+06         0.27895E+08         0.00000E+00
    0.00000E+00         0.00000E+00         0.11957E+08
 
    0.11928E+08         0.38537E+06         0.00000E+00
    0.38537E+06         0.27817E+08         0.00000E+00
    0.00000E+00         0.00000E+00         0.11924E+08
 
    0.11894E+08         0.39214E+06         0.00000E+00
    0.39214E+06         0.27739E+08         0.00000E+00
    0.00000E+00         0.00000E+00         0.11890E+08
 
    0.11860E+08         0.39863E+06         0.00000E+00
    0.39863E+06         0.27660E+08         0.00000E+00
    0.00000E+00         0.00000E+00         0.11856E+08
 
    0.11826E+08         0.40486E+06         0.00000E+00
    0.40486E+06         0.27581E+08         0.00000E+00
    0.00000E+00         0.00000E+00         0.11822E+08
 
    0.11792E+08         0.41086E+06         0.00000E+00
    0.41086E+06         0.27502E+08         0.00000E+00
    0.00000E+00         0.00000E+00         0.11788E+08
 
    0.11757E+08         0.41665E+06         0.00000E+00
    0.41665E+06         0.27422E+08         0.00000E+00
    0.00000E+00         0.00000E+00         0.11754E+08
 
    0.11722E+08         0.42225E+06         0.00000E+00
    0.42225E+06         0.27341E+08         0.00000E+00
    0.00000E+00         0.00000E+00         0.11719E+08
 
    0.11688E+08         0.42768E+06         0.00000E+00
    0.42768E+06         0.27260E+08         0.00000E+00
    0.00000E+00         0.00000E+00         0.11684E+08
 
    0.11653E+08         0.43296E+06         0.00000E+00
    0.43296E+06         0.27179E+08         0.00000E+00
    0.00000E+00         0.00000E+00         0.11649E+08
 
    0.11617E+08         0.43811E+06         0.00000E+00
    0.43811E+06         0.27097E+08         0.00000E+00
    0.00000E+00         0.00000E+00         0.11614E+08
 
    0.11582E+08         0.44312E+06         0.00000E+00
    0.44312E+06         0.27014E+08         0.00000E+00
    0.00000E+00         0.00000E+00         0.11579E+08
 
    0.11546E+08         0.44802E+06         0.00000E+00
    0.44802E+06         0.26931E+08         0.00000E+00
    0.00000E+00         0.00000E+00         0.11543E+08
 
    0.11510E+08         0.45282E+06         0.00000E+00
    0.45282E+06         0.26847E+08         0.00000E+00
    0.00000E+00         0.00000E+00         0.11507E+08
 
    0.11474E+08         0.45752E+06         0.00000E+00
    0.45752E+06         0.26762E+08         0.00000E+00
    0.00000E+00         0.00000E+00         0.11471E+08
 
    0.11437E+08         0.46214E+06         0.00000E+00
    0.46214E+06         0.26677E+08         0.00000E+00
    0.00000E+00         0.00000E+00         0.11434E+08
 
    0.11400E+08         0.46667E+06         0.00000E+00
    0.46667E+06         0.26591E+08         0.00000E+00
    0.00000E+00         0.00000E+00         0.11397E+08
 
    0.11363E+08         0.47112E+06         0.00000E+00
    0.47112E+06         0.26504E+08         0.00000E+00
    0.00000E+00         0.00000E+00         0.11360E+08
 
    0.11325E+08         0.47549E+06         0.00000E+00
    0.47549E+06         0.26417E+08         0.00000E+00
    0.00000E+00         0.00000E+00         0.11323E+08
 
    0.11287E+08         0.47979E+06         0.00000E+00
    0.47979E+06         0.26329E+08         0.00000E+00
    0.00000E+00         0.00000E+00         0.11285E+08
 
    0.11249E+08         0.48402E+06         0.00000E+00
    0.48402E+06         0.26240E+08         0.00000E+00
    0.00000E+00         0.00000E+00         0.11247E+08
 
    0.11211E+08         0.48818E+06         0.00000E+00
    0.48818E+06         0.26150E+08         0.00000E+00
    0.00000E+00         0.00000E+00         0.11208E+08
 
    0.11172E+08         0.49226E+06         0.00000E+00
    0.49226E+06         0.26060E+08         0.00000E+00
    0.00000E+00         0.00000E+00         0.11169E+08
 
    0.11133E+08         0.49626E+06         0.00000E+00
    0.49626E+06         0.25968E+08         0.00000E+00
    0.00000E+00         0.00000E+00         0.11130E+08
 
    0.11093E+08         0.50019E+06         0.00000E+00
    0.50019E+06         0.25876E+08         0.00000E+00
    0.00000E+00         0.00000E+00         0.11091E+08
 
    0.11053E+08         0.50404E+06         0.00000E+00
    0.50404E+06         0.25783E+08         0.00000E+00
    0.00000E+00         0.00000E+00         0.11051E+08
 
    0.11013E+08         0.50780E+06         0.00000E+00
    0.50780E+06         0.25690E+08         0.00000E+00
    0.00000E+00         0.00000E+00         0.11011E+08
 
    0.10973E+08         0.51147E+06         0.00000E+00
    0.51147E+06         0.25595E+08         0.00000E+00
    0.00000E+00         0.00000E+00         0.10970E+08
 
    0.10932E+08         0.51504E+06         0.00000E+00
    0.51504E+06         0.25500E+08         0.00000E+00
    0.00000E+00         0.00000E+00         0.10929E+08
 
    0.10890E+08         0.51851E+06         0.00000E+00
    0.51851E+06         0.25404E+08         0.00000E+00
    0.00000E+00         0.00000E+00         0.10888E+08
 
    0.10849E+08         0.52187E+06         0.00000E+00
    0.52187E+06         0.25307E+08         0.00000E+00
    0.00000E+00         0.00000E+00         0.10847E+08
 
    0.10807E+08         0.52511E+06         0.00000E+00
    0.52511E+06         0.25209E+08         0.00000E+00
    0.00000E+00         0.00000E+00         0.10805E+08
 
    0.10764E+08         0.52821E+06         0.00000E+00
    0.52821E+06         0.25110E+08         0.00000E+00
    0.00000E+00         0.00000E+00         0.10762E+08
 
    0.10721E+08         0.53117E+06         0.00000E+00
    0.53117E+06         0.25010E+08         0.00000E+00
    0.00000E+00         0.00000E+00         0.10719E+08
 
    0.10678E+08         0.53398E+06         0.00000E+00
    0.53398E+06         0.24910E+08         0.00000E+00
    0.00000E+00         0.00000E+00         0.10676E+08
 
    0.10634E+08         0.53663E+06         0.00000E+00
    0.53663E+06         0.24809E+08         0.00000E+00
    0.00000E+00         0.00000E+00         0.10633E+08
 
    0.10591E+08         0.53909E+06         0.00000E+00
    0.53909E+06         0.24706E+08         0.00000E+00
    0.00000E+00         0.00000E+00         0.10589E+08
 
    0.10546E+08         0.54135E+06         0.00000E+00
    0.54135E+06         0.24603E+08         0.00000E+00
    0.00000E+00         0.00000E+00         0.10545E+08
 
    0.10501E+08         0.54340E+06         0.00000E+00
    0.54340E+06         0.24499E+08         0.00000E+00
    0.00000E+00         0.00000E+00         0.10500E+08
 
    0.10456E+08         0.54522E+06         0.00000E+00
    0.54522E+06         0.24394E+08         0.00000E+00
    0.00000E+00         0.00000E+00         0.10455E+08
 
    0.10411E+08         0.54678E+06         0.00000E+00
    0.54678E+06         0.24289E+08         0.00000E+00
    0.00000E+00         0.00000E+00         0.10410E+08
 
    0.10365E+08         0.54807E+06         0.00000E+00
    0.54807E+06         0.24182E+08         0.00000E+00
    0.00000E+00         0.00000E+00         0.10364E+08
 
    0.10318E+08         0.54906E+06         0.00000E+00
    0.54906E+06         0.24074E+08         0.00000E+00
    0.00000E+00         0.00000E+00         0.10318E+08
 
    0.10272E+08         0.54972E+06         0.00000E+00
    0.54972E+06         0.23966E+08         0.00000E+00
    0.00000E+00         0.00000E+00         0.10271E+08
 
    0.10224E+08         0.55003E+06         0.00000E+00
    0.55003E+06         0.23857E+08         0.00000E+00
    0.00000E+00         0.00000E+00         0.10224E+08
 
    0.10177E+08         0.54995E+06         0.00000E+00
    0.54995E+06         0.23747E+08         0.00000E+00
    0.00000E+00         0.00000E+00         0.10177E+08
 
    0.10129E+08         0.54945E+06         0.00000E+00
    0.54945E+06         0.23635E+08         0.00000E+00
    0.00000E+00         0.00000E+00         0.10129E+08
 
    0.10081E+08         0.54850E+06         0.00000E+00
    0.54850E+06         0.23523E+08         0.00000E+00
    0.00000E+00         0.00000E+00         0.10081E+08
 
    0.10032E+08         0.54705E+06         0.00000E+00
    0.54705E+06         0.23410E+08         0.00000E+00
    0.00000E+00         0.00000E+00         0.10033E+08
 
    0.99824E+07         0.54506E+06         0.00000E+00
    0.54506E+06         0.23297E+08         0.00000E+00
    0.00000E+00         0.00000E+00         0.99837E+07
 
    0.99326E+07         0.54249E+06         0.00000E+00
    0.54249E+06         0.23182E+08         0.00000E+00
    0.00000E+00         0.00000E+00         0.99343E+07
 
    0.98825E+07         0.53929E+06         0.00000E+00
    0.53929E+06         0.23066E+08         0.00000E+00
    0.00000E+00         0.00000E+00         0.98845E+07
 
    0.98318E+07         0.53541E+06         0.00000E+00
    0.53541E+06         0.22949E+08         0.00000E+00
    0.00000E+00         0.00000E+00         0.98343E+07
 
    0.97807E+07         0.53079E+06         0.00000E+00
    0.53079E+06         0.22832E+08         0.00000E+00
    0.00000E+00         0.00000E+00         0.97837E+07
 
    0.97291E+07         0.52537E+06         0.00000E+00
    0.52537E+06         0.22713E+08         0.00000E+00
    0.00000E+00         0.00000E+00         0.97325E+07
 
    0.96770E+07         0.51911E+06         0.00000E+00
    0.51911E+06         0.22593E+08         0.00000E+00
    0.00000E+00         0.00000E+00         0.96810E+07
 
    0.96244E+07         0.51194E+06         0.00000E+00
    0.51194E+06         0.22472E+08         0.00000E+00
    0.00000E+00         0.00000E+00         0.96289E+07
 
    0.95712E+07         0.50381E+06         0.00000E+00
    0.50381E+06         0.22350E+08         0.00000E+00
    0.00000E+00         0.00000E+00         0.95764E+07
 
    0.95176E+07         0.49467E+06         0.00000E+00
    0.49467E+06         0.22227E+08         0.00000E+00
    0.00000E+00         0.00000E+00         0.95234E+07
 
    0.94634E+07         0.48446E+06         0.00000E+00
    0.48446E+06         0.22103E+08         0.00000E+00
    0.00000E+00         0.00000E+00         0.94699E+07
 
    0.94088E+07         0.47314E+06         0.00000E+00
    0.47314E+06         0.21977E+08         0.00000E+00
    0.00000E+00         0.00000E+00         0.94159E+07
 
    0.93536E+07         0.46068E+06         0.00000E+00
    0.46068E+06         0.21851E+08         0.00000E+00
    0.00000E+00         0.00000E+00         0.93614E+07
 
    0.92980E+07         0.44705E+06         0.00000E+00
    0.44705E+06         0.21724E+08         0.00000E+00
    0.00000E+00         0.00000E+00         0.93065E+07
 
    0.92420E+07         0.43223E+06         0.00000E+00
    0.43223E+06         0.21595E+08         0.00000E+00
    0.00000E+00         0.00000E+00         0.92512E+07
 
    0.91857E+07         0.41624E+06         0.00000E+00
    0.41624E+06         0.21466E+08         0.00000E+00
    0.00000E+00         0.00000E+00         0.91956E+07
 
    0.91292E+07         0.39906E+06         0.00000E+00
    0.39906E+06         0.21337E+08         0.00000E+00
    0.00000E+00         0.00000E+00         0.91398E+07
 
    0.90727E+07         0.38070E+06         0.00000E+00
    0.38070E+06         0.21207E+08         0.00000E+00
    0.00000E+00         0.00000E+00         0.90840E+07
 
    0.90163E+07         0.36117E+06         0.00000E+00
    0.36117E+06         0.21078E+08         0.00000E+00
    0.00000E+00         0.00000E+00         0.90283E+07
 
    0.89603E+07         0.34040E+06         0.00000E+00
    0.34040E+06         0.20950E+08         0.00000E+00
    0.00000E+00         0.00000E+00         0.89731E+07
 
    0.89049E+07         0.31828E+06         0.00000E+00
    0.31828E+06         0.20824E+08         0.00000E+00
    0.00000E+00         0.00000E+00         0.89186E+07
 
    0.88505E+07         0.29455E+06         0.00000E+00
    0.29455E+06         0.20700E+08         0.00000E+00
    0.00000E+00         0.00000E+00         0.88653E+07
 
    0.87974E+07         0.26870E+06         0.00000E+00
    0.26870E+06         0.20582E+08         0.00000E+00
    0.00000E+00         0.00000E+00         0.88137E+07
 
    0.87459E+07         0.23990E+06         0.00000E+00
    0.23990E+06         0.20468E+08         0.00000E+00
    0.00000E+00         0.00000E+00         0.87642E+07
 
    0.86959E+07         0.20655E+06         0.00000E+00
    0.20655E+06         0.20363E+08         0.00000E+00
    0.00000E+00         0.00000E+00         0.87176E+07
 
    0.86471E+07         0.16652E+06         0.00000E+00
    0.16652E+06         0.20266E+08         0.00000E+00
    0.00000E+00         0.00000E+00         0.86741E+07
 
    0.85986E+07         0.11404E+06         0.00000E+00
    0.11404E+06         0.20182E+08         0.00000E+00
    0.00000E+00         0.00000E+00         0.86342E+07
 
    0.85367E+07         0.41745E+05         0.00000E+00
    0.41745E+05         0.20116E+08         0.00000E+00
    0.00000E+00         0.00000E+00         0.85959E+07
 
    0.12735E+08         0.21648E+05         0.00000E+00
    0.21648E+05         0.29527E+08         0.00000E+00
    0.00000E+00         0.00000E+00         0.12679E+08
 
    0.12692E+08         0.61471E+05         0.00000E+00
    0.61471E+05         0.29491E+08         0.00000E+00
    0.00000E+00         0.00000E+00         0.12655E+08
 
    0.12659E+08         0.93463E+05         0.00000E+00
    0.93463E+05         0.29444E+08         0.00000E+00
    0.00000E+00         0.00000E+00         0.12631E+08
 
    0.12629E+08         0.11883E+06         0.00000E+00
    0.11883E+06         0.29389E+08         0.00000E+00
    0.00000E+00         0.00000E+00         0.12605E+08
 
    0.12598E+08         0.14043E+06         0.00000E+00
    0.14043E+06         0.29328E+08         0.00000E+00
    0.00000E+00         0.00000E+00         0.12578E+08
 
    0.12567E+08         0.15955E+06         0.00000E+00
    0.15955E+06         0.29263E+08         0.00000E+00
    0.00000E+00         0.00000E+00         0.12549E+08
 
    0.12536E+08         0.17702E+06         0.00000E+00
    0.17702E+06         0.29194E+08         0.00000E+00
    0.00000E+00         0.00000E+00         0.12519E+08
 
    0.12504E+08         0.19332E+06         0.00000E+00
    0.19332E+06         0.29122E+08         0.00000E+00
    0.00000E+00         0.00000E+00         0.12488E+08
 
    0.12471E+08         0.20876E+06         0.00000E+00
    0.20876E+06         0.29049E+08         0.00000E+00
    0.00000E+00         0.00000E+00         0.12456E+08
 
    0.12438E+08         0.22347E+06         0.00000E+00
    0.22347E+06         0.28974E+08         0.00000E+00
    0.00000E+00         0.00000E+00         0.12423E+08
 
    0.12404E+08         0.23755E+06         0.00000E+00
    0.23755E+06         0.28898E+08         0.00000E+00
    0.00000E+00         0.00000E+00         0.12391E+08
 
    0.12371E+08         0.25103E+06         0.00000E+00
    0.25103E+06         0.28821E+08         0.00000E+00
    0.00000E+00         0.00000E+00         0.12358E+08
 
    0.12337E+08         0.26391E+06         0.00000E+00
    0.26391E+06         0.28744E+08         0.00000E+00
    0.00000E+00         0.00000E+00         0.12324E+08
 
    0.12303E+08         0.27621E+06         0.00000E+00
    0.27621E+06         0.28667E+08         0.00000E+00
    0.00000E+00         0.00000E+00         0.12291E+08
 
    0.12269E+08         0.28792E+06         0.00000E+00
    0.28792E+06         0.28590E+08         0.00000E+00
    0.00000E+00         0.00000E+00         0.12258E+08
 
    0.12235E+08         0.29907E+06         0.00000E+00
    0.29907E+06         0.28513E+08         0.00000E+00
    0.00000E+00         0.00000E+00         0.12224E+08
 
    0.12201E+08         0.30964E+06         0.00000E+00
    0.30964E+06         0.28435E+08         0.00000E+00
    0.00000E+00         0.00000E+00         0.12191E+08
 
    0.12168E+08         0.31968E+06         0.00000E+00
    0.31968E+06         0.28358E+08         0.00000E+00
    0.00000E+00         0.00000E+00         0.12158E+08
 
    0.12134E+08         0.32919E+06         0.00000E+00
    0.32919E+06         0.28281E+08         0.00000E+00
    0.00000E+00         0.00000E+00         0.12124E+08
 
    0.12100E+08         0.33820E+06         0.00000E+00
    0.33820E+06         0.28204E+08         0.00000E+00
    0.00000E+00         0.00000E+00         0.12091E+08
 
    0.12066E+08         0.34675E+06         0.00000E+00
    0.34675E+06         0.28127E+08         0.00000E+00
    0.00000E+00         0.00000E+00         0.12058E+08
 
    0.12033E+08         0.35486E+06         0.00000E+00
    0.35486E+06         0.28049E+08         0.00000E+00
    0.00000E+00         0.00000E+00         0.12025E+08
 
    0.11999E+08         0.36257E+06         0.00000E+00
    0.36257E+06         0.27972E+08         0.00000E+00
    0.00000E+00         0.00000E+00         0.11991E+08
 
    0.11965E+08         0.36991E+06         0.00000E+00
    0.36991E+06         0.27894E+08         0.00000E+00
    0.00000E+00         0.00000E+00         0.11958E+08
 
    0.11931E+08         0.37691E+06         0.00000E+00
    0.37691E+06         0.27816E+08         0.00000E+00
    0.00000E+00         0.00000E+00         0.11924E+08
 
    0.11897E+08         0.38359E+06         0.00000E+00
    0.38359E+06         0.27738E+08         0.00000E+00
    0.00000E+00         0.00000E+00         0.11890E+08
 
    0.11863E+08         0.38999E+06         0.00000E+00
    0.38999E+06         0.27659E+08         0.00000E+00
    0.00000E+00         0.00000E+00         0.11857E+08
 
    0.11829E+08         0.39614E+06         0.00000E+00
    0.39614E+06         0.27580E+08         0.00000E+00
    0.00000E+00         0.00000E+00         0.11823E+08
 
    0.11794E+08         0.40205E+06         0.00000E+00
    0.40205E+06         0.27500E+08         0.00000E+00
    0.00000E+00         0.00000E+00         0.11788E+08
 
    0.11760E+08         0.40776E+06         0.00000E+00
    0.40776E+06         0.27421E+08         0.00000E+00
    0.00000E+00         0.00000E+00         0.11754E+08
 
    0.11725E+08         0.41328E+06         0.00000E+00
    0.41328E+06         0.27340E+08         0.00000E+00
    0.00000E+00         0.00000E+00         0.11720E+08
 
    0.11690E+08         0.41863E+06         0.00000E+00
    0.41863E+06         0.27259E+08         0.00000E+00
    0.00000E+00         0.00000E+00         0.11685E+08
 
    0.11655E+08         0.42382E+06         0.00000E+00
    0.42382E+06         0.27178E+08         0.00000E+00
    0.00000E+00         0.00000E+00         0.11650E+08
 
    0.11620E+08         0.42888E+06         0.00000E+00
    0.42888E+06         0.27096E+08         0.00000E+00
    0.00000E+00         0.00000E+00         0.11615E+08
 
    0.11584E+08         0.43381E+06         0.00000E+00
    0.43381E+06         0.27013E+08         0.00000E+00
    0.00000E+00         0.00000E+00         0.11579E+08
 
    0.11548E+08         0.43862E+06         0.00000E+00
    0.43862E+06         0.26930E+08         0.00000E+00
    0.00000E+00         0.00000E+00         0.11543E+08
 
    0.11512E+08         0.44334E+06         0.00000E+00
    0.44334E+06         0.26846E+08         0.00000E+00
    0.00000E+00         0.00000E+00         0.11507E+08
 
    0.11476E+08         0.44795E+06         0.00000E+00
    0.44795E+06         0.26761E+08         0.00000E+00
    0.00000E+00         0.00000E+00         0.11471E+08
 
    0.11439E+08         0.45248E+06         0.00000E+00
    0.45248E+06         0.26676E+08         0.00000E+00
    0.00000E+00         0.00000E+00         0.11435E+08
 
    0.11402E+08         0.45692E+06         0.00000E+00
    0.45692E+06         0.26590E+08         0.00000E+00
    0.00000E+00         0.00000E+00         0.11398E+08
 
    0.11365E+08         0.46128E+06         0.00000E+00
    0.46128E+06         0.26503E+08         0.00000E+00
    0.00000E+00         0.00000E+00         0.11361E+08
 
    0.11327E+08         0.46557E+06         0.00000E+00
    0.46557E+06         0.26416E+08         0.00000E+00
    0.00000E+00         0.00000E+00         0.11323E+08
 
    0.11290E+08         0.46978E+06         0.00000E+00
    0.46978E+06         0.26328E+08         0.00000E+00
    0.00000E+00         0.00000E+00         0.11285E+08
 
    0.11251E+08         0.47392E+06         0.00000E+00
    0.47392E+06         0.26239E+08         0.00000E+00
    0.00000E+00         0.00000E+00         0.11247E+08
 
    0.11213E+08         0.47799E+06         0.00000E+00
    0.47799E+06         0.26149E+08         0.00000E+00
    0.00000E+00         0.00000E+00         0.11209E+08
 
    0.11174E+08         0.48198E+06         0.00000E+00
    0.48198E+06         0.26059E+08         0.00000E+00
    0.00000E+00         0.00000E+00         0.11170E+08
 
    0.11135E+08         0.48590E+06         0.00000E+00
    0.48590E+06         0.25968E+08         0.00000E+00
    0.00000E+00         0.00000E+00         0.11131E+08
 
    0.11095E+08         0.48974E+06         0.00000E+00
    0.48974E+06         0.25876E+08         0.00000E+00
    0.00000E+00         0.00000E+00         0.11091E+08
 
    0.11055E+08         0.49350E+06         0.00000E+00
    0.49350E+06         0.25783E+08         0.00000E+00
    0.00000E+00         0.00000E+00         0.11051E+08
 
    0.11015E+08         0.49717E+06         0.00000E+00
    0.49717E+06         0.25689E+08         0.00000E+00
    0.00000E+00         0.00000E+00         0.11011E+08
 
    0.10974E+08         0.50076E+06         0.00000E+00
    0.50076E+06         0.25595E+08         0.00000E+00
    0.00000E+00         0.00000E+00         0.10971E+08
 
    0.10933E+08         0.50424E+06         0.00000E+00
    0.50424E+06         0.25499E+08         0.00000E+00
    0.00000E+00         0.00000E+00         0.10930E+08
 
    0.10892E+08         0.50763E+06         0.00000E+00
    0.50763E+06         0.25403E+08         0.00000E+00
    0.00000E+00         0.00000E+00         0.10889E+08
 
    0.10850E+08         0.51090E+06         0.00000E+00
    0.51090E+06         0.25306E+08         0.00000E+00
    0.00000E+00         0.00000E+00         0.10847E+08
 
    0.10808E+08         0.51405E+06         0.00000E+00
    0.51405E+06         0.25208E+08         0.00000E+00
    0.00000E+00         0.00000E+00         0.10805E+08
 
    0.10766E+08         0.51707E+06         0.00000E+00
    0.51707E+06         0.25109E+08         0.00000E+00
    0.00000E+00         0.00000E+00         0.10763E+08
 
    0.10723E+08         0.51995E+06         0.00000E+00
    0.51995E+06         0.25010E+08         0.00000E+00
    0.00000E+00         0.00000E+00         0.10720E+08
 
    0.10679E+08         0.52267E+06         0.00000E+00
    0.52267E+06         0.24909E+08         0.00000E+00
    0.00000E+00         0.00000E+00         0.10677E+08
 
    0.10636E+08         0.52524E+06         0.00000E+00
    0.52524E+06         0.24808E+08         0.00000E+00
    0.00000E+00         0.00000E+00         0.10633E+08
 
    0.10592E+08         0.52762E+06         0.00000E+00
    0.52762E+06         0.24706E+08         0.00000E+00
    0.00000E+00         0.00000E+00         0.10589E+08
 
    0.10547E+08         0.52981E+06         0.00000E+00
    0.52981E+06         0.24603E+08         0.00000E+00
    0.00000E+00         0.00000E+00         0.10545E+08
 
    0.10502E+08         0.53178E+06         0.00000E+00
    0.53178E+06         0.24499E+08         0.00000E+00
    0.00000E+00         0.00000E+00         0.10500E+08
 
    0.10457E+08         0.53352E+06         0.00000E+00
    0.53352E+06         0.24394E+08         0.00000E+00
    0.00000E+00         0.00000E+00         0.10455E+08
 
    0.10411E+08         0.53501E+06         0.00000E+00
    0.53501E+06         0.24288E+08         0.00000E+00
    0.00000E+00         0.00000E+00         0.10410E+08
 
    0.10365E+08         0.53623E+06         0.00000E+00
    0.53623E+06         0.24182E+08         0.00000E+00
    0.00000E+00         0.00000E+00         0.10364E+08
 
    0.10319E+08         0.53716E+06         0.00000E+00
    0.53716E+06         0.24074E+08         0.00000E+00
    0.00000E+00         0.00000E+00         0.10318E+08
 
    0.10272E+08         0.53775E+06         0.00000E+00
    0.53775E+06         0.23966E+08         0.00000E+00
    0.00000E+00         0.00000E+00         0.10271E+08
 
    0.10225E+08         0.53800E+06         0.00000E+00
    0.53800E+06         0.23857E+08         0.00000E+00
    0.00000E+00         0.00000E+00         0.10224E+08
 
    0.10177E+08         0.53787E+06         0.00000E+00
    0.53787E+06         0.23747E+08         0.00000E+00
    0.00000E+00         0.00000E+00         0.10177E+08
 
    0.10129E+08         0.53732E+06         0.00000E+00
    0.53732E+06         0.23636E+08         0.00000E+00
    0.00000E+00         0.00000E+00         0.10129E+08
 
    0.10080E+08         0.53631E+06         0.00000E+00
    0.53631E+06         0.23524E+08         0.00000E+00
    0.00000E+00         0.00000E+00         0.10081E+08
 
    0.10031E+08         0.53482E+06         0.00000E+00
    0.53482E+06         0.23411E+08         0.00000E+00
    0.00000E+00         0.00000E+00         0.10033E+08
 
    0.99813E+07         0.53279E+06         0.00000E+00
    0.53279E+06         0.23297E+08         0.00000E+00
    0.00000E+00         0.00000E+00         0.99835E+07
 
    0.99313E+07         0.53019E+06         0.00000E+00
    0.53019E+06         0.23182E+08         0.00000E+00
    0.00000E+00         0.00000E+00         0.99341E+07
 
    0.98808E+07         0.52696E+06         0.00000E+00
    0.52696E+06         0.23067E+08         0.00000E+00
    0.00000E+00         0.00000E+00         0.98843E+07
 
    0.98298E+07         0.52305E+06         0.00000E+00
    0.52305E+06         0.22950E+08         0.00000E+00
    0.00000E+00         0.00000E+00         0.98340E+07
 
    0.97783E+07         0.51841E+06         0.00000E+00
    0.51841E+06         0.22833E+08         0.00000E+00
    0.00000E+00         0.00000E+00         0.97833E+07
 
    0.97263E+07         0.51299E+06         0.00000E+00
    0.51299E+06         0.22714E+08         0.00000E+00
    0.00000E+00         0.00000E+00         0.97321E+07
 
    0.96738E+07         0.50672E+06         0.00000E+00
    0.50672E+06         0.22594E+08         0.00000E+00
    0.00000E+00         0.00000E+00         0.96804E+07
 
    0.96207E+07         0.49955E+06         0.00000E+00
    0.49955E+06         0.22474E+08         0.00000E+00
    0.00000E+00         0.00000E+00         0.96283E+07
 
    0.95671E+07         0.49143E+06         0.00000E+00
    0.49143E+06         0.22352E+08         0.00000E+00
    0.00000E+00         0.00000E+00         0.95757E+07
 
    0.95130E+07         0.48229E+06         0.00000E+00
    0.48229E+06         0.22229E+08         0.00000E+00
    0.00000E+00         0.00000E+00         0.95226E+07
 
    0.94583E+07         0.47210E+06         0.00000E+00
    0.47210E+06         0.22105E+08         0.00000E+00
    0.00000E+00         0.00000E+00         0.94690E+07
 
    0.94031E+07         0.46079E+06         0.00000E+00
    0.46079E+06         0.21980E+08         0.00000E+00
    0.00000E+00         0.00000E+00         0.94149E+07
 
    0.93474E+07         0.44834E+06         0.00000E+00
    0.44834E+06         0.21854E+08         0.00000E+00
    0.00000E+00         0.00000E+00         0.93603E+07
 
    0.92912E+07         0.43472E+06         0.00000E+00
    0.43472E+06         0.21727E+08         0.00000E+00
    0.00000E+00         0.00000E+00         0.93053E+07
 
    0.92346E+07         0.41991E+06         0.00000E+00
    0.41991E+06         0.21599E+08         0.00000E+00
    0.00000E+00         0.00000E+00         0.92499E+07
 
    0.91777E+07         0.40389E+06         0.00000E+00
    0.40389E+06         0.21470E+08         0.00000E+00
    0.00000E+00         0.00000E+00         0.91942E+07
 
    0.91206E+07         0.38668E+06         0.00000E+00
    0.38668E+06         0.21341E+08         0.00000E+00
    0.00000E+00         0.00000E+00         0.91383E+07
 
    0.90634E+07         0.36826E+06         0.00000E+00
    0.36826E+06         0.21211E+08         0.00000E+00
    0.00000E+00         0.00000E+00         0.90824E+07
 
    0.90064E+07         0.34862E+06         0.00000E+00
    0.34862E+06         0.21082E+08         0.00000E+00
    0.00000E+00         0.00000E+00         0.90266E+07
 
    0.89497E+07         0.32771E+06         0.00000E+00
    0.32771E+06         0.20954E+08         0.00000E+00
    0.00000E+00         0.00000E+00         0.89712E+07
 
    0.88936E+07         0.30540E+06         0.00000E+00
    0.30540E+06         0.20828E+08         0.00000E+00
    0.00000E+00         0.00000E+00         0.89166E+07
 
    0.88382E+07         0.28142E+06         0.00000E+00
    0.28142E+06         0.20705E+08         0.00000E+00
    0.00000E+00         0.00000E+00         0.88631E+07
 
    0.87838E+07         0.25531E+06         0.00000E+00
    0.25531E+06         0.20587E+08         0.00000E+00
    0.00000E+00         0.00000E+00         0.88112E+07
 
    0.87304E+07         0.22621E+06         0.00000E+00
    0.22621E+06         0.20474E+08         0.00000E+00
    0.00000E+00         0.00000E+00         0.87615E+07
 
    0.86777E+07         0.19269E+06         0.00000E+00
    0.19269E+06         0.20370E+08         0.00000E+00
    0.00000E+00         0.00000E+00         0.87143E+07
 
    0.86248E+07         0.15257E+06         0.00000E+00
    0.15257E+06         0.20275E+08         0.00000E+00
    0.00000E+00         0.00000E+00         0.86700E+07
 
    0.85688E+07         0.10090E+06         0.00000E+00
    0.10090E+06         0.20195E+08         0.00000E+00
    0.00000E+00         0.00000E+00         0.86290E+07
 
    0.84943E+07         0.35644E+05         0.00000E+00
    0.35644E+05         0.20131E+08         0.00000E+00
    0.00000E+00         0.00000E+00         0.85877E+07
 
    0.12758E+08         0.18971E+05         0.00000E+00
    0.18971E+05         0.29519E+08         0.00000E+00
    0.00000E+00         0.00000E+00         0.12683E+08
 
    0.12710E+08         0.55085E+05         0.00000E+00
    0.55085E+05         0.29484E+08         0.00000E+00
    0.00000E+00         0.00000E+00         0.12658E+08
 
    0.12673E+08         0.85949E+05         0.00000E+00
    0.85949E+05         0.29438E+08         0.00000E+00
    0.00000E+00         0.00000E+00         0.12634E+08
 
    0.12641E+08         0.11115E+06         0.00000E+00
    0.11115E+06         0.29384E+08         0.00000E+00
    0.00000E+00         0.00000E+00         0.12607E+08
 
    0.12609E+08         0.13270E+06         0.00000E+00
    0.13270E+06         0.29324E+08         0.00000E+00
    0.00000E+00         0.00000E+00         0.12580E+08
 
    0.12577E+08         0.15189E+06         0.00000E+00
    0.15189E+06         0.29260E+08         0.00000E+00
    0.00000E+00         0.00000E+00         0.12551E+08
 
    0.12544E+08         0.16943E+06         0.00000E+00
    0.16943E+06         0.29191E+08         0.00000E+00
    0.00000E+00         0.00000E+00         0.12521E+08
 
    0.12512E+08         0.18581E+06         0.00000E+00
    0.18581E+06         0.29119E+08         0.00000E+00
    0.00000E+00         0.00000E+00         0.12489E+08
 
    0.12478E+08         0.20130E+06         0.00000E+00
    0.20130E+06         0.29046E+08         0.00000E+00
    0.00000E+00         0.00000E+00         0.12457E+08
 
    0.12445E+08         0.21605E+06         0.00000E+00
    0.21605E+06         0.28971E+08         0.00000E+00
    0.00000E+00         0.00000E+00         0.12425E+08
 
    0.12411E+08         0.23014E+06         0.00000E+00
    0.23014E+06         0.28895E+08         0.00000E+00
    0.00000E+00         0.00000E+00         0.12392E+08
 
    0.12377E+08         0.24360E+06         0.00000E+00
    0.24360E+06         0.28818E+08         0.00000E+00
    0.00000E+00         0.00000E+00         0.12359E+08
 
    0.12343E+08         0.25645E+06         0.00000E+00
    0.25645E+06         0.28742E+08         0.00000E+00
    0.00000E+00         0.00000E+00         0.12325E+08
 
    0.12309E+08         0.26869E+06         0.00000E+00
    0.26869E+06         0.28665E+08         0.00000E+00
    0.00000E+00         0.00000E+00         0.12292E+08
 
    0.12275E+08         0.28035E+06         0.00000E+00
    0.28035E+06         0.28587E+08         0.00000E+00
    0.00000E+00         0.00000E+00         0.12259E+08
 
    0.12241E+08         0.29142E+06         0.00000E+00
    0.29142E+06         0.28510E+08         0.00000E+00
    0.00000E+00         0.00000E+00         0.12225E+08
 
    0.12206E+08         0.30192E+06         0.00000E+00
    0.30192E+06         0.28433E+08         0.00000E+00
    0.00000E+00         0.00000E+00         0.12192E+08
 
    0.12172E+08         0.31186E+06         0.00000E+00
    0.31186E+06         0.28356E+08         0.00000E+00
    0.00000E+00         0.00000E+00         0.12159E+08
 
    0.12138E+08         0.32129E+06         0.00000E+00
    0.32129E+06         0.28279E+08         0.00000E+00
    0.00000E+00         0.00000E+00         0.12125E+08
 
    0.12104E+08         0.33022E+06         0.00000E+00
    0.33022E+06         0.28202E+08         0.00000E+00
    0.00000E+00         0.00000E+00         0.12092E+08
 
    0.12070E+08         0.33867E+06         0.00000E+00
    0.33867E+06         0.28125E+08         0.00000E+00
    0.00000E+00         0.00000E+00         0.12059E+08
 
    0.12036E+08         0.34670E+06         0.00000E+00
    0.34670E+06         0.28048E+08         0.00000E+00
    0.00000E+00         0.00000E+00         0.12025E+08
 
    0.12002E+08         0.35432E+06         0.00000E+00
    0.35432E+06         0.27970E+08         0.00000E+00
    0.00000E+00         0.00000E+00         0.11992E+08
 
    0.11968E+08         0.36156E+06         0.00000E+00
    0.36156E+06         0.27893E+08         0.00000E+00
    0.00000E+00         0.00000E+00         0.11958E+08
 
    0.11934E+08         0.36847E+06         0.00000E+00
    0.36847E+06         0.27815E+08         0.00000E+00
    0.00000E+00         0.00000E+00         0.11925E+08
 
    0.11900E+08         0.37507E+06         0.00000E+00
    0.37507E+06         0.27736E+08         0.00000E+00
    0.00000E+00         0.00000E+00         0.11891E+08
 
    0.11866E+08         0.38138E+06         0.00000E+00
    0.38138E+06         0.27658E+08         0.00000E+00
    0.00000E+00         0.00000E+00         0.11857E+08
 
    0.11832E+08         0.38744E+06         0.00000E+00
    0.38744E+06         0.27579E+08         0.00000E+00
    0.00000E+00         0.00000E+00         0.11823E+08
 
    0.11797E+08         0.39327E+06         0.00000E+00
    0.39327E+06         0.27499E+08         0.00000E+00
    0.00000E+00         0.00000E+00         0.11789E+08
 
    0.11763E+08         0.39889E+06         0.00000E+00
    0.39889E+06         0.27419E+08         0.00000E+00
    0.00000E+00         0.00000E+00         0.11755E+08
 
    0.11728E+08         0.40432E+06         0.00000E+00
    0.40432E+06         0.27339E+08         0.00000E+00
    0.00000E+00         0.00000E+00         0.11720E+08
 
    0.11693E+08         0.40958E+06         0.00000E+00
    0.40958E+06         0.27258E+08         0.00000E+00
    0.00000E+00         0.00000E+00         0.11685E+08
 
    0.11658E+08         0.41469E+06         0.00000E+00
    0.41469E+06         0.27177E+08         0.00000E+00
    0.00000E+00         0.00000E+00         0.11650E+08
 
    0.11622E+08         0.41966E+06         0.00000E+00
    0.41966E+06         0.27095E+08         0.00000E+00
    0.00000E+00         0.00000E+00         0.11615E+08
 
    0.11587E+08         0.42450E+06         0.00000E+00
    0.42450E+06         0.27012E+08         0.00000E+00
    0.00000E+00         0.00000E+00         0.11580E+08
 
    0.11551E+08         0.42923E+06         0.00000E+00
    0.42923E+06         0.26929E+08         0.00000E+00
    0.00000E+00         0.00000E+00         0.11544E+08
 
    0.11515E+08         0.43386E+06         0.00000E+00
    0.43386E+06         0.26845E+08         0.00000E+00
    0.00000E+00         0.00000E+00         0.11508E+08
 
    0.11478E+08         0.43839E+06         0.00000E+00
    0.43839E+06         0.26760E+08         0.00000E+00
    0.00000E+00         0.00000E+00         0.11472E+08
 
    0.11441E+08         0.44283E+06         0.00000E+00
    0.44283E+06         0.26675E+08         0.00000E+00
    0.00000E+00         0.00000E+00         0.11435E+08
 
    0.11404E+08         0.44718E+06         0.00000E+00
    0.44718E+06         0.26589E+08         0.00000E+00
    0.00000E+00         0.00000E+00         0.11398E+08
 
    0.11367E+08         0.45146E+06         0.00000E+00
    0.45146E+06         0.26503E+08         0.00000E+00
    0.00000E+00         0.00000E+00         0.11361E+08
 
    0.11330E+08         0.45566E+06         0.00000E+00
    0.45566E+06         0.26415E+08         0.00000E+00
    0.00000E+00         0.00000E+00         0.11323E+08
 
    0.11292E+08         0.45978E+06         0.00000E+00
    0.45978E+06         0.26327E+08         0.00000E+00
    0.00000E+00         0.00000E+00         0.11286E+08
 
    0.11253E+08         0.46383E+06         0.00000E+00
    0.46383E+06         0.26238E+08         0.00000E+00
    0.00000E+00         0.00000E+00         0.11247E+08
 
    0.11215E+08         0.46781E+06         0.00000E+00
    0.46781E+06         0.26149E+08         0.00000E+00
    0.00000E+00         0.00000E+00         0.11209E+08
 
    0.11176E+08         0.47172E+06         0.00000E+00
    0.47172E+06         0.26058E+08         0.00000E+00
    0.00000E+00         0.00000E+00         0.11170E+08
 
    0.11137E+08         0.47555E+06         0.00000E+00
    0.47555E+06         0.25967E+08         0.00000E+00
    0.00000E+00         0.00000E+00         0.11131E+08
 
    0.11097E+08         0.47930E+06         0.00000E+00
    0.47930E+06         0.25875E+08         0.00000E+00
    0.00000E+00         0.00000E+00         0.11092E+08
 
    0.11057E+08         0.48297E+06         0.00000E+00
    0.48297E+06         0.25782E+08         0.00000E+00
    0.00000E+00         0.00000E+00         0.11052E+08
 
    0.11017E+08         0.48656E+06         0.00000E+00
    0.48656E+06         0.25688E+08         0.00000E+00
    0.00000E+00         0.00000E+00         0.11012E+08
 
    0.10976E+08         0.49005E+06         0.00000E+00
    0.49005E+06         0.25594E+08         0.00000E+00
    0.00000E+00         0.00000E+00         0.10971E+08
 
    0.10935E+08         0.49345E+06         0.00000E+00
    0.49345E+06         0.25499E+08         0.00000E+00
    0.00000E+00         0.00000E+00         0.10930E+08
 
    0.10894E+08         0.49675E+06         0.00000E+00
    0.49675E+06         0.25402E+08         0.00000E+00
    0.00000E+00         0.00000E+00         0.10889E+08
 
    0.10852E+08         0.49993E+06         0.00000E+00
    0.49993E+06         0.25305E+08         0.00000E+00
    0.00000E+00         0.00000E+00         0.10847E+08
 
    0.10810E+08         0.50300E+06         0.00000E+00
    0.50300E+06         0.25208E+08         0.00000E+00
    0.00000E+00         0.00000E+00         0.10805E+08
 
    0.10767E+08         0.50594E+06         0.00000E+00
    0.50594E+06         0.25109E+08         0.00000E+00
    0.00000E+00         0.00000E+00         0.10763E+08
 
    0.10724E+08         0.50874E+06         0.00000E+00
    0.50874E+06         0.25009E+08         0.00000E+00
    0.00000E+00         0.00000E+00         0.10720E+08
 
    0.10681E+08         0.51138E+06         0.00000E+00
    0.51138E+06         0.24909E+08         0.00000E+00
    0.00000E+00         0.00000E+00         0.10677E+08
 
    0.10637E+08         0.51387E+06         0.00000E+00
    0.51387E+06         0.24808E+08         0.00000E+00
    0.00000E+00         0.00000E+00         0.10633E+08
 
    0.10593E+08         0.51617E+06         0.00000E+00
    0.51617E+06         0.24705E+08         0.00000E+00
    0.00000E+00         0.00000E+00         0.10589E+08
 
    0.10548E+08         0.51828E+06         0.00000E+00
    0.51828E+06         0.24602E+08         0.00000E+00
    0.00000E+00         0.00000E+00         0.10545E+08
 
    0.10503E+08         0.52018E+06         0.00000E+00
    0.52018E+06         0.24498E+08         0.00000E+00
    0.00000E+00         0.00000E+00         0.10501E+08
 
    0.10458E+08         0.52185E+06         0.00000E+00
    0.52185E+06         0.24394E+08         0.00000E+00
    0.00000E+00         0.00000E+00         0.10455E+08
 
    0.10412E+08         0.52327E+06         0.00000E+00
    0.52327E+06         0.24288E+08         0.00000E+00
    0.00000E+00         0.00000E+00         0.10410E+08
 
    0.10366E+08         0.52443E+06         0.00000E+00
    0.52443E+06         0.24182E+08         0.00000E+00
    0.00000E+00         0.00000E+00         0.10364E+08
 
    0.10319E+08         0.52528E+06         0.00000E+00
    0.52528E+06         0.24074E+08         0.00000E+00
    0.00000E+00         0.00000E+00         0.10318E+08
 
    0.10272E+08         0.52582E+06         0.00000E+00
    0.52582E+06         0.23966E+08         0.00000E+00
    0.00000E+00         0.00000E+00         0.10271E+08
 
    0.10225E+08         0.52601E+06         0.00000E+00
    0.52601E+06         0.23857E+08         0.00000E+00
    0.00000E+00         0.00000E+00         0.10224E+08
 
    0.10177E+08         0.52582E+06         0.00000E+00
    0.52582E+06         0.23747E+08         0.00000E+00
    0.00000E+00         0.00000E+00         0.10177E+08
 
    0.10128E+08         0.52522E+06         0.00000E+00
    0.52522E+06         0.23636E+08         0.00000E+00
    0.00000E+00         0.00000E+00         0.10129E+08
 
    0.10079E+08         0.52418E+06         0.00000E+00
    0.52418E+06         0.23524E+08         0.00000E+00
    0.00000E+00         0.00000E+00         0.10081E+08
 
    0.10030E+08         0.52264E+06         0.00000E+00
    0.52264E+06         0.23411E+08         0.00000E+00
    0.00000E+00         0.00000E+00         0.10032E+08
 
    0.99803E+07         0.52058E+06         0.00000E+00
    0.52058E+06         0.23298E+08         0.00000E+00
    0.00000E+00         0.00000E+00         0.99833E+07
 
    0.99300E+07         0.51795E+06         0.00000E+00
    0.51795E+06         0.23183E+08         0.00000E+00
    0.00000E+00         0.00000E+00         0.99339E+07
 
    0.98792E+07         0.51469E+06         0.00000E+00
    0.51469E+06         0.23067E+08         0.00000E+00
    0.00000E+00         0.00000E+00         0.98840E+07
 
    0.98278E+07         0.51076E+06         0.00000E+00
    0.51076E+06         0.22951E+08         0.00000E+00
    0.00000E+00         0.00000E+00         0.98336E+07
 
    0.97760E+07         0.50611E+06         0.00000E+00
    0.50611E+06         0.22834E+08         0.00000E+00
    0.00000E+00         0.00000E+00         0.97828E+07
 
    0.97236E+07         0.50068E+06         0.00000E+00
    0.50068E+06         0.22715E+08         0.00000E+00
    0.00000E+00         0.00000E+00         0.97316E+07
 
    0.96706E+07         0.49442E+06         0.00000E+00
    0.49442E+06         0.22596E+08         0.00000E+00
    0.00000E+00         0.00000E+00         0.96799E+07
 
    0.96171E+07         0.48726E+06         0.00000E+00
    0.48726E+06         0.22475E+08         0.00000E+00
    0.00000E+00         0.00000E+00         0.96277E+07
 
    0.95631E+07         0.47914E+06         0.00000E+00
    0.47914E+06         0.22354E+08         0.00000E+00
    0.00000E+00         0.00000E+00         0.95750E+07
 
    0.95084E+07         0.47002E+06         0.00000E+00
    0.47002E+06         0.22231E+08         0.00000E+00
    0.00000E+00         0.00000E+00         0.95218E+07
 
    0.94532E+07         0.45984E+06         0.00000E+00
    0.45984E+06         0.22107E+08         0.00000E+00
    0.00000E+00         0.00000E+00         0.94681E+07
 
    0.93974E+07         0.44856E+06         0.00000E+00
    0.44856E+06         0.21982E+08         0.00000E+00
    0.00000E+00         0.00000E+00         0.94139E+07
 
    0.93411E+07         0.43612E+06         0.00000E+00
    0.43612E+06         0.21856E+08         0.00000E+00
    0.00000E+00         0.00000E+00         0.93592E+07
 
    0.92844E+07         0.42251E+06         0.00000E+00
    0.42251E+06         0.21729E+08         0.00000E+00
    0.00000E+00         0.00000E+00         0.93041E+07
 
    0.92272E+07         0.40770E+06         0.00000E+00
    0.40770E+06         0.21602E+08         0.00000E+00
    0.00000E+00         0.00000E+00         0.92486E+07
 
    0.91697E+07         0.39167E+06         0.00000E+00
    0.39167E+06         0.21473E+08         0.00000E+00
    0.00000E+00         0.00000E+00         0.91928E+07
 
    0.91119E+07         0.37442E+06         0.00000E+00
    0.37442E+06         0.21344E+08         0.00000E+00
    0.00000E+00         0.00000E+00         0.91368E+07
 
    0.90541E+07         0.35594E+06         0.00000E+00
    0.35594E+06         0.21215E+08         0.00000E+00
    0.00000E+00         0.00000E+00         0.90807E+07
 
    0.89964E+07         0.33621E+06         0.00000E+00
    0.33621E+06         0.21086E+08         0.00000E+00
    0.00000E+00         0.00000E+00         0.90248E+07
 
    0.89390E+07         0.31517E+06         0.00000E+00
    0.31517E+06         0.20959E+08         0.00000E+00
    0.00000E+00         0.00000E+00         0.89693E+07
 
    0.88820E+07         0.29269E+06         0.00000E+00
    0.29269E+06         0.20833E+08         0.00000E+00
    0.00000E+00         0.00000E+00         0.89145E+07
 
    0.88256E+07         0.26853E+06         0.00000E+00
    0.26853E+06         0.20710E+08         0.00000E+00
    0.00000E+00         0.00000E+00         0.88608E+07
 
    0.87699E+07         0.24222E+06         0.00000E+00
    0.24222E+06         0.20592E+08         0.00000E+00
    0.00000E+00         0.00000E+00         0.88087E+07
 
    0.87146E+07         0.21296E+06         0.00000E+00
    0.21296E+06         0.20481E+08         0.00000E+00
    0.00000E+00         0.00000E+00         0.87586E+07
 
    0.86592E+07         0.17949E+06         0.00000E+00
    0.17949E+06         0.20377E+08         0.00000E+00
    0.00000E+00         0.00000E+00         0.87109E+07
 
    0.86022E+07         0.13962E+06         0.00000E+00
    0.13962E+06         0.20284E+08         0.00000E+00
    0.00000E+00         0.00000E+00         0.86659E+07
 
    0.85390E+07         0.89883E+05         0.00000E+00
    0.89883E+05         0.20206E+08         0.00000E+00
    0.00000E+00         0.00000E+00         0.86235E+07
 
    0.84560E+07         0.31020E+05         0.00000E+00
    0.31020E+05         0.20144E+08         0.00000E+00
    0.00000E+00         0.00000E+00         0.85801E+07
 
    0.12779E+08         0.16843E+05         0.00000E+00
    0.16843E+05         0.29512E+08         0.00000E+00
    0.00000E+00         0.00000E+00         0.12687E+08
 
    0.12728E+08         0.49643E+05         0.00000E+00
    0.49643E+05         0.29477E+08         0.00000E+00
    0.00000E+00         0.00000E+00         0.12661E+08
 
    0.12688E+08         0.79032E+05         0.00000E+00
    0.79032E+05         0.29433E+08         0.00000E+00
    0.00000E+00         0.00000E+00         0.12636E+08
 
    0.12652E+08         0.10383E+06         0.00000E+00
    0.10383E+06         0.29380E+08         0.00000E+00
    0.00000E+00         0.00000E+00         0.12610E+08
 
    0.12619E+08         0.12523E+06         0.00000E+00
    0.12523E+06         0.29320E+08         0.00000E+00
    0.00000E+00         0.00000E+00         0.12582E+08
 
    0.12586E+08         0.14440E+06         0.00000E+00
    0.14440E+06         0.29256E+08         0.00000E+00
    0.00000E+00         0.00000E+00         0.12553E+08
 
    0.12553E+08         0.16198E+06         0.00000E+00
    0.16198E+06         0.29187E+08         0.00000E+00
    0.00000E+00         0.00000E+00         0.12522E+08
 
    0.12520E+08         0.17840E+06         0.00000E+00
    0.17840E+06         0.29116E+08         0.00000E+00
    0.00000E+00         0.00000E+00         0.12491E+08
 
    0.12486E+08         0.19393E+06         0.00000E+00
    0.19393E+06         0.29043E+08         0.00000E+00
    0.00000E+00         0.00000E+00         0.12459E+08
 
    0.12452E+08         0.20870E+06         0.00000E+00
    0.20870E+06         0.28968E+08         0.00000E+00
    0.00000E+00         0.00000E+00         0.12426E+08
 
    0.12418E+08         0.22279E+06         0.00000E+00
    0.22279E+06         0.28892E+08         0.00000E+00
    0.00000E+00         0.00000E+00         0.12393E+08
 
    0.12384E+08         0.23623E+06         0.00000E+00
    0.23623E+06         0.28816E+08         0.00000E+00
    0.00000E+00         0.00000E+00         0.12360E+08
 
    0.12349E+08         0.24904E+06         0.00000E+00
    0.24904E+06         0.28739E+08         0.00000E+00
    0.00000E+00         0.00000E+00         0.12326E+08
 
    0.12315E+08         0.26124E+06         0.00000E+00
    0.26124E+06         0.28662E+08         0.00000E+00
    0.00000E+00         0.00000E+00         0.12293E+08
 
    0.12280E+08         0.27283E+06         0.00000E+00
    0.27283E+06         0.28585E+08         0.00000E+00
    0.00000E+00         0.00000E+00         0.12260E+08
 
    0.12246E+08         0.28382E+06         0.00000E+00
    0.28382E+06         0.28508E+08         0.00000E+00
    0.00000E+00         0.00000E+00         0.12226E+08
 
    0.12211E+08         0.29424E+06         0.00000E+00
    0.29424E+06         0.28431E+08         0.00000E+00
    0.00000E+00         0.00000E+00         0.12193E+08
 
    0.12177E+08         0.30410E+06         0.00000E+00
    0.30410E+06         0.28354E+08         0.00000E+00
    0.00000E+00         0.00000E+00         0.12159E+08
 
    0.12143E+08         0.31344E+06         0.00000E+00
    0.31344E+06         0.28277E+08         0.00000E+00
    0.00000E+00         0.00000E+00         0.12126E+08
 
    0.12109E+08         0.32227E+06         0.00000E+00
    0.32227E+06         0.28200E+08         0.00000E+00
    0.00000E+00         0.00000E+00         0.12093E+08
 
    0.12074E+08         0.33064E+06         0.00000E+00
    0.33064E+06         0.28123E+08         0.00000E+00
    0.00000E+00         0.00000E+00         0.12059E+08
 
    0.12040E+08         0.33857E+06         0.00000E+00
    0.33857E+06         0.28046E+08         0.00000E+00
    0.00000E+00         0.00000E+00         0.12026E+08
 
    0.12006E+08         0.34609E+06         0.00000E+00
    0.34609E+06         0.27969E+08         0.00000E+00
    0.00000E+00         0.00000E+00         0.11992E+08
 
    0.11972E+08         0.35325E+06         0.00000E+00
    0.35325E+06         0.27891E+08         0.00000E+00
    0.00000E+00         0.00000E+00         0.11959E+08
 
    0.11938E+08         0.36007E+06         0.00000E+00
    0.36007E+06         0.27813E+08         0.00000E+00
    0.00000E+00         0.00000E+00         0.11925E+08
 
    0.11903E+08         0.36657E+06         0.00000E+00
    0.36657E+06         0.27735E+08         0.00000E+00
    0.00000E+00         0.00000E+00         0.11892E+08
 
    0.11869E+08         0.37280E+06         0.00000E+00
    0.37280E+06         0.27657E+08         0.00000E+00
    0.00000E+00         0.00000E+00         0.11858E+08
 
    0.11835E+08         0.37876E+06         0.00000E+00
    0.37876E+06         0.27578E+08         0.00000E+00
    0.00000E+00         0.00000E+00         0.11824E+08
 
    0.11800E+08         0.38450E+06         0.00000E+00
    0.38450E+06         0.27498E+08         0.00000E+00
    0.00000E+00         0.00000E+00         0.11789E+08
 
    0.11765E+08         0.39003E+06         0.00000E+00
    0.39003E+06         0.27418E+08         0.00000E+00
    0.00000E+00         0.00000E+00         0.11755E+08
 
    0.11730E+08         0.39538E+06         0.00000E+00
    0.39538E+06         0.27338E+08         0.00000E+00
    0.00000E+00         0.00000E+00         0.11721E+08
 
    0.11695E+08         0.40055E+06         0.00000E+00
    0.40055E+06         0.27257E+08         0.00000E+00
    0.00000E+00         0.00000E+00         0.11686E+08
 
    0.11660E+08         0.40557E+06         0.00000E+00
    0.40557E+06         0.27176E+08         0.00000E+00
    0.00000E+00         0.00000E+00         0.11651E+08
 
    0.11625E+08         0.41045E+06         0.00000E+00
    0.41045E+06         0.27094E+08         0.00000E+00
    0.00000E+00         0.00000E+00         0.11616E+08
 
    0.11589E+08         0.41521E+06         0.00000E+00
    0.41521E+06         0.27011E+08         0.00000E+00
    0.00000E+00         0.00000E+00         0.11580E+08
 
    0.11553E+08         0.41985E+06         0.00000E+00
    0.41985E+06         0.26928E+08         0.00000E+00
    0.00000E+00         0.00000E+00         0.11544E+08
 
    0.11517E+08         0.42439E+06         0.00000E+00
    0.42439E+06         0.26844E+08         0.00000E+00
    0.00000E+00         0.00000E+00         0.11508E+08
 
    0.11480E+08         0.42883E+06         0.00000E+00
    0.42883E+06         0.26759E+08         0.00000E+00
    0.00000E+00         0.00000E+00         0.11472E+08
 
    0.11444E+08         0.43318E+06         0.00000E+00
    0.43318E+06         0.26674E+08         0.00000E+00
    0.00000E+00         0.00000E+00         0.11435E+08
 
    0.11407E+08         0.43745E+06         0.00000E+00
    0.43745E+06         0.26588E+08         0.00000E+00
    0.00000E+00         0.00000E+00         0.11398E+08
 
    0.11369E+08         0.44164E+06         0.00000E+00
    0.44164E+06         0.26502E+08         0.00000E+00
    0.00000E+00         0.00000E+00         0.11361E+08
 
    0.11332E+08         0.44575E+06         0.00000E+00
    0.44575E+06         0.26414E+08         0.00000E+00
    0.00000E+00         0.00000E+00         0.11324E+08
 
    0.11294E+08         0.44979E+06         0.00000E+00
    0.44979E+06         0.26326E+08         0.00000E+00
    0.00000E+00         0.00000E+00         0.11286E+08
 
    0.11255E+08         0.45375E+06         0.00000E+00
    0.45375E+06         0.26237E+08         0.00000E+00
    0.00000E+00         0.00000E+00         0.11248E+08
 
    0.11217E+08         0.45764E+06         0.00000E+00
    0.45764E+06         0.26148E+08         0.00000E+00
    0.00000E+00         0.00000E+00         0.11209E+08
 
    0.11178E+08         0.46146E+06         0.00000E+00
    0.46146E+06         0.26057E+08         0.00000E+00
    0.00000E+00         0.00000E+00         0.11171E+08
 
    0.11139E+08         0.46520E+06         0.00000E+00
    0.46520E+06         0.25966E+08         0.00000E+00
    0.00000E+00         0.00000E+00         0.11131E+08
 
    0.11099E+08         0.46886E+06         0.00000E+00
    0.46886E+06         0.25874E+08         0.00000E+00
    0.00000E+00         0.00000E+00         0.11092E+08
 
    0.11059E+08         0.47245E+06         0.00000E+00
    0.47245E+06         0.25781E+08         0.00000E+00
    0.00000E+00         0.00000E+00         0.11052E+08
 
    0.11019E+08         0.47595E+06         0.00000E+00
    0.47595E+06         0.25688E+08         0.00000E+00
    0.00000E+00         0.00000E+00         0.11012E+08
 
    0.10978E+08         0.47936E+06         0.00000E+00
    0.47936E+06         0.25593E+08         0.00000E+00
    0.00000E+00         0.00000E+00         0.10971E+08
 
    0.10937E+08         0.48267E+06         0.00000E+00
    0.48267E+06         0.25498E+08         0.00000E+00
    0.00000E+00         0.00000E+00         0.10930E+08
 
    0.10895E+08         0.48588E+06         0.00000E+00
    0.48588E+06         0.25402E+08         0.00000E+00
    0.00000E+00         0.00000E+00         0.10889E+08
 
    0.10853E+08         0.48898E+06         0.00000E+00
    0.48898E+06         0.25305E+08         0.00000E+00
    0.00000E+00         0.00000E+00         0.10847E+08
 
    0.10811E+08         0.49197E+06         0.00000E+00
    0.49197E+06         0.25207E+08         0.00000E+00
    0.00000E+00         0.00000E+00         0.10805E+08
 
    0.10769E+08         0.49482E+06         0.00000E+00
    0.49482E+06         0.25108E+08         0.00000E+00
    0.00000E+00         0.00000E+00         0.10763E+08
 
    0.10726E+08         0.49754E+06         0.00000E+00
    0.49754E+06         0.25009E+08         0.00000E+00
    0.00000E+00         0.00000E+00         0.10720E+08
 
    0.10682E+08         0.50011E+06         0.00000E+00
    0.50011E+06         0.24908E+08         0.00000E+00
    0.00000E+00         0.00000E+00         0.10677E+08
 
    0.10638E+08         0.50251E+06         0.00000E+00
    0.50251E+06         0.24807E+08         0.00000E+00
    0.00000E+00         0.00000E+00         0.10634E+08
 
    0.10594E+08         0.50474E+06         0.00000E+00
    0.50474E+06         0.24705E+08         0.00000E+00
    0.00000E+00         0.00000E+00         0.10590E+08
 
    0.10549E+08         0.50678E+06         0.00000E+00
    0.50678E+06         0.24602E+08         0.00000E+00
    0.00000E+00         0.00000E+00         0.10545E+08
 
    0.10504E+08         0.50860E+06         0.00000E+00
    0.50860E+06         0.24498E+08         0.00000E+00
    0.00000E+00         0.00000E+00         0.10501E+08
 
    0.10459E+08         0.51020E+06         0.00000E+00
    0.51020E+06         0.24393E+08         0.00000E+00
    0.00000E+00         0.00000E+00         0.10456E+08
 
    0.10413E+08         0.51156E+06         0.00000E+00
    0.51156E+06         0.24288E+08         0.00000E+00
    0.00000E+00         0.00000E+00         0.10410E+08
 
    0.10367E+08         0.51265E+06         0.00000E+00
    0.51265E+06         0.24181E+08         0.00000E+00
    0.00000E+00         0.00000E+00         0.10364E+08
 
    0.10320E+08         0.51344E+06         0.00000E+00
    0.51344E+06         0.24074E+08         0.00000E+00
    0.00000E+00         0.00000E+00         0.10318E+08
 
    0.10272E+08         0.51392E+06         0.00000E+00
    0.51392E+06         0.23966E+08         0.00000E+00
    0.00000E+00         0.00000E+00         0.10271E+08
 
    0.10225E+08         0.51406E+06         0.00000E+00
    0.51406E+06         0.23857E+08         0.00000E+00
    0.00000E+00         0.00000E+00         0.10224E+08
 
    0.10177E+08         0.51382E+06         0.00000E+00
    0.51382E+06         0.23747E+08         0.00000E+00
    0.00000E+00         0.00000E+00         0.10177E+08
 
    0.10128E+08         0.51317E+06         0.00000E+00
    0.51317E+06         0.23636E+08         0.00000E+00
    0.00000E+00         0.00000E+00         0.10129E+08
 
    0.10079E+08         0.51209E+06         0.00000E+00
    0.51209E+06         0.23524E+08         0.00000E+00
    0.00000E+00         0.00000E+00         0.10081E+08
 
    0.10029E+08         0.51052E+06         0.00000E+00
    0.51052E+06         0.23412E+08         0.00000E+00
    0.00000E+00         0.00000E+00         0.10032E+08
 
    0.99793E+07         0.50842E+06         0.00000E+00
    0.50842E+06         0.23298E+08         0.00000E+00
    0.00000E+00         0.00000E+00         0.99832E+07
 
    0.99287E+07         0.50576E+06         0.00000E+00
    0.50576E+06         0.23184E+08         0.00000E+00
    0.00000E+00         0.00000E+00         0.99337E+07
 
    0.98775E+07         0.50249E+06         0.00000E+00
    0.50249E+06         0.23068E+08         0.00000E+00
    0.00000E+00         0.00000E+00         0.98837E+07
 
    0.98259E+07         0.49855E+06         0.00000E+00
    0.49855E+06         0.22952E+08         0.00000E+00
    0.00000E+00         0.00000E+00         0.98333E+07
 
    0.97737E+07         0.49389E+06         0.00000E+00
    0.49389E+06         0.22835E+08         0.00000E+00
    0.00000E+00         0.00000E+00         0.97825E+07
 
    0.97209E+07         0.48846E+06         0.00000E+00
    0.48846E+06         0.22716E+08         0.00000E+00
    0.00000E+00         0.00000E+00         0.97311E+07
 
    0.96675E+07         0.48220E+06         0.00000E+00
    0.48220E+06         0.22597E+08         0.00000E+00
    0.00000E+00         0.00000E+00         0.96793E+07
 
    0.96136E+07         0.47505E+06         0.00000E+00
    0.47505E+06         0.22477E+08         0.00000E+00
    0.00000E+00         0.00000E+00         0.96271E+07
 
    0.95590E+07         0.46695E+06         0.00000E+00
    0.46695E+06         0.22355E+08         0.00000E+00
    0.00000E+00         0.00000E+00         0.95743E+07
 
    0.95039E+07         0.45785E+06         0.00000E+00
    0.45785E+06         0.22233E+08         0.00000E+00
    0.00000E+00         0.00000E+00         0.95210E+07
 
    0.94481E+07         0.44770E+06         0.00000E+00
    0.44770E+06         0.22109E+08         0.00000E+00
    0.00000E+00         0.00000E+00         0.94672E+07
 
    0.93918E+07         0.43643E+06         0.00000E+00
    0.43643E+06         0.21985E+08         0.00000E+00
    0.00000E+00         0.00000E+00         0.94129E+07
 
    0.93349E+07         0.42402E+06         0.00000E+00
    0.42402E+06         0.21859E+08         0.00000E+00
    0.00000E+00         0.00000E+00         0.93582E+07
 
    0.92776E+07         0.41043E+06         0.00000E+00
    0.41043E+06         0.21732E+08         0.00000E+00
    0.00000E+00         0.00000E+00         0.93030E+07
 
    0.92198E+07         0.39562E+06         0.00000E+00
    0.39562E+06         0.21605E+08         0.00000E+00
    0.00000E+00         0.00000E+00         0.92473E+07
 
    0.91616E+07         0.37958E+06         0.00000E+00
    0.37958E+06         0.21476E+08         0.00000E+00
    0.00000E+00         0.00000E+00         0.91914E+07
 
    0.91033E+07         0.36230E+06         0.00000E+00
    0.36230E+06         0.21348E+08         0.00000E+00
    0.00000E+00         0.00000E+00         0.91353E+07
 
    0.90448E+07         0.34376E+06         0.00000E+00
    0.34376E+06         0.21219E+08         0.00000E+00
    0.00000E+00         0.00000E+00         0.90791E+07
 
    0.89864E+07         0.32394E+06         0.00000E+00
    0.32394E+06         0.21090E+08         0.00000E+00
    0.00000E+00         0.00000E+00         0.90230E+07
 
    0.89282E+07         0.30279E+06         0.00000E+00
    0.30279E+06         0.20963E+08         0.00000E+00
    0.00000E+00         0.00000E+00         0.89673E+07
 
    0.88703E+07         0.28017E+06         0.00000E+00
    0.28017E+06         0.20838E+08         0.00000E+00
    0.00000E+00         0.00000E+00         0.89124E+07
 
    0.88128E+07         0.25587E+06         0.00000E+00
    0.25587E+06         0.20715E+08         0.00000E+00
    0.00000E+00         0.00000E+00         0.88585E+07
 
    0.87557E+07         0.22945E+06         0.00000E+00
    0.22945E+06         0.20598E+08         0.00000E+00
    0.00000E+00         0.00000E+00         0.88061E+07
 
    0.86985E+07         0.20017E+06         0.00000E+00
    0.20017E+06         0.20487E+08         0.00000E+00
    0.00000E+00         0.00000E+00         0.87556E+07
 
    0.86403E+07         0.16692E+06         0.00000E+00
    0.16692E+06         0.20384E+08         0.00000E+00
    0.00000E+00         0.00000E+00         0.87074E+07
 
    0.85793E+07         0.12772E+06         0.00000E+00
    0.12772E+06         0.20293E+08         0.00000E+00
    0.00000E+00         0.00000E+00         0.86617E+07
 
    0.85099E+07         0.80503E+05         0.00000E+00
    0.80503E+05         0.20217E+08         0.00000E+00
    0.00000E+00         0.00000E+00         0.86180E+07
 
    0.84207E+07         0.27349E+05         0.00000E+00
    0.27349E+05         0.20156E+08         0.00000E+00
    0.00000E+00         0.00000E+00         0.85729E+07
 
    0.12799E+08         0.15089E+05         0.00000E+00
    0.15089E+05         0.29506E+08         0.00000E+00
    0.00000E+00         0.00000E+00         0.12692E+08
 
    0.12745E+08         0.44938E+05         0.00000E+00
    0.44938E+05         0.29471E+08         0.00000E+00
    0.00000E+00         0.00000E+00         0.12665E+08
 
    0.12702E+08         0.72685E+05         0.00000E+00
    0.72685E+05         0.29427E+08         0.00000E+00
    0.00000E+00         0.00000E+00         0.12639E+08
 
    0.12665E+08         0.96863E+05         0.00000E+00
    0.96863E+05         0.29375E+08         0.00000E+00
    0.00000E+00         0.00000E+00         0.12612E+08
 
    0.12630E+08         0.11802E+06         0.00000E+00
    0.11802E+06         0.29316E+08         0.00000E+00
    0.00000E+00         0.00000E+00         0.12584E+08
 
    0.12595E+08         0.13709E+06         0.00000E+00
    0.13709E+06         0.29252E+08         0.00000E+00
    0.00000E+00         0.00000E+00         0.12554E+08
 
    0.12562E+08         0.15466E+06         0.00000E+00
    0.15466E+06         0.29184E+08         0.00000E+00
    0.00000E+00         0.00000E+00         0.12524E+08
 
    0.12528E+08         0.17110E+06         0.00000E+00
    0.17110E+06         0.29113E+08         0.00000E+00
    0.00000E+00         0.00000E+00         0.12492E+08
 
    0.12494E+08         0.18665E+06         0.00000E+00
    0.18665E+06         0.29040E+08         0.00000E+00
    0.00000E+00         0.00000E+00         0.12460E+08
 
    0.12459E+08         0.20143E+06         0.00000E+00
    0.20143E+06         0.28965E+08         0.00000E+00
    0.00000E+00         0.00000E+00         0.12427E+08
 
    0.12425E+08         0.21551E+06         0.00000E+00
    0.21551E+06         0.28889E+08         0.00000E+00
    0.00000E+00         0.00000E+00         0.12394E+08
 
    0.12390E+08         0.22893E+06         0.00000E+00
    0.22893E+06         0.28813E+08         0.00000E+00
    0.00000E+00         0.00000E+00         0.12361E+08
 
    0.12355E+08         0.24170E+06         0.00000E+00
    0.24170E+06         0.28737E+08         0.00000E+00
    0.00000E+00         0.00000E+00         0.12328E+08
 
    0.12320E+08         0.25385E+06         0.00000E+00
    0.25385E+06         0.28660E+08         0.00000E+00
    0.00000E+00         0.00000E+00         0.12294E+08
 
    0.12286E+08         0.26537E+06         0.00000E+00
    0.26537E+06         0.28583E+08         0.00000E+00
    0.00000E+00         0.00000E+00         0.12261E+08
 
    0.12251E+08         0.27628E+06         0.00000E+00
    0.27628E+06         0.28506E+08         0.00000E+00
    0.00000E+00         0.00000E+00         0.12227E+08
 
    0.12216E+08         0.28662E+06         0.00000E+00
    0.28662E+06         0.28429E+08         0.00000E+00
    0.00000E+00         0.00000E+00         0.12194E+08
 
    0.12182E+08         0.29639E+06         0.00000E+00
    0.29639E+06         0.28352E+08         0.00000E+00
    0.00000E+00         0.00000E+00         0.12160E+08
 
    0.12147E+08         0.30563E+06         0.00000E+00
    0.30563E+06         0.28276E+08         0.00000E+00
    0.00000E+00         0.00000E+00         0.12127E+08
 
    0.12113E+08         0.31437E+06         0.00000E+00
    0.31437E+06         0.28199E+08         0.00000E+00
    0.00000E+00         0.00000E+00         0.12093E+08
 
    0.12078E+08         0.32264E+06         0.00000E+00
    0.32264E+06         0.28122E+08         0.00000E+00
    0.00000E+00         0.00000E+00         0.12060E+08
 
    0.12044E+08         0.33048E+06         0.00000E+00
    0.33048E+06         0.28045E+08         0.00000E+00
    0.00000E+00         0.00000E+00         0.12027E+08
 
    0.12010E+08         0.33791E+06         0.00000E+00
    0.33791E+06         0.27967E+08         0.00000E+00
    0.00000E+00         0.00000E+00         0.11993E+08
 
    0.11975E+08         0.34497E+06         0.00000E+00
    0.34497E+06         0.27890E+08         0.00000E+00
    0.00000E+00         0.00000E+00         0.11960E+08
 
    0.11941E+08         0.35169E+06         0.00000E+00
    0.35169E+06         0.27812E+08         0.00000E+00
    0.00000E+00         0.00000E+00         0.11926E+08
 
    0.11907E+08         0.35810E+06         0.00000E+00
    0.35810E+06         0.27734E+08         0.00000E+00
    0.00000E+00         0.00000E+00         0.11892E+08
 
    0.11872E+08         0.36423E+06         0.00000E+00
    0.36423E+06         0.27655E+08         0.00000E+00
    0.00000E+00         0.00000E+00         0.11858E+08
 
    0.11838E+08         0.37011E+06         0.00000E+00
    0.37011E+06         0.27576E+08         0.00000E+00
    0.00000E+00         0.00000E+00         0.11824E+08
 
    0.11803E+08         0.37576E+06         0.00000E+00
    0.37576E+06         0.27497E+08         0.00000E+00
    0.00000E+00         0.00000E+00         0.11790E+08
 
    0.11768E+08         0.38120E+06         0.00000E+00
    0.38120E+06         0.27417E+08         0.00000E+00
    0.00000E+00         0.00000E+00         0.11756E+08
 
    0.11733E+08         0.38645E+06         0.00000E+00
    0.38645E+06         0.27337E+08         0.00000E+00
    0.00000E+00         0.00000E+00         0.11721E+08
 
    0.11698E+08         0.39154E+06         0.00000E+00
    0.39154E+06         0.27256E+08         0.00000E+00
    0.00000E+00         0.00000E+00         0.11686E+08
 
    0.11663E+08         0.39647E+06         0.00000E+00
    0.39647E+06         0.27175E+08         0.00000E+00
    0.00000E+00         0.00000E+00         0.11651E+08
 
    0.11627E+08         0.40126E+06         0.00000E+00
    0.40126E+06         0.27093E+08         0.00000E+00
    0.00000E+00         0.00000E+00         0.11616E+08
 
    0.11591E+08         0.40593E+06         0.00000E+00
    0.40593E+06         0.27010E+08         0.00000E+00
    0.00000E+00         0.00000E+00         0.11580E+08
 
    0.11555E+08         0.41048E+06         0.00000E+00
    0.41048E+06         0.26927E+08         0.00000E+00
    0.00000E+00         0.00000E+00         0.11545E+08
 
    0.11519E+08         0.41493E+06         0.00000E+00
    0.41493E+06         0.26843E+08         0.00000E+00
    0.00000E+00         0.00000E+00         0.11509E+08
 
    0.11483E+08         0.41929E+06         0.00000E+00
    0.41929E+06         0.26759E+08         0.00000E+00
    0.00000E+00         0.00000E+00         0.11472E+08
 
    0.11446E+08         0.42355E+06         0.00000E+00
    0.42355E+06         0.26673E+08         0.00000E+00
    0.00000E+00         0.00000E+00         0.11436E+08
 
    0.11409E+08         0.42773E+06         0.00000E+00
    0.42773E+06         0.26588E+08         0.00000E+00
    0.00000E+00         0.00000E+00         0.11399E+08
 
    0.11371E+08         0.43183E+06         0.00000E+00
    0.43183E+06         0.26501E+08         0.00000E+00
    0.00000E+00         0.00000E+00         0.11362E+08
 
    0.11334E+08         0.43585E+06         0.00000E+00
    0.43585E+06         0.26414E+08         0.00000E+00
    0.00000E+00         0.00000E+00         0.11324E+08
 
    0.11296E+08         0.43980E+06         0.00000E+00
    0.43980E+06         0.26325E+08         0.00000E+00
    0.00000E+00         0.00000E+00         0.11286E+08
 
    0.11257E+08         0.44367E+06         0.00000E+00
    0.44367E+06         0.26237E+08         0.00000E+00
    0.00000E+00         0.00000E+00         0.11248E+08
 
    0.11219E+08         0.44748E+06         0.00000E+00
    0.44748E+06         0.26147E+08         0.00000E+00
    0.00000E+00         0.00000E+00         0.11210E+08
 
    0.11180E+08         0.45121E+06         0.00000E+00
    0.45121E+06         0.26057E+08         0.00000E+00
    0.00000E+00         0.00000E+00         0.11171E+08
 
    0.11141E+08         0.45486E+06         0.00000E+00
    0.45486E+06         0.25965E+08         0.00000E+00
    0.00000E+00         0.00000E+00         0.11132E+08
 
    0.11101E+08         0.45844E+06         0.00000E+00
    0.45844E+06         0.25873E+08         0.00000E+00
    0.00000E+00         0.00000E+00         0.11092E+08
 
    0.11061E+08         0.46193E+06         0.00000E+00
    0.46193E+06         0.25781E+08         0.00000E+00
    0.00000E+00         0.00000E+00         0.11052E+08
 
    0.11020E+08         0.46535E+06         0.00000E+00
    0.46535E+06         0.25687E+08         0.00000E+00
    0.00000E+00         0.00000E+00         0.11012E+08
 
    0.10980E+08         0.46867E+06         0.00000E+00
    0.46867E+06         0.25593E+08         0.00000E+00
    0.00000E+00         0.00000E+00         0.10972E+08
 
    0.10939E+08         0.47190E+06         0.00000E+00
    0.47190E+06         0.25497E+08         0.00000E+00
    0.00000E+00         0.00000E+00         0.10931E+08
 
    0.10897E+08         0.47503E+06         0.00000E+00
    0.47503E+06         0.25401E+08         0.00000E+00
    0.00000E+00         0.00000E+00         0.10889E+08
 
    0.10855E+08         0.47804E+06         0.00000E+00
    0.47804E+06         0.25304E+08         0.00000E+00
    0.00000E+00         0.00000E+00         0.10848E+08
 
    0.10813E+08         0.48095E+06         0.00000E+00
    0.48095E+06         0.25206E+08         0.00000E+00
    0.00000E+00         0.00000E+00         0.10806E+08
 
    0.10770E+08         0.48372E+06         0.00000E+00
    0.48372E+06         0.25108E+08         0.00000E+00
    0.00000E+00         0.00000E+00         0.10763E+08
 
    0.10727E+08         0.48636E+06         0.00000E+00
    0.48636E+06         0.25008E+08         0.00000E+00
    0.00000E+00         0.00000E+00         0.10721E+08
 
    0.10683E+08         0.48885E+06         0.00000E+00
    0.48885E+06         0.24908E+08         0.00000E+00
    0.00000E+00         0.00000E+00         0.10677E+08
 
    0.10640E+08         0.49117E+06         0.00000E+00
    0.49117E+06         0.24807E+08         0.00000E+00
    0.00000E+00         0.00000E+00         0.10634E+08
 
    0.10595E+08         0.49333E+06         0.00000E+00
    0.49333E+06         0.24705E+08         0.00000E+00
    0.00000E+00         0.00000E+00         0.10590E+08
 
    0.10550E+08         0.49529E+06         0.00000E+00
    0.49529E+06         0.24602E+08         0.00000E+00
    0.00000E+00         0.00000E+00         0.10546E+08
 
    0.10505E+08         0.49705E+06         0.00000E+00
    0.49705E+06         0.24498E+08         0.00000E+00
    0.00000E+00         0.00000E+00         0.10501E+08
 
    0.10460E+08         0.49858E+06         0.00000E+00
    0.49858E+06         0.24393E+08         0.00000E+00
    0.00000E+00         0.00000E+00         0.10456E+08
 
    0.10414E+08         0.49987E+06         0.00000E+00
    0.49987E+06         0.24288E+08         0.00000E+00
    0.00000E+00         0.00000E+00         0.10410E+08
 
    0.10367E+08         0.50090E+06         0.00000E+00
    0.50090E+06         0.24181E+08         0.00000E+00
    0.00000E+00         0.00000E+00         0.10364E+08
 
    0.10320E+08         0.50164E+06         0.00000E+00
    0.50164E+06         0.24074E+08         0.00000E+00
    0.00000E+00         0.00000E+00         0.10318E+08
 
    0.10273E+08         0.50206E+06         0.00000E+00
    0.50206E+06         0.23966E+08         0.00000E+00
    0.00000E+00         0.00000E+00         0.10272E+08
 
    0.10225E+08         0.50214E+06         0.00000E+00
    0.50214E+06         0.23857E+08         0.00000E+00
    0.00000E+00         0.00000E+00         0.10224E+08
 
    0.10177E+08         0.50186E+06         0.00000E+00
    0.50186E+06         0.23747E+08         0.00000E+00
    0.00000E+00         0.00000E+00         0.10177E+08
 
    0.10128E+08         0.50117E+06         0.00000E+00
    0.50117E+06         0.23636E+08         0.00000E+00
    0.00000E+00         0.00000E+00         0.10129E+08
 
    0.10078E+08         0.50004E+06         0.00000E+00
    0.50004E+06         0.23524E+08         0.00000E+00
    0.00000E+00         0.00000E+00         0.10081E+08
 
    0.10029E+08         0.49844E+06         0.00000E+00
    0.49844E+06         0.23412E+08         0.00000E+00
    0.00000E+00         0.00000E+00         0.10032E+08
 
    0.99783E+07         0.49632E+06         0.00000E+00
    0.49632E+06         0.23298E+08         0.00000E+00
    0.00000E+00         0.00000E+00         0.99830E+07
 
    0.99274E+07         0.49364E+06         0.00000E+00
    0.49364E+06         0.23184E+08         0.00000E+00
    0.00000E+00         0.00000E+00         0.99335E+07
 
    0.98760E+07         0.49035E+06         0.00000E+00
    0.49035E+06         0.23069E+08         0.00000E+00
    0.00000E+00         0.00000E+00         0.98834E+07
 
    0.98240E+07         0.48640E+06         0.00000E+00
    0.48640E+06         0.22953E+08         0.00000E+00
    0.00000E+00         0.00000E+00         0.98330E+07
 
    0.97714E+07         0.48174E+06         0.00000E+00
    0.48174E+06         0.22836E+08         0.00000E+00
    0.00000E+00         0.00000E+00         0.97821E+07
 
    0.97182E+07         0.47632E+06         0.00000E+00
    0.47632E+06         0.22717E+08         0.00000E+00
    0.00000E+00         0.00000E+00         0.97307E+07
 
    0.96644E+07         0.47007E+06         0.00000E+00
    0.47007E+06         0.22598E+08         0.00000E+00
    0.00000E+00         0.00000E+00         0.96788E+07
 
    0.96101E+07         0.46293E+06         0.00000E+00
    0.46293E+06         0.22478E+08         0.00000E+00
    0.00000E+00         0.00000E+00         0.96265E+07
 
    0.95550E+07         0.45486E+06         0.00000E+00
    0.45486E+06         0.22357E+08         0.00000E+00
    0.00000E+00         0.00000E+00         0.95736E+07
 
    0.94994E+07         0.44579E+06         0.00000E+00
    0.44579E+06         0.22235E+08         0.00000E+00
    0.00000E+00         0.00000E+00         0.95202E+07
 
    0.94431E+07         0.43566E+06         0.00000E+00
    0.43566E+06         0.22111E+08         0.00000E+00
    0.00000E+00         0.00000E+00         0.94663E+07
 
    0.93862E+07         0.42442E+06         0.00000E+00
    0.42442E+06         0.21987E+08         0.00000E+00
    0.00000E+00         0.00000E+00         0.94120E+07
 
    0.93288E+07         0.41204E+06         0.00000E+00
    0.41204E+06         0.21862E+08         0.00000E+00
    0.00000E+00         0.00000E+00         0.93571E+07
 
    0.92708E+07         0.39846E+06         0.00000E+00
    0.39846E+06         0.21735E+08         0.00000E+00
    0.00000E+00         0.00000E+00         0.93018E+07
 
    0.92124E+07         0.38366E+06         0.00000E+00
    0.38366E+06         0.21608E+08         0.00000E+00
    0.00000E+00         0.00000E+00         0.92461E+07
 
    0.91536E+07         0.36761E+06         0.00000E+00
    0.36761E+06         0.21480E+08         0.00000E+00
    0.00000E+00         0.00000E+00         0.91900E+07
 
    0.90946E+07         0.35030E+06         0.00000E+00
    0.35030E+06         0.21351E+08         0.00000E+00
    0.00000E+00         0.00000E+00         0.91337E+07
 
    0.90354E+07         0.33172E+06         0.00000E+00
    0.33172E+06         0.21223E+08         0.00000E+00
    0.00000E+00         0.00000E+00         0.90774E+07
 
    0.89762E+07         0.31182E+06         0.00000E+00
    0.31182E+06         0.21094E+08         0.00000E+00
    0.00000E+00         0.00000E+00         0.90212E+07
 
    0.89172E+07         0.29057E+06         0.00000E+00
    0.29057E+06         0.20967E+08         0.00000E+00
    0.00000E+00         0.00000E+00         0.89654E+07
 
    0.88584E+07         0.26786E+06         0.00000E+00
    0.26786E+06         0.20842E+08         0.00000E+00
    0.00000E+00         0.00000E+00         0.89102E+07
 
    0.87998E+07         0.24346E+06         0.00000E+00
    0.24346E+06         0.20721E+08         0.00000E+00
    0.00000E+00         0.00000E+00         0.88561E+07
 
    0.87411E+07         0.21700E+06         0.00000E+00
    0.21700E+06         0.20604E+08         0.00000E+00
    0.00000E+00         0.00000E+00         0.88034E+07
 
    0.86820E+07         0.18784E+06         0.00000E+00
    0.18784E+06         0.20493E+08         0.00000E+00
    0.00000E+00         0.00000E+00         0.87525E+07
 
    0.86212E+07         0.15497E+06         0.00000E+00
    0.15497E+06         0.20392E+08         0.00000E+00
    0.00000E+00         0.00000E+00         0.87038E+07
 
    0.85563E+07         0.11680E+06         0.00000E+00
    0.11680E+06         0.20302E+08         0.00000E+00
    0.00000E+00         0.00000E+00         0.86573E+07
 
    0.84816E+07         0.72400E+05         0.00000E+00
    0.72400E+05         0.20227E+08         0.00000E+00
    0.00000E+00         0.00000E+00         0.86125E+07
 
    0.83878E+07         0.24327E+05         0.00000E+00
    0.24327E+05         0.20166E+08         0.00000E+00
    0.00000E+00         0.00000E+00         0.85662E+07
 
    0.12818E+08         0.13601E+05         0.00000E+00
    0.13601E+05         0.29500E+08         0.00000E+00
    0.00000E+00         0.00000E+00         0.12695E+08
 
    0.12762E+08         0.40810E+05         0.00000E+00
    0.40810E+05         0.29465E+08         0.00000E+00
    0.00000E+00         0.00000E+00         0.12668E+08
 
    0.12716E+08         0.66856E+05         0.00000E+00
    0.66856E+05         0.29422E+08         0.00000E+00
    0.00000E+00         0.00000E+00         0.12642E+08
 
    0.12677E+08         0.90250E+05         0.00000E+00
    0.90250E+05         0.29371E+08         0.00000E+00
    0.00000E+00         0.00000E+00         0.12614E+08
 
    0.12640E+08         0.11106E+06         0.00000E+00
    0.11106E+06         0.29312E+08         0.00000E+00
    0.00000E+00         0.00000E+00         0.12586E+08
 
    0.12605E+08         0.12997E+06         0.00000E+00
    0.12997E+06         0.29249E+08         0.00000E+00
    0.00000E+00         0.00000E+00         0.12556E+08
 
    0.12570E+08         0.14748E+06         0.00000E+00
    0.14748E+06         0.29181E+08         0.00000E+00
    0.00000E+00         0.00000E+00         0.12525E+08
 
    0.12536E+08         0.16391E+06         0.00000E+00
    0.16391E+06         0.29110E+08         0.00000E+00
    0.00000E+00         0.00000E+00         0.12494E+08
 
    0.12501E+08         0.17946E+06         0.00000E+00
    0.17946E+06         0.29037E+08         0.00000E+00
    0.00000E+00         0.00000E+00         0.12461E+08
 
    0.12466E+08         0.19424E+06         0.00000E+00
    0.19424E+06         0.28962E+08         0.00000E+00
    0.00000E+00         0.00000E+00         0.12429E+08
 
    0.12432E+08         0.20831E+06         0.00000E+00
    0.20831E+06         0.28887E+08         0.00000E+00
    0.00000E+00         0.00000E+00         0.12395E+08
 
    0.12396E+08         0.22170E+06         0.00000E+00
    0.22170E+06         0.28811E+08         0.00000E+00
    0.00000E+00         0.00000E+00         0.12362E+08
 
    0.12361E+08         0.23443E+06         0.00000E+00
    0.23443E+06         0.28734E+08         0.00000E+00
    0.00000E+00         0.00000E+00         0.12329E+08
 
    0.12326E+08         0.24651E+06         0.00000E+00
    0.24651E+06         0.28657E+08         0.00000E+00
    0.00000E+00         0.00000E+00         0.12295E+08
 
    0.12291E+08         0.25797E+06         0.00000E+00
    0.25797E+06         0.28581E+08         0.00000E+00
    0.00000E+00         0.00000E+00         0.12262E+08
 
    0.12256E+08         0.26880E+06         0.00000E+00
    0.26880E+06         0.28504E+08         0.00000E+00
    0.00000E+00         0.00000E+00         0.12228E+08
 
    0.12221E+08         0.27905E+06         0.00000E+00
    0.27905E+06         0.28427E+08         0.00000E+00
    0.00000E+00         0.00000E+00         0.12195E+08
 
    0.12186E+08         0.28873E+06         0.00000E+00
    0.28873E+06         0.28351E+08         0.00000E+00
    0.00000E+00         0.00000E+00         0.12161E+08
 
    0.12152E+08         0.29788E+06         0.00000E+00
    0.29788E+06         0.28274E+08         0.00000E+00
    0.00000E+00         0.00000E+00         0.12128E+08
 
    0.12117E+08         0.30652E+06         0.00000E+00
    0.30652E+06         0.28197E+08         0.00000E+00
    0.00000E+00         0.00000E+00         0.12094E+08
 
    0.12082E+08         0.31469E+06         0.00000E+00
    0.31469E+06         0.28120E+08         0.00000E+00
    0.00000E+00         0.00000E+00         0.12061E+08
 
    0.12048E+08         0.32242E+06         0.00000E+00
    0.32242E+06         0.28043E+08         0.00000E+00
    0.00000E+00         0.00000E+00         0.12027E+08
 
    0.12013E+08         0.32975E+06         0.00000E+00
    0.32975E+06         0.27966E+08         0.00000E+00
    0.00000E+00         0.00000E+00         0.11994E+08
 
    0.11979E+08         0.33672E+06         0.00000E+00
    0.33672E+06         0.27888E+08         0.00000E+00
    0.00000E+00         0.00000E+00         0.11960E+08
 
    0.11944E+08         0.34334E+06         0.00000E+00
    0.34334E+06         0.27811E+08         0.00000E+00
    0.00000E+00         0.00000E+00         0.11926E+08
 
    0.11910E+08         0.34966E+06         0.00000E+00
    0.34966E+06         0.27733E+08         0.00000E+00
    0.00000E+00         0.00000E+00         0.11893E+08
 
    0.11875E+08         0.35569E+06         0.00000E+00
    0.35569E+06         0.27654E+08         0.00000E+00
    0.00000E+00         0.00000E+00         0.11859E+08
 
    0.11840E+08         0.36148E+06         0.00000E+00
    0.36148E+06         0.27575E+08         0.00000E+00
    0.00000E+00         0.00000E+00         0.11825E+08
 
    0.11806E+08         0.36703E+06         0.00000E+00
    0.36703E+06         0.27496E+08         0.00000E+00
    0.00000E+00         0.00000E+00         0.11790E+08
 
    0.11771E+08         0.37238E+06         0.00000E+00
    0.37238E+06         0.27416E+08         0.00000E+00
    0.00000E+00         0.00000E+00         0.11756E+08
 
    0.11736E+08         0.37754E+06         0.00000E+00
    0.37754E+06         0.27336E+08         0.00000E+00
    0.00000E+00         0.00000E+00         0.11721E+08
 
    0.11700E+08         0.38253E+06         0.00000E+00
    0.38253E+06         0.27255E+08         0.00000E+00
    0.00000E+00         0.00000E+00         0.11687E+08
 
    0.11665E+08         0.38738E+06         0.00000E+00
    0.38738E+06         0.27174E+08         0.00000E+00
    0.00000E+00         0.00000E+00         0.11652E+08
 
    0.11629E+08         0.39208E+06         0.00000E+00
    0.39208E+06         0.27092E+08         0.00000E+00
    0.00000E+00         0.00000E+00         0.11616E+08
 
    0.11594E+08         0.39666E+06         0.00000E+00
    0.39666E+06         0.27009E+08         0.00000E+00
    0.00000E+00         0.00000E+00         0.11581E+08
 
    0.11558E+08         0.40112E+06         0.00000E+00
    0.40112E+06         0.26926E+08         0.00000E+00
    0.00000E+00         0.00000E+00         0.11545E+08
 
    0.11521E+08         0.40548E+06         0.00000E+00
    0.40548E+06         0.26842E+08         0.00000E+00
    0.00000E+00         0.00000E+00         0.11509E+08
 
    0.11485E+08         0.40975E+06         0.00000E+00
    0.40975E+06         0.26758E+08         0.00000E+00
    0.00000E+00         0.00000E+00         0.11473E+08
 
    0.11448E+08         0.41392E+06         0.00000E+00
    0.41392E+06         0.26673E+08         0.00000E+00
    0.00000E+00         0.00000E+00         0.11436E+08
 
    0.11411E+08         0.41801E+06         0.00000E+00
    0.41801E+06         0.26587E+08         0.00000E+00
    0.00000E+00         0.00000E+00         0.11399E+08
 
    0.11373E+08         0.42202E+06         0.00000E+00
    0.42202E+06         0.26500E+08         0.00000E+00
    0.00000E+00         0.00000E+00         0.11362E+08
 
    0.11336E+08         0.42596E+06         0.00000E+00
    0.42596E+06         0.26413E+08         0.00000E+00
    0.00000E+00         0.00000E+00         0.11325E+08
 
    0.11298E+08         0.42982E+06         0.00000E+00
    0.42982E+06         0.26325E+08         0.00000E+00
    0.00000E+00         0.00000E+00         0.11287E+08
 
    0.11259E+08         0.43360E+06         0.00000E+00
    0.43360E+06         0.26236E+08         0.00000E+00
    0.00000E+00         0.00000E+00         0.11249E+08
 
    0.11221E+08         0.43732E+06         0.00000E+00
    0.43732E+06         0.26146E+08         0.00000E+00
    0.00000E+00         0.00000E+00         0.11210E+08
 
    0.11182E+08         0.44096E+06         0.00000E+00
    0.44096E+06         0.26056E+08         0.00000E+00
    0.00000E+00         0.00000E+00         0.11171E+08
 
    0.11142E+08         0.44453E+06         0.00000E+00
    0.44453E+06         0.25965E+08         0.00000E+00
    0.00000E+00         0.00000E+00         0.11132E+08
 
    0.11103E+08         0.44802E+06         0.00000E+00
    0.44802E+06         0.25873E+08         0.00000E+00
    0.00000E+00         0.00000E+00         0.11093E+08
 
    0.11063E+08         0.45143E+06         0.00000E+00
    0.45143E+06         0.25780E+08         0.00000E+00
    0.00000E+00         0.00000E+00         0.11053E+08
 
    0.11022E+08         0.45475E+06         0.00000E+00
    0.45475E+06         0.25686E+08         0.00000E+00
    0.00000E+00         0.00000E+00         0.11013E+08
 
    0.10981E+08         0.45799E+06         0.00000E+00
    0.45799E+06         0.25592E+08         0.00000E+00
    0.00000E+00         0.00000E+00         0.10972E+08
 
    0.10940E+08         0.46114E+06         0.00000E+00
    0.46114E+06         0.25497E+08         0.00000E+00
    0.00000E+00         0.00000E+00         0.10931E+08
 
    0.10899E+08         0.46418E+06         0.00000E+00
    0.46418E+06         0.25401E+08         0.00000E+00
    0.00000E+00         0.00000E+00         0.10890E+08
 
    0.10857E+08         0.46712E+06         0.00000E+00
    0.46712E+06         0.25304E+08         0.00000E+00
    0.00000E+00         0.00000E+00         0.10848E+08
 
    0.10814E+08         0.46994E+06         0.00000E+00
    0.46994E+06         0.25206E+08         0.00000E+00
    0.00000E+00         0.00000E+00         0.10806E+08
 
    0.10772E+08         0.47263E+06         0.00000E+00
    0.47263E+06         0.25107E+08         0.00000E+00
    0.00000E+00         0.00000E+00         0.10764E+08
 
    0.10728E+08         0.47519E+06         0.00000E+00
    0.47519E+06         0.25008E+08         0.00000E+00
    0.00000E+00         0.00000E+00         0.10721E+08
 
    0.10685E+08         0.47760E+06         0.00000E+00
    0.47760E+06         0.24907E+08         0.00000E+00
    0.00000E+00         0.00000E+00         0.10678E+08
 
    0.10641E+08         0.47985E+06         0.00000E+00
    0.47985E+06         0.24806E+08         0.00000E+00
    0.00000E+00         0.00000E+00         0.10634E+08
 
    0.10596E+08         0.48193E+06         0.00000E+00
    0.48193E+06         0.24704E+08         0.00000E+00
    0.00000E+00         0.00000E+00         0.10590E+08
 
    0.10552E+08         0.48383E+06         0.00000E+00
    0.48383E+06         0.24601E+08         0.00000E+00
    0.00000E+00         0.00000E+00         0.10546E+08
 
    0.10506E+08         0.48551E+06         0.00000E+00
    0.48551E+06         0.24497E+08         0.00000E+00
    0.00000E+00         0.00000E+00         0.10501E+08
 
    0.10461E+08         0.48698E+06         0.00000E+00
    0.48698E+06         0.24393E+08         0.00000E+00
    0.00000E+00         0.00000E+00         0.10456E+08
 
    0.10414E+08         0.48821E+06         0.00000E+00
    0.48821E+06         0.24287E+08         0.00000E+00
    0.00000E+00         0.00000E+00         0.10410E+08
 
    0.10368E+08         0.48917E+06         0.00000E+00
    0.48917E+06         0.24181E+08         0.00000E+00
    0.00000E+00         0.00000E+00         0.10365E+08
 
    0.10321E+08         0.48986E+06         0.00000E+00
    0.48986E+06         0.24074E+08         0.00000E+00
    0.00000E+00         0.00000E+00         0.10318E+08
 
    0.10273E+08         0.49023E+06         0.00000E+00
    0.49023E+06         0.23966E+08         0.00000E+00
    0.00000E+00         0.00000E+00         0.10272E+08
 
    0.10225E+08         0.49026E+06         0.00000E+00
    0.49026E+06         0.23857E+08         0.00000E+00
    0.00000E+00         0.00000E+00         0.10225E+08
 
    0.10176E+08         0.48993E+06         0.00000E+00
    0.48993E+06         0.23747E+08         0.00000E+00
    0.00000E+00         0.00000E+00         0.10177E+08
 
    0.10127E+08         0.48920E+06         0.00000E+00
    0.48920E+06         0.23636E+08         0.00000E+00
    0.00000E+00         0.00000E+00         0.10129E+08
 
    0.10078E+08         0.48804E+06         0.00000E+00
    0.48804E+06         0.23525E+08         0.00000E+00
    0.00000E+00         0.00000E+00         0.10081E+08
 
    0.10028E+08         0.48641E+06         0.00000E+00
    0.48641E+06         0.23412E+08         0.00000E+00
    0.00000E+00         0.00000E+00         0.10032E+08
 
    0.99773E+07         0.48427E+06         0.00000E+00
    0.48427E+06         0.23299E+08         0.00000E+00
    0.00000E+00         0.00000E+00         0.99829E+07
 
    0.99261E+07         0.48157E+06         0.00000E+00
    0.48157E+06         0.23185E+08         0.00000E+00
    0.00000E+00         0.00000E+00         0.99333E+07
 
    0.98744E+07         0.47827E+06         0.00000E+00
    0.47827E+06         0.23070E+08         0.00000E+00
    0.00000E+00         0.00000E+00         0.98832E+07
 
    0.98221E+07         0.47432E+06         0.00000E+00
    0.47432E+06         0.22954E+08         0.00000E+00
    0.00000E+00         0.00000E+00         0.98327E+07
 
    0.97691E+07         0.46967E+06         0.00000E+00
    0.46967E+06         0.22837E+08         0.00000E+00
    0.00000E+00         0.00000E+00         0.97817E+07
 
    0.97156E+07         0.46425E+06         0.00000E+00
    0.46425E+06         0.22719E+08         0.00000E+00
    0.00000E+00         0.00000E+00         0.97302E+07
 
    0.96614E+07         0.45802E+06         0.00000E+00
    0.45802E+06         0.22600E+08         0.00000E+00
    0.00000E+00         0.00000E+00         0.96783E+07
 
    0.96066E+07         0.45091E+06         0.00000E+00
    0.45091E+06         0.22480E+08         0.00000E+00
    0.00000E+00         0.00000E+00         0.96259E+07
 
    0.95511E+07         0.44286E+06         0.00000E+00
    0.44286E+06         0.22359E+08         0.00000E+00
    0.00000E+00         0.00000E+00         0.95729E+07
 
    0.94949E+07         0.43382E+06         0.00000E+00
    0.43382E+06         0.22237E+08         0.00000E+00
    0.00000E+00         0.00000E+00         0.95195E+07
 
    0.94382E+07         0.42373E+06         0.00000E+00
    0.42373E+06         0.22113E+08         0.00000E+00
    0.00000E+00         0.00000E+00         0.94655E+07
 
    0.93807E+07         0.41253E+06         0.00000E+00
    0.41253E+06         0.21989E+08         0.00000E+00
    0.00000E+00         0.00000E+00         0.94110E+07
 
    0.93227E+07         0.40017E+06         0.00000E+00
    0.40017E+06         0.21864E+08         0.00000E+00
    0.00000E+00         0.00000E+00         0.93560E+07
 
    0.92641E+07         0.38662E+06         0.00000E+00
    0.38662E+06         0.21738E+08         0.00000E+00
    0.00000E+00         0.00000E+00         0.93006E+07
 
    0.92051E+07         0.37183E+06         0.00000E+00
    0.37183E+06         0.21611E+08         0.00000E+00
    0.00000E+00         0.00000E+00         0.92448E+07
 
    0.91456E+07         0.35578E+06         0.00000E+00
    0.35578E+06         0.21483E+08         0.00000E+00
    0.00000E+00         0.00000E+00         0.91886E+07
 
    0.90859E+07         0.33845E+06         0.00000E+00
    0.33845E+06         0.21355E+08         0.00000E+00
    0.00000E+00         0.00000E+00         0.91322E+07
 
    0.90260E+07         0.31982E+06         0.00000E+00
    0.31982E+06         0.21226E+08         0.00000E+00
    0.00000E+00         0.00000E+00         0.90757E+07
 
    0.89660E+07         0.29987E+06         0.00000E+00
    0.29987E+06         0.21099E+08         0.00000E+00
    0.00000E+00         0.00000E+00         0.90194E+07
 
    0.89061E+07         0.27854E+06         0.00000E+00
    0.27854E+06         0.20972E+08         0.00000E+00
    0.00000E+00         0.00000E+00         0.89634E+07
 
    0.88463E+07         0.25575E+06         0.00000E+00
    0.25575E+06         0.20847E+08         0.00000E+00
    0.00000E+00         0.00000E+00         0.89080E+07
 
    0.87865E+07         0.23131E+06         0.00000E+00
    0.23131E+06         0.20726E+08         0.00000E+00
    0.00000E+00         0.00000E+00         0.88536E+07
 
    0.87264E+07         0.20489E+06         0.00000E+00
    0.20489E+06         0.20609E+08         0.00000E+00
    0.00000E+00         0.00000E+00         0.88006E+07
 
    0.86653E+07         0.17596E+06         0.00000E+00
    0.17596E+06         0.20499E+08         0.00000E+00
    0.00000E+00         0.00000E+00         0.87494E+07
 
    0.86019E+07         0.14365E+06         0.00000E+00
    0.14365E+06         0.20398E+08         0.00000E+00
    0.00000E+00         0.00000E+00         0.87001E+07
 
    0.85333E+07         0.10680E+06         0.00000E+00
    0.10680E+06         0.20310E+08         0.00000E+00
    0.00000E+00         0.00000E+00         0.86529E+07
 
    0.84542E+07         0.65302E+05         0.00000E+00
    0.65302E+05         0.20236E+08         0.00000E+00
    0.00000E+00         0.00000E+00         0.86069E+07
 
    0.83569E+07         0.21766E+05         0.00000E+00
    0.21766E+05         0.20175E+08         0.00000E+00
    0.00000E+00         0.00000E+00         0.85596E+07
 
    0.12836E+08         0.12309E+05         0.00000E+00
    0.12309E+05         0.29495E+08         0.00000E+00
    0.00000E+00         0.00000E+00         0.12699E+08
 
    0.12778E+08         0.37141E+05         0.00000E+00
    0.37141E+05         0.29460E+08         0.00000E+00
    0.00000E+00         0.00000E+00         0.12671E+08
 
    0.12730E+08         0.61488E+05         0.00000E+00
    0.61488E+05         0.29417E+08         0.00000E+00
    0.00000E+00         0.00000E+00         0.12644E+08
 
    0.12689E+08         0.83976E+05         0.00000E+00
    0.83976E+05         0.29367E+08         0.00000E+00
    0.00000E+00         0.00000E+00         0.12617E+08
 
    0.12651E+08         0.10434E+06         0.00000E+00
    0.10434E+06         0.29308E+08         0.00000E+00
    0.00000E+00         0.00000E+00         0.12588E+08
 
    0.12615E+08         0.12303E+06         0.00000E+00
    0.12303E+06         0.29245E+08         0.00000E+00
    0.00000E+00         0.00000E+00         0.12558E+08
 
    0.12579E+08         0.14045E+06         0.00000E+00
    0.14045E+06         0.29177E+08         0.00000E+00
    0.00000E+00         0.00000E+00         0.12527E+08
 
    0.12544E+08         0.15684E+06         0.00000E+00
    0.15684E+06         0.29107E+08         0.00000E+00
    0.00000E+00         0.00000E+00         0.12495E+08
 
    0.12509E+08         0.17237E+06         0.00000E+00
    0.17237E+06         0.29034E+08         0.00000E+00
    0.00000E+00         0.00000E+00         0.12463E+08
 
    0.12474E+08         0.18714E+06         0.00000E+00
    0.18714E+06         0.28959E+08         0.00000E+00
    0.00000E+00         0.00000E+00         0.12430E+08
 
    0.12438E+08         0.20119E+06         0.00000E+00
    0.20119E+06         0.28884E+08         0.00000E+00
    0.00000E+00         0.00000E+00         0.12397E+08
 
    0.12403E+08         0.21455E+06         0.00000E+00
    0.21455E+06         0.28808E+08         0.00000E+00
    0.00000E+00         0.00000E+00         0.12363E+08
 
    0.12367E+08         0.22723E+06         0.00000E+00
    0.22723E+06         0.28732E+08         0.00000E+00
    0.00000E+00         0.00000E+00         0.12330E+08
 
    0.12332E+08         0.23925E+06         0.00000E+00
    0.23925E+06         0.28655E+08         0.00000E+00
    0.00000E+00         0.00000E+00         0.12296E+08
 
    0.12297E+08         0.25063E+06         0.00000E+00
    0.25063E+06         0.28579E+08         0.00000E+00
    0.00000E+00         0.00000E+00         0.12263E+08
 
    0.12261E+08         0.26138E+06         0.00000E+00
    0.26138E+06         0.28502E+08         0.00000E+00
    0.00000E+00         0.00000E+00         0.12229E+08
 
    0.12226E+08         0.27154E+06         0.00000E+00
    0.27154E+06         0.28425E+08         0.00000E+00
    0.00000E+00         0.00000E+00         0.12195E+08
 
    0.12191E+08         0.28112E+06         0.00000E+00
    0.28112E+06         0.28349E+08         0.00000E+00
    0.00000E+00         0.00000E+00         0.12162E+08
 
    0.12156E+08         0.29017E+06         0.00000E+00
    0.29017E+06         0.28272E+08         0.00000E+00
    0.00000E+00         0.00000E+00         0.12128E+08
 
    0.12121E+08         0.29871E+06         0.00000E+00
    0.29871E+06         0.28195E+08         0.00000E+00
    0.00000E+00         0.00000E+00         0.12095E+08
 
    0.12086E+08         0.30678E+06         0.00000E+00
    0.30678E+06         0.28119E+08         0.00000E+00
    0.00000E+00         0.00000E+00         0.12061E+08
 
    0.12051E+08         0.31441E+06         0.00000E+00
    0.31441E+06         0.28042E+08         0.00000E+00
    0.00000E+00         0.00000E+00         0.12028E+08
 
    0.12017E+08         0.32164E+06         0.00000E+00
    0.32164E+06         0.27964E+08         0.00000E+00
    0.00000E+00         0.00000E+00         0.11994E+08
 
    0.11982E+08         0.32850E+06         0.00000E+00
    0.32850E+06         0.27887E+08         0.00000E+00
    0.00000E+00         0.00000E+00         0.11961E+08
 
    0.11947E+08         0.33502E+06         0.00000E+00
    0.33502E+06         0.27809E+08         0.00000E+00
    0.00000E+00         0.00000E+00         0.11927E+08
 
    0.11913E+08         0.34124E+06         0.00000E+00
    0.34124E+06         0.27731E+08         0.00000E+00
    0.00000E+00         0.00000E+00         0.11893E+08
 
    0.11878E+08         0.34718E+06         0.00000E+00
    0.34718E+06         0.27653E+08         0.00000E+00
    0.00000E+00         0.00000E+00         0.11859E+08
 
    0.11843E+08         0.35286E+06         0.00000E+00
    0.35286E+06         0.27574E+08         0.00000E+00
    0.00000E+00         0.00000E+00         0.11825E+08
 
    0.11808E+08         0.35832E+06         0.00000E+00
    0.35832E+06         0.27495E+08         0.00000E+00
    0.00000E+00         0.00000E+00         0.11791E+08
 
    0.11773E+08         0.36358E+06         0.00000E+00
    0.36358E+06         0.27415E+08         0.00000E+00
    0.00000E+00         0.00000E+00         0.11757E+08
 
    0.11738E+08         0.36864E+06         0.00000E+00
    0.36864E+06         0.27335E+08         0.00000E+00
    0.00000E+00         0.00000E+00         0.11722E+08
 
    0.11703E+08         0.37355E+06         0.00000E+00
    0.37355E+06         0.27254E+08         0.00000E+00
    0.00000E+00         0.00000E+00         0.11687E+08
 
    0.11667E+08         0.37830E+06         0.00000E+00
    0.37830E+06         0.27173E+08         0.00000E+00
    0.00000E+00         0.00000E+00         0.11652E+08
 
    0.11632E+08         0.38291E+06         0.00000E+00
    0.38291E+06         0.27091E+08         0.00000E+00
    0.00000E+00         0.00000E+00         0.11617E+08
 
    0.11596E+08         0.38740E+06         0.00000E+00
    0.38740E+06         0.27008E+08         0.00000E+00
    0.00000E+00         0.00000E+00         0.11581E+08
 
    0.11560E+08         0.39177E+06         0.00000E+00
    0.39177E+06         0.26925E+08         0.00000E+00
    0.00000E+00         0.00000E+00         0.11546E+08
 
    0.11524E+08         0.39604E+06         0.00000E+00
    0.39604E+06         0.26841E+08         0.00000E+00
    0.00000E+00         0.00000E+00         0.11509E+08
 
    0.11487E+08         0.40022E+06         0.00000E+00
    0.40022E+06         0.26757E+08         0.00000E+00
    0.00000E+00         0.00000E+00         0.11473E+08
 
    0.11450E+08         0.40430E+06         0.00000E+00
    0.40430E+06         0.26672E+08         0.00000E+00
    0.00000E+00         0.00000E+00         0.11437E+08
 
    0.11413E+08         0.40830E+06         0.00000E+00
    0.40830E+06         0.26586E+08         0.00000E+00
    0.00000E+00         0.00000E+00         0.11400E+08
 
    0.11376E+08         0.41222E+06         0.00000E+00
    0.41222E+06         0.26499E+08         0.00000E+00
    0.00000E+00         0.00000E+00         0.11362E+08
 
    0.11338E+08         0.41607E+06         0.00000E+00
    0.41607E+06         0.26412E+08         0.00000E+00
    0.00000E+00         0.00000E+00         0.11325E+08
 
    0.11300E+08         0.41984E+06         0.00000E+00
    0.41984E+06         0.26324E+08         0.00000E+00
    0.00000E+00         0.00000E+00         0.11287E+08
 
    0.11261E+08         0.42354E+06         0.00000E+00
    0.42354E+06         0.26235E+08         0.00000E+00
    0.00000E+00         0.00000E+00         0.11249E+08
 
    0.11223E+08         0.42717E+06         0.00000E+00
    0.42717E+06         0.26146E+08         0.00000E+00
    0.00000E+00         0.00000E+00         0.11210E+08
 
    0.11184E+08         0.43072E+06         0.00000E+00
    0.43072E+06         0.26055E+08         0.00000E+00
    0.00000E+00         0.00000E+00         0.11172E+08
 
    0.11144E+08         0.43420E+06         0.00000E+00
    0.43420E+06         0.25964E+08         0.00000E+00
    0.00000E+00         0.00000E+00         0.11132E+08
 
    0.11105E+08         0.43760E+06         0.00000E+00
    0.43760E+06         0.25872E+08         0.00000E+00
    0.00000E+00         0.00000E+00         0.11093E+08
 
    0.11064E+08         0.44093E+06         0.00000E+00
    0.44093E+06         0.25779E+08         0.00000E+00
    0.00000E+00         0.00000E+00         0.11053E+08
 
    0.11024E+08         0.44417E+06         0.00000E+00
    0.44417E+06         0.25686E+08         0.00000E+00
    0.00000E+00         0.00000E+00         0.11013E+08
 
    0.10983E+08         0.44732E+06         0.00000E+00
    0.44732E+06         0.25591E+08         0.00000E+00
    0.00000E+00         0.00000E+00         0.10972E+08
 
    0.10942E+08         0.45038E+06         0.00000E+00
    0.45038E+06         0.25496E+08         0.00000E+00
    0.00000E+00         0.00000E+00         0.10931E+08
 
    0.10900E+08         0.45335E+06         0.00000E+00
    0.45335E+06         0.25400E+08         0.00000E+00
    0.00000E+00         0.00000E+00         0.10890E+08
 
    0.10858E+08         0.45620E+06         0.00000E+00
    0.45620E+06         0.25303E+08         0.00000E+00
    0.00000E+00         0.00000E+00         0.10848E+08
 
    0.10816E+08         0.45894E+06         0.00000E+00
    0.45894E+06         0.25205E+08         0.00000E+00
    0.00000E+00         0.00000E+00         0.10806E+08
 
    0.10773E+08         0.46155E+06         0.00000E+00
    0.46155E+06         0.25107E+08         0.00000E+00
    0.00000E+00         0.00000E+00         0.10764E+08
 
    0.10730E+08         0.46403E+06         0.00000E+00
    0.46403E+06         0.25007E+08         0.00000E+00
    0.00000E+00         0.00000E+00         0.10721E+08
 
    0.10686E+08         0.46637E+06         0.00000E+00
    0.46637E+06         0.24907E+08         0.00000E+00
    0.00000E+00         0.00000E+00         0.10678E+08
 
    0.10642E+08         0.46855E+06         0.00000E+00
    0.46855E+06         0.24806E+08         0.00000E+00
    0.00000E+00         0.00000E+00         0.10634E+08
 
    0.10598E+08         0.47056E+06         0.00000E+00
    0.47056E+06         0.24704E+08         0.00000E+00
    0.00000E+00         0.00000E+00         0.10590E+08
 
    0.10553E+08         0.47238E+06         0.00000E+00
    0.47238E+06         0.24601E+08         0.00000E+00
    0.00000E+00         0.00000E+00         0.10546E+08
 
    0.10507E+08         0.47400E+06         0.00000E+00
    0.47400E+06         0.24497E+08         0.00000E+00
    0.00000E+00         0.00000E+00         0.10501E+08
 
    0.10461E+08         0.47541E+06         0.00000E+00
    0.47541E+06         0.24393E+08         0.00000E+00
    0.00000E+00         0.00000E+00         0.10456E+08
 
    0.10415E+08         0.47657E+06         0.00000E+00
    0.47657E+06         0.24287E+08         0.00000E+00
    0.00000E+00         0.00000E+00         0.10411E+08
 
    0.10368E+08         0.47748E+06         0.00000E+00
    0.47748E+06         0.24181E+08         0.00000E+00
    0.00000E+00         0.00000E+00         0.10365E+08
 
    0.10321E+08         0.47811E+06         0.00000E+00
    0.47811E+06         0.24074E+08         0.00000E+00
    0.00000E+00         0.00000E+00         0.10318E+08
 
    0.10273E+08         0.47843E+06         0.00000E+00
    0.47843E+06         0.23966E+08         0.00000E+00
    0.00000E+00         0.00000E+00         0.10272E+08
 
    0.10225E+08         0.47842E+06         0.00000E+00
    0.47842E+06         0.23857E+08         0.00000E+00
    0.00000E+00         0.00000E+00         0.10225E+08
 
    0.10176E+08         0.47805E+06         0.00000E+00
    0.47805E+06         0.23747E+08         0.00000E+00
    0.00000E+00         0.00000E+00         0.10177E+08
 
    0.10127E+08         0.47728E+06         0.00000E+00
    0.47728E+06         0.23636E+08         0.00000E+00
    0.00000E+00         0.00000E+00         0.10129E+08
 
    0.10077E+08         0.47609E+06         0.00000E+00
    0.47609E+06         0.23525E+08         0.00000E+00
    0.00000E+00         0.00000E+00         0.10081E+08
 
    0.10027E+08         0.47443E+06         0.00000E+00
    0.47443E+06         0.23413E+08         0.00000E+00
    0.00000E+00         0.00000E+00         0.10032E+08
 
    0.99763E+07         0.47227E+06         0.00000E+00
    0.47227E+06         0.23299E+08         0.00000E+00
    0.00000E+00         0.00000E+00         0.99827E+07
 
    0.99249E+07         0.46956E+06         0.00000E+00
    0.46956E+06         0.23185E+08         0.00000E+00
    0.00000E+00         0.00000E+00         0.99331E+07
 
    0.98728E+07         0.46626E+06         0.00000E+00
    0.46626E+06         0.23070E+08         0.00000E+00
    0.00000E+00         0.00000E+00         0.98829E+07
 
    0.98202E+07         0.46231E+06         0.00000E+00
    0.46231E+06         0.22954E+08         0.00000E+00
    0.00000E+00         0.00000E+00         0.98324E+07
 
    0.97669E+07         0.45766E+06         0.00000E+00
    0.45766E+06         0.22838E+08         0.00000E+00
    0.00000E+00         0.00000E+00         0.97813E+07
 
    0.97130E+07         0.45227E+06         0.00000E+00
    0.45227E+06         0.22720E+08         0.00000E+00
    0.00000E+00         0.00000E+00         0.97298E+07
 
    0.96584E+07         0.44606E+06         0.00000E+00
    0.44606E+06         0.22601E+08         0.00000E+00
    0.00000E+00         0.00000E+00         0.96778E+07
 
    0.96031E+07         0.43898E+06         0.00000E+00
    0.43898E+06         0.22481E+08         0.00000E+00
    0.00000E+00         0.00000E+00         0.96253E+07
 
    0.95472E+07         0.43096E+06         0.00000E+00
    0.43096E+06         0.22360E+08         0.00000E+00
    0.00000E+00         0.00000E+00         0.95723E+07
 
    0.94906E+07         0.42196E+06         0.00000E+00
    0.42196E+06         0.22239E+08         0.00000E+00
    0.00000E+00         0.00000E+00         0.95187E+07
 
    0.94332E+07         0.41191E+06         0.00000E+00
    0.41191E+06         0.22116E+08         0.00000E+00
    0.00000E+00         0.00000E+00         0.94647E+07
 
    0.93753E+07         0.40075E+06         0.00000E+00
    0.40075E+06         0.21992E+08         0.00000E+00
    0.00000E+00         0.00000E+00         0.94101E+07
 
    0.93166E+07         0.38843E+06         0.00000E+00
    0.38843E+06         0.21867E+08         0.00000E+00
    0.00000E+00         0.00000E+00         0.93550E+07
 
    0.92575E+07         0.37490E+06         0.00000E+00
    0.37490E+06         0.21741E+08         0.00000E+00
    0.00000E+00         0.00000E+00         0.92995E+07
 
    0.91978E+07         0.36013E+06         0.00000E+00
    0.36013E+06         0.21614E+08         0.00000E+00
    0.00000E+00         0.00000E+00         0.92435E+07
 
    0.91376E+07         0.34409E+06         0.00000E+00
    0.34409E+06         0.21486E+08         0.00000E+00
    0.00000E+00         0.00000E+00         0.91872E+07
 
    0.90772E+07         0.32674E+06         0.00000E+00
    0.32674E+06         0.21358E+08         0.00000E+00
    0.00000E+00         0.00000E+00         0.91307E+07
 
    0.90165E+07         0.30808E+06         0.00000E+00
    0.30808E+06         0.21230E+08         0.00000E+00
    0.00000E+00         0.00000E+00         0.90741E+07
 
    0.89557E+07         0.28808E+06         0.00000E+00
    0.28808E+06         0.21103E+08         0.00000E+00
    0.00000E+00         0.00000E+00         0.90175E+07
 
    0.88949E+07         0.26670E+06         0.00000E+00
    0.26670E+06         0.20976E+08         0.00000E+00
    0.00000E+00         0.00000E+00         0.89613E+07
 
    0.88341E+07         0.24386E+06         0.00000E+00
    0.24386E+06         0.20852E+08         0.00000E+00
    0.00000E+00         0.00000E+00         0.89057E+07
 
    0.87730E+07         0.21942E+06         0.00000E+00
    0.21942E+06         0.20731E+08         0.00000E+00
    0.00000E+00         0.00000E+00         0.88511E+07
 
    0.87114E+07         0.19312E+06         0.00000E+00
    0.19312E+06         0.20615E+08         0.00000E+00
    0.00000E+00         0.00000E+00         0.87978E+07
 
    0.86484E+07         0.16451E+06         0.00000E+00
    0.16451E+06         0.20505E+08         0.00000E+00
    0.00000E+00         0.00000E+00         0.87461E+07
 
    0.85824E+07         0.13292E+06         0.00000E+00
    0.13292E+06         0.20405E+08         0.00000E+00
    0.00000E+00         0.00000E+00         0.86963E+07
 
    0.85106E+07         0.97592E+05         0.00000E+00
    0.97592E+05         0.20317E+08         0.00000E+00
    0.00000E+00         0.00000E+00         0.86484E+07
 
    0.84277E+07         0.59002E+05         0.00000E+00
    0.59002E+05         0.20244E+08         0.00000E+00
    0.00000E+00         0.00000E+00         0.86015E+07
 
    0.83277E+07         0.19546E+05         0.00000E+00
    0.19546E+05         0.20183E+08         0.00000E+00
    0.00000E+00         0.00000E+00         0.85533E+07
 
    0.12853E+08         0.11164E+05         0.00000E+00
    0.11164E+05         0.29490E+08         0.00000E+00
    0.00000E+00         0.00000E+00         0.12703E+08
 
    0.12794E+08         0.33839E+05         0.00000E+00
    0.33839E+05         0.29455E+08         0.00000E+00
    0.00000E+00         0.00000E+00         0.12675E+08
 
    0.12744E+08         0.56525E+05         0.00000E+00
    0.56525E+05         0.29413E+08         0.00000E+00
    0.00000E+00         0.00000E+00         0.12647E+08
 
    0.12701E+08         0.78026E+05         0.00000E+00
    0.78026E+05         0.29362E+08         0.00000E+00
    0.00000E+00         0.00000E+00         0.12619E+08
 
    0.12662E+08         0.97874E+05         0.00000E+00
    0.97874E+05         0.29305E+08         0.00000E+00
    0.00000E+00         0.00000E+00         0.12590E+08
 
    0.12625E+08         0.11629E+06         0.00000E+00
    0.11629E+06         0.29241E+08         0.00000E+00
    0.00000E+00         0.00000E+00         0.12560E+08
 
    0.12588E+08         0.13356E+06         0.00000E+00
    0.13356E+06         0.29174E+08         0.00000E+00
    0.00000E+00         0.00000E+00         0.12529E+08
 
    0.12552E+08         0.14989E+06         0.00000E+00
    0.14989E+06         0.29103E+08         0.00000E+00
    0.00000E+00         0.00000E+00         0.12497E+08
 
    0.12517E+08         0.16539E+06         0.00000E+00
    0.16539E+06         0.29031E+08         0.00000E+00
    0.00000E+00         0.00000E+00         0.12464E+08
 
    0.12481E+08         0.18013E+06         0.00000E+00
    0.18013E+06         0.28956E+08         0.00000E+00
    0.00000E+00         0.00000E+00         0.12431E+08
 
    0.12445E+08         0.19415E+06         0.00000E+00
    0.19415E+06         0.28881E+08         0.00000E+00
    0.00000E+00         0.00000E+00         0.12398E+08
 
    0.12409E+08         0.20747E+06         0.00000E+00
    0.20747E+06         0.28805E+08         0.00000E+00
    0.00000E+00         0.00000E+00         0.12364E+08
 
    0.12373E+08         0.22009E+06         0.00000E+00
    0.22009E+06         0.28729E+08         0.00000E+00
    0.00000E+00         0.00000E+00         0.12331E+08
 
    0.12338E+08         0.23205E+06         0.00000E+00
    0.23205E+06         0.28653E+08         0.00000E+00
    0.00000E+00         0.00000E+00         0.12297E+08
 
    0.12302E+08         0.24335E+06         0.00000E+00
    0.24335E+06         0.28576E+08         0.00000E+00
    0.00000E+00         0.00000E+00         0.12263E+08
 
    0.12266E+08         0.25401E+06         0.00000E+00
    0.25401E+06         0.28500E+08         0.00000E+00
    0.00000E+00         0.00000E+00         0.12230E+08
 
    0.12231E+08         0.26408E+06         0.00000E+00
    0.26408E+06         0.28423E+08         0.00000E+00
    0.00000E+00         0.00000E+00         0.12196E+08
 
    0.12195E+08         0.27356E+06         0.00000E+00
    0.27356E+06         0.28347E+08         0.00000E+00
    0.00000E+00         0.00000E+00         0.12163E+08
 
    0.12160E+08         0.28250E+06         0.00000E+00
    0.28250E+06         0.28270E+08         0.00000E+00
    0.00000E+00         0.00000E+00         0.12129E+08
 
    0.12125E+08         0.29094E+06         0.00000E+00
    0.29094E+06         0.28194E+08         0.00000E+00
    0.00000E+00         0.00000E+00         0.12096E+08
 
    0.12090E+08         0.29890E+06         0.00000E+00
    0.29890E+06         0.28117E+08         0.00000E+00
    0.00000E+00         0.00000E+00         0.12062E+08
 
    0.12055E+08         0.30643E+06         0.00000E+00
    0.30643E+06         0.28040E+08         0.00000E+00
    0.00000E+00         0.00000E+00         0.12029E+08
 
    0.12020E+08         0.31355E+06         0.00000E+00
    0.31355E+06         0.27963E+08         0.00000E+00
    0.00000E+00         0.00000E+00         0.11995E+08
 
    0.11985E+08         0.32031E+06         0.00000E+00
    0.32031E+06         0.27886E+08         0.00000E+00
    0.00000E+00         0.00000E+00         0.11961E+08
 
    0.11951E+08         0.32673E+06         0.00000E+00
    0.32673E+06         0.27808E+08         0.00000E+00
    0.00000E+00         0.00000E+00         0.11928E+08
 
    0.11916E+08         0.33284E+06         0.00000E+00
    0.33284E+06         0.27730E+08         0.00000E+00
    0.00000E+00         0.00000E+00         0.11894E+08
 
    0.11881E+08         0.33868E+06         0.00000E+00
    0.33868E+06         0.27652E+08         0.00000E+00
    0.00000E+00         0.00000E+00         0.11860E+08
 
    0.11846E+08         0.34427E+06         0.00000E+00
    0.34427E+06         0.27573E+08         0.00000E+00
    0.00000E+00         0.00000E+00         0.11826E+08
 
    0.11811E+08         0.34963E+06         0.00000E+00
    0.34963E+06         0.27494E+08         0.00000E+00
    0.00000E+00         0.00000E+00         0.11791E+08
 
    0.11776E+08         0.35479E+06         0.00000E+00
    0.35479E+06         0.27414E+08         0.00000E+00
    0.00000E+00         0.00000E+00         0.11757E+08
 
    0.11741E+08         0.35976E+06         0.00000E+00
    0.35976E+06         0.27334E+08         0.00000E+00
    0.00000E+00         0.00000E+00         0.11722E+08
 
    0.11705E+08         0.36457E+06         0.00000E+00
    0.36457E+06         0.27253E+08         0.00000E+00
    0.00000E+00         0.00000E+00         0.11688E+08
 
    0.11670E+08         0.36923E+06         0.00000E+00
    0.36923E+06         0.27172E+08         0.00000E+00
    0.00000E+00         0.00000E+00         0.11653E+08
 
    0.11634E+08         0.37375E+06         0.00000E+00
    0.37375E+06         0.27090E+08         0.00000E+00
    0.00000E+00         0.00000E+00         0.11617E+08
 
    0.11598E+08         0.37814E+06         0.00000E+00
    0.37814E+06         0.27007E+08         0.00000E+00
    0.00000E+00         0.00000E+00         0.11582E+08
 
    0.11562E+08         0.38243E+06         0.00000E+00
    0.38243E+06         0.26924E+08         0.00000E+00
    0.00000E+00         0.00000E+00         0.11546E+08
 
    0.11526E+08         0.38661E+06         0.00000E+00
    0.38661E+06         0.26841E+08         0.00000E+00
    0.00000E+00         0.00000E+00         0.11510E+08
 
    0.11489E+08         0.39069E+06         0.00000E+00
    0.39069E+06         0.26756E+08         0.00000E+00
    0.00000E+00         0.00000E+00         0.11474E+08
 
    0.11452E+08         0.39469E+06         0.00000E+00
    0.39469E+06         0.26671E+08         0.00000E+00
    0.00000E+00         0.00000E+00         0.11437E+08
 
    0.11415E+08         0.39860E+06         0.00000E+00
    0.39860E+06         0.26585E+08         0.00000E+00
    0.00000E+00         0.00000E+00         0.11400E+08
 
    0.11378E+08         0.40243E+06         0.00000E+00
    0.40243E+06         0.26499E+08         0.00000E+00
    0.00000E+00         0.00000E+00         0.11363E+08
 
    0.11340E+08         0.40619E+06         0.00000E+00
    0.40619E+06         0.26411E+08         0.00000E+00
    0.00000E+00         0.00000E+00         0.11325E+08
 
    0.11302E+08         0.40987E+06         0.00000E+00
    0.40987E+06         0.26323E+08         0.00000E+00
    0.00000E+00         0.00000E+00         0.11287E+08
 
    0.11263E+08         0.41348E+06         0.00000E+00
    0.41348E+06         0.26234E+08         0.00000E+00
    0.00000E+00         0.00000E+00         0.11249E+08
 
    0.11225E+08         0.41702E+06         0.00000E+00
    0.41702E+06         0.26145E+08         0.00000E+00
    0.00000E+00         0.00000E+00         0.11211E+08
 
    0.11186E+08         0.42049E+06         0.00000E+00
    0.42049E+06         0.26054E+08         0.00000E+00
    0.00000E+00         0.00000E+00         0.11172E+08
 
    0.11146E+08         0.42388E+06         0.00000E+00
    0.42388E+06         0.25963E+08         0.00000E+00
    0.00000E+00         0.00000E+00         0.11133E+08
 
    0.11106E+08         0.42720E+06         0.00000E+00
    0.42720E+06         0.25871E+08         0.00000E+00
    0.00000E+00         0.00000E+00         0.11093E+08
 
    0.11066E+08         0.43044E+06         0.00000E+00
    0.43044E+06         0.25779E+08         0.00000E+00
    0.00000E+00         0.00000E+00         0.11053E+08
 
    0.11026E+08         0.43359E+06         0.00000E+00
    0.43359E+06         0.25685E+08         0.00000E+00
    0.00000E+00         0.00000E+00         0.11013E+08
 
    0.10985E+08         0.43666E+06         0.00000E+00
    0.43666E+06         0.25591E+08         0.00000E+00
    0.00000E+00         0.00000E+00         0.10973E+08
 
    0.10944E+08         0.43964E+06         0.00000E+00
    0.43964E+06         0.25495E+08         0.00000E+00
    0.00000E+00         0.00000E+00         0.10932E+08
 
    0.10902E+08         0.44252E+06         0.00000E+00
    0.44252E+06         0.25399E+08         0.00000E+00
    0.00000E+00         0.00000E+00         0.10890E+08
 
    0.10860E+08         0.44529E+06         0.00000E+00
    0.44529E+06         0.25302E+08         0.00000E+00
    0.00000E+00         0.00000E+00         0.10849E+08
 
    0.10817E+08         0.44795E+06         0.00000E+00
    0.44795E+06         0.25205E+08         0.00000E+00
    0.00000E+00         0.00000E+00         0.10807E+08
 
    0.10774E+08         0.45049E+06         0.00000E+00
    0.45049E+06         0.25106E+08         0.00000E+00
    0.00000E+00         0.00000E+00         0.10764E+08
 
    0.10731E+08         0.45289E+06         0.00000E+00
    0.45289E+06         0.25007E+08         0.00000E+00
    0.00000E+00         0.00000E+00         0.10721E+08
 
    0.10687E+08         0.45516E+06         0.00000E+00
    0.45516E+06         0.24906E+08         0.00000E+00
    0.00000E+00         0.00000E+00         0.10678E+08
 
    0.10643E+08         0.45726E+06         0.00000E+00
    0.45726E+06         0.24805E+08         0.00000E+00
    0.00000E+00         0.00000E+00         0.10635E+08
 
    0.10599E+08         0.45920E+06         0.00000E+00
    0.45920E+06         0.24703E+08         0.00000E+00
    0.00000E+00         0.00000E+00         0.10591E+08
 
    0.10554E+08         0.46095E+06         0.00000E+00
    0.46095E+06         0.24601E+08         0.00000E+00
    0.00000E+00         0.00000E+00         0.10546E+08
 
    0.10508E+08         0.46251E+06         0.00000E+00
    0.46251E+06         0.24497E+08         0.00000E+00
    0.00000E+00         0.00000E+00         0.10501E+08
 
    0.10462E+08         0.46385E+06         0.00000E+00
    0.46385E+06         0.24392E+08         0.00000E+00
    0.00000E+00         0.00000E+00         0.10456E+08
 
    0.10416E+08         0.46496E+06         0.00000E+00
    0.46496E+06         0.24287E+08         0.00000E+00
    0.00000E+00         0.00000E+00         0.10411E+08
 
    0.10369E+08         0.46581E+06         0.00000E+00
    0.46581E+06         0.24181E+08         0.00000E+00
    0.00000E+00         0.00000E+00         0.10365E+08
 
    0.10322E+08         0.46639E+06         0.00000E+00
    0.46639E+06         0.24074E+08         0.00000E+00
    0.00000E+00         0.00000E+00         0.10319E+08
 
    0.10274E+08         0.46666E+06         0.00000E+00
    0.46666E+06         0.23966E+08         0.00000E+00
    0.00000E+00         0.00000E+00         0.10272E+08
 
    0.10225E+08         0.46661E+06         0.00000E+00
    0.46661E+06         0.23857E+08         0.00000E+00
    0.00000E+00         0.00000E+00         0.10225E+08
 
    0.10176E+08         0.46620E+06         0.00000E+00
    0.46620E+06         0.23747E+08         0.00000E+00
    0.00000E+00         0.00000E+00         0.10177E+08
 
    0.10127E+08         0.46540E+06         0.00000E+00
    0.46540E+06         0.23637E+08         0.00000E+00
    0.00000E+00         0.00000E+00         0.10129E+08
 
    0.10077E+08         0.46418E+06         0.00000E+00
    0.46418E+06         0.23525E+08         0.00000E+00
    0.00000E+00         0.00000E+00         0.10081E+08
 
    0.10026E+08         0.46251E+06         0.00000E+00
    0.46251E+06         0.23413E+08         0.00000E+00
    0.00000E+00         0.00000E+00         0.10032E+08
 
    0.99753E+07         0.46033E+06         0.00000E+00
    0.46033E+06         0.23300E+08         0.00000E+00
    0.00000E+00         0.00000E+00         0.99826E+07
 
    0.99236E+07         0.45761E+06         0.00000E+00
    0.45761E+06         0.23186E+08         0.00000E+00
    0.00000E+00         0.00000E+00         0.99329E+07
 
    0.98713E+07         0.45431E+06         0.00000E+00
    0.45431E+06         0.23071E+08         0.00000E+00
    0.00000E+00         0.00000E+00         0.98827E+07
 
    0.98183E+07         0.45037E+06         0.00000E+00
    0.45037E+06         0.22955E+08         0.00000E+00
    0.00000E+00         0.00000E+00         0.98321E+07
 
    0.97647E+07         0.44573E+06         0.00000E+00
    0.44573E+06         0.22839E+08         0.00000E+00
    0.00000E+00         0.00000E+00         0.97810E+07
 
    0.97104E+07         0.44036E+06         0.00000E+00
    0.44036E+06         0.22721E+08         0.00000E+00
    0.00000E+00         0.00000E+00         0.97294E+07
 
    0.96554E+07         0.43418E+06         0.00000E+00
    0.43418E+06         0.22602E+08         0.00000E+00
    0.00000E+00         0.00000E+00         0.96773E+07
 
    0.95997E+07         0.42713E+06         0.00000E+00
    0.42713E+06         0.22483E+08         0.00000E+00
    0.00000E+00         0.00000E+00         0.96247E+07
 
    0.95433E+07         0.41916E+06         0.00000E+00
    0.41916E+06         0.22362E+08         0.00000E+00
    0.00000E+00         0.00000E+00         0.95716E+07
 
    0.94862E+07         0.41020E+06         0.00000E+00
    0.41020E+06         0.22240E+08         0.00000E+00
    0.00000E+00         0.00000E+00         0.95180E+07
 
    0.94284E+07         0.40019E+06         0.00000E+00
    0.40019E+06         0.22118E+08         0.00000E+00
    0.00000E+00         0.00000E+00         0.94638E+07
 
    0.93698E+07         0.38908E+06         0.00000E+00
    0.38908E+06         0.21994E+08         0.00000E+00
    0.00000E+00         0.00000E+00         0.94092E+07
 
    0.93106E+07         0.37680E+06         0.00000E+00
    0.37680E+06         0.21869E+08         0.00000E+00
    0.00000E+00         0.00000E+00         0.93540E+07
 
    0.92508E+07         0.36331E+06         0.00000E+00
    0.36331E+06         0.21744E+08         0.00000E+00
    0.00000E+00         0.00000E+00         0.92983E+07
 
    0.91905E+07         0.34856E+06         0.00000E+00
    0.34856E+06         0.21617E+08         0.00000E+00
    0.00000E+00         0.00000E+00         0.92422E+07
 
    0.91296E+07         0.33253E+06         0.00000E+00
    0.33253E+06         0.21490E+08         0.00000E+00
    0.00000E+00         0.00000E+00         0.91858E+07
 
    0.90685E+07         0.31519E+06         0.00000E+00
    0.31519E+06         0.21362E+08         0.00000E+00
    0.00000E+00         0.00000E+00         0.91291E+07
 
    0.90070E+07         0.29650E+06         0.00000E+00
    0.29650E+06         0.21234E+08         0.00000E+00
    0.00000E+00         0.00000E+00         0.90724E+07
 
    0.89454E+07         0.27647E+06         0.00000E+00
    0.27647E+06         0.21107E+08         0.00000E+00
    0.00000E+00         0.00000E+00         0.90157E+07
 
    0.88836E+07         0.25505E+06         0.00000E+00
    0.25505E+06         0.20981E+08         0.00000E+00
    0.00000E+00         0.00000E+00         0.89593E+07
 
    0.88217E+07         0.23220E+06         0.00000E+00
    0.23220E+06         0.20856E+08         0.00000E+00
    0.00000E+00         0.00000E+00         0.89034E+07
 
    0.87594E+07         0.20781E+06         0.00000E+00
    0.20781E+06         0.20736E+08         0.00000E+00
    0.00000E+00         0.00000E+00         0.88485E+07
 
    0.86963E+07         0.18169E+06         0.00000E+00
    0.18169E+06         0.20620E+08         0.00000E+00
    0.00000E+00         0.00000E+00         0.87949E+07
 
    0.86314E+07         0.15350E+06         0.00000E+00
    0.15350E+06         0.20511E+08         0.00000E+00
    0.00000E+00         0.00000E+00         0.87428E+07
 
    0.85630E+07         0.12276E+06         0.00000E+00
    0.12276E+06         0.20412E+08         0.00000E+00
    0.00000E+00         0.00000E+00         0.86924E+07
 
    0.84881E+07         0.89095E+05         0.00000E+00
    0.89095E+05         0.20325E+08         0.00000E+00
    0.00000E+00         0.00000E+00         0.86438E+07
 
    0.84020E+07         0.53341E+05         0.00000E+00
    0.53341E+05         0.20251E+08         0.00000E+00
    0.00000E+00         0.00000E+00         0.85960E+07
 
    0.82999E+07         0.17583E+05         0.00000E+00
    0.17583E+05         0.20191E+08         0.00000E+00
    0.00000E+00         0.00000E+00         0.85472E+07
 
    0.12869E+08         0.10135E+05         0.00000E+00
    0.10135E+05         0.29486E+08         0.00000E+00
    0.00000E+00         0.00000E+00         0.12707E+08
 
    0.12809E+08         0.30835E+05         0.00000E+00
    0.30835E+05         0.29451E+08         0.00000E+00
    0.00000E+00         0.00000E+00         0.12678E+08
 
    0.12758E+08         0.51916E+05         0.00000E+00
    0.51916E+05         0.29409E+08         0.00000E+00
    0.00000E+00         0.00000E+00         0.12650E+08
 
    0.12714E+08         0.72378E+05         0.00000E+00
    0.72378E+05         0.29358E+08         0.00000E+00
    0.00000E+00         0.00000E+00         0.12622E+08
 
    0.12673E+08         0.91640E+05         0.00000E+00
    0.91640E+05         0.29301E+08         0.00000E+00
    0.00000E+00         0.00000E+00         0.12592E+08
 
    0.12635E+08         0.10973E+06         0.00000E+00
    0.10973E+06         0.29238E+08         0.00000E+00
    0.00000E+00         0.00000E+00         0.12562E+08
 
    0.12597E+08         0.12683E+06         0.00000E+00
    0.12683E+06         0.29171E+08         0.00000E+00
    0.00000E+00         0.00000E+00         0.12530E+08
 
    0.12561E+08         0.14307E+06         0.00000E+00
    0.14307E+06         0.29100E+08         0.00000E+00
    0.00000E+00         0.00000E+00         0.12498E+08
 
    0.12524E+08         0.15852E+06         0.00000E+00
    0.15852E+06         0.29028E+08         0.00000E+00
    0.00000E+00         0.00000E+00         0.12466E+08
 
    0.12488E+08         0.17322E+06         0.00000E+00
    0.17322E+06         0.28954E+08         0.00000E+00
    0.00000E+00         0.00000E+00         0.12433E+08
 
    0.12452E+08         0.18720E+06         0.00000E+00
    0.18720E+06         0.28878E+08         0.00000E+00
    0.00000E+00         0.00000E+00         0.12399E+08
 
    0.12416E+08         0.20046E+06         0.00000E+00
    0.20046E+06         0.28803E+08         0.00000E+00
    0.00000E+00         0.00000E+00         0.12366E+08
 
    0.12379E+08         0.21303E+06         0.00000E+00
    0.21303E+06         0.28727E+08         0.00000E+00
    0.00000E+00         0.00000E+00         0.12332E+08
 
    0.12343E+08         0.22491E+06         0.00000E+00
    0.22491E+06         0.28650E+08         0.00000E+00
    0.00000E+00         0.00000E+00         0.12298E+08
 
    0.12307E+08         0.23613E+06         0.00000E+00
    0.23613E+06         0.28574E+08         0.00000E+00
    0.00000E+00         0.00000E+00         0.12264E+08
 
    0.12271E+08         0.24671E+06         0.00000E+00
    0.24671E+06         0.28498E+08         0.00000E+00
    0.00000E+00         0.00000E+00         0.12231E+08
 
    0.12235E+08         0.25667E+06         0.00000E+00
    0.25667E+06         0.28421E+08         0.00000E+00
    0.00000E+00         0.00000E+00         0.12197E+08
 
    0.12200E+08         0.26605E+06         0.00000E+00
    0.26605E+06         0.28345E+08         0.00000E+00
    0.00000E+00         0.00000E+00         0.12163E+08
 
    0.12164E+08         0.27489E+06         0.00000E+00
    0.27489E+06         0.28269E+08         0.00000E+00
    0.00000E+00         0.00000E+00         0.12130E+08
 
    0.12129E+08         0.28321E+06         0.00000E+00
    0.28321E+06         0.28192E+08         0.00000E+00
    0.00000E+00         0.00000E+00         0.12096E+08
 
    0.12094E+08         0.29107E+06         0.00000E+00
    0.29107E+06         0.28115E+08         0.00000E+00
    0.00000E+00         0.00000E+00         0.12063E+08
 
    0.12059E+08         0.29848E+06         0.00000E+00
    0.29848E+06         0.28039E+08         0.00000E+00
    0.00000E+00         0.00000E+00         0.12029E+08
 
    0.12024E+08         0.30550E+06         0.00000E+00
    0.30550E+06         0.27962E+08         0.00000E+00
    0.00000E+00         0.00000E+00         0.11996E+08
 
    0.11989E+08         0.31215E+06         0.00000E+00
    0.31215E+06         0.27884E+08         0.00000E+00
    0.00000E+00         0.00000E+00         0.11962E+08
 
    0.11954E+08         0.31846E+06         0.00000E+00
    0.31846E+06         0.27807E+08         0.00000E+00
    0.00000E+00         0.00000E+00         0.11928E+08
 
    0.11919E+08         0.32447E+06         0.00000E+00
    0.32447E+06         0.27729E+08         0.00000E+00
    0.00000E+00         0.00000E+00         0.11894E+08
 
    0.11884E+08         0.33021E+06         0.00000E+00
    0.33021E+06         0.27651E+08         0.00000E+00
    0.00000E+00         0.00000E+00         0.11860E+08
 
    0.11849E+08         0.33570E+06         0.00000E+00
    0.33570E+06         0.27572E+08         0.00000E+00
    0.00000E+00         0.00000E+00         0.11826E+08
 
    0.11814E+08         0.34096E+06         0.00000E+00
    0.34096E+06         0.27493E+08         0.00000E+00
    0.00000E+00         0.00000E+00         0.11792E+08
 
    0.11779E+08         0.34602E+06         0.00000E+00
    0.34602E+06         0.27413E+08         0.00000E+00
    0.00000E+00         0.00000E+00         0.11758E+08
 
    0.11743E+08         0.35090E+06         0.00000E+00
    0.35090E+06         0.27333E+08         0.00000E+00
    0.00000E+00         0.00000E+00         0.11723E+08
 
    0.11708E+08         0.35561E+06         0.00000E+00
    0.35561E+06         0.27252E+08         0.00000E+00
    0.00000E+00         0.00000E+00         0.11688E+08
 
    0.11672E+08         0.36017E+06         0.00000E+00
    0.36017E+06         0.27171E+08         0.00000E+00
    0.00000E+00         0.00000E+00         0.11653E+08
 
    0.11637E+08         0.36460E+06         0.00000E+00
    0.36460E+06         0.27089E+08         0.00000E+00
    0.00000E+00         0.00000E+00         0.11618E+08
 
    0.11601E+08         0.36890E+06         0.00000E+00
    0.36890E+06         0.27007E+08         0.00000E+00
    0.00000E+00         0.00000E+00         0.11582E+08
 
    0.11564E+08         0.37309E+06         0.00000E+00
    0.37309E+06         0.26924E+08         0.00000E+00
    0.00000E+00         0.00000E+00         0.11546E+08
 
    0.11528E+08         0.37718E+06         0.00000E+00
    0.37718E+06         0.26840E+08         0.00000E+00
    0.00000E+00         0.00000E+00         0.11510E+08
 
    0.11491E+08         0.38118E+06         0.00000E+00
    0.38118E+06         0.26755E+08         0.00000E+00
    0.00000E+00         0.00000E+00         0.11474E+08
 
    0.11454E+08         0.38508E+06         0.00000E+00
    0.38508E+06         0.26670E+08         0.00000E+00
    0.00000E+00         0.00000E+00         0.11437E+08
 
    0.11417E+08         0.38890E+06         0.00000E+00
    0.38890E+06         0.26584E+08         0.00000E+00
    0.00000E+00         0.00000E+00         0.11400E+08
 
    0.11380E+08         0.39265E+06         0.00000E+00
    0.39265E+06         0.26498E+08         0.00000E+00
    0.00000E+00         0.00000E+00         0.11363E+08
 
    0.11342E+08         0.39631E+06         0.00000E+00
    0.39631E+06         0.26411E+08         0.00000E+00
    0.00000E+00         0.00000E+00         0.11326E+08
 
    0.11304E+08         0.39991E+06         0.00000E+00
    0.39991E+06         0.26322E+08         0.00000E+00
    0.00000E+00         0.00000E+00         0.11288E+08
 
    0.11265E+08         0.40343E+06         0.00000E+00
    0.40343E+06         0.26234E+08         0.00000E+00
    0.00000E+00         0.00000E+00         0.11250E+08
 
    0.11227E+08         0.40688E+06         0.00000E+00
    0.40688E+06         0.26144E+08         0.00000E+00
    0.00000E+00         0.00000E+00         0.11211E+08
 
    0.11187E+08         0.41026E+06         0.00000E+00
    0.41026E+06         0.26054E+08         0.00000E+00
    0.00000E+00         0.00000E+00         0.11172E+08
 
    0.11148E+08         0.41357E+06         0.00000E+00
    0.41357E+06         0.25963E+08         0.00000E+00
    0.00000E+00         0.00000E+00         0.11133E+08
 
    0.11108E+08         0.41680E+06         0.00000E+00
    0.41680E+06         0.25871E+08         0.00000E+00
    0.00000E+00         0.00000E+00         0.11094E+08
 
    0.11068E+08         0.41996E+06         0.00000E+00
    0.41996E+06         0.25778E+08         0.00000E+00
    0.00000E+00         0.00000E+00         0.11054E+08
 
    0.11027E+08         0.42303E+06         0.00000E+00
    0.42303E+06         0.25684E+08         0.00000E+00
    0.00000E+00         0.00000E+00         0.11014E+08
 
    0.10987E+08         0.42601E+06         0.00000E+00
    0.42601E+06         0.25590E+08         0.00000E+00
    0.00000E+00         0.00000E+00         0.10973E+08
 
    0.10945E+08         0.42891E+06         0.00000E+00
    0.42891E+06         0.25495E+08         0.00000E+00
    0.00000E+00         0.00000E+00         0.10932E+08
 
    0.10903E+08         0.43171E+06         0.00000E+00
    0.43171E+06         0.25399E+08         0.00000E+00
    0.00000E+00         0.00000E+00         0.10891E+08
 
    0.10861E+08         0.43440E+06         0.00000E+00
    0.43440E+06         0.25302E+08         0.00000E+00
    0.00000E+00         0.00000E+00         0.10849E+08
 
    0.10819E+08         0.43698E+06         0.00000E+00
    0.43698E+06         0.25204E+08         0.00000E+00
    0.00000E+00         0.00000E+00         0.10807E+08
 
    0.10776E+08         0.43944E+06         0.00000E+00
    0.43944E+06         0.25106E+08         0.00000E+00
    0.00000E+00         0.00000E+00         0.10764E+08
 
    0.10732E+08         0.44177E+06         0.00000E+00
    0.44177E+06         0.25006E+08         0.00000E+00
    0.00000E+00         0.00000E+00         0.10722E+08
 
    0.10689E+08         0.44396E+06         0.00000E+00
    0.44396E+06         0.24906E+08         0.00000E+00
    0.00000E+00         0.00000E+00         0.10678E+08
 
    0.10644E+08         0.44599E+06         0.00000E+00
    0.44599E+06         0.24805E+08         0.00000E+00
    0.00000E+00         0.00000E+00         0.10635E+08
 
    0.10600E+08         0.44786E+06         0.00000E+00
    0.44786E+06         0.24703E+08         0.00000E+00
    0.00000E+00         0.00000E+00         0.10591E+08
 
    0.10555E+08         0.44955E+06         0.00000E+00
    0.44955E+06         0.24600E+08         0.00000E+00
    0.00000E+00         0.00000E+00         0.10546E+08
 
    0.10509E+08         0.45104E+06         0.00000E+00
    0.45104E+06         0.24497E+08         0.00000E+00
    0.00000E+00         0.00000E+00         0.10502E+08
 
    0.10463E+08         0.45232E+06         0.00000E+00
    0.45232E+06         0.24392E+08         0.00000E+00
    0.00000E+00         0.00000E+00         0.10457E+08
 
    0.10416E+08         0.45337E+06         0.00000E+00
    0.45337E+06         0.24287E+08         0.00000E+00
    0.00000E+00         0.00000E+00         0.10411E+08
 
    0.10369E+08         0.45417E+06         0.00000E+00
    0.45417E+06         0.24181E+08         0.00000E+00
    0.00000E+00         0.00000E+00         0.10365E+08
 
    0.10322E+08         0.45470E+06         0.00000E+00
    0.45470E+06         0.24073E+08         0.00000E+00
    0.00000E+00         0.00000E+00         0.10319E+08
 
    0.10274E+08         0.45493E+06         0.00000E+00
    0.45493E+06         0.23966E+08         0.00000E+00
    0.00000E+00         0.00000E+00         0.10272E+08
 
    0.10225E+08         0.45483E+06         0.00000E+00
    0.45483E+06         0.23857E+08         0.00000E+00
    0.00000E+00         0.00000E+00         0.10225E+08
 
    0.10176E+08         0.45439E+06         0.00000E+00
    0.45439E+06         0.23747E+08         0.00000E+00
    0.00000E+00         0.00000E+00         0.10177E+08
 
    0.10127E+08         0.45356E+06         0.00000E+00
    0.45356E+06         0.23637E+08         0.00000E+00
    0.00000E+00         0.00000E+00         0.10129E+08
 
    0.10077E+08         0.45232E+06         0.00000E+00
    0.45232E+06         0.23526E+08         0.00000E+00
    0.00000E+00         0.00000E+00         0.10081E+08
 
    0.10026E+08         0.45063E+06         0.00000E+00
    0.45063E+06         0.23413E+08         0.00000E+00
    0.00000E+00         0.00000E+00         0.10032E+08
 
    0.99744E+07         0.44844E+06         0.00000E+00
    0.44844E+06         0.23300E+08         0.00000E+00
    0.00000E+00         0.00000E+00         0.99824E+07
 
    0.99224E+07         0.44572E+06         0.00000E+00
    0.44572E+06         0.23187E+08         0.00000E+00
    0.00000E+00         0.00000E+00         0.99327E+07
 
    0.98698E+07         0.44242E+06         0.00000E+00
    0.44242E+06         0.23072E+08         0.00000E+00
    0.00000E+00         0.00000E+00         0.98825E+07
 
    0.98165E+07         0.43849E+06         0.00000E+00
    0.43849E+06         0.22956E+08         0.00000E+00
    0.00000E+00         0.00000E+00         0.98318E+07
 
    0.97626E+07         0.43388E+06         0.00000E+00
    0.43388E+06         0.22840E+08         0.00000E+00
    0.00000E+00         0.00000E+00         0.97806E+07
 
    0.97079E+07         0.42853E+06         0.00000E+00
    0.42853E+06         0.22722E+08         0.00000E+00
    0.00000E+00         0.00000E+00         0.97290E+07
 
    0.96525E+07         0.42238E+06         0.00000E+00
    0.42238E+06         0.22604E+08         0.00000E+00
    0.00000E+00         0.00000E+00         0.96768E+07
 
    0.95964E+07         0.41537E+06         0.00000E+00
    0.41537E+06         0.22484E+08         0.00000E+00
    0.00000E+00         0.00000E+00         0.96242E+07
 
    0.95395E+07         0.40745E+06         0.00000E+00
    0.40745E+06         0.22364E+08         0.00000E+00
    0.00000E+00         0.00000E+00         0.95710E+07
 
    0.94819E+07         0.39854E+06         0.00000E+00
    0.39854E+06         0.22242E+08         0.00000E+00
    0.00000E+00         0.00000E+00         0.95173E+07
 
    0.94236E+07         0.38859E+06         0.00000E+00
    0.38859E+06         0.22120E+08         0.00000E+00
    0.00000E+00         0.00000E+00         0.94630E+07
 
    0.93645E+07         0.37752E+06         0.00000E+00
    0.37752E+06         0.21996E+08         0.00000E+00
    0.00000E+00         0.00000E+00         0.94082E+07
 
    0.93047E+07         0.36529E+06         0.00000E+00
    0.36529E+06         0.21872E+08         0.00000E+00
    0.00000E+00         0.00000E+00         0.93530E+07
 
    0.92442E+07         0.35185E+06         0.00000E+00
    0.35185E+06         0.21746E+08         0.00000E+00
    0.00000E+00         0.00000E+00         0.92972E+07
 
    0.91832E+07         0.33714E+06         0.00000E+00
    0.33714E+06         0.21620E+08         0.00000E+00
    0.00000E+00         0.00000E+00         0.92410E+07
 
    0.91217E+07         0.32112E+06         0.00000E+00
    0.32112E+06         0.21493E+08         0.00000E+00
    0.00000E+00         0.00000E+00         0.91844E+07
 
    0.90597E+07         0.30378E+06         0.00000E+00
    0.30378E+06         0.21366E+08         0.00000E+00
    0.00000E+00         0.00000E+00         0.91276E+07
 
    0.89975E+07         0.28509E+06         0.00000E+00
    0.28509E+06         0.21238E+08         0.00000E+00
    0.00000E+00         0.00000E+00         0.90707E+07
 
    0.89350E+07         0.26504E+06         0.00000E+00
    0.26504E+06         0.21111E+08         0.00000E+00
    0.00000E+00         0.00000E+00         0.90138E+07
 
    0.88722E+07         0.24361E+06         0.00000E+00
    0.24361E+06         0.20985E+08         0.00000E+00
    0.00000E+00         0.00000E+00         0.89572E+07
 
    0.88092E+07         0.22077E+06         0.00000E+00
    0.22077E+06         0.20861E+08         0.00000E+00
    0.00000E+00         0.00000E+00         0.89011E+07
 
    0.87456E+07         0.19648E+06         0.00000E+00
    0.19648E+06         0.20741E+08         0.00000E+00
    0.00000E+00         0.00000E+00         0.88459E+07
 
    0.86810E+07         0.17059E+06         0.00000E+00
    0.17059E+06         0.20625E+08         0.00000E+00
    0.00000E+00         0.00000E+00         0.87919E+07
 
    0.86142E+07         0.14290E+06         0.00000E+00
    0.14290E+06         0.20517E+08         0.00000E+00
    0.00000E+00         0.00000E+00         0.87394E+07
 
    0.85435E+07         0.11313E+06         0.00000E+00
    0.11313E+06         0.20418E+08         0.00000E+00
    0.00000E+00         0.00000E+00         0.86885E+07
 
    0.84658E+07         0.81217E+05         0.00000E+00
    0.81217E+05         0.20331E+08         0.00000E+00
    0.00000E+00         0.00000E+00         0.86392E+07
 
    0.83770E+07         0.48201E+05         0.00000E+00
    0.48201E+05         0.20258E+08         0.00000E+00
    0.00000E+00         0.00000E+00         0.85906E+07
 
    0.82733E+07         0.15820E+05         0.00000E+00
    0.15820E+05         0.20198E+08         0.00000E+00
    0.00000E+00         0.00000E+00         0.85412E+07
 
    0.12885E+08         0.91964E+04         0.00000E+00
    0.91964E+04         0.29482E+08         0.00000E+00
    0.00000E+00         0.00000E+00         0.12710E+08
 
    0.12824E+08         0.28076E+05         0.00000E+00
    0.28076E+05         0.29447E+08         0.00000E+00
    0.00000E+00         0.00000E+00         0.12681E+08
 
    0.12772E+08         0.47614E+05         0.00000E+00
    0.47614E+05         0.29405E+08         0.00000E+00
    0.00000E+00         0.00000E+00         0.12653E+08
 
    0.12726E+08         0.67011E+05         0.00000E+00
    0.67011E+05         0.29354E+08         0.00000E+00
    0.00000E+00         0.00000E+00         0.12624E+08
 
    0.12684E+08         0.85636E+05         0.00000E+00
    0.85636E+05         0.29297E+08         0.00000E+00
    0.00000E+00         0.00000E+00         0.12594E+08
 
    0.12645E+08         0.10336E+06         0.00000E+00
    0.10336E+06         0.29234E+08         0.00000E+00
    0.00000E+00         0.00000E+00         0.12564E+08
 
    0.12607E+08         0.12025E+06         0.00000E+00
    0.12025E+06         0.29167E+08         0.00000E+00
    0.00000E+00         0.00000E+00         0.12532E+08
 
    0.12569E+08         0.13637E+06         0.00000E+00
    0.13637E+06         0.29097E+08         0.00000E+00
    0.00000E+00         0.00000E+00         0.12500E+08
 
    0.12532E+08         0.15175E+06         0.00000E+00
    0.15175E+06         0.29025E+08         0.00000E+00
    0.00000E+00         0.00000E+00         0.12467E+08
 
    0.12495E+08         0.16640E+06         0.00000E+00
    0.16640E+06         0.28951E+08         0.00000E+00
    0.00000E+00         0.00000E+00         0.12434E+08
 
    0.12459E+08         0.18033E+06         0.00000E+00
    0.18033E+06         0.28876E+08         0.00000E+00
    0.00000E+00         0.00000E+00         0.12400E+08
 
    0.12422E+08         0.19354E+06         0.00000E+00
    0.19354E+06         0.28800E+08         0.00000E+00
    0.00000E+00         0.00000E+00         0.12367E+08
 
    0.12385E+08         0.20605E+06         0.00000E+00
    0.20605E+06         0.28724E+08         0.00000E+00
    0.00000E+00         0.00000E+00         0.12333E+08
 
    0.12349E+08         0.21785E+06         0.00000E+00
    0.21785E+06         0.28648E+08         0.00000E+00
    0.00000E+00         0.00000E+00         0.12299E+08
 
    0.12312E+08         0.22898E+06         0.00000E+00
    0.22898E+06         0.28572E+08         0.00000E+00
    0.00000E+00         0.00000E+00         0.12265E+08
 
    0.12276E+08         0.23946E+06         0.00000E+00
    0.23946E+06         0.28496E+08         0.00000E+00
    0.00000E+00         0.00000E+00         0.12232E+08
 
    0.12240E+08         0.24932E+06         0.00000E+00
    0.24932E+06         0.28419E+08         0.00000E+00
    0.00000E+00         0.00000E+00         0.12198E+08
 
    0.12204E+08         0.25860E+06         0.00000E+00
    0.25860E+06         0.28343E+08         0.00000E+00
    0.00000E+00         0.00000E+00         0.12164E+08
 
    0.12168E+08         0.26732E+06         0.00000E+00
    0.26732E+06         0.28267E+08         0.00000E+00
    0.00000E+00         0.00000E+00         0.12131E+08
 
    0.12133E+08         0.27553E+06         0.00000E+00
    0.27553E+06         0.28191E+08         0.00000E+00
    0.00000E+00         0.00000E+00         0.12097E+08
 
    0.12097E+08         0.28327E+06         0.00000E+00
    0.28327E+06         0.28114E+08         0.00000E+00
    0.00000E+00         0.00000E+00         0.12063E+08
 
    0.12062E+08         0.29058E+06         0.00000E+00
    0.29058E+06         0.28037E+08         0.00000E+00
    0.00000E+00         0.00000E+00         0.12030E+08
 
    0.12027E+08         0.29748E+06         0.00000E+00
    0.29748E+06         0.27960E+08         0.00000E+00
    0.00000E+00         0.00000E+00         0.11996E+08
 
    0.11992E+08         0.30402E+06         0.00000E+00
    0.30402E+06         0.27883E+08         0.00000E+00
    0.00000E+00         0.00000E+00         0.11962E+08
 
    0.11957E+08         0.31022E+06         0.00000E+00
    0.31022E+06         0.27806E+08         0.00000E+00
    0.00000E+00         0.00000E+00         0.11929E+08
 
    0.11922E+08         0.31613E+06         0.00000E+00
    0.31613E+06         0.27728E+08         0.00000E+00
    0.00000E+00         0.00000E+00         0.11895E+08
 
    0.11887E+08         0.32176E+06         0.00000E+00
    0.32176E+06         0.27650E+08         0.00000E+00
    0.00000E+00         0.00000E+00         0.11861E+08
 
    0.11852E+08         0.32714E+06         0.00000E+00
    0.32714E+06         0.27571E+08         0.00000E+00
    0.00000E+00         0.00000E+00         0.11827E+08
 
    0.11816E+08         0.33231E+06         0.00000E+00
    0.33231E+06         0.27492E+08         0.00000E+00
    0.00000E+00         0.00000E+00         0.11792E+08
 
    0.11781E+08         0.33727E+06         0.00000E+00
    0.33727E+06         0.27412E+08         0.00000E+00
    0.00000E+00         0.00000E+00         0.11758E+08
 
    0.11746E+08         0.34205E+06         0.00000E+00
    0.34205E+06         0.27332E+08         0.00000E+00
    0.00000E+00         0.00000E+00         0.11723E+08
 
    0.11710E+08         0.34666E+06         0.00000E+00
    0.34666E+06         0.27251E+08         0.00000E+00
    0.00000E+00         0.00000E+00         0.11688E+08
 
    0.11675E+08         0.35113E+06         0.00000E+00
    0.35113E+06         0.27170E+08         0.00000E+00
    0.00000E+00         0.00000E+00         0.11653E+08
 
    0.11639E+08         0.35546E+06         0.00000E+00
    0.35546E+06         0.27088E+08         0.00000E+00
    0.00000E+00         0.00000E+00         0.11618E+08
 
    0.11603E+08         0.35967E+06         0.00000E+00
    0.35967E+06         0.27006E+08         0.00000E+00
    0.00000E+00         0.00000E+00         0.11583E+08
 
    0.11567E+08         0.36377E+06         0.00000E+00
    0.36377E+06         0.26923E+08         0.00000E+00
    0.00000E+00         0.00000E+00         0.11547E+08
 
    0.11530E+08         0.36777E+06         0.00000E+00
    0.36777E+06         0.26839E+08         0.00000E+00
    0.00000E+00         0.00000E+00         0.11511E+08
 
    0.11493E+08         0.37167E+06         0.00000E+00
    0.37167E+06         0.26755E+08         0.00000E+00
    0.00000E+00         0.00000E+00         0.11474E+08
 
    0.11456E+08         0.37548E+06         0.00000E+00
    0.37548E+06         0.26669E+08         0.00000E+00
    0.00000E+00         0.00000E+00         0.11438E+08
 
    0.11419E+08         0.37922E+06         0.00000E+00
    0.37922E+06         0.26584E+08         0.00000E+00
    0.00000E+00         0.00000E+00         0.11401E+08
 
    0.11382E+08         0.38287E+06         0.00000E+00
    0.38287E+06         0.26497E+08         0.00000E+00
    0.00000E+00         0.00000E+00         0.11364E+08
 
    0.11344E+08         0.38645E+06         0.00000E+00
    0.38645E+06         0.26410E+08         0.00000E+00
    0.00000E+00         0.00000E+00         0.11326E+08
 
    0.11306E+08         0.38995E+06         0.00000E+00
    0.38995E+06         0.26322E+08         0.00000E+00
    0.00000E+00         0.00000E+00         0.11288E+08
 
    0.11267E+08         0.39339E+06         0.00000E+00
    0.39339E+06         0.26233E+08         0.00000E+00
    0.00000E+00         0.00000E+00         0.11250E+08
 
    0.11228E+08         0.39675E+06         0.00000E+00
    0.39675E+06         0.26143E+08         0.00000E+00
    0.00000E+00         0.00000E+00         0.11212E+08
 
    0.11189E+08         0.40004E+06         0.00000E+00
    0.40004E+06         0.26053E+08         0.00000E+00
    0.00000E+00         0.00000E+00         0.11173E+08
 
    0.11150E+08         0.40326E+06         0.00000E+00
    0.40326E+06         0.25962E+08         0.00000E+00
    0.00000E+00         0.00000E+00         0.11134E+08
 
    0.11110E+08         0.40641E+06         0.00000E+00
    0.40641E+06         0.25870E+08         0.00000E+00
    0.00000E+00         0.00000E+00         0.11094E+08
 
    0.11070E+08         0.40948E+06         0.00000E+00
    0.40948E+06         0.25777E+08         0.00000E+00
    0.00000E+00         0.00000E+00         0.11054E+08
 
    0.11029E+08         0.41247E+06         0.00000E+00
    0.41247E+06         0.25684E+08         0.00000E+00
    0.00000E+00         0.00000E+00         0.11014E+08
 
    0.10988E+08         0.41537E+06         0.00000E+00
    0.41537E+06         0.25589E+08         0.00000E+00
    0.00000E+00         0.00000E+00         0.10973E+08
 
    0.10947E+08         0.41818E+06         0.00000E+00
    0.41818E+06         0.25494E+08         0.00000E+00
    0.00000E+00         0.00000E+00         0.10932E+08
 
    0.10905E+08         0.42090E+06         0.00000E+00
    0.42090E+06         0.25398E+08         0.00000E+00
    0.00000E+00         0.00000E+00         0.10891E+08
 
    0.10863E+08         0.42351E+06         0.00000E+00
    0.42351E+06         0.25301E+08         0.00000E+00
    0.00000E+00         0.00000E+00         0.10849E+08
 
    0.10820E+08         0.42602E+06         0.00000E+00
    0.42602E+06         0.25204E+08         0.00000E+00
    0.00000E+00         0.00000E+00         0.10807E+08
 
    0.10777E+08         0.42840E+06         0.00000E+00
    0.42840E+06         0.25105E+08         0.00000E+00
    0.00000E+00         0.00000E+00         0.10765E+08
 
    0.10734E+08         0.43066E+06         0.00000E+00
    0.43066E+06         0.25006E+08         0.00000E+00
    0.00000E+00         0.00000E+00         0.10722E+08
 
    0.10690E+08         0.43277E+06         0.00000E+00
    0.43277E+06         0.24906E+08         0.00000E+00
    0.00000E+00         0.00000E+00         0.10679E+08
 
    0.10646E+08         0.43474E+06         0.00000E+00
    0.43474E+06         0.24805E+08         0.00000E+00
    0.00000E+00         0.00000E+00         0.10635E+08
 
    0.10601E+08         0.43654E+06         0.00000E+00
    0.43654E+06         0.24703E+08         0.00000E+00
    0.00000E+00         0.00000E+00         0.10591E+08
 
    0.10556E+08         0.43816E+06         0.00000E+00
    0.43816E+06         0.24600E+08         0.00000E+00
    0.00000E+00         0.00000E+00         0.10547E+08
 
    0.10510E+08         0.43959E+06         0.00000E+00
    0.43959E+06         0.24496E+08         0.00000E+00
    0.00000E+00         0.00000E+00         0.10502E+08
 
    0.10464E+08         0.44081E+06         0.00000E+00
    0.44081E+06         0.24392E+08         0.00000E+00
    0.00000E+00         0.00000E+00         0.10457E+08
 
    0.10417E+08         0.44181E+06         0.00000E+00
    0.44181E+06         0.24287E+08         0.00000E+00
    0.00000E+00         0.00000E+00         0.10411E+08
 
    0.10370E+08         0.44256E+06         0.00000E+00
    0.44256E+06         0.24180E+08         0.00000E+00
    0.00000E+00         0.00000E+00         0.10365E+08
 
    0.10322E+08         0.44304E+06         0.00000E+00
    0.44304E+06         0.24073E+08         0.00000E+00
    0.00000E+00         0.00000E+00         0.10319E+08
 
    0.10274E+08         0.44322E+06         0.00000E+00
    0.44322E+06         0.23966E+08         0.00000E+00
    0.00000E+00         0.00000E+00         0.10272E+08
 
    0.10226E+08         0.44309E+06         0.00000E+00
    0.44309E+06         0.23857E+08         0.00000E+00
    0.00000E+00         0.00000E+00         0.10225E+08
 
    0.10176E+08         0.44261E+06         0.00000E+00
    0.44261E+06         0.23747E+08         0.00000E+00
    0.00000E+00         0.00000E+00         0.10177E+08
 
    0.10126E+08         0.44176E+06         0.00000E+00
    0.44176E+06         0.23637E+08         0.00000E+00
    0.00000E+00         0.00000E+00         0.10129E+08
 
    0.10076E+08         0.44050E+06         0.00000E+00
    0.44050E+06         0.23526E+08         0.00000E+00
    0.00000E+00         0.00000E+00         0.10081E+08
 
    0.10025E+08         0.43879E+06         0.00000E+00
    0.43879E+06         0.23414E+08         0.00000E+00
    0.00000E+00         0.00000E+00         0.10032E+08
 
    0.99735E+07         0.43660E+06         0.00000E+00
    0.43660E+06         0.23301E+08         0.00000E+00
    0.00000E+00         0.00000E+00         0.99823E+07
 
    0.99213E+07         0.43388E+06         0.00000E+00
    0.43388E+06         0.23187E+08         0.00000E+00
    0.00000E+00         0.00000E+00         0.99325E+07
 
    0.98684E+07         0.43059E+06         0.00000E+00
    0.43059E+06         0.23072E+08         0.00000E+00
    0.00000E+00         0.00000E+00         0.98823E+07
 
    0.98148E+07         0.42668E+06         0.00000E+00
    0.42668E+06         0.22957E+08         0.00000E+00
    0.00000E+00         0.00000E+00         0.98315E+07
 
    0.97605E+07         0.42209E+06         0.00000E+00
    0.42209E+06         0.22841E+08         0.00000E+00
    0.00000E+00         0.00000E+00         0.97803E+07
 
    0.97054E+07         0.41677E+06         0.00000E+00
    0.41677E+06         0.22723E+08         0.00000E+00
    0.00000E+00         0.00000E+00         0.97286E+07
 
    0.96497E+07         0.41066E+06         0.00000E+00
    0.41066E+06         0.22605E+08         0.00000E+00
    0.00000E+00         0.00000E+00         0.96764E+07
 
    0.95931E+07         0.40371E+06         0.00000E+00
    0.40371E+06         0.22486E+08         0.00000E+00
    0.00000E+00         0.00000E+00         0.96236E+07
 
    0.95358E+07         0.39583E+06         0.00000E+00
    0.39583E+06         0.22365E+08         0.00000E+00
    0.00000E+00         0.00000E+00         0.95704E+07
 
    0.94777E+07         0.38698E+06         0.00000E+00
    0.38698E+06         0.22244E+08         0.00000E+00
    0.00000E+00         0.00000E+00         0.95166E+07
 
    0.94188E+07         0.37709E+06         0.00000E+00
    0.37709E+06         0.22122E+08         0.00000E+00
    0.00000E+00         0.00000E+00         0.94622E+07
 
    0.93592E+07         0.36608E+06         0.00000E+00
    0.36608E+06         0.21999E+08         0.00000E+00
    0.00000E+00         0.00000E+00         0.94074E+07
 
    0.92988E+07         0.35391E+06         0.00000E+00
    0.35391E+06         0.21874E+08         0.00000E+00
    0.00000E+00         0.00000E+00         0.93520E+07
 
    0.92377E+07         0.34051E+06         0.00000E+00
    0.34051E+06         0.21749E+08         0.00000E+00
    0.00000E+00         0.00000E+00         0.92961E+07
 
    0.91760E+07         0.32584E+06         0.00000E+00
    0.32584E+06         0.21623E+08         0.00000E+00
    0.00000E+00         0.00000E+00         0.92398E+07
 
    0.91137E+07         0.30986E+06         0.00000E+00
    0.30986E+06         0.21496E+08         0.00000E+00
    0.00000E+00         0.00000E+00         0.91831E+07
 
    0.90510E+07         0.29253E+06         0.00000E+00
    0.29253E+06         0.21369E+08         0.00000E+00
    0.00000E+00         0.00000E+00         0.91261E+07
 
    0.89879E+07         0.27385E+06         0.00000E+00
    0.27385E+06         0.21242E+08         0.00000E+00
    0.00000E+00         0.00000E+00         0.90690E+07
 
    0.89245E+07         0.25379E+06         0.00000E+00
    0.25379E+06         0.21115E+08         0.00000E+00
    0.00000E+00         0.00000E+00         0.90119E+07
 
    0.88608E+07         0.23237E+06         0.00000E+00
    0.23237E+06         0.20989E+08         0.00000E+00
    0.00000E+00         0.00000E+00         0.89551E+07
 
    0.87966E+07         0.20959E+06         0.00000E+00
    0.20959E+06         0.20866E+08         0.00000E+00
    0.00000E+00         0.00000E+00         0.88987E+07
 
    0.87317E+07         0.18542E+06         0.00000E+00
    0.18542E+06         0.20746E+08         0.00000E+00
    0.00000E+00         0.00000E+00         0.88432E+07
 
    0.86655E+07         0.15983E+06         0.00000E+00
    0.15983E+06         0.20631E+08         0.00000E+00
    0.00000E+00         0.00000E+00         0.87889E+07
 
    0.85969E+07         0.13272E+06         0.00000E+00
    0.13272E+06         0.20523E+08         0.00000E+00
    0.00000E+00         0.00000E+00         0.87359E+07
 
    0.85240E+07         0.10399E+06         0.00000E+00
    0.10399E+06         0.20424E+08         0.00000E+00
    0.00000E+00         0.00000E+00         0.86845E+07
 
    0.84439E+07         0.73878E+05         0.00000E+00
    0.73878E+05         0.20338E+08         0.00000E+00
    0.00000E+00         0.00000E+00         0.86345E+07
 
    0.83528E+07         0.43487E+05         0.00000E+00
    0.43487E+05         0.20265E+08         0.00000E+00
    0.00000E+00         0.00000E+00         0.85852E+07
 
    0.82477E+07         0.14216E+05         0.00000E+00
    0.14216E+05         0.20204E+08         0.00000E+00
    0.00000E+00         0.00000E+00         0.85354E+07
 
    0.12900E+08         0.83310E+04         0.00000E+00
    0.83310E+04         0.29479E+08         0.00000E+00
    0.00000E+00         0.00000E+00         0.12714E+08
 
    0.12839E+08         0.25519E+05         0.00000E+00
    0.25519E+05         0.29443E+08         0.00000E+00
    0.00000E+00         0.00000E+00         0.12685E+08
 
    0.12785E+08         0.43580E+05         0.00000E+00
    0.43580E+05         0.29401E+08         0.00000E+00
    0.00000E+00         0.00000E+00         0.12656E+08
 
    0.12738E+08         0.61905E+05         0.00000E+00
    0.61905E+05         0.29351E+08         0.00000E+00
    0.00000E+00         0.00000E+00         0.12627E+08
 
    0.12695E+08         0.79853E+05         0.00000E+00
    0.79853E+05         0.29294E+08         0.00000E+00
    0.00000E+00         0.00000E+00         0.12597E+08
 
    0.12655E+08         0.97176E+05         0.00000E+00
    0.97176E+05         0.29231E+08         0.00000E+00
    0.00000E+00         0.00000E+00         0.12566E+08
 
    0.12616E+08         0.11383E+06         0.00000E+00
    0.11383E+06         0.29164E+08         0.00000E+00
    0.00000E+00         0.00000E+00         0.12534E+08
 
    0.12578E+08         0.12981E+06         0.00000E+00
    0.12981E+06         0.29094E+08         0.00000E+00
    0.00000E+00         0.00000E+00         0.12501E+08
 
    0.12540E+08         0.14511E+06         0.00000E+00
    0.14511E+06         0.29022E+08         0.00000E+00
    0.00000E+00         0.00000E+00         0.12469E+08
 
    0.12503E+08         0.15969E+06         0.00000E+00
    0.15969E+06         0.28948E+08         0.00000E+00
    0.00000E+00         0.00000E+00         0.12435E+08
 
    0.12466E+08         0.17356E+06         0.00000E+00
    0.17356E+06         0.28873E+08         0.00000E+00
    0.00000E+00         0.00000E+00         0.12402E+08
 
    0.12428E+08         0.18671E+06         0.00000E+00
    0.18671E+06         0.28798E+08         0.00000E+00
    0.00000E+00         0.00000E+00         0.12368E+08
 
    0.12391E+08         0.19914E+06         0.00000E+00
    0.19914E+06         0.28722E+08         0.00000E+00
    0.00000E+00         0.00000E+00         0.12334E+08
 
    0.12354E+08         0.21086E+06         0.00000E+00
    0.21086E+06         0.28646E+08         0.00000E+00
    0.00000E+00         0.00000E+00         0.12300E+08
 
    0.12318E+08         0.22190E+06         0.00000E+00
    0.22190E+06         0.28570E+08         0.00000E+00
    0.00000E+00         0.00000E+00         0.12266E+08
 
    0.12281E+08         0.23227E+06         0.00000E+00
    0.23227E+06         0.28494E+08         0.00000E+00
    0.00000E+00         0.00000E+00         0.12232E+08
 
    0.12245E+08         0.24203E+06         0.00000E+00
    0.24203E+06         0.28418E+08         0.00000E+00
    0.00000E+00         0.00000E+00         0.12199E+08
 
    0.12209E+08         0.25119E+06         0.00000E+00
    0.25119E+06         0.28341E+08         0.00000E+00
    0.00000E+00         0.00000E+00         0.12165E+08
 
    0.12173E+08         0.25980E+06         0.00000E+00
    0.25980E+06         0.28265E+08         0.00000E+00
    0.00000E+00         0.00000E+00         0.12131E+08
 
    0.12137E+08         0.26790E+06         0.00000E+00
    0.26790E+06         0.28189E+08         0.00000E+00
    0.00000E+00         0.00000E+00         0.12098E+08
 
    0.12101E+08         0.27552E+06         0.00000E+00
    0.27552E+06         0.28112E+08         0.00000E+00
    0.00000E+00         0.00000E+00         0.12064E+08
 
    0.12066E+08         0.28270E+06         0.00000E+00
    0.28270E+06         0.28036E+08         0.00000E+00
    0.00000E+00         0.00000E+00         0.12030E+08
 
    0.12030E+08         0.28949E+06         0.00000E+00
    0.28949E+06         0.27959E+08         0.00000E+00
    0.00000E+00         0.00000E+00         0.11997E+08
 
    0.11995E+08         0.29592E+06         0.00000E+00
    0.29592E+06         0.27882E+08         0.00000E+00
    0.00000E+00         0.00000E+00         0.11963E+08
 
    0.11960E+08         0.30201E+06         0.00000E+00
    0.30201E+06         0.27804E+08         0.00000E+00
    0.00000E+00         0.00000E+00         0.11929E+08
 
    0.11925E+08         0.30781E+06         0.00000E+00
    0.30781E+06         0.27727E+08         0.00000E+00
    0.00000E+00         0.00000E+00         0.11895E+08
 
    0.11889E+08         0.31333E+06         0.00000E+00
    0.31333E+06         0.27648E+08         0.00000E+00
    0.00000E+00         0.00000E+00         0.11861E+08
 
    0.11854E+08         0.31861E+06         0.00000E+00
    0.31861E+06         0.27570E+08         0.00000E+00
    0.00000E+00         0.00000E+00         0.11827E+08
 
    0.11819E+08         0.32367E+06         0.00000E+00
    0.32367E+06         0.27491E+08         0.00000E+00
    0.00000E+00         0.00000E+00         0.11793E+08
 
    0.11784E+08         0.32853E+06         0.00000E+00
    0.32853E+06         0.27411E+08         0.00000E+00
    0.00000E+00         0.00000E+00         0.11758E+08
 
    0.11748E+08         0.33321E+06         0.00000E+00
    0.33321E+06         0.27331E+08         0.00000E+00
    0.00000E+00         0.00000E+00         0.11724E+08
 
    0.11713E+08         0.33772E+06         0.00000E+00
    0.33772E+06         0.27250E+08         0.00000E+00
    0.00000E+00         0.00000E+00         0.11689E+08
 
    0.11677E+08         0.34210E+06         0.00000E+00
    0.34210E+06         0.27169E+08         0.00000E+00
    0.00000E+00         0.00000E+00         0.11654E+08
 
    0.11641E+08         0.34633E+06         0.00000E+00
    0.34633E+06         0.27087E+08         0.00000E+00
    0.00000E+00         0.00000E+00         0.11619E+08
 
    0.11605E+08         0.35045E+06         0.00000E+00
    0.35045E+06         0.27005E+08         0.00000E+00
    0.00000E+00         0.00000E+00         0.11583E+08
 
    0.11569E+08         0.35445E+06         0.00000E+00
    0.35445E+06         0.26922E+08         0.00000E+00
    0.00000E+00         0.00000E+00         0.11547E+08
 
    0.11532E+08         0.35836E+06         0.00000E+00
    0.35836E+06         0.26838E+08         0.00000E+00
    0.00000E+00         0.00000E+00         0.11511E+08
 
    0.11496E+08         0.36217E+06         0.00000E+00
    0.36217E+06         0.26754E+08         0.00000E+00
    0.00000E+00         0.00000E+00         0.11475E+08
 
    0.11459E+08         0.36589E+06         0.00000E+00
    0.36589E+06         0.26669E+08         0.00000E+00
    0.00000E+00         0.00000E+00         0.11438E+08
 
    0.11421E+08         0.36953E+06         0.00000E+00
    0.36953E+06         0.26583E+08         0.00000E+00
    0.00000E+00         0.00000E+00         0.11401E+08
 
    0.11384E+08         0.37310E+06         0.00000E+00
    0.37310E+06         0.26496E+08         0.00000E+00
    0.00000E+00         0.00000E+00         0.11364E+08
 
    0.11346E+08         0.37659E+06         0.00000E+00
    0.37659E+06         0.26409E+08         0.00000E+00
    0.00000E+00         0.00000E+00         0.11326E+08
 
    0.11308E+08         0.38000E+06         0.00000E+00
    0.38000E+06         0.26321E+08         0.00000E+00
    0.00000E+00         0.00000E+00         0.11289E+08
 
    0.11269E+08         0.38335E+06         0.00000E+00
    0.38335E+06         0.26232E+08         0.00000E+00
    0.00000E+00         0.00000E+00         0.11250E+08
 
    0.11230E+08         0.38663E+06         0.00000E+00
    0.38663E+06         0.26143E+08         0.00000E+00
    0.00000E+00         0.00000E+00         0.11212E+08
 
    0.11191E+08         0.38983E+06         0.00000E+00
    0.38983E+06         0.26052E+08         0.00000E+00
    0.00000E+00         0.00000E+00         0.11173E+08
 
    0.11152E+08         0.39297E+06         0.00000E+00
    0.39297E+06         0.25961E+08         0.00000E+00
    0.00000E+00         0.00000E+00         0.11134E+08
 
    0.11112E+08         0.39603E+06         0.00000E+00
    0.39603E+06         0.25869E+08         0.00000E+00
    0.00000E+00         0.00000E+00         0.11094E+08
 
    0.11072E+08         0.39901E+06         0.00000E+00
    0.39901E+06         0.25777E+08         0.00000E+00
    0.00000E+00         0.00000E+00         0.11054E+08
 
    0.11031E+08         0.40192E+06         0.00000E+00
    0.40192E+06         0.25683E+08         0.00000E+00
    0.00000E+00         0.00000E+00         0.11014E+08
 
    0.10990E+08         0.40474E+06         0.00000E+00
    0.40474E+06         0.25589E+08         0.00000E+00
    0.00000E+00         0.00000E+00         0.10974E+08
 
    0.10948E+08         0.40747E+06         0.00000E+00
    0.40747E+06         0.25494E+08         0.00000E+00
    0.00000E+00         0.00000E+00         0.10933E+08
 
    0.10907E+08         0.41010E+06         0.00000E+00
    0.41010E+06         0.25398E+08         0.00000E+00
    0.00000E+00         0.00000E+00         0.10891E+08
 
    0.10864E+08         0.41264E+06         0.00000E+00
    0.41264E+06         0.25301E+08         0.00000E+00
    0.00000E+00         0.00000E+00         0.10850E+08
 
    0.10822E+08         0.41507E+06         0.00000E+00
    0.41507E+06         0.25203E+08         0.00000E+00
    0.00000E+00         0.00000E+00         0.10808E+08
 
    0.10779E+08         0.41737E+06         0.00000E+00
    0.41737E+06         0.25105E+08         0.00000E+00
    0.00000E+00         0.00000E+00         0.10765E+08
 
    0.10735E+08         0.41956E+06         0.00000E+00
    0.41956E+06         0.25005E+08         0.00000E+00
    0.00000E+00         0.00000E+00         0.10722E+08
 
    0.10691E+08         0.42160E+06         0.00000E+00
    0.42160E+06         0.24905E+08         0.00000E+00
    0.00000E+00         0.00000E+00         0.10679E+08
 
    0.10647E+08         0.42350E+06         0.00000E+00
    0.42350E+06         0.24804E+08         0.00000E+00
    0.00000E+00         0.00000E+00         0.10635E+08
 
    0.10602E+08         0.42523E+06         0.00000E+00
    0.42523E+06         0.24702E+08         0.00000E+00
    0.00000E+00         0.00000E+00         0.10591E+08
 
    0.10557E+08         0.42679E+06         0.00000E+00
    0.42679E+06         0.24600E+08         0.00000E+00
    0.00000E+00         0.00000E+00         0.10547E+08
 
    0.10511E+08         0.42816E+06         0.00000E+00
    0.42816E+06         0.24496E+08         0.00000E+00
    0.00000E+00         0.00000E+00         0.10502E+08
 
    0.10465E+08         0.42933E+06         0.00000E+00
    0.42933E+06         0.24392E+08         0.00000E+00
    0.00000E+00         0.00000E+00         0.10457E+08
 
    0.10418E+08         0.43027E+06         0.00000E+00
    0.43027E+06         0.24286E+08         0.00000E+00
    0.00000E+00         0.00000E+00         0.10411E+08
 
    0.10371E+08         0.43097E+06         0.00000E+00
    0.43097E+06         0.24180E+08         0.00000E+00
    0.00000E+00         0.00000E+00         0.10365E+08
 
    0.10323E+08         0.43140E+06         0.00000E+00
    0.43140E+06         0.24073E+08         0.00000E+00
    0.00000E+00         0.00000E+00         0.10319E+08
 
    0.10275E+08         0.43155E+06         0.00000E+00
    0.43155E+06         0.23966E+08         0.00000E+00
    0.00000E+00         0.00000E+00         0.10272E+08
 
    0.10226E+08         0.43138E+06         0.00000E+00
    0.43138E+06         0.23857E+08         0.00000E+00
    0.00000E+00         0.00000E+00         0.10225E+08
 
    0.10176E+08         0.43088E+06         0.00000E+00
    0.43088E+06         0.23748E+08         0.00000E+00
    0.00000E+00         0.00000E+00         0.10177E+08
 
    0.10126E+08         0.43000E+06         0.00000E+00
    0.43000E+06         0.23637E+08         0.00000E+00
    0.00000E+00         0.00000E+00         0.10129E+08
 
    0.10076E+08         0.42872E+06         0.00000E+00
    0.42872E+06         0.23526E+08         0.00000E+00
    0.00000E+00         0.00000E+00         0.10081E+08
 
    0.10024E+08         0.42701E+06         0.00000E+00
    0.42701E+06         0.23414E+08         0.00000E+00
    0.00000E+00         0.00000E+00         0.10032E+08
 
    0.99726E+07         0.42481E+06         0.00000E+00
    0.42481E+06         0.23301E+08         0.00000E+00
    0.00000E+00         0.00000E+00         0.99822E+07
 
    0.99201E+07         0.42210E+06         0.00000E+00
    0.42210E+06         0.23188E+08         0.00000E+00
    0.00000E+00         0.00000E+00         0.99324E+07
 
    0.98669E+07         0.41882E+06         0.00000E+00
    0.41882E+06         0.23073E+08         0.00000E+00
    0.00000E+00         0.00000E+00         0.98820E+07
 
    0.98130E+07         0.41493E+06         0.00000E+00
    0.41493E+06         0.22958E+08         0.00000E+00
    0.00000E+00         0.00000E+00         0.98312E+07
 
    0.97584E+07         0.41037E+06         0.00000E+00
    0.41037E+06         0.22842E+08         0.00000E+00
    0.00000E+00         0.00000E+00         0.97800E+07
 
    0.97030E+07         0.40509E+06         0.00000E+00
    0.40509E+06         0.22724E+08         0.00000E+00
    0.00000E+00         0.00000E+00         0.97282E+07
 
    0.96468E+07         0.39903E+06         0.00000E+00
    0.39903E+06         0.22606E+08         0.00000E+00
    0.00000E+00         0.00000E+00         0.96759E+07
 
    0.95899E+07         0.39212E+06         0.00000E+00
    0.39212E+06         0.22487E+08         0.00000E+00
    0.00000E+00         0.00000E+00         0.96231E+07
 
    0.95321E+07         0.38431E+06         0.00000E+00
    0.38431E+06         0.22367E+08         0.00000E+00
    0.00000E+00         0.00000E+00         0.95698E+07
 
    0.94735E+07         0.37553E+06         0.00000E+00
    0.37553E+06         0.22246E+08         0.00000E+00
    0.00000E+00         0.00000E+00         0.95159E+07
 
    0.94141E+07         0.36570E+06         0.00000E+00
    0.36570E+06         0.22124E+08         0.00000E+00
    0.00000E+00         0.00000E+00         0.94614E+07
 
    0.93539E+07         0.35476E+06         0.00000E+00
    0.35476E+06         0.22001E+08         0.00000E+00
    0.00000E+00         0.00000E+00         0.94065E+07
 
    0.92929E+07         0.34265E+06         0.00000E+00
    0.34265E+06         0.21877E+08         0.00000E+00
    0.00000E+00         0.00000E+00         0.93510E+07
 
    0.92312E+07         0.32931E+06         0.00000E+00
    0.32931E+06         0.21752E+08         0.00000E+00
    0.00000E+00         0.00000E+00         0.92950E+07
 
    0.91688E+07         0.31469E+06         0.00000E+00
    0.31469E+06         0.21626E+08         0.00000E+00
    0.00000E+00         0.00000E+00         0.92385E+07
 
    0.91058E+07         0.29875E+06         0.00000E+00
    0.29875E+06         0.21500E+08         0.00000E+00
    0.00000E+00         0.00000E+00         0.91817E+07
 
    0.90423E+07         0.28145E+06         0.00000E+00
    0.28145E+06         0.21373E+08         0.00000E+00
    0.00000E+00         0.00000E+00         0.91245E+07
 
    0.89783E+07         0.26278E+06         0.00000E+00
    0.26278E+06         0.21246E+08         0.00000E+00
    0.00000E+00         0.00000E+00         0.90673E+07
 
    0.89140E+07         0.24274E+06         0.00000E+00
    0.24274E+06         0.21119E+08         0.00000E+00
    0.00000E+00         0.00000E+00         0.90100E+07
 
    0.88492E+07         0.22135E+06         0.00000E+00
    0.22135E+06         0.20994E+08         0.00000E+00
    0.00000E+00         0.00000E+00         0.89529E+07
 
    0.87839E+07         0.19864E+06         0.00000E+00
    0.19864E+06         0.20871E+08         0.00000E+00
    0.00000E+00         0.00000E+00         0.88963E+07
 
    0.87177E+07         0.17464E+06         0.00000E+00
    0.17464E+06         0.20751E+08         0.00000E+00
    0.00000E+00         0.00000E+00         0.88405E+07
 
    0.86500E+07         0.14940E+06         0.00000E+00
    0.14940E+06         0.20636E+08         0.00000E+00
    0.00000E+00         0.00000E+00         0.87858E+07
 
    0.85796E+07         0.12292E+06         0.00000E+00
    0.12292E+06         0.20528E+08         0.00000E+00
    0.00000E+00         0.00000E+00         0.87323E+07
 
    0.85046E+07         0.95314E+05         0.00000E+00
    0.95314E+05         0.20430E+08         0.00000E+00
    0.00000E+00         0.00000E+00         0.86804E+07
 
    0.84223E+07         0.67008E+05         0.00000E+00
    0.67008E+05         0.20344E+08         0.00000E+00
    0.00000E+00         0.00000E+00         0.86298E+07
 
    0.83293E+07         0.39126E+05         0.00000E+00
    0.39126E+05         0.20270E+08         0.00000E+00
    0.00000E+00         0.00000E+00         0.85799E+07
 
    0.82230E+07         0.12740E+05         0.00000E+00
    0.12740E+05         0.20209E+08         0.00000E+00
    0.00000E+00         0.00000E+00         0.85296E+07
 
    0.12915E+08         0.75251E+04         0.00000E+00
    0.75251E+04         0.29476E+08         0.00000E+00
    0.00000E+00         0.00000E+00         0.12717E+08
 
    0.12853E+08         0.23130E+05         0.00000E+00
    0.23130E+05         0.29440E+08         0.00000E+00
    0.00000E+00         0.00000E+00         0.12688E+08
 
    0.12799E+08         0.39780E+05         0.00000E+00
    0.39780E+05         0.29397E+08         0.00000E+00
    0.00000E+00         0.00000E+00         0.12659E+08
 
    0.12750E+08         0.57036E+05         0.00000E+00
    0.57036E+05         0.29347E+08         0.00000E+00
    0.00000E+00         0.00000E+00         0.12629E+08
 
    0.12706E+08         0.74281E+05         0.00000E+00
    0.74281E+05         0.29290E+08         0.00000E+00
    0.00000E+00         0.00000E+00         0.12599E+08
 
    0.12665E+08         0.91171E+05         0.00000E+00
    0.91171E+05         0.29228E+08         0.00000E+00
    0.00000E+00         0.00000E+00         0.12568E+08
 
    0.12625E+08         0.10757E+06         0.00000E+00
    0.10757E+06         0.29161E+08         0.00000E+00
    0.00000E+00         0.00000E+00         0.12536E+08
 
    0.12586E+08         0.12339E+06         0.00000E+00
    0.12339E+06         0.29091E+08         0.00000E+00
    0.00000E+00         0.00000E+00         0.12503E+08
 
    0.12548E+08         0.13858E+06         0.00000E+00
    0.13858E+06         0.29019E+08         0.00000E+00
    0.00000E+00         0.00000E+00         0.12470E+08
 
    0.12510E+08         0.15309E+06         0.00000E+00
    0.15309E+06         0.28945E+08         0.00000E+00
    0.00000E+00         0.00000E+00         0.12437E+08
 
    0.12472E+08         0.16689E+06         0.00000E+00
    0.16689E+06         0.28870E+08         0.00000E+00
    0.00000E+00         0.00000E+00         0.12403E+08
 
    0.12435E+08         0.17996E+06         0.00000E+00
    0.17996E+06         0.28795E+08         0.00000E+00
    0.00000E+00         0.00000E+00         0.12369E+08
 
    0.12397E+08         0.19231E+06         0.00000E+00
    0.19231E+06         0.28719E+08         0.00000E+00
    0.00000E+00         0.00000E+00         0.12335E+08
 
    0.12360E+08         0.20394E+06         0.00000E+00
    0.20394E+06         0.28644E+08         0.00000E+00
    0.00000E+00         0.00000E+00         0.12301E+08
 
    0.12323E+08         0.21488E+06         0.00000E+00
    0.21488E+06         0.28568E+08         0.00000E+00
    0.00000E+00         0.00000E+00         0.12267E+08
 
    0.12286E+08         0.22515E+06         0.00000E+00
    0.22515E+06         0.28492E+08         0.00000E+00
    0.00000E+00         0.00000E+00         0.12233E+08
 
    0.12249E+08         0.23479E+06         0.00000E+00
    0.23479E+06         0.28416E+08         0.00000E+00
    0.00000E+00         0.00000E+00         0.12200E+08
 
    0.12213E+08         0.24383E+06         0.00000E+00
    0.24383E+06         0.28340E+08         0.00000E+00
    0.00000E+00         0.00000E+00         0.12166E+08
 
    0.12177E+08         0.25232E+06         0.00000E+00
    0.25232E+06         0.28264E+08         0.00000E+00
    0.00000E+00         0.00000E+00         0.12132E+08
 
    0.12141E+08         0.26030E+06         0.00000E+00
    0.26030E+06         0.28187E+08         0.00000E+00
    0.00000E+00         0.00000E+00         0.12098E+08
 
    0.12105E+08         0.26780E+06         0.00000E+00
    0.26780E+06         0.28111E+08         0.00000E+00
    0.00000E+00         0.00000E+00         0.12065E+08
 
    0.12069E+08         0.27487E+06         0.00000E+00
    0.27487E+06         0.28034E+08         0.00000E+00
    0.00000E+00         0.00000E+00         0.12031E+08
 
    0.12034E+08         0.28154E+06         0.00000E+00
    0.28154E+06         0.27958E+08         0.00000E+00
    0.00000E+00         0.00000E+00         0.11997E+08
 
    0.11998E+08         0.28785E+06         0.00000E+00
    0.28785E+06         0.27881E+08         0.00000E+00
    0.00000E+00         0.00000E+00         0.11964E+08
 
    0.11963E+08         0.29383E+06         0.00000E+00
    0.29383E+06         0.27803E+08         0.00000E+00
    0.00000E+00         0.00000E+00         0.11930E+08
 
    0.11927E+08         0.29951E+06         0.00000E+00
    0.29951E+06         0.27726E+08         0.00000E+00
    0.00000E+00         0.00000E+00         0.11896E+08
 
    0.11892E+08         0.30492E+06         0.00000E+00
    0.30492E+06         0.27647E+08         0.00000E+00
    0.00000E+00         0.00000E+00         0.11862E+08
 
    0.11857E+08         0.31010E+06         0.00000E+00
    0.31010E+06         0.27569E+08         0.00000E+00
    0.00000E+00         0.00000E+00         0.11828E+08
 
    0.11822E+08         0.31505E+06         0.00000E+00
    0.31505E+06         0.27490E+08         0.00000E+00
    0.00000E+00         0.00000E+00         0.11793E+08
 
    0.11786E+08         0.31981E+06         0.00000E+00
    0.31981E+06         0.27410E+08         0.00000E+00
    0.00000E+00         0.00000E+00         0.11759E+08
 
    0.11751E+08         0.32438E+06         0.00000E+00
    0.32438E+06         0.27330E+08         0.00000E+00
    0.00000E+00         0.00000E+00         0.11724E+08
 
    0.11715E+08         0.32880E+06         0.00000E+00
    0.32880E+06         0.27250E+08         0.00000E+00
    0.00000E+00         0.00000E+00         0.11689E+08
 
    0.11679E+08         0.33307E+06         0.00000E+00
    0.33307E+06         0.27168E+08         0.00000E+00
    0.00000E+00         0.00000E+00         0.11654E+08
 
    0.11643E+08         0.33721E+06         0.00000E+00
    0.33721E+06         0.27087E+08         0.00000E+00
    0.00000E+00         0.00000E+00         0.11619E+08
 
    0.11607E+08         0.34124E+06         0.00000E+00
    0.34124E+06         0.27004E+08         0.00000E+00
    0.00000E+00         0.00000E+00         0.11583E+08
 
    0.11571E+08         0.34515E+06         0.00000E+00
    0.34515E+06         0.26921E+08         0.00000E+00
    0.00000E+00         0.00000E+00         0.11548E+08
 
    0.11534E+08         0.34896E+06         0.00000E+00
    0.34896E+06         0.26837E+08         0.00000E+00
    0.00000E+00         0.00000E+00         0.11512E+08
 
    0.11498E+08         0.35268E+06         0.00000E+00
    0.35268E+06         0.26753E+08         0.00000E+00
    0.00000E+00         0.00000E+00         0.11475E+08
 
    0.11461E+08         0.35631E+06         0.00000E+00
    0.35631E+06         0.26668E+08         0.00000E+00
    0.00000E+00         0.00000E+00         0.11439E+08
 
    0.11423E+08         0.35986E+06         0.00000E+00
    0.35986E+06         0.26582E+08         0.00000E+00
    0.00000E+00         0.00000E+00         0.11402E+08
 
    0.11386E+08         0.36333E+06         0.00000E+00
    0.36333E+06         0.26496E+08         0.00000E+00
    0.00000E+00         0.00000E+00         0.11364E+08
 
    0.11348E+08         0.36673E+06         0.00000E+00
    0.36673E+06         0.26408E+08         0.00000E+00
    0.00000E+00         0.00000E+00         0.11327E+08
 
    0.11310E+08         0.37006E+06         0.00000E+00
    0.37006E+06         0.26320E+08         0.00000E+00
    0.00000E+00         0.00000E+00         0.11289E+08
 
    0.11271E+08         0.37332E+06         0.00000E+00
    0.37332E+06         0.26232E+08         0.00000E+00
    0.00000E+00         0.00000E+00         0.11251E+08
 
    0.11232E+08         0.37651E+06         0.00000E+00
    0.37651E+06         0.26142E+08         0.00000E+00
    0.00000E+00         0.00000E+00         0.11212E+08
 
    0.11193E+08         0.37963E+06         0.00000E+00
    0.37963E+06         0.26052E+08         0.00000E+00
    0.00000E+00         0.00000E+00         0.11173E+08
 
    0.11153E+08         0.38267E+06         0.00000E+00
    0.38267E+06         0.25961E+08         0.00000E+00
    0.00000E+00         0.00000E+00         0.11134E+08
 
    0.11114E+08         0.38565E+06         0.00000E+00
    0.38565E+06         0.25869E+08         0.00000E+00
    0.00000E+00         0.00000E+00         0.11095E+08
 
    0.11073E+08         0.38855E+06         0.00000E+00
    0.38855E+06         0.25776E+08         0.00000E+00
    0.00000E+00         0.00000E+00         0.11055E+08
 
    0.11033E+08         0.39137E+06         0.00000E+00
    0.39137E+06         0.25683E+08         0.00000E+00
    0.00000E+00         0.00000E+00         0.11015E+08
 
    0.10992E+08         0.39411E+06         0.00000E+00
    0.39411E+06         0.25588E+08         0.00000E+00
    0.00000E+00         0.00000E+00         0.10974E+08
 
    0.10950E+08         0.39676E+06         0.00000E+00
    0.39676E+06         0.25493E+08         0.00000E+00
    0.00000E+00         0.00000E+00         0.10933E+08
 
    0.10908E+08         0.39932E+06         0.00000E+00
    0.39932E+06         0.25397E+08         0.00000E+00
    0.00000E+00         0.00000E+00         0.10892E+08
 
    0.10866E+08         0.40178E+06         0.00000E+00
    0.40178E+06         0.25300E+08         0.00000E+00
    0.00000E+00         0.00000E+00         0.10850E+08
 
    0.10823E+08         0.40413E+06         0.00000E+00
    0.40413E+06         0.25203E+08         0.00000E+00
    0.00000E+00         0.00000E+00         0.10808E+08
 
    0.10780E+08         0.40636E+06         0.00000E+00
    0.40636E+06         0.25104E+08         0.00000E+00
    0.00000E+00         0.00000E+00         0.10765E+08
 
    0.10737E+08         0.40847E+06         0.00000E+00
    0.40847E+06         0.25005E+08         0.00000E+00
    0.00000E+00         0.00000E+00         0.10722E+08
 
    0.10693E+08         0.41044E+06         0.00000E+00
    0.41044E+06         0.24905E+08         0.00000E+00
    0.00000E+00         0.00000E+00         0.10679E+08
 
    0.10648E+08         0.41227E+06         0.00000E+00
    0.41227E+06         0.24804E+08         0.00000E+00
    0.00000E+00         0.00000E+00         0.10636E+08
 
    0.10603E+08         0.41394E+06         0.00000E+00
    0.41394E+06         0.24702E+08         0.00000E+00
    0.00000E+00         0.00000E+00         0.10592E+08
 
    0.10558E+08         0.41544E+06         0.00000E+00
    0.41544E+06         0.24599E+08         0.00000E+00
    0.00000E+00         0.00000E+00         0.10547E+08
 
    0.10512E+08         0.41675E+06         0.00000E+00
    0.41675E+06         0.24496E+08         0.00000E+00
    0.00000E+00         0.00000E+00         0.10502E+08
 
    0.10465E+08         0.41786E+06         0.00000E+00
    0.41786E+06         0.24391E+08         0.00000E+00
    0.00000E+00         0.00000E+00         0.10457E+08
 
    0.10419E+08         0.41875E+06         0.00000E+00
    0.41875E+06         0.24286E+08         0.00000E+00
    0.00000E+00         0.00000E+00         0.10411E+08
 
    0.10371E+08         0.41941E+06         0.00000E+00
    0.41941E+06         0.24180E+08         0.00000E+00
    0.00000E+00         0.00000E+00         0.10365E+08
 
    0.10323E+08         0.41980E+06         0.00000E+00
    0.41980E+06         0.24073E+08         0.00000E+00
    0.00000E+00         0.00000E+00         0.10319E+08
 
    0.10275E+08         0.41991E+06         0.00000E+00
    0.41991E+06         0.23966E+08         0.00000E+00
    0.00000E+00         0.00000E+00         0.10272E+08
 
    0.10226E+08         0.41971E+06         0.00000E+00
    0.41971E+06         0.23857E+08         0.00000E+00
    0.00000E+00         0.00000E+00         0.10225E+08
 
    0.10176E+08         0.41918E+06         0.00000E+00
    0.41918E+06         0.23748E+08         0.00000E+00
    0.00000E+00         0.00000E+00         0.10177E+08
 
    0.10126E+08         0.41828E+06         0.00000E+00
    0.41828E+06         0.23637E+08         0.00000E+00
    0.00000E+00         0.00000E+00         0.10129E+08
 
    0.10075E+08         0.41699E+06         0.00000E+00
    0.41699E+06         0.23526E+08         0.00000E+00
    0.00000E+00         0.00000E+00         0.10081E+08
 
    0.10024E+08         0.41526E+06         0.00000E+00
    0.41526E+06         0.23415E+08         0.00000E+00
    0.00000E+00         0.00000E+00         0.10032E+08
 
    0.99717E+07         0.41307E+06         0.00000E+00
    0.41307E+06         0.23302E+08         0.00000E+00
    0.00000E+00         0.00000E+00         0.99821E+07
 
    0.99190E+07         0.41037E+06         0.00000E+00
    0.41037E+06         0.23188E+08         0.00000E+00
    0.00000E+00         0.00000E+00         0.99322E+07
 
    0.98655E+07         0.40711E+06         0.00000E+00
    0.40711E+06         0.23074E+08         0.00000E+00
    0.00000E+00         0.00000E+00         0.98818E+07
 
    0.98113E+07         0.40324E+06         0.00000E+00
    0.40324E+06         0.22959E+08         0.00000E+00
    0.00000E+00         0.00000E+00         0.98310E+07
 
    0.97564E+07         0.39872E+06         0.00000E+00
    0.39872E+06         0.22842E+08         0.00000E+00
    0.00000E+00         0.00000E+00         0.97797E+07
 
    0.97006E+07         0.39348E+06         0.00000E+00
    0.39348E+06         0.22725E+08         0.00000E+00
    0.00000E+00         0.00000E+00         0.97278E+07
 
    0.96441E+07         0.38747E+06         0.00000E+00
    0.38747E+06         0.22607E+08         0.00000E+00
    0.00000E+00         0.00000E+00         0.96755E+07
 
    0.95867E+07         0.38063E+06         0.00000E+00
    0.38063E+06         0.22489E+08         0.00000E+00
    0.00000E+00         0.00000E+00         0.96226E+07
 
    0.95285E+07         0.37288E+06         0.00000E+00
    0.37288E+06         0.22369E+08         0.00000E+00
    0.00000E+00         0.00000E+00         0.95692E+07
 
    0.94694E+07         0.36417E+06         0.00000E+00
    0.36417E+06         0.22248E+08         0.00000E+00
    0.00000E+00         0.00000E+00         0.95152E+07
 
    0.94095E+07         0.35441E+06         0.00000E+00
    0.35441E+06         0.22126E+08         0.00000E+00
    0.00000E+00         0.00000E+00         0.94607E+07
 
    0.93487E+07         0.34355E+06         0.00000E+00
    0.34355E+06         0.22003E+08         0.00000E+00
    0.00000E+00         0.00000E+00         0.94056E+07
 
    0.92871E+07         0.33152E+06         0.00000E+00
    0.33152E+06         0.21880E+08         0.00000E+00
    0.00000E+00         0.00000E+00         0.93500E+07
 
    0.92248E+07         0.31825E+06         0.00000E+00
    0.31825E+06         0.21755E+08         0.00000E+00
    0.00000E+00         0.00000E+00         0.92939E+07
 
    0.91617E+07         0.30369E+06         0.00000E+00
    0.30369E+06         0.21629E+08         0.00000E+00
    0.00000E+00         0.00000E+00         0.92373E+07
 
    0.90979E+07         0.28779E+06         0.00000E+00
    0.28779E+06         0.21503E+08         0.00000E+00
    0.00000E+00         0.00000E+00         0.91803E+07
 
    0.90336E+07         0.27054E+06         0.00000E+00
    0.27054E+06         0.21376E+08         0.00000E+00
    0.00000E+00         0.00000E+00         0.91230E+07
 
    0.89688E+07         0.25190E+06         0.00000E+00
    0.25190E+06         0.21250E+08         0.00000E+00
    0.00000E+00         0.00000E+00         0.90655E+07
 
    0.89034E+07         0.23189E+06         0.00000E+00
    0.23189E+06         0.21123E+08         0.00000E+00
    0.00000E+00         0.00000E+00         0.90081E+07
 
    0.88376E+07         0.21056E+06         0.00000E+00
    0.21056E+06         0.20998E+08         0.00000E+00
    0.00000E+00         0.00000E+00         0.89508E+07
 
    0.87711E+07         0.18795E+06         0.00000E+00
    0.18795E+06         0.20875E+08         0.00000E+00
    0.00000E+00         0.00000E+00         0.88939E+07
 
    0.87036E+07         0.16415E+06         0.00000E+00
    0.16415E+06         0.20756E+08         0.00000E+00
    0.00000E+00         0.00000E+00         0.88378E+07
 
    0.86343E+07         0.13929E+06         0.00000E+00
    0.13929E+06         0.20641E+08         0.00000E+00
    0.00000E+00         0.00000E+00         0.87826E+07
 
    0.85622E+07         0.11351E+06         0.00000E+00
    0.11351E+06         0.20534E+08         0.00000E+00
    0.00000E+00         0.00000E+00         0.87287E+07
 
    0.84853E+07         0.87058E+05         0.00000E+00
    0.87058E+05         0.20435E+08         0.00000E+00
    0.00000E+00         0.00000E+00         0.86762E+07
 
    0.84010E+07         0.60548E+05         0.00000E+00
    0.60548E+05         0.20349E+08         0.00000E+00
    0.00000E+00         0.00000E+00         0.86250E+07
 
    0.83063E+07         0.35061E+05         0.00000E+00
    0.35061E+05         0.20275E+08         0.00000E+00
    0.00000E+00         0.00000E+00         0.85745E+07
 
    0.81991E+07         0.11368E+05         0.00000E+00
    0.11368E+05         0.20214E+08         0.00000E+00
    0.00000E+00         0.00000E+00         0.85239E+07
 
    0.12929E+08         0.67684E+04         0.00000E+00
    0.67684E+04         0.29473E+08         0.00000E+00
    0.00000E+00         0.00000E+00         0.12721E+08
 
    0.12867E+08         0.20883E+05         0.00000E+00
    0.20883E+05         0.29437E+08         0.00000E+00
    0.00000E+00         0.00000E+00         0.12691E+08
 
    0.12812E+08         0.36184E+05         0.00000E+00
    0.36184E+05         0.29394E+08         0.00000E+00
    0.00000E+00         0.00000E+00         0.12662E+08
 
    0.12762E+08         0.52387E+05         0.00000E+00
    0.52387E+05         0.29344E+08         0.00000E+00
    0.00000E+00         0.00000E+00         0.12632E+08
 
    0.12717E+08         0.68912E+05         0.00000E+00
    0.68912E+05         0.29287E+08         0.00000E+00
    0.00000E+00         0.00000E+00         0.12601E+08
 
    0.12675E+08         0.85345E+05         0.00000E+00
    0.85345E+05         0.29224E+08         0.00000E+00
    0.00000E+00         0.00000E+00         0.12570E+08
 
    0.12634E+08         0.10146E+06         0.00000E+00
    0.10146E+06         0.29158E+08         0.00000E+00
    0.00000E+00         0.00000E+00         0.12538E+08
 
    0.12595E+08         0.11710E+06         0.00000E+00
    0.11710E+06         0.29088E+08         0.00000E+00
    0.00000E+00         0.00000E+00         0.12505E+08
 
    0.12556E+08         0.13217E+06         0.00000E+00
    0.13217E+06         0.29016E+08         0.00000E+00
    0.00000E+00         0.00000E+00         0.12471E+08
 
    0.12517E+08         0.14659E+06         0.00000E+00
    0.14659E+06         0.28942E+08         0.00000E+00
    0.00000E+00         0.00000E+00         0.12438E+08
 
    0.12479E+08         0.16031E+06         0.00000E+00
    0.16031E+06         0.28868E+08         0.00000E+00
    0.00000E+00         0.00000E+00         0.12404E+08
 
    0.12441E+08         0.17330E+06         0.00000E+00
    0.17330E+06         0.28792E+08         0.00000E+00
    0.00000E+00         0.00000E+00         0.12370E+08
 
    0.12403E+08         0.18556E+06         0.00000E+00
    0.18556E+06         0.28717E+08         0.00000E+00
    0.00000E+00         0.00000E+00         0.12336E+08
 
    0.12365E+08         0.19709E+06         0.00000E+00
    0.19709E+06         0.28641E+08         0.00000E+00
    0.00000E+00         0.00000E+00         0.12302E+08
 
    0.12328E+08         0.20792E+06         0.00000E+00
    0.20792E+06         0.28566E+08         0.00000E+00
    0.00000E+00         0.00000E+00         0.12268E+08
 
    0.12291E+08         0.21808E+06         0.00000E+00
    0.21808E+06         0.28490E+08         0.00000E+00
    0.00000E+00         0.00000E+00         0.12234E+08
 
    0.12254E+08         0.22760E+06         0.00000E+00
    0.22760E+06         0.28414E+08         0.00000E+00
    0.00000E+00         0.00000E+00         0.12200E+08
 
    0.12217E+08         0.23653E+06         0.00000E+00
    0.23653E+06         0.28338E+08         0.00000E+00
    0.00000E+00         0.00000E+00         0.12167E+08
 
    0.12181E+08         0.24489E+06         0.00000E+00
    0.24489E+06         0.28262E+08         0.00000E+00
    0.00000E+00         0.00000E+00         0.12133E+08
 
    0.12144E+08         0.25275E+06         0.00000E+00
    0.25275E+06         0.28186E+08         0.00000E+00
    0.00000E+00         0.00000E+00         0.12099E+08
 
    0.12108E+08         0.26012E+06         0.00000E+00
    0.26012E+06         0.28110E+08         0.00000E+00
    0.00000E+00         0.00000E+00         0.12065E+08
 
    0.12073E+08         0.26707E+06         0.00000E+00
    0.26707E+06         0.28033E+08         0.00000E+00
    0.00000E+00         0.00000E+00         0.12032E+08
 
    0.12037E+08         0.27361E+06         0.00000E+00
    0.27361E+06         0.27956E+08         0.00000E+00
    0.00000E+00         0.00000E+00         0.11998E+08
 
    0.12001E+08         0.27980E+06         0.00000E+00
    0.27980E+06         0.27879E+08         0.00000E+00
    0.00000E+00         0.00000E+00         0.11964E+08
 
    0.11966E+08         0.28567E+06         0.00000E+00
    0.28567E+06         0.27802E+08         0.00000E+00
    0.00000E+00         0.00000E+00         0.11930E+08
 
    0.11930E+08         0.29123E+06         0.00000E+00
    0.29123E+06         0.27724E+08         0.00000E+00
    0.00000E+00         0.00000E+00         0.11896E+08
 
    0.11895E+08         0.29654E+06         0.00000E+00
    0.29654E+06         0.27646E+08         0.00000E+00
    0.00000E+00         0.00000E+00         0.11862E+08
 
    0.11860E+08         0.30160E+06         0.00000E+00
    0.30160E+06         0.27568E+08         0.00000E+00
    0.00000E+00         0.00000E+00         0.11828E+08
 
    0.11824E+08         0.30645E+06         0.00000E+00
    0.30645E+06         0.27489E+08         0.00000E+00
    0.00000E+00         0.00000E+00         0.11794E+08
 
    0.11789E+08         0.31110E+06         0.00000E+00
    0.31110E+06         0.27409E+08         0.00000E+00
    0.00000E+00         0.00000E+00         0.11759E+08
 
    0.11753E+08         0.31557E+06         0.00000E+00
    0.31557E+06         0.27329E+08         0.00000E+00
    0.00000E+00         0.00000E+00         0.11725E+08
 
    0.11717E+08         0.31989E+06         0.00000E+00
    0.31989E+06         0.27249E+08         0.00000E+00
    0.00000E+00         0.00000E+00         0.11690E+08
 
    0.11682E+08         0.32406E+06         0.00000E+00
    0.32406E+06         0.27168E+08         0.00000E+00
    0.00000E+00         0.00000E+00         0.11655E+08
 
    0.11646E+08         0.32811E+06         0.00000E+00
    0.32811E+06         0.27086E+08         0.00000E+00
    0.00000E+00         0.00000E+00         0.11619E+08
 
    0.11609E+08         0.33203E+06         0.00000E+00
    0.33203E+06         0.27003E+08         0.00000E+00
    0.00000E+00         0.00000E+00         0.11584E+08
 
    0.11573E+08         0.33585E+06         0.00000E+00
    0.33585E+06         0.26920E+08         0.00000E+00
    0.00000E+00         0.00000E+00         0.11548E+08
 
    0.11536E+08         0.33956E+06         0.00000E+00
    0.33956E+06         0.26837E+08         0.00000E+00
    0.00000E+00         0.00000E+00         0.11512E+08
 
    0.11500E+08         0.34319E+06         0.00000E+00
    0.34319E+06         0.26752E+08         0.00000E+00
    0.00000E+00         0.00000E+00         0.11476E+08
 
    0.11463E+08         0.34673E+06         0.00000E+00
    0.34673E+06         0.26667E+08         0.00000E+00
    0.00000E+00         0.00000E+00         0.11439E+08
 
    0.11425E+08         0.35019E+06         0.00000E+00
    0.35019E+06         0.26581E+08         0.00000E+00
    0.00000E+00         0.00000E+00         0.11402E+08
 
    0.11388E+08         0.35357E+06         0.00000E+00
    0.35357E+06         0.26495E+08         0.00000E+00
    0.00000E+00         0.00000E+00         0.11365E+08
 
    0.11350E+08         0.35688E+06         0.00000E+00
    0.35688E+06         0.26408E+08         0.00000E+00
    0.00000E+00         0.00000E+00         0.11327E+08
 
    0.11311E+08         0.36012E+06         0.00000E+00
    0.36012E+06         0.26320E+08         0.00000E+00
    0.00000E+00         0.00000E+00         0.11289E+08
 
    0.11273E+08         0.36329E+06         0.00000E+00
    0.36329E+06         0.26231E+08         0.00000E+00
    0.00000E+00         0.00000E+00         0.11251E+08
 
    0.11234E+08         0.36639E+06         0.00000E+00
    0.36639E+06         0.26142E+08         0.00000E+00
    0.00000E+00         0.00000E+00         0.11213E+08
 
    0.11195E+08         0.36943E+06         0.00000E+00
    0.36943E+06         0.26051E+08         0.00000E+00
    0.00000E+00         0.00000E+00         0.11174E+08
 
    0.11155E+08         0.37239E+06         0.00000E+00
    0.37239E+06         0.25960E+08         0.00000E+00
    0.00000E+00         0.00000E+00         0.11135E+08
 
    0.11115E+08         0.37528E+06         0.00000E+00
    0.37528E+06         0.25868E+08         0.00000E+00
    0.00000E+00         0.00000E+00         0.11095E+08
 
    0.11075E+08         0.37810E+06         0.00000E+00
    0.37810E+06         0.25776E+08         0.00000E+00
    0.00000E+00         0.00000E+00         0.11055E+08
 
    0.11034E+08         0.38084E+06         0.00000E+00
    0.38084E+06         0.25682E+08         0.00000E+00
    0.00000E+00         0.00000E+00         0.11015E+08
 
    0.10993E+08         0.38349E+06         0.00000E+00
    0.38349E+06         0.25588E+08         0.00000E+00
    0.00000E+00         0.00000E+00         0.10974E+08
 
    0.10952E+08         0.38606E+06         0.00000E+00
    0.38606E+06         0.25493E+08         0.00000E+00
    0.00000E+00         0.00000E+00         0.10933E+08
 
    0.10910E+08         0.38854E+06         0.00000E+00
    0.38854E+06         0.25397E+08         0.00000E+00
    0.00000E+00         0.00000E+00         0.10892E+08
 
    0.10867E+08         0.39092E+06         0.00000E+00
    0.39092E+06         0.25300E+08         0.00000E+00
    0.00000E+00         0.00000E+00         0.10850E+08
 
    0.10825E+08         0.39320E+06         0.00000E+00
    0.39320E+06         0.25202E+08         0.00000E+00
    0.00000E+00         0.00000E+00         0.10808E+08
 
    0.10781E+08         0.39536E+06         0.00000E+00
    0.39536E+06         0.25104E+08         0.00000E+00
    0.00000E+00         0.00000E+00         0.10766E+08
 
    0.10738E+08         0.39740E+06         0.00000E+00
    0.39740E+06         0.25005E+08         0.00000E+00
    0.00000E+00         0.00000E+00         0.10723E+08
 
    0.10694E+08         0.39930E+06         0.00000E+00
    0.39930E+06         0.24904E+08         0.00000E+00
    0.00000E+00         0.00000E+00         0.10679E+08
 
    0.10649E+08         0.40107E+06         0.00000E+00
    0.40107E+06         0.24803E+08         0.00000E+00
    0.00000E+00         0.00000E+00         0.10636E+08
 
    0.10604E+08         0.40267E+06         0.00000E+00
    0.40267E+06         0.24702E+08         0.00000E+00
    0.00000E+00         0.00000E+00         0.10592E+08
 
    0.10559E+08         0.40411E+06         0.00000E+00
    0.40411E+06         0.24599E+08         0.00000E+00
    0.00000E+00         0.00000E+00         0.10547E+08
 
    0.10513E+08         0.40537E+06         0.00000E+00
    0.40537E+06         0.24496E+08         0.00000E+00
    0.00000E+00         0.00000E+00         0.10502E+08
 
    0.10466E+08         0.40642E+06         0.00000E+00
    0.40642E+06         0.24391E+08         0.00000E+00
    0.00000E+00         0.00000E+00         0.10457E+08
 
    0.10419E+08         0.40726E+06         0.00000E+00
    0.40726E+06         0.24286E+08         0.00000E+00
    0.00000E+00         0.00000E+00         0.10412E+08
 
    0.10372E+08         0.40787E+06         0.00000E+00
    0.40787E+06         0.24180E+08         0.00000E+00
    0.00000E+00         0.00000E+00         0.10366E+08
 
    0.10324E+08         0.40822E+06         0.00000E+00
    0.40822E+06         0.24073E+08         0.00000E+00
    0.00000E+00         0.00000E+00         0.10319E+08
 
    0.10275E+08         0.40829E+06         0.00000E+00
    0.40829E+06         0.23966E+08         0.00000E+00
    0.00000E+00         0.00000E+00         0.10272E+08
 
    0.10226E+08         0.40807E+06         0.00000E+00
    0.40807E+06         0.23857E+08         0.00000E+00
    0.00000E+00         0.00000E+00         0.10225E+08
 
    0.10176E+08         0.40751E+06         0.00000E+00
    0.40751E+06         0.23748E+08         0.00000E+00
    0.00000E+00         0.00000E+00         0.10177E+08
 
    0.10126E+08         0.40660E+06         0.00000E+00
    0.40660E+06         0.23638E+08         0.00000E+00
    0.00000E+00         0.00000E+00         0.10129E+08
 
    0.10075E+08         0.40530E+06         0.00000E+00
    0.40530E+06         0.23527E+08         0.00000E+00
    0.00000E+00         0.00000E+00         0.10080E+08
 
    0.10023E+08         0.40357E+06         0.00000E+00
    0.40357E+06         0.23415E+08         0.00000E+00
    0.00000E+00         0.00000E+00         0.10031E+08
 
    0.99709E+07         0.40138E+06         0.00000E+00
    0.40138E+06         0.23302E+08         0.00000E+00
    0.00000E+00         0.00000E+00         0.99820E+07
 
    0.99179E+07         0.39869E+06         0.00000E+00
    0.39869E+06         0.23189E+08         0.00000E+00
    0.00000E+00         0.00000E+00         0.99320E+07
 
    0.98641E+07         0.39545E+06         0.00000E+00
    0.39545E+06         0.23075E+08         0.00000E+00
    0.00000E+00         0.00000E+00         0.98816E+07
 
    0.98097E+07         0.39162E+06         0.00000E+00
    0.39162E+06         0.22959E+08         0.00000E+00
    0.00000E+00         0.00000E+00         0.98307E+07
 
    0.97544E+07         0.38714E+06         0.00000E+00
    0.38714E+06         0.22843E+08         0.00000E+00
    0.00000E+00         0.00000E+00         0.97793E+07
 
    0.96983E+07         0.38195E+06         0.00000E+00
    0.38195E+06         0.22727E+08         0.00000E+00
    0.00000E+00         0.00000E+00         0.97275E+07
 
    0.96414E+07         0.37600E+06         0.00000E+00
    0.37600E+06         0.22609E+08         0.00000E+00
    0.00000E+00         0.00000E+00         0.96750E+07
 
    0.95836E+07         0.36922E+06         0.00000E+00
    0.36922E+06         0.22490E+08         0.00000E+00
    0.00000E+00         0.00000E+00         0.96221E+07
 
    0.95249E+07         0.36155E+06         0.00000E+00
    0.36155E+06         0.22370E+08         0.00000E+00
    0.00000E+00         0.00000E+00         0.95686E+07
 
    0.94653E+07         0.35291E+06         0.00000E+00
    0.35291E+06         0.22250E+08         0.00000E+00
    0.00000E+00         0.00000E+00         0.95145E+07
 
    0.94049E+07         0.34324E+06         0.00000E+00
    0.34324E+06         0.22128E+08         0.00000E+00
    0.00000E+00         0.00000E+00         0.94599E+07
 
    0.93436E+07         0.33246E+06         0.00000E+00
    0.33246E+06         0.22006E+08         0.00000E+00
    0.00000E+00         0.00000E+00         0.94047E+07
 
    0.92814E+07         0.32051E+06         0.00000E+00
    0.32051E+06         0.21882E+08         0.00000E+00
    0.00000E+00         0.00000E+00         0.93490E+07
 
    0.92184E+07         0.30732E+06         0.00000E+00
    0.30732E+06         0.21758E+08         0.00000E+00
    0.00000E+00         0.00000E+00         0.92928E+07
 
    0.91546E+07         0.29283E+06         0.00000E+00
    0.29283E+06         0.21632E+08         0.00000E+00
    0.00000E+00         0.00000E+00         0.92361E+07
 
    0.90901E+07         0.27700E+06         0.00000E+00
    0.27700E+06         0.21506E+08         0.00000E+00
    0.00000E+00         0.00000E+00         0.91789E+07
 
    0.90249E+07         0.25979E+06         0.00000E+00
    0.25979E+06         0.21380E+08         0.00000E+00
    0.00000E+00         0.00000E+00         0.91215E+07
 
    0.89592E+07         0.24120E+06         0.00000E+00
    0.24120E+06         0.21254E+08         0.00000E+00
    0.00000E+00         0.00000E+00         0.90638E+07
 
    0.88929E+07         0.22125E+06         0.00000E+00
    0.22125E+06         0.21128E+08         0.00000E+00
    0.00000E+00         0.00000E+00         0.90061E+07
 
    0.88259E+07         0.19999E+06         0.00000E+00
    0.19999E+06         0.21003E+08         0.00000E+00
    0.00000E+00         0.00000E+00         0.89486E+07
 
    0.87582E+07         0.17750E+06         0.00000E+00
    0.17750E+06         0.20880E+08         0.00000E+00
    0.00000E+00         0.00000E+00         0.88914E+07
 
    0.86894E+07         0.15394E+06         0.00000E+00
    0.15394E+06         0.20760E+08         0.00000E+00
    0.00000E+00         0.00000E+00         0.88349E+07
 
    0.86186E+07         0.12950E+06         0.00000E+00
    0.12950E+06         0.20646E+08         0.00000E+00
    0.00000E+00         0.00000E+00         0.87794E+07
 
    0.85448E+07         0.10445E+06         0.00000E+00
    0.10445E+06         0.20539E+08         0.00000E+00
    0.00000E+00         0.00000E+00         0.87251E+07
 
    0.84661E+07         0.79187E+05         0.00000E+00
    0.79187E+05         0.20441E+08         0.00000E+00
    0.00000E+00         0.00000E+00         0.86720E+07
 
    0.83800E+07         0.54448E+05         0.00000E+00
    0.54448E+05         0.20354E+08         0.00000E+00
    0.00000E+00         0.00000E+00         0.86202E+07
 
    0.82839E+07         0.31244E+05         0.00000E+00
    0.31244E+05         0.20280E+08         0.00000E+00
    0.00000E+00         0.00000E+00         0.85692E+07
 
    0.81759E+07         0.10082E+05         0.00000E+00
    0.10082E+05         0.20218E+08         0.00000E+00
    0.00000E+00         0.00000E+00         0.85182E+07
 
    0.12943E+08         0.60526E+04         0.00000E+00
    0.60526E+04         0.29470E+08         0.00000E+00
    0.00000E+00         0.00000E+00         0.12724E+08
 
    0.12881E+08         0.18757E+05         0.00000E+00
    0.18757E+05         0.29434E+08         0.00000E+00
    0.00000E+00         0.00000E+00         0.12694E+08
 
    0.12825E+08         0.32767E+05         0.00000E+00
    0.32767E+05         0.29391E+08         0.00000E+00
    0.00000E+00         0.00000E+00         0.12665E+08
 
    0.12774E+08         0.47938E+05         0.00000E+00
    0.47938E+05         0.29340E+08         0.00000E+00
    0.00000E+00         0.00000E+00         0.12634E+08
 
    0.12728E+08         0.63735E+05         0.00000E+00
    0.63735E+05         0.29283E+08         0.00000E+00
    0.00000E+00         0.00000E+00         0.12604E+08
 
    0.12685E+08         0.79695E+05         0.00000E+00
    0.79695E+05         0.29221E+08         0.00000E+00
    0.00000E+00         0.00000E+00         0.12572E+08
 
    0.12644E+08         0.95506E+05         0.00000E+00
    0.95506E+05         0.29154E+08         0.00000E+00
    0.00000E+00         0.00000E+00         0.12539E+08
 
    0.12603E+08         0.11096E+06         0.00000E+00
    0.11096E+06         0.29085E+08         0.00000E+00
    0.00000E+00         0.00000E+00         0.12506E+08
 
    0.12564E+08         0.12589E+06         0.00000E+00
    0.12589E+06         0.29013E+08         0.00000E+00
    0.00000E+00         0.00000E+00         0.12473E+08
 
    0.12525E+08         0.14021E+06         0.00000E+00
    0.14021E+06         0.28939E+08         0.00000E+00
    0.00000E+00         0.00000E+00         0.12439E+08
 
    0.12486E+08         0.15383E+06         0.00000E+00
    0.15383E+06         0.28865E+08         0.00000E+00
    0.00000E+00         0.00000E+00         0.12405E+08
 
    0.12447E+08         0.16673E+06         0.00000E+00
    0.16673E+06         0.28790E+08         0.00000E+00
    0.00000E+00         0.00000E+00         0.12371E+08
 
    0.12409E+08         0.17889E+06         0.00000E+00
    0.17889E+06         0.28715E+08         0.00000E+00
    0.00000E+00         0.00000E+00         0.12337E+08
 
    0.12371E+08         0.19032E+06         0.00000E+00
    0.19032E+06         0.28639E+08         0.00000E+00
    0.00000E+00         0.00000E+00         0.12303E+08
 
    0.12333E+08         0.20104E+06         0.00000E+00
    0.20104E+06         0.28563E+08         0.00000E+00
    0.00000E+00         0.00000E+00         0.12269E+08
 
    0.12296E+08         0.21108E+06         0.00000E+00
    0.21108E+06         0.28488E+08         0.00000E+00
    0.00000E+00         0.00000E+00         0.12235E+08
 
    0.12258E+08         0.22048E+06         0.00000E+00
    0.22048E+06         0.28412E+08         0.00000E+00
    0.00000E+00         0.00000E+00         0.12201E+08
 
    0.12221E+08         0.22927E+06         0.00000E+00
    0.22927E+06         0.28336E+08         0.00000E+00
    0.00000E+00         0.00000E+00         0.12167E+08
 
    0.12185E+08         0.23751E+06         0.00000E+00
    0.23751E+06         0.28260E+08         0.00000E+00
    0.00000E+00         0.00000E+00         0.12133E+08
 
    0.12148E+08         0.24523E+06         0.00000E+00
    0.24523E+06         0.28184E+08         0.00000E+00
    0.00000E+00         0.00000E+00         0.12100E+08
 
    0.12112E+08         0.25248E+06         0.00000E+00
    0.25248E+06         0.28108E+08         0.00000E+00
    0.00000E+00         0.00000E+00         0.12066E+08
 
    0.12076E+08         0.25930E+06         0.00000E+00
    0.25930E+06         0.28032E+08         0.00000E+00
    0.00000E+00         0.00000E+00         0.12032E+08
 
    0.12040E+08         0.26572E+06         0.00000E+00
    0.26572E+06         0.27955E+08         0.00000E+00
    0.00000E+00         0.00000E+00         0.11999E+08
 
    0.12004E+08         0.27179E+06         0.00000E+00
    0.27179E+06         0.27878E+08         0.00000E+00
    0.00000E+00         0.00000E+00         0.11965E+08
 
    0.11969E+08         0.27753E+06         0.00000E+00
    0.27753E+06         0.27801E+08         0.00000E+00
    0.00000E+00         0.00000E+00         0.11931E+08
 
    0.11933E+08         0.28298E+06         0.00000E+00
    0.28298E+06         0.27723E+08         0.00000E+00
    0.00000E+00         0.00000E+00         0.11897E+08
 
    0.11898E+08         0.28817E+06         0.00000E+00
    0.28817E+06         0.27645E+08         0.00000E+00
    0.00000E+00         0.00000E+00         0.11863E+08
 
    0.11862E+08         0.29312E+06         0.00000E+00
    0.29312E+06         0.27567E+08         0.00000E+00
    0.00000E+00         0.00000E+00         0.11829E+08
 
    0.11827E+08         0.29786E+06         0.00000E+00
    0.29786E+06         0.27488E+08         0.00000E+00
    0.00000E+00         0.00000E+00         0.11794E+08
 
    0.11791E+08         0.30241E+06         0.00000E+00
    0.30241E+06         0.27408E+08         0.00000E+00
    0.00000E+00         0.00000E+00         0.11760E+08
 
    0.11755E+08         0.30678E+06         0.00000E+00
    0.30678E+06         0.27328E+08         0.00000E+00
    0.00000E+00         0.00000E+00         0.11725E+08
 
    0.11720E+08         0.31099E+06         0.00000E+00
    0.31099E+06         0.27248E+08         0.00000E+00
    0.00000E+00         0.00000E+00         0.11690E+08
 
    0.11684E+08         0.31506E+06         0.00000E+00
    0.31506E+06         0.27167E+08         0.00000E+00
    0.00000E+00         0.00000E+00         0.11655E+08
 
    0.11648E+08         0.31901E+06         0.00000E+00
    0.31901E+06         0.27085E+08         0.00000E+00
    0.00000E+00         0.00000E+00         0.11620E+08
 
    0.11612E+08         0.32284E+06         0.00000E+00
    0.32284E+06         0.27003E+08         0.00000E+00
    0.00000E+00         0.00000E+00         0.11584E+08
 
    0.11575E+08         0.32656E+06         0.00000E+00
    0.32656E+06         0.26920E+08         0.00000E+00
    0.00000E+00         0.00000E+00         0.11548E+08
 
    0.11539E+08         0.33018E+06         0.00000E+00
    0.33018E+06         0.26836E+08         0.00000E+00
    0.00000E+00         0.00000E+00         0.11512E+08
 
    0.11502E+08         0.33371E+06         0.00000E+00
    0.33371E+06         0.26752E+08         0.00000E+00
    0.00000E+00         0.00000E+00         0.11476E+08
 
    0.11465E+08         0.33716E+06         0.00000E+00
    0.33716E+06         0.26667E+08         0.00000E+00
    0.00000E+00         0.00000E+00         0.11439E+08
 
    0.11427E+08         0.34052E+06         0.00000E+00
    0.34052E+06         0.26581E+08         0.00000E+00
    0.00000E+00         0.00000E+00         0.11402E+08
 
    0.11390E+08         0.34382E+06         0.00000E+00
    0.34382E+06         0.26494E+08         0.00000E+00
    0.00000E+00         0.00000E+00         0.11365E+08
 
    0.11352E+08         0.34704E+06         0.00000E+00
    0.34704E+06         0.26407E+08         0.00000E+00
    0.00000E+00         0.00000E+00         0.11328E+08
 
    0.11313E+08         0.35019E+06         0.00000E+00
    0.35019E+06         0.26319E+08         0.00000E+00
    0.00000E+00         0.00000E+00         0.11290E+08
 
    0.11275E+08         0.35327E+06         0.00000E+00
    0.35327E+06         0.26230E+08         0.00000E+00
    0.00000E+00         0.00000E+00         0.11252E+08
 
    0.11236E+08         0.35629E+06         0.00000E+00
    0.35629E+06         0.26141E+08         0.00000E+00
    0.00000E+00         0.00000E+00         0.11213E+08
 
    0.11197E+08         0.35923E+06         0.00000E+00
    0.35923E+06         0.26051E+08         0.00000E+00
    0.00000E+00         0.00000E+00         0.11174E+08
 
    0.11157E+08         0.36211E+06         0.00000E+00
    0.36211E+06         0.25960E+08         0.00000E+00
    0.00000E+00         0.00000E+00         0.11135E+08
 
    0.11117E+08         0.36492E+06         0.00000E+00
    0.36492E+06         0.25868E+08         0.00000E+00
    0.00000E+00         0.00000E+00         0.11095E+08
 
    0.11077E+08         0.36765E+06         0.00000E+00
    0.36765E+06         0.25775E+08         0.00000E+00
    0.00000E+00         0.00000E+00         0.11056E+08
 
    0.11036E+08         0.37031E+06         0.00000E+00
    0.37031E+06         0.25682E+08         0.00000E+00
    0.00000E+00         0.00000E+00         0.11015E+08
 
    0.10995E+08         0.37288E+06         0.00000E+00
    0.37288E+06         0.25587E+08         0.00000E+00
    0.00000E+00         0.00000E+00         0.10975E+08
 
    0.10953E+08         0.37537E+06         0.00000E+00
    0.37537E+06         0.25492E+08         0.00000E+00
    0.00000E+00         0.00000E+00         0.10934E+08
 
    0.10911E+08         0.37778E+06         0.00000E+00
    0.37778E+06         0.25396E+08         0.00000E+00
    0.00000E+00         0.00000E+00         0.10892E+08
 
    0.10869E+08         0.38008E+06         0.00000E+00
    0.38008E+06         0.25299E+08         0.00000E+00
    0.00000E+00         0.00000E+00         0.10851E+08
 
    0.10826E+08         0.38228E+06         0.00000E+00
    0.38228E+06         0.25202E+08         0.00000E+00
    0.00000E+00         0.00000E+00         0.10808E+08
 
    0.10783E+08         0.38437E+06         0.00000E+00
    0.38437E+06         0.25103E+08         0.00000E+00
    0.00000E+00         0.00000E+00         0.10766E+08
 
    0.10739E+08         0.38634E+06         0.00000E+00
    0.38634E+06         0.25004E+08         0.00000E+00
    0.00000E+00         0.00000E+00         0.10723E+08
 
    0.10695E+08         0.38818E+06         0.00000E+00
    0.38818E+06         0.24904E+08         0.00000E+00
    0.00000E+00         0.00000E+00         0.10680E+08
 
    0.10650E+08         0.38987E+06         0.00000E+00
    0.38987E+06         0.24803E+08         0.00000E+00
    0.00000E+00         0.00000E+00         0.10636E+08
 
    0.10605E+08         0.39142E+06         0.00000E+00
    0.39142E+06         0.24701E+08         0.00000E+00
    0.00000E+00         0.00000E+00         0.10592E+08
 
    0.10560E+08         0.39280E+06         0.00000E+00
    0.39280E+06         0.24599E+08         0.00000E+00
    0.00000E+00         0.00000E+00         0.10548E+08
 
    0.10514E+08         0.39400E+06         0.00000E+00
    0.39400E+06         0.24495E+08         0.00000E+00
    0.00000E+00         0.00000E+00         0.10503E+08
 
    0.10467E+08         0.39500E+06         0.00000E+00
    0.39500E+06         0.24391E+08         0.00000E+00
    0.00000E+00         0.00000E+00         0.10457E+08
 
    0.10420E+08         0.39579E+06         0.00000E+00
    0.39579E+06         0.24286E+08         0.00000E+00
    0.00000E+00         0.00000E+00         0.10412E+08
 
    0.10372E+08         0.39636E+06         0.00000E+00
    0.39636E+06         0.24180E+08         0.00000E+00
    0.00000E+00         0.00000E+00         0.10366E+08
 
    0.10324E+08         0.39667E+06         0.00000E+00
    0.39667E+06         0.24073E+08         0.00000E+00
    0.00000E+00         0.00000E+00         0.10319E+08
 
    0.10275E+08         0.39671E+06         0.00000E+00
    0.39671E+06         0.23966E+08         0.00000E+00
    0.00000E+00         0.00000E+00         0.10272E+08
 
    0.10226E+08         0.39646E+06         0.00000E+00
    0.39646E+06         0.23857E+08         0.00000E+00
    0.00000E+00         0.00000E+00         0.10225E+08
 
    0.10176E+08         0.39588E+06         0.00000E+00
    0.39588E+06         0.23748E+08         0.00000E+00
    0.00000E+00         0.00000E+00         0.10177E+08
 
    0.10126E+08         0.39495E+06         0.00000E+00
    0.39495E+06         0.23638E+08         0.00000E+00
    0.00000E+00         0.00000E+00         0.10129E+08
 
    0.10075E+08         0.39364E+06         0.00000E+00
    0.39364E+06         0.23527E+08         0.00000E+00
    0.00000E+00         0.00000E+00         0.10080E+08
 
    0.10023E+08         0.39192E+06         0.00000E+00
    0.39192E+06         0.23415E+08         0.00000E+00
    0.00000E+00         0.00000E+00         0.10031E+08
 
    0.99701E+07         0.38974E+06         0.00000E+00
    0.38974E+06         0.23303E+08         0.00000E+00
    0.00000E+00         0.00000E+00         0.99819E+07
 
    0.99168E+07         0.38707E+06         0.00000E+00
    0.38707E+06         0.23190E+08         0.00000E+00
    0.00000E+00         0.00000E+00         0.99319E+07
 
    0.98628E+07         0.38385E+06         0.00000E+00
    0.38385E+06         0.23075E+08         0.00000E+00
    0.00000E+00         0.00000E+00         0.98814E+07
 
    0.98080E+07         0.38006E+06         0.00000E+00
    0.38006E+06         0.22960E+08         0.00000E+00
    0.00000E+00         0.00000E+00         0.98305E+07
 
    0.97524E+07         0.37562E+06         0.00000E+00
    0.37562E+06         0.22844E+08         0.00000E+00
    0.00000E+00         0.00000E+00         0.97791E+07
 
    0.96960E+07         0.37049E+06         0.00000E+00
    0.37049E+06         0.22728E+08         0.00000E+00
    0.00000E+00         0.00000E+00         0.97271E+07
 
    0.96387E+07         0.36460E+06         0.00000E+00
    0.36460E+06         0.22610E+08         0.00000E+00
    0.00000E+00         0.00000E+00         0.96746E+07
 
    0.95805E+07         0.35790E+06         0.00000E+00
    0.35790E+06         0.22491E+08         0.00000E+00
    0.00000E+00         0.00000E+00         0.96216E+07
 
    0.95214E+07         0.35030E+06         0.00000E+00
    0.35030E+06         0.22372E+08         0.00000E+00
    0.00000E+00         0.00000E+00         0.95680E+07
 
    0.94614E+07         0.34175E+06         0.00000E+00
    0.34175E+06         0.22252E+08         0.00000E+00
    0.00000E+00         0.00000E+00         0.95139E+07
 
    0.94004E+07         0.33217E+06         0.00000E+00
    0.33217E+06         0.22130E+08         0.00000E+00
    0.00000E+00         0.00000E+00         0.94592E+07
 
    0.93385E+07         0.32148E+06         0.00000E+00
    0.32148E+06         0.22008E+08         0.00000E+00
    0.00000E+00         0.00000E+00         0.94039E+07
 
    0.92757E+07         0.30962E+06         0.00000E+00
    0.30962E+06         0.21885E+08         0.00000E+00
    0.00000E+00         0.00000E+00         0.93481E+07
 
    0.92121E+07         0.29652E+06         0.00000E+00
    0.29652E+06         0.21760E+08         0.00000E+00
    0.00000E+00         0.00000E+00         0.92917E+07
 
    0.91476E+07         0.28211E+06         0.00000E+00
    0.28211E+06         0.21635E+08         0.00000E+00
    0.00000E+00         0.00000E+00         0.92349E+07
 
    0.90823E+07         0.26636E+06         0.00000E+00
    0.26636E+06         0.21510E+08         0.00000E+00
    0.00000E+00         0.00000E+00         0.91776E+07
 
    0.90163E+07         0.24922E+06         0.00000E+00
    0.24922E+06         0.21384E+08         0.00000E+00
    0.00000E+00         0.00000E+00         0.91200E+07
 
    0.89496E+07         0.23070E+06         0.00000E+00
    0.23070E+06         0.21257E+08         0.00000E+00
    0.00000E+00         0.00000E+00         0.90621E+07
 
    0.88823E+07         0.21082E+06         0.00000E+00
    0.21082E+06         0.21132E+08         0.00000E+00
    0.00000E+00         0.00000E+00         0.90042E+07
 
    0.88142E+07         0.18965E+06         0.00000E+00
    0.18965E+06         0.21007E+08         0.00000E+00
    0.00000E+00         0.00000E+00         0.89464E+07
 
    0.87453E+07         0.16731E+06         0.00000E+00
    0.16731E+06         0.20884E+08         0.00000E+00
    0.00000E+00         0.00000E+00         0.88889E+07
 
    0.86751E+07         0.14402E+06         0.00000E+00
    0.14402E+06         0.20765E+08         0.00000E+00
    0.00000E+00         0.00000E+00         0.88321E+07
 
    0.86029E+07         0.12003E+06         0.00000E+00
    0.12003E+06         0.20651E+08         0.00000E+00
    0.00000E+00         0.00000E+00         0.87761E+07
 
    0.85274E+07         0.95732E+05         0.00000E+00
    0.95732E+05         0.20544E+08         0.00000E+00
    0.00000E+00         0.00000E+00         0.87213E+07
 
    0.84471E+07         0.71671E+05         0.00000E+00
    0.71671E+05         0.20446E+08         0.00000E+00
    0.00000E+00         0.00000E+00         0.86678E+07
 
    0.83593E+07         0.48663E+05         0.00000E+00
    0.48663E+05         0.20359E+08         0.00000E+00
    0.00000E+00         0.00000E+00         0.86154E+07
 
    0.82619E+07         0.27640E+05         0.00000E+00
    0.27640E+05         0.20284E+08         0.00000E+00
    0.00000E+00         0.00000E+00         0.85639E+07
 
    0.81533E+07         0.88680E+04         0.00000E+00
    0.88680E+04         0.20222E+08         0.00000E+00
    0.00000E+00         0.00000E+00         0.85125E+07
 
    0.12957E+08         0.53714E+04         0.00000E+00
    0.53714E+04         0.29468E+08         0.00000E+00
    0.00000E+00         0.00000E+00         0.12727E+08
 
    0.12894E+08         0.16733E+05         0.00000E+00
    0.16733E+05         0.29431E+08         0.00000E+00
    0.00000E+00         0.00000E+00         0.12698E+08
 
    0.12838E+08         0.29508E+05         0.00000E+00
    0.29508E+05         0.29388E+08         0.00000E+00
    0.00000E+00         0.00000E+00         0.12668E+08
 
    0.12786E+08         0.43672E+05         0.00000E+00
    0.43672E+05         0.29337E+08         0.00000E+00
    0.00000E+00         0.00000E+00         0.12637E+08
 
    0.12739E+08         0.58742E+05         0.00000E+00
    0.58742E+05         0.29280E+08         0.00000E+00
    0.00000E+00         0.00000E+00         0.12606E+08
 
    0.12695E+08         0.74216E+05         0.00000E+00
    0.74216E+05         0.29218E+08         0.00000E+00
    0.00000E+00         0.00000E+00         0.12574E+08
 
    0.12653E+08         0.89711E+05         0.00000E+00
    0.89711E+05         0.29151E+08         0.00000E+00
    0.00000E+00         0.00000E+00         0.12541E+08
 
    0.12612E+08         0.10495E+06         0.00000E+00
    0.10495E+06         0.29082E+08         0.00000E+00
    0.00000E+00         0.00000E+00         0.12508E+08
 
    0.12572E+08         0.11974E+06         0.00000E+00
    0.11974E+06         0.29010E+08         0.00000E+00
    0.00000E+00         0.00000E+00         0.12474E+08
 
    0.12532E+08         0.13394E+06         0.00000E+00
    0.13394E+06         0.28937E+08         0.00000E+00
    0.00000E+00         0.00000E+00         0.12441E+08
 
    0.12493E+08         0.14746E+06         0.00000E+00
    0.14746E+06         0.28862E+08         0.00000E+00
    0.00000E+00         0.00000E+00         0.12406E+08
 
    0.12454E+08         0.16025E+06         0.00000E+00
    0.16025E+06         0.28787E+08         0.00000E+00
    0.00000E+00         0.00000E+00         0.12372E+08
 
    0.12415E+08         0.17231E+06         0.00000E+00
    0.17231E+06         0.28712E+08         0.00000E+00
    0.00000E+00         0.00000E+00         0.12338E+08
 
    0.12376E+08         0.18362E+06         0.00000E+00
    0.18362E+06         0.28637E+08         0.00000E+00
    0.00000E+00         0.00000E+00         0.12304E+08
 
    0.12338E+08         0.19422E+06         0.00000E+00
    0.19422E+06         0.28561E+08         0.00000E+00
    0.00000E+00         0.00000E+00         0.12270E+08
 
    0.12300E+08         0.20414E+06         0.00000E+00
    0.20414E+06         0.28486E+08         0.00000E+00
    0.00000E+00         0.00000E+00         0.12236E+08
 
    0.12263E+08         0.21341E+06         0.00000E+00
    0.21341E+06         0.28410E+08         0.00000E+00
    0.00000E+00         0.00000E+00         0.12202E+08
 
    0.12225E+08         0.22207E+06         0.00000E+00
    0.22207E+06         0.28335E+08         0.00000E+00
    0.00000E+00         0.00000E+00         0.12168E+08
 
    0.12189E+08         0.23018E+06         0.00000E+00
    0.23018E+06         0.28259E+08         0.00000E+00
    0.00000E+00         0.00000E+00         0.12134E+08
 
    0.12152E+08         0.23776E+06         0.00000E+00
    0.23776E+06         0.28183E+08         0.00000E+00
    0.00000E+00         0.00000E+00         0.12100E+08
 
    0.12115E+08         0.24488E+06         0.00000E+00
    0.24488E+06         0.28107E+08         0.00000E+00
    0.00000E+00         0.00000E+00         0.12067E+08
 
    0.12079E+08         0.25157E+06         0.00000E+00
    0.25157E+06         0.28030E+08         0.00000E+00
    0.00000E+00         0.00000E+00         0.12033E+08
 
    0.12043E+08         0.25786E+06         0.00000E+00
    0.25786E+06         0.27954E+08         0.00000E+00
    0.00000E+00         0.00000E+00         0.11999E+08
 
    0.12007E+08         0.26380E+06         0.00000E+00
    0.26380E+06         0.27877E+08         0.00000E+00
    0.00000E+00         0.00000E+00         0.11965E+08
 
    0.11972E+08         0.26942E+06         0.00000E+00
    0.26942E+06         0.27800E+08         0.00000E+00
    0.00000E+00         0.00000E+00         0.11931E+08
 
    0.11936E+08         0.27475E+06         0.00000E+00
    0.27475E+06         0.27722E+08         0.00000E+00
    0.00000E+00         0.00000E+00         0.11897E+08
 
    0.11900E+08         0.27983E+06         0.00000E+00
    0.27983E+06         0.27644E+08         0.00000E+00
    0.00000E+00         0.00000E+00         0.11863E+08
 
    0.11865E+08         0.28466E+06         0.00000E+00
    0.28466E+06         0.27566E+08         0.00000E+00
    0.00000E+00         0.00000E+00         0.11829E+08
 
    0.11829E+08         0.28929E+06         0.00000E+00
    0.28929E+06         0.27487E+08         0.00000E+00
    0.00000E+00         0.00000E+00         0.11795E+08
 
    0.11793E+08         0.29373E+06         0.00000E+00
    0.29373E+06         0.27408E+08         0.00000E+00
    0.00000E+00         0.00000E+00         0.11760E+08
 
    0.11758E+08         0.29799E+06         0.00000E+00
    0.29799E+06         0.27328E+08         0.00000E+00
    0.00000E+00         0.00000E+00         0.11726E+08
 
    0.11722E+08         0.30210E+06         0.00000E+00
    0.30210E+06         0.27247E+08         0.00000E+00
    0.00000E+00         0.00000E+00         0.11691E+08
 
    0.11686E+08         0.30608E+06         0.00000E+00
    0.30608E+06         0.27166E+08         0.00000E+00
    0.00000E+00         0.00000E+00         0.11656E+08
 
    0.11650E+08         0.30992E+06         0.00000E+00
    0.30992E+06         0.27084E+08         0.00000E+00
    0.00000E+00         0.00000E+00         0.11620E+08
 
    0.11614E+08         0.31365E+06         0.00000E+00
    0.31365E+06         0.27002E+08         0.00000E+00
    0.00000E+00         0.00000E+00         0.11585E+08
 
    0.11577E+08         0.31727E+06         0.00000E+00
    0.31727E+06         0.26919E+08         0.00000E+00
    0.00000E+00         0.00000E+00         0.11549E+08
 
    0.11541E+08         0.32080E+06         0.00000E+00
    0.32080E+06         0.26835E+08         0.00000E+00
    0.00000E+00         0.00000E+00         0.11513E+08
 
    0.11504E+08         0.32424E+06         0.00000E+00
    0.32424E+06         0.26751E+08         0.00000E+00
    0.00000E+00         0.00000E+00         0.11476E+08
 
    0.11467E+08         0.32759E+06         0.00000E+00
    0.32759E+06         0.26666E+08         0.00000E+00
    0.00000E+00         0.00000E+00         0.11440E+08
 
    0.11429E+08         0.33087E+06         0.00000E+00
    0.33087E+06         0.26580E+08         0.00000E+00
    0.00000E+00         0.00000E+00         0.11403E+08
 
    0.11391E+08         0.33407E+06         0.00000E+00
    0.33407E+06         0.26494E+08         0.00000E+00
    0.00000E+00         0.00000E+00         0.11366E+08
 
    0.11354E+08         0.33720E+06         0.00000E+00
    0.33720E+06         0.26406E+08         0.00000E+00
    0.00000E+00         0.00000E+00         0.11328E+08
 
    0.11315E+08         0.34026E+06         0.00000E+00
    0.34026E+06         0.26319E+08         0.00000E+00
    0.00000E+00         0.00000E+00         0.11290E+08
 
    0.11277E+08         0.34326E+06         0.00000E+00
    0.34326E+06         0.26230E+08         0.00000E+00
    0.00000E+00         0.00000E+00         0.11252E+08
 
    0.11238E+08         0.34618E+06         0.00000E+00
    0.34618E+06         0.26140E+08         0.00000E+00
    0.00000E+00         0.00000E+00         0.11213E+08
 
    0.11198E+08         0.34904E+06         0.00000E+00
    0.34904E+06         0.26050E+08         0.00000E+00
    0.00000E+00         0.00000E+00         0.11175E+08
 
    0.11159E+08         0.35184E+06         0.00000E+00
    0.35184E+06         0.25959E+08         0.00000E+00
    0.00000E+00         0.00000E+00         0.11135E+08
 
    0.11119E+08         0.35456E+06         0.00000E+00
    0.35456E+06         0.25867E+08         0.00000E+00
    0.00000E+00         0.00000E+00         0.11096E+08
 
    0.11078E+08         0.35721E+06         0.00000E+00
    0.35721E+06         0.25775E+08         0.00000E+00
    0.00000E+00         0.00000E+00         0.11056E+08
 
    0.11038E+08         0.35979E+06         0.00000E+00
    0.35979E+06         0.25681E+08         0.00000E+00
    0.00000E+00         0.00000E+00         0.11016E+08
 
    0.10996E+08         0.36228E+06         0.00000E+00
    0.36228E+06         0.25587E+08         0.00000E+00
    0.00000E+00         0.00000E+00         0.10975E+08
 
    0.10955E+08         0.36469E+06         0.00000E+00
    0.36469E+06         0.25492E+08         0.00000E+00
    0.00000E+00         0.00000E+00         0.10934E+08
 
    0.10913E+08         0.36702E+06         0.00000E+00
    0.36702E+06         0.25396E+08         0.00000E+00
    0.00000E+00         0.00000E+00         0.10893E+08
 
    0.10870E+08         0.36925E+06         0.00000E+00
    0.36925E+06         0.25299E+08         0.00000E+00
    0.00000E+00         0.00000E+00         0.10851E+08
 
    0.10828E+08         0.37137E+06         0.00000E+00
    0.37137E+06         0.25201E+08         0.00000E+00
    0.00000E+00         0.00000E+00         0.10809E+08
 
    0.10784E+08         0.37339E+06         0.00000E+00
    0.37339E+06         0.25103E+08         0.00000E+00
    0.00000E+00         0.00000E+00         0.10766E+08
 
    0.10741E+08         0.37529E+06         0.00000E+00
    0.37529E+06         0.25004E+08         0.00000E+00
    0.00000E+00         0.00000E+00         0.10723E+08
 
    0.10696E+08         0.37706E+06         0.00000E+00
    0.37706E+06         0.24904E+08         0.00000E+00
    0.00000E+00         0.00000E+00         0.10680E+08
 
    0.10652E+08         0.37869E+06         0.00000E+00
    0.37869E+06         0.24803E+08         0.00000E+00
    0.00000E+00         0.00000E+00         0.10636E+08
 
    0.10606E+08         0.38018E+06         0.00000E+00
    0.38018E+06         0.24701E+08         0.00000E+00
    0.00000E+00         0.00000E+00         0.10592E+08
 
    0.10561E+08         0.38150E+06         0.00000E+00
    0.38150E+06         0.24599E+08         0.00000E+00
    0.00000E+00         0.00000E+00         0.10548E+08
 
    0.10515E+08         0.38265E+06         0.00000E+00
    0.38265E+06         0.24495E+08         0.00000E+00
    0.00000E+00         0.00000E+00         0.10503E+08
 
    0.10468E+08         0.38360E+06         0.00000E+00
    0.38360E+06         0.24391E+08         0.00000E+00
    0.00000E+00         0.00000E+00         0.10458E+08
 
    0.10421E+08         0.38435E+06         0.00000E+00
    0.38435E+06         0.24286E+08         0.00000E+00
    0.00000E+00         0.00000E+00         0.10412E+08
 
    0.10373E+08         0.38487E+06         0.00000E+00
    0.38487E+06         0.24180E+08         0.00000E+00
    0.00000E+00         0.00000E+00         0.10366E+08
 
    0.10325E+08         0.38515E+06         0.00000E+00
    0.38515E+06         0.24073E+08         0.00000E+00
    0.00000E+00         0.00000E+00         0.10319E+08
 
    0.10276E+08         0.38516E+06         0.00000E+00
    0.38516E+06         0.23966E+08         0.00000E+00
    0.00000E+00         0.00000E+00         0.10272E+08
 
    0.10226E+08         0.38488E+06         0.00000E+00
    0.38488E+06         0.23857E+08         0.00000E+00
    0.00000E+00         0.00000E+00         0.10225E+08
 
    0.10176E+08         0.38428E+06         0.00000E+00
    0.38428E+06         0.23748E+08         0.00000E+00
    0.00000E+00         0.00000E+00         0.10177E+08
 
    0.10126E+08         0.38334E+06         0.00000E+00
    0.38334E+06         0.23638E+08         0.00000E+00
    0.00000E+00         0.00000E+00         0.10129E+08
 
    0.10074E+08         0.38203E+06         0.00000E+00
    0.38203E+06         0.23527E+08         0.00000E+00
    0.00000E+00         0.00000E+00         0.10080E+08
 
    0.10022E+08         0.38031E+06         0.00000E+00
    0.38031E+06         0.23416E+08         0.00000E+00
    0.00000E+00         0.00000E+00         0.10031E+08
 
    0.99693E+07         0.37814E+06         0.00000E+00
    0.37814E+06         0.23303E+08         0.00000E+00
    0.00000E+00         0.00000E+00         0.99818E+07
 
    0.99158E+07         0.37549E+06         0.00000E+00
    0.37549E+06         0.23190E+08         0.00000E+00
    0.00000E+00         0.00000E+00         0.99318E+07
 
    0.98615E+07         0.37231E+06         0.00000E+00
    0.37231E+06         0.23076E+08         0.00000E+00
    0.00000E+00         0.00000E+00         0.98813E+07
 
    0.98064E+07         0.36856E+06         0.00000E+00
    0.36856E+06         0.22961E+08         0.00000E+00
    0.00000E+00         0.00000E+00         0.98303E+07
 
    0.97505E+07         0.36417E+06         0.00000E+00
    0.36417E+06         0.22845E+08         0.00000E+00
    0.00000E+00         0.00000E+00         0.97788E+07
 
    0.96937E+07         0.35910E+06         0.00000E+00
    0.35910E+06         0.22729E+08         0.00000E+00
    0.00000E+00         0.00000E+00         0.97268E+07
 
    0.96361E+07         0.35328E+06         0.00000E+00
    0.35328E+06         0.22611E+08         0.00000E+00
    0.00000E+00         0.00000E+00         0.96742E+07
 
    0.95775E+07         0.34666E+06         0.00000E+00
    0.34666E+06         0.22493E+08         0.00000E+00
    0.00000E+00         0.00000E+00         0.96211E+07
 
    0.95179E+07         0.33915E+06         0.00000E+00
    0.33915E+06         0.22374E+08         0.00000E+00
    0.00000E+00         0.00000E+00         0.95675E+07
 
    0.94574E+07         0.33069E+06         0.00000E+00
    0.33069E+06         0.22253E+08         0.00000E+00
    0.00000E+00         0.00000E+00         0.95132E+07
 
    0.93960E+07         0.32121E+06         0.00000E+00
    0.32121E+06         0.22132E+08         0.00000E+00
    0.00000E+00         0.00000E+00         0.94584E+07
 
    0.93335E+07         0.31063E+06         0.00000E+00
    0.31063E+06         0.22010E+08         0.00000E+00
    0.00000E+00         0.00000E+00         0.94031E+07
 
    0.92701E+07         0.29887E+06         0.00000E+00
    0.29887E+06         0.21887E+08         0.00000E+00
    0.00000E+00         0.00000E+00         0.93471E+07
 
    0.92058E+07         0.28586E+06         0.00000E+00
    0.28586E+06         0.21763E+08         0.00000E+00
    0.00000E+00         0.00000E+00         0.92907E+07
 
    0.91406E+07         0.27155E+06         0.00000E+00
    0.27155E+06         0.21638E+08         0.00000E+00
    0.00000E+00         0.00000E+00         0.92337E+07
 
    0.90745E+07         0.25588E+06         0.00000E+00
    0.25588E+06         0.21513E+08         0.00000E+00
    0.00000E+00         0.00000E+00         0.91762E+07
 
    0.90076E+07         0.23883E+06         0.00000E+00
    0.23883E+06         0.21387E+08         0.00000E+00
    0.00000E+00         0.00000E+00         0.91184E+07
 
    0.89400E+07         0.22039E+06         0.00000E+00
    0.22039E+06         0.21261E+08         0.00000E+00
    0.00000E+00         0.00000E+00         0.90604E+07
 
    0.88717E+07         0.20059E+06         0.00000E+00
    0.20059E+06         0.21136E+08         0.00000E+00
    0.00000E+00         0.00000E+00         0.90022E+07
 
    0.88025E+07         0.17954E+06         0.00000E+00
    0.17954E+06         0.21011E+08         0.00000E+00
    0.00000E+00         0.00000E+00         0.89442E+07
 
    0.87323E+07         0.15739E+06         0.00000E+00
    0.15739E+06         0.20889E+08         0.00000E+00
    0.00000E+00         0.00000E+00         0.88864E+07
 
    0.86607E+07         0.13438E+06         0.00000E+00
    0.13438E+06         0.20770E+08         0.00000E+00
    0.00000E+00         0.00000E+00         0.88292E+07
 
    0.85870E+07         0.11087E+06         0.00000E+00
    0.11087E+06         0.20656E+08         0.00000E+00
    0.00000E+00         0.00000E+00         0.87728E+07
 
    0.85101E+07         0.87344E+05         0.00000E+00
    0.87344E+05         0.20548E+08         0.00000E+00
    0.00000E+00         0.00000E+00         0.87175E+07
 
    0.84281E+07         0.64480E+05         0.00000E+00
    0.64480E+05         0.20450E+08         0.00000E+00
    0.00000E+00         0.00000E+00         0.86635E+07
 
    0.83389E+07         0.43157E+05         0.00000E+00
    0.43157E+05         0.20363E+08         0.00000E+00
    0.00000E+00         0.00000E+00         0.86106E+07
 
    0.82404E+07         0.24217E+05         0.00000E+00
    0.24217E+05         0.20288E+08         0.00000E+00
    0.00000E+00         0.00000E+00         0.85585E+07
 
    0.81312E+07         0.77151E+04         0.00000E+00
    0.77151E+04         0.20225E+08         0.00000E+00
    0.00000E+00         0.00000E+00         0.85069E+07
 
    0.12971E+08         0.47193E+04         0.00000E+00
    0.47193E+04         0.29466E+08         0.00000E+00
    0.00000E+00         0.00000E+00         0.12731E+08
 
    0.12907E+08         0.14798E+05         0.00000E+00
    0.14798E+05         0.29429E+08         0.00000E+00
    0.00000E+00         0.00000E+00         0.12701E+08
 
    0.12850E+08         0.26389E+05         0.00000E+00
    0.26389E+05         0.29385E+08         0.00000E+00
    0.00000E+00         0.00000E+00         0.12671E+08
 
    0.12798E+08         0.39576E+05         0.00000E+00
    0.39576E+05         0.29335E+08         0.00000E+00
    0.00000E+00         0.00000E+00         0.12640E+08
 
    0.12750E+08         0.53925E+05         0.00000E+00
    0.53925E+05         0.29277E+08         0.00000E+00
    0.00000E+00         0.00000E+00         0.12608E+08
 
    0.12705E+08         0.68905E+05         0.00000E+00
    0.68905E+05         0.29215E+08         0.00000E+00
    0.00000E+00         0.00000E+00         0.12576E+08
 
    0.12662E+08         0.84072E+05         0.00000E+00
    0.84072E+05         0.29148E+08         0.00000E+00
    0.00000E+00         0.00000E+00         0.12543E+08
 
    0.12621E+08         0.99091E+05         0.00000E+00
    0.99091E+05         0.29079E+08         0.00000E+00
    0.00000E+00         0.00000E+00         0.12510E+08
 
    0.12580E+08         0.11372E+06         0.00000E+00
    0.11372E+06         0.29007E+08         0.00000E+00
    0.00000E+00         0.00000E+00         0.12476E+08
 
    0.12539E+08         0.12778E+06         0.00000E+00
    0.12778E+06         0.28934E+08         0.00000E+00
    0.00000E+00         0.00000E+00         0.12442E+08
 
    0.12499E+08         0.14119E+06         0.00000E+00
    0.14119E+06         0.28860E+08         0.00000E+00
    0.00000E+00         0.00000E+00         0.12408E+08
 
    0.12460E+08         0.15387E+06         0.00000E+00
    0.15387E+06         0.28785E+08         0.00000E+00
    0.00000E+00         0.00000E+00         0.12373E+08
 
    0.12421E+08         0.16581E+06         0.00000E+00
    0.16581E+06         0.28710E+08         0.00000E+00
    0.00000E+00         0.00000E+00         0.12339E+08
 
    0.12382E+08         0.17700E+06         0.00000E+00
    0.17700E+06         0.28635E+08         0.00000E+00
    0.00000E+00         0.00000E+00         0.12305E+08
 
    0.12343E+08         0.18748E+06         0.00000E+00
    0.18748E+06         0.28559E+08         0.00000E+00
    0.00000E+00         0.00000E+00         0.12271E+08
 
    0.12305E+08         0.19726E+06         0.00000E+00
    0.19726E+06         0.28484E+08         0.00000E+00
    0.00000E+00         0.00000E+00         0.12237E+08
 
    0.12267E+08         0.20639E+06         0.00000E+00
    0.20639E+06         0.28408E+08         0.00000E+00
    0.00000E+00         0.00000E+00         0.12203E+08
 
    0.12230E+08         0.21492E+06         0.00000E+00
    0.21492E+06         0.28333E+08         0.00000E+00
    0.00000E+00         0.00000E+00         0.12169E+08
 
    0.12192E+08         0.22289E+06         0.00000E+00
    0.22289E+06         0.28257E+08         0.00000E+00
    0.00000E+00         0.00000E+00         0.12135E+08
 
    0.12155E+08         0.23034E+06         0.00000E+00
    0.23034E+06         0.28181E+08         0.00000E+00
    0.00000E+00         0.00000E+00         0.12101E+08
 
    0.12119E+08         0.23732E+06         0.00000E+00
    0.23732E+06         0.28105E+08         0.00000E+00
    0.00000E+00         0.00000E+00         0.12067E+08
 
    0.12082E+08         0.24387E+06         0.00000E+00
    0.24387E+06         0.28029E+08         0.00000E+00
    0.00000E+00         0.00000E+00         0.12033E+08
 
    0.12046E+08         0.25003E+06         0.00000E+00
    0.25003E+06         0.27953E+08         0.00000E+00
    0.00000E+00         0.00000E+00         0.12000E+08
 
    0.12010E+08         0.25584E+06         0.00000E+00
    0.25584E+06         0.27876E+08         0.00000E+00
    0.00000E+00         0.00000E+00         0.11966E+08
 
    0.11974E+08         0.26134E+06         0.00000E+00
    0.26134E+06         0.27799E+08         0.00000E+00
    0.00000E+00         0.00000E+00         0.11932E+08
 
    0.11939E+08         0.26655E+06         0.00000E+00
    0.26655E+06         0.27721E+08         0.00000E+00
    0.00000E+00         0.00000E+00         0.11898E+08
 
    0.11903E+08         0.27150E+06         0.00000E+00
    0.27150E+06         0.27643E+08         0.00000E+00
    0.00000E+00         0.00000E+00         0.11864E+08
 
    0.11867E+08         0.27622E+06         0.00000E+00
    0.27622E+06         0.27565E+08         0.00000E+00
    0.00000E+00         0.00000E+00         0.11830E+08
 
    0.11832E+08         0.28074E+06         0.00000E+00
    0.28074E+06         0.27486E+08         0.00000E+00
    0.00000E+00         0.00000E+00         0.11795E+08
 
    0.11796E+08         0.28506E+06         0.00000E+00
    0.28506E+06         0.27407E+08         0.00000E+00
    0.00000E+00         0.00000E+00         0.11761E+08
 
    0.11760E+08         0.28922E+06         0.00000E+00
    0.28922E+06         0.27327E+08         0.00000E+00
    0.00000E+00         0.00000E+00         0.11726E+08
 
    0.11724E+08         0.29323E+06         0.00000E+00
    0.29323E+06         0.27246E+08         0.00000E+00
    0.00000E+00         0.00000E+00         0.11691E+08
 
    0.11688E+08         0.29710E+06         0.00000E+00
    0.29710E+06         0.27165E+08         0.00000E+00
    0.00000E+00         0.00000E+00         0.11656E+08
 
    0.11652E+08         0.30084E+06         0.00000E+00
    0.30084E+06         0.27083E+08         0.00000E+00
    0.00000E+00         0.00000E+00         0.11621E+08
 
    0.11616E+08         0.30447E+06         0.00000E+00
    0.30447E+06         0.27001E+08         0.00000E+00
    0.00000E+00         0.00000E+00         0.11585E+08
 
    0.11579E+08         0.30800E+06         0.00000E+00
    0.30800E+06         0.26918E+08         0.00000E+00
    0.00000E+00         0.00000E+00         0.11549E+08
 
    0.11543E+08         0.31143E+06         0.00000E+00
    0.31143E+06         0.26835E+08         0.00000E+00
    0.00000E+00         0.00000E+00         0.11513E+08
 
    0.11506E+08         0.31477E+06         0.00000E+00
    0.31477E+06         0.26750E+08         0.00000E+00
    0.00000E+00         0.00000E+00         0.11477E+08
 
    0.11469E+08         0.31803E+06         0.00000E+00
    0.31803E+06         0.26665E+08         0.00000E+00
    0.00000E+00         0.00000E+00         0.11440E+08
 
    0.11431E+08         0.32122E+06         0.00000E+00
    0.32122E+06         0.26579E+08         0.00000E+00
    0.00000E+00         0.00000E+00         0.11403E+08
 
    0.11393E+08         0.32433E+06         0.00000E+00
    0.32433E+06         0.26493E+08         0.00000E+00
    0.00000E+00         0.00000E+00         0.11366E+08
 
    0.11355E+08         0.32737E+06         0.00000E+00
    0.32737E+06         0.26406E+08         0.00000E+00
    0.00000E+00         0.00000E+00         0.11328E+08
 
    0.11317E+08         0.33034E+06         0.00000E+00
    0.33034E+06         0.26318E+08         0.00000E+00
    0.00000E+00         0.00000E+00         0.11290E+08
 
    0.11278E+08         0.33325E+06         0.00000E+00
    0.33325E+06         0.26229E+08         0.00000E+00
    0.00000E+00         0.00000E+00         0.11252E+08
 
    0.11239E+08         0.33609E+06         0.00000E+00
    0.33609E+06         0.26140E+08         0.00000E+00
    0.00000E+00         0.00000E+00         0.11214E+08
 
    0.11200E+08         0.33886E+06         0.00000E+00
    0.33886E+06         0.26050E+08         0.00000E+00
    0.00000E+00         0.00000E+00         0.11175E+08
 
    0.11160E+08         0.34157E+06         0.00000E+00
    0.34157E+06         0.25958E+08         0.00000E+00
    0.00000E+00         0.00000E+00         0.11136E+08
 
    0.11120E+08         0.34421E+06         0.00000E+00
    0.34421E+06         0.25867E+08         0.00000E+00
    0.00000E+00         0.00000E+00         0.11096E+08
 
    0.11080E+08         0.34678E+06         0.00000E+00
    0.34678E+06         0.25774E+08         0.00000E+00
    0.00000E+00         0.00000E+00         0.11056E+08
 
    0.11039E+08         0.34927E+06         0.00000E+00
    0.34927E+06         0.25681E+08         0.00000E+00
    0.00000E+00         0.00000E+00         0.11016E+08
 
    0.10998E+08         0.35169E+06         0.00000E+00
    0.35169E+06         0.25586E+08         0.00000E+00
    0.00000E+00         0.00000E+00         0.10975E+08
 
    0.10956E+08         0.35402E+06         0.00000E+00
    0.35402E+06         0.25491E+08         0.00000E+00
    0.00000E+00         0.00000E+00         0.10934E+08
 
    0.10914E+08         0.35627E+06         0.00000E+00
    0.35627E+06         0.25395E+08         0.00000E+00
    0.00000E+00         0.00000E+00         0.10893E+08
 
    0.10872E+08         0.35842E+06         0.00000E+00
    0.35842E+06         0.25299E+08         0.00000E+00
    0.00000E+00         0.00000E+00         0.10851E+08
 
    0.10829E+08         0.36048E+06         0.00000E+00
    0.36048E+06         0.25201E+08         0.00000E+00
    0.00000E+00         0.00000E+00         0.10809E+08
 
    0.10786E+08         0.36242E+06         0.00000E+00
    0.36242E+06         0.25103E+08         0.00000E+00
    0.00000E+00         0.00000E+00         0.10766E+08
 
    0.10742E+08         0.36426E+06         0.00000E+00
    0.36426E+06         0.25003E+08         0.00000E+00
    0.00000E+00         0.00000E+00         0.10724E+08
 
    0.10698E+08         0.36596E+06         0.00000E+00
    0.36596E+06         0.24903E+08         0.00000E+00
    0.00000E+00         0.00000E+00         0.10680E+08
 
    0.10653E+08         0.36753E+06         0.00000E+00
    0.36753E+06         0.24803E+08         0.00000E+00
    0.00000E+00         0.00000E+00         0.10637E+08
 
    0.10608E+08         0.36896E+06         0.00000E+00
    0.36896E+06         0.24701E+08         0.00000E+00
    0.00000E+00         0.00000E+00         0.10593E+08
 
    0.10562E+08         0.37022E+06         0.00000E+00
    0.37022E+06         0.24598E+08         0.00000E+00
    0.00000E+00         0.00000E+00         0.10548E+08
 
    0.10516E+08         0.37131E+06         0.00000E+00
    0.37131E+06         0.24495E+08         0.00000E+00
    0.00000E+00         0.00000E+00         0.10503E+08
 
    0.10469E+08         0.37222E+06         0.00000E+00
    0.37222E+06         0.24391E+08         0.00000E+00
    0.00000E+00         0.00000E+00         0.10458E+08
 
    0.10421E+08         0.37292E+06         0.00000E+00
    0.37292E+06         0.24286E+08         0.00000E+00
    0.00000E+00         0.00000E+00         0.10412E+08
 
    0.10374E+08         0.37341E+06         0.00000E+00
    0.37341E+06         0.24180E+08         0.00000E+00
    0.00000E+00         0.00000E+00         0.10366E+08
 
    0.10325E+08         0.37365E+06         0.00000E+00
    0.37365E+06         0.24073E+08         0.00000E+00
    0.00000E+00         0.00000E+00         0.10320E+08
 
    0.10276E+08         0.37363E+06         0.00000E+00
    0.37363E+06         0.23966E+08         0.00000E+00
    0.00000E+00         0.00000E+00         0.10273E+08
 
    0.10227E+08         0.37333E+06         0.00000E+00
    0.37333E+06         0.23857E+08         0.00000E+00
    0.00000E+00         0.00000E+00         0.10225E+08
 
    0.10176E+08         0.37272E+06         0.00000E+00
    0.37272E+06         0.23748E+08         0.00000E+00
    0.00000E+00         0.00000E+00         0.10177E+08
 
    0.10125E+08         0.37177E+06         0.00000E+00
    0.37177E+06         0.23638E+08         0.00000E+00
    0.00000E+00         0.00000E+00         0.10129E+08
 
    0.10074E+08         0.37046E+06         0.00000E+00
    0.37046E+06         0.23528E+08         0.00000E+00
    0.00000E+00         0.00000E+00         0.10080E+08
 
    0.10022E+08         0.36875E+06         0.00000E+00
    0.36875E+06         0.23416E+08         0.00000E+00
    0.00000E+00         0.00000E+00         0.10031E+08
 
    0.99686E+07         0.36660E+06         0.00000E+00
    0.36660E+06         0.23304E+08         0.00000E+00
    0.00000E+00         0.00000E+00         0.99817E+07
 
    0.99148E+07         0.36397E+06         0.00000E+00
    0.36397E+06         0.23191E+08         0.00000E+00
    0.00000E+00         0.00000E+00         0.99316E+07
 
    0.98603E+07         0.36083E+06         0.00000E+00
    0.36083E+06         0.23077E+08         0.00000E+00
    0.00000E+00         0.00000E+00         0.98811E+07
 
    0.98049E+07         0.35712E+06         0.00000E+00
    0.35712E+06         0.22962E+08         0.00000E+00
    0.00000E+00         0.00000E+00         0.98300E+07
 
    0.97487E+07         0.35279E+06         0.00000E+00
    0.35279E+06         0.22846E+08         0.00000E+00
    0.00000E+00         0.00000E+00         0.97785E+07
 
    0.96916E+07         0.34778E+06         0.00000E+00
    0.34778E+06         0.22730E+08         0.00000E+00
    0.00000E+00         0.00000E+00         0.97264E+07
 
    0.96335E+07         0.34204E+06         0.00000E+00
    0.34204E+06         0.22613E+08         0.00000E+00
    0.00000E+00         0.00000E+00         0.96738E+07
 
    0.95745E+07         0.33550E+06         0.00000E+00
    0.33550E+06         0.22494E+08         0.00000E+00
    0.00000E+00         0.00000E+00         0.96206E+07
 
    0.95146E+07         0.32809E+06         0.00000E+00
    0.32809E+06         0.22375E+08         0.00000E+00
    0.00000E+00         0.00000E+00         0.95669E+07
 
    0.94536E+07         0.31973E+06         0.00000E+00
    0.31973E+06         0.22255E+08         0.00000E+00
    0.00000E+00         0.00000E+00         0.95126E+07
 
    0.93916E+07         0.31036E+06         0.00000E+00
    0.31036E+06         0.22134E+08         0.00000E+00
    0.00000E+00         0.00000E+00         0.94577E+07
 
    0.93286E+07         0.29988E+06         0.00000E+00
    0.29988E+06         0.22012E+08         0.00000E+00
    0.00000E+00         0.00000E+00         0.94023E+07
 
    0.92646E+07         0.28824E+06         0.00000E+00
    0.28824E+06         0.21889E+08         0.00000E+00
    0.00000E+00         0.00000E+00         0.93462E+07
 
    0.91996E+07         0.27534E+06         0.00000E+00
    0.27534E+06         0.21766E+08         0.00000E+00
    0.00000E+00         0.00000E+00         0.92896E+07
 
    0.91336E+07         0.26114E+06         0.00000E+00
    0.26114E+06         0.21641E+08         0.00000E+00
    0.00000E+00         0.00000E+00         0.92325E+07
 
    0.90668E+07         0.24557E+06         0.00000E+00
    0.24557E+06         0.21516E+08         0.00000E+00
    0.00000E+00         0.00000E+00         0.91749E+07
 
    0.89990E+07         0.22862E+06         0.00000E+00
    0.22862E+06         0.21391E+08         0.00000E+00
    0.00000E+00         0.00000E+00         0.91169E+07
 
    0.89305E+07         0.21028E+06         0.00000E+00
    0.21028E+06         0.21265E+08         0.00000E+00
    0.00000E+00         0.00000E+00         0.90587E+07
 
    0.88610E+07         0.19059E+06         0.00000E+00
    0.19059E+06         0.21140E+08         0.00000E+00
    0.00000E+00         0.00000E+00         0.90003E+07
 
    0.87907E+07         0.16968E+06         0.00000E+00
    0.16968E+06         0.21016E+08         0.00000E+00
    0.00000E+00         0.00000E+00         0.89419E+07
 
    0.87193E+07         0.14772E+06         0.00000E+00
    0.14772E+06         0.20894E+08         0.00000E+00
    0.00000E+00         0.00000E+00         0.88838E+07
 
    0.86463E+07         0.12502E+06         0.00000E+00
    0.12502E+06         0.20775E+08         0.00000E+00
    0.00000E+00         0.00000E+00         0.88263E+07
 
    0.85712E+07         0.10200E+06         0.00000E+00
    0.10200E+06         0.20660E+08         0.00000E+00
    0.00000E+00         0.00000E+00         0.87695E+07
 
    0.84927E+07         0.79268E+05         0.00000E+00
    0.79268E+05         0.20553E+08         0.00000E+00
    0.00000E+00         0.00000E+00         0.87137E+07
 
    0.84092E+07         0.57589E+05         0.00000E+00
    0.57589E+05         0.20454E+08         0.00000E+00
    0.00000E+00         0.00000E+00         0.86591E+07
 
    0.83187E+07         0.37898E+05         0.00000E+00
    0.37898E+05         0.20367E+08         0.00000E+00
    0.00000E+00         0.00000E+00         0.86057E+07
 
    0.82193E+07         0.20950E+05         0.00000E+00
    0.20950E+05         0.20291E+08         0.00000E+00
    0.00000E+00         0.00000E+00         0.85532E+07
 
    0.81096E+07         0.66138E+04         0.00000E+00
    0.66138E+04         0.20228E+08         0.00000E+00
    0.00000E+00         0.00000E+00         0.85013E+07
 
    0.12984E+08         0.40921E+04         0.00000E+00
    0.40921E+04         0.29464E+08         0.00000E+00
    0.00000E+00         0.00000E+00         0.12734E+08
 
    0.12920E+08         0.12939E+05         0.00000E+00
    0.12939E+05         0.29427E+08         0.00000E+00
    0.00000E+00         0.00000E+00         0.12704E+08
 
    0.12863E+08         0.23395E+05         0.00000E+00
    0.23395E+05         0.29383E+08         0.00000E+00
    0.00000E+00         0.00000E+00         0.12674E+08
 
    0.12810E+08         0.35635E+05         0.00000E+00
    0.35635E+05         0.29332E+08         0.00000E+00
    0.00000E+00         0.00000E+00         0.12643E+08
 
    0.12761E+08         0.49274E+05         0.00000E+00
    0.49274E+05         0.29274E+08         0.00000E+00
    0.00000E+00         0.00000E+00         0.12611E+08
 
    0.12716E+08         0.63760E+05         0.00000E+00
    0.63760E+05         0.29212E+08         0.00000E+00
    0.00000E+00         0.00000E+00         0.12578E+08
 
    0.12672E+08         0.78590E+05         0.00000E+00
    0.78590E+05         0.29145E+08         0.00000E+00
    0.00000E+00         0.00000E+00         0.12545E+08
 
    0.12629E+08         0.93374E+05         0.00000E+00
    0.93374E+05         0.29076E+08         0.00000E+00
    0.00000E+00         0.00000E+00         0.12511E+08
 
    0.12588E+08         0.10783E+06         0.00000E+00
    0.10783E+06         0.29004E+08         0.00000E+00
    0.00000E+00         0.00000E+00         0.12477E+08
 
    0.12547E+08         0.12175E+06         0.00000E+00
    0.12175E+06         0.28931E+08         0.00000E+00
    0.00000E+00         0.00000E+00         0.12443E+08
 
    0.12506E+08         0.13503E+06         0.00000E+00
    0.13503E+06         0.28857E+08         0.00000E+00
    0.00000E+00         0.00000E+00         0.12409E+08
 
    0.12466E+08         0.14759E+06         0.00000E+00
    0.14759E+06         0.28783E+08         0.00000E+00
    0.00000E+00         0.00000E+00         0.12375E+08
 
    0.12426E+08         0.15940E+06         0.00000E+00
    0.15940E+06         0.28708E+08         0.00000E+00
    0.00000E+00         0.00000E+00         0.12340E+08
 
    0.12387E+08         0.17046E+06         0.00000E+00
    0.17046E+06         0.28633E+08         0.00000E+00
    0.00000E+00         0.00000E+00         0.12306E+08
 
    0.12348E+08         0.18080E+06         0.00000E+00
    0.18080E+06         0.28557E+08         0.00000E+00
    0.00000E+00         0.00000E+00         0.12272E+08
 
    0.12310E+08         0.19045E+06         0.00000E+00
    0.19045E+06         0.28482E+08         0.00000E+00
    0.00000E+00         0.00000E+00         0.12237E+08
 
    0.12271E+08         0.19944E+06         0.00000E+00
    0.19944E+06         0.28407E+08         0.00000E+00
    0.00000E+00         0.00000E+00         0.12203E+08
 
    0.12234E+08         0.20782E+06         0.00000E+00
    0.20782E+06         0.28331E+08         0.00000E+00
    0.00000E+00         0.00000E+00         0.12169E+08
 
    0.12196E+08         0.21564E+06         0.00000E+00
    0.21564E+06         0.28256E+08         0.00000E+00
    0.00000E+00         0.00000E+00         0.12136E+08
 
    0.12159E+08         0.22295E+06         0.00000E+00
    0.22295E+06         0.28180E+08         0.00000E+00
    0.00000E+00         0.00000E+00         0.12102E+08
 
    0.12122E+08         0.22979E+06         0.00000E+00
    0.22979E+06         0.28104E+08         0.00000E+00
    0.00000E+00         0.00000E+00         0.12068E+08
 
    0.12086E+08         0.23620E+06         0.00000E+00
    0.23620E+06         0.28028E+08         0.00000E+00
    0.00000E+00         0.00000E+00         0.12034E+08
 
    0.12049E+08         0.24223E+06         0.00000E+00
    0.24223E+06         0.27952E+08         0.00000E+00
    0.00000E+00         0.00000E+00         0.12000E+08
 
    0.12013E+08         0.24791E+06         0.00000E+00
    0.24791E+06         0.27875E+08         0.00000E+00
    0.00000E+00         0.00000E+00         0.11966E+08
 
    0.11977E+08         0.25327E+06         0.00000E+00
    0.25327E+06         0.27798E+08         0.00000E+00
    0.00000E+00         0.00000E+00         0.11932E+08
 
    0.11941E+08         0.25836E+06         0.00000E+00
    0.25836E+06         0.27720E+08         0.00000E+00
    0.00000E+00         0.00000E+00         0.11898E+08
 
    0.11905E+08         0.26319E+06         0.00000E+00
    0.26319E+06         0.27642E+08         0.00000E+00
    0.00000E+00         0.00000E+00         0.11864E+08
 
    0.11870E+08         0.26780E+06         0.00000E+00
    0.26780E+06         0.27564E+08         0.00000E+00
    0.00000E+00         0.00000E+00         0.11830E+08
 
    0.11834E+08         0.27220E+06         0.00000E+00
    0.27220E+06         0.27485E+08         0.00000E+00
    0.00000E+00         0.00000E+00         0.11796E+08
 
    0.11798E+08         0.27641E+06         0.00000E+00
    0.27641E+06         0.27406E+08         0.00000E+00
    0.00000E+00         0.00000E+00         0.11761E+08
 
    0.11762E+08         0.28046E+06         0.00000E+00
    0.28046E+06         0.27326E+08         0.00000E+00
    0.00000E+00         0.00000E+00         0.11726E+08
 
    0.11726E+08         0.28436E+06         0.00000E+00
    0.28436E+06         0.27245E+08         0.00000E+00
    0.00000E+00         0.00000E+00         0.11692E+08
 
    0.11690E+08         0.28813E+06         0.00000E+00
    0.28813E+06         0.27164E+08         0.00000E+00
    0.00000E+00         0.00000E+00         0.11656E+08
 
    0.11654E+08         0.29177E+06         0.00000E+00
    0.29177E+06         0.27083E+08         0.00000E+00
    0.00000E+00         0.00000E+00         0.11621E+08
 
    0.11618E+08         0.29530E+06         0.00000E+00
    0.29530E+06         0.27000E+08         0.00000E+00
    0.00000E+00         0.00000E+00         0.11585E+08
 
    0.11581E+08         0.29873E+06         0.00000E+00
    0.29873E+06         0.26918E+08         0.00000E+00
    0.00000E+00         0.00000E+00         0.11550E+08
 
    0.11545E+08         0.30206E+06         0.00000E+00
    0.30206E+06         0.26834E+08         0.00000E+00
    0.00000E+00         0.00000E+00         0.11514E+08
 
    0.11508E+08         0.30531E+06         0.00000E+00
    0.30531E+06         0.26750E+08         0.00000E+00
    0.00000E+00         0.00000E+00         0.11477E+08
 
    0.11470E+08         0.30848E+06         0.00000E+00
    0.30848E+06         0.26665E+08         0.00000E+00
    0.00000E+00         0.00000E+00         0.11441E+08
 
    0.11433E+08         0.31157E+06         0.00000E+00
    0.31157E+06         0.26579E+08         0.00000E+00
    0.00000E+00         0.00000E+00         0.11404E+08
 
    0.11395E+08         0.31459E+06         0.00000E+00
    0.31459E+06         0.26492E+08         0.00000E+00
    0.00000E+00         0.00000E+00         0.11366E+08
 
    0.11357E+08         0.31754E+06         0.00000E+00
    0.31754E+06         0.26405E+08         0.00000E+00
    0.00000E+00         0.00000E+00         0.11329E+08
 
    0.11319E+08         0.32042E+06         0.00000E+00
    0.32042E+06         0.26317E+08         0.00000E+00
    0.00000E+00         0.00000E+00         0.11291E+08
 
    0.11280E+08         0.32324E+06         0.00000E+00
    0.32324E+06         0.26229E+08         0.00000E+00
    0.00000E+00         0.00000E+00         0.11253E+08
 
    0.11241E+08         0.32600E+06         0.00000E+00
    0.32600E+06         0.26139E+08         0.00000E+00
    0.00000E+00         0.00000E+00         0.11214E+08
 
    0.11202E+08         0.32869E+06         0.00000E+00
    0.32869E+06         0.26049E+08         0.00000E+00
    0.00000E+00         0.00000E+00         0.11175E+08
 
    0.11162E+08         0.33131E+06         0.00000E+00
    0.33131E+06         0.25958E+08         0.00000E+00
    0.00000E+00         0.00000E+00         0.11136E+08
 
    0.11122E+08         0.33386E+06         0.00000E+00
    0.33386E+06         0.25866E+08         0.00000E+00
    0.00000E+00         0.00000E+00         0.11096E+08
 
    0.11082E+08         0.33635E+06         0.00000E+00
    0.33635E+06         0.25774E+08         0.00000E+00
    0.00000E+00         0.00000E+00         0.11057E+08
 
    0.11041E+08         0.33876E+06         0.00000E+00
    0.33876E+06         0.25680E+08         0.00000E+00
    0.00000E+00         0.00000E+00         0.11016E+08
 
    0.11000E+08         0.34110E+06         0.00000E+00
    0.34110E+06         0.25586E+08         0.00000E+00
    0.00000E+00         0.00000E+00         0.10976E+08
 
    0.10958E+08         0.34336E+06         0.00000E+00
    0.34336E+06         0.25491E+08         0.00000E+00
    0.00000E+00         0.00000E+00         0.10935E+08
 
    0.10916E+08         0.34553E+06         0.00000E+00
    0.34553E+06         0.25395E+08         0.00000E+00
    0.00000E+00         0.00000E+00         0.10893E+08
 
    0.10873E+08         0.34761E+06         0.00000E+00
    0.34761E+06         0.25298E+08         0.00000E+00
    0.00000E+00         0.00000E+00         0.10851E+08
 
    0.10830E+08         0.34959E+06         0.00000E+00
    0.34959E+06         0.25201E+08         0.00000E+00
    0.00000E+00         0.00000E+00         0.10809E+08
 
    0.10787E+08         0.35147E+06         0.00000E+00
    0.35147E+06         0.25102E+08         0.00000E+00
    0.00000E+00         0.00000E+00         0.10767E+08
 
    0.10743E+08         0.35323E+06         0.00000E+00
    0.35323E+06         0.25003E+08         0.00000E+00
    0.00000E+00         0.00000E+00         0.10724E+08
 
    0.10699E+08         0.35487E+06         0.00000E+00
    0.35487E+06         0.24903E+08         0.00000E+00
    0.00000E+00         0.00000E+00         0.10681E+08
 
    0.10654E+08         0.35638E+06         0.00000E+00
    0.35638E+06         0.24802E+08         0.00000E+00
    0.00000E+00         0.00000E+00         0.10637E+08
 
    0.10609E+08         0.35775E+06         0.00000E+00
    0.35775E+06         0.24701E+08         0.00000E+00
    0.00000E+00         0.00000E+00         0.10593E+08
 
    0.10563E+08         0.35896E+06         0.00000E+00
    0.35896E+06         0.24598E+08         0.00000E+00
    0.00000E+00         0.00000E+00         0.10548E+08
 
    0.10516E+08         0.36000E+06         0.00000E+00
    0.36000E+06         0.24495E+08         0.00000E+00
    0.00000E+00         0.00000E+00         0.10503E+08
 
    0.10470E+08         0.36086E+06         0.00000E+00
    0.36086E+06         0.24391E+08         0.00000E+00
    0.00000E+00         0.00000E+00         0.10458E+08
 
    0.10422E+08         0.36152E+06         0.00000E+00
    0.36152E+06         0.24286E+08         0.00000E+00
    0.00000E+00         0.00000E+00         0.10412E+08
 
    0.10374E+08         0.36197E+06         0.00000E+00
    0.36197E+06         0.24180E+08         0.00000E+00
    0.00000E+00         0.00000E+00         0.10366E+08
 
    0.10326E+08         0.36218E+06         0.00000E+00
    0.36218E+06         0.24073E+08         0.00000E+00
    0.00000E+00         0.00000E+00         0.10320E+08
 
    0.10277E+08         0.36213E+06         0.00000E+00
    0.36213E+06         0.23966E+08         0.00000E+00
    0.00000E+00         0.00000E+00         0.10273E+08
 
    0.10227E+08         0.36181E+06         0.00000E+00
    0.36181E+06         0.23857E+08         0.00000E+00
    0.00000E+00         0.00000E+00         0.10225E+08
 
    0.10176E+08         0.36119E+06         0.00000E+00
    0.36119E+06         0.23748E+08         0.00000E+00
    0.00000E+00         0.00000E+00         0.10177E+08
 
    0.10125E+08         0.36024E+06         0.00000E+00
    0.36024E+06         0.23639E+08         0.00000E+00
    0.00000E+00         0.00000E+00         0.10129E+08
 
    0.10074E+08         0.35893E+06         0.00000E+00
    0.35893E+06         0.23528E+08         0.00000E+00
    0.00000E+00         0.00000E+00         0.10080E+08
 
    0.10021E+08         0.35722E+06         0.00000E+00
    0.35722E+06         0.23417E+08         0.00000E+00
    0.00000E+00         0.00000E+00         0.10031E+08
 
    0.99678E+07         0.35510E+06         0.00000E+00
    0.35510E+06         0.23304E+08         0.00000E+00
    0.00000E+00         0.00000E+00         0.99816E+07
 
    0.99139E+07         0.35250E+06         0.00000E+00
    0.35250E+06         0.23191E+08         0.00000E+00
    0.00000E+00         0.00000E+00         0.99315E+07
 
    0.98591E+07         0.34940E+06         0.00000E+00
    0.34940E+06         0.23077E+08         0.00000E+00
    0.00000E+00         0.00000E+00         0.98809E+07
 
    0.98034E+07         0.34573E+06         0.00000E+00
    0.34573E+06         0.22963E+08         0.00000E+00
    0.00000E+00         0.00000E+00         0.98298E+07
 
    0.97469E+07         0.34147E+06         0.00000E+00
    0.34147E+06         0.22847E+08         0.00000E+00
    0.00000E+00         0.00000E+00         0.97782E+07
 
    0.96894E+07         0.33653E+06         0.00000E+00
    0.33653E+06         0.22731E+08         0.00000E+00
    0.00000E+00         0.00000E+00         0.97261E+07
 
    0.96310E+07         0.33087E+06         0.00000E+00
    0.33087E+06         0.22614E+08         0.00000E+00
    0.00000E+00         0.00000E+00         0.96734E+07
 
    0.95717E+07         0.32443E+06         0.00000E+00
    0.32443E+06         0.22496E+08         0.00000E+00
    0.00000E+00         0.00000E+00         0.96202E+07
 
    0.95113E+07         0.31712E+06         0.00000E+00
    0.31712E+06         0.22377E+08         0.00000E+00
    0.00000E+00         0.00000E+00         0.95664E+07
 
    0.94498E+07         0.30887E+06         0.00000E+00
    0.30887E+06         0.22257E+08         0.00000E+00
    0.00000E+00         0.00000E+00         0.95120E+07
 
    0.93873E+07         0.29961E+06         0.00000E+00
    0.29961E+06         0.22136E+08         0.00000E+00
    0.00000E+00         0.00000E+00         0.94570E+07
 
    0.93238E+07         0.28926E+06         0.00000E+00
    0.28926E+06         0.22014E+08         0.00000E+00
    0.00000E+00         0.00000E+00         0.94015E+07
 
    0.92591E+07         0.27773E+06         0.00000E+00
    0.27773E+06         0.21892E+08         0.00000E+00
    0.00000E+00         0.00000E+00         0.93453E+07
 
    0.91935E+07         0.26496E+06         0.00000E+00
    0.26496E+06         0.21768E+08         0.00000E+00
    0.00000E+00         0.00000E+00         0.92886E+07
 
    0.91268E+07         0.25088E+06         0.00000E+00
    0.25088E+06         0.21644E+08         0.00000E+00
    0.00000E+00         0.00000E+00         0.92313E+07
 
    0.90591E+07         0.23543E+06         0.00000E+00
    0.23543E+06         0.21519E+08         0.00000E+00
    0.00000E+00         0.00000E+00         0.91736E+07
 
    0.89905E+07         0.21859E+06         0.00000E+00
    0.21859E+06         0.21394E+08         0.00000E+00
    0.00000E+00         0.00000E+00         0.91154E+07
 
    0.89209E+07         0.20037E+06         0.00000E+00
    0.20037E+06         0.21269E+08         0.00000E+00
    0.00000E+00         0.00000E+00         0.90569E+07
 
    0.88504E+07         0.18081E+06         0.00000E+00
    0.18081E+06         0.21144E+08         0.00000E+00
    0.00000E+00         0.00000E+00         0.89983E+07
 
    0.87789E+07         0.16005E+06         0.00000E+00
    0.16005E+06         0.21020E+08         0.00000E+00
    0.00000E+00         0.00000E+00         0.89397E+07
 
    0.87062E+07         0.13832E+06         0.00000E+00
    0.13832E+06         0.20898E+08         0.00000E+00
    0.00000E+00         0.00000E+00         0.88813E+07
 
    0.86319E+07         0.11594E+06         0.00000E+00
    0.11594E+06         0.20779E+08         0.00000E+00
    0.00000E+00         0.00000E+00         0.88233E+07
 
    0.85553E+07         0.93439E+05         0.00000E+00
    0.93439E+05         0.20665E+08         0.00000E+00
    0.00000E+00         0.00000E+00         0.87661E+07
 
    0.84754E+07         0.71490E+05         0.00000E+00
    0.71490E+05         0.20557E+08         0.00000E+00
    0.00000E+00         0.00000E+00         0.87098E+07
 
    0.83905E+07         0.50975E+05         0.00000E+00
    0.50975E+05         0.20458E+08         0.00000E+00
    0.00000E+00         0.00000E+00         0.86547E+07
 
    0.82988E+07         0.32859E+05         0.00000E+00
    0.32859E+05         0.20370E+08         0.00000E+00
    0.00000E+00         0.00000E+00         0.86007E+07
 
    0.81985E+07         0.17818E+05         0.00000E+00
    0.17818E+05         0.20294E+08         0.00000E+00
    0.00000E+00         0.00000E+00         0.85478E+07
 
    0.80884E+07         0.55566E+04         0.00000E+00
    0.55566E+04         0.20230E+08         0.00000E+00
    0.00000E+00         0.00000E+00         0.84957E+07
 
    0.12997E+08         0.34863E+04         0.00000E+00
    0.34863E+04         0.29462E+08         0.00000E+00
    0.00000E+00         0.00000E+00         0.12738E+08
 
    0.12933E+08         0.11147E+05         0.00000E+00
    0.11147E+05         0.29425E+08         0.00000E+00
    0.00000E+00         0.00000E+00         0.12707E+08
 
    0.12875E+08         0.20511E+05         0.00000E+00
    0.20511E+05         0.29381E+08         0.00000E+00
    0.00000E+00         0.00000E+00         0.12677E+08
 
    0.12822E+08         0.31838E+05         0.00000E+00
    0.31838E+05         0.29329E+08         0.00000E+00
    0.00000E+00         0.00000E+00         0.12645E+08
 
    0.12772E+08         0.44784E+05         0.00000E+00
    0.44784E+05         0.29272E+08         0.00000E+00
    0.00000E+00         0.00000E+00         0.12613E+08
 
    0.12726E+08         0.58777E+05         0.00000E+00
    0.58777E+05         0.29209E+08         0.00000E+00
    0.00000E+00         0.00000E+00         0.12580E+08
 
    0.12681E+08         0.73265E+05         0.00000E+00
    0.73265E+05         0.29142E+08         0.00000E+00
    0.00000E+00         0.00000E+00         0.12547E+08
 
    0.12638E+08         0.87804E+05         0.00000E+00
    0.87804E+05         0.29073E+08         0.00000E+00
    0.00000E+00         0.00000E+00         0.12513E+08
 
    0.12595E+08         0.10207E+06         0.00000E+00
    0.10207E+06         0.29001E+08         0.00000E+00
    0.00000E+00         0.00000E+00         0.12479E+08
 
    0.12554E+08         0.11584E+06         0.00000E+00
    0.11584E+06         0.28928E+08         0.00000E+00
    0.00000E+00         0.00000E+00         0.12445E+08
 
    0.12513E+08         0.12898E+06         0.00000E+00
    0.12898E+06         0.28855E+08         0.00000E+00
    0.00000E+00         0.00000E+00         0.12410E+08
 
    0.12472E+08         0.14140E+06         0.00000E+00
    0.14140E+06         0.28780E+08         0.00000E+00
    0.00000E+00         0.00000E+00         0.12376E+08
 
    0.12432E+08         0.15308E+06         0.00000E+00
    0.15308E+06         0.28705E+08         0.00000E+00
    0.00000E+00         0.00000E+00         0.12341E+08
 
    0.12392E+08         0.16400E+06         0.00000E+00
    0.16400E+06         0.28630E+08         0.00000E+00
    0.00000E+00         0.00000E+00         0.12307E+08
 
    0.12353E+08         0.17420E+06         0.00000E+00
    0.17420E+06         0.28555E+08         0.00000E+00
    0.00000E+00         0.00000E+00         0.12272E+08
 
    0.12314E+08         0.18369E+06         0.00000E+00
    0.18369E+06         0.28480E+08         0.00000E+00
    0.00000E+00         0.00000E+00         0.12238E+08
 
    0.12276E+08         0.19254E+06         0.00000E+00
    0.19254E+06         0.28405E+08         0.00000E+00
    0.00000E+00         0.00000E+00         0.12204E+08
 
    0.12238E+08         0.20077E+06         0.00000E+00
    0.20077E+06         0.28330E+08         0.00000E+00
    0.00000E+00         0.00000E+00         0.12170E+08
 
    0.12200E+08         0.20844E+06         0.00000E+00
    0.20844E+06         0.28254E+08         0.00000E+00
    0.00000E+00         0.00000E+00         0.12136E+08
 
    0.12163E+08         0.21560E+06         0.00000E+00
    0.21560E+06         0.28179E+08         0.00000E+00
    0.00000E+00         0.00000E+00         0.12102E+08
 
    0.12126E+08         0.22229E+06         0.00000E+00
    0.22229E+06         0.28103E+08         0.00000E+00
    0.00000E+00         0.00000E+00         0.12068E+08
 
    0.12089E+08         0.22857E+06         0.00000E+00
    0.22857E+06         0.28027E+08         0.00000E+00
    0.00000E+00         0.00000E+00         0.12035E+08
 
    0.12052E+08         0.23445E+06         0.00000E+00
    0.23445E+06         0.27950E+08         0.00000E+00
    0.00000E+00         0.00000E+00         0.12001E+08
 
    0.12016E+08         0.24000E+06         0.00000E+00
    0.24000E+06         0.27874E+08         0.00000E+00
    0.00000E+00         0.00000E+00         0.11967E+08
 
    0.11980E+08         0.24524E+06         0.00000E+00
    0.24524E+06         0.27797E+08         0.00000E+00
    0.00000E+00         0.00000E+00         0.11933E+08
 
    0.11944E+08         0.25019E+06         0.00000E+00
    0.25019E+06         0.27719E+08         0.00000E+00
    0.00000E+00         0.00000E+00         0.11899E+08
 
    0.11908E+08         0.25490E+06         0.00000E+00
    0.25490E+06         0.27641E+08         0.00000E+00
    0.00000E+00         0.00000E+00         0.11865E+08
 
    0.11872E+08         0.25939E+06         0.00000E+00
    0.25939E+06         0.27563E+08         0.00000E+00
    0.00000E+00         0.00000E+00         0.11831E+08
 
    0.11836E+08         0.26367E+06         0.00000E+00
    0.26367E+06         0.27484E+08         0.00000E+00
    0.00000E+00         0.00000E+00         0.11796E+08
 
    0.11800E+08         0.26778E+06         0.00000E+00
    0.26778E+06         0.27405E+08         0.00000E+00
    0.00000E+00         0.00000E+00         0.11762E+08
 
    0.11765E+08         0.27172E+06         0.00000E+00
    0.27172E+06         0.27325E+08         0.00000E+00
    0.00000E+00         0.00000E+00         0.11727E+08
 
    0.11729E+08         0.27551E+06         0.00000E+00
    0.27551E+06         0.27245E+08         0.00000E+00
    0.00000E+00         0.00000E+00         0.11692E+08
 
    0.11693E+08         0.27917E+06         0.00000E+00
    0.27917E+06         0.27164E+08         0.00000E+00
    0.00000E+00         0.00000E+00         0.11657E+08
 
    0.11656E+08         0.28271E+06         0.00000E+00
    0.28271E+06         0.27082E+08         0.00000E+00
    0.00000E+00         0.00000E+00         0.11622E+08
 
    0.11620E+08         0.28614E+06         0.00000E+00
    0.28614E+06         0.27000E+08         0.00000E+00
    0.00000E+00         0.00000E+00         0.11586E+08
 
    0.11583E+08         0.28947E+06         0.00000E+00
    0.28947E+06         0.26917E+08         0.00000E+00
    0.00000E+00         0.00000E+00         0.11550E+08
 
    0.11547E+08         0.29271E+06         0.00000E+00
    0.29271E+06         0.26833E+08         0.00000E+00
    0.00000E+00         0.00000E+00         0.11514E+08
 
    0.11510E+08         0.29586E+06         0.00000E+00
    0.29586E+06         0.26749E+08         0.00000E+00
    0.00000E+00         0.00000E+00         0.11478E+08
 
    0.11472E+08         0.29893E+06         0.00000E+00
    0.29893E+06         0.26664E+08         0.00000E+00
    0.00000E+00         0.00000E+00         0.11441E+08
 
    0.11435E+08         0.30193E+06         0.00000E+00
    0.30193E+06         0.26578E+08         0.00000E+00
    0.00000E+00         0.00000E+00         0.11404E+08
 
    0.11397E+08         0.30486E+06         0.00000E+00
    0.30486E+06         0.26492E+08         0.00000E+00
    0.00000E+00         0.00000E+00         0.11367E+08
 
    0.11359E+08         0.30772E+06         0.00000E+00
    0.30772E+06         0.26405E+08         0.00000E+00
    0.00000E+00         0.00000E+00         0.11329E+08
 
    0.11321E+08         0.31051E+06         0.00000E+00
    0.31051E+06         0.26317E+08         0.00000E+00
    0.00000E+00         0.00000E+00         0.11291E+08
 
    0.11282E+08         0.31324E+06         0.00000E+00
    0.31324E+06         0.26228E+08         0.00000E+00
    0.00000E+00         0.00000E+00         0.11253E+08
 
    0.11243E+08         0.31591E+06         0.00000E+00
    0.31591E+06         0.26139E+08         0.00000E+00
    0.00000E+00         0.00000E+00         0.11215E+08
 
    0.11204E+08         0.31851E+06         0.00000E+00
    0.31851E+06         0.26048E+08         0.00000E+00
    0.00000E+00         0.00000E+00         0.11176E+08
 
    0.11164E+08         0.32105E+06         0.00000E+00
    0.32105E+06         0.25957E+08         0.00000E+00
    0.00000E+00         0.00000E+00         0.11136E+08
 
    0.11124E+08         0.32353E+06         0.00000E+00
    0.32353E+06         0.25866E+08         0.00000E+00
    0.00000E+00         0.00000E+00         0.11097E+08
 
    0.11083E+08         0.32593E+06         0.00000E+00
    0.32593E+06         0.25773E+08         0.00000E+00
    0.00000E+00         0.00000E+00         0.11057E+08
 
    0.11042E+08         0.32826E+06         0.00000E+00
    0.32826E+06         0.25680E+08         0.00000E+00
    0.00000E+00         0.00000E+00         0.11017E+08
 
    0.11001E+08         0.33052E+06         0.00000E+00
    0.33052E+06         0.25585E+08         0.00000E+00
    0.00000E+00         0.00000E+00         0.10976E+08
 
    0.10959E+08         0.33270E+06         0.00000E+00
    0.33270E+06         0.25490E+08         0.00000E+00
    0.00000E+00         0.00000E+00         0.10935E+08
 
    0.10917E+08         0.33480E+06         0.00000E+00
    0.33480E+06         0.25394E+08         0.00000E+00
    0.00000E+00         0.00000E+00         0.10894E+08
 
    0.10875E+08         0.33681E+06         0.00000E+00
    0.33681E+06         0.25298E+08         0.00000E+00
    0.00000E+00         0.00000E+00         0.10852E+08
 
    0.10832E+08         0.33872E+06         0.00000E+00
    0.33872E+06         0.25200E+08         0.00000E+00
    0.00000E+00         0.00000E+00         0.10810E+08
 
    0.10788E+08         0.34052E+06         0.00000E+00
    0.34052E+06         0.25102E+08         0.00000E+00
    0.00000E+00         0.00000E+00         0.10767E+08
 
    0.10744E+08         0.34222E+06         0.00000E+00
    0.34222E+06         0.25003E+08         0.00000E+00
    0.00000E+00         0.00000E+00         0.10724E+08
 
    0.10700E+08         0.34380E+06         0.00000E+00
    0.34380E+06         0.24903E+08         0.00000E+00
    0.00000E+00         0.00000E+00         0.10681E+08
 
    0.10655E+08         0.34525E+06         0.00000E+00
    0.34525E+06         0.24802E+08         0.00000E+00
    0.00000E+00         0.00000E+00         0.10637E+08
 
    0.10610E+08         0.34656E+06         0.00000E+00
    0.34656E+06         0.24700E+08         0.00000E+00
    0.00000E+00         0.00000E+00         0.10593E+08
 
    0.10564E+08         0.34771E+06         0.00000E+00
    0.34771E+06         0.24598E+08         0.00000E+00
    0.00000E+00         0.00000E+00         0.10548E+08
 
    0.10517E+08         0.34871E+06         0.00000E+00
    0.34871E+06         0.24495E+08         0.00000E+00
    0.00000E+00         0.00000E+00         0.10504E+08
 
    0.10470E+08         0.34952E+06         0.00000E+00
    0.34952E+06         0.24390E+08         0.00000E+00
    0.00000E+00         0.00000E+00         0.10458E+08
 
    0.10423E+08         0.35014E+06         0.00000E+00
    0.35014E+06         0.24285E+08         0.00000E+00
    0.00000E+00         0.00000E+00         0.10413E+08
 
    0.10375E+08         0.35055E+06         0.00000E+00
    0.35055E+06         0.24180E+08         0.00000E+00
    0.00000E+00         0.00000E+00         0.10366E+08
 
    0.10326E+08         0.35073E+06         0.00000E+00
    0.35073E+06         0.24073E+08         0.00000E+00
    0.00000E+00         0.00000E+00         0.10320E+08
 
    0.10277E+08         0.35067E+06         0.00000E+00
    0.35067E+06         0.23966E+08         0.00000E+00
    0.00000E+00         0.00000E+00         0.10273E+08
 
    0.10227E+08         0.35033E+06         0.00000E+00
    0.35033E+06         0.23858E+08         0.00000E+00
    0.00000E+00         0.00000E+00         0.10225E+08
 
    0.10176E+08         0.34969E+06         0.00000E+00
    0.34969E+06         0.23749E+08         0.00000E+00
    0.00000E+00         0.00000E+00         0.10178E+08
 
    0.10125E+08         0.34874E+06         0.00000E+00
    0.34874E+06         0.23639E+08         0.00000E+00
    0.00000E+00         0.00000E+00         0.10129E+08
 
    0.10073E+08         0.34743E+06         0.00000E+00
    0.34743E+06         0.23528E+08         0.00000E+00
    0.00000E+00         0.00000E+00         0.10080E+08
 
    0.10021E+08         0.34574E+06         0.00000E+00
    0.34574E+06         0.23417E+08         0.00000E+00
    0.00000E+00         0.00000E+00         0.10031E+08
 
    0.99672E+07         0.34364E+06         0.00000E+00
    0.34364E+06         0.23305E+08         0.00000E+00
    0.00000E+00         0.00000E+00         0.99816E+07
 
    0.99129E+07         0.34108E+06         0.00000E+00
    0.34108E+06         0.23192E+08         0.00000E+00
    0.00000E+00         0.00000E+00         0.99314E+07
 
    0.98579E+07         0.33802E+06         0.00000E+00
    0.33802E+06         0.23078E+08         0.00000E+00
    0.00000E+00         0.00000E+00         0.98808E+07
 
    0.98020E+07         0.33441E+06         0.00000E+00
    0.33441E+06         0.22964E+08         0.00000E+00
    0.00000E+00         0.00000E+00         0.98296E+07
 
    0.97451E+07         0.33021E+06         0.00000E+00
    0.33021E+06         0.22848E+08         0.00000E+00
    0.00000E+00         0.00000E+00         0.97780E+07
 
    0.96874E+07         0.32535E+06         0.00000E+00
    0.32535E+06         0.22732E+08         0.00000E+00
    0.00000E+00         0.00000E+00         0.97258E+07
 
    0.96286E+07         0.31978E+06         0.00000E+00
    0.31978E+06         0.22615E+08         0.00000E+00
    0.00000E+00         0.00000E+00         0.96731E+07
 
    0.95688E+07         0.31343E+06         0.00000E+00
    0.31343E+06         0.22497E+08         0.00000E+00
    0.00000E+00         0.00000E+00         0.96198E+07
 
    0.95080E+07         0.30623E+06         0.00000E+00
    0.30623E+06         0.22378E+08         0.00000E+00
    0.00000E+00         0.00000E+00         0.95659E+07
 
    0.94461E+07         0.29810E+06         0.00000E+00
    0.29810E+06         0.22259E+08         0.00000E+00
    0.00000E+00         0.00000E+00         0.95114E+07
 
    0.93831E+07         0.28897E+06         0.00000E+00
    0.28897E+06         0.22138E+08         0.00000E+00
    0.00000E+00         0.00000E+00         0.94564E+07
 
    0.93190E+07         0.27875E+06         0.00000E+00
    0.27875E+06         0.22017E+08         0.00000E+00
    0.00000E+00         0.00000E+00         0.94007E+07
 
    0.92538E+07         0.26736E+06         0.00000E+00
    0.26736E+06         0.21894E+08         0.00000E+00
    0.00000E+00         0.00000E+00         0.93444E+07
 
    0.91874E+07         0.25472E+06         0.00000E+00
    0.25472E+06         0.21771E+08         0.00000E+00
    0.00000E+00         0.00000E+00         0.92876E+07
 
    0.91200E+07         0.24078E+06         0.00000E+00
    0.24078E+06         0.21647E+08         0.00000E+00
    0.00000E+00         0.00000E+00         0.92302E+07
 
    0.90515E+07         0.22546E+06         0.00000E+00
    0.22546E+06         0.21523E+08         0.00000E+00
    0.00000E+00         0.00000E+00         0.91723E+07
 
    0.89820E+07         0.20876E+06         0.00000E+00
    0.20876E+06         0.21398E+08         0.00000E+00
    0.00000E+00         0.00000E+00         0.91139E+07
 
    0.89114E+07         0.19067E+06         0.00000E+00
    0.19067E+06         0.21273E+08         0.00000E+00
    0.00000E+00         0.00000E+00         0.90552E+07
 
    0.88398E+07         0.17126E+06         0.00000E+00
    0.17126E+06         0.21148E+08         0.00000E+00
    0.00000E+00         0.00000E+00         0.89963E+07
 
    0.87671E+07         0.15068E+06         0.00000E+00
    0.15068E+06         0.21024E+08         0.00000E+00
    0.00000E+00         0.00000E+00         0.89374E+07
 
    0.86931E+07         0.12918E+06         0.00000E+00
    0.12918E+06         0.20902E+08         0.00000E+00
    0.00000E+00         0.00000E+00         0.88787E+07
 
    0.86175E+07         0.10715E+06         0.00000E+00
    0.10715E+06         0.20784E+08         0.00000E+00
    0.00000E+00         0.00000E+00         0.88203E+07
 
    0.85394E+07         0.85164E+05         0.00000E+00
    0.85164E+05         0.20669E+08         0.00000E+00
    0.00000E+00         0.00000E+00         0.87626E+07
 
    0.84580E+07         0.63999E+05         0.00000E+00
    0.63999E+05         0.20562E+08         0.00000E+00
    0.00000E+00         0.00000E+00         0.87059E+07
 
    0.83718E+07         0.44617E+05         0.00000E+00
    0.44617E+05         0.20462E+08         0.00000E+00
    0.00000E+00         0.00000E+00         0.86502E+07
 
    0.82790E+07         0.28019E+05         0.00000E+00
    0.28019E+05         0.20373E+08         0.00000E+00
    0.00000E+00         0.00000E+00         0.85958E+07
 
    0.81780E+07         0.14805E+05         0.00000E+00
    0.14805E+05         0.20297E+08         0.00000E+00
    0.00000E+00         0.00000E+00         0.85424E+07
 
    0.80675E+07         0.45375E+04         0.00000E+00
    0.45375E+04         0.20233E+08         0.00000E+00
    0.00000E+00         0.00000E+00         0.84900E+07
 
    0.13009E+08         0.28989E+04         0.00000E+00
    0.28989E+04         0.29461E+08         0.00000E+00
    0.00000E+00         0.00000E+00         0.12741E+08
 
    0.12946E+08         0.94127E+04         0.00000E+00
    0.94127E+04         0.29424E+08         0.00000E+00
    0.00000E+00         0.00000E+00         0.12711E+08
 
    0.12887E+08         0.17729E+05         0.00000E+00
    0.17729E+05         0.29379E+08         0.00000E+00
    0.00000E+00         0.00000E+00         0.12680E+08
 
    0.12833E+08         0.28176E+05         0.00000E+00
    0.28176E+05         0.29327E+08         0.00000E+00
    0.00000E+00         0.00000E+00         0.12648E+08
 
    0.12783E+08         0.40448E+05         0.00000E+00
    0.40448E+05         0.29269E+08         0.00000E+00
    0.00000E+00         0.00000E+00         0.12616E+08
 
    0.12736E+08         0.53954E+05         0.00000E+00
    0.53954E+05         0.29206E+08         0.00000E+00
    0.00000E+00         0.00000E+00         0.12583E+08
 
    0.12690E+08         0.68095E+05         0.00000E+00
    0.68095E+05         0.29139E+08         0.00000E+00
    0.00000E+00         0.00000E+00         0.12549E+08
 
    0.12646E+08         0.82382E+05         0.00000E+00
    0.82382E+05         0.29070E+08         0.00000E+00
    0.00000E+00         0.00000E+00         0.12515E+08
 
    0.12603E+08         0.96451E+05         0.00000E+00
    0.96451E+05         0.28998E+08         0.00000E+00
    0.00000E+00         0.00000E+00         0.12481E+08
 
    0.12561E+08         0.11006E+06         0.00000E+00
    0.11006E+06         0.28926E+08         0.00000E+00
    0.00000E+00         0.00000E+00         0.12446E+08
 
    0.12519E+08         0.12304E+06         0.00000E+00
    0.12304E+06         0.28852E+08         0.00000E+00
    0.00000E+00         0.00000E+00         0.12411E+08
 
    0.12478E+08         0.13532E+06         0.00000E+00
    0.13532E+06         0.28778E+08         0.00000E+00
    0.00000E+00         0.00000E+00         0.12377E+08
 
    0.12438E+08         0.14684E+06         0.00000E+00
    0.14684E+06         0.28703E+08         0.00000E+00
    0.00000E+00         0.00000E+00         0.12342E+08
 
    0.12397E+08         0.15762E+06         0.00000E+00
    0.15762E+06         0.28628E+08         0.00000E+00
    0.00000E+00         0.00000E+00         0.12308E+08
 
    0.12358E+08         0.16766E+06         0.00000E+00
    0.16766E+06         0.28553E+08         0.00000E+00
    0.00000E+00         0.00000E+00         0.12273E+08
 
    0.12319E+08         0.17700E+06         0.00000E+00
    0.17700E+06         0.28478E+08         0.00000E+00
    0.00000E+00         0.00000E+00         0.12239E+08
 
    0.12280E+08         0.18569E+06         0.00000E+00
    0.18569E+06         0.28403E+08         0.00000E+00
    0.00000E+00         0.00000E+00         0.12205E+08
 
    0.12241E+08         0.19377E+06         0.00000E+00
    0.19377E+06         0.28328E+08         0.00000E+00
    0.00000E+00         0.00000E+00         0.12171E+08
 
    0.12204E+08         0.20129E+06         0.00000E+00
    0.20129E+06         0.28253E+08         0.00000E+00
    0.00000E+00         0.00000E+00         0.12137E+08
 
    0.12166E+08         0.20829E+06         0.00000E+00
    0.20829E+06         0.28177E+08         0.00000E+00
    0.00000E+00         0.00000E+00         0.12103E+08
 
    0.12129E+08         0.21484E+06         0.00000E+00
    0.21484E+06         0.28101E+08         0.00000E+00
    0.00000E+00         0.00000E+00         0.12069E+08
 
    0.12092E+08         0.22096E+06         0.00000E+00
    0.22096E+06         0.28026E+08         0.00000E+00
    0.00000E+00         0.00000E+00         0.12035E+08
 
    0.12055E+08         0.22671E+06         0.00000E+00
    0.22671E+06         0.27949E+08         0.00000E+00
    0.00000E+00         0.00000E+00         0.12001E+08
 
    0.12019E+08         0.23212E+06         0.00000E+00
    0.23212E+06         0.27873E+08         0.00000E+00
    0.00000E+00         0.00000E+00         0.11967E+08
 
    0.11983E+08         0.23722E+06         0.00000E+00
    0.23722E+06         0.27796E+08         0.00000E+00
    0.00000E+00         0.00000E+00         0.11934E+08
 
    0.11947E+08         0.24205E+06         0.00000E+00
    0.24205E+06         0.27718E+08         0.00000E+00
    0.00000E+00         0.00000E+00         0.11899E+08
 
    0.11911E+08         0.24663E+06         0.00000E+00
    0.24663E+06         0.27641E+08         0.00000E+00
    0.00000E+00         0.00000E+00         0.11865E+08
 
    0.11875E+08         0.25100E+06         0.00000E+00
    0.25100E+06         0.27562E+08         0.00000E+00
    0.00000E+00         0.00000E+00         0.11831E+08
 
    0.11839E+08         0.25516E+06         0.00000E+00
    0.25516E+06         0.27484E+08         0.00000E+00
    0.00000E+00         0.00000E+00         0.11797E+08
 
    0.11803E+08         0.25915E+06         0.00000E+00
    0.25915E+06         0.27404E+08         0.00000E+00
    0.00000E+00         0.00000E+00         0.11762E+08
 
    0.11767E+08         0.26298E+06         0.00000E+00
    0.26298E+06         0.27324E+08         0.00000E+00
    0.00000E+00         0.00000E+00         0.11727E+08
 
    0.11731E+08         0.26667E+06         0.00000E+00
    0.26667E+06         0.27244E+08         0.00000E+00
    0.00000E+00         0.00000E+00         0.11692E+08
 
    0.11695E+08         0.27022E+06         0.00000E+00
    0.27022E+06         0.27163E+08         0.00000E+00
    0.00000E+00         0.00000E+00         0.11657E+08
 
    0.11658E+08         0.27366E+06         0.00000E+00
    0.27366E+06         0.27081E+08         0.00000E+00
    0.00000E+00         0.00000E+00         0.11622E+08
 
    0.11622E+08         0.27699E+06         0.00000E+00
    0.27699E+06         0.26999E+08         0.00000E+00
    0.00000E+00         0.00000E+00         0.11586E+08
 
    0.11585E+08         0.28022E+06         0.00000E+00
    0.28022E+06         0.26916E+08         0.00000E+00
    0.00000E+00         0.00000E+00         0.11550E+08
 
    0.11549E+08         0.28336E+06         0.00000E+00
    0.28336E+06         0.26833E+08         0.00000E+00
    0.00000E+00         0.00000E+00         0.11514E+08
 
    0.11512E+08         0.28641E+06         0.00000E+00
    0.28641E+06         0.26748E+08         0.00000E+00
    0.00000E+00         0.00000E+00         0.11478E+08
 
    0.11474E+08         0.28939E+06         0.00000E+00
    0.28939E+06         0.26663E+08         0.00000E+00
    0.00000E+00         0.00000E+00         0.11441E+08
 
    0.11437E+08         0.29230E+06         0.00000E+00
    0.29230E+06         0.26578E+08         0.00000E+00
    0.00000E+00         0.00000E+00         0.11404E+08
 
    0.11399E+08         0.29513E+06         0.00000E+00
    0.29513E+06         0.26491E+08         0.00000E+00
    0.00000E+00         0.00000E+00         0.11367E+08
 
    0.11361E+08         0.29790E+06         0.00000E+00
    0.29790E+06         0.26404E+08         0.00000E+00
    0.00000E+00         0.00000E+00         0.11330E+08
 
    0.11323E+08         0.30061E+06         0.00000E+00
    0.30061E+06         0.26316E+08         0.00000E+00
    0.00000E+00         0.00000E+00         0.11292E+08
 
    0.11284E+08         0.30325E+06         0.00000E+00
    0.30325E+06         0.26228E+08         0.00000E+00
    0.00000E+00         0.00000E+00         0.11253E+08
 
    0.11245E+08         0.30583E+06         0.00000E+00
    0.30583E+06         0.26138E+08         0.00000E+00
    0.00000E+00         0.00000E+00         0.11215E+08
 
    0.11205E+08         0.30835E+06         0.00000E+00
    0.30835E+06         0.26048E+08         0.00000E+00
    0.00000E+00         0.00000E+00         0.11176E+08
 
    0.11166E+08         0.31080E+06         0.00000E+00
    0.31080E+06         0.25957E+08         0.00000E+00
    0.00000E+00         0.00000E+00         0.11137E+08
 
    0.11125E+08         0.31319E+06         0.00000E+00
    0.31319E+06         0.25865E+08         0.00000E+00
    0.00000E+00         0.00000E+00         0.11097E+08
 
    0.11085E+08         0.31552E+06         0.00000E+00
    0.31552E+06         0.25773E+08         0.00000E+00
    0.00000E+00         0.00000E+00         0.11057E+08
 
    0.11044E+08         0.31777E+06         0.00000E+00
    0.31777E+06         0.25679E+08         0.00000E+00
    0.00000E+00         0.00000E+00         0.11017E+08
 
    0.11003E+08         0.31995E+06         0.00000E+00
    0.31995E+06         0.25585E+08         0.00000E+00
    0.00000E+00         0.00000E+00         0.10976E+08
 
    0.10961E+08         0.32205E+06         0.00000E+00
    0.32205E+06         0.25490E+08         0.00000E+00
    0.00000E+00         0.00000E+00         0.10935E+08
 
    0.10919E+08         0.32408E+06         0.00000E+00
    0.32408E+06         0.25394E+08         0.00000E+00
    0.00000E+00         0.00000E+00         0.10894E+08
 
    0.10876E+08         0.32601E+06         0.00000E+00
    0.32601E+06         0.25297E+08         0.00000E+00
    0.00000E+00         0.00000E+00         0.10852E+08
 
    0.10833E+08         0.32785E+06         0.00000E+00
    0.32785E+06         0.25200E+08         0.00000E+00
    0.00000E+00         0.00000E+00         0.10810E+08
 
    0.10790E+08         0.32959E+06         0.00000E+00
    0.32959E+06         0.25102E+08         0.00000E+00
    0.00000E+00         0.00000E+00         0.10767E+08
 
    0.10746E+08         0.33122E+06         0.00000E+00
    0.33122E+06         0.25002E+08         0.00000E+00
    0.00000E+00         0.00000E+00         0.10724E+08
 
    0.10701E+08         0.33274E+06         0.00000E+00
    0.33274E+06         0.24902E+08         0.00000E+00
    0.00000E+00         0.00000E+00         0.10681E+08
 
    0.10656E+08         0.33413E+06         0.00000E+00
    0.33413E+06         0.24802E+08         0.00000E+00
    0.00000E+00         0.00000E+00         0.10637E+08
 
    0.10611E+08         0.33538E+06         0.00000E+00
    0.33538E+06         0.24700E+08         0.00000E+00
    0.00000E+00         0.00000E+00         0.10593E+08
 
    0.10565E+08         0.33649E+06         0.00000E+00
    0.33649E+06         0.24598E+08         0.00000E+00
    0.00000E+00         0.00000E+00         0.10549E+08
 
    0.10518E+08         0.33743E+06         0.00000E+00
    0.33743E+06         0.24494E+08         0.00000E+00
    0.00000E+00         0.00000E+00         0.10504E+08
 
    0.10471E+08         0.33820E+06         0.00000E+00
    0.33820E+06         0.24390E+08         0.00000E+00
    0.00000E+00         0.00000E+00         0.10458E+08
 
    0.10424E+08         0.33878E+06         0.00000E+00
    0.33878E+06         0.24285E+08         0.00000E+00
    0.00000E+00         0.00000E+00         0.10413E+08
 
    0.10375E+08         0.33916E+06         0.00000E+00
    0.33916E+06         0.24180E+08         0.00000E+00
    0.00000E+00         0.00000E+00         0.10367E+08
 
    0.10327E+08         0.33931E+06         0.00000E+00
    0.33931E+06         0.24073E+08         0.00000E+00
    0.00000E+00         0.00000E+00         0.10320E+08
 
    0.10277E+08         0.33922E+06         0.00000E+00
    0.33922E+06         0.23966E+08         0.00000E+00
    0.00000E+00         0.00000E+00         0.10273E+08
 
    0.10227E+08         0.33887E+06         0.00000E+00
    0.33887E+06         0.23858E+08         0.00000E+00
    0.00000E+00         0.00000E+00         0.10225E+08
 
    0.10177E+08         0.33823E+06         0.00000E+00
    0.33823E+06         0.23749E+08         0.00000E+00
    0.00000E+00         0.00000E+00         0.10178E+08
 
    0.10125E+08         0.33727E+06         0.00000E+00
    0.33727E+06         0.23639E+08         0.00000E+00
    0.00000E+00         0.00000E+00         0.10129E+08
 
    0.10073E+08         0.33597E+06         0.00000E+00
    0.33597E+06         0.23529E+08         0.00000E+00
    0.00000E+00         0.00000E+00         0.10080E+08
 
    0.10020E+08         0.33430E+06         0.00000E+00
    0.33430E+06         0.23417E+08         0.00000E+00
    0.00000E+00         0.00000E+00         0.10031E+08
 
    0.99665E+07         0.33223E+06         0.00000E+00
    0.33223E+06         0.23305E+08         0.00000E+00
    0.00000E+00         0.00000E+00         0.99815E+07
 
    0.99120E+07         0.32970E+06         0.00000E+00
    0.32970E+06         0.23192E+08         0.00000E+00
    0.00000E+00         0.00000E+00         0.99313E+07
 
    0.98567E+07         0.32669E+06         0.00000E+00
    0.32669E+06         0.23079E+08         0.00000E+00
    0.00000E+00         0.00000E+00         0.98806E+07
 
    0.98006E+07         0.32314E+06         0.00000E+00
    0.32314E+06         0.22964E+08         0.00000E+00
    0.00000E+00         0.00000E+00         0.98295E+07
 
    0.97434E+07         0.31901E+06         0.00000E+00
    0.31901E+06         0.22849E+08         0.00000E+00
    0.00000E+00         0.00000E+00         0.97777E+07
 
    0.96853E+07         0.31424E+06         0.00000E+00
    0.31424E+06         0.22733E+08         0.00000E+00
    0.00000E+00         0.00000E+00         0.97255E+07
 
    0.96262E+07         0.30876E+06         0.00000E+00
    0.30876E+06         0.22616E+08         0.00000E+00
    0.00000E+00         0.00000E+00         0.96727E+07
 
    0.95661E+07         0.30252E+06         0.00000E+00
    0.30252E+06         0.22498E+08         0.00000E+00
    0.00000E+00         0.00000E+00         0.96193E+07
 
    0.95048E+07         0.29544E+06         0.00000E+00
    0.29544E+06         0.22380E+08         0.00000E+00
    0.00000E+00         0.00000E+00         0.95654E+07
 
    0.94425E+07         0.28743E+06         0.00000E+00
    0.28743E+06         0.22260E+08         0.00000E+00
    0.00000E+00         0.00000E+00         0.95109E+07
 
    0.93790E+07         0.27843E+06         0.00000E+00
    0.27843E+06         0.22140E+08         0.00000E+00
    0.00000E+00         0.00000E+00         0.94557E+07
 
    0.93143E+07         0.26835E+06         0.00000E+00
    0.26835E+06         0.22019E+08         0.00000E+00
    0.00000E+00         0.00000E+00         0.93999E+07
 
    0.92485E+07         0.25711E+06         0.00000E+00
    0.25711E+06         0.21897E+08         0.00000E+00
    0.00000E+00         0.00000E+00         0.93436E+07
 
    0.91815E+07         0.24463E+06         0.00000E+00
    0.24463E+06         0.21774E+08         0.00000E+00
    0.00000E+00         0.00000E+00         0.92866E+07
 
    0.91133E+07         0.23083E+06         0.00000E+00
    0.23083E+06         0.21650E+08         0.00000E+00
    0.00000E+00         0.00000E+00         0.92290E+07
 
    0.90440E+07         0.21567E+06         0.00000E+00
    0.21567E+06         0.21526E+08         0.00000E+00
    0.00000E+00         0.00000E+00         0.91710E+07
 
    0.89735E+07         0.19911E+06         0.00000E+00
    0.19911E+06         0.21401E+08         0.00000E+00
    0.00000E+00         0.00000E+00         0.91124E+07
 
    0.89020E+07         0.18118E+06         0.00000E+00
    0.18118E+06         0.21276E+08         0.00000E+00
    0.00000E+00         0.00000E+00         0.90535E+07
 
    0.88293E+07         0.16194E+06         0.00000E+00
    0.16194E+06         0.21152E+08         0.00000E+00
    0.00000E+00         0.00000E+00         0.89944E+07
 
    0.87554E+07         0.14156E+06         0.00000E+00
    0.14156E+06         0.21028E+08         0.00000E+00
    0.00000E+00         0.00000E+00         0.89351E+07
 
    0.86801E+07         0.12031E+06         0.00000E+00
    0.12031E+06         0.20907E+08         0.00000E+00
    0.00000E+00         0.00000E+00         0.88760E+07
 
    0.86030E+07         0.98640E+05         0.00000E+00
    0.98640E+05         0.20788E+08         0.00000E+00
    0.00000E+00         0.00000E+00         0.88173E+07
 
    0.85235E+07         0.77177E+05         0.00000E+00
    0.77177E+05         0.20674E+08         0.00000E+00
    0.00000E+00         0.00000E+00         0.87592E+07
 
    0.84408E+07         0.56783E+05         0.00000E+00
    0.56783E+05         0.20566E+08         0.00000E+00
    0.00000E+00         0.00000E+00         0.87019E+07
 
    0.83533E+07         0.38500E+05         0.00000E+00
    0.38500E+05         0.20466E+08         0.00000E+00
    0.00000E+00         0.00000E+00         0.86457E+07
 
    0.82595E+07         0.23357E+05         0.00000E+00
    0.23357E+05         0.20376E+08         0.00000E+00
    0.00000E+00         0.00000E+00         0.85907E+07
 
    0.81577E+07         0.11896E+05         0.00000E+00
    0.11896E+05         0.20299E+08         0.00000E+00
    0.00000E+00         0.00000E+00         0.85370E+07
 
    0.80469E+07         0.35513E+04         0.00000E+00
    0.35513E+04         0.20234E+08         0.00000E+00
    0.00000E+00         0.00000E+00         0.84843E+07
 
    0.13022E+08         0.23274E+04         0.00000E+00
    0.23274E+04         0.29460E+08         0.00000E+00
    0.00000E+00         0.00000E+00         0.12745E+08
 
    0.12958E+08         0.77304E+04         0.00000E+00
    0.77304E+04         0.29422E+08         0.00000E+00
    0.00000E+00         0.00000E+00         0.12714E+08
 
    0.12899E+08         0.15037E+05         0.00000E+00
    0.15037E+05         0.29377E+08         0.00000E+00
    0.00000E+00         0.00000E+00         0.12683E+08
 
    0.12845E+08         0.24641E+05         0.00000E+00
    0.24641E+05         0.29325E+08         0.00000E+00
    0.00000E+00         0.00000E+00         0.12651E+08
 
    0.12794E+08         0.36261E+05         0.00000E+00
    0.36261E+05         0.29266E+08         0.00000E+00
    0.00000E+00         0.00000E+00         0.12618E+08
 
    0.12746E+08         0.49289E+05         0.00000E+00
    0.49289E+05         0.29203E+08         0.00000E+00
    0.00000E+00         0.00000E+00         0.12585E+08
 
    0.12700E+08         0.63083E+05         0.00000E+00
    0.63083E+05         0.29137E+08         0.00000E+00
    0.00000E+00         0.00000E+00         0.12551E+08
 
    0.12655E+08         0.77109E+05         0.00000E+00
    0.77109E+05         0.29067E+08         0.00000E+00
    0.00000E+00         0.00000E+00         0.12517E+08
 
    0.12611E+08         0.90971E+05         0.00000E+00
    0.90971E+05         0.28996E+08         0.00000E+00
    0.00000E+00         0.00000E+00         0.12482E+08
 
    0.12568E+08         0.10440E+06         0.00000E+00
    0.10440E+06         0.28923E+08         0.00000E+00
    0.00000E+00         0.00000E+00         0.12447E+08
 
    0.12526E+08         0.11722E+06         0.00000E+00
    0.11722E+06         0.28849E+08         0.00000E+00
    0.00000E+00         0.00000E+00         0.12413E+08
 
    0.12484E+08         0.12933E+06         0.00000E+00
    0.12933E+06         0.28775E+08         0.00000E+00
    0.00000E+00         0.00000E+00         0.12378E+08
 
    0.12443E+08         0.14070E+06         0.00000E+00
    0.14070E+06         0.28701E+08         0.00000E+00
    0.00000E+00         0.00000E+00         0.12343E+08
 
    0.12403E+08         0.15132E+06         0.00000E+00
    0.15132E+06         0.28626E+08         0.00000E+00
    0.00000E+00         0.00000E+00         0.12309E+08
 
    0.12363E+08         0.16120E+06         0.00000E+00
    0.16120E+06         0.28551E+08         0.00000E+00
    0.00000E+00         0.00000E+00         0.12274E+08
 
    0.12323E+08         0.17038E+06         0.00000E+00
    0.17038E+06         0.28477E+08         0.00000E+00
    0.00000E+00         0.00000E+00         0.12240E+08
 
    0.12284E+08         0.17890E+06         0.00000E+00
    0.17890E+06         0.28402E+08         0.00000E+00
    0.00000E+00         0.00000E+00         0.12206E+08
 
    0.12245E+08         0.18682E+06         0.00000E+00
    0.18682E+06         0.28327E+08         0.00000E+00
    0.00000E+00         0.00000E+00         0.12172E+08
 
    0.12207E+08         0.19418E+06         0.00000E+00
    0.19418E+06         0.28251E+08         0.00000E+00
    0.00000E+00         0.00000E+00         0.12138E+08
 
    0.12169E+08         0.20103E+06         0.00000E+00
    0.20103E+06         0.28176E+08         0.00000E+00
    0.00000E+00         0.00000E+00         0.12104E+08
 
    0.12132E+08         0.20742E+06         0.00000E+00
    0.20742E+06         0.28100E+08         0.00000E+00
    0.00000E+00         0.00000E+00         0.12070E+08
 
    0.12095E+08         0.21339E+06         0.00000E+00
    0.21339E+06         0.28024E+08         0.00000E+00
    0.00000E+00         0.00000E+00         0.12036E+08
 
    0.12058E+08         0.21899E+06         0.00000E+00
    0.21899E+06         0.27948E+08         0.00000E+00
    0.00000E+00         0.00000E+00         0.12002E+08
 
    0.12022E+08         0.22426E+06         0.00000E+00
    0.22426E+06         0.27872E+08         0.00000E+00
    0.00000E+00         0.00000E+00         0.11968E+08
 
    0.11985E+08         0.22923E+06         0.00000E+00
    0.22923E+06         0.27795E+08         0.00000E+00
    0.00000E+00         0.00000E+00         0.11934E+08
 
    0.11949E+08         0.23392E+06         0.00000E+00
    0.23392E+06         0.27717E+08         0.00000E+00
    0.00000E+00         0.00000E+00         0.11900E+08
 
    0.11913E+08         0.23838E+06         0.00000E+00
    0.23838E+06         0.27640E+08         0.00000E+00
    0.00000E+00         0.00000E+00         0.11866E+08
 
    0.11877E+08         0.24262E+06         0.00000E+00
    0.24262E+06         0.27561E+08         0.00000E+00
    0.00000E+00         0.00000E+00         0.11832E+08
 
    0.11841E+08         0.24667E+06         0.00000E+00
    0.24667E+06         0.27483E+08         0.00000E+00
    0.00000E+00         0.00000E+00         0.11797E+08
 
    0.11805E+08         0.25054E+06         0.00000E+00
    0.25054E+06         0.27403E+08         0.00000E+00
    0.00000E+00         0.00000E+00         0.11763E+08
 
    0.11769E+08         0.25426E+06         0.00000E+00
    0.25426E+06         0.27324E+08         0.00000E+00
    0.00000E+00         0.00000E+00         0.11728E+08
 
    0.11733E+08         0.25783E+06         0.00000E+00
    0.25783E+06         0.27243E+08         0.00000E+00
    0.00000E+00         0.00000E+00         0.11693E+08
 
    0.11697E+08         0.26128E+06         0.00000E+00
    0.26128E+06         0.27162E+08         0.00000E+00
    0.00000E+00         0.00000E+00         0.11658E+08
 
    0.11660E+08         0.26461E+06         0.00000E+00
    0.26461E+06         0.27081E+08         0.00000E+00
    0.00000E+00         0.00000E+00         0.11622E+08
 
    0.11624E+08         0.26784E+06         0.00000E+00
    0.26784E+06         0.26998E+08         0.00000E+00
    0.00000E+00         0.00000E+00         0.11587E+08
 
    0.11587E+08         0.27097E+06         0.00000E+00
    0.27097E+06         0.26916E+08         0.00000E+00
    0.00000E+00         0.00000E+00         0.11551E+08
 
    0.11550E+08         0.27401E+06         0.00000E+00
    0.27401E+06         0.26832E+08         0.00000E+00
    0.00000E+00         0.00000E+00         0.11515E+08
 
    0.11513E+08         0.27697E+06         0.00000E+00
    0.27697E+06         0.26748E+08         0.00000E+00
    0.00000E+00         0.00000E+00         0.11478E+08
 
    0.11476E+08         0.27986E+06         0.00000E+00
    0.27986E+06         0.26663E+08         0.00000E+00
    0.00000E+00         0.00000E+00         0.11442E+08
 
    0.11439E+08         0.28267E+06         0.00000E+00
    0.28267E+06         0.26577E+08         0.00000E+00
    0.00000E+00         0.00000E+00         0.11405E+08
 
    0.11401E+08         0.28541E+06         0.00000E+00
    0.28541E+06         0.26491E+08         0.00000E+00
    0.00000E+00         0.00000E+00         0.11367E+08
 
    0.11363E+08         0.28809E+06         0.00000E+00
    0.28809E+06         0.26404E+08         0.00000E+00
    0.00000E+00         0.00000E+00         0.11330E+08
 
    0.11324E+08         0.29071E+06         0.00000E+00
    0.29071E+06         0.26316E+08         0.00000E+00
    0.00000E+00         0.00000E+00         0.11292E+08
 
    0.11286E+08         0.29326E+06         0.00000E+00
    0.29326E+06         0.26227E+08         0.00000E+00
    0.00000E+00         0.00000E+00         0.11254E+08
 
    0.11246E+08         0.29576E+06         0.00000E+00
    0.29576E+06         0.26138E+08         0.00000E+00
    0.00000E+00         0.00000E+00         0.11215E+08
 
    0.11207E+08         0.29819E+06         0.00000E+00
    0.29819E+06         0.26047E+08         0.00000E+00
    0.00000E+00         0.00000E+00         0.11176E+08
 
    0.11167E+08         0.30056E+06         0.00000E+00
    0.30056E+06         0.25956E+08         0.00000E+00
    0.00000E+00         0.00000E+00         0.11137E+08
 
    0.11127E+08         0.30287E+06         0.00000E+00
    0.30287E+06         0.25865E+08         0.00000E+00
    0.00000E+00         0.00000E+00         0.11098E+08
 
    0.11087E+08         0.30511E+06         0.00000E+00
    0.30511E+06         0.25772E+08         0.00000E+00
    0.00000E+00         0.00000E+00         0.11058E+08
 
    0.11046E+08         0.30728E+06         0.00000E+00
    0.30728E+06         0.25679E+08         0.00000E+00
    0.00000E+00         0.00000E+00         0.11017E+08
 
    0.11004E+08         0.30939E+06         0.00000E+00
    0.30939E+06         0.25585E+08         0.00000E+00
    0.00000E+00         0.00000E+00         0.10977E+08
 
    0.10962E+08         0.31141E+06         0.00000E+00
    0.31141E+06         0.25490E+08         0.00000E+00
    0.00000E+00         0.00000E+00         0.10936E+08
 
    0.10920E+08         0.31336E+06         0.00000E+00
    0.31336E+06         0.25394E+08         0.00000E+00
    0.00000E+00         0.00000E+00         0.10894E+08
 
    0.10878E+08         0.31522E+06         0.00000E+00
    0.31522E+06         0.25297E+08         0.00000E+00
    0.00000E+00         0.00000E+00         0.10852E+08
 
    0.10835E+08         0.31699E+06         0.00000E+00
    0.31699E+06         0.25200E+08         0.00000E+00
    0.00000E+00         0.00000E+00         0.10810E+08
 
    0.10791E+08         0.31867E+06         0.00000E+00
    0.31867E+06         0.25101E+08         0.00000E+00
    0.00000E+00         0.00000E+00         0.10768E+08
 
    0.10747E+08         0.32024E+06         0.00000E+00
    0.32024E+06         0.25002E+08         0.00000E+00
    0.00000E+00         0.00000E+00         0.10725E+08
 
    0.10702E+08         0.32169E+06         0.00000E+00
    0.32169E+06         0.24902E+08         0.00000E+00
    0.00000E+00         0.00000E+00         0.10681E+08
 
    0.10657E+08         0.32302E+06         0.00000E+00
    0.32302E+06         0.24801E+08         0.00000E+00
    0.00000E+00         0.00000E+00         0.10638E+08
 
    0.10612E+08         0.32422E+06         0.00000E+00
    0.32422E+06         0.24700E+08         0.00000E+00
    0.00000E+00         0.00000E+00         0.10594E+08
 
    0.10566E+08         0.32527E+06         0.00000E+00
    0.32527E+06         0.24597E+08         0.00000E+00
    0.00000E+00         0.00000E+00         0.10549E+08
 
    0.10519E+08         0.32617E+06         0.00000E+00
    0.32617E+06         0.24494E+08         0.00000E+00
    0.00000E+00         0.00000E+00         0.10504E+08
 
    0.10472E+08         0.32690E+06         0.00000E+00
    0.32690E+06         0.24390E+08         0.00000E+00
    0.00000E+00         0.00000E+00         0.10459E+08
 
    0.10424E+08         0.32744E+06         0.00000E+00
    0.32744E+06         0.24285E+08         0.00000E+00
    0.00000E+00         0.00000E+00         0.10413E+08
 
    0.10376E+08         0.32779E+06         0.00000E+00
    0.32779E+06         0.24180E+08         0.00000E+00
    0.00000E+00         0.00000E+00         0.10367E+08
 
    0.10327E+08         0.32792E+06         0.00000E+00
    0.32792E+06         0.24073E+08         0.00000E+00
    0.00000E+00         0.00000E+00         0.10320E+08
 
    0.10278E+08         0.32781E+06         0.00000E+00
    0.32781E+06         0.23966E+08         0.00000E+00
    0.00000E+00         0.00000E+00         0.10273E+08
 
    0.10227E+08         0.32744E+06         0.00000E+00
    0.32744E+06         0.23858E+08         0.00000E+00
    0.00000E+00         0.00000E+00         0.10226E+08
 
    0.10177E+08         0.32679E+06         0.00000E+00
    0.32679E+06         0.23749E+08         0.00000E+00
    0.00000E+00         0.00000E+00         0.10178E+08
 
    0.10125E+08         0.32584E+06         0.00000E+00
    0.32584E+06         0.23639E+08         0.00000E+00
    0.00000E+00         0.00000E+00         0.10129E+08
 
    0.10073E+08         0.32455E+06         0.00000E+00
    0.32455E+06         0.23529E+08         0.00000E+00
    0.00000E+00         0.00000E+00         0.10080E+08
 
    0.10020E+08         0.32290E+06         0.00000E+00
    0.32290E+06         0.23418E+08         0.00000E+00
    0.00000E+00         0.00000E+00         0.10031E+08
 
    0.99659E+07         0.32086E+06         0.00000E+00
    0.32086E+06         0.23306E+08         0.00000E+00
    0.00000E+00         0.00000E+00         0.99815E+07
 
    0.99112E+07         0.31837E+06         0.00000E+00
    0.31837E+06         0.23193E+08         0.00000E+00
    0.00000E+00         0.00000E+00         0.99312E+07
 
    0.98557E+07         0.31541E+06         0.00000E+00
    0.31541E+06         0.23079E+08         0.00000E+00
    0.00000E+00         0.00000E+00         0.98805E+07
 
    0.97992E+07         0.31193E+06         0.00000E+00
    0.31193E+06         0.22965E+08         0.00000E+00
    0.00000E+00         0.00000E+00         0.98293E+07
 
    0.97418E+07         0.30788E+06         0.00000E+00
    0.30788E+06         0.22850E+08         0.00000E+00
    0.00000E+00         0.00000E+00         0.97775E+07
 
    0.96834E+07         0.30319E+06         0.00000E+00
    0.30319E+06         0.22734E+08         0.00000E+00
    0.00000E+00         0.00000E+00         0.97252E+07
 
    0.96239E+07         0.29782E+06         0.00000E+00
    0.29782E+06         0.22617E+08         0.00000E+00
    0.00000E+00         0.00000E+00         0.96724E+07
 
    0.95634E+07         0.29169E+06         0.00000E+00
    0.29169E+06         0.22500E+08         0.00000E+00
    0.00000E+00         0.00000E+00         0.96189E+07
 
    0.95018E+07         0.28473E+06         0.00000E+00
    0.28473E+06         0.22381E+08         0.00000E+00
    0.00000E+00         0.00000E+00         0.95649E+07
 
    0.94389E+07         0.27686E+06         0.00000E+00
    0.27686E+06         0.22262E+08         0.00000E+00
    0.00000E+00         0.00000E+00         0.95103E+07
 
    0.93749E+07         0.26800E+06         0.00000E+00
    0.26800E+06         0.22142E+08         0.00000E+00
    0.00000E+00         0.00000E+00         0.94551E+07
 
    0.93097E+07         0.25808E+06         0.00000E+00
    0.25808E+06         0.22021E+08         0.00000E+00
    0.00000E+00         0.00000E+00         0.93992E+07
 
    0.92433E+07         0.24699E+06         0.00000E+00
    0.24699E+06         0.21899E+08         0.00000E+00
    0.00000E+00         0.00000E+00         0.93427E+07
 
    0.91756E+07         0.23467E+06         0.00000E+00
    0.23467E+06         0.21776E+08         0.00000E+00
    0.00000E+00         0.00000E+00         0.92856E+07
 
    0.91067E+07         0.22104E+06         0.00000E+00
    0.22104E+06         0.21653E+08         0.00000E+00
    0.00000E+00         0.00000E+00         0.92279E+07
 
    0.90365E+07         0.20604E+06         0.00000E+00
    0.20604E+06         0.21529E+08         0.00000E+00
    0.00000E+00         0.00000E+00         0.91697E+07
 
    0.89651E+07         0.18966E+06         0.00000E+00
    0.18966E+06         0.21405E+08         0.00000E+00
    0.00000E+00         0.00000E+00         0.91109E+07
 
    0.88926E+07         0.17190E+06         0.00000E+00
    0.17190E+06         0.21280E+08         0.00000E+00
    0.00000E+00         0.00000E+00         0.90518E+07
 
    0.88187E+07         0.15285E+06         0.00000E+00
    0.15285E+06         0.21156E+08         0.00000E+00
    0.00000E+00         0.00000E+00         0.89924E+07
 
    0.87436E+07         0.13269E+06         0.00000E+00
    0.13269E+06         0.21033E+08         0.00000E+00
    0.00000E+00         0.00000E+00         0.89328E+07
 
    0.86670E+07         0.11172E+06         0.00000E+00
    0.11172E+06         0.20911E+08         0.00000E+00
    0.00000E+00         0.00000E+00         0.88734E+07
 
    0.85885E+07         0.90412E+05         0.00000E+00
    0.90412E+05         0.20792E+08         0.00000E+00
    0.00000E+00         0.00000E+00         0.88142E+07
 
    0.85077E+07         0.69473E+05         0.00000E+00
    0.69473E+05         0.20678E+08         0.00000E+00
    0.00000E+00         0.00000E+00         0.87556E+07
 
    0.84235E+07         0.49833E+05         0.00000E+00
    0.49833E+05         0.20569E+08         0.00000E+00
    0.00000E+00         0.00000E+00         0.86979E+07
 
    0.83348E+07         0.32608E+05         0.00000E+00
    0.32608E+05         0.20469E+08         0.00000E+00
    0.00000E+00         0.00000E+00         0.86411E+07
 
    0.82401E+07         0.18859E+05         0.00000E+00
    0.18859E+05         0.20379E+08         0.00000E+00
    0.00000E+00         0.00000E+00         0.85857E+07
 
    0.81377E+07         0.90793E+04         0.00000E+00
    0.90793E+04         0.20301E+08         0.00000E+00
    0.00000E+00         0.00000E+00         0.85315E+07
 
    0.80266E+07         0.25936E+04         0.00000E+00
    0.25936E+04         0.20235E+08         0.00000E+00
    0.00000E+00         0.00000E+00         0.84786E+07
 
    0.13035E+08         0.17697E+04         0.00000E+00
    0.17697E+04         0.29459E+08         0.00000E+00
    0.00000E+00         0.00000E+00         0.12748E+08
 
    0.12970E+08         0.60937E+04         0.00000E+00
    0.60937E+04         0.29421E+08         0.00000E+00
    0.00000E+00         0.00000E+00         0.12717E+08
 
    0.12911E+08         0.12429E+05         0.00000E+00
    0.12429E+05         0.29375E+08         0.00000E+00
    0.00000E+00         0.00000E+00         0.12686E+08
 
    0.12856E+08         0.21225E+05         0.00000E+00
    0.21225E+05         0.29323E+08         0.00000E+00
    0.00000E+00         0.00000E+00         0.12654E+08
 
    0.12805E+08         0.32218E+05         0.00000E+00
    0.32218E+05         0.29264E+08         0.00000E+00
    0.00000E+00         0.00000E+00         0.12621E+08
 
    0.12756E+08         0.44780E+05         0.00000E+00
    0.44780E+05         0.29201E+08         0.00000E+00
    0.00000E+00         0.00000E+00         0.12587E+08
 
    0.12709E+08         0.58228E+05         0.00000E+00
    0.58228E+05         0.29134E+08         0.00000E+00
    0.00000E+00         0.00000E+00         0.12553E+08
 
    0.12664E+08         0.71987E+05         0.00000E+00
    0.71987E+05         0.29064E+08         0.00000E+00
    0.00000E+00         0.00000E+00         0.12518E+08
 
    0.12619E+08         0.85631E+05         0.00000E+00
    0.85631E+05         0.28993E+08         0.00000E+00
    0.00000E+00         0.00000E+00         0.12484E+08
 
    0.12575E+08         0.98866E+05         0.00000E+00
    0.98866E+05         0.28920E+08         0.00000E+00
    0.00000E+00         0.00000E+00         0.12449E+08
 
    0.12532E+08         0.11151E+06         0.00000E+00
    0.11151E+06         0.28847E+08         0.00000E+00
    0.00000E+00         0.00000E+00         0.12414E+08
 
    0.12490E+08         0.12345E+06         0.00000E+00
    0.12345E+06         0.28773E+08         0.00000E+00
    0.00000E+00         0.00000E+00         0.12379E+08
 
    0.12449E+08         0.13465E+06         0.00000E+00
    0.13465E+06         0.28699E+08         0.00000E+00
    0.00000E+00         0.00000E+00         0.12344E+08
 
    0.12408E+08         0.14510E+06         0.00000E+00
    0.14510E+06         0.28624E+08         0.00000E+00
    0.00000E+00         0.00000E+00         0.12310E+08
 
    0.12367E+08         0.15481E+06         0.00000E+00
    0.15481E+06         0.28550E+08         0.00000E+00
    0.00000E+00         0.00000E+00         0.12275E+08
 
    0.12327E+08         0.16382E+06         0.00000E+00
    0.16382E+06         0.28475E+08         0.00000E+00
    0.00000E+00         0.00000E+00         0.12241E+08
 
    0.12288E+08         0.17217E+06         0.00000E+00
    0.17217E+06         0.28400E+08         0.00000E+00
    0.00000E+00         0.00000E+00         0.12206E+08
 
    0.12249E+08         0.17992E+06         0.00000E+00
    0.17992E+06         0.28325E+08         0.00000E+00
    0.00000E+00         0.00000E+00         0.12172E+08
 
    0.12211E+08         0.18711E+06         0.00000E+00
    0.18711E+06         0.28250E+08         0.00000E+00
    0.00000E+00         0.00000E+00         0.12138E+08
 
    0.12173E+08         0.19380E+06         0.00000E+00
    0.19380E+06         0.28175E+08         0.00000E+00
    0.00000E+00         0.00000E+00         0.12104E+08
 
    0.12135E+08         0.20003E+06         0.00000E+00
    0.20003E+06         0.28099E+08         0.00000E+00
    0.00000E+00         0.00000E+00         0.12070E+08
 
    0.12098E+08         0.20585E+06         0.00000E+00
    0.20585E+06         0.28023E+08         0.00000E+00
    0.00000E+00         0.00000E+00         0.12036E+08
 
    0.12061E+08         0.21130E+06         0.00000E+00
    0.21130E+06         0.27947E+08         0.00000E+00
    0.00000E+00         0.00000E+00         0.12002E+08
 
    0.12024E+08         0.21643E+06         0.00000E+00
    0.21643E+06         0.27871E+08         0.00000E+00
    0.00000E+00         0.00000E+00         0.11969E+08
 
    0.11988E+08         0.22126E+06         0.00000E+00
    0.22126E+06         0.27794E+08         0.00000E+00
    0.00000E+00         0.00000E+00         0.11935E+08
 
    0.11952E+08         0.22582E+06         0.00000E+00
    0.22582E+06         0.27717E+08         0.00000E+00
    0.00000E+00         0.00000E+00         0.11900E+08
 
    0.11915E+08         0.23015E+06         0.00000E+00
    0.23015E+06         0.27639E+08         0.00000E+00
    0.00000E+00         0.00000E+00         0.11866E+08
 
    0.11879E+08         0.23426E+06         0.00000E+00
    0.23426E+06         0.27561E+08         0.00000E+00
    0.00000E+00         0.00000E+00         0.11832E+08
 
    0.11843E+08         0.23819E+06         0.00000E+00
    0.23819E+06         0.27482E+08         0.00000E+00
    0.00000E+00         0.00000E+00         0.11798E+08
 
    0.11807E+08         0.24194E+06         0.00000E+00
    0.24194E+06         0.27403E+08         0.00000E+00
    0.00000E+00         0.00000E+00         0.11763E+08
 
    0.11771E+08         0.24555E+06         0.00000E+00
    0.24555E+06         0.27323E+08         0.00000E+00
    0.00000E+00         0.00000E+00         0.11728E+08
 
    0.11735E+08         0.24901E+06         0.00000E+00
    0.24901E+06         0.27243E+08         0.00000E+00
    0.00000E+00         0.00000E+00         0.11693E+08
 
    0.11699E+08         0.25235E+06         0.00000E+00
    0.25235E+06         0.27162E+08         0.00000E+00
    0.00000E+00         0.00000E+00         0.11658E+08
 
    0.11662E+08         0.25558E+06         0.00000E+00
    0.25558E+06         0.27080E+08         0.00000E+00
    0.00000E+00         0.00000E+00         0.11623E+08
 
    0.11626E+08         0.25870E+06         0.00000E+00
    0.25870E+06         0.26998E+08         0.00000E+00
    0.00000E+00         0.00000E+00         0.11587E+08
 
    0.11589E+08         0.26173E+06         0.00000E+00
    0.26173E+06         0.26915E+08         0.00000E+00
    0.00000E+00         0.00000E+00         0.11551E+08
 
    0.11552E+08         0.26467E+06         0.00000E+00
    0.26467E+06         0.26831E+08         0.00000E+00
    0.00000E+00         0.00000E+00         0.11515E+08
 
    0.11515E+08         0.26754E+06         0.00000E+00
    0.26754E+06         0.26747E+08         0.00000E+00
    0.00000E+00         0.00000E+00         0.11479E+08
 
    0.11478E+08         0.27033E+06         0.00000E+00
    0.27033E+06         0.26662E+08         0.00000E+00
    0.00000E+00         0.00000E+00         0.11442E+08
 
    0.11440E+08         0.27304E+06         0.00000E+00
    0.27304E+06         0.26577E+08         0.00000E+00
    0.00000E+00         0.00000E+00         0.11405E+08
 
    0.11403E+08         0.27570E+06         0.00000E+00
    0.27570E+06         0.26490E+08         0.00000E+00
    0.00000E+00         0.00000E+00         0.11368E+08
 
    0.11364E+08         0.27829E+06         0.00000E+00
    0.27829E+06         0.26403E+08         0.00000E+00
    0.00000E+00         0.00000E+00         0.11330E+08
 
    0.11326E+08         0.28081E+06         0.00000E+00
    0.28081E+06         0.26315E+08         0.00000E+00
    0.00000E+00         0.00000E+00         0.11292E+08
 
    0.11287E+08         0.28328E+06         0.00000E+00
    0.28328E+06         0.26227E+08         0.00000E+00
    0.00000E+00         0.00000E+00         0.11254E+08
 
    0.11248E+08         0.28569E+06         0.00000E+00
    0.28569E+06         0.26137E+08         0.00000E+00
    0.00000E+00         0.00000E+00         0.11216E+08
 
    0.11209E+08         0.28803E+06         0.00000E+00
    0.28803E+06         0.26047E+08         0.00000E+00
    0.00000E+00         0.00000E+00         0.11177E+08
 
    0.11169E+08         0.29032E+06         0.00000E+00
    0.29032E+06         0.25956E+08         0.00000E+00
    0.00000E+00         0.00000E+00         0.11137E+08
 
    0.11129E+08         0.29255E+06         0.00000E+00
    0.29255E+06         0.25864E+08         0.00000E+00
    0.00000E+00         0.00000E+00         0.11098E+08
 
    0.11088E+08         0.29471E+06         0.00000E+00
    0.29471E+06         0.25772E+08         0.00000E+00
    0.00000E+00         0.00000E+00         0.11058E+08
 
    0.11047E+08         0.29680E+06         0.00000E+00
    0.29680E+06         0.25678E+08         0.00000E+00
    0.00000E+00         0.00000E+00         0.11018E+08
 
    0.11006E+08         0.29883E+06         0.00000E+00
    0.29883E+06         0.25584E+08         0.00000E+00
    0.00000E+00         0.00000E+00         0.10977E+08
 
    0.10964E+08         0.30078E+06         0.00000E+00
    0.30078E+06         0.25489E+08         0.00000E+00
    0.00000E+00         0.00000E+00         0.10936E+08
 
    0.10922E+08         0.30265E+06         0.00000E+00
    0.30265E+06         0.25393E+08         0.00000E+00
    0.00000E+00         0.00000E+00         0.10895E+08
 
    0.10879E+08         0.30445E+06         0.00000E+00
    0.30445E+06         0.25297E+08         0.00000E+00
    0.00000E+00         0.00000E+00         0.10853E+08
 
    0.10836E+08         0.30615E+06         0.00000E+00
    0.30615E+06         0.25199E+08         0.00000E+00
    0.00000E+00         0.00000E+00         0.10811E+08
 
    0.10792E+08         0.30776E+06         0.00000E+00
    0.30776E+06         0.25101E+08         0.00000E+00
    0.00000E+00         0.00000E+00         0.10768E+08
 
    0.10748E+08         0.30926E+06         0.00000E+00
    0.30926E+06         0.25002E+08         0.00000E+00
    0.00000E+00         0.00000E+00         0.10725E+08
 
    0.10704E+08         0.31065E+06         0.00000E+00
    0.31065E+06         0.24902E+08         0.00000E+00
    0.00000E+00         0.00000E+00         0.10682E+08
 
    0.10659E+08         0.31193E+06         0.00000E+00
    0.31193E+06         0.24801E+08         0.00000E+00
    0.00000E+00         0.00000E+00         0.10638E+08
 
    0.10613E+08         0.31307E+06         0.00000E+00
    0.31307E+06         0.24700E+08         0.00000E+00
    0.00000E+00         0.00000E+00         0.10594E+08
 
    0.10567E+08         0.31408E+06         0.00000E+00
    0.31408E+06         0.24597E+08         0.00000E+00
    0.00000E+00         0.00000E+00         0.10549E+08
 
    0.10520E+08         0.31493E+06         0.00000E+00
    0.31493E+06         0.24494E+08         0.00000E+00
    0.00000E+00         0.00000E+00         0.10504E+08
 
    0.10473E+08         0.31562E+06         0.00000E+00
    0.31562E+06         0.24390E+08         0.00000E+00
    0.00000E+00         0.00000E+00         0.10459E+08
 
    0.10425E+08         0.31613E+06         0.00000E+00
    0.31613E+06         0.24285E+08         0.00000E+00
    0.00000E+00         0.00000E+00         0.10413E+08
 
    0.10377E+08         0.31644E+06         0.00000E+00
    0.31644E+06         0.24180E+08         0.00000E+00
    0.00000E+00         0.00000E+00         0.10367E+08
 
    0.10328E+08         0.31654E+06         0.00000E+00
    0.31654E+06         0.24073E+08         0.00000E+00
    0.00000E+00         0.00000E+00         0.10320E+08
 
    0.10278E+08         0.31642E+06         0.00000E+00
    0.31642E+06         0.23966E+08         0.00000E+00
    0.00000E+00         0.00000E+00         0.10273E+08
 
    0.10228E+08         0.31604E+06         0.00000E+00
    0.31604E+06         0.23858E+08         0.00000E+00
    0.00000E+00         0.00000E+00         0.10226E+08
 
    0.10177E+08         0.31539E+06         0.00000E+00
    0.31539E+06         0.23749E+08         0.00000E+00
    0.00000E+00         0.00000E+00         0.10178E+08
 
    0.10125E+08         0.31444E+06         0.00000E+00
    0.31444E+06         0.23640E+08         0.00000E+00
    0.00000E+00         0.00000E+00         0.10129E+08
 
    0.10073E+08         0.31317E+06         0.00000E+00
    0.31317E+06         0.23529E+08         0.00000E+00
    0.00000E+00         0.00000E+00         0.10081E+08
 
    0.10019E+08         0.31154E+06         0.00000E+00
    0.31154E+06         0.23418E+08         0.00000E+00
    0.00000E+00         0.00000E+00         0.10031E+08
 
    0.99653E+07         0.30953E+06         0.00000E+00
    0.30953E+06         0.23306E+08         0.00000E+00
    0.00000E+00         0.00000E+00         0.99814E+07
 
    0.99104E+07         0.30709E+06         0.00000E+00
    0.30709E+06         0.23193E+08         0.00000E+00
    0.00000E+00         0.00000E+00         0.99312E+07
 
    0.98546E+07         0.30419E+06         0.00000E+00
    0.30419E+06         0.23080E+08         0.00000E+00
    0.00000E+00         0.00000E+00         0.98804E+07
 
    0.97979E+07         0.30077E+06         0.00000E+00
    0.30077E+06         0.22966E+08         0.00000E+00
    0.00000E+00         0.00000E+00         0.98291E+07
 
    0.97402E+07         0.29680E+06         0.00000E+00
    0.29680E+06         0.22851E+08         0.00000E+00
    0.00000E+00         0.00000E+00         0.97773E+07
 
    0.96815E+07         0.29221E+06         0.00000E+00
    0.29221E+06         0.22735E+08         0.00000E+00
    0.00000E+00         0.00000E+00         0.97249E+07
 
    0.96217E+07         0.28694E+06         0.00000E+00
    0.28694E+06         0.22618E+08         0.00000E+00
    0.00000E+00         0.00000E+00         0.96720E+07
 
    0.95608E+07         0.28093E+06         0.00000E+00
    0.28093E+06         0.22501E+08         0.00000E+00
    0.00000E+00         0.00000E+00         0.96185E+07
 
    0.94988E+07         0.27410E+06         0.00000E+00
    0.27410E+06         0.22383E+08         0.00000E+00
    0.00000E+00         0.00000E+00         0.95645E+07
 
    0.94355E+07         0.26638E+06         0.00000E+00
    0.26638E+06         0.22264E+08         0.00000E+00
    0.00000E+00         0.00000E+00         0.95098E+07
 
    0.93710E+07         0.25768E+06         0.00000E+00
    0.25768E+06         0.22144E+08         0.00000E+00
    0.00000E+00         0.00000E+00         0.94544E+07
 
    0.93052E+07         0.24791E+06         0.00000E+00
    0.24791E+06         0.22023E+08         0.00000E+00
    0.00000E+00         0.00000E+00         0.93985E+07
 
    0.92382E+07         0.23700E+06         0.00000E+00
    0.23700E+06         0.21901E+08         0.00000E+00
    0.00000E+00         0.00000E+00         0.93419E+07
 
    0.91698E+07         0.22486E+06         0.00000E+00
    0.22486E+06         0.21779E+08         0.00000E+00
    0.00000E+00         0.00000E+00         0.92846E+07
 
    0.91001E+07         0.21141E+06         0.00000E+00
    0.21141E+06         0.21656E+08         0.00000E+00
    0.00000E+00         0.00000E+00         0.92268E+07
 
    0.90291E+07         0.19659E+06         0.00000E+00
    0.19659E+06         0.21532E+08         0.00000E+00
    0.00000E+00         0.00000E+00         0.91684E+07
 
    0.89568E+07         0.18040E+06         0.00000E+00
    0.18040E+06         0.21408E+08         0.00000E+00
    0.00000E+00         0.00000E+00         0.91095E+07
 
    0.88832E+07         0.16284E+06         0.00000E+00
    0.16284E+06         0.21284E+08         0.00000E+00
    0.00000E+00         0.00000E+00         0.90501E+07
 
    0.88083E+07         0.14400E+06         0.00000E+00
    0.14400E+06         0.21160E+08         0.00000E+00
    0.00000E+00         0.00000E+00         0.89904E+07
 
    0.87319E+07         0.12407E+06         0.00000E+00
    0.12407E+06         0.21037E+08         0.00000E+00
    0.00000E+00         0.00000E+00         0.89306E+07
 
    0.86539E+07         0.10339E+06         0.00000E+00
    0.10339E+06         0.20915E+08         0.00000E+00
    0.00000E+00         0.00000E+00         0.88707E+07
 
    0.85740E+07         0.82469E+05         0.00000E+00
    0.82469E+05         0.20796E+08         0.00000E+00
    0.00000E+00         0.00000E+00         0.88112E+07
 
    0.84918E+07         0.62050E+05         0.00000E+00
    0.62050E+05         0.20682E+08         0.00000E+00
    0.00000E+00         0.00000E+00         0.87521E+07
 
    0.84063E+07         0.43142E+05         0.00000E+00
    0.43142E+05         0.20573E+08         0.00000E+00
    0.00000E+00         0.00000E+00         0.86938E+07
 
    0.83164E+07         0.26930E+05         0.00000E+00
    0.26930E+05         0.20472E+08         0.00000E+00
    0.00000E+00         0.00000E+00         0.86365E+07
 
    0.82208E+07         0.14511E+05         0.00000E+00
    0.14511E+05         0.20381E+08         0.00000E+00
    0.00000E+00         0.00000E+00         0.85805E+07
 
    0.81179E+07         0.63448E+04         0.00000E+00
    0.63448E+04         0.20302E+08         0.00000E+00
    0.00000E+00         0.00000E+00         0.85259E+07
 
    0.80065E+07         0.16609E+04         0.00000E+00
    0.16609E+04         0.20236E+08         0.00000E+00
    0.00000E+00         0.00000E+00         0.84728E+07
 
    0.13047E+08         0.12240E+04         0.00000E+00
    0.12240E+04         0.29459E+08         0.00000E+00
    0.00000E+00         0.00000E+00         0.12752E+08
 
    0.12983E+08         0.44980E+04         0.00000E+00
    0.44980E+04         0.29420E+08         0.00000E+00
    0.00000E+00         0.00000E+00         0.12721E+08
 
    0.12923E+08         0.98991E+04         0.00000E+00
    0.98991E+04         0.29374E+08         0.00000E+00
    0.00000E+00         0.00000E+00         0.12689E+08
 
    0.12868E+08         0.17924E+05         0.00000E+00
    0.17924E+05         0.29321E+08         0.00000E+00
    0.00000E+00         0.00000E+00         0.12657E+08
 
    0.12816E+08         0.28317E+05         0.00000E+00
    0.28317E+05         0.29262E+08         0.00000E+00
    0.00000E+00         0.00000E+00         0.12623E+08
 
    0.12766E+08         0.40426E+05         0.00000E+00
    0.40426E+05         0.29198E+08         0.00000E+00
    0.00000E+00         0.00000E+00         0.12589E+08
 
    0.12718E+08         0.53530E+05         0.00000E+00
    0.53530E+05         0.29131E+08         0.00000E+00
    0.00000E+00         0.00000E+00         0.12555E+08
 
    0.12672E+08         0.67018E+05         0.00000E+00
    0.67018E+05         0.29062E+08         0.00000E+00
    0.00000E+00         0.00000E+00         0.12520E+08
 
    0.12627E+08         0.80433E+05         0.00000E+00
    0.80433E+05         0.28990E+08         0.00000E+00
    0.00000E+00         0.00000E+00         0.12485E+08
 
    0.12582E+08         0.93465E+05         0.00000E+00
    0.93465E+05         0.28918E+08         0.00000E+00
    0.00000E+00         0.00000E+00         0.12450E+08
 
    0.12539E+08         0.10592E+06         0.00000E+00
    0.10592E+06         0.28845E+08         0.00000E+00
    0.00000E+00         0.00000E+00         0.12415E+08
 
    0.12496E+08         0.11768E+06         0.00000E+00
    0.11768E+06         0.28771E+08         0.00000E+00
    0.00000E+00         0.00000E+00         0.12380E+08
 
    0.12454E+08         0.12870E+06         0.00000E+00
    0.12870E+06         0.28697E+08         0.00000E+00
    0.00000E+00         0.00000E+00         0.12345E+08
 
    0.12413E+08         0.13896E+06         0.00000E+00
    0.13896E+06         0.28622E+08         0.00000E+00
    0.00000E+00         0.00000E+00         0.12310E+08
 
    0.12372E+08         0.14849E+06         0.00000E+00
    0.14849E+06         0.28548E+08         0.00000E+00
    0.00000E+00         0.00000E+00         0.12276E+08
 
    0.12332E+08         0.15732E+06         0.00000E+00
    0.15732E+06         0.28473E+08         0.00000E+00
    0.00000E+00         0.00000E+00         0.12241E+08
 
    0.12292E+08         0.16550E+06         0.00000E+00
    0.16550E+06         0.28398E+08         0.00000E+00
    0.00000E+00         0.00000E+00         0.12207E+08
 
    0.12253E+08         0.17307E+06         0.00000E+00
    0.17307E+06         0.28324E+08         0.00000E+00
    0.00000E+00         0.00000E+00         0.12173E+08
 
    0.12214E+08         0.18009E+06         0.00000E+00
    0.18009E+06         0.28248E+08         0.00000E+00
    0.00000E+00         0.00000E+00         0.12139E+08
 
    0.12176E+08         0.18661E+06         0.00000E+00
    0.18661E+06         0.28173E+08         0.00000E+00
    0.00000E+00         0.00000E+00         0.12105E+08
 
    0.12138E+08         0.19268E+06         0.00000E+00
    0.19268E+06         0.28098E+08         0.00000E+00
    0.00000E+00         0.00000E+00         0.12071E+08
 
    0.12101E+08         0.19834E+06         0.00000E+00
    0.19834E+06         0.28022E+08         0.00000E+00
    0.00000E+00         0.00000E+00         0.12037E+08
 
    0.12064E+08         0.20364E+06         0.00000E+00
    0.20364E+06         0.27946E+08         0.00000E+00
    0.00000E+00         0.00000E+00         0.12003E+08
 
    0.12027E+08         0.20862E+06         0.00000E+00
    0.20862E+06         0.27870E+08         0.00000E+00
    0.00000E+00         0.00000E+00         0.11969E+08
 
    0.11990E+08         0.21330E+06         0.00000E+00
    0.21330E+06         0.27793E+08         0.00000E+00
    0.00000E+00         0.00000E+00         0.11935E+08
 
    0.11954E+08         0.21773E+06         0.00000E+00
    0.21773E+06         0.27716E+08         0.00000E+00
    0.00000E+00         0.00000E+00         0.11901E+08
 
    0.11918E+08         0.22193E+06         0.00000E+00
    0.22193E+06         0.27638E+08         0.00000E+00
    0.00000E+00         0.00000E+00         0.11867E+08
 
    0.11882E+08         0.22592E+06         0.00000E+00
    0.22592E+06         0.27560E+08         0.00000E+00
    0.00000E+00         0.00000E+00         0.11832E+08
 
    0.11846E+08         0.22972E+06         0.00000E+00
    0.22972E+06         0.27481E+08         0.00000E+00
    0.00000E+00         0.00000E+00         0.11798E+08
 
    0.11809E+08         0.23336E+06         0.00000E+00
    0.23336E+06         0.27402E+08         0.00000E+00
    0.00000E+00         0.00000E+00         0.11763E+08
 
    0.11773E+08         0.23684E+06         0.00000E+00
    0.23684E+06         0.27322E+08         0.00000E+00
    0.00000E+00         0.00000E+00         0.11729E+08
 
    0.11737E+08         0.24020E+06         0.00000E+00
    0.24020E+06         0.27242E+08         0.00000E+00
    0.00000E+00         0.00000E+00         0.11694E+08
 
    0.11701E+08         0.24343E+06         0.00000E+00
    0.24343E+06         0.27161E+08         0.00000E+00
    0.00000E+00         0.00000E+00         0.11659E+08
 
    0.11664E+08         0.24655E+06         0.00000E+00
    0.24655E+06         0.27079E+08         0.00000E+00
    0.00000E+00         0.00000E+00         0.11623E+08
 
    0.11628E+08         0.24957E+06         0.00000E+00
    0.24957E+06         0.26997E+08         0.00000E+00
    0.00000E+00         0.00000E+00         0.11588E+08
 
    0.11591E+08         0.25250E+06         0.00000E+00
    0.25250E+06         0.26914E+08         0.00000E+00
    0.00000E+00         0.00000E+00         0.11552E+08
 
    0.11554E+08         0.25534E+06         0.00000E+00
    0.25534E+06         0.26831E+08         0.00000E+00
    0.00000E+00         0.00000E+00         0.11516E+08
 
    0.11517E+08         0.25811E+06         0.00000E+00
    0.25811E+06         0.26747E+08         0.00000E+00
    0.00000E+00         0.00000E+00         0.11479E+08
 
    0.11480E+08         0.26080E+06         0.00000E+00
    0.26080E+06         0.26662E+08         0.00000E+00
    0.00000E+00         0.00000E+00         0.11442E+08
 
    0.11442E+08         0.26343E+06         0.00000E+00
    0.26343E+06         0.26576E+08         0.00000E+00
    0.00000E+00         0.00000E+00         0.11405E+08
 
    0.11404E+08         0.26599E+06         0.00000E+00
    0.26599E+06         0.26490E+08         0.00000E+00
    0.00000E+00         0.00000E+00         0.11368E+08
 
    0.11366E+08         0.26848E+06         0.00000E+00
    0.26848E+06         0.26403E+08         0.00000E+00
    0.00000E+00         0.00000E+00         0.11331E+08
 
    0.11328E+08         0.27092E+06         0.00000E+00
    0.27092E+06         0.26315E+08         0.00000E+00
    0.00000E+00         0.00000E+00         0.11293E+08
 
    0.11289E+08         0.27330E+06         0.00000E+00
    0.27330E+06         0.26226E+08         0.00000E+00
    0.00000E+00         0.00000E+00         0.11255E+08
 
    0.11250E+08         0.27562E+06         0.00000E+00
    0.27562E+06         0.26137E+08         0.00000E+00
    0.00000E+00         0.00000E+00         0.11216E+08
 
    0.11210E+08         0.27788E+06         0.00000E+00
    0.27788E+06         0.26047E+08         0.00000E+00
    0.00000E+00         0.00000E+00         0.11177E+08
 
    0.11171E+08         0.28009E+06         0.00000E+00
    0.28009E+06         0.25956E+08         0.00000E+00
    0.00000E+00         0.00000E+00         0.11138E+08
 
    0.11130E+08         0.28223E+06         0.00000E+00
    0.28223E+06         0.25864E+08         0.00000E+00
    0.00000E+00         0.00000E+00         0.11098E+08
 
    0.11090E+08         0.28431E+06         0.00000E+00
    0.28431E+06         0.25771E+08         0.00000E+00
    0.00000E+00         0.00000E+00         0.11058E+08
 
    0.11049E+08         0.28633E+06         0.00000E+00
    0.28633E+06         0.25678E+08         0.00000E+00
    0.00000E+00         0.00000E+00         0.11018E+08
 
    0.11007E+08         0.28828E+06         0.00000E+00
    0.28828E+06         0.25584E+08         0.00000E+00
    0.00000E+00         0.00000E+00         0.10977E+08
 
    0.10965E+08         0.29015E+06         0.00000E+00
    0.29015E+06         0.25489E+08         0.00000E+00
    0.00000E+00         0.00000E+00         0.10936E+08
 
    0.10923E+08         0.29196E+06         0.00000E+00
    0.29196E+06         0.25393E+08         0.00000E+00
    0.00000E+00         0.00000E+00         0.10895E+08
 
    0.10880E+08         0.29368E+06         0.00000E+00
    0.29368E+06         0.25296E+08         0.00000E+00
    0.00000E+00         0.00000E+00         0.10853E+08
 
    0.10837E+08         0.29531E+06         0.00000E+00
    0.29531E+06         0.25199E+08         0.00000E+00
    0.00000E+00         0.00000E+00         0.10811E+08
 
    0.10794E+08         0.29685E+06         0.00000E+00
    0.29685E+06         0.25101E+08         0.00000E+00
    0.00000E+00         0.00000E+00         0.10768E+08
 
    0.10750E+08         0.29829E+06         0.00000E+00
    0.29829E+06         0.25002E+08         0.00000E+00
    0.00000E+00         0.00000E+00         0.10725E+08
 
    0.10705E+08         0.29963E+06         0.00000E+00
    0.29963E+06         0.24902E+08         0.00000E+00
    0.00000E+00         0.00000E+00         0.10682E+08
 
    0.10660E+08         0.30085E+06         0.00000E+00
    0.30085E+06         0.24801E+08         0.00000E+00
    0.00000E+00         0.00000E+00         0.10638E+08
 
    0.10614E+08         0.30194E+06         0.00000E+00
    0.30194E+06         0.24699E+08         0.00000E+00
    0.00000E+00         0.00000E+00         0.10594E+08
 
    0.10568E+08         0.30290E+06         0.00000E+00
    0.30290E+06         0.24597E+08         0.00000E+00
    0.00000E+00         0.00000E+00         0.10549E+08
 
    0.10521E+08         0.30370E+06         0.00000E+00
    0.30370E+06         0.24494E+08         0.00000E+00
    0.00000E+00         0.00000E+00         0.10504E+08
 
    0.10474E+08         0.30435E+06         0.00000E+00
    0.30435E+06         0.24390E+08         0.00000E+00
    0.00000E+00         0.00000E+00         0.10459E+08
 
    0.10426E+08         0.30483E+06         0.00000E+00
    0.30483E+06         0.24285E+08         0.00000E+00
    0.00000E+00         0.00000E+00         0.10413E+08
 
    0.10377E+08         0.30511E+06         0.00000E+00
    0.30511E+06         0.24180E+08         0.00000E+00
    0.00000E+00         0.00000E+00         0.10367E+08
 
    0.10328E+08         0.30519E+06         0.00000E+00
    0.30519E+06         0.24073E+08         0.00000E+00
    0.00000E+00         0.00000E+00         0.10320E+08
 
    0.10278E+08         0.30505E+06         0.00000E+00
    0.30505E+06         0.23966E+08         0.00000E+00
    0.00000E+00         0.00000E+00         0.10273E+08
 
    0.10228E+08         0.30466E+06         0.00000E+00
    0.30466E+06         0.23858E+08         0.00000E+00
    0.00000E+00         0.00000E+00         0.10226E+08
 
    0.10177E+08         0.30401E+06         0.00000E+00
    0.30401E+06         0.23749E+08         0.00000E+00
    0.00000E+00         0.00000E+00         0.10178E+08
 
    0.10125E+08         0.30307E+06         0.00000E+00
    0.30307E+06         0.23640E+08         0.00000E+00
    0.00000E+00         0.00000E+00         0.10129E+08
 
    0.10072E+08         0.30182E+06         0.00000E+00
    0.30182E+06         0.23529E+08         0.00000E+00
    0.00000E+00         0.00000E+00         0.10081E+08
 
    0.10019E+08         0.30022E+06         0.00000E+00
    0.30022E+06         0.23418E+08         0.00000E+00
    0.00000E+00         0.00000E+00         0.10031E+08
 
    0.99647E+07         0.29824E+06         0.00000E+00
    0.29824E+06         0.23307E+08         0.00000E+00
    0.00000E+00         0.00000E+00         0.99814E+07
 
    0.99096E+07         0.29585E+06         0.00000E+00
    0.29585E+06         0.23194E+08         0.00000E+00
    0.00000E+00         0.00000E+00         0.99311E+07
 
    0.98536E+07         0.29301E+06         0.00000E+00
    0.29301E+06         0.23081E+08         0.00000E+00
    0.00000E+00         0.00000E+00         0.98803E+07
 
    0.97966E+07         0.28967E+06         0.00000E+00
    0.28967E+06         0.22967E+08         0.00000E+00
    0.00000E+00         0.00000E+00         0.98289E+07
 
    0.97387E+07         0.28578E+06         0.00000E+00
    0.28578E+06         0.22852E+08         0.00000E+00
    0.00000E+00         0.00000E+00         0.97771E+07
 
    0.96797E+07         0.28129E+06         0.00000E+00
    0.28129E+06         0.22736E+08         0.00000E+00
    0.00000E+00         0.00000E+00         0.97247E+07
 
    0.96195E+07         0.27614E+06         0.00000E+00
    0.27614E+06         0.22620E+08         0.00000E+00
    0.00000E+00         0.00000E+00         0.96717E+07
 
    0.95583E+07         0.27025E+06         0.00000E+00
    0.27025E+06         0.22502E+08         0.00000E+00
    0.00000E+00         0.00000E+00         0.96182E+07
 
    0.94958E+07         0.26356E+06         0.00000E+00
    0.26356E+06         0.22384E+08         0.00000E+00
    0.00000E+00         0.00000E+00         0.95640E+07
 
    0.94321E+07         0.25599E+06         0.00000E+00
    0.25599E+06         0.22265E+08         0.00000E+00
    0.00000E+00         0.00000E+00         0.95092E+07
 
    0.93671E+07         0.24746E+06         0.00000E+00
    0.24746E+06         0.22146E+08         0.00000E+00
    0.00000E+00         0.00000E+00         0.94538E+07
 
    0.93008E+07         0.23787E+06         0.00000E+00
    0.23787E+06         0.22025E+08         0.00000E+00
    0.00000E+00         0.00000E+00         0.93978E+07
 
    0.92332E+07         0.22714E+06         0.00000E+00
    0.22714E+06         0.21904E+08         0.00000E+00
    0.00000E+00         0.00000E+00         0.93411E+07
 
    0.91641E+07         0.21519E+06         0.00000E+00
    0.21519E+06         0.21782E+08         0.00000E+00
    0.00000E+00         0.00000E+00         0.92837E+07
 
    0.90937E+07         0.20193E+06         0.00000E+00
    0.20193E+06         0.21659E+08         0.00000E+00
    0.00000E+00         0.00000E+00         0.92257E+07
 
    0.90218E+07         0.18732E+06         0.00000E+00
    0.18732E+06         0.21535E+08         0.00000E+00
    0.00000E+00         0.00000E+00         0.91671E+07
 
    0.89486E+07         0.17134E+06         0.00000E+00
    0.17134E+06         0.21411E+08         0.00000E+00
    0.00000E+00         0.00000E+00         0.91080E+07
 
    0.88740E+07         0.15399E+06         0.00000E+00
    0.15399E+06         0.21287E+08         0.00000E+00
    0.00000E+00         0.00000E+00         0.90484E+07
 
    0.87978E+07         0.13539E+06         0.00000E+00
    0.13539E+06         0.21164E+08         0.00000E+00
    0.00000E+00         0.00000E+00         0.89884E+07
 
    0.87202E+07         0.11572E+06         0.00000E+00
    0.11572E+06         0.21041E+08         0.00000E+00
    0.00000E+00         0.00000E+00         0.89283E+07
 
    0.86409E+07         0.95348E+05         0.00000E+00
    0.95348E+05         0.20919E+08         0.00000E+00
    0.00000E+00         0.00000E+00         0.88681E+07
 
    0.85596E+07         0.74811E+05         0.00000E+00
    0.74811E+05         0.20801E+08         0.00000E+00
    0.00000E+00         0.00000E+00         0.88081E+07
 
    0.84759E+07         0.54907E+05         0.00000E+00
    0.54907E+05         0.20686E+08         0.00000E+00
    0.00000E+00         0.00000E+00         0.87485E+07
 
    0.83891E+07         0.36704E+05         0.00000E+00
    0.36704E+05         0.20576E+08         0.00000E+00
    0.00000E+00         0.00000E+00         0.86897E+07
 
    0.82981E+07         0.21457E+05         0.00000E+00
    0.21457E+05         0.20475E+08         0.00000E+00
    0.00000E+00         0.00000E+00         0.86319E+07
 
    0.82016E+07         0.10301E+05         0.00000E+00
    0.10301E+05         0.20383E+08         0.00000E+00
    0.00000E+00         0.00000E+00         0.85753E+07
 
    0.80981E+07         0.36842E+04         0.00000E+00
    0.36842E+04         0.20303E+08         0.00000E+00
    0.00000E+00         0.00000E+00         0.85203E+07
 
    0.79866E+07         0.75005E+03         0.00000E+00
    0.75005E+03         0.20237E+08         0.00000E+00
    0.00000E+00         0.00000E+00         0.84670E+07
 
    0.13059E+08         0.68882E+03         0.00000E+00
    0.68882E+03         0.29458E+08         0.00000E+00
    0.00000E+00         0.00000E+00         0.12755E+08
 
    0.12995E+08         0.29393E+04         0.00000E+00
    0.29393E+04         0.29420E+08         0.00000E+00
    0.00000E+00         0.00000E+00         0.12724E+08
 
    0.12935E+08         0.74416E+04         0.00000E+00
    0.74416E+04         0.29373E+08         0.00000E+00
    0.00000E+00         0.00000E+00         0.12692E+08
 
    0.12879E+08         0.14732E+05         0.00000E+00
    0.14732E+05         0.29319E+08         0.00000E+00
    0.00000E+00         0.00000E+00         0.12659E+08
 
    0.12827E+08         0.24556E+05         0.00000E+00
    0.24556E+05         0.29259E+08         0.00000E+00
    0.00000E+00         0.00000E+00         0.12626E+08
 
    0.12776E+08         0.36228E+05         0.00000E+00
    0.36228E+05         0.29196E+08         0.00000E+00
    0.00000E+00         0.00000E+00         0.12592E+08
 
    0.12728E+08         0.48992E+05         0.00000E+00
    0.48992E+05         0.29128E+08         0.00000E+00
    0.00000E+00         0.00000E+00         0.12557E+08
 
    0.12681E+08         0.62203E+05         0.00000E+00
    0.62203E+05         0.29059E+08         0.00000E+00
    0.00000E+00         0.00000E+00         0.12522E+08
 
    0.12635E+08         0.75380E+05         0.00000E+00
    0.75380E+05         0.28988E+08         0.00000E+00
    0.00000E+00         0.00000E+00         0.12487E+08
 
    0.12590E+08         0.88196E+05         0.00000E+00
    0.88196E+05         0.28915E+08         0.00000E+00
    0.00000E+00         0.00000E+00         0.12451E+08
 
    0.12545E+08         0.10044E+06         0.00000E+00
    0.10044E+06         0.28842E+08         0.00000E+00
    0.00000E+00         0.00000E+00         0.12416E+08
 
    0.12502E+08         0.11201E+06         0.00000E+00
    0.11201E+06         0.28768E+08         0.00000E+00
    0.00000E+00         0.00000E+00         0.12381E+08
 
    0.12459E+08         0.12283E+06         0.00000E+00
    0.12283E+06         0.28694E+08         0.00000E+00
    0.00000E+00         0.00000E+00         0.12346E+08
 
    0.12418E+08         0.13290E+06         0.00000E+00
    0.13290E+06         0.28620E+08         0.00000E+00
    0.00000E+00         0.00000E+00         0.12311E+08
 
    0.12376E+08         0.14224E+06         0.00000E+00
    0.14224E+06         0.28546E+08         0.00000E+00
    0.00000E+00         0.00000E+00         0.12277E+08
 
    0.12336E+08         0.15088E+06         0.00000E+00
    0.15088E+06         0.28471E+08         0.00000E+00
    0.00000E+00         0.00000E+00         0.12242E+08
 
    0.12296E+08         0.15887E+06         0.00000E+00
    0.15887E+06         0.28397E+08         0.00000E+00
    0.00000E+00         0.00000E+00         0.12208E+08
 
    0.12256E+08         0.16626E+06         0.00000E+00
    0.16626E+06         0.28322E+08         0.00000E+00
    0.00000E+00         0.00000E+00         0.12174E+08
 
    0.12218E+08         0.17311E+06         0.00000E+00
    0.17311E+06         0.28247E+08         0.00000E+00
    0.00000E+00         0.00000E+00         0.12139E+08
 
    0.12179E+08         0.17946E+06         0.00000E+00
    0.17946E+06         0.28172E+08         0.00000E+00
    0.00000E+00         0.00000E+00         0.12105E+08
 
    0.12141E+08         0.18536E+06         0.00000E+00
    0.18536E+06         0.28097E+08         0.00000E+00
    0.00000E+00         0.00000E+00         0.12071E+08
 
    0.12104E+08         0.19086E+06         0.00000E+00
    0.19086E+06         0.28021E+08         0.00000E+00
    0.00000E+00         0.00000E+00         0.12037E+08
 
    0.12067E+08         0.19600E+06         0.00000E+00
    0.19600E+06         0.27945E+08         0.00000E+00
    0.00000E+00         0.00000E+00         0.12003E+08
 
    0.12030E+08         0.20083E+06         0.00000E+00
    0.20083E+06         0.27869E+08         0.00000E+00
    0.00000E+00         0.00000E+00         0.11970E+08
 
    0.11993E+08         0.20537E+06         0.00000E+00
    0.20537E+06         0.27792E+08         0.00000E+00
    0.00000E+00         0.00000E+00         0.11935E+08
 
    0.11956E+08         0.20966E+06         0.00000E+00
    0.20966E+06         0.27715E+08         0.00000E+00
    0.00000E+00         0.00000E+00         0.11901E+08
 
    0.11920E+08         0.21372E+06         0.00000E+00
    0.21372E+06         0.27637E+08         0.00000E+00
    0.00000E+00         0.00000E+00         0.11867E+08
 
    0.11884E+08         0.21758E+06         0.00000E+00
    0.21758E+06         0.27559E+08         0.00000E+00
    0.00000E+00         0.00000E+00         0.11833E+08
 
    0.11848E+08         0.22126E+06         0.00000E+00
    0.22126E+06         0.27480E+08         0.00000E+00
    0.00000E+00         0.00000E+00         0.11798E+08
 
    0.11812E+08         0.22478E+06         0.00000E+00
    0.22478E+06         0.27401E+08         0.00000E+00
    0.00000E+00         0.00000E+00         0.11764E+08
 
    0.11775E+08         0.22815E+06         0.00000E+00
    0.22815E+06         0.27322E+08         0.00000E+00
    0.00000E+00         0.00000E+00         0.11729E+08
 
    0.11739E+08         0.23139E+06         0.00000E+00
    0.23139E+06         0.27241E+08         0.00000E+00
    0.00000E+00         0.00000E+00         0.11694E+08
 
    0.11703E+08         0.23451E+06         0.00000E+00
    0.23451E+06         0.27160E+08         0.00000E+00
    0.00000E+00         0.00000E+00         0.11659E+08
 
    0.11666E+08         0.23753E+06         0.00000E+00
    0.23753E+06         0.27079E+08         0.00000E+00
    0.00000E+00         0.00000E+00         0.11624E+08
 
    0.11630E+08         0.24044E+06         0.00000E+00
    0.24044E+06         0.26997E+08         0.00000E+00
    0.00000E+00         0.00000E+00         0.11588E+08
 
    0.11593E+08         0.24327E+06         0.00000E+00
    0.24327E+06         0.26914E+08         0.00000E+00
    0.00000E+00         0.00000E+00         0.11552E+08
 
    0.11556E+08         0.24601E+06         0.00000E+00
    0.24601E+06         0.26830E+08         0.00000E+00
    0.00000E+00         0.00000E+00         0.11516E+08
 
    0.11519E+08         0.24868E+06         0.00000E+00
    0.24868E+06         0.26746E+08         0.00000E+00
    0.00000E+00         0.00000E+00         0.11480E+08
 
    0.11482E+08         0.25128E+06         0.00000E+00
    0.25128E+06         0.26661E+08         0.00000E+00
    0.00000E+00         0.00000E+00         0.11443E+08
 
    0.11444E+08         0.25381E+06         0.00000E+00
    0.25381E+06         0.26576E+08         0.00000E+00
    0.00000E+00         0.00000E+00         0.11406E+08
 
    0.11406E+08         0.25628E+06         0.00000E+00
    0.25628E+06         0.26489E+08         0.00000E+00
    0.00000E+00         0.00000E+00         0.11369E+08
 
    0.11368E+08         0.25869E+06         0.00000E+00
    0.25869E+06         0.26402E+08         0.00000E+00
    0.00000E+00         0.00000E+00         0.11331E+08
 
    0.11329E+08         0.26103E+06         0.00000E+00
    0.26103E+06         0.26314E+08         0.00000E+00
    0.00000E+00         0.00000E+00         0.11293E+08
 
    0.11291E+08         0.26333E+06         0.00000E+00
    0.26333E+06         0.26226E+08         0.00000E+00
    0.00000E+00         0.00000E+00         0.11255E+08
 
    0.11252E+08         0.26556E+06         0.00000E+00
    0.26556E+06         0.26136E+08         0.00000E+00
    0.00000E+00         0.00000E+00         0.11216E+08
 
    0.11212E+08         0.26774E+06         0.00000E+00
    0.26774E+06         0.26046E+08         0.00000E+00
    0.00000E+00         0.00000E+00         0.11177E+08
 
    0.11172E+08         0.26986E+06         0.00000E+00
    0.26986E+06         0.25955E+08         0.00000E+00
    0.00000E+00         0.00000E+00         0.11138E+08
 
    0.11132E+08         0.27192E+06         0.00000E+00
    0.27192E+06         0.25863E+08         0.00000E+00
    0.00000E+00         0.00000E+00         0.11099E+08
 
    0.11091E+08         0.27392E+06         0.00000E+00
    0.27392E+06         0.25771E+08         0.00000E+00
    0.00000E+00         0.00000E+00         0.11059E+08
 
    0.11050E+08         0.27586E+06         0.00000E+00
    0.27586E+06         0.25678E+08         0.00000E+00
    0.00000E+00         0.00000E+00         0.11018E+08
 
    0.11009E+08         0.27773E+06         0.00000E+00
    0.27773E+06         0.25583E+08         0.00000E+00
    0.00000E+00         0.00000E+00         0.10978E+08
 
    0.10967E+08         0.27954E+06         0.00000E+00
    0.27954E+06         0.25488E+08         0.00000E+00
    0.00000E+00         0.00000E+00         0.10937E+08
 
    0.10925E+08         0.28126E+06         0.00000E+00
    0.28126E+06         0.25393E+08         0.00000E+00
    0.00000E+00         0.00000E+00         0.10895E+08
 
    0.10882E+08         0.28292E+06         0.00000E+00
    0.28292E+06         0.25296E+08         0.00000E+00
    0.00000E+00         0.00000E+00         0.10853E+08
 
    0.10839E+08         0.28448E+06         0.00000E+00
    0.28448E+06         0.25199E+08         0.00000E+00
    0.00000E+00         0.00000E+00         0.10811E+08
 
    0.10795E+08         0.28596E+06         0.00000E+00
    0.28596E+06         0.25100E+08         0.00000E+00
    0.00000E+00         0.00000E+00         0.10769E+08
 
    0.10751E+08         0.28734E+06         0.00000E+00
    0.28734E+06         0.25001E+08         0.00000E+00
    0.00000E+00         0.00000E+00         0.10726E+08
 
    0.10706E+08         0.28862E+06         0.00000E+00
    0.28862E+06         0.24901E+08         0.00000E+00
    0.00000E+00         0.00000E+00         0.10682E+08
 
    0.10661E+08         0.28978E+06         0.00000E+00
    0.28978E+06         0.24801E+08         0.00000E+00
    0.00000E+00         0.00000E+00         0.10638E+08
 
    0.10615E+08         0.29082E+06         0.00000E+00
    0.29082E+06         0.24699E+08         0.00000E+00
    0.00000E+00         0.00000E+00         0.10594E+08
 
    0.10569E+08         0.29173E+06         0.00000E+00
    0.29173E+06         0.24597E+08         0.00000E+00
    0.00000E+00         0.00000E+00         0.10550E+08
 
    0.10522E+08         0.29249E+06         0.00000E+00
    0.29249E+06         0.24494E+08         0.00000E+00
    0.00000E+00         0.00000E+00         0.10505E+08
 
    0.10475E+08         0.29311E+06         0.00000E+00
    0.29311E+06         0.24390E+08         0.00000E+00
    0.00000E+00         0.00000E+00         0.10459E+08
 
    0.10427E+08         0.29355E+06         0.00000E+00
    0.29355E+06         0.24285E+08         0.00000E+00
    0.00000E+00         0.00000E+00         0.10414E+08
 
    0.10378E+08         0.29381E+06         0.00000E+00
    0.29381E+06         0.24179E+08         0.00000E+00
    0.00000E+00         0.00000E+00         0.10367E+08
 
    0.10329E+08         0.29387E+06         0.00000E+00
    0.29387E+06         0.24073E+08         0.00000E+00
    0.00000E+00         0.00000E+00         0.10321E+08
 
    0.10279E+08         0.29371E+06         0.00000E+00
    0.29371E+06         0.23966E+08         0.00000E+00
    0.00000E+00         0.00000E+00         0.10273E+08
 
    0.10228E+08         0.29332E+06         0.00000E+00
    0.29332E+06         0.23858E+08         0.00000E+00
    0.00000E+00         0.00000E+00         0.10226E+08
 
    0.10177E+08         0.29267E+06         0.00000E+00
    0.29267E+06         0.23749E+08         0.00000E+00
    0.00000E+00         0.00000E+00         0.10178E+08
 
    0.10125E+08         0.29174E+06         0.00000E+00
    0.29174E+06         0.23640E+08         0.00000E+00
    0.00000E+00         0.00000E+00         0.10129E+08
 
    0.10072E+08         0.29050E+06         0.00000E+00
    0.29050E+06         0.23530E+08         0.00000E+00
    0.00000E+00         0.00000E+00         0.10081E+08
 
    0.10019E+08         0.28894E+06         0.00000E+00
    0.28894E+06         0.23419E+08         0.00000E+00
    0.00000E+00         0.00000E+00         0.10031E+08
 
    0.99642E+07         0.28700E+06         0.00000E+00
    0.28700E+06         0.23307E+08         0.00000E+00
    0.00000E+00         0.00000E+00         0.99814E+07
 
    0.99089E+07         0.28466E+06         0.00000E+00
    0.28466E+06         0.23194E+08         0.00000E+00
    0.00000E+00         0.00000E+00         0.99310E+07
 
    0.98527E+07         0.28188E+06         0.00000E+00
    0.28188E+06         0.23081E+08         0.00000E+00
    0.00000E+00         0.00000E+00         0.98802E+07
 
    0.97954E+07         0.27862E+06         0.00000E+00
    0.27862E+06         0.22967E+08         0.00000E+00
    0.00000E+00         0.00000E+00         0.98288E+07
 
    0.97372E+07         0.27482E+06         0.00000E+00
    0.27482E+06         0.22852E+08         0.00000E+00
    0.00000E+00         0.00000E+00         0.97769E+07
 
    0.96779E+07         0.27044E+06         0.00000E+00
    0.27044E+06         0.22737E+08         0.00000E+00
    0.00000E+00         0.00000E+00         0.97244E+07
 
    0.96175E+07         0.26540E+06         0.00000E+00
    0.26540E+06         0.22621E+08         0.00000E+00
    0.00000E+00         0.00000E+00         0.96714E+07
 
    0.95558E+07         0.25965E+06         0.00000E+00
    0.25965E+06         0.22504E+08         0.00000E+00
    0.00000E+00         0.00000E+00         0.96178E+07
 
    0.94930E+07         0.25311E+06         0.00000E+00
    0.25311E+06         0.22386E+08         0.00000E+00
    0.00000E+00         0.00000E+00         0.95636E+07
 
    0.94288E+07         0.24570E+06         0.00000E+00
    0.24570E+06         0.22267E+08         0.00000E+00
    0.00000E+00         0.00000E+00         0.95087E+07
 
    0.93634E+07         0.23734E+06         0.00000E+00
    0.23734E+06         0.22147E+08         0.00000E+00
    0.00000E+00         0.00000E+00         0.94532E+07
 
    0.92965E+07         0.22794E+06         0.00000E+00
    0.22794E+06         0.22027E+08         0.00000E+00
    0.00000E+00         0.00000E+00         0.93971E+07
 
    0.92282E+07         0.21740E+06         0.00000E+00
    0.21740E+06         0.21906E+08         0.00000E+00
    0.00000E+00         0.00000E+00         0.93403E+07
 
    0.91585E+07         0.20566E+06         0.00000E+00
    0.20566E+06         0.21784E+08         0.00000E+00
    0.00000E+00         0.00000E+00         0.92828E+07
 
    0.90873E+07         0.19262E+06         0.00000E+00
    0.19262E+06         0.21661E+08         0.00000E+00
    0.00000E+00         0.00000E+00         0.92246E+07
 
    0.90147E+07         0.17823E+06         0.00000E+00
    0.17823E+06         0.21538E+08         0.00000E+00
    0.00000E+00         0.00000E+00         0.91659E+07
 
    0.89405E+07         0.16248E+06         0.00000E+00
    0.16248E+06         0.21415E+08         0.00000E+00
    0.00000E+00         0.00000E+00         0.91065E+07
 
    0.88648E+07         0.14537E+06         0.00000E+00
    0.14537E+06         0.21291E+08         0.00000E+00
    0.00000E+00         0.00000E+00         0.90467E+07
 
    0.87875E+07         0.12702E+06         0.00000E+00
    0.12702E+06         0.21167E+08         0.00000E+00
    0.00000E+00         0.00000E+00         0.89865E+07
 
    0.87086E+07         0.10763E+06         0.00000E+00
    0.10763E+06         0.21045E+08         0.00000E+00
    0.00000E+00         0.00000E+00         0.89260E+07
 
    0.86279E+07         0.87583E+05         0.00000E+00
    0.87583E+05         0.20923E+08         0.00000E+00
    0.00000E+00         0.00000E+00         0.88654E+07
 
    0.85451E+07         0.67440E+05         0.00000E+00
    0.67440E+05         0.20805E+08         0.00000E+00
    0.00000E+00         0.00000E+00         0.88049E+07
 
    0.84600E+07         0.48043E+05         0.00000E+00
    0.48043E+05         0.20690E+08         0.00000E+00
    0.00000E+00         0.00000E+00         0.87449E+07
 
    0.83719E+07         0.30517E+05         0.00000E+00
    0.30517E+05         0.20580E+08         0.00000E+00
    0.00000E+00         0.00000E+00         0.86855E+07
 
    0.82798E+07         0.16181E+05         0.00000E+00
    0.16181E+05         0.20477E+08         0.00000E+00
    0.00000E+00         0.00000E+00         0.86271E+07
 
    0.81824E+07         0.62233E+04         0.00000E+00
    0.62233E+04         0.20385E+08         0.00000E+00
    0.00000E+00         0.00000E+00         0.85701E+07
 
    0.80785E+07         0.10906E+04         0.00000E+00
    0.10906E+04         0.20304E+08         0.00000E+00
    0.00000E+00         0.00000E+00         0.85147E+07
 
    0.79668E+07        -0.14159E+03         0.00000E+00
   -0.14159E+03         0.20237E+08         0.00000E+00
    0.00000E+00         0.00000E+00         0.84611E+07
 
    0.13071E+08         0.16287E+03         0.00000E+00
    0.16287E+03         0.29458E+08         0.00000E+00
    0.00000E+00         0.00000E+00         0.12759E+08
 
    0.13007E+08         0.14143E+04         0.00000E+00
    0.14143E+04         0.29419E+08         0.00000E+00
    0.00000E+00         0.00000E+00         0.12728E+08
 
    0.12947E+08         0.50534E+04         0.00000E+00
    0.50534E+04         0.29372E+08         0.00000E+00
    0.00000E+00         0.00000E+00         0.12696E+08
 
    0.12891E+08         0.11649E+05         0.00000E+00
    0.11649E+05         0.29317E+08         0.00000E+00
    0.00000E+00         0.00000E+00         0.12662E+08
 
    0.12837E+08         0.20933E+05         0.00000E+00
    0.20933E+05         0.29257E+08         0.00000E+00
    0.00000E+00         0.00000E+00         0.12628E+08
 
    0.12786E+08         0.32187E+05         0.00000E+00
    0.32187E+05         0.29193E+08         0.00000E+00
    0.00000E+00         0.00000E+00         0.12594E+08
 
    0.12737E+08         0.44615E+05         0.00000E+00
    0.44615E+05         0.29126E+08         0.00000E+00
    0.00000E+00         0.00000E+00         0.12559E+08
 
    0.12689E+08         0.57544E+05         0.00000E+00
    0.57544E+05         0.29056E+08         0.00000E+00
    0.00000E+00         0.00000E+00         0.12524E+08
 
    0.12642E+08         0.70473E+05         0.00000E+00
    0.70473E+05         0.28985E+08         0.00000E+00
    0.00000E+00         0.00000E+00         0.12488E+08
 
    0.12597E+08         0.83061E+05         0.00000E+00
    0.83061E+05         0.28913E+08         0.00000E+00
    0.00000E+00         0.00000E+00         0.12453E+08
 
    0.12552E+08         0.95092E+05         0.00000E+00
    0.95092E+05         0.28840E+08         0.00000E+00
    0.00000E+00         0.00000E+00         0.12417E+08
 
    0.12508E+08         0.10644E+06         0.00000E+00
    0.10644E+06         0.28766E+08         0.00000E+00
    0.00000E+00         0.00000E+00         0.12382E+08
 
    0.12465E+08         0.11706E+06         0.00000E+00
    0.11706E+06         0.28692E+08         0.00000E+00
    0.00000E+00         0.00000E+00         0.12347E+08
 
    0.12422E+08         0.12693E+06         0.00000E+00
    0.12693E+06         0.28618E+08         0.00000E+00
    0.00000E+00         0.00000E+00         0.12312E+08
 
    0.12381E+08         0.13607E+06         0.00000E+00
    0.13607E+06         0.28544E+08         0.00000E+00
    0.00000E+00         0.00000E+00         0.12277E+08
 
    0.12340E+08         0.14451E+06         0.00000E+00
    0.14451E+06         0.28470E+08         0.00000E+00
    0.00000E+00         0.00000E+00         0.12243E+08
 
    0.12300E+08         0.15231E+06         0.00000E+00
    0.15231E+06         0.28395E+08         0.00000E+00
    0.00000E+00         0.00000E+00         0.12208E+08
 
    0.12260E+08         0.15951E+06         0.00000E+00
    0.15951E+06         0.28321E+08         0.00000E+00
    0.00000E+00         0.00000E+00         0.12174E+08
 
    0.12221E+08         0.16617E+06         0.00000E+00
    0.16617E+06         0.28246E+08         0.00000E+00
    0.00000E+00         0.00000E+00         0.12140E+08
 
    0.12182E+08         0.17234E+06         0.00000E+00
    0.17234E+06         0.28171E+08         0.00000E+00
    0.00000E+00         0.00000E+00         0.12106E+08
 
    0.12144E+08         0.17807E+06         0.00000E+00
    0.17807E+06         0.28096E+08         0.00000E+00
    0.00000E+00         0.00000E+00         0.12072E+08
 
    0.12107E+08         0.18341E+06         0.00000E+00
    0.18341E+06         0.28020E+08         0.00000E+00
    0.00000E+00         0.00000E+00         0.12038E+08
 
    0.12069E+08         0.18839E+06         0.00000E+00
    0.18839E+06         0.27944E+08         0.00000E+00
    0.00000E+00         0.00000E+00         0.12004E+08
 
    0.12032E+08         0.19307E+06         0.00000E+00
    0.19307E+06         0.27868E+08         0.00000E+00
    0.00000E+00         0.00000E+00         0.11970E+08
 
    0.11995E+08         0.19746E+06         0.00000E+00
    0.19746E+06         0.27791E+08         0.00000E+00
    0.00000E+00         0.00000E+00         0.11936E+08
 
    0.11959E+08         0.20161E+06         0.00000E+00
    0.20161E+06         0.27714E+08         0.00000E+00
    0.00000E+00         0.00000E+00         0.11902E+08
 
    0.11922E+08         0.20554E+06         0.00000E+00
    0.20554E+06         0.27636E+08         0.00000E+00
    0.00000E+00         0.00000E+00         0.11868E+08
 
    0.11886E+08         0.20927E+06         0.00000E+00
    0.20927E+06         0.27558E+08         0.00000E+00
    0.00000E+00         0.00000E+00         0.11833E+08
 
    0.11850E+08         0.21282E+06         0.00000E+00
    0.21282E+06         0.27480E+08         0.00000E+00
    0.00000E+00         0.00000E+00         0.11799E+08
 
    0.11814E+08         0.21622E+06         0.00000E+00
    0.21622E+06         0.27401E+08         0.00000E+00
    0.00000E+00         0.00000E+00         0.11764E+08
 
    0.11777E+08         0.21947E+06         0.00000E+00
    0.21947E+06         0.27321E+08         0.00000E+00
    0.00000E+00         0.00000E+00         0.11729E+08
 
    0.11741E+08         0.22259E+06         0.00000E+00
    0.22259E+06         0.27241E+08         0.00000E+00
    0.00000E+00         0.00000E+00         0.11695E+08
 
    0.11705E+08         0.22561E+06         0.00000E+00
    0.22561E+06         0.27160E+08         0.00000E+00
    0.00000E+00         0.00000E+00         0.11659E+08
 
    0.11668E+08         0.22851E+06         0.00000E+00
    0.22851E+06         0.27078E+08         0.00000E+00
    0.00000E+00         0.00000E+00         0.11624E+08
 
    0.11632E+08         0.23132E+06         0.00000E+00
    0.23132E+06         0.26996E+08         0.00000E+00
    0.00000E+00         0.00000E+00         0.11588E+08
 
    0.11595E+08         0.23405E+06         0.00000E+00
    0.23405E+06         0.26913E+08         0.00000E+00
    0.00000E+00         0.00000E+00         0.11552E+08
 
    0.11558E+08         0.23669E+06         0.00000E+00
    0.23669E+06         0.26830E+08         0.00000E+00
    0.00000E+00         0.00000E+00         0.11516E+08
 
    0.11521E+08         0.23926E+06         0.00000E+00
    0.23926E+06         0.26746E+08         0.00000E+00
    0.00000E+00         0.00000E+00         0.11480E+08
 
    0.11483E+08         0.24177E+06         0.00000E+00
    0.24177E+06         0.26661E+08         0.00000E+00
    0.00000E+00         0.00000E+00         0.11443E+08
 
    0.11446E+08         0.24420E+06         0.00000E+00
    0.24420E+06         0.26575E+08         0.00000E+00
    0.00000E+00         0.00000E+00         0.11406E+08
 
    0.11408E+08         0.24658E+06         0.00000E+00
    0.24658E+06         0.26489E+08         0.00000E+00
    0.00000E+00         0.00000E+00         0.11369E+08
 
    0.11370E+08         0.24889E+06         0.00000E+00
    0.24889E+06         0.26402E+08         0.00000E+00
    0.00000E+00         0.00000E+00         0.11331E+08
 
    0.11331E+08         0.25115E+06         0.00000E+00
    0.25115E+06         0.26314E+08         0.00000E+00
    0.00000E+00         0.00000E+00         0.11293E+08
 
    0.11292E+08         0.25336E+06         0.00000E+00
    0.25336E+06         0.26225E+08         0.00000E+00
    0.00000E+00         0.00000E+00         0.11255E+08
 
    0.11253E+08         0.25550E+06         0.00000E+00
    0.25550E+06         0.26136E+08         0.00000E+00
    0.00000E+00         0.00000E+00         0.11217E+08
 
    0.11214E+08         0.25760E+06         0.00000E+00
    0.25760E+06         0.26046E+08         0.00000E+00
    0.00000E+00         0.00000E+00         0.11178E+08
 
    0.11174E+08         0.25963E+06         0.00000E+00
    0.25963E+06         0.25955E+08         0.00000E+00
    0.00000E+00         0.00000E+00         0.11139E+08
 
    0.11134E+08         0.26162E+06         0.00000E+00
    0.26162E+06         0.25863E+08         0.00000E+00
    0.00000E+00         0.00000E+00         0.11099E+08
 
    0.11093E+08         0.26354E+06         0.00000E+00
    0.26354E+06         0.25770E+08         0.00000E+00
    0.00000E+00         0.00000E+00         0.11059E+08
 
    0.11052E+08         0.26540E+06         0.00000E+00
    0.26540E+06         0.25677E+08         0.00000E+00
    0.00000E+00         0.00000E+00         0.11019E+08
 
    0.11010E+08         0.26719E+06         0.00000E+00
    0.26719E+06         0.25583E+08         0.00000E+00
    0.00000E+00         0.00000E+00         0.10978E+08
 
    0.10968E+08         0.26892E+06         0.00000E+00
    0.26892E+06         0.25488E+08         0.00000E+00
    0.00000E+00         0.00000E+00         0.10937E+08
 
    0.10926E+08         0.27058E+06         0.00000E+00
    0.27058E+06         0.25392E+08         0.00000E+00
    0.00000E+00         0.00000E+00         0.10896E+08
 
    0.10883E+08         0.27216E+06         0.00000E+00
    0.27216E+06         0.25296E+08         0.00000E+00
    0.00000E+00         0.00000E+00         0.10854E+08
 
    0.10840E+08         0.27366E+06         0.00000E+00
    0.27366E+06         0.25198E+08         0.00000E+00
    0.00000E+00         0.00000E+00         0.10812E+08
 
    0.10796E+08         0.27508E+06         0.00000E+00
    0.27508E+06         0.25100E+08         0.00000E+00
    0.00000E+00         0.00000E+00         0.10769E+08
 
    0.10752E+08         0.27640E+06         0.00000E+00
    0.27640E+06         0.25001E+08         0.00000E+00
    0.00000E+00         0.00000E+00         0.10726E+08
 
    0.10707E+08         0.27761E+06         0.00000E+00
    0.27761E+06         0.24901E+08         0.00000E+00
    0.00000E+00         0.00000E+00         0.10683E+08
 
    0.10662E+08         0.27872E+06         0.00000E+00
    0.27872E+06         0.24801E+08         0.00000E+00
    0.00000E+00         0.00000E+00         0.10639E+08
 
    0.10616E+08         0.27971E+06         0.00000E+00
    0.27971E+06         0.24699E+08         0.00000E+00
    0.00000E+00         0.00000E+00         0.10595E+08
 
    0.10570E+08         0.28058E+06         0.00000E+00
    0.28058E+06         0.24597E+08         0.00000E+00
    0.00000E+00         0.00000E+00         0.10550E+08
 
    0.10523E+08         0.28130E+06         0.00000E+00
    0.28130E+06         0.24494E+08         0.00000E+00
    0.00000E+00         0.00000E+00         0.10505E+08
 
    0.10475E+08         0.28188E+06         0.00000E+00
    0.28188E+06         0.24390E+08         0.00000E+00
    0.00000E+00         0.00000E+00         0.10460E+08
 
    0.10427E+08         0.28229E+06         0.00000E+00
    0.28229E+06         0.24285E+08         0.00000E+00
    0.00000E+00         0.00000E+00         0.10414E+08
 
    0.10379E+08         0.28252E+06         0.00000E+00
    0.28252E+06         0.24179E+08         0.00000E+00
    0.00000E+00         0.00000E+00         0.10367E+08
 
    0.10329E+08         0.28256E+06         0.00000E+00
    0.28256E+06         0.24073E+08         0.00000E+00
    0.00000E+00         0.00000E+00         0.10321E+08
 
    0.10279E+08         0.28239E+06         0.00000E+00
    0.28239E+06         0.23966E+08         0.00000E+00
    0.00000E+00         0.00000E+00         0.10274E+08
 
    0.10229E+08         0.28200E+06         0.00000E+00
    0.28200E+06         0.23858E+08         0.00000E+00
    0.00000E+00         0.00000E+00         0.10226E+08
 
    0.10177E+08         0.28135E+06         0.00000E+00
    0.28135E+06         0.23750E+08         0.00000E+00
    0.00000E+00         0.00000E+00         0.10178E+08
 
    0.10125E+08         0.28044E+06         0.00000E+00
    0.28044E+06         0.23640E+08         0.00000E+00
    0.00000E+00         0.00000E+00         0.10130E+08
 
    0.10072E+08         0.27922E+06         0.00000E+00
    0.27922E+06         0.23530E+08         0.00000E+00
    0.00000E+00         0.00000E+00         0.10081E+08
 
    0.10018E+08         0.27769E+06         0.00000E+00
    0.27769E+06         0.23419E+08         0.00000E+00
    0.00000E+00         0.00000E+00         0.10031E+08
 
    0.99637E+07         0.27579E+06         0.00000E+00
    0.27579E+06         0.23307E+08         0.00000E+00
    0.00000E+00         0.00000E+00         0.99813E+07
 
    0.99082E+07         0.27351E+06         0.00000E+00
    0.27351E+06         0.23195E+08         0.00000E+00
    0.00000E+00         0.00000E+00         0.99310E+07
 
    0.98518E+07         0.27080E+06         0.00000E+00
    0.27080E+06         0.23082E+08         0.00000E+00
    0.00000E+00         0.00000E+00         0.98801E+07
 
    0.97943E+07         0.26762E+06         0.00000E+00
    0.26762E+06         0.22968E+08         0.00000E+00
    0.00000E+00         0.00000E+00         0.98287E+07
 
    0.97358E+07         0.26392E+06         0.00000E+00
    0.26392E+06         0.22853E+08         0.00000E+00
    0.00000E+00         0.00000E+00         0.97767E+07
 
    0.96762E+07         0.25964E+06         0.00000E+00
    0.25964E+06         0.22738E+08         0.00000E+00
    0.00000E+00         0.00000E+00         0.97242E+07
 
    0.96154E+07         0.25473E+06         0.00000E+00
    0.25473E+06         0.22622E+08         0.00000E+00
    0.00000E+00         0.00000E+00         0.96711E+07
 
    0.95535E+07         0.24912E+06         0.00000E+00
    0.24912E+06         0.22505E+08         0.00000E+00
    0.00000E+00         0.00000E+00         0.96175E+07
 
    0.94902E+07         0.24273E+06         0.00000E+00
    0.24273E+06         0.22387E+08         0.00000E+00
    0.00000E+00         0.00000E+00         0.95632E+07
 
    0.94257E+07         0.23550E+06         0.00000E+00
    0.23550E+06         0.22268E+08         0.00000E+00
    0.00000E+00         0.00000E+00         0.95082E+07
 
    0.93597E+07         0.22732E+06         0.00000E+00
    0.22732E+06         0.22149E+08         0.00000E+00
    0.00000E+00         0.00000E+00         0.94527E+07
 
    0.92923E+07         0.21812E+06         0.00000E+00
    0.21812E+06         0.22029E+08         0.00000E+00
    0.00000E+00         0.00000E+00         0.93964E+07
 
    0.92234E+07         0.20780E+06         0.00000E+00
    0.20780E+06         0.21908E+08         0.00000E+00
    0.00000E+00         0.00000E+00         0.93395E+07
 
    0.91531E+07         0.19627E+06         0.00000E+00
    0.19627E+06         0.21786E+08         0.00000E+00
    0.00000E+00         0.00000E+00         0.92819E+07
 
    0.90811E+07         0.18347E+06         0.00000E+00
    0.18347E+06         0.21664E+08         0.00000E+00
    0.00000E+00         0.00000E+00         0.92236E+07
 
    0.90076E+07         0.16932E+06         0.00000E+00
    0.16932E+06         0.21541E+08         0.00000E+00
    0.00000E+00         0.00000E+00         0.91646E+07
 
    0.89324E+07         0.15382E+06         0.00000E+00
    0.15382E+06         0.21418E+08         0.00000E+00
    0.00000E+00         0.00000E+00         0.91051E+07
 
    0.88557E+07         0.13697E+06         0.00000E+00
    0.13697E+06         0.21294E+08         0.00000E+00
    0.00000E+00         0.00000E+00         0.90450E+07
 
    0.87772E+07         0.11890E+06         0.00000E+00
    0.11890E+06         0.21171E+08         0.00000E+00
    0.00000E+00         0.00000E+00         0.89845E+07
 
    0.86970E+07         0.99815E+05         0.00000E+00
    0.99815E+05         0.21049E+08         0.00000E+00
    0.00000E+00         0.00000E+00         0.89237E+07
 
    0.86149E+07         0.80102E+05         0.00000E+00
    0.80102E+05         0.20927E+08         0.00000E+00
    0.00000E+00         0.00000E+00         0.88627E+07
 
    0.85307E+07         0.60358E+05         0.00000E+00
    0.60358E+05         0.20809E+08         0.00000E+00
    0.00000E+00         0.00000E+00         0.88018E+07
 
    0.84442E+07         0.41459E+05         0.00000E+00
    0.41459E+05         0.20693E+08         0.00000E+00
    0.00000E+00         0.00000E+00         0.87412E+07
 
    0.83547E+07         0.24578E+05         0.00000E+00
    0.24578E+05         0.20583E+08         0.00000E+00
    0.00000E+00         0.00000E+00         0.86813E+07
 
    0.82615E+07         0.11099E+05         0.00000E+00
    0.11099E+05         0.20480E+08         0.00000E+00
    0.00000E+00         0.00000E+00         0.86224E+07
 
    0.81634E+07         0.22698E+04         0.00000E+00
    0.22698E+04         0.20386E+08         0.00000E+00
    0.00000E+00         0.00000E+00         0.85648E+07
 
    0.80590E+07        -0.14416E+04         0.00000E+00
   -0.14416E+04         0.20304E+08         0.00000E+00
    0.00000E+00         0.00000E+00         0.85089E+07
 
    0.79470E+07        -0.10163E+04         0.00000E+00
   -0.10163E+04         0.20237E+08         0.00000E+00
    0.00000E+00         0.00000E+00         0.84551E+07
 
    0.13084E+08        -0.35498E+03         0.00000E+00
   -0.35498E+03         0.29458E+08         0.00000E+00
    0.00000E+00         0.00000E+00         0.12763E+08
 
    0.13019E+08        -0.79580E+02         0.00000E+00
   -0.79580E+02         0.29419E+08         0.00000E+00
    0.00000E+00         0.00000E+00         0.12731E+08
 
    0.12959E+08         0.27319E+04         0.00000E+00
    0.27319E+04         0.29371E+08         0.00000E+00
    0.00000E+00         0.00000E+00         0.12699E+08
 
    0.12902E+08         0.86728E+04         0.00000E+00
    0.86728E+04         0.29316E+08         0.00000E+00
    0.00000E+00         0.00000E+00         0.12665E+08
 
    0.12848E+08         0.17449E+05         0.00000E+00
    0.17449E+05         0.29255E+08         0.00000E+00
    0.00000E+00         0.00000E+00         0.12631E+08
 
    0.12796E+08         0.28302E+05         0.00000E+00
    0.28302E+05         0.29191E+08         0.00000E+00
    0.00000E+00         0.00000E+00         0.12596E+08
 
    0.12746E+08         0.40401E+05         0.00000E+00
    0.40401E+05         0.29123E+08         0.00000E+00
    0.00000E+00         0.00000E+00         0.12561E+08
 
    0.12697E+08         0.53044E+05         0.00000E+00
    0.53044E+05         0.29054E+08         0.00000E+00
    0.00000E+00         0.00000E+00         0.12525E+08
 
    0.12650E+08         0.65714E+05         0.00000E+00
    0.65714E+05         0.28982E+08         0.00000E+00
    0.00000E+00         0.00000E+00         0.12490E+08
 
    0.12603E+08         0.78061E+05         0.00000E+00
    0.78061E+05         0.28910E+08         0.00000E+00
    0.00000E+00         0.00000E+00         0.12454E+08
 
    0.12558E+08         0.89861E+05         0.00000E+00
    0.89861E+05         0.28837E+08         0.00000E+00
    0.00000E+00         0.00000E+00         0.12419E+08
 
    0.12513E+08         0.10099E+06         0.00000E+00
    0.10099E+06         0.28764E+08         0.00000E+00
    0.00000E+00         0.00000E+00         0.12383E+08
 
    0.12470E+08         0.11139E+06         0.00000E+00
    0.11139E+06         0.28690E+08         0.00000E+00
    0.00000E+00         0.00000E+00         0.12348E+08
 
    0.12427E+08         0.12104E+06         0.00000E+00
    0.12104E+06         0.28616E+08         0.00000E+00
    0.00000E+00         0.00000E+00         0.12313E+08
 
    0.12385E+08         0.12997E+06         0.00000E+00
    0.12997E+06         0.28542E+08         0.00000E+00
    0.00000E+00         0.00000E+00         0.12278E+08
 
    0.12344E+08         0.13820E+06         0.00000E+00
    0.13820E+06         0.28468E+08         0.00000E+00
    0.00000E+00         0.00000E+00         0.12244E+08
 
    0.12303E+08         0.14580E+06         0.00000E+00
    0.14580E+06         0.28394E+08         0.00000E+00
    0.00000E+00         0.00000E+00         0.12209E+08
 
    0.12264E+08         0.15280E+06         0.00000E+00
    0.15280E+06         0.28319E+08         0.00000E+00
    0.00000E+00         0.00000E+00         0.12175E+08
 
    0.12224E+08         0.15927E+06         0.00000E+00
    0.15927E+06         0.28245E+08         0.00000E+00
    0.00000E+00         0.00000E+00         0.12141E+08
 
    0.12185E+08         0.16526E+06         0.00000E+00
    0.16526E+06         0.28170E+08         0.00000E+00
    0.00000E+00         0.00000E+00         0.12107E+08
 
    0.12147E+08         0.17081E+06         0.00000E+00
    0.17081E+06         0.28094E+08         0.00000E+00
    0.00000E+00         0.00000E+00         0.12073E+08
 
    0.12109E+08         0.17598E+06         0.00000E+00
    0.17598E+06         0.28019E+08         0.00000E+00
    0.00000E+00         0.00000E+00         0.12038E+08
 
    0.12072E+08         0.18081E+06         0.00000E+00
    0.18081E+06         0.27943E+08         0.00000E+00
    0.00000E+00         0.00000E+00         0.12005E+08
 
    0.12035E+08         0.18532E+06         0.00000E+00
    0.18532E+06         0.27867E+08         0.00000E+00
    0.00000E+00         0.00000E+00         0.11970E+08
 
    0.11998E+08         0.18957E+06         0.00000E+00
    0.18957E+06         0.27790E+08         0.00000E+00
    0.00000E+00         0.00000E+00         0.11936E+08
 
    0.11961E+08         0.19358E+06         0.00000E+00
    0.19358E+06         0.27713E+08         0.00000E+00
    0.00000E+00         0.00000E+00         0.11902E+08
 
    0.11925E+08         0.19736E+06         0.00000E+00
    0.19736E+06         0.27636E+08         0.00000E+00
    0.00000E+00         0.00000E+00         0.11868E+08
 
    0.11888E+08         0.20096E+06         0.00000E+00
    0.20096E+06         0.27558E+08         0.00000E+00
    0.00000E+00         0.00000E+00         0.11834E+08
 
    0.11852E+08         0.20439E+06         0.00000E+00
    0.20439E+06         0.27479E+08         0.00000E+00
    0.00000E+00         0.00000E+00         0.11799E+08
 
    0.11816E+08         0.20766E+06         0.00000E+00
    0.20766E+06         0.27400E+08         0.00000E+00
    0.00000E+00         0.00000E+00         0.11765E+08
 
    0.11779E+08         0.21080E+06         0.00000E+00
    0.21080E+06         0.27320E+08         0.00000E+00
    0.00000E+00         0.00000E+00         0.11730E+08
 
    0.11743E+08         0.21381E+06         0.00000E+00
    0.21381E+06         0.27240E+08         0.00000E+00
    0.00000E+00         0.00000E+00         0.11695E+08
 
    0.11707E+08         0.21671E+06         0.00000E+00
    0.21671E+06         0.27159E+08         0.00000E+00
    0.00000E+00         0.00000E+00         0.11660E+08
 
    0.11670E+08         0.21951E+06         0.00000E+00
    0.21951E+06         0.27078E+08         0.00000E+00
    0.00000E+00         0.00000E+00         0.11624E+08
 
    0.11634E+08         0.22221E+06         0.00000E+00
    0.22221E+06         0.26996E+08         0.00000E+00
    0.00000E+00         0.00000E+00         0.11589E+08
 
    0.11597E+08         0.22483E+06         0.00000E+00
    0.22483E+06         0.26913E+08         0.00000E+00
    0.00000E+00         0.00000E+00         0.11553E+08
 
    0.11560E+08         0.22738E+06         0.00000E+00
    0.22738E+06         0.26829E+08         0.00000E+00
    0.00000E+00         0.00000E+00         0.11517E+08
 
    0.11523E+08         0.22985E+06         0.00000E+00
    0.22985E+06         0.26745E+08         0.00000E+00
    0.00000E+00         0.00000E+00         0.11480E+08
 
    0.11485E+08         0.23225E+06         0.00000E+00
    0.23225E+06         0.26660E+08         0.00000E+00
    0.00000E+00         0.00000E+00         0.11444E+08
 
    0.11448E+08         0.23460E+06         0.00000E+00
    0.23460E+06         0.26575E+08         0.00000E+00
    0.00000E+00         0.00000E+00         0.11407E+08
 
    0.11410E+08         0.23688E+06         0.00000E+00
    0.23688E+06         0.26488E+08         0.00000E+00
    0.00000E+00         0.00000E+00         0.11369E+08
 
    0.11371E+08         0.23910E+06         0.00000E+00
    0.23910E+06         0.26401E+08         0.00000E+00
    0.00000E+00         0.00000E+00         0.11332E+08
 
    0.11333E+08         0.24127E+06         0.00000E+00
    0.24127E+06         0.26313E+08         0.00000E+00
    0.00000E+00         0.00000E+00         0.11294E+08
 
    0.11294E+08         0.24339E+06         0.00000E+00
    0.24339E+06         0.26225E+08         0.00000E+00
    0.00000E+00         0.00000E+00         0.11256E+08
 
    0.11255E+08         0.24545E+06         0.00000E+00
    0.24545E+06         0.26135E+08         0.00000E+00
    0.00000E+00         0.00000E+00         0.11217E+08
 
    0.11215E+08         0.24746E+06         0.00000E+00
    0.24746E+06         0.26045E+08         0.00000E+00
    0.00000E+00         0.00000E+00         0.11178E+08
 
    0.11175E+08         0.24942E+06         0.00000E+00
    0.24942E+06         0.25954E+08         0.00000E+00
    0.00000E+00         0.00000E+00         0.11139E+08
 
    0.11135E+08         0.25132E+06         0.00000E+00
    0.25132E+06         0.25863E+08         0.00000E+00
    0.00000E+00         0.00000E+00         0.11099E+08
 
    0.11094E+08         0.25316E+06         0.00000E+00
    0.25316E+06         0.25770E+08         0.00000E+00
    0.00000E+00         0.00000E+00         0.11059E+08
 
    0.11053E+08         0.25494E+06         0.00000E+00
    0.25494E+06         0.25677E+08         0.00000E+00
    0.00000E+00         0.00000E+00         0.11019E+08
 
    0.11012E+08         0.25666E+06         0.00000E+00
    0.25666E+06         0.25583E+08         0.00000E+00
    0.00000E+00         0.00000E+00         0.10978E+08
 
    0.10970E+08         0.25832E+06         0.00000E+00
    0.25832E+06         0.25488E+08         0.00000E+00
    0.00000E+00         0.00000E+00         0.10937E+08
 
    0.10928E+08         0.25991E+06         0.00000E+00
    0.25991E+06         0.25392E+08         0.00000E+00
    0.00000E+00         0.00000E+00         0.10896E+08
 
    0.10885E+08         0.26142E+06         0.00000E+00
    0.26142E+06         0.25295E+08         0.00000E+00
    0.00000E+00         0.00000E+00         0.10854E+08
 
    0.10841E+08         0.26285E+06         0.00000E+00
    0.26285E+06         0.25198E+08         0.00000E+00
    0.00000E+00         0.00000E+00         0.10812E+08
 
    0.10798E+08         0.26420E+06         0.00000E+00
    0.26420E+06         0.25100E+08         0.00000E+00
    0.00000E+00         0.00000E+00         0.10769E+08
 
    0.10753E+08         0.26546E+06         0.00000E+00
    0.26546E+06         0.25001E+08         0.00000E+00
    0.00000E+00         0.00000E+00         0.10726E+08
 
    0.10708E+08         0.26662E+06         0.00000E+00
    0.26662E+06         0.24901E+08         0.00000E+00
    0.00000E+00         0.00000E+00         0.10683E+08
 
    0.10663E+08         0.26768E+06         0.00000E+00
    0.26768E+06         0.24800E+08         0.00000E+00
    0.00000E+00         0.00000E+00         0.10639E+08
 
    0.10617E+08         0.26862E+06         0.00000E+00
    0.26862E+06         0.24699E+08         0.00000E+00
    0.00000E+00         0.00000E+00         0.10595E+08
 
    0.10571E+08         0.26944E+06         0.00000E+00
    0.26944E+06         0.24597E+08         0.00000E+00
    0.00000E+00         0.00000E+00         0.10550E+08
 
    0.10524E+08         0.27012E+06         0.00000E+00
    0.27012E+06         0.24493E+08         0.00000E+00
    0.00000E+00         0.00000E+00         0.10505E+08
 
    0.10476E+08         0.27066E+06         0.00000E+00
    0.27066E+06         0.24390E+08         0.00000E+00
    0.00000E+00         0.00000E+00         0.10460E+08
 
    0.10428E+08         0.27104E+06         0.00000E+00
    0.27104E+06         0.24285E+08         0.00000E+00
    0.00000E+00         0.00000E+00         0.10414E+08
 
    0.10379E+08         0.27125E+06         0.00000E+00
    0.27125E+06         0.24179E+08         0.00000E+00
    0.00000E+00         0.00000E+00         0.10368E+08
 
    0.10330E+08         0.27128E+06         0.00000E+00
    0.27128E+06         0.24073E+08         0.00000E+00
    0.00000E+00         0.00000E+00         0.10321E+08
 
    0.10280E+08         0.27110E+06         0.00000E+00
    0.27110E+06         0.23966E+08         0.00000E+00
    0.00000E+00         0.00000E+00         0.10274E+08
 
    0.10229E+08         0.27070E+06         0.00000E+00
    0.27070E+06         0.23858E+08         0.00000E+00
    0.00000E+00         0.00000E+00         0.10226E+08
 
    0.10177E+08         0.27006E+06         0.00000E+00
    0.27006E+06         0.23750E+08         0.00000E+00
    0.00000E+00         0.00000E+00         0.10178E+08
 
    0.10125E+08         0.26916E+06         0.00000E+00
    0.26916E+06         0.23640E+08         0.00000E+00
    0.00000E+00         0.00000E+00         0.10130E+08
 
    0.10072E+08         0.26797E+06         0.00000E+00
    0.26797E+06         0.23530E+08         0.00000E+00
    0.00000E+00         0.00000E+00         0.10081E+08
 
    0.10018E+08         0.26647E+06         0.00000E+00
    0.26647E+06         0.23419E+08         0.00000E+00
    0.00000E+00         0.00000E+00         0.10031E+08
 
    0.99633E+07         0.26463E+06         0.00000E+00
    0.26463E+06         0.23308E+08         0.00000E+00
    0.00000E+00         0.00000E+00         0.99813E+07
 
    0.99076E+07         0.26240E+06         0.00000E+00
    0.26240E+06         0.23195E+08         0.00000E+00
    0.00000E+00         0.00000E+00         0.99309E+07
 
    0.98509E+07         0.25977E+06         0.00000E+00
    0.25977E+06         0.23082E+08         0.00000E+00
    0.00000E+00         0.00000E+00         0.98800E+07
 
    0.97932E+07         0.25667E+06         0.00000E+00
    0.25667E+06         0.22969E+08         0.00000E+00
    0.00000E+00         0.00000E+00         0.98285E+07
 
    0.97345E+07         0.25307E+06         0.00000E+00
    0.25307E+06         0.22854E+08         0.00000E+00
    0.00000E+00         0.00000E+00         0.97766E+07
 
    0.96746E+07         0.24891E+06         0.00000E+00
    0.24891E+06         0.22739E+08         0.00000E+00
    0.00000E+00         0.00000E+00         0.97240E+07
 
    0.96135E+07         0.24413E+06         0.00000E+00
    0.24413E+06         0.22623E+08         0.00000E+00
    0.00000E+00         0.00000E+00         0.96709E+07
 
    0.95512E+07         0.23866E+06         0.00000E+00
    0.23866E+06         0.22506E+08         0.00000E+00
    0.00000E+00         0.00000E+00         0.96171E+07
 
    0.94876E+07         0.23244E+06         0.00000E+00
    0.23244E+06         0.22388E+08         0.00000E+00
    0.00000E+00         0.00000E+00         0.95628E+07
 
    0.94226E+07         0.22538E+06         0.00000E+00
    0.22538E+06         0.22270E+08         0.00000E+00
    0.00000E+00         0.00000E+00         0.95078E+07
 
    0.93561E+07         0.21740E+06         0.00000E+00
    0.21740E+06         0.22151E+08         0.00000E+00
    0.00000E+00         0.00000E+00         0.94521E+07
 
    0.92882E+07         0.20841E+06         0.00000E+00
    0.20841E+06         0.22031E+08         0.00000E+00
    0.00000E+00         0.00000E+00         0.93958E+07
 
    0.92188E+07         0.19832E+06         0.00000E+00
    0.19832E+06         0.21910E+08         0.00000E+00
    0.00000E+00         0.00000E+00         0.93387E+07
 
    0.91477E+07         0.18703E+06         0.00000E+00
    0.18703E+06         0.21789E+08         0.00000E+00
    0.00000E+00         0.00000E+00         0.92810E+07
 
    0.90750E+07         0.17448E+06         0.00000E+00
    0.17448E+06         0.21667E+08         0.00000E+00
    0.00000E+00         0.00000E+00         0.92225E+07
 
    0.90006E+07         0.16059E+06         0.00000E+00
    0.16059E+06         0.21544E+08         0.00000E+00
    0.00000E+00         0.00000E+00         0.91634E+07
 
    0.89245E+07         0.14536E+06         0.00000E+00
    0.14536E+06         0.21421E+08         0.00000E+00
    0.00000E+00         0.00000E+00         0.91037E+07
 
    0.88466E+07         0.12880E+06         0.00000E+00
    0.12880E+06         0.21298E+08         0.00000E+00
    0.00000E+00         0.00000E+00         0.90434E+07
 
    0.87670E+07         0.11103E+06         0.00000E+00
    0.11103E+06         0.21175E+08         0.00000E+00
    0.00000E+00         0.00000E+00         0.89826E+07
 
    0.86855E+07         0.92265E+05         0.00000E+00
    0.92265E+05         0.21052E+08         0.00000E+00
    0.00000E+00         0.00000E+00         0.89214E+07
 
    0.86020E+07         0.72907E+05         0.00000E+00
    0.72907E+05         0.20931E+08         0.00000E+00
    0.00000E+00         0.00000E+00         0.88600E+07
 
    0.85164E+07         0.53570E+05         0.00000E+00
    0.53570E+05         0.20812E+08         0.00000E+00
    0.00000E+00         0.00000E+00         0.87986E+07
 
    0.84284E+07         0.35158E+05         0.00000E+00
    0.35158E+05         0.20697E+08         0.00000E+00
    0.00000E+00         0.00000E+00         0.87376E+07
 
    0.83375E+07         0.18889E+05         0.00000E+00
    0.18889E+05         0.20586E+08         0.00000E+00
    0.00000E+00         0.00000E+00         0.86771E+07
 
    0.82432E+07         0.62093E+04         0.00000E+00
    0.62093E+04         0.20482E+08         0.00000E+00
    0.00000E+00         0.00000E+00         0.86175E+07
 
    0.81443E+07        -0.15632E+04         0.00000E+00
   -0.15632E+04         0.20387E+08         0.00000E+00
    0.00000E+00         0.00000E+00         0.85594E+07
 
    0.80395E+07        -0.39168E+04         0.00000E+00
   -0.39168E+04         0.20304E+08         0.00000E+00
    0.00000E+00         0.00000E+00         0.85031E+07
 
    0.79273E+07        -0.18759E+04         0.00000E+00
   -0.18759E+04         0.20236E+08         0.00000E+00
    0.00000E+00         0.00000E+00         0.84490E+07
 
    0.13096E+08        -0.86570E+03         0.00000E+00
   -0.86570E+03         0.29458E+08         0.00000E+00
    0.00000E+00         0.00000E+00         0.12766E+08
 
    0.13031E+08        -0.15442E+04         0.00000E+00
   -0.15442E+04         0.29419E+08         0.00000E+00
    0.00000E+00         0.00000E+00         0.12735E+08
 
    0.12971E+08         0.47587E+03         0.00000E+00
    0.47587E+03         0.29370E+08         0.00000E+00
    0.00000E+00         0.00000E+00         0.12702E+08
 
    0.12913E+08         0.58033E+04         0.00000E+00
    0.58033E+04         0.29314E+08         0.00000E+00
    0.00000E+00         0.00000E+00         0.12668E+08
 
    0.12859E+08         0.14106E+05         0.00000E+00
    0.14106E+05         0.29253E+08         0.00000E+00
    0.00000E+00         0.00000E+00         0.12634E+08
 
    0.12806E+08         0.24578E+05         0.00000E+00
    0.24578E+05         0.29188E+08         0.00000E+00
    0.00000E+00         0.00000E+00         0.12598E+08
 
    0.12755E+08         0.36352E+05         0.00000E+00
    0.36352E+05         0.29121E+08         0.00000E+00
    0.00000E+00         0.00000E+00         0.12563E+08
 
    0.12706E+08         0.48704E+05         0.00000E+00
    0.48704E+05         0.29051E+08         0.00000E+00
    0.00000E+00         0.00000E+00         0.12527E+08
 
    0.12657E+08         0.61106E+05         0.00000E+00
    0.61106E+05         0.28980E+08         0.00000E+00
    0.00000E+00         0.00000E+00         0.12491E+08
 
    0.12610E+08         0.73198E+05         0.00000E+00
    0.73198E+05         0.28908E+08         0.00000E+00
    0.00000E+00         0.00000E+00         0.12455E+08
 
    0.12564E+08         0.84753E+05         0.00000E+00
    0.84753E+05         0.28835E+08         0.00000E+00
    0.00000E+00         0.00000E+00         0.12420E+08
 
    0.12519E+08         0.95643E+05         0.00000E+00
    0.95643E+05         0.28762E+08         0.00000E+00
    0.00000E+00         0.00000E+00         0.12384E+08
 
    0.12475E+08         0.10581E+06         0.00000E+00
    0.10581E+06         0.28688E+08         0.00000E+00
    0.00000E+00         0.00000E+00         0.12349E+08
 
    0.12432E+08         0.11523E+06         0.00000E+00
    0.11523E+06         0.28615E+08         0.00000E+00
    0.00000E+00         0.00000E+00         0.12314E+08
 
    0.12389E+08         0.12394E+06         0.00000E+00
    0.12394E+06         0.28541E+08         0.00000E+00
    0.00000E+00         0.00000E+00         0.12279E+08
 
    0.12348E+08         0.13196E+06         0.00000E+00
    0.13196E+06         0.28467E+08         0.00000E+00
    0.00000E+00         0.00000E+00         0.12244E+08
 
    0.12307E+08         0.13934E+06         0.00000E+00
    0.13934E+06         0.28392E+08         0.00000E+00
    0.00000E+00         0.00000E+00         0.12210E+08
 
    0.12267E+08         0.14614E+06         0.00000E+00
    0.14614E+06         0.28318E+08         0.00000E+00
    0.00000E+00         0.00000E+00         0.12175E+08
 
    0.12227E+08         0.15242E+06         0.00000E+00
    0.15242E+06         0.28243E+08         0.00000E+00
    0.00000E+00         0.00000E+00         0.12141E+08
 
    0.12188E+08         0.15822E+06         0.00000E+00
    0.15822E+06         0.28169E+08         0.00000E+00
    0.00000E+00         0.00000E+00         0.12107E+08
 
    0.12150E+08         0.16359E+06         0.00000E+00
    0.16359E+06         0.28093E+08         0.00000E+00
    0.00000E+00         0.00000E+00         0.12073E+08
 
    0.12112E+08         0.16858E+06         0.00000E+00
    0.16858E+06         0.28018E+08         0.00000E+00
    0.00000E+00         0.00000E+00         0.12039E+08
 
    0.12074E+08         0.17324E+06         0.00000E+00
    0.17324E+06         0.27942E+08         0.00000E+00
    0.00000E+00         0.00000E+00         0.12005E+08
 
    0.12037E+08         0.17760E+06         0.00000E+00
    0.17760E+06         0.27866E+08         0.00000E+00
    0.00000E+00         0.00000E+00         0.11971E+08
 
    0.12000E+08         0.18170E+06         0.00000E+00
    0.18170E+06         0.27789E+08         0.00000E+00
    0.00000E+00         0.00000E+00         0.11937E+08
 
    0.11963E+08         0.18556E+06         0.00000E+00
    0.18556E+06         0.27712E+08         0.00000E+00
    0.00000E+00         0.00000E+00         0.11903E+08
 
    0.11927E+08         0.18921E+06         0.00000E+00
    0.18921E+06         0.27635E+08         0.00000E+00
    0.00000E+00         0.00000E+00         0.11869E+08
 
    0.11890E+08         0.19267E+06         0.00000E+00
    0.19267E+06         0.27557E+08         0.00000E+00
    0.00000E+00         0.00000E+00         0.11834E+08
 
    0.11854E+08         0.19597E+06         0.00000E+00
    0.19597E+06         0.27478E+08         0.00000E+00
    0.00000E+00         0.00000E+00         0.11800E+08
 
    0.11818E+08         0.19912E+06         0.00000E+00
    0.19912E+06         0.27399E+08         0.00000E+00
    0.00000E+00         0.00000E+00         0.11765E+08
 
    0.11781E+08         0.20213E+06         0.00000E+00
    0.20213E+06         0.27320E+08         0.00000E+00
    0.00000E+00         0.00000E+00         0.11730E+08
 
    0.11745E+08         0.20503E+06         0.00000E+00
    0.20503E+06         0.27239E+08         0.00000E+00
    0.00000E+00         0.00000E+00         0.11695E+08
 
    0.11709E+08         0.20782E+06         0.00000E+00
    0.20782E+06         0.27159E+08         0.00000E+00
    0.00000E+00         0.00000E+00         0.11660E+08
 
    0.11672E+08         0.21050E+06         0.00000E+00
    0.21050E+06         0.27077E+08         0.00000E+00
    0.00000E+00         0.00000E+00         0.11625E+08
 
    0.11635E+08         0.21310E+06         0.00000E+00
    0.21310E+06         0.26995E+08         0.00000E+00
    0.00000E+00         0.00000E+00         0.11589E+08
 
    0.11599E+08         0.21562E+06         0.00000E+00
    0.21562E+06         0.26912E+08         0.00000E+00
    0.00000E+00         0.00000E+00         0.11553E+08
 
    0.11562E+08         0.21807E+06         0.00000E+00
    0.21807E+06         0.26829E+08         0.00000E+00
    0.00000E+00         0.00000E+00         0.11517E+08
 
    0.11524E+08         0.22044E+06         0.00000E+00
    0.22044E+06         0.26745E+08         0.00000E+00
    0.00000E+00         0.00000E+00         0.11481E+08
 
    0.11487E+08         0.22275E+06         0.00000E+00
    0.22275E+06         0.26660E+08         0.00000E+00
    0.00000E+00         0.00000E+00         0.11444E+08
 
    0.11449E+08         0.22500E+06         0.00000E+00
    0.22500E+06         0.26574E+08         0.00000E+00
    0.00000E+00         0.00000E+00         0.11407E+08
 
    0.11411E+08         0.22719E+06         0.00000E+00
    0.22719E+06         0.26488E+08         0.00000E+00
    0.00000E+00         0.00000E+00         0.11370E+08
 
    0.11373E+08         0.22932E+06         0.00000E+00
    0.22932E+06         0.26401E+08         0.00000E+00
    0.00000E+00         0.00000E+00         0.11332E+08
 
    0.11335E+08         0.23140E+06         0.00000E+00
    0.23140E+06         0.26313E+08         0.00000E+00
    0.00000E+00         0.00000E+00         0.11294E+08
 
    0.11296E+08         0.23343E+06         0.00000E+00
    0.23343E+06         0.26224E+08         0.00000E+00
    0.00000E+00         0.00000E+00         0.11256E+08
 
    0.11256E+08         0.23540E+06         0.00000E+00
    0.23540E+06         0.26135E+08         0.00000E+00
    0.00000E+00         0.00000E+00         0.11217E+08
 
    0.11217E+08         0.23733E+06         0.00000E+00
    0.23733E+06         0.26045E+08         0.00000E+00
    0.00000E+00         0.00000E+00         0.11179E+08
 
    0.11177E+08         0.23920E+06         0.00000E+00
    0.23920E+06         0.25954E+08         0.00000E+00
    0.00000E+00         0.00000E+00         0.11139E+08
 
    0.11137E+08         0.24102E+06         0.00000E+00
    0.24102E+06         0.25862E+08         0.00000E+00
    0.00000E+00         0.00000E+00         0.11100E+08
 
    0.11096E+08         0.24278E+06         0.00000E+00
    0.24278E+06         0.25770E+08         0.00000E+00
    0.00000E+00         0.00000E+00         0.11060E+08
 
    0.11055E+08         0.24449E+06         0.00000E+00
    0.24449E+06         0.25676E+08         0.00000E+00
    0.00000E+00         0.00000E+00         0.11019E+08
 
    0.11013E+08         0.24614E+06         0.00000E+00
    0.24614E+06         0.25582E+08         0.00000E+00
    0.00000E+00         0.00000E+00         0.10979E+08
 
    0.10971E+08         0.24772E+06         0.00000E+00
    0.24772E+06         0.25487E+08         0.00000E+00
    0.00000E+00         0.00000E+00         0.10938E+08
 
    0.10929E+08         0.24924E+06         0.00000E+00
    0.24924E+06         0.25392E+08         0.00000E+00
    0.00000E+00         0.00000E+00         0.10896E+08
 
    0.10886E+08         0.25068E+06         0.00000E+00
    0.25068E+06         0.25295E+08         0.00000E+00
    0.00000E+00         0.00000E+00         0.10854E+08
 
    0.10843E+08         0.25205E+06         0.00000E+00
    0.25205E+06         0.25198E+08         0.00000E+00
    0.00000E+00         0.00000E+00         0.10812E+08
 
    0.10799E+08         0.25334E+06         0.00000E+00
    0.25334E+06         0.25100E+08         0.00000E+00
    0.00000E+00         0.00000E+00         0.10770E+08
 
    0.10755E+08         0.25454E+06         0.00000E+00
    0.25454E+06         0.25001E+08         0.00000E+00
    0.00000E+00         0.00000E+00         0.10727E+08
 
    0.10710E+08         0.25565E+06         0.00000E+00
    0.25565E+06         0.24901E+08         0.00000E+00
    0.00000E+00         0.00000E+00         0.10683E+08
 
    0.10664E+08         0.25665E+06         0.00000E+00
    0.25665E+06         0.24800E+08         0.00000E+00
    0.00000E+00         0.00000E+00         0.10639E+08
 
    0.10618E+08         0.25754E+06         0.00000E+00
    0.25754E+06         0.24699E+08         0.00000E+00
    0.00000E+00         0.00000E+00         0.10595E+08
 
    0.10572E+08         0.25832E+06         0.00000E+00
    0.25832E+06         0.24596E+08         0.00000E+00
    0.00000E+00         0.00000E+00         0.10550E+08
 
    0.10525E+08         0.25896E+06         0.00000E+00
    0.25896E+06         0.24493E+08         0.00000E+00
    0.00000E+00         0.00000E+00         0.10505E+08
 
    0.10477E+08         0.25947E+06         0.00000E+00
    0.25947E+06         0.24389E+08         0.00000E+00
    0.00000E+00         0.00000E+00         0.10460E+08
 
    0.10429E+08         0.25982E+06         0.00000E+00
    0.25982E+06         0.24285E+08         0.00000E+00
    0.00000E+00         0.00000E+00         0.10414E+08
 
    0.10380E+08         0.26001E+06         0.00000E+00
    0.26001E+06         0.24179E+08         0.00000E+00
    0.00000E+00         0.00000E+00         0.10368E+08
 
    0.10331E+08         0.26002E+06         0.00000E+00
    0.26002E+06         0.24073E+08         0.00000E+00
    0.00000E+00         0.00000E+00         0.10321E+08
 
    0.10280E+08         0.25983E+06         0.00000E+00
    0.25983E+06         0.23966E+08         0.00000E+00
    0.00000E+00         0.00000E+00         0.10274E+08
 
    0.10229E+08         0.25943E+06         0.00000E+00
    0.25943E+06         0.23858E+08         0.00000E+00
    0.00000E+00         0.00000E+00         0.10226E+08
 
    0.10178E+08         0.25880E+06         0.00000E+00
    0.25880E+06         0.23750E+08         0.00000E+00
    0.00000E+00         0.00000E+00         0.10178E+08
 
    0.10125E+08         0.25792E+06         0.00000E+00
    0.25792E+06         0.23641E+08         0.00000E+00
    0.00000E+00         0.00000E+00         0.10130E+08
 
    0.10072E+08         0.25676E+06         0.00000E+00
    0.25676E+06         0.23531E+08         0.00000E+00
    0.00000E+00         0.00000E+00         0.10081E+08
 
    0.10018E+08         0.25529E+06         0.00000E+00
    0.25529E+06         0.23420E+08         0.00000E+00
    0.00000E+00         0.00000E+00         0.10031E+08
 
    0.99629E+07         0.25350E+06         0.00000E+00
    0.25350E+06         0.23308E+08         0.00000E+00
    0.00000E+00         0.00000E+00         0.99813E+07
 
    0.99070E+07         0.25134E+06         0.00000E+00
    0.25134E+06         0.23196E+08         0.00000E+00
    0.00000E+00         0.00000E+00         0.99309E+07
 
    0.98501E+07         0.24877E+06         0.00000E+00
    0.24877E+06         0.23083E+08         0.00000E+00
    0.00000E+00         0.00000E+00         0.98799E+07
 
    0.97922E+07         0.24577E+06         0.00000E+00
    0.24577E+06         0.22969E+08         0.00000E+00
    0.00000E+00         0.00000E+00         0.98284E+07
 
    0.97332E+07         0.24227E+06         0.00000E+00
    0.24227E+06         0.22855E+08         0.00000E+00
    0.00000E+00         0.00000E+00         0.97764E+07
 
    0.96730E+07         0.23823E+06         0.00000E+00
    0.23823E+06         0.22740E+08         0.00000E+00
    0.00000E+00         0.00000E+00         0.97238E+07
 
    0.96116E+07         0.23359E+06         0.00000E+00
    0.23359E+06         0.22624E+08         0.00000E+00
    0.00000E+00         0.00000E+00         0.96706E+07
 
    0.95490E+07         0.22828E+06         0.00000E+00
    0.22828E+06         0.22507E+08         0.00000E+00
    0.00000E+00         0.00000E+00         0.96168E+07
 
    0.94850E+07         0.22223E+06         0.00000E+00
    0.22223E+06         0.22390E+08         0.00000E+00
    0.00000E+00         0.00000E+00         0.95624E+07
 
    0.94196E+07         0.21536E+06         0.00000E+00
    0.21536E+06         0.22271E+08         0.00000E+00
    0.00000E+00         0.00000E+00         0.95073E+07
 
    0.93527E+07         0.20759E+06         0.00000E+00
    0.20759E+06         0.22153E+08         0.00000E+00
    0.00000E+00         0.00000E+00         0.94516E+07
 
    0.92843E+07         0.19882E+06         0.00000E+00
    0.19882E+06         0.22033E+08         0.00000E+00
    0.00000E+00         0.00000E+00         0.93951E+07
 
    0.92142E+07         0.18896E+06         0.00000E+00
    0.18896E+06         0.21912E+08         0.00000E+00
    0.00000E+00         0.00000E+00         0.93380E+07
 
    0.91425E+07         0.17793E+06         0.00000E+00
    0.17793E+06         0.21791E+08         0.00000E+00
    0.00000E+00         0.00000E+00         0.92801E+07
 
    0.90690E+07         0.16564E+06         0.00000E+00
    0.16564E+06         0.21669E+08         0.00000E+00
    0.00000E+00         0.00000E+00         0.92215E+07
 
    0.89938E+07         0.15204E+06         0.00000E+00
    0.15204E+06         0.21547E+08         0.00000E+00
    0.00000E+00         0.00000E+00         0.91623E+07
 
    0.89167E+07         0.13710E+06         0.00000E+00
    0.13710E+06         0.21424E+08         0.00000E+00
    0.00000E+00         0.00000E+00         0.91023E+07
 
    0.88378E+07         0.12086E+06         0.00000E+00
    0.12086E+06         0.21301E+08         0.00000E+00
    0.00000E+00         0.00000E+00         0.90417E+07
 
    0.87569E+07         0.10341E+06         0.00000E+00
    0.10341E+06         0.21179E+08         0.00000E+00
    0.00000E+00         0.00000E+00         0.89806E+07
 
    0.86740E+07         0.84990E+05         0.00000E+00
    0.84990E+05         0.21056E+08         0.00000E+00
    0.00000E+00         0.00000E+00         0.89191E+07
 
    0.85891E+07         0.66004E+05         0.00000E+00
    0.66004E+05         0.20935E+08         0.00000E+00
    0.00000E+00         0.00000E+00         0.88573E+07
 
    0.85020E+07         0.47080E+05         0.00000E+00
    0.47080E+05         0.20816E+08         0.00000E+00
    0.00000E+00         0.00000E+00         0.87955E+07
 
    0.84125E+07         0.29144E+05         0.00000E+00
    0.29144E+05         0.20700E+08         0.00000E+00
    0.00000E+00         0.00000E+00         0.87338E+07
 
    0.83203E+07         0.13452E+05         0.00000E+00
    0.13452E+05         0.20589E+08         0.00000E+00
    0.00000E+00         0.00000E+00         0.86728E+07
 
    0.82249E+07         0.15110E+04         0.00000E+00
    0.15110E+04         0.20484E+08         0.00000E+00
    0.00000E+00         0.00000E+00         0.86126E+07
 
    0.81252E+07        -0.52780E+04         0.00000E+00
   -0.52780E+04         0.20388E+08         0.00000E+00
    0.00000E+00         0.00000E+00         0.85539E+07
 
    0.80200E+07        -0.63384E+04         0.00000E+00
   -0.63384E+04         0.20304E+08         0.00000E+00
    0.00000E+00         0.00000E+00         0.84972E+07
 
    0.79077E+07        -0.27222E+04         0.00000E+00
   -0.27222E+04         0.20235E+08         0.00000E+00
    0.00000E+00         0.00000E+00         0.84429E+07
 
    0.13108E+08        -0.13701E+04         0.00000E+00
   -0.13701E+04         0.29459E+08         0.00000E+00
    0.00000E+00         0.00000E+00         0.12770E+08
 
    0.13043E+08        -0.29810E+04         0.00000E+00
   -0.29810E+04         0.29419E+08         0.00000E+00
    0.00000E+00         0.00000E+00         0.12739E+08
 
    0.12982E+08        -0.17148E+04         0.00000E+00
   -0.17148E+04         0.29369E+08         0.00000E+00
    0.00000E+00         0.00000E+00         0.12706E+08
 
    0.12925E+08         0.30425E+04         0.00000E+00
    0.30425E+04         0.29313E+08         0.00000E+00
    0.00000E+00         0.00000E+00         0.12671E+08
 
    0.12870E+08         0.10907E+05         0.00000E+00
    0.10907E+05         0.29251E+08         0.00000E+00
    0.00000E+00         0.00000E+00         0.12636E+08
 
    0.12816E+08         0.21017E+05         0.00000E+00
    0.21017E+05         0.29186E+08         0.00000E+00
    0.00000E+00         0.00000E+00         0.12601E+08
 
    0.12764E+08         0.32470E+05         0.00000E+00
    0.32470E+05         0.29118E+08         0.00000E+00
    0.00000E+00         0.00000E+00         0.12565E+08
 
    0.12714E+08         0.44528E+05         0.00000E+00
    0.44528E+05         0.29049E+08         0.00000E+00
    0.00000E+00         0.00000E+00         0.12529E+08
 
    0.12665E+08         0.56650E+05         0.00000E+00
    0.56650E+05         0.28978E+08         0.00000E+00
    0.00000E+00         0.00000E+00         0.12493E+08
 
    0.12617E+08         0.68473E+05         0.00000E+00
    0.68473E+05         0.28906E+08         0.00000E+00
    0.00000E+00         0.00000E+00         0.12457E+08
 
    0.12570E+08         0.79768E+05         0.00000E+00
    0.79768E+05         0.28833E+08         0.00000E+00
    0.00000E+00         0.00000E+00         0.12421E+08
 
    0.12525E+08         0.90404E+05         0.00000E+00
    0.90404E+05         0.28760E+08         0.00000E+00
    0.00000E+00         0.00000E+00         0.12385E+08
 
    0.12480E+08         0.10032E+06         0.00000E+00
    0.10032E+06         0.28686E+08         0.00000E+00
    0.00000E+00         0.00000E+00         0.12350E+08
 
    0.12436E+08         0.10951E+06         0.00000E+00
    0.10951E+06         0.28613E+08         0.00000E+00
    0.00000E+00         0.00000E+00         0.12315E+08
 
    0.12394E+08         0.11798E+06         0.00000E+00
    0.11798E+06         0.28539E+08         0.00000E+00
    0.00000E+00         0.00000E+00         0.12280E+08
 
    0.12352E+08         0.12577E+06         0.00000E+00
    0.12577E+06         0.28465E+08         0.00000E+00
    0.00000E+00         0.00000E+00         0.12245E+08
 
    0.12311E+08         0.13294E+06         0.00000E+00
    0.13294E+06         0.28391E+08         0.00000E+00
    0.00000E+00         0.00000E+00         0.12210E+08
 
    0.12270E+08         0.13953E+06         0.00000E+00
    0.13953E+06         0.28317E+08         0.00000E+00
    0.00000E+00         0.00000E+00         0.12176E+08
 
    0.12231E+08         0.14560E+06         0.00000E+00
    0.14560E+06         0.28242E+08         0.00000E+00
    0.00000E+00         0.00000E+00         0.12142E+08
 
    0.12191E+08         0.15121E+06         0.00000E+00
    0.15121E+06         0.28167E+08         0.00000E+00
    0.00000E+00         0.00000E+00         0.12108E+08
 
    0.12153E+08         0.15640E+06         0.00000E+00
    0.15640E+06         0.28092E+08         0.00000E+00
    0.00000E+00         0.00000E+00         0.12074E+08
 
    0.12115E+08         0.16121E+06         0.00000E+00
    0.16121E+06         0.28017E+08         0.00000E+00
    0.00000E+00         0.00000E+00         0.12040E+08
 
    0.12077E+08         0.16570E+06         0.00000E+00
    0.16570E+06         0.27941E+08         0.00000E+00
    0.00000E+00         0.00000E+00         0.12005E+08
 
    0.12040E+08         0.16990E+06         0.00000E+00
    0.16990E+06         0.27865E+08         0.00000E+00
    0.00000E+00         0.00000E+00         0.11971E+08
 
    0.12003E+08         0.17384E+06         0.00000E+00
    0.17384E+06         0.27789E+08         0.00000E+00
    0.00000E+00         0.00000E+00         0.11937E+08
 
    0.11966E+08         0.17755E+06         0.00000E+00
    0.17755E+06         0.27712E+08         0.00000E+00
    0.00000E+00         0.00000E+00         0.11903E+08
 
    0.11929E+08         0.18106E+06         0.00000E+00
    0.18106E+06         0.27634E+08         0.00000E+00
    0.00000E+00         0.00000E+00         0.11869E+08
 
    0.11893E+08         0.18439E+06         0.00000E+00
    0.18439E+06         0.27556E+08         0.00000E+00
    0.00000E+00         0.00000E+00         0.11835E+08
 
    0.11856E+08         0.18756E+06         0.00000E+00
    0.18756E+06         0.27478E+08         0.00000E+00
    0.00000E+00         0.00000E+00         0.11800E+08
 
    0.11820E+08         0.19058E+06         0.00000E+00
    0.19058E+06         0.27399E+08         0.00000E+00
    0.00000E+00         0.00000E+00         0.11766E+08
 
    0.11783E+08         0.19348E+06         0.00000E+00
    0.19348E+06         0.27319E+08         0.00000E+00
    0.00000E+00         0.00000E+00         0.11731E+08
 
    0.11747E+08         0.19626E+06         0.00000E+00
    0.19626E+06         0.27239E+08         0.00000E+00
    0.00000E+00         0.00000E+00         0.11696E+08
 
    0.11710E+08         0.19893E+06         0.00000E+00
    0.19893E+06         0.27158E+08         0.00000E+00
    0.00000E+00         0.00000E+00         0.11661E+08
 
    0.11674E+08         0.20151E+06         0.00000E+00
    0.20151E+06         0.27077E+08         0.00000E+00
    0.00000E+00         0.00000E+00         0.11625E+08
 
    0.11637E+08         0.20400E+06         0.00000E+00
    0.20400E+06         0.26995E+08         0.00000E+00
    0.00000E+00         0.00000E+00         0.11590E+08
 
    0.11600E+08         0.20642E+06         0.00000E+00
    0.20642E+06         0.26912E+08         0.00000E+00
    0.00000E+00         0.00000E+00         0.11554E+08
 
    0.11563E+08         0.20876E+06         0.00000E+00
    0.20876E+06         0.26828E+08         0.00000E+00
    0.00000E+00         0.00000E+00         0.11517E+08
 
    0.11526E+08         0.21103E+06         0.00000E+00
    0.21103E+06         0.26744E+08         0.00000E+00
    0.00000E+00         0.00000E+00         0.11481E+08
 
    0.11489E+08         0.21325E+06         0.00000E+00
    0.21325E+06         0.26659E+08         0.00000E+00
    0.00000E+00         0.00000E+00         0.11444E+08
 
    0.11451E+08         0.21540E+06         0.00000E+00
    0.21540E+06         0.26574E+08         0.00000E+00
    0.00000E+00         0.00000E+00         0.11407E+08
 
    0.11413E+08         0.21750E+06         0.00000E+00
    0.21750E+06         0.26487E+08         0.00000E+00
    0.00000E+00         0.00000E+00         0.11370E+08
 
    0.11375E+08         0.21954E+06         0.00000E+00
    0.21954E+06         0.26400E+08         0.00000E+00
    0.00000E+00         0.00000E+00         0.11333E+08
 
    0.11336E+08         0.22153E+06         0.00000E+00
    0.22153E+06         0.26313E+08         0.00000E+00
    0.00000E+00         0.00000E+00         0.11295E+08
 
    0.11297E+08         0.22347E+06         0.00000E+00
    0.22347E+06         0.26224E+08         0.00000E+00
    0.00000E+00         0.00000E+00         0.11256E+08
 
    0.11258E+08         0.22536E+06         0.00000E+00
    0.22536E+06         0.26135E+08         0.00000E+00
    0.00000E+00         0.00000E+00         0.11218E+08
 
    0.11219E+08         0.22720E+06         0.00000E+00
    0.22720E+06         0.26045E+08         0.00000E+00
    0.00000E+00         0.00000E+00         0.11179E+08
 
    0.11179E+08         0.22899E+06         0.00000E+00
    0.22899E+06         0.25954E+08         0.00000E+00
    0.00000E+00         0.00000E+00         0.11140E+08
 
    0.11138E+08         0.23073E+06         0.00000E+00
    0.23073E+06         0.25862E+08         0.00000E+00
    0.00000E+00         0.00000E+00         0.11100E+08
 
    0.11098E+08         0.23241E+06         0.00000E+00
    0.23241E+06         0.25769E+08         0.00000E+00
    0.00000E+00         0.00000E+00         0.11060E+08
 
    0.11056E+08         0.23404E+06         0.00000E+00
    0.23404E+06         0.25676E+08         0.00000E+00
    0.00000E+00         0.00000E+00         0.11020E+08
 
    0.11015E+08         0.23562E+06         0.00000E+00
    0.23562E+06         0.25582E+08         0.00000E+00
    0.00000E+00         0.00000E+00         0.10979E+08
 
    0.10973E+08         0.23713E+06         0.00000E+00
    0.23713E+06         0.25487E+08         0.00000E+00
    0.00000E+00         0.00000E+00         0.10938E+08
 
    0.10930E+08         0.23857E+06         0.00000E+00
    0.23857E+06         0.25391E+08         0.00000E+00
    0.00000E+00         0.00000E+00         0.10897E+08
 
    0.10887E+08         0.23995E+06         0.00000E+00
    0.23995E+06         0.25295E+08         0.00000E+00
    0.00000E+00         0.00000E+00         0.10855E+08
 
    0.10844E+08         0.24126E+06         0.00000E+00
    0.24126E+06         0.25198E+08         0.00000E+00
    0.00000E+00         0.00000E+00         0.10812E+08
 
    0.10800E+08         0.24248E+06         0.00000E+00
    0.24248E+06         0.25099E+08         0.00000E+00
    0.00000E+00         0.00000E+00         0.10770E+08
 
    0.10756E+08         0.24363E+06         0.00000E+00
    0.24363E+06         0.25000E+08         0.00000E+00
    0.00000E+00         0.00000E+00         0.10727E+08
 
    0.10711E+08         0.24468E+06         0.00000E+00
    0.24468E+06         0.24901E+08         0.00000E+00
    0.00000E+00         0.00000E+00         0.10683E+08
 
    0.10665E+08         0.24563E+06         0.00000E+00
    0.24563E+06         0.24800E+08         0.00000E+00
    0.00000E+00         0.00000E+00         0.10640E+08
 
    0.10619E+08         0.24648E+06         0.00000E+00
    0.24648E+06         0.24699E+08         0.00000E+00
    0.00000E+00         0.00000E+00         0.10595E+08
 
    0.10573E+08         0.24721E+06         0.00000E+00
    0.24721E+06         0.24596E+08         0.00000E+00
    0.00000E+00         0.00000E+00         0.10551E+08
 
    0.10526E+08         0.24782E+06         0.00000E+00
    0.24782E+06         0.24493E+08         0.00000E+00
    0.00000E+00         0.00000E+00         0.10506E+08
 
    0.10478E+08         0.24829E+06         0.00000E+00
    0.24829E+06         0.24389E+08         0.00000E+00
    0.00000E+00         0.00000E+00         0.10460E+08
 
    0.10430E+08         0.24861E+06         0.00000E+00
    0.24861E+06         0.24285E+08         0.00000E+00
    0.00000E+00         0.00000E+00         0.10414E+08
 
    0.10381E+08         0.24878E+06         0.00000E+00
    0.24878E+06         0.24179E+08         0.00000E+00
    0.00000E+00         0.00000E+00         0.10368E+08
 
    0.10331E+08         0.24878E+06         0.00000E+00
    0.24878E+06         0.24073E+08         0.00000E+00
    0.00000E+00         0.00000E+00         0.10321E+08
 
    0.10281E+08         0.24858E+06         0.00000E+00
    0.24858E+06         0.23966E+08         0.00000E+00
    0.00000E+00         0.00000E+00         0.10274E+08
 
    0.10230E+08         0.24818E+06         0.00000E+00
    0.24818E+06         0.23859E+08         0.00000E+00
    0.00000E+00         0.00000E+00         0.10226E+08
 
    0.10178E+08         0.24756E+06         0.00000E+00
    0.24756E+06         0.23750E+08         0.00000E+00
    0.00000E+00         0.00000E+00         0.10178E+08
 
    0.10125E+08         0.24670E+06         0.00000E+00
    0.24670E+06         0.23641E+08         0.00000E+00
    0.00000E+00         0.00000E+00         0.10130E+08
 
    0.10072E+08         0.24557E+06         0.00000E+00
    0.24557E+06         0.23531E+08         0.00000E+00
    0.00000E+00         0.00000E+00         0.10081E+08
 
    0.10018E+08         0.24415E+06         0.00000E+00
    0.24415E+06         0.23420E+08         0.00000E+00
    0.00000E+00         0.00000E+00         0.10031E+08
 
    0.99625E+07         0.24240E+06         0.00000E+00
    0.24240E+06         0.23309E+08         0.00000E+00
    0.00000E+00         0.00000E+00         0.99814E+07
 
    0.99065E+07         0.24031E+06         0.00000E+00
    0.24031E+06         0.23196E+08         0.00000E+00
    0.00000E+00         0.00000E+00         0.99309E+07
 
    0.98494E+07         0.23783E+06         0.00000E+00
    0.23783E+06         0.23084E+08         0.00000E+00
    0.00000E+00         0.00000E+00         0.98799E+07
 
    0.97912E+07         0.23491E+06         0.00000E+00
    0.23491E+06         0.22970E+08         0.00000E+00
    0.00000E+00         0.00000E+00         0.98283E+07
 
    0.97320E+07         0.23153E+06         0.00000E+00
    0.23153E+06         0.22856E+08         0.00000E+00
    0.00000E+00         0.00000E+00         0.97763E+07
 
    0.96715E+07         0.22761E+06         0.00000E+00
    0.22761E+06         0.22740E+08         0.00000E+00
    0.00000E+00         0.00000E+00         0.97236E+07
 
    0.96099E+07         0.22311E+06         0.00000E+00
    0.22311E+06         0.22625E+08         0.00000E+00
    0.00000E+00         0.00000E+00         0.96704E+07
 
    0.95469E+07         0.21797E+06         0.00000E+00
    0.21797E+06         0.22508E+08         0.00000E+00
    0.00000E+00         0.00000E+00         0.96165E+07
 
    0.94825E+07         0.21210E+06         0.00000E+00
    0.21210E+06         0.22391E+08         0.00000E+00
    0.00000E+00         0.00000E+00         0.95620E+07
 
    0.94167E+07         0.20542E+06         0.00000E+00
    0.20542E+06         0.22273E+08         0.00000E+00
    0.00000E+00         0.00000E+00         0.95069E+07
 
    0.93494E+07         0.19787E+06         0.00000E+00
    0.19787E+06         0.22154E+08         0.00000E+00
    0.00000E+00         0.00000E+00         0.94511E+07
 
    0.92804E+07         0.18933E+06         0.00000E+00
    0.18933E+06         0.22035E+08         0.00000E+00
    0.00000E+00         0.00000E+00         0.93945E+07
 
    0.92098E+07         0.17973E+06         0.00000E+00
    0.17973E+06         0.21914E+08         0.00000E+00
    0.00000E+00         0.00000E+00         0.93373E+07
 
    0.91374E+07         0.16897E+06         0.00000E+00
    0.16897E+06         0.21794E+08         0.00000E+00
    0.00000E+00         0.00000E+00         0.92793E+07
 
    0.90631E+07         0.15697E+06         0.00000E+00
    0.15697E+06         0.21672E+08         0.00000E+00
    0.00000E+00         0.00000E+00         0.92205E+07
 
    0.89871E+07         0.14368E+06         0.00000E+00
    0.14368E+06         0.21550E+08         0.00000E+00
    0.00000E+00         0.00000E+00         0.91611E+07
 
    0.89090E+07         0.12906E+06         0.00000E+00
    0.12906E+06         0.21427E+08         0.00000E+00
    0.00000E+00         0.00000E+00         0.91009E+07
 
    0.88290E+07         0.11314E+06         0.00000E+00
    0.11314E+06         0.21305E+08         0.00000E+00
    0.00000E+00         0.00000E+00         0.90401E+07
 
    0.87469E+07         0.96041E+05         0.00000E+00
    0.96041E+05         0.21182E+08         0.00000E+00
    0.00000E+00         0.00000E+00         0.89787E+07
 
    0.86627E+07         0.77992E+05         0.00000E+00
    0.77992E+05         0.21060E+08         0.00000E+00
    0.00000E+00         0.00000E+00         0.89168E+07
 
    0.85764E+07         0.59396E+05         0.00000E+00
    0.59396E+05         0.20939E+08         0.00000E+00
    0.00000E+00         0.00000E+00         0.88546E+07
 
    0.84878E+07         0.40893E+05         0.00000E+00
    0.40893E+05         0.20820E+08         0.00000E+00
    0.00000E+00         0.00000E+00         0.87923E+07
 
    0.83968E+07         0.23422E+05         0.00000E+00
    0.23422E+05         0.20704E+08         0.00000E+00
    0.00000E+00         0.00000E+00         0.87301E+07
 
    0.83032E+07         0.82713E+04         0.00000E+00
    0.82713E+04         0.20592E+08         0.00000E+00
    0.00000E+00         0.00000E+00         0.86684E+07
 
    0.82065E+07        -0.29923E+04         0.00000E+00
   -0.29923E+04         0.20486E+08         0.00000E+00
    0.00000E+00         0.00000E+00         0.86077E+07
 
    0.81061E+07        -0.88747E+04         0.00000E+00
   -0.88747E+04         0.20389E+08         0.00000E+00
    0.00000E+00         0.00000E+00         0.85484E+07
 
    0.80004E+07        -0.87088E+04         0.00000E+00
   -0.87088E+04         0.20304E+08         0.00000E+00
    0.00000E+00         0.00000E+00         0.84912E+07
 
    0.78879E+07        -0.35565E+04         0.00000E+00
   -0.35565E+04         0.20234E+08         0.00000E+00
    0.00000E+00         0.00000E+00         0.84366E+07
 
    0.13120E+08        -0.18688E+04         0.00000E+00
   -0.18688E+04         0.29459E+08         0.00000E+00
    0.00000E+00         0.00000E+00         0.12774E+08
 
    0.13055E+08        -0.43906E+04         0.00000E+00
   -0.43906E+04         0.29419E+08         0.00000E+00
    0.00000E+00         0.00000E+00         0.12742E+08
 
    0.12994E+08        -0.38391E+04         0.00000E+00
   -0.38391E+04         0.29369E+08         0.00000E+00
    0.00000E+00         0.00000E+00         0.12709E+08
 
    0.12936E+08         0.39358E+03         0.00000E+00
    0.39358E+03         0.29312E+08         0.00000E+00
    0.00000E+00         0.00000E+00         0.12674E+08
 
    0.12880E+08         0.78550E+04         0.00000E+00
    0.78550E+04         0.29250E+08         0.00000E+00
    0.00000E+00         0.00000E+00         0.12639E+08
 
    0.12826E+08         0.17622E+05         0.00000E+00
    0.17622E+05         0.29184E+08         0.00000E+00
    0.00000E+00         0.00000E+00         0.12603E+08
 
    0.12774E+08         0.28761E+05         0.00000E+00
    0.28761E+05         0.29116E+08         0.00000E+00
    0.00000E+00         0.00000E+00         0.12567E+08
 
    0.12722E+08         0.40518E+05         0.00000E+00
    0.40518E+05         0.29046E+08         0.00000E+00
    0.00000E+00         0.00000E+00         0.12531E+08
 
    0.12672E+08         0.52349E+05         0.00000E+00
    0.52349E+05         0.28975E+08         0.00000E+00
    0.00000E+00         0.00000E+00         0.12494E+08
 
    0.12624E+08         0.63889E+05         0.00000E+00
    0.63889E+05         0.28903E+08         0.00000E+00
    0.00000E+00         0.00000E+00         0.12458E+08
 
    0.12576E+08         0.74908E+05         0.00000E+00
    0.74908E+05         0.28831E+08         0.00000E+00
    0.00000E+00         0.00000E+00         0.12422E+08
 
    0.12530E+08         0.85275E+05         0.00000E+00
    0.85275E+05         0.28758E+08         0.00000E+00
    0.00000E+00         0.00000E+00         0.12386E+08
 
    0.12485E+08         0.94932E+05         0.00000E+00
    0.94932E+05         0.28685E+08         0.00000E+00
    0.00000E+00         0.00000E+00         0.12351E+08
 
    0.12441E+08         0.10386E+06         0.00000E+00
    0.10386E+06         0.28611E+08         0.00000E+00
    0.00000E+00         0.00000E+00         0.12316E+08
 
    0.12398E+08         0.11209E+06         0.00000E+00
    0.11209E+06         0.28537E+08         0.00000E+00
    0.00000E+00         0.00000E+00         0.12281E+08
 
    0.12355E+08         0.11965E+06         0.00000E+00
    0.11965E+06         0.28464E+08         0.00000E+00
    0.00000E+00         0.00000E+00         0.12246E+08
 
    0.12314E+08         0.12659E+06         0.00000E+00
    0.12659E+06         0.28390E+08         0.00000E+00
    0.00000E+00         0.00000E+00         0.12211E+08
 
    0.12274E+08         0.13296E+06         0.00000E+00
    0.13296E+06         0.28315E+08         0.00000E+00
    0.00000E+00         0.00000E+00         0.12177E+08
 
    0.12234E+08         0.13882E+06         0.00000E+00
    0.13882E+06         0.28241E+08         0.00000E+00
    0.00000E+00         0.00000E+00         0.12142E+08
 
    0.12194E+08         0.14423E+06         0.00000E+00
    0.14423E+06         0.28166E+08         0.00000E+00
    0.00000E+00         0.00000E+00         0.12108E+08
 
    0.12156E+08         0.14923E+06         0.00000E+00
    0.14923E+06         0.28091E+08         0.00000E+00
    0.00000E+00         0.00000E+00         0.12074E+08
 
    0.12117E+08         0.15387E+06         0.00000E+00
    0.15387E+06         0.28016E+08         0.00000E+00
    0.00000E+00         0.00000E+00         0.12040E+08
 
    0.12079E+08         0.15818E+06         0.00000E+00
    0.15818E+06         0.27940E+08         0.00000E+00
    0.00000E+00         0.00000E+00         0.12006E+08
 
    0.12042E+08         0.16222E+06         0.00000E+00
    0.16222E+06         0.27864E+08         0.00000E+00
    0.00000E+00         0.00000E+00         0.11972E+08
 
    0.12005E+08         0.16600E+06         0.00000E+00
    0.16600E+06         0.27788E+08         0.00000E+00
    0.00000E+00         0.00000E+00         0.11938E+08
 
    0.11968E+08         0.16957E+06         0.00000E+00
    0.16957E+06         0.27711E+08         0.00000E+00
    0.00000E+00         0.00000E+00         0.11904E+08
 
    0.11931E+08         0.17293E+06         0.00000E+00
    0.17293E+06         0.27634E+08         0.00000E+00
    0.00000E+00         0.00000E+00         0.11869E+08
 
    0.11895E+08         0.17612E+06         0.00000E+00
    0.17612E+06         0.27556E+08         0.00000E+00
    0.00000E+00         0.00000E+00         0.11835E+08
 
    0.11858E+08         0.17916E+06         0.00000E+00
    0.17916E+06         0.27477E+08         0.00000E+00
    0.00000E+00         0.00000E+00         0.11801E+08
 
    0.11822E+08         0.18206E+06         0.00000E+00
    0.18206E+06         0.27398E+08         0.00000E+00
    0.00000E+00         0.00000E+00         0.11766E+08
 
    0.11785E+08         0.18483E+06         0.00000E+00
    0.18483E+06         0.27319E+08         0.00000E+00
    0.00000E+00         0.00000E+00         0.11731E+08
 
    0.11749E+08         0.18749E+06         0.00000E+00
    0.18749E+06         0.27238E+08         0.00000E+00
    0.00000E+00         0.00000E+00         0.11696E+08
 
    0.11712E+08         0.19005E+06         0.00000E+00
    0.19005E+06         0.27158E+08         0.00000E+00
    0.00000E+00         0.00000E+00         0.11661E+08
 
    0.11676E+08         0.19252E+06         0.00000E+00
    0.19252E+06         0.27076E+08         0.00000E+00
    0.00000E+00         0.00000E+00         0.11626E+08
 
    0.11639E+08         0.19491E+06         0.00000E+00
    0.19491E+06         0.26994E+08         0.00000E+00
    0.00000E+00         0.00000E+00         0.11590E+08
 
    0.11602E+08         0.19722E+06         0.00000E+00
    0.19722E+06         0.26911E+08         0.00000E+00
    0.00000E+00         0.00000E+00         0.11554E+08
 
    0.11565E+08         0.19946E+06         0.00000E+00
    0.19946E+06         0.26828E+08         0.00000E+00
    0.00000E+00         0.00000E+00         0.11518E+08
 
    0.11528E+08         0.20163E+06         0.00000E+00
    0.20163E+06         0.26744E+08         0.00000E+00
    0.00000E+00         0.00000E+00         0.11481E+08
 
    0.11490E+08         0.20375E+06         0.00000E+00
    0.20375E+06         0.26659E+08         0.00000E+00
    0.00000E+00         0.00000E+00         0.11445E+08
 
    0.11453E+08         0.20580E+06         0.00000E+00
    0.20580E+06         0.26573E+08         0.00000E+00
    0.00000E+00         0.00000E+00         0.11408E+08
 
    0.11415E+08         0.20781E+06         0.00000E+00
    0.20781E+06         0.26487E+08         0.00000E+00
    0.00000E+00         0.00000E+00         0.11371E+08
 
    0.11376E+08         0.20976E+06         0.00000E+00
    0.20976E+06         0.26400E+08         0.00000E+00
    0.00000E+00         0.00000E+00         0.11333E+08
 
    0.11338E+08         0.21166E+06         0.00000E+00
    0.21166E+06         0.26312E+08         0.00000E+00
    0.00000E+00         0.00000E+00         0.11295E+08
 
    0.11299E+08         0.21352E+06         0.00000E+00
    0.21352E+06         0.26224E+08         0.00000E+00
    0.00000E+00         0.00000E+00         0.11257E+08
 
    0.11260E+08         0.21532E+06         0.00000E+00
    0.21532E+06         0.26134E+08         0.00000E+00
    0.00000E+00         0.00000E+00         0.11218E+08
 
    0.11220E+08         0.21708E+06         0.00000E+00
    0.21708E+06         0.26044E+08         0.00000E+00
    0.00000E+00         0.00000E+00         0.11179E+08
 
    0.11180E+08         0.21879E+06         0.00000E+00
    0.21879E+06         0.25953E+08         0.00000E+00
    0.00000E+00         0.00000E+00         0.11140E+08
 
    0.11140E+08         0.22044E+06         0.00000E+00
    0.22044E+06         0.25862E+08         0.00000E+00
    0.00000E+00         0.00000E+00         0.11100E+08
 
    0.11099E+08         0.22205E+06         0.00000E+00
    0.22205E+06         0.25769E+08         0.00000E+00
    0.00000E+00         0.00000E+00         0.11060E+08
 
    0.11058E+08         0.22360E+06         0.00000E+00
    0.22360E+06         0.25676E+08         0.00000E+00
    0.00000E+00         0.00000E+00         0.11020E+08
 
    0.11016E+08         0.22510E+06         0.00000E+00
    0.22510E+06         0.25582E+08         0.00000E+00
    0.00000E+00         0.00000E+00         0.10979E+08
 
    0.10974E+08         0.22654E+06         0.00000E+00
    0.22654E+06         0.25487E+08         0.00000E+00
    0.00000E+00         0.00000E+00         0.10938E+08
 
    0.10932E+08         0.22792E+06         0.00000E+00
    0.22792E+06         0.25391E+08         0.00000E+00
    0.00000E+00         0.00000E+00         0.10897E+08
 
    0.10889E+08         0.22923E+06         0.00000E+00
    0.22923E+06         0.25295E+08         0.00000E+00
    0.00000E+00         0.00000E+00         0.10855E+08
 
    0.10845E+08         0.23047E+06         0.00000E+00
    0.23047E+06         0.25197E+08         0.00000E+00
    0.00000E+00         0.00000E+00         0.10813E+08
 
    0.10801E+08         0.23164E+06         0.00000E+00
    0.23164E+06         0.25099E+08         0.00000E+00
    0.00000E+00         0.00000E+00         0.10770E+08
 
    0.10757E+08         0.23272E+06         0.00000E+00
    0.23272E+06         0.25000E+08         0.00000E+00
    0.00000E+00         0.00000E+00         0.10727E+08
 
    0.10712E+08         0.23372E+06         0.00000E+00
    0.23372E+06         0.24900E+08         0.00000E+00
    0.00000E+00         0.00000E+00         0.10684E+08
 
    0.10667E+08         0.23462E+06         0.00000E+00
    0.23462E+06         0.24800E+08         0.00000E+00
    0.00000E+00         0.00000E+00         0.10640E+08
 
    0.10621E+08         0.23542E+06         0.00000E+00
    0.23542E+06         0.24698E+08         0.00000E+00
    0.00000E+00         0.00000E+00         0.10596E+08
 
    0.10574E+08         0.23611E+06         0.00000E+00
    0.23611E+06         0.24596E+08         0.00000E+00
    0.00000E+00         0.00000E+00         0.10551E+08
 
    0.10527E+08         0.23668E+06         0.00000E+00
    0.23668E+06         0.24493E+08         0.00000E+00
    0.00000E+00         0.00000E+00         0.10506E+08
 
    0.10479E+08         0.23712E+06         0.00000E+00
    0.23712E+06         0.24389E+08         0.00000E+00
    0.00000E+00         0.00000E+00         0.10460E+08
 
    0.10431E+08         0.23742E+06         0.00000E+00
    0.23742E+06         0.24285E+08         0.00000E+00
    0.00000E+00         0.00000E+00         0.10415E+08
 
    0.10381E+08         0.23757E+06         0.00000E+00
    0.23757E+06         0.24179E+08         0.00000E+00
    0.00000E+00         0.00000E+00         0.10368E+08
 
    0.10332E+08         0.23755E+06         0.00000E+00
    0.23755E+06         0.24073E+08         0.00000E+00
    0.00000E+00         0.00000E+00         0.10321E+08
 
    0.10281E+08         0.23736E+06         0.00000E+00
    0.23736E+06         0.23966E+08         0.00000E+00
    0.00000E+00         0.00000E+00         0.10274E+08
 
    0.10230E+08         0.23696E+06         0.00000E+00
    0.23696E+06         0.23859E+08         0.00000E+00
    0.00000E+00         0.00000E+00         0.10227E+08
 
    0.10178E+08         0.23635E+06         0.00000E+00
    0.23635E+06         0.23750E+08         0.00000E+00
    0.00000E+00         0.00000E+00         0.10179E+08
 
    0.10126E+08         0.23551E+06         0.00000E+00
    0.23551E+06         0.23641E+08         0.00000E+00
    0.00000E+00         0.00000E+00         0.10130E+08
 
    0.10072E+08         0.23441E+06         0.00000E+00
    0.23441E+06         0.23531E+08         0.00000E+00
    0.00000E+00         0.00000E+00         0.10081E+08
 
    0.10018E+08         0.23303E+06         0.00000E+00
    0.23303E+06         0.23420E+08         0.00000E+00
    0.00000E+00         0.00000E+00         0.10031E+08
 
    0.99622E+07         0.23135E+06         0.00000E+00
    0.23135E+06         0.23309E+08         0.00000E+00
    0.00000E+00         0.00000E+00         0.99814E+07
 
    0.99060E+07         0.22932E+06         0.00000E+00
    0.22932E+06         0.23197E+08         0.00000E+00
    0.00000E+00         0.00000E+00         0.99309E+07
 
    0.98487E+07         0.22692E+06         0.00000E+00
    0.22692E+06         0.23084E+08         0.00000E+00
    0.00000E+00         0.00000E+00         0.98798E+07
 
    0.97903E+07         0.22410E+06         0.00000E+00
    0.22410E+06         0.22971E+08         0.00000E+00
    0.00000E+00         0.00000E+00         0.98282E+07
 
    0.97308E+07         0.22083E+06         0.00000E+00
    0.22083E+06         0.22856E+08         0.00000E+00
    0.00000E+00         0.00000E+00         0.97761E+07
 
    0.96701E+07         0.21705E+06         0.00000E+00
    0.21705E+06         0.22741E+08         0.00000E+00
    0.00000E+00         0.00000E+00         0.97234E+07
 
    0.96082E+07         0.21270E+06         0.00000E+00
    0.21270E+06         0.22626E+08         0.00000E+00
    0.00000E+00         0.00000E+00         0.96701E+07
 
    0.95449E+07         0.20772E+06         0.00000E+00
    0.20772E+06         0.22509E+08         0.00000E+00
    0.00000E+00         0.00000E+00         0.96162E+07
 
    0.94801E+07         0.20204E+06         0.00000E+00
    0.20204E+06         0.22392E+08         0.00000E+00
    0.00000E+00         0.00000E+00         0.95617E+07
 
    0.94139E+07         0.19557E+06         0.00000E+00
    0.19557E+06         0.22274E+08         0.00000E+00
    0.00000E+00         0.00000E+00         0.95065E+07
 
    0.93461E+07         0.18824E+06         0.00000E+00
    0.18824E+06         0.22156E+08         0.00000E+00
    0.00000E+00         0.00000E+00         0.94506E+07
 
    0.92767E+07         0.17996E+06         0.00000E+00
    0.17996E+06         0.22036E+08         0.00000E+00
    0.00000E+00         0.00000E+00         0.93939E+07
 
    0.92054E+07         0.17063E+06         0.00000E+00
    0.17063E+06         0.21916E+08         0.00000E+00
    0.00000E+00         0.00000E+00         0.93366E+07
 
    0.91324E+07         0.16015E+06         0.00000E+00
    0.16015E+06         0.21796E+08         0.00000E+00
    0.00000E+00         0.00000E+00         0.92785E+07
 
    0.90574E+07         0.14846E+06         0.00000E+00
    0.14846E+06         0.21674E+08         0.00000E+00
    0.00000E+00         0.00000E+00         0.92196E+07
 
    0.89805E+07         0.13549E+06         0.00000E+00
    0.13549E+06         0.21553E+08         0.00000E+00
    0.00000E+00         0.00000E+00         0.91599E+07
 
    0.89015E+07         0.12121E+06         0.00000E+00
    0.12121E+06         0.21430E+08         0.00000E+00
    0.00000E+00         0.00000E+00         0.90996E+07
 
    0.88204E+07         0.10566E+06         0.00000E+00
    0.10566E+06         0.21308E+08         0.00000E+00
    0.00000E+00         0.00000E+00         0.90385E+07
 
    0.87370E+07         0.88933E+05         0.00000E+00
    0.88933E+05         0.21186E+08         0.00000E+00
    0.00000E+00         0.00000E+00         0.89768E+07
 
    0.86515E+07         0.71276E+05         0.00000E+00
    0.71276E+05         0.21064E+08         0.00000E+00
    0.00000E+00         0.00000E+00         0.89146E+07
 
    0.85637E+07         0.53089E+05         0.00000E+00
    0.53089E+05         0.20943E+08         0.00000E+00
    0.00000E+00         0.00000E+00         0.88519E+07
 
    0.84735E+07         0.35014E+05         0.00000E+00
    0.35014E+05         0.20824E+08         0.00000E+00
    0.00000E+00         0.00000E+00         0.87891E+07
 
    0.83810E+07         0.17999E+05         0.00000E+00
    0.17999E+05         0.20707E+08         0.00000E+00
    0.00000E+00         0.00000E+00         0.87264E+07
 
    0.82860E+07         0.33550E+04         0.00000E+00
    0.33550E+04         0.20594E+08         0.00000E+00
    0.00000E+00         0.00000E+00         0.86641E+07
 
    0.81881E+07        -0.72951E+04         0.00000E+00
   -0.72951E+04         0.20487E+08         0.00000E+00
    0.00000E+00         0.00000E+00         0.86027E+07
 
    0.80868E+07        -0.12351E+05         0.00000E+00
   -0.12351E+05         0.20389E+08         0.00000E+00
    0.00000E+00         0.00000E+00         0.85428E+07
 
    0.79808E+07        -0.11029E+05         0.00000E+00
   -0.11029E+05         0.20303E+08         0.00000E+00
    0.00000E+00         0.00000E+00         0.84851E+07
 
    0.78681E+07        -0.43800E+04         0.00000E+00
   -0.43800E+04         0.20232E+08         0.00000E+00
    0.00000E+00         0.00000E+00         0.84302E+07
 
    0.13132E+08        -0.23624E+04         0.00000E+00
   -0.23624E+04         0.29460E+08         0.00000E+00
    0.00000E+00         0.00000E+00         0.12778E+08
 
    0.13067E+08        -0.57733E+04         0.00000E+00
   -0.57733E+04         0.29419E+08         0.00000E+00
    0.00000E+00         0.00000E+00         0.12746E+08
 
    0.13006E+08        -0.58944E+04         0.00000E+00
   -0.58944E+04         0.29368E+08         0.00000E+00
    0.00000E+00         0.00000E+00         0.12712E+08
 
    0.12948E+08        -0.21387E+04         0.00000E+00
   -0.21387E+04         0.29311E+08         0.00000E+00
    0.00000E+00         0.00000E+00         0.12677E+08
 
    0.12891E+08         0.49561E+04         0.00000E+00
    0.49561E+04         0.29248E+08         0.00000E+00
    0.00000E+00         0.00000E+00         0.12642E+08
 
    0.12836E+08         0.14400E+05         0.00000E+00
    0.14400E+05         0.29182E+08         0.00000E+00
    0.00000E+00         0.00000E+00         0.12605E+08
 
    0.12783E+08         0.25227E+05         0.00000E+00
    0.25227E+05         0.29114E+08         0.00000E+00
    0.00000E+00         0.00000E+00         0.12569E+08
 
    0.12730E+08         0.36676E+05         0.00000E+00
    0.36676E+05         0.29044E+08         0.00000E+00
    0.00000E+00         0.00000E+00         0.12532E+08
 
    0.12680E+08         0.48204E+05         0.00000E+00
    0.48204E+05         0.28973E+08         0.00000E+00
    0.00000E+00         0.00000E+00         0.12496E+08
 
    0.12630E+08         0.59445E+05         0.00000E+00
    0.59445E+05         0.28901E+08         0.00000E+00
    0.00000E+00         0.00000E+00         0.12459E+08
 
    0.12582E+08         0.70172E+05         0.00000E+00
    0.70172E+05         0.28829E+08         0.00000E+00
    0.00000E+00         0.00000E+00         0.12423E+08
 
    0.12535E+08         0.80256E+05         0.00000E+00
    0.80256E+05         0.28756E+08         0.00000E+00
    0.00000E+00         0.00000E+00         0.12387E+08
 
    0.12490E+08         0.89637E+05         0.00000E+00
    0.89637E+05         0.28683E+08         0.00000E+00
    0.00000E+00         0.00000E+00         0.12352E+08
 
    0.12445E+08         0.98303E+05         0.00000E+00
    0.98303E+05         0.28609E+08         0.00000E+00
    0.00000E+00         0.00000E+00         0.12316E+08
 
    0.12402E+08         0.10627E+06         0.00000E+00
    0.10627E+06         0.28536E+08         0.00000E+00
    0.00000E+00         0.00000E+00         0.12281E+08
 
    0.12359E+08         0.11358E+06         0.00000E+00
    0.11358E+06         0.28462E+08         0.00000E+00
    0.00000E+00         0.00000E+00         0.12246E+08
 
    0.12318E+08         0.12029E+06         0.00000E+00
    0.12029E+06         0.28388E+08         0.00000E+00
    0.00000E+00         0.00000E+00         0.12212E+08
 
    0.12277E+08         0.12644E+06         0.00000E+00
    0.12644E+06         0.28314E+08         0.00000E+00
    0.00000E+00         0.00000E+00         0.12177E+08
 
    0.12237E+08         0.13209E+06         0.00000E+00
    0.13209E+06         0.28240E+08         0.00000E+00
    0.00000E+00         0.00000E+00         0.12143E+08
 
    0.12197E+08         0.13729E+06         0.00000E+00
    0.13729E+06         0.28165E+08         0.00000E+00
    0.00000E+00         0.00000E+00         0.12109E+08
 
    0.12158E+08         0.14209E+06         0.00000E+00
    0.14209E+06         0.28090E+08         0.00000E+00
    0.00000E+00         0.00000E+00         0.12075E+08
 
    0.12120E+08         0.14655E+06         0.00000E+00
    0.14655E+06         0.28015E+08         0.00000E+00
    0.00000E+00         0.00000E+00         0.12041E+08
 
    0.12082E+08         0.15069E+06         0.00000E+00
    0.15069E+06         0.27940E+08         0.00000E+00
    0.00000E+00         0.00000E+00         0.12006E+08
 
    0.12044E+08         0.15456E+06         0.00000E+00
    0.15456E+06         0.27864E+08         0.00000E+00
    0.00000E+00         0.00000E+00         0.11972E+08
 
    0.12007E+08         0.15818E+06         0.00000E+00
    0.15818E+06         0.27787E+08         0.00000E+00
    0.00000E+00         0.00000E+00         0.11938E+08
 
    0.11970E+08         0.16159E+06         0.00000E+00
    0.16159E+06         0.27710E+08         0.00000E+00
    0.00000E+00         0.00000E+00         0.11904E+08
 
    0.11933E+08         0.16481E+06         0.00000E+00
    0.16481E+06         0.27633E+08         0.00000E+00
    0.00000E+00         0.00000E+00         0.11870E+08
 
    0.11897E+08         0.16787E+06         0.00000E+00
    0.16787E+06         0.27555E+08         0.00000E+00
    0.00000E+00         0.00000E+00         0.11835E+08
 
    0.11860E+08         0.17077E+06         0.00000E+00
    0.17077E+06         0.27477E+08         0.00000E+00
    0.00000E+00         0.00000E+00         0.11801E+08
 
    0.11824E+08         0.17354E+06         0.00000E+00
    0.17354E+06         0.27398E+08         0.00000E+00
    0.00000E+00         0.00000E+00         0.11766E+08
 
    0.11787E+08         0.17619E+06         0.00000E+00
    0.17619E+06         0.27318E+08         0.00000E+00
    0.00000E+00         0.00000E+00         0.11732E+08
 
    0.11751E+08         0.17873E+06         0.00000E+00
    0.17873E+06         0.27238E+08         0.00000E+00
    0.00000E+00         0.00000E+00         0.11697E+08
 
    0.11714E+08         0.18118E+06         0.00000E+00
    0.18118E+06         0.27157E+08         0.00000E+00
    0.00000E+00         0.00000E+00         0.11661E+08
 
    0.11678E+08         0.18354E+06         0.00000E+00
    0.18354E+06         0.27076E+08         0.00000E+00
    0.00000E+00         0.00000E+00         0.11626E+08
 
    0.11641E+08         0.18582E+06         0.00000E+00
    0.18582E+06         0.26994E+08         0.00000E+00
    0.00000E+00         0.00000E+00         0.11590E+08
 
    0.11604E+08         0.18802E+06         0.00000E+00
    0.18802E+06         0.26911E+08         0.00000E+00
    0.00000E+00         0.00000E+00         0.11554E+08
 
    0.11567E+08         0.19016E+06         0.00000E+00
    0.19016E+06         0.26827E+08         0.00000E+00
    0.00000E+00         0.00000E+00         0.11518E+08
 
    0.11530E+08         0.19223E+06         0.00000E+00
    0.19223E+06         0.26743E+08         0.00000E+00
    0.00000E+00         0.00000E+00         0.11482E+08
 
    0.11492E+08         0.19425E+06         0.00000E+00
    0.19425E+06         0.26658E+08         0.00000E+00
    0.00000E+00         0.00000E+00         0.11445E+08
 
    0.11454E+08         0.19621E+06         0.00000E+00
    0.19621E+06         0.26573E+08         0.00000E+00
    0.00000E+00         0.00000E+00         0.11408E+08
 
    0.11416E+08         0.19813E+06         0.00000E+00
    0.19813E+06         0.26487E+08         0.00000E+00
    0.00000E+00         0.00000E+00         0.11371E+08
 
    0.11378E+08         0.19999E+06         0.00000E+00
    0.19999E+06         0.26400E+08         0.00000E+00
    0.00000E+00         0.00000E+00         0.11333E+08
 
    0.11339E+08         0.20180E+06         0.00000E+00
    0.20180E+06         0.26312E+08         0.00000E+00
    0.00000E+00         0.00000E+00         0.11295E+08
 
    0.11301E+08         0.20357E+06         0.00000E+00
    0.20357E+06         0.26223E+08         0.00000E+00
    0.00000E+00         0.00000E+00         0.11257E+08
 
    0.11261E+08         0.20528E+06         0.00000E+00
    0.20528E+06         0.26134E+08         0.00000E+00
    0.00000E+00         0.00000E+00         0.11219E+08
 
    0.11222E+08         0.20696E+06         0.00000E+00
    0.20696E+06         0.26044E+08         0.00000E+00
    0.00000E+00         0.00000E+00         0.11180E+08
 
    0.11182E+08         0.20858E+06         0.00000E+00
    0.20858E+06         0.25953E+08         0.00000E+00
    0.00000E+00         0.00000E+00         0.11140E+08
 
    0.11141E+08         0.21016E+06         0.00000E+00
    0.21016E+06         0.25861E+08         0.00000E+00
    0.00000E+00         0.00000E+00         0.11101E+08
 
    0.11101E+08         0.21169E+06         0.00000E+00
    0.21169E+06         0.25769E+08         0.00000E+00
    0.00000E+00         0.00000E+00         0.11061E+08
 
    0.11059E+08         0.21317E+06         0.00000E+00
    0.21317E+06         0.25676E+08         0.00000E+00
    0.00000E+00         0.00000E+00         0.11020E+08
 
    0.11018E+08         0.21459E+06         0.00000E+00
    0.21459E+06         0.25581E+08         0.00000E+00
    0.00000E+00         0.00000E+00         0.10980E+08
 
    0.10976E+08         0.21596E+06         0.00000E+00
    0.21596E+06         0.25487E+08         0.00000E+00
    0.00000E+00         0.00000E+00         0.10939E+08
 
    0.10933E+08         0.21727E+06         0.00000E+00
    0.21727E+06         0.25391E+08         0.00000E+00
    0.00000E+00         0.00000E+00         0.10897E+08
 
    0.10890E+08         0.21852E+06         0.00000E+00
    0.21852E+06         0.25294E+08         0.00000E+00
    0.00000E+00         0.00000E+00         0.10855E+08
 
    0.10847E+08         0.21969E+06         0.00000E+00
    0.21969E+06         0.25197E+08         0.00000E+00
    0.00000E+00         0.00000E+00         0.10813E+08
 
    0.10803E+08         0.22080E+06         0.00000E+00
    0.22080E+06         0.25099E+08         0.00000E+00
    0.00000E+00         0.00000E+00         0.10770E+08
 
    0.10758E+08         0.22183E+06         0.00000E+00
    0.22183E+06         0.25000E+08         0.00000E+00
    0.00000E+00         0.00000E+00         0.10727E+08
 
    0.10713E+08         0.22277E+06         0.00000E+00
    0.22277E+06         0.24900E+08         0.00000E+00
    0.00000E+00         0.00000E+00         0.10684E+08
 
    0.10668E+08         0.22362E+06         0.00000E+00
    0.22362E+06         0.24800E+08         0.00000E+00
    0.00000E+00         0.00000E+00         0.10640E+08
 
    0.10622E+08         0.22438E+06         0.00000E+00
    0.22438E+06         0.24698E+08         0.00000E+00
    0.00000E+00         0.00000E+00         0.10596E+08
 
    0.10575E+08         0.22503E+06         0.00000E+00
    0.22503E+06         0.24596E+08         0.00000E+00
    0.00000E+00         0.00000E+00         0.10551E+08
 
    0.10528E+08         0.22556E+06         0.00000E+00
    0.22556E+06         0.24493E+08         0.00000E+00
    0.00000E+00         0.00000E+00         0.10506E+08
 
    0.10480E+08         0.22597E+06         0.00000E+00
    0.22597E+06         0.24389E+08         0.00000E+00
    0.00000E+00         0.00000E+00         0.10461E+08
 
    0.10431E+08         0.22625E+06         0.00000E+00
    0.22625E+06         0.24285E+08         0.00000E+00
    0.00000E+00         0.00000E+00         0.10415E+08
 
    0.10382E+08         0.22638E+06         0.00000E+00
    0.22638E+06         0.24179E+08         0.00000E+00
    0.00000E+00         0.00000E+00         0.10368E+08
 
    0.10332E+08         0.22635E+06         0.00000E+00
    0.22635E+06         0.24073E+08         0.00000E+00
    0.00000E+00         0.00000E+00         0.10322E+08
 
    0.10282E+08         0.22615E+06         0.00000E+00
    0.22615E+06         0.23966E+08         0.00000E+00
    0.00000E+00         0.00000E+00         0.10274E+08
 
    0.10231E+08         0.22576E+06         0.00000E+00
    0.22576E+06         0.23859E+08         0.00000E+00
    0.00000E+00         0.00000E+00         0.10227E+08
 
    0.10179E+08         0.22517E+06         0.00000E+00
    0.22517E+06         0.23750E+08         0.00000E+00
    0.00000E+00         0.00000E+00         0.10179E+08
 
    0.10126E+08         0.22435E+06         0.00000E+00
    0.22435E+06         0.23641E+08         0.00000E+00
    0.00000E+00         0.00000E+00         0.10130E+08
 
    0.10072E+08         0.22328E+06         0.00000E+00
    0.22328E+06         0.23531E+08         0.00000E+00
    0.00000E+00         0.00000E+00         0.10081E+08
 
    0.10017E+08         0.22195E+06         0.00000E+00
    0.22195E+06         0.23421E+08         0.00000E+00
    0.00000E+00         0.00000E+00         0.10031E+08
 
    0.99620E+07         0.22032E+06         0.00000E+00
    0.22032E+06         0.23309E+08         0.00000E+00
    0.00000E+00         0.00000E+00         0.99814E+07
 
    0.99055E+07         0.21837E+06         0.00000E+00
    0.21837E+06         0.23197E+08         0.00000E+00
    0.00000E+00         0.00000E+00         0.99309E+07
 
    0.98480E+07         0.21605E+06         0.00000E+00
    0.21605E+06         0.23085E+08         0.00000E+00
    0.00000E+00         0.00000E+00         0.98798E+07
 
    0.97895E+07         0.21334E+06         0.00000E+00
    0.21334E+06         0.22971E+08         0.00000E+00
    0.00000E+00         0.00000E+00         0.98282E+07
 
    0.97297E+07         0.21019E+06         0.00000E+00
    0.21019E+06         0.22857E+08         0.00000E+00
    0.00000E+00         0.00000E+00         0.97760E+07
 
    0.96688E+07         0.20654E+06         0.00000E+00
    0.20654E+06         0.22742E+08         0.00000E+00
    0.00000E+00         0.00000E+00         0.97233E+07
 
    0.96065E+07         0.20235E+06         0.00000E+00
    0.20235E+06         0.22627E+08         0.00000E+00
    0.00000E+00         0.00000E+00         0.96699E+07
 
    0.95429E+07         0.19754E+06         0.00000E+00
    0.19754E+06         0.22510E+08         0.00000E+00
    0.00000E+00         0.00000E+00         0.96160E+07
 
    0.94779E+07         0.19205E+06         0.00000E+00
    0.19205E+06         0.22393E+08         0.00000E+00
    0.00000E+00         0.00000E+00         0.95614E+07
 
    0.94113E+07         0.18581E+06         0.00000E+00
    0.18581E+06         0.22276E+08         0.00000E+00
    0.00000E+00         0.00000E+00         0.95061E+07
 
    0.93430E+07         0.17872E+06         0.00000E+00
    0.17872E+06         0.22157E+08         0.00000E+00
    0.00000E+00         0.00000E+00         0.94501E+07
 
    0.92730E+07         0.17069E+06         0.00000E+00
    0.17069E+06         0.22038E+08         0.00000E+00
    0.00000E+00         0.00000E+00         0.93934E+07
 
    0.92013E+07         0.16164E+06         0.00000E+00
    0.16164E+06         0.21918E+08         0.00000E+00
    0.00000E+00         0.00000E+00         0.93359E+07
 
    0.91276E+07         0.15147E+06         0.00000E+00
    0.15147E+06         0.21798E+08         0.00000E+00
    0.00000E+00         0.00000E+00         0.92777E+07
 
    0.90518E+07         0.14011E+06         0.00000E+00
    0.14011E+06         0.21677E+08         0.00000E+00
    0.00000E+00         0.00000E+00         0.92186E+07
 
    0.89741E+07         0.12749E+06         0.00000E+00
    0.12749E+06         0.21555E+08         0.00000E+00
    0.00000E+00         0.00000E+00         0.91588E+07
 
    0.88941E+07         0.11358E+06         0.00000E+00
    0.11358E+06         0.21433E+08         0.00000E+00
    0.00000E+00         0.00000E+00         0.90982E+07
 
    0.88119E+07         0.98405E+05         0.00000E+00
    0.98405E+05         0.21311E+08         0.00000E+00
    0.00000E+00         0.00000E+00         0.90369E+07
 
    0.87273E+07         0.82084E+05         0.00000E+00
    0.82084E+05         0.21189E+08         0.00000E+00
    0.00000E+00         0.00000E+00         0.89749E+07
 
    0.86404E+07         0.64844E+05         0.00000E+00
    0.64844E+05         0.21067E+08         0.00000E+00
    0.00000E+00         0.00000E+00         0.89123E+07
 
    0.85511E+07         0.47086E+05         0.00000E+00
    0.47086E+05         0.20946E+08         0.00000E+00
    0.00000E+00         0.00000E+00         0.88492E+07
 
    0.84594E+07         0.29450E+05         0.00000E+00
    0.29450E+05         0.20827E+08         0.00000E+00
    0.00000E+00         0.00000E+00         0.87859E+07
 
    0.83653E+07         0.12884E+05         0.00000E+00
    0.12884E+05         0.20710E+08         0.00000E+00
    0.00000E+00         0.00000E+00         0.87226E+07
 
    0.82687E+07        -0.12877E+04         0.00000E+00
   -0.12877E+04         0.20597E+08         0.00000E+00
    0.00000E+00         0.00000E+00         0.86597E+07
 
    0.81697E+07        -0.11389E+05         0.00000E+00
   -0.11389E+05         0.20489E+08         0.00000E+00
    0.00000E+00         0.00000E+00         0.85976E+07
 
    0.80675E+07        -0.15704E+05         0.00000E+00
   -0.15704E+05         0.20389E+08         0.00000E+00
    0.00000E+00         0.00000E+00         0.85371E+07
 
    0.79610E+07        -0.13300E+05         0.00000E+00
   -0.13300E+05         0.20302E+08         0.00000E+00
    0.00000E+00         0.00000E+00         0.84788E+07
 
    0.78482E+07        -0.51936E+04         0.00000E+00
   -0.51936E+04         0.20231E+08         0.00000E+00
    0.00000E+00         0.00000E+00         0.84236E+07
 
    0.13145E+08        -0.28514E+04         0.00000E+00
   -0.28514E+04         0.29461E+08         0.00000E+00
    0.00000E+00         0.00000E+00         0.12782E+08
 
    0.13080E+08        -0.71285E+04         0.00000E+00
   -0.71285E+04         0.29420E+08         0.00000E+00
    0.00000E+00         0.00000E+00         0.12750E+08
 
    0.13018E+08        -0.78769E+04         0.00000E+00
   -0.78769E+04         0.29368E+08         0.00000E+00
    0.00000E+00         0.00000E+00         0.12716E+08
 
    0.12959E+08        -0.45478E+04         0.00000E+00
   -0.45478E+04         0.29309E+08         0.00000E+00
    0.00000E+00         0.00000E+00         0.12681E+08
 
    0.12902E+08         0.22172E+04         0.00000E+00
    0.22172E+04         0.29246E+08         0.00000E+00
    0.00000E+00         0.00000E+00         0.12644E+08
 
    0.12846E+08         0.11354E+05         0.00000E+00
    0.11354E+05         0.29180E+08         0.00000E+00
    0.00000E+00         0.00000E+00         0.12608E+08
 
    0.12792E+08         0.21872E+05         0.00000E+00
    0.21872E+05         0.29111E+08         0.00000E+00
    0.00000E+00         0.00000E+00         0.12571E+08
 
    0.12739E+08         0.33006E+05         0.00000E+00
    0.33006E+05         0.29042E+08         0.00000E+00
    0.00000E+00         0.00000E+00         0.12534E+08
 
    0.12687E+08         0.44217E+05         0.00000E+00
    0.44217E+05         0.28971E+08         0.00000E+00
    0.00000E+00         0.00000E+00         0.12497E+08
 
    0.12637E+08         0.55144E+05         0.00000E+00
    0.55144E+05         0.28899E+08         0.00000E+00
    0.00000E+00         0.00000E+00         0.12461E+08
 
    0.12588E+08         0.65563E+05         0.00000E+00
    0.65563E+05         0.28827E+08         0.00000E+00
    0.00000E+00         0.00000E+00         0.12424E+08
 
    0.12541E+08         0.75346E+05         0.00000E+00
    0.75346E+05         0.28754E+08         0.00000E+00
    0.00000E+00         0.00000E+00         0.12388E+08
 
    0.12494E+08         0.84437E+05         0.00000E+00
    0.84437E+05         0.28681E+08         0.00000E+00
    0.00000E+00         0.00000E+00         0.12353E+08
 
    0.12449E+08         0.92823E+05         0.00000E+00
    0.92823E+05         0.28608E+08         0.00000E+00
    0.00000E+00         0.00000E+00         0.12317E+08
 
    0.12406E+08         0.10052E+06         0.00000E+00
    0.10052E+06         0.28534E+08         0.00000E+00
    0.00000E+00         0.00000E+00         0.12282E+08
 
    0.12363E+08         0.10758E+06         0.00000E+00
    0.10758E+06         0.28461E+08         0.00000E+00
    0.00000E+00         0.00000E+00         0.12247E+08
 
    0.12321E+08         0.11404E+06         0.00000E+00
    0.11404E+06         0.28387E+08         0.00000E+00
    0.00000E+00         0.00000E+00         0.12212E+08
 
    0.12280E+08         0.11996E+06         0.00000E+00
    0.11996E+06         0.28313E+08         0.00000E+00
    0.00000E+00         0.00000E+00         0.12178E+08
 
    0.12239E+08         0.12538E+06         0.00000E+00
    0.12538E+06         0.28239E+08         0.00000E+00
    0.00000E+00         0.00000E+00         0.12143E+08
 
    0.12200E+08         0.13038E+06         0.00000E+00
    0.13038E+06         0.28164E+08         0.00000E+00
    0.00000E+00         0.00000E+00         0.12109E+08
 
    0.12161E+08         0.13498E+06         0.00000E+00
    0.13498E+06         0.28090E+08         0.00000E+00
    0.00000E+00         0.00000E+00         0.12075E+08
 
    0.12122E+08         0.13925E+06         0.00000E+00
    0.13925E+06         0.28014E+08         0.00000E+00
    0.00000E+00         0.00000E+00         0.12041E+08
 
    0.12084E+08         0.14321E+06         0.00000E+00
    0.14321E+06         0.27939E+08         0.00000E+00
    0.00000E+00         0.00000E+00         0.12007E+08
 
    0.12047E+08         0.14691E+06         0.00000E+00
    0.14691E+06         0.27863E+08         0.00000E+00
    0.00000E+00         0.00000E+00         0.11973E+08
 
    0.12009E+08         0.15037E+06         0.00000E+00
    0.15037E+06         0.27787E+08         0.00000E+00
    0.00000E+00         0.00000E+00         0.11939E+08
 
    0.11972E+08         0.15363E+06         0.00000E+00
    0.15363E+06         0.27710E+08         0.00000E+00
    0.00000E+00         0.00000E+00         0.11905E+08
 
    0.11935E+08         0.15671E+06         0.00000E+00
    0.15671E+06         0.27632E+08         0.00000E+00
    0.00000E+00         0.00000E+00         0.11870E+08
 
    0.11899E+08         0.15962E+06         0.00000E+00
    0.15962E+06         0.27554E+08         0.00000E+00
    0.00000E+00         0.00000E+00         0.11836E+08
 
    0.11862E+08         0.16239E+06         0.00000E+00
    0.16239E+06         0.27476E+08         0.00000E+00
    0.00000E+00         0.00000E+00         0.11801E+08
 
    0.11825E+08         0.16503E+06         0.00000E+00
    0.16503E+06         0.27397E+08         0.00000E+00
    0.00000E+00         0.00000E+00         0.11767E+08
 
    0.11789E+08         0.16756E+06         0.00000E+00
    0.16756E+06         0.27318E+08         0.00000E+00
    0.00000E+00         0.00000E+00         0.11732E+08
 
    0.11752E+08         0.16998E+06         0.00000E+00
    0.16998E+06         0.27237E+08         0.00000E+00
    0.00000E+00         0.00000E+00         0.11697E+08
 
    0.11716E+08         0.17231E+06         0.00000E+00
    0.17231E+06         0.27157E+08         0.00000E+00
    0.00000E+00         0.00000E+00         0.11662E+08
 
    0.11679E+08         0.17456E+06         0.00000E+00
    0.17456E+06         0.27075E+08         0.00000E+00
    0.00000E+00         0.00000E+00         0.11626E+08
 
    0.11643E+08         0.17673E+06         0.00000E+00
    0.17673E+06         0.26993E+08         0.00000E+00
    0.00000E+00         0.00000E+00         0.11591E+08
 
    0.11606E+08         0.17883E+06         0.00000E+00
    0.17883E+06         0.26910E+08         0.00000E+00
    0.00000E+00         0.00000E+00         0.11555E+08
 
    0.11569E+08         0.18087E+06         0.00000E+00
    0.18087E+06         0.26827E+08         0.00000E+00
    0.00000E+00         0.00000E+00         0.11519E+08
 
    0.11531E+08         0.18284E+06         0.00000E+00
    0.18284E+06         0.26743E+08         0.00000E+00
    0.00000E+00         0.00000E+00         0.11482E+08
 
    0.11494E+08         0.18476E+06         0.00000E+00
    0.18476E+06         0.26658E+08         0.00000E+00
    0.00000E+00         0.00000E+00         0.11446E+08
 
    0.11456E+08         0.18663E+06         0.00000E+00
    0.18663E+06         0.26573E+08         0.00000E+00
    0.00000E+00         0.00000E+00         0.11409E+08
 
    0.11418E+08         0.18845E+06         0.00000E+00
    0.18845E+06         0.26486E+08         0.00000E+00
    0.00000E+00         0.00000E+00         0.11371E+08
 
    0.11380E+08         0.19022E+06         0.00000E+00
    0.19022E+06         0.26399E+08         0.00000E+00
    0.00000E+00         0.00000E+00         0.11334E+08
 
    0.11341E+08         0.19194E+06         0.00000E+00
    0.19194E+06         0.26311E+08         0.00000E+00
    0.00000E+00         0.00000E+00         0.11296E+08
 
    0.11302E+08         0.19362E+06         0.00000E+00
    0.19362E+06         0.26223E+08         0.00000E+00
    0.00000E+00         0.00000E+00         0.11258E+08
 
    0.11263E+08         0.19525E+06         0.00000E+00
    0.19525E+06         0.26134E+08         0.00000E+00
    0.00000E+00         0.00000E+00         0.11219E+08
 
    0.11223E+08         0.19684E+06         0.00000E+00
    0.19684E+06         0.26044E+08         0.00000E+00
    0.00000E+00         0.00000E+00         0.11180E+08
 
    0.11183E+08         0.19839E+06         0.00000E+00
    0.19839E+06         0.25953E+08         0.00000E+00
    0.00000E+00         0.00000E+00         0.11141E+08
 
    0.11143E+08         0.19988E+06         0.00000E+00
    0.19988E+06         0.25861E+08         0.00000E+00
    0.00000E+00         0.00000E+00         0.11101E+08
 
    0.11102E+08         0.20134E+06         0.00000E+00
    0.20134E+06         0.25769E+08         0.00000E+00
    0.00000E+00         0.00000E+00         0.11061E+08
 
    0.11061E+08         0.20274E+06         0.00000E+00
    0.20274E+06         0.25675E+08         0.00000E+00
    0.00000E+00         0.00000E+00         0.11021E+08
 
    0.11019E+08         0.20409E+06         0.00000E+00
    0.20409E+06         0.25581E+08         0.00000E+00
    0.00000E+00         0.00000E+00         0.10980E+08
 
    0.10977E+08         0.20539E+06         0.00000E+00
    0.20539E+06         0.25486E+08         0.00000E+00
    0.00000E+00         0.00000E+00         0.10939E+08
 
    0.10935E+08         0.20663E+06         0.00000E+00
    0.20663E+06         0.25391E+08         0.00000E+00
    0.00000E+00         0.00000E+00         0.10898E+08
 
    0.10892E+08         0.20781E+06         0.00000E+00
    0.20781E+06         0.25294E+08         0.00000E+00
    0.00000E+00         0.00000E+00         0.10856E+08
 
    0.10848E+08         0.20892E+06         0.00000E+00
    0.20892E+06         0.25197E+08         0.00000E+00
    0.00000E+00         0.00000E+00         0.10813E+08
 
    0.10804E+08         0.20997E+06         0.00000E+00
    0.20997E+06         0.25099E+08         0.00000E+00
    0.00000E+00         0.00000E+00         0.10771E+08
 
    0.10760E+08         0.21094E+06         0.00000E+00
    0.21094E+06         0.25000E+08         0.00000E+00
    0.00000E+00         0.00000E+00         0.10728E+08
 
    0.10714E+08         0.21183E+06         0.00000E+00
    0.21183E+06         0.24900E+08         0.00000E+00
    0.00000E+00         0.00000E+00         0.10684E+08
 
    0.10669E+08         0.21264E+06         0.00000E+00
    0.21264E+06         0.24799E+08         0.00000E+00
    0.00000E+00         0.00000E+00         0.10640E+08
 
    0.10623E+08         0.21335E+06         0.00000E+00
    0.21335E+06         0.24698E+08         0.00000E+00
    0.00000E+00         0.00000E+00         0.10596E+08
 
    0.10576E+08         0.21396E+06         0.00000E+00
    0.21396E+06         0.24596E+08         0.00000E+00
    0.00000E+00         0.00000E+00         0.10552E+08
 
    0.10529E+08         0.21446E+06         0.00000E+00
    0.21446E+06         0.24493E+08         0.00000E+00
    0.00000E+00         0.00000E+00         0.10506E+08
 
    0.10481E+08         0.21484E+06         0.00000E+00
    0.21484E+06         0.24389E+08         0.00000E+00
    0.00000E+00         0.00000E+00         0.10461E+08
 
    0.10432E+08         0.21509E+06         0.00000E+00
    0.21509E+06         0.24285E+08         0.00000E+00
    0.00000E+00         0.00000E+00         0.10415E+08
 
    0.10383E+08         0.21521E+06         0.00000E+00
    0.21521E+06         0.24179E+08         0.00000E+00
    0.00000E+00         0.00000E+00         0.10369E+08
 
    0.10333E+08         0.21517E+06         0.00000E+00
    0.21517E+06         0.24073E+08         0.00000E+00
    0.00000E+00         0.00000E+00         0.10322E+08
 
    0.10282E+08         0.21497E+06         0.00000E+00
    0.21497E+06         0.23966E+08         0.00000E+00
    0.00000E+00         0.00000E+00         0.10275E+08
 
    0.10231E+08         0.21458E+06         0.00000E+00
    0.21458E+06         0.23859E+08         0.00000E+00
    0.00000E+00         0.00000E+00         0.10227E+08
 
    0.10179E+08         0.21401E+06         0.00000E+00
    0.21401E+06         0.23750E+08         0.00000E+00
    0.00000E+00         0.00000E+00         0.10179E+08
 
    0.10126E+08         0.21321E+06         0.00000E+00
    0.21321E+06         0.23641E+08         0.00000E+00
    0.00000E+00         0.00000E+00         0.10130E+08
 
    0.10072E+08         0.21219E+06         0.00000E+00
    0.21219E+06         0.23532E+08         0.00000E+00
    0.00000E+00         0.00000E+00         0.10081E+08
 
    0.10017E+08         0.21090E+06         0.00000E+00
    0.21090E+06         0.23421E+08         0.00000E+00
    0.00000E+00         0.00000E+00         0.10032E+08
 
    0.99617E+07         0.20933E+06         0.00000E+00
    0.20933E+06         0.23310E+08         0.00000E+00
    0.00000E+00         0.00000E+00         0.99814E+07
 
    0.99051E+07         0.20745E+06         0.00000E+00
    0.20745E+06         0.23198E+08         0.00000E+00
    0.00000E+00         0.00000E+00         0.99309E+07
 
    0.98474E+07         0.20523E+06         0.00000E+00
    0.20523E+06         0.23085E+08         0.00000E+00
    0.00000E+00         0.00000E+00         0.98798E+07
 
    0.97887E+07         0.20262E+06         0.00000E+00
    0.20262E+06         0.22972E+08         0.00000E+00
    0.00000E+00         0.00000E+00         0.98281E+07
 
    0.97287E+07         0.19959E+06         0.00000E+00
    0.19959E+06         0.22858E+08         0.00000E+00
    0.00000E+00         0.00000E+00         0.97759E+07
 
    0.96675E+07         0.19608E+06         0.00000E+00
    0.19608E+06         0.22743E+08         0.00000E+00
    0.00000E+00         0.00000E+00         0.97231E+07
 
    0.96050E+07         0.19205E+06         0.00000E+00
    0.19205E+06         0.22627E+08         0.00000E+00
    0.00000E+00         0.00000E+00         0.96697E+07
 
    0.95411E+07         0.18743E+06         0.00000E+00
    0.18743E+06         0.22511E+08         0.00000E+00
    0.00000E+00         0.00000E+00         0.96157E+07
 
    0.94757E+07         0.18214E+06         0.00000E+00
    0.18214E+06         0.22394E+08         0.00000E+00
    0.00000E+00         0.00000E+00         0.95611E+07
 
    0.94087E+07         0.17612E+06         0.00000E+00
    0.17612E+06         0.22277E+08         0.00000E+00
    0.00000E+00         0.00000E+00         0.95057E+07
 
    0.93400E+07         0.16928E+06         0.00000E+00
    0.16928E+06         0.22159E+08         0.00000E+00
    0.00000E+00         0.00000E+00         0.94496E+07
 
    0.92696E+07         0.16153E+06         0.00000E+00
    0.16153E+06         0.22040E+08         0.00000E+00
    0.00000E+00         0.00000E+00         0.93928E+07
 
    0.91972E+07         0.15278E+06         0.00000E+00
    0.15278E+06         0.21920E+08         0.00000E+00
    0.00000E+00         0.00000E+00         0.93353E+07
 
    0.91229E+07         0.14293E+06         0.00000E+00
    0.14293E+06         0.21800E+08         0.00000E+00
    0.00000E+00         0.00000E+00         0.92769E+07
 
    0.90464E+07         0.13192E+06         0.00000E+00
    0.13192E+06         0.21679E+08         0.00000E+00
    0.00000E+00         0.00000E+00         0.92177E+07
 
    0.89678E+07         0.11966E+06         0.00000E+00
    0.11966E+06         0.21558E+08         0.00000E+00
    0.00000E+00         0.00000E+00         0.91577E+07
 
    0.88868E+07         0.10615E+06         0.00000E+00
    0.10615E+06         0.21436E+08         0.00000E+00
    0.00000E+00         0.00000E+00         0.90969E+07
 
    0.88035E+07         0.91388E+05         0.00000E+00
    0.91388E+05         0.21314E+08         0.00000E+00
    0.00000E+00         0.00000E+00         0.90353E+07
 
    0.87177E+07         0.75497E+05         0.00000E+00
    0.75497E+05         0.21192E+08         0.00000E+00
    0.00000E+00         0.00000E+00         0.89730E+07
 
    0.86295E+07         0.58700E+05         0.00000E+00
    0.58700E+05         0.21071E+08         0.00000E+00
    0.00000E+00         0.00000E+00         0.89101E+07
 
    0.85386E+07         0.41394E+05         0.00000E+00
    0.41394E+05         0.20950E+08         0.00000E+00
    0.00000E+00         0.00000E+00         0.88466E+07
 
    0.84453E+07         0.24209E+05         0.00000E+00
    0.24209E+05         0.20830E+08         0.00000E+00
    0.00000E+00         0.00000E+00         0.87827E+07
 
    0.83496E+07         0.80861E+04         0.00000E+00
    0.80861E+04         0.20713E+08         0.00000E+00
    0.00000E+00         0.00000E+00         0.87188E+07
 
    0.82515E+07        -0.56450E+04         0.00000E+00
   -0.56450E+04         0.20599E+08         0.00000E+00
    0.00000E+00         0.00000E+00         0.86552E+07
 
    0.81511E+07        -0.15263E+05         0.00000E+00
   -0.15263E+05         0.20490E+08         0.00000E+00
    0.00000E+00         0.00000E+00         0.85925E+07
 
    0.80481E+07        -0.18925E+05         0.00000E+00
   -0.18925E+05         0.20389E+08         0.00000E+00
    0.00000E+00         0.00000E+00         0.85312E+07
 
    0.79410E+07        -0.15520E+05         0.00000E+00
   -0.15520E+05         0.20300E+08         0.00000E+00
    0.00000E+00         0.00000E+00         0.84725E+07
 
    0.78281E+07        -0.59981E+04         0.00000E+00
   -0.59981E+04         0.20228E+08         0.00000E+00
    0.00000E+00         0.00000E+00         0.84170E+07
 
    0.13157E+08        -0.33361E+04         0.00000E+00
   -0.33361E+04         0.29462E+08         0.00000E+00
    0.00000E+00         0.00000E+00         0.12786E+08
 
    0.13092E+08        -0.84548E+04         0.00000E+00
   -0.84548E+04         0.29420E+08         0.00000E+00
    0.00000E+00         0.00000E+00         0.12754E+08
 
    0.13030E+08        -0.97812E+04         0.00000E+00
   -0.97812E+04         0.29368E+08         0.00000E+00
    0.00000E+00         0.00000E+00         0.12719E+08
 
    0.12971E+08        -0.68255E+04         0.00000E+00
   -0.68255E+04         0.29308E+08         0.00000E+00
    0.00000E+00         0.00000E+00         0.12684E+08
 
    0.12913E+08        -0.35366E+03         0.00000E+00
   -0.35366E+03         0.29245E+08         0.00000E+00
    0.00000E+00         0.00000E+00         0.12647E+08
 
    0.12856E+08         0.84932E+04         0.00000E+00
    0.84932E+04         0.29178E+08         0.00000E+00
    0.00000E+00         0.00000E+00         0.12610E+08
 
    0.12800E+08         0.18702E+05         0.00000E+00
    0.18702E+05         0.29109E+08         0.00000E+00
    0.00000E+00         0.00000E+00         0.12573E+08
 
    0.12747E+08         0.29511E+05         0.00000E+00
    0.29511E+05         0.29039E+08         0.00000E+00
    0.00000E+00         0.00000E+00         0.12536E+08
 
    0.12694E+08         0.40390E+05         0.00000E+00
    0.40390E+05         0.28968E+08         0.00000E+00
    0.00000E+00         0.00000E+00         0.12499E+08
 
    0.12643E+08         0.50986E+05         0.00000E+00
    0.50986E+05         0.28897E+08         0.00000E+00
    0.00000E+00         0.00000E+00         0.12462E+08
 
    0.12594E+08         0.61079E+05         0.00000E+00
    0.61079E+05         0.28825E+08         0.00000E+00
    0.00000E+00         0.00000E+00         0.12426E+08
 
    0.12546E+08         0.70546E+05         0.00000E+00
    0.70546E+05         0.28752E+08         0.00000E+00
    0.00000E+00         0.00000E+00         0.12389E+08
 
    0.12499E+08         0.79331E+05         0.00000E+00
    0.79331E+05         0.28679E+08         0.00000E+00
    0.00000E+00         0.00000E+00         0.12354E+08
 
    0.12454E+08         0.87424E+05         0.00000E+00
    0.87424E+05         0.28606E+08         0.00000E+00
    0.00000E+00         0.00000E+00         0.12318E+08
 
    0.12409E+08         0.94846E+05         0.00000E+00
    0.94846E+05         0.28533E+08         0.00000E+00
    0.00000E+00         0.00000E+00         0.12283E+08
 
    0.12366E+08         0.10164E+06         0.00000E+00
    0.10164E+06         0.28460E+08         0.00000E+00
    0.00000E+00         0.00000E+00         0.12248E+08
 
    0.12324E+08         0.10784E+06         0.00000E+00
    0.10784E+06         0.28386E+08         0.00000E+00
    0.00000E+00         0.00000E+00         0.12213E+08
 
    0.12283E+08         0.11352E+06         0.00000E+00
    0.11352E+06         0.28312E+08         0.00000E+00
    0.00000E+00         0.00000E+00         0.12178E+08
 
    0.12242E+08         0.11872E+06         0.00000E+00
    0.11872E+06         0.28238E+08         0.00000E+00
    0.00000E+00         0.00000E+00         0.12144E+08
 
    0.12202E+08         0.12350E+06         0.00000E+00
    0.12350E+06         0.28163E+08         0.00000E+00
    0.00000E+00         0.00000E+00         0.12110E+08
 
    0.12163E+08         0.12790E+06         0.00000E+00
    0.12790E+06         0.28089E+08         0.00000E+00
    0.00000E+00         0.00000E+00         0.12076E+08
 
    0.12125E+08         0.13197E+06         0.00000E+00
    0.13197E+06         0.28014E+08         0.00000E+00
    0.00000E+00         0.00000E+00         0.12041E+08
 
    0.12086E+08         0.13576E+06         0.00000E+00
    0.13576E+06         0.27938E+08         0.00000E+00
    0.00000E+00         0.00000E+00         0.12007E+08
 
    0.12049E+08         0.13928E+06         0.00000E+00
    0.13928E+06         0.27862E+08         0.00000E+00
    0.00000E+00         0.00000E+00         0.11973E+08
 
    0.12011E+08         0.14258E+06         0.00000E+00
    0.14258E+06         0.27786E+08         0.00000E+00
    0.00000E+00         0.00000E+00         0.11939E+08
 
    0.11974E+08         0.14568E+06         0.00000E+00
    0.14568E+06         0.27709E+08         0.00000E+00
    0.00000E+00         0.00000E+00         0.11905E+08
 
    0.11937E+08         0.14861E+06         0.00000E+00
    0.14861E+06         0.27632E+08         0.00000E+00
    0.00000E+00         0.00000E+00         0.11871E+08
 
    0.11901E+08         0.15138E+06         0.00000E+00
    0.15138E+06         0.27554E+08         0.00000E+00
    0.00000E+00         0.00000E+00         0.11836E+08
 
    0.11864E+08         0.15402E+06         0.00000E+00
    0.15402E+06         0.27476E+08         0.00000E+00
    0.00000E+00         0.00000E+00         0.11802E+08
 
    0.11827E+08         0.15653E+06         0.00000E+00
    0.15653E+06         0.27397E+08         0.00000E+00
    0.00000E+00         0.00000E+00         0.11767E+08
 
    0.11791E+08         0.15893E+06         0.00000E+00
    0.15893E+06         0.27317E+08         0.00000E+00
    0.00000E+00         0.00000E+00         0.11732E+08
 
    0.11754E+08         0.16124E+06         0.00000E+00
    0.16124E+06         0.27237E+08         0.00000E+00
    0.00000E+00         0.00000E+00         0.11697E+08
 
    0.11718E+08         0.16345E+06         0.00000E+00
    0.16345E+06         0.27156E+08         0.00000E+00
    0.00000E+00         0.00000E+00         0.11662E+08
 
    0.11681E+08         0.16559E+06         0.00000E+00
    0.16559E+06         0.27075E+08         0.00000E+00
    0.00000E+00         0.00000E+00         0.11627E+08
 
    0.11644E+08         0.16765E+06         0.00000E+00
    0.16765E+06         0.26993E+08         0.00000E+00
    0.00000E+00         0.00000E+00         0.11591E+08
 
    0.11607E+08         0.16964E+06         0.00000E+00
    0.16964E+06         0.26910E+08         0.00000E+00
    0.00000E+00         0.00000E+00         0.11555E+08
 
    0.11570E+08         0.17157E+06         0.00000E+00
    0.17157E+06         0.26827E+08         0.00000E+00
    0.00000E+00         0.00000E+00         0.11519E+08
 
    0.11533E+08         0.17345E+06         0.00000E+00
    0.17345E+06         0.26743E+08         0.00000E+00
    0.00000E+00         0.00000E+00         0.11483E+08
 
    0.11495E+08         0.17527E+06         0.00000E+00
    0.17527E+06         0.26658E+08         0.00000E+00
    0.00000E+00         0.00000E+00         0.11446E+08
 
    0.11458E+08         0.17704E+06         0.00000E+00
    0.17704E+06         0.26572E+08         0.00000E+00
    0.00000E+00         0.00000E+00         0.11409E+08
 
    0.11420E+08         0.17877E+06         0.00000E+00
    0.17877E+06         0.26486E+08         0.00000E+00
    0.00000E+00         0.00000E+00         0.11372E+08
 
    0.11381E+08         0.18045E+06         0.00000E+00
    0.18045E+06         0.26399E+08         0.00000E+00
    0.00000E+00         0.00000E+00         0.11334E+08
 
    0.11343E+08         0.18208E+06         0.00000E+00
    0.18208E+06         0.26311E+08         0.00000E+00
    0.00000E+00         0.00000E+00         0.11296E+08
 
    0.11304E+08         0.18367E+06         0.00000E+00
    0.18367E+06         0.26223E+08         0.00000E+00
    0.00000E+00         0.00000E+00         0.11258E+08
 
    0.11264E+08         0.18522E+06         0.00000E+00
    0.18522E+06         0.26133E+08         0.00000E+00
    0.00000E+00         0.00000E+00         0.11219E+08
 
    0.11225E+08         0.18673E+06         0.00000E+00
    0.18673E+06         0.26043E+08         0.00000E+00
    0.00000E+00         0.00000E+00         0.11180E+08
 
    0.11185E+08         0.18819E+06         0.00000E+00
    0.18819E+06         0.25952E+08         0.00000E+00
    0.00000E+00         0.00000E+00         0.11141E+08
 
    0.11144E+08         0.18961E+06         0.00000E+00
    0.18961E+06         0.25861E+08         0.00000E+00
    0.00000E+00         0.00000E+00         0.11101E+08
 
    0.11103E+08         0.19098E+06         0.00000E+00
    0.19098E+06         0.25768E+08         0.00000E+00
    0.00000E+00         0.00000E+00         0.11062E+08
 
    0.11062E+08         0.19231E+06         0.00000E+00
    0.19231E+06         0.25675E+08         0.00000E+00
    0.00000E+00         0.00000E+00         0.11021E+08
 
    0.11021E+08         0.19359E+06         0.00000E+00
    0.19359E+06         0.25581E+08         0.00000E+00
    0.00000E+00         0.00000E+00         0.10980E+08
 
    0.10978E+08         0.19482E+06         0.00000E+00
    0.19482E+06         0.25486E+08         0.00000E+00
    0.00000E+00         0.00000E+00         0.10939E+08
 
    0.10936E+08         0.19599E+06         0.00000E+00
    0.19599E+06         0.25390E+08         0.00000E+00
    0.00000E+00         0.00000E+00         0.10898E+08
 
    0.10893E+08         0.19711E+06         0.00000E+00
    0.19711E+06         0.25294E+08         0.00000E+00
    0.00000E+00         0.00000E+00         0.10856E+08
 
    0.10849E+08         0.19816E+06         0.00000E+00
    0.19816E+06         0.25197E+08         0.00000E+00
    0.00000E+00         0.00000E+00         0.10814E+08
 
    0.10805E+08         0.19915E+06         0.00000E+00
    0.19915E+06         0.25098E+08         0.00000E+00
    0.00000E+00         0.00000E+00         0.10771E+08
 
    0.10761E+08         0.20006E+06         0.00000E+00
    0.20006E+06         0.25000E+08         0.00000E+00
    0.00000E+00         0.00000E+00         0.10728E+08
 
    0.10716E+08         0.20090E+06         0.00000E+00
    0.20090E+06         0.24900E+08         0.00000E+00
    0.00000E+00         0.00000E+00         0.10685E+08
 
    0.10670E+08         0.20166E+06         0.00000E+00
    0.20166E+06         0.24799E+08         0.00000E+00
    0.00000E+00         0.00000E+00         0.10641E+08
 
    0.10624E+08         0.20233E+06         0.00000E+00
    0.20233E+06         0.24698E+08         0.00000E+00
    0.00000E+00         0.00000E+00         0.10597E+08
 
    0.10577E+08         0.20290E+06         0.00000E+00
    0.20290E+06         0.24596E+08         0.00000E+00
    0.00000E+00         0.00000E+00         0.10552E+08
 
    0.10530E+08         0.20337E+06         0.00000E+00
    0.20337E+06         0.24493E+08         0.00000E+00
    0.00000E+00         0.00000E+00         0.10507E+08
 
    0.10482E+08         0.20372E+06         0.00000E+00
    0.20372E+06         0.24389E+08         0.00000E+00
    0.00000E+00         0.00000E+00         0.10461E+08
 
    0.10433E+08         0.20395E+06         0.00000E+00
    0.20395E+06         0.24285E+08         0.00000E+00
    0.00000E+00         0.00000E+00         0.10415E+08
 
    0.10384E+08         0.20405E+06         0.00000E+00
    0.20405E+06         0.24179E+08         0.00000E+00
    0.00000E+00         0.00000E+00         0.10369E+08
 
    0.10334E+08         0.20401E+06         0.00000E+00
    0.20401E+06         0.24073E+08         0.00000E+00
    0.00000E+00         0.00000E+00         0.10322E+08
 
    0.10283E+08         0.20380E+06         0.00000E+00
    0.20380E+06         0.23966E+08         0.00000E+00
    0.00000E+00         0.00000E+00         0.10275E+08
 
    0.10231E+08         0.20343E+06         0.00000E+00
    0.20343E+06         0.23859E+08         0.00000E+00
    0.00000E+00         0.00000E+00         0.10227E+08
 
    0.10179E+08         0.20287E+06         0.00000E+00
    0.20287E+06         0.23751E+08         0.00000E+00
    0.00000E+00         0.00000E+00         0.10179E+08
 
    0.10126E+08         0.20210E+06         0.00000E+00
    0.20210E+06         0.23642E+08         0.00000E+00
    0.00000E+00         0.00000E+00         0.10130E+08
 
    0.10072E+08         0.20111E+06         0.00000E+00
    0.20111E+06         0.23532E+08         0.00000E+00
    0.00000E+00         0.00000E+00         0.10081E+08
 
    0.10017E+08         0.19988E+06         0.00000E+00
    0.19988E+06         0.23421E+08         0.00000E+00
    0.00000E+00         0.00000E+00         0.10032E+08
 
    0.99616E+07         0.19837E+06         0.00000E+00
    0.19837E+06         0.23310E+08         0.00000E+00
    0.00000E+00         0.00000E+00         0.99815E+07
 
    0.99048E+07         0.19657E+06         0.00000E+00
    0.19657E+06         0.23198E+08         0.00000E+00
    0.00000E+00         0.00000E+00         0.99309E+07
 
    0.98469E+07         0.19444E+06         0.00000E+00
    0.19444E+06         0.23086E+08         0.00000E+00
    0.00000E+00         0.00000E+00         0.98797E+07
 
    0.97879E+07         0.19194E+06         0.00000E+00
    0.19194E+06         0.22972E+08         0.00000E+00
    0.00000E+00         0.00000E+00         0.98281E+07
 
    0.97278E+07         0.18904E+06         0.00000E+00
    0.18904E+06         0.22858E+08         0.00000E+00
    0.00000E+00         0.00000E+00         0.97758E+07
 
    0.96664E+07         0.18568E+06         0.00000E+00
    0.18568E+06         0.22744E+08         0.00000E+00
    0.00000E+00         0.00000E+00         0.97230E+07
 
    0.96036E+07         0.18181E+06         0.00000E+00
    0.18181E+06         0.22628E+08         0.00000E+00
    0.00000E+00         0.00000E+00         0.96696E+07
 
    0.95394E+07         0.17737E+06         0.00000E+00
    0.17737E+06         0.22512E+08         0.00000E+00
    0.00000E+00         0.00000E+00         0.96155E+07
 
    0.94736E+07         0.17230E+06         0.00000E+00
    0.17230E+06         0.22396E+08         0.00000E+00
    0.00000E+00         0.00000E+00         0.95608E+07
 
    0.94063E+07         0.16652E+06         0.00000E+00
    0.16652E+06         0.22278E+08         0.00000E+00
    0.00000E+00         0.00000E+00         0.95053E+07
 
    0.93372E+07         0.15994E+06         0.00000E+00
    0.15994E+06         0.22160E+08         0.00000E+00
    0.00000E+00         0.00000E+00         0.94492E+07
 
    0.92662E+07         0.15247E+06         0.00000E+00
    0.15247E+06         0.22041E+08         0.00000E+00
    0.00000E+00         0.00000E+00         0.93923E+07
 
    0.91933E+07         0.14403E+06         0.00000E+00
    0.14403E+06         0.21922E+08         0.00000E+00
    0.00000E+00         0.00000E+00         0.93346E+07
 
    0.91183E+07         0.13453E+06         0.00000E+00
    0.13453E+06         0.21802E+08         0.00000E+00
    0.00000E+00         0.00000E+00         0.92761E+07
 
    0.90412E+07         0.12388E+06         0.00000E+00
    0.12388E+06         0.21682E+08         0.00000E+00
    0.00000E+00         0.00000E+00         0.92168E+07
 
    0.89617E+07         0.11202E+06         0.00000E+00
    0.11202E+06         0.21561E+08         0.00000E+00
    0.00000E+00         0.00000E+00         0.91567E+07
 
    0.88798E+07         0.98922E+05         0.00000E+00
    0.98922E+05         0.21439E+08         0.00000E+00
    0.00000E+00         0.00000E+00         0.90956E+07
 
    0.87954E+07         0.84605E+05         0.00000E+00
    0.84605E+05         0.21317E+08         0.00000E+00
    0.00000E+00         0.00000E+00         0.90338E+07
 
    0.87083E+07         0.69173E+05         0.00000E+00
    0.69173E+05         0.21196E+08         0.00000E+00
    0.00000E+00         0.00000E+00         0.89712E+07
 
    0.86187E+07         0.52849E+05         0.00000E+00
    0.52849E+05         0.21074E+08         0.00000E+00
    0.00000E+00         0.00000E+00         0.89078E+07
 
    0.85263E+07         0.36018E+05         0.00000E+00
    0.36018E+05         0.20953E+08         0.00000E+00
    0.00000E+00         0.00000E+00         0.88439E+07
 
    0.84314E+07         0.19298E+05         0.00000E+00
    0.19298E+05         0.20834E+08         0.00000E+00
    0.00000E+00         0.00000E+00         0.87795E+07
 
    0.83339E+07         0.36173E+04         0.00000E+00
    0.36173E+04         0.20716E+08         0.00000E+00
    0.00000E+00         0.00000E+00         0.87150E+07
 
    0.82342E+07        -0.97025E+04         0.00000E+00
   -0.97025E+04         0.20602E+08         0.00000E+00
    0.00000E+00         0.00000E+00         0.86508E+07
 
    0.81325E+07        -0.18902E+05         0.00000E+00
   -0.18902E+05         0.20492E+08         0.00000E+00
    0.00000E+00         0.00000E+00         0.85873E+07
 
    0.80284E+07        -0.22005E+05         0.00000E+00
   -0.22005E+05         0.20389E+08         0.00000E+00
    0.00000E+00         0.00000E+00         0.85253E+07
 
    0.79209E+07        -0.17686E+05         0.00000E+00
   -0.17686E+05         0.20299E+08         0.00000E+00
    0.00000E+00         0.00000E+00         0.84659E+07
 
    0.78078E+07        -0.67940E+04         0.00000E+00
   -0.67940E+04         0.20226E+08         0.00000E+00
    0.00000E+00         0.00000E+00         0.84101E+07
 
    0.13170E+08        -0.38167E+04         0.00000E+00
   -0.38167E+04         0.29464E+08         0.00000E+00
    0.00000E+00         0.00000E+00         0.12790E+08
 
    0.13104E+08        -0.97500E+04         0.00000E+00
   -0.97500E+04         0.29421E+08         0.00000E+00
    0.00000E+00         0.00000E+00         0.12758E+08
 
    0.13042E+08        -0.11600E+05         0.00000E+00
   -0.11600E+05         0.29368E+08         0.00000E+00
    0.00000E+00         0.00000E+00         0.12723E+08
 
    0.12982E+08        -0.89612E+04         0.00000E+00
   -0.89612E+04         0.29307E+08         0.00000E+00
    0.00000E+00         0.00000E+00         0.12687E+08
 
    0.12923E+08        -0.27467E+04         0.00000E+00
   -0.27467E+04         0.29243E+08         0.00000E+00
    0.00000E+00         0.00000E+00         0.12650E+08
 
    0.12866E+08         0.58233E+04         0.00000E+00
    0.58233E+04         0.29176E+08         0.00000E+00
    0.00000E+00         0.00000E+00         0.12612E+08
 
    0.12809E+08         0.15721E+05         0.00000E+00
    0.15721E+05         0.29107E+08         0.00000E+00
    0.00000E+00         0.00000E+00         0.12575E+08
 
    0.12754E+08         0.26194E+05         0.00000E+00
    0.26194E+05         0.29037E+08         0.00000E+00
    0.00000E+00         0.00000E+00         0.12537E+08
 
    0.12701E+08         0.36726E+05         0.00000E+00
    0.36726E+05         0.28966E+08         0.00000E+00
    0.00000E+00         0.00000E+00         0.12500E+08
 
    0.12649E+08         0.46973E+05         0.00000E+00
    0.46973E+05         0.28895E+08         0.00000E+00
    0.00000E+00         0.00000E+00         0.12463E+08
 
    0.12599E+08         0.56722E+05         0.00000E+00
    0.56722E+05         0.28823E+08         0.00000E+00
    0.00000E+00         0.00000E+00         0.12427E+08
 
    0.12551E+08         0.65856E+05         0.00000E+00
    0.65856E+05         0.28750E+08         0.00000E+00
    0.00000E+00         0.00000E+00         0.12390E+08
 
    0.12504E+08         0.74319E+05         0.00000E+00
    0.74319E+05         0.28678E+08         0.00000E+00
    0.00000E+00         0.00000E+00         0.12354E+08
 
    0.12458E+08         0.82105E+05         0.00000E+00
    0.82105E+05         0.28605E+08         0.00000E+00
    0.00000E+00         0.00000E+00         0.12319E+08
 
    0.12413E+08         0.89235E+05         0.00000E+00
    0.89235E+05         0.28532E+08         0.00000E+00
    0.00000E+00         0.00000E+00         0.12283E+08
 
    0.12370E+08         0.95747E+05         0.00000E+00
    0.95747E+05         0.28458E+08         0.00000E+00
    0.00000E+00         0.00000E+00         0.12248E+08
 
    0.12327E+08         0.10169E+06         0.00000E+00
    0.10169E+06         0.28385E+08         0.00000E+00
    0.00000E+00         0.00000E+00         0.12214E+08
 
    0.12286E+08         0.10712E+06         0.00000E+00
    0.10712E+06         0.28311E+08         0.00000E+00
    0.00000E+00         0.00000E+00         0.12179E+08
 
    0.12245E+08         0.11209E+06         0.00000E+00
    0.11209E+06         0.28237E+08         0.00000E+00
    0.00000E+00         0.00000E+00         0.12145E+08
 
    0.12205E+08         0.11665E+06         0.00000E+00
    0.11665E+06         0.28163E+08         0.00000E+00
    0.00000E+00         0.00000E+00         0.12110E+08
 
    0.12166E+08         0.12084E+06         0.00000E+00
    0.12084E+06         0.28088E+08         0.00000E+00
    0.00000E+00         0.00000E+00         0.12076E+08
 
    0.12127E+08         0.12472E+06         0.00000E+00
    0.12472E+06         0.28013E+08         0.00000E+00
    0.00000E+00         0.00000E+00         0.12042E+08
 
    0.12089E+08         0.12832E+06         0.00000E+00
    0.12832E+06         0.27937E+08         0.00000E+00
    0.00000E+00         0.00000E+00         0.12008E+08
 
    0.12051E+08         0.13167E+06         0.00000E+00
    0.13167E+06         0.27862E+08         0.00000E+00
    0.00000E+00         0.00000E+00         0.11974E+08
 
    0.12013E+08         0.13480E+06         0.00000E+00
    0.13480E+06         0.27785E+08         0.00000E+00
    0.00000E+00         0.00000E+00         0.11940E+08
 
    0.11976E+08         0.13775E+06         0.00000E+00
    0.13775E+06         0.27708E+08         0.00000E+00
    0.00000E+00         0.00000E+00         0.11905E+08
 
    0.11939E+08         0.14053E+06         0.00000E+00
    0.14053E+06         0.27631E+08         0.00000E+00
    0.00000E+00         0.00000E+00         0.11871E+08
 
    0.11902E+08         0.14316E+06         0.00000E+00
    0.14316E+06         0.27553E+08         0.00000E+00
    0.00000E+00         0.00000E+00         0.11837E+08
 
    0.11866E+08         0.14566E+06         0.00000E+00
    0.14566E+06         0.27475E+08         0.00000E+00
    0.00000E+00         0.00000E+00         0.11802E+08
 
    0.11829E+08         0.14804E+06         0.00000E+00
    0.14804E+06         0.27396E+08         0.00000E+00
    0.00000E+00         0.00000E+00         0.11768E+08
 
    0.11793E+08         0.15031E+06         0.00000E+00
    0.15031E+06         0.27317E+08         0.00000E+00
    0.00000E+00         0.00000E+00         0.11733E+08
 
    0.11756E+08         0.15250E+06         0.00000E+00
    0.15250E+06         0.27236E+08         0.00000E+00
    0.00000E+00         0.00000E+00         0.11698E+08
 
    0.11719E+08         0.15460E+06         0.00000E+00
    0.15460E+06         0.27156E+08         0.00000E+00
    0.00000E+00         0.00000E+00         0.11663E+08
 
    0.11683E+08         0.15662E+06         0.00000E+00
    0.15662E+06         0.27074E+08         0.00000E+00
    0.00000E+00         0.00000E+00         0.11627E+08
 
    0.11646E+08         0.15857E+06         0.00000E+00
    0.15857E+06         0.26992E+08         0.00000E+00
    0.00000E+00         0.00000E+00         0.11591E+08
 
    0.11609E+08         0.16046E+06         0.00000E+00
    0.16046E+06         0.26910E+08         0.00000E+00
    0.00000E+00         0.00000E+00         0.11556E+08
 
    0.11572E+08         0.16229E+06         0.00000E+00
    0.16229E+06         0.26826E+08         0.00000E+00
    0.00000E+00         0.00000E+00         0.11519E+08
 
    0.11535E+08         0.16406E+06         0.00000E+00
    0.16406E+06         0.26742E+08         0.00000E+00
    0.00000E+00         0.00000E+00         0.11483E+08
 
    0.11497E+08         0.16579E+06         0.00000E+00
    0.16579E+06         0.26657E+08         0.00000E+00
    0.00000E+00         0.00000E+00         0.11446E+08
 
    0.11459E+08         0.16746E+06         0.00000E+00
    0.16746E+06         0.26572E+08         0.00000E+00
    0.00000E+00         0.00000E+00         0.11409E+08
 
    0.11421E+08         0.16909E+06         0.00000E+00
    0.16909E+06         0.26486E+08         0.00000E+00
    0.00000E+00         0.00000E+00         0.11372E+08
 
    0.11383E+08         0.17068E+06         0.00000E+00
    0.17068E+06         0.26399E+08         0.00000E+00
    0.00000E+00         0.00000E+00         0.11334E+08
 
    0.11344E+08         0.17223E+06         0.00000E+00
    0.17223E+06         0.26311E+08         0.00000E+00
    0.00000E+00         0.00000E+00         0.11296E+08
 
    0.11305E+08         0.17373E+06         0.00000E+00
    0.17373E+06         0.26222E+08         0.00000E+00
    0.00000E+00         0.00000E+00         0.11258E+08
 
    0.11266E+08         0.17520E+06         0.00000E+00
    0.17520E+06         0.26133E+08         0.00000E+00
    0.00000E+00         0.00000E+00         0.11220E+08
 
    0.11226E+08         0.17662E+06         0.00000E+00
    0.17662E+06         0.26043E+08         0.00000E+00
    0.00000E+00         0.00000E+00         0.11181E+08
 
    0.11186E+08         0.17800E+06         0.00000E+00
    0.17800E+06         0.25952E+08         0.00000E+00
    0.00000E+00         0.00000E+00         0.11141E+08
 
    0.11146E+08         0.17934E+06         0.00000E+00
    0.17934E+06         0.25860E+08         0.00000E+00
    0.00000E+00         0.00000E+00         0.11102E+08
 
    0.11105E+08         0.18064E+06         0.00000E+00
    0.18064E+06         0.25768E+08         0.00000E+00
    0.00000E+00         0.00000E+00         0.11062E+08
 
    0.11064E+08         0.18189E+06         0.00000E+00
    0.18189E+06         0.25675E+08         0.00000E+00
    0.00000E+00         0.00000E+00         0.11022E+08
 
    0.11022E+08         0.18310E+06         0.00000E+00
    0.18310E+06         0.25581E+08         0.00000E+00
    0.00000E+00         0.00000E+00         0.10981E+08
 
    0.10980E+08         0.18425E+06         0.00000E+00
    0.18425E+06         0.25486E+08         0.00000E+00
    0.00000E+00         0.00000E+00         0.10940E+08
 
    0.10937E+08         0.18536E+06         0.00000E+00
    0.18536E+06         0.25390E+08         0.00000E+00
    0.00000E+00         0.00000E+00         0.10898E+08
 
    0.10894E+08         0.18641E+06         0.00000E+00
    0.18641E+06         0.25294E+08         0.00000E+00
    0.00000E+00         0.00000E+00         0.10856E+08
 
    0.10851E+08         0.18740E+06         0.00000E+00
    0.18740E+06         0.25196E+08         0.00000E+00
    0.00000E+00         0.00000E+00         0.10814E+08
 
    0.10807E+08         0.18833E+06         0.00000E+00
    0.18833E+06         0.25098E+08         0.00000E+00
    0.00000E+00         0.00000E+00         0.10771E+08
 
    0.10762E+08         0.18919E+06         0.00000E+00
    0.18919E+06         0.24999E+08         0.00000E+00
    0.00000E+00         0.00000E+00         0.10728E+08
 
    0.10717E+08         0.18998E+06         0.00000E+00
    0.18998E+06         0.24900E+08         0.00000E+00
    0.00000E+00         0.00000E+00         0.10685E+08
 
    0.10671E+08         0.19069E+06         0.00000E+00
    0.19069E+06         0.24799E+08         0.00000E+00
    0.00000E+00         0.00000E+00         0.10641E+08
 
    0.10625E+08         0.19132E+06         0.00000E+00
    0.19132E+06         0.24698E+08         0.00000E+00
    0.00000E+00         0.00000E+00         0.10597E+08
 
    0.10578E+08         0.19185E+06         0.00000E+00
    0.19185E+06         0.24596E+08         0.00000E+00
    0.00000E+00         0.00000E+00         0.10552E+08
 
    0.10531E+08         0.19229E+06         0.00000E+00
    0.19229E+06         0.24493E+08         0.00000E+00
    0.00000E+00         0.00000E+00         0.10507E+08
 
    0.10483E+08         0.19261E+06         0.00000E+00
    0.19261E+06         0.24389E+08         0.00000E+00
    0.00000E+00         0.00000E+00         0.10461E+08
 
    0.10434E+08         0.19283E+06         0.00000E+00
    0.19283E+06         0.24285E+08         0.00000E+00
    0.00000E+00         0.00000E+00         0.10416E+08
 
    0.10384E+08         0.19291E+06         0.00000E+00
    0.19291E+06         0.24179E+08         0.00000E+00
    0.00000E+00         0.00000E+00         0.10369E+08
 
    0.10334E+08         0.19286E+06         0.00000E+00
    0.19286E+06         0.24073E+08         0.00000E+00
    0.00000E+00         0.00000E+00         0.10322E+08
 
    0.10284E+08         0.19266E+06         0.00000E+00
    0.19266E+06         0.23967E+08         0.00000E+00
    0.00000E+00         0.00000E+00         0.10275E+08
 
    0.10232E+08         0.19229E+06         0.00000E+00
    0.19229E+06         0.23859E+08         0.00000E+00
    0.00000E+00         0.00000E+00         0.10227E+08
 
    0.10180E+08         0.19175E+06         0.00000E+00
    0.19175E+06         0.23751E+08         0.00000E+00
    0.00000E+00         0.00000E+00         0.10179E+08
 
    0.10126E+08         0.19102E+06         0.00000E+00
    0.19102E+06         0.23642E+08         0.00000E+00
    0.00000E+00         0.00000E+00         0.10130E+08
 
    0.10072E+08         0.19007E+06         0.00000E+00
    0.19007E+06         0.23532E+08         0.00000E+00
    0.00000E+00         0.00000E+00         0.10081E+08
 
    0.10017E+08         0.18889E+06         0.00000E+00
    0.18889E+06         0.23422E+08         0.00000E+00
    0.00000E+00         0.00000E+00         0.10032E+08
 
    0.99614E+07         0.18745E+06         0.00000E+00
    0.18745E+06         0.23310E+08         0.00000E+00
    0.00000E+00         0.00000E+00         0.99815E+07
 
    0.99045E+07         0.18573E+06         0.00000E+00
    0.18573E+06         0.23199E+08         0.00000E+00
    0.00000E+00         0.00000E+00         0.99309E+07
 
    0.98464E+07         0.18369E+06         0.00000E+00
    0.18369E+06         0.23086E+08         0.00000E+00
    0.00000E+00         0.00000E+00         0.98797E+07
 
    0.97873E+07         0.18130E+06         0.00000E+00
    0.18130E+06         0.22973E+08         0.00000E+00
    0.00000E+00         0.00000E+00         0.98280E+07
 
    0.97269E+07         0.17853E+06         0.00000E+00
    0.17853E+06         0.22859E+08         0.00000E+00
    0.00000E+00         0.00000E+00         0.97757E+07
 
    0.96653E+07         0.17532E+06         0.00000E+00
    0.17532E+06         0.22744E+08         0.00000E+00
    0.00000E+00         0.00000E+00         0.97229E+07
 
    0.96022E+07         0.17163E+06         0.00000E+00
    0.17163E+06         0.22629E+08         0.00000E+00
    0.00000E+00         0.00000E+00         0.96694E+07
 
    0.95377E+07         0.16738E+06         0.00000E+00
    0.16738E+06         0.22513E+08         0.00000E+00
    0.00000E+00         0.00000E+00         0.96153E+07
 
    0.94717E+07         0.16253E+06         0.00000E+00
    0.16253E+06         0.22397E+08         0.00000E+00
    0.00000E+00         0.00000E+00         0.95605E+07
 
    0.94040E+07         0.15699E+06         0.00000E+00
    0.15699E+06         0.22279E+08         0.00000E+00
    0.00000E+00         0.00000E+00         0.95050E+07
 
    0.93344E+07         0.15068E+06         0.00000E+00
    0.15068E+06         0.22162E+08         0.00000E+00
    0.00000E+00         0.00000E+00         0.94488E+07
 
    0.92630E+07         0.14352E+06         0.00000E+00
    0.14352E+06         0.22043E+08         0.00000E+00
    0.00000E+00         0.00000E+00         0.93918E+07
 
    0.91896E+07         0.13541E+06         0.00000E+00
    0.13541E+06         0.21924E+08         0.00000E+00
    0.00000E+00         0.00000E+00         0.93340E+07
 
    0.91140E+07         0.12626E+06         0.00000E+00
    0.12626E+06         0.21804E+08         0.00000E+00
    0.00000E+00         0.00000E+00         0.92754E+07
 
    0.90361E+07         0.11600E+06         0.00000E+00
    0.11600E+06         0.21684E+08         0.00000E+00
    0.00000E+00         0.00000E+00         0.92160E+07
 
    0.89558E+07         0.10456E+06         0.00000E+00
    0.10456E+06         0.21563E+08         0.00000E+00
    0.00000E+00         0.00000E+00         0.91556E+07
 
    0.88729E+07         0.91904E+05         0.00000E+00
    0.91904E+05         0.21442E+08         0.00000E+00
    0.00000E+00         0.00000E+00         0.90944E+07
 
    0.87874E+07         0.78057E+05         0.00000E+00
    0.78057E+05         0.21320E+08         0.00000E+00
    0.00000E+00         0.00000E+00         0.90323E+07
 
    0.86991E+07         0.63115E+05         0.00000E+00
    0.63115E+05         0.21199E+08         0.00000E+00
    0.00000E+00         0.00000E+00         0.89693E+07
 
    0.86080E+07         0.47292E+05         0.00000E+00
    0.47292E+05         0.21077E+08         0.00000E+00
    0.00000E+00         0.00000E+00         0.89056E+07
 
    0.85141E+07         0.30963E+05         0.00000E+00
    0.30963E+05         0.20957E+08         0.00000E+00
    0.00000E+00         0.00000E+00         0.88412E+07
 
    0.84175E+07         0.14727E+05         0.00000E+00
    0.14727E+05         0.20837E+08         0.00000E+00
    0.00000E+00         0.00000E+00         0.87764E+07
 
    0.83183E+07        -0.50992E+03         0.00000E+00
   -0.50992E+03         0.20719E+08         0.00000E+00
    0.00000E+00         0.00000E+00         0.87112E+07
 
    0.82169E+07        -0.13443E+05         0.00000E+00
   -0.13443E+05         0.20604E+08         0.00000E+00
    0.00000E+00         0.00000E+00         0.86463E+07
 
    0.81137E+07        -0.22289E+05         0.00000E+00
   -0.22289E+05         0.20493E+08         0.00000E+00
    0.00000E+00         0.00000E+00         0.85820E+07
 
    0.80086E+07        -0.24932E+05         0.00000E+00
   -0.24932E+05         0.20389E+08         0.00000E+00
    0.00000E+00         0.00000E+00         0.85193E+07
 
    0.79005E+07        -0.19796E+05         0.00000E+00
   -0.19796E+05         0.20297E+08         0.00000E+00
    0.00000E+00         0.00000E+00         0.84593E+07
 
    0.77872E+07        -0.75818E+04         0.00000E+00
   -0.75818E+04         0.20223E+08         0.00000E+00
    0.00000E+00         0.00000E+00         0.84031E+07
 
    0.13182E+08        -0.42932E+04         0.00000E+00
   -0.42932E+04         0.29465E+08         0.00000E+00
    0.00000E+00         0.00000E+00         0.12794E+08
 
    0.13117E+08        -0.11011E+05         0.00000E+00
   -0.11011E+05         0.29422E+08         0.00000E+00
    0.00000E+00         0.00000E+00         0.12762E+08
 
    0.13055E+08        -0.13323E+05         0.00000E+00
   -0.13323E+05         0.29368E+08         0.00000E+00
    0.00000E+00         0.00000E+00         0.12727E+08
 
    0.12994E+08        -0.10942E+05         0.00000E+00
   -0.10942E+05         0.29307E+08         0.00000E+00
    0.00000E+00         0.00000E+00         0.12690E+08
 
    0.12934E+08        -0.49509E+04         0.00000E+00
   -0.49509E+04         0.29242E+08         0.00000E+00
    0.00000E+00         0.00000E+00         0.12653E+08
 
    0.12875E+08         0.33527E+04         0.00000E+00
    0.33527E+04         0.29174E+08         0.00000E+00
    0.00000E+00         0.00000E+00         0.12615E+08
 
    0.12818E+08         0.12934E+05         0.00000E+00
    0.12934E+05         0.29105E+08         0.00000E+00
    0.00000E+00         0.00000E+00         0.12577E+08
 
    0.12762E+08         0.23059E+05         0.00000E+00
    0.23059E+05         0.29035E+08         0.00000E+00
    0.00000E+00         0.00000E+00         0.12539E+08
 
    0.12708E+08         0.33225E+05         0.00000E+00
    0.33225E+05         0.28964E+08         0.00000E+00
    0.00000E+00         0.00000E+00         0.12502E+08
 
    0.12656E+08         0.43104E+05         0.00000E+00
    0.43104E+05         0.28893E+08         0.00000E+00
    0.00000E+00         0.00000E+00         0.12464E+08
 
    0.12605E+08         0.52492E+05         0.00000E+00
    0.52492E+05         0.28821E+08         0.00000E+00
    0.00000E+00         0.00000E+00         0.12428E+08
 
    0.12556E+08         0.61274E+05         0.00000E+00
    0.61274E+05         0.28749E+08         0.00000E+00
    0.00000E+00         0.00000E+00         0.12391E+08
 
    0.12508E+08         0.69400E+05         0.00000E+00
    0.69400E+05         0.28676E+08         0.00000E+00
    0.00000E+00         0.00000E+00         0.12355E+08
 
    0.12462E+08         0.76865E+05         0.00000E+00
    0.76865E+05         0.28603E+08         0.00000E+00
    0.00000E+00         0.00000E+00         0.12319E+08
 
    0.12417E+08         0.83690E+05         0.00000E+00
    0.83690E+05         0.28530E+08         0.00000E+00
    0.00000E+00         0.00000E+00         0.12284E+08
 
    0.12373E+08         0.89914E+05         0.00000E+00
    0.89914E+05         0.28457E+08         0.00000E+00
    0.00000E+00         0.00000E+00         0.12249E+08
 
    0.12330E+08         0.95588E+05         0.00000E+00
    0.95588E+05         0.28384E+08         0.00000E+00
    0.00000E+00         0.00000E+00         0.12214E+08
 
    0.12288E+08         0.10076E+06         0.00000E+00
    0.10076E+06         0.28310E+08         0.00000E+00
    0.00000E+00         0.00000E+00         0.12180E+08
 
    0.12248E+08         0.10549E+06         0.00000E+00
    0.10549E+06         0.28236E+08         0.00000E+00
    0.00000E+00         0.00000E+00         0.12145E+08
 
    0.12207E+08         0.10982E+06         0.00000E+00
    0.10982E+06         0.28162E+08         0.00000E+00
    0.00000E+00         0.00000E+00         0.12111E+08
 
    0.12168E+08         0.11381E+06         0.00000E+00
    0.11381E+06         0.28087E+08         0.00000E+00
    0.00000E+00         0.00000E+00         0.12077E+08
 
    0.12129E+08         0.11749E+06         0.00000E+00
    0.11749E+06         0.28012E+08         0.00000E+00
    0.00000E+00         0.00000E+00         0.12042E+08
 
    0.12091E+08         0.12090E+06         0.00000E+00
    0.12090E+06         0.27937E+08         0.00000E+00
    0.00000E+00         0.00000E+00         0.12008E+08
 
    0.12053E+08         0.12407E+06         0.00000E+00
    0.12407E+06         0.27861E+08         0.00000E+00
    0.00000E+00         0.00000E+00         0.11974E+08
 
    0.12015E+08         0.12704E+06         0.00000E+00
    0.12704E+06         0.27785E+08         0.00000E+00
    0.00000E+00         0.00000E+00         0.11940E+08
 
    0.11978E+08         0.12983E+06         0.00000E+00
    0.12983E+06         0.27708E+08         0.00000E+00
    0.00000E+00         0.00000E+00         0.11906E+08
 
    0.11941E+08         0.13245E+06         0.00000E+00
    0.13245E+06         0.27631E+08         0.00000E+00
    0.00000E+00         0.00000E+00         0.11872E+08
 
    0.11904E+08         0.13494E+06         0.00000E+00
    0.13494E+06         0.27553E+08         0.00000E+00
    0.00000E+00         0.00000E+00         0.11837E+08
 
    0.11868E+08         0.13730E+06         0.00000E+00
    0.13730E+06         0.27475E+08         0.00000E+00
    0.00000E+00         0.00000E+00         0.11803E+08
 
    0.11831E+08         0.13955E+06         0.00000E+00
    0.13955E+06         0.27396E+08         0.00000E+00
    0.00000E+00         0.00000E+00         0.11768E+08
 
    0.11794E+08         0.14170E+06         0.00000E+00
    0.14170E+06         0.27316E+08         0.00000E+00
    0.00000E+00         0.00000E+00         0.11733E+08
 
    0.11758E+08         0.14376E+06         0.00000E+00
    0.14376E+06         0.27236E+08         0.00000E+00
    0.00000E+00         0.00000E+00         0.11698E+08
 
    0.11721E+08         0.14574E+06         0.00000E+00
    0.14574E+06         0.27155E+08         0.00000E+00
    0.00000E+00         0.00000E+00         0.11663E+08
 
    0.11684E+08         0.14765E+06         0.00000E+00
    0.14765E+06         0.27074E+08         0.00000E+00
    0.00000E+00         0.00000E+00         0.11628E+08
 
    0.11648E+08         0.14950E+06         0.00000E+00
    0.14950E+06         0.26992E+08         0.00000E+00
    0.00000E+00         0.00000E+00         0.11592E+08
 
    0.11611E+08         0.15128E+06         0.00000E+00
    0.15128E+06         0.26909E+08         0.00000E+00
    0.00000E+00         0.00000E+00         0.11556E+08
 
    0.11573E+08         0.15300E+06         0.00000E+00
    0.15300E+06         0.26826E+08         0.00000E+00
    0.00000E+00         0.00000E+00         0.11520E+08
 
    0.11536E+08         0.15468E+06         0.00000E+00
    0.15468E+06         0.26742E+08         0.00000E+00
    0.00000E+00         0.00000E+00         0.11483E+08
 
    0.11499E+08         0.15630E+06         0.00000E+00
    0.15630E+06         0.26657E+08         0.00000E+00
    0.00000E+00         0.00000E+00         0.11447E+08
 
    0.11461E+08         0.15789E+06         0.00000E+00
    0.15789E+06         0.26572E+08         0.00000E+00
    0.00000E+00         0.00000E+00         0.11410E+08
 
    0.11423E+08         0.15942E+06         0.00000E+00
    0.15942E+06         0.26485E+08         0.00000E+00
    0.00000E+00         0.00000E+00         0.11372E+08
 
    0.11384E+08         0.16092E+06         0.00000E+00
    0.16092E+06         0.26398E+08         0.00000E+00
    0.00000E+00         0.00000E+00         0.11335E+08
 
    0.11346E+08         0.16238E+06         0.00000E+00
    0.16238E+06         0.26311E+08         0.00000E+00
    0.00000E+00         0.00000E+00         0.11297E+08
 
    0.11307E+08         0.16379E+06         0.00000E+00
    0.16379E+06         0.26222E+08         0.00000E+00
    0.00000E+00         0.00000E+00         0.11259E+08
 
    0.11267E+08         0.16517E+06         0.00000E+00
    0.16517E+06         0.26133E+08         0.00000E+00
    0.00000E+00         0.00000E+00         0.11220E+08
 
    0.11228E+08         0.16651E+06         0.00000E+00
    0.16651E+06         0.26043E+08         0.00000E+00
    0.00000E+00         0.00000E+00         0.11181E+08
 
    0.11188E+08         0.16781E+06         0.00000E+00
    0.16781E+06         0.25952E+08         0.00000E+00
    0.00000E+00         0.00000E+00         0.11142E+08
 
    0.11147E+08         0.16907E+06         0.00000E+00
    0.16907E+06         0.25860E+08         0.00000E+00
    0.00000E+00         0.00000E+00         0.11102E+08
 
    0.11106E+08         0.17029E+06         0.00000E+00
    0.17029E+06         0.25768E+08         0.00000E+00
    0.00000E+00         0.00000E+00         0.11062E+08
 
    0.11065E+08         0.17147E+06         0.00000E+00
    0.17147E+06         0.25674E+08         0.00000E+00
    0.00000E+00         0.00000E+00         0.11022E+08
 
    0.11023E+08         0.17261E+06         0.00000E+00
    0.17261E+06         0.25580E+08         0.00000E+00
    0.00000E+00         0.00000E+00         0.10981E+08
 
    0.10981E+08         0.17370E+06         0.00000E+00
    0.17370E+06         0.25486E+08         0.00000E+00
    0.00000E+00         0.00000E+00         0.10940E+08
 
    0.10939E+08         0.17473E+06         0.00000E+00
    0.17473E+06         0.25390E+08         0.00000E+00
    0.00000E+00         0.00000E+00         0.10899E+08
 
    0.10896E+08         0.17572E+06         0.00000E+00
    0.17572E+06         0.25293E+08         0.00000E+00
    0.00000E+00         0.00000E+00         0.10857E+08
 
    0.10852E+08         0.17665E+06         0.00000E+00
    0.17665E+06         0.25196E+08         0.00000E+00
    0.00000E+00         0.00000E+00         0.10814E+08
 
    0.10808E+08         0.17752E+06         0.00000E+00
    0.17752E+06         0.25098E+08         0.00000E+00
    0.00000E+00         0.00000E+00         0.10772E+08
 
    0.10763E+08         0.17833E+06         0.00000E+00
    0.17833E+06         0.24999E+08         0.00000E+00
    0.00000E+00         0.00000E+00         0.10729E+08
 
    0.10718E+08         0.17907E+06         0.00000E+00
    0.17907E+06         0.24900E+08         0.00000E+00
    0.00000E+00         0.00000E+00         0.10685E+08
 
    0.10672E+08         0.17973E+06         0.00000E+00
    0.17973E+06         0.24799E+08         0.00000E+00
    0.00000E+00         0.00000E+00         0.10641E+08
 
    0.10626E+08         0.18032E+06         0.00000E+00
    0.18032E+06         0.24698E+08         0.00000E+00
    0.00000E+00         0.00000E+00         0.10597E+08
 
    0.10579E+08         0.18082E+06         0.00000E+00
    0.18082E+06         0.24596E+08         0.00000E+00
    0.00000E+00         0.00000E+00         0.10552E+08
 
    0.10532E+08         0.18122E+06         0.00000E+00
    0.18122E+06         0.24493E+08         0.00000E+00
    0.00000E+00         0.00000E+00         0.10507E+08
 
    0.10483E+08         0.18152E+06         0.00000E+00
    0.18152E+06         0.24389E+08         0.00000E+00
    0.00000E+00         0.00000E+00         0.10462E+08
 
    0.10435E+08         0.18171E+06         0.00000E+00
    0.18171E+06         0.24285E+08         0.00000E+00
    0.00000E+00         0.00000E+00         0.10416E+08
 
    0.10385E+08         0.18179E+06         0.00000E+00
    0.18179E+06         0.24179E+08         0.00000E+00
    0.00000E+00         0.00000E+00         0.10369E+08
 
    0.10335E+08         0.18173E+06         0.00000E+00
    0.18173E+06         0.24073E+08         0.00000E+00
    0.00000E+00         0.00000E+00         0.10323E+08
 
    0.10284E+08         0.18153E+06         0.00000E+00
    0.18153E+06         0.23967E+08         0.00000E+00
    0.00000E+00         0.00000E+00         0.10275E+08
 
    0.10232E+08         0.18118E+06         0.00000E+00
    0.18118E+06         0.23859E+08         0.00000E+00
    0.00000E+00         0.00000E+00         0.10227E+08
 
    0.10180E+08         0.18066E+06         0.00000E+00
    0.18066E+06         0.23751E+08         0.00000E+00
    0.00000E+00         0.00000E+00         0.10179E+08
 
    0.10127E+08         0.17995E+06         0.00000E+00
    0.17995E+06         0.23642E+08         0.00000E+00
    0.00000E+00         0.00000E+00         0.10131E+08
 
    0.10073E+08         0.17905E+06         0.00000E+00
    0.17905E+06         0.23532E+08         0.00000E+00
    0.00000E+00         0.00000E+00         0.10081E+08
 
    0.10017E+08         0.17792E+06         0.00000E+00
    0.17792E+06         0.23422E+08         0.00000E+00
    0.00000E+00         0.00000E+00         0.10032E+08
 
    0.99613E+07         0.17655E+06         0.00000E+00
    0.17655E+06         0.23311E+08         0.00000E+00
    0.00000E+00         0.00000E+00         0.99816E+07
 
    0.99042E+07         0.17491E+06         0.00000E+00
    0.17491E+06         0.23199E+08         0.00000E+00
    0.00000E+00         0.00000E+00         0.99309E+07
 
    0.98460E+07         0.17297E+06         0.00000E+00
    0.17297E+06         0.23086E+08         0.00000E+00
    0.00000E+00         0.00000E+00         0.98797E+07
 
    0.97867E+07         0.17071E+06         0.00000E+00
    0.17071E+06         0.22973E+08         0.00000E+00
    0.00000E+00         0.00000E+00         0.98280E+07
 
    0.97261E+07         0.16807E+06         0.00000E+00
    0.16807E+06         0.22859E+08         0.00000E+00
    0.00000E+00         0.00000E+00         0.97757E+07
 
    0.96642E+07         0.16501E+06         0.00000E+00
    0.16501E+06         0.22745E+08         0.00000E+00
    0.00000E+00         0.00000E+00         0.97228E+07
 
    0.96010E+07         0.16149E+06         0.00000E+00
    0.16149E+06         0.22630E+08         0.00000E+00
    0.00000E+00         0.00000E+00         0.96692E+07
 
    0.95362E+07         0.15745E+06         0.00000E+00
    0.15745E+06         0.22514E+08         0.00000E+00
    0.00000E+00         0.00000E+00         0.96151E+07
 
    0.94698E+07         0.15283E+06         0.00000E+00
    0.15283E+06         0.22398E+08         0.00000E+00
    0.00000E+00         0.00000E+00         0.95602E+07
 
    0.94018E+07         0.14754E+06         0.00000E+00
    0.14754E+06         0.22281E+08         0.00000E+00
    0.00000E+00         0.00000E+00         0.95047E+07
 
    0.93318E+07         0.14151E+06         0.00000E+00
    0.14151E+06         0.22163E+08         0.00000E+00
    0.00000E+00         0.00000E+00         0.94484E+07
 
    0.92600E+07         0.13466E+06         0.00000E+00
    0.13466E+06         0.22045E+08         0.00000E+00
    0.00000E+00         0.00000E+00         0.93914E+07
 
    0.91860E+07         0.12690E+06         0.00000E+00
    0.12690E+06         0.21926E+08         0.00000E+00
    0.00000E+00         0.00000E+00         0.93335E+07
 
    0.91098E+07         0.11813E+06         0.00000E+00
    0.11813E+06         0.21806E+08         0.00000E+00
    0.00000E+00         0.00000E+00         0.92747E+07
 
    0.90312E+07         0.10827E+06         0.00000E+00
    0.10827E+06         0.21686E+08         0.00000E+00
    0.00000E+00         0.00000E+00         0.92151E+07
 
    0.89500E+07         0.97274E+05         0.00000E+00
    0.97274E+05         0.21565E+08         0.00000E+00
    0.00000E+00         0.00000E+00         0.91546E+07
 
    0.88662E+07         0.85091E+05         0.00000E+00
    0.85091E+05         0.21444E+08         0.00000E+00
    0.00000E+00         0.00000E+00         0.90932E+07
 
    0.87796E+07         0.71744E+05         0.00000E+00
    0.71744E+05         0.21323E+08         0.00000E+00
    0.00000E+00         0.00000E+00         0.90308E+07
 
    0.86901E+07         0.57323E+05         0.00000E+00
    0.57323E+05         0.21202E+08         0.00000E+00
    0.00000E+00         0.00000E+00         0.89675E+07
 
    0.85976E+07         0.42034E+05         0.00000E+00
    0.42034E+05         0.21081E+08         0.00000E+00
    0.00000E+00         0.00000E+00         0.89034E+07
 
    0.85021E+07         0.26236E+05         0.00000E+00
    0.26236E+05         0.20960E+08         0.00000E+00
    0.00000E+00         0.00000E+00         0.88386E+07
 
    0.84037E+07         0.10506E+05         0.00000E+00
    0.10506E+05         0.20840E+08         0.00000E+00
    0.00000E+00         0.00000E+00         0.87732E+07
 
    0.83028E+07        -0.42814E+04         0.00000E+00
   -0.42814E+04         0.20722E+08         0.00000E+00
    0.00000E+00         0.00000E+00         0.87074E+07
 
    0.81996E+07        -0.16848E+05         0.00000E+00
   -0.16848E+05         0.20606E+08         0.00000E+00
    0.00000E+00         0.00000E+00         0.86417E+07
 
    0.80948E+07        -0.25401E+05         0.00000E+00
   -0.25401E+05         0.20494E+08         0.00000E+00
    0.00000E+00         0.00000E+00         0.85767E+07
 
    0.79884E+07        -0.27689E+05         0.00000E+00
   -0.27689E+05         0.20389E+08         0.00000E+00
    0.00000E+00         0.00000E+00         0.85132E+07
 
    0.78797E+07        -0.21843E+05         0.00000E+00
   -0.21843E+05         0.20295E+08         0.00000E+00
    0.00000E+00         0.00000E+00         0.84525E+07
 
    0.77663E+07        -0.83615E+04         0.00000E+00
   -0.83615E+04         0.20220E+08         0.00000E+00
    0.00000E+00         0.00000E+00         0.83959E+07
 
    0.13195E+08        -0.47657E+04         0.00000E+00
   -0.47657E+04         0.29467E+08         0.00000E+00
    0.00000E+00         0.00000E+00         0.12799E+08
 
    0.13130E+08        -0.12233E+05         0.00000E+00
   -0.12233E+05         0.29423E+08         0.00000E+00
    0.00000E+00         0.00000E+00         0.12766E+08
 
    0.13067E+08        -0.14938E+05         0.00000E+00
   -0.14938E+05         0.29368E+08         0.00000E+00
    0.00000E+00         0.00000E+00         0.12730E+08
 
    0.13006E+08        -0.12754E+05         0.00000E+00
   -0.12754E+05         0.29306E+08         0.00000E+00
    0.00000E+00         0.00000E+00         0.12693E+08
 
    0.12945E+08        -0.69536E+04         0.00000E+00
   -0.69536E+04         0.29240E+08         0.00000E+00
    0.00000E+00         0.00000E+00         0.12655E+08
 
    0.12885E+08         0.10902E+04         0.00000E+00
    0.10902E+04         0.29172E+08         0.00000E+00
    0.00000E+00         0.00000E+00         0.12617E+08
 
    0.12827E+08         0.10348E+05         0.00000E+00
    0.10348E+05         0.29103E+08         0.00000E+00
    0.00000E+00         0.00000E+00         0.12579E+08
 
    0.12770E+08         0.20108E+05         0.00000E+00
    0.20108E+05         0.29033E+08         0.00000E+00
    0.00000E+00         0.00000E+00         0.12541E+08
 
    0.12715E+08         0.29891E+05         0.00000E+00
    0.29891E+05         0.28962E+08         0.00000E+00
    0.00000E+00         0.00000E+00         0.12503E+08
 
    0.12662E+08         0.39382E+05         0.00000E+00
    0.39382E+05         0.28891E+08         0.00000E+00
    0.00000E+00         0.00000E+00         0.12466E+08
 
    0.12610E+08         0.48388E+05         0.00000E+00
    0.48388E+05         0.28819E+08         0.00000E+00
    0.00000E+00         0.00000E+00         0.12429E+08
 
    0.12560E+08         0.56800E+05         0.00000E+00
    0.56800E+05         0.28747E+08         0.00000E+00
    0.00000E+00         0.00000E+00         0.12392E+08
 
    0.12512E+08         0.64573E+05         0.00000E+00
    0.64573E+05         0.28674E+08         0.00000E+00
    0.00000E+00         0.00000E+00         0.12356E+08
 
    0.12465E+08         0.71702E+05         0.00000E+00
    0.71702E+05         0.28602E+08         0.00000E+00
    0.00000E+00         0.00000E+00         0.12320E+08
 
    0.12420E+08         0.78210E+05         0.00000E+00
    0.78210E+05         0.28529E+08         0.00000E+00
    0.00000E+00         0.00000E+00         0.12285E+08
 
    0.12376E+08         0.84137E+05         0.00000E+00
    0.84137E+05         0.28456E+08         0.00000E+00
    0.00000E+00         0.00000E+00         0.12250E+08
 
    0.12333E+08         0.89530E+05         0.00000E+00
    0.89530E+05         0.28383E+08         0.00000E+00
    0.00000E+00         0.00000E+00         0.12215E+08
 
    0.12291E+08         0.94442E+05         0.00000E+00
    0.94442E+05         0.28309E+08         0.00000E+00
    0.00000E+00         0.00000E+00         0.12180E+08
 
    0.12250E+08         0.98925E+05         0.00000E+00
    0.98925E+05         0.28235E+08         0.00000E+00
    0.00000E+00         0.00000E+00         0.12146E+08
 
    0.12210E+08         0.10303E+06         0.00000E+00
    0.10303E+06         0.28161E+08         0.00000E+00
    0.00000E+00         0.00000E+00         0.12111E+08
 
    0.12170E+08         0.10680E+06         0.00000E+00
    0.10680E+06         0.28086E+08         0.00000E+00
    0.00000E+00         0.00000E+00         0.12077E+08
 
    0.12131E+08         0.11027E+06         0.00000E+00
    0.11027E+06         0.28011E+08         0.00000E+00
    0.00000E+00         0.00000E+00         0.12043E+08
 
    0.12093E+08         0.11349E+06         0.00000E+00
    0.11349E+06         0.27936E+08         0.00000E+00
    0.00000E+00         0.00000E+00         0.12009E+08
 
    0.12055E+08         0.11649E+06         0.00000E+00
    0.11649E+06         0.27860E+08         0.00000E+00
    0.00000E+00         0.00000E+00         0.11975E+08
 
    0.12017E+08         0.11929E+06         0.00000E+00
    0.11929E+06         0.27784E+08         0.00000E+00
    0.00000E+00         0.00000E+00         0.11940E+08
 
    0.11980E+08         0.12191E+06         0.00000E+00
    0.12191E+06         0.27707E+08         0.00000E+00
    0.00000E+00         0.00000E+00         0.11906E+08
 
    0.11943E+08         0.12439E+06         0.00000E+00
    0.12439E+06         0.27630E+08         0.00000E+00
    0.00000E+00         0.00000E+00         0.11872E+08
 
    0.11906E+08         0.12673E+06         0.00000E+00
    0.12673E+06         0.27552E+08         0.00000E+00
    0.00000E+00         0.00000E+00         0.11838E+08
 
    0.11869E+08         0.12895E+06         0.00000E+00
    0.12895E+06         0.27474E+08         0.00000E+00
    0.00000E+00         0.00000E+00         0.11803E+08
 
    0.11833E+08         0.13107E+06         0.00000E+00
    0.13107E+06         0.27395E+08         0.00000E+00
    0.00000E+00         0.00000E+00         0.11768E+08
 
    0.11796E+08         0.13309E+06         0.00000E+00
    0.13309E+06         0.27316E+08         0.00000E+00
    0.00000E+00         0.00000E+00         0.11734E+08
 
    0.11759E+08         0.13503E+06         0.00000E+00
    0.13503E+06         0.27236E+08         0.00000E+00
    0.00000E+00         0.00000E+00         0.11699E+08
 
    0.11723E+08         0.13690E+06         0.00000E+00
    0.13690E+06         0.27155E+08         0.00000E+00
    0.00000E+00         0.00000E+00         0.11663E+08
 
    0.11686E+08         0.13869E+06         0.00000E+00
    0.13869E+06         0.27074E+08         0.00000E+00
    0.00000E+00         0.00000E+00         0.11628E+08
 
    0.11649E+08         0.14043E+06         0.00000E+00
    0.14043E+06         0.26992E+08         0.00000E+00
    0.00000E+00         0.00000E+00         0.11592E+08
 
    0.11612E+08         0.14210E+06         0.00000E+00
    0.14210E+06         0.26909E+08         0.00000E+00
    0.00000E+00         0.00000E+00         0.11556E+08
 
    0.11575E+08         0.14372E+06         0.00000E+00
    0.14372E+06         0.26826E+08         0.00000E+00
    0.00000E+00         0.00000E+00         0.11520E+08
 
    0.11538E+08         0.14530E+06         0.00000E+00
    0.14530E+06         0.26741E+08         0.00000E+00
    0.00000E+00         0.00000E+00         0.11484E+08
 
    0.11500E+08         0.14682E+06         0.00000E+00
    0.14682E+06         0.26657E+08         0.00000E+00
    0.00000E+00         0.00000E+00         0.11447E+08
 
    0.11462E+08         0.14831E+06         0.00000E+00
    0.14831E+06         0.26571E+08         0.00000E+00
    0.00000E+00         0.00000E+00         0.11410E+08
 
    0.11424E+08         0.14975E+06         0.00000E+00
    0.14975E+06         0.26485E+08         0.00000E+00
    0.00000E+00         0.00000E+00         0.11373E+08
 
    0.11386E+08         0.15116E+06         0.00000E+00
    0.15116E+06         0.26398E+08         0.00000E+00
    0.00000E+00         0.00000E+00         0.11335E+08
 
    0.11347E+08         0.15253E+06         0.00000E+00
    0.15253E+06         0.26310E+08         0.00000E+00
    0.00000E+00         0.00000E+00         0.11297E+08
 
    0.11308E+08         0.15386E+06         0.00000E+00
    0.15386E+06         0.26222E+08         0.00000E+00
    0.00000E+00         0.00000E+00         0.11259E+08
 
    0.11269E+08         0.15515E+06         0.00000E+00
    0.15515E+06         0.26132E+08         0.00000E+00
    0.00000E+00         0.00000E+00         0.11220E+08
 
    0.11229E+08         0.15641E+06         0.00000E+00
    0.15641E+06         0.26042E+08         0.00000E+00
    0.00000E+00         0.00000E+00         0.11181E+08
 
    0.11189E+08         0.15763E+06         0.00000E+00
    0.15763E+06         0.25952E+08         0.00000E+00
    0.00000E+00         0.00000E+00         0.11142E+08
 
    0.11149E+08         0.15881E+06         0.00000E+00
    0.15881E+06         0.25860E+08         0.00000E+00
    0.00000E+00         0.00000E+00         0.11103E+08
 
    0.11108E+08         0.15996E+06         0.00000E+00
    0.15996E+06         0.25767E+08         0.00000E+00
    0.00000E+00         0.00000E+00         0.11063E+08
 
    0.11067E+08         0.16106E+06         0.00000E+00
    0.16106E+06         0.25674E+08         0.00000E+00
    0.00000E+00         0.00000E+00         0.11022E+08
 
    0.11025E+08         0.16212E+06         0.00000E+00
    0.16212E+06         0.25580E+08         0.00000E+00
    0.00000E+00         0.00000E+00         0.10982E+08
 
    0.10983E+08         0.16314E+06         0.00000E+00
    0.16314E+06         0.25485E+08         0.00000E+00
    0.00000E+00         0.00000E+00         0.10940E+08
 
    0.10940E+08         0.16411E+06         0.00000E+00
    0.16411E+06         0.25390E+08         0.00000E+00
    0.00000E+00         0.00000E+00         0.10899E+08
 
    0.10897E+08         0.16504E+06         0.00000E+00
    0.16504E+06         0.25293E+08         0.00000E+00
    0.00000E+00         0.00000E+00         0.10857E+08
 
    0.10853E+08         0.16591E+06         0.00000E+00
    0.16591E+06         0.25196E+08         0.00000E+00
    0.00000E+00         0.00000E+00         0.10815E+08
 
    0.10809E+08         0.16672E+06         0.00000E+00
    0.16672E+06         0.25098E+08         0.00000E+00
    0.00000E+00         0.00000E+00         0.10772E+08
 
    0.10764E+08         0.16748E+06         0.00000E+00
    0.16748E+06         0.24999E+08         0.00000E+00
    0.00000E+00         0.00000E+00         0.10729E+08
 
    0.10719E+08         0.16817E+06         0.00000E+00
    0.16817E+06         0.24899E+08         0.00000E+00
    0.00000E+00         0.00000E+00         0.10686E+08
 
    0.10673E+08         0.16879E+06         0.00000E+00
    0.16879E+06         0.24799E+08         0.00000E+00
    0.00000E+00         0.00000E+00         0.10642E+08
 
    0.10627E+08         0.16933E+06         0.00000E+00
    0.16933E+06         0.24698E+08         0.00000E+00
    0.00000E+00         0.00000E+00         0.10597E+08
 
    0.10580E+08         0.16979E+06         0.00000E+00
    0.16979E+06         0.24596E+08         0.00000E+00
    0.00000E+00         0.00000E+00         0.10553E+08
 
    0.10533E+08         0.17017E+06         0.00000E+00
    0.17017E+06         0.24493E+08         0.00000E+00
    0.00000E+00         0.00000E+00         0.10508E+08
 
    0.10484E+08         0.17044E+06         0.00000E+00
    0.17044E+06         0.24389E+08         0.00000E+00
    0.00000E+00         0.00000E+00         0.10462E+08
 
    0.10436E+08         0.17062E+06         0.00000E+00
    0.17062E+06         0.24285E+08         0.00000E+00
    0.00000E+00         0.00000E+00         0.10416E+08
 
    0.10386E+08         0.17068E+06         0.00000E+00
    0.17068E+06         0.24179E+08         0.00000E+00
    0.00000E+00         0.00000E+00         0.10370E+08
 
    0.10336E+08         0.17062E+06         0.00000E+00
    0.17062E+06         0.24073E+08         0.00000E+00
    0.00000E+00         0.00000E+00         0.10323E+08
 
    0.10285E+08         0.17042E+06         0.00000E+00
    0.17042E+06         0.23967E+08         0.00000E+00
    0.00000E+00         0.00000E+00         0.10275E+08
 
    0.10233E+08         0.17008E+06         0.00000E+00
    0.17008E+06         0.23859E+08         0.00000E+00
    0.00000E+00         0.00000E+00         0.10228E+08
 
    0.10180E+08         0.16958E+06         0.00000E+00
    0.16958E+06         0.23751E+08         0.00000E+00
    0.00000E+00         0.00000E+00         0.10179E+08
 
    0.10127E+08         0.16891E+06         0.00000E+00
    0.16891E+06         0.23642E+08         0.00000E+00
    0.00000E+00         0.00000E+00         0.10131E+08
 
    0.10073E+08         0.16805E+06         0.00000E+00
    0.16805E+06         0.23532E+08         0.00000E+00
    0.00000E+00         0.00000E+00         0.10082E+08
 
    0.10018E+08         0.16698E+06         0.00000E+00
    0.16698E+06         0.23422E+08         0.00000E+00
    0.00000E+00         0.00000E+00         0.10032E+08
 
    0.99613E+07         0.16568E+06         0.00000E+00
    0.16568E+06         0.23311E+08         0.00000E+00
    0.00000E+00         0.00000E+00         0.99817E+07
 
    0.99040E+07         0.16413E+06         0.00000E+00
    0.16413E+06         0.23199E+08         0.00000E+00
    0.00000E+00         0.00000E+00         0.99310E+07
 
    0.98457E+07         0.16229E+06         0.00000E+00
    0.16229E+06         0.23087E+08         0.00000E+00
    0.00000E+00         0.00000E+00         0.98798E+07
 
    0.97862E+07         0.16014E+06         0.00000E+00
    0.16014E+06         0.22974E+08         0.00000E+00
    0.00000E+00         0.00000E+00         0.98280E+07
 
    0.97254E+07         0.15764E+06         0.00000E+00
    0.15764E+06         0.22860E+08         0.00000E+00
    0.00000E+00         0.00000E+00         0.97756E+07
 
    0.96633E+07         0.15475E+06         0.00000E+00
    0.15475E+06         0.22746E+08         0.00000E+00
    0.00000E+00         0.00000E+00         0.97227E+07
 
    0.95998E+07         0.15141E+06         0.00000E+00
    0.15141E+06         0.22631E+08         0.00000E+00
    0.00000E+00         0.00000E+00         0.96691E+07
 
    0.95348E+07         0.14758E+06         0.00000E+00
    0.14758E+06         0.22515E+08         0.00000E+00
    0.00000E+00         0.00000E+00         0.96149E+07
 
    0.94681E+07         0.14319E+06         0.00000E+00
    0.14319E+06         0.22399E+08         0.00000E+00
    0.00000E+00         0.00000E+00         0.95600E+07
 
    0.93997E+07         0.13816E+06         0.00000E+00
    0.13816E+06         0.22282E+08         0.00000E+00
    0.00000E+00         0.00000E+00         0.95044E+07
 
    0.93294E+07         0.13243E+06         0.00000E+00
    0.13243E+06         0.22164E+08         0.00000E+00
    0.00000E+00         0.00000E+00         0.94481E+07
 
    0.92571E+07         0.12590E+06         0.00000E+00
    0.12590E+06         0.22046E+08         0.00000E+00
    0.00000E+00         0.00000E+00         0.93909E+07
 
    0.91826E+07         0.11850E+06         0.00000E+00
    0.11850E+06         0.21927E+08         0.00000E+00
    0.00000E+00         0.00000E+00         0.93329E+07
 
    0.91058E+07         0.11012E+06         0.00000E+00
    0.11012E+06         0.21808E+08         0.00000E+00
    0.00000E+00         0.00000E+00         0.92741E+07
 
    0.90265E+07         0.10070E+06         0.00000E+00
    0.10070E+06         0.21688E+08         0.00000E+00
    0.00000E+00         0.00000E+00         0.92143E+07
 
    0.89445E+07         0.90165E+05         0.00000E+00
    0.90165E+05         0.21568E+08         0.00000E+00
    0.00000E+00         0.00000E+00         0.91536E+07
 
    0.88598E+07         0.78483E+05         0.00000E+00
    0.78483E+05         0.21447E+08         0.00000E+00
    0.00000E+00         0.00000E+00         0.90920E+07
 
    0.87720E+07         0.65665E+05         0.00000E+00
    0.65665E+05         0.21326E+08         0.00000E+00
    0.00000E+00         0.00000E+00         0.90294E+07
 
    0.86812E+07         0.51800E+05         0.00000E+00
    0.51800E+05         0.21205E+08         0.00000E+00
    0.00000E+00         0.00000E+00         0.89658E+07
 
    0.85873E+07         0.37077E+05         0.00000E+00
    0.37077E+05         0.21084E+08         0.00000E+00
    0.00000E+00         0.00000E+00         0.89013E+07
 
    0.84902E+07         0.21841E+05         0.00000E+00
    0.21841E+05         0.20963E+08         0.00000E+00
    0.00000E+00         0.00000E+00         0.88360E+07
 
    0.83901E+07         0.66423E+04         0.00000E+00
    0.66423E+04         0.20843E+08         0.00000E+00
    0.00000E+00         0.00000E+00         0.87700E+07
 
    0.82873E+07        -0.76819E+04         0.00000E+00
   -0.76819E+04         0.20725E+08         0.00000E+00
    0.00000E+00         0.00000E+00         0.87036E+07
 
    0.81823E+07        -0.19895E+05         0.00000E+00
   -0.19895E+05         0.20608E+08         0.00000E+00
    0.00000E+00         0.00000E+00         0.86372E+07
 
    0.80757E+07        -0.28212E+05         0.00000E+00
   -0.28212E+05         0.20495E+08         0.00000E+00
    0.00000E+00         0.00000E+00         0.85713E+07
 
    0.79681E+07        -0.30254E+05         0.00000E+00
   -0.30254E+05         0.20389E+08         0.00000E+00
    0.00000E+00         0.00000E+00         0.85070E+07
 
    0.78586E+07        -0.23819E+05         0.00000E+00
   -0.23819E+05         0.20293E+08         0.00000E+00
    0.00000E+00         0.00000E+00         0.84455E+07
 
    0.77450E+07        -0.91329E+04         0.00000E+00
   -0.91329E+04         0.20216E+08         0.00000E+00
    0.00000E+00         0.00000E+00         0.83884E+07
 
    0.13209E+08        -0.52338E+04         0.00000E+00
   -0.52338E+04         0.29469E+08         0.00000E+00
    0.00000E+00         0.00000E+00         0.12803E+08
 
    0.13143E+08        -0.13409E+05         0.00000E+00
   -0.13409E+05         0.29424E+08         0.00000E+00
    0.00000E+00         0.00000E+00         0.12770E+08
 
    0.13080E+08        -0.16431E+05         0.00000E+00
   -0.16431E+05         0.29368E+08         0.00000E+00
    0.00000E+00         0.00000E+00         0.12734E+08
 
    0.13017E+08        -0.14378E+05         0.00000E+00
   -0.14378E+05         0.29305E+08         0.00000E+00
    0.00000E+00         0.00000E+00         0.12697E+08
 
    0.12956E+08        -0.87409E+04         0.00000E+00
   -0.87409E+04         0.29239E+08         0.00000E+00
    0.00000E+00         0.00000E+00         0.12658E+08
 
    0.12895E+08        -0.95487E+03         0.00000E+00
   -0.95487E+03         0.29171E+08         0.00000E+00
    0.00000E+00         0.00000E+00         0.12620E+08
 
    0.12835E+08         0.79672E+04         0.00000E+00
    0.79672E+04         0.29101E+08         0.00000E+00
    0.00000E+00         0.00000E+00         0.12581E+08
 
    0.12777E+08         0.17345E+05         0.00000E+00
    0.17345E+05         0.29031E+08         0.00000E+00
    0.00000E+00         0.00000E+00         0.12543E+08
 
    0.12721E+08         0.26724E+05         0.00000E+00
    0.26724E+05         0.28960E+08         0.00000E+00
    0.00000E+00         0.00000E+00         0.12505E+08
 
    0.12667E+08         0.35806E+05         0.00000E+00
    0.35806E+05         0.28889E+08         0.00000E+00
    0.00000E+00         0.00000E+00         0.12467E+08
 
    0.12615E+08         0.44410E+05         0.00000E+00
    0.44410E+05         0.28817E+08         0.00000E+00
    0.00000E+00         0.00000E+00         0.12430E+08
 
    0.12565E+08         0.52434E+05         0.00000E+00
    0.52434E+05         0.28745E+08         0.00000E+00
    0.00000E+00         0.00000E+00         0.12393E+08
 
    0.12516E+08         0.59837E+05         0.00000E+00
    0.59837E+05         0.28673E+08         0.00000E+00
    0.00000E+00         0.00000E+00         0.12357E+08
 
    0.12469E+08         0.66616E+05         0.00000E+00
    0.66616E+05         0.28601E+08         0.00000E+00
    0.00000E+00         0.00000E+00         0.12321E+08
 
    0.12423E+08         0.72794E+05         0.00000E+00
    0.72794E+05         0.28528E+08         0.00000E+00
    0.00000E+00         0.00000E+00         0.12285E+08
 
    0.12379E+08         0.78412E+05         0.00000E+00
    0.78412E+05         0.28455E+08         0.00000E+00
    0.00000E+00         0.00000E+00         0.12250E+08
 
    0.12336E+08         0.83517E+05         0.00000E+00
    0.83517E+05         0.28382E+08         0.00000E+00
    0.00000E+00         0.00000E+00         0.12215E+08
 
    0.12294E+08         0.88159E+05         0.00000E+00
    0.88159E+05         0.28308E+08         0.00000E+00
    0.00000E+00         0.00000E+00         0.12181E+08
 
    0.12253E+08         0.92391E+05         0.00000E+00
    0.92391E+05         0.28234E+08         0.00000E+00
    0.00000E+00         0.00000E+00         0.12146E+08
 
    0.12212E+08         0.96259E+05         0.00000E+00
    0.96259E+05         0.28160E+08         0.00000E+00
    0.00000E+00         0.00000E+00         0.12112E+08
 
    0.12172E+08         0.99808E+05         0.00000E+00
    0.99808E+05         0.28086E+08         0.00000E+00
    0.00000E+00         0.00000E+00         0.12077E+08
 
    0.12133E+08         0.10308E+06         0.00000E+00
    0.10308E+06         0.28011E+08         0.00000E+00
    0.00000E+00         0.00000E+00         0.12043E+08
 
    0.12095E+08         0.10610E+06         0.00000E+00
    0.10610E+06         0.27935E+08         0.00000E+00
    0.00000E+00         0.00000E+00         0.12009E+08
 
    0.12057E+08         0.10892E+06         0.00000E+00
    0.10892E+06         0.27860E+08         0.00000E+00
    0.00000E+00         0.00000E+00         0.11975E+08
 
    0.12019E+08         0.11154E+06         0.00000E+00
    0.11154E+06         0.27784E+08         0.00000E+00
    0.00000E+00         0.00000E+00         0.11941E+08
 
    0.11982E+08         0.11401E+06         0.00000E+00
    0.11401E+06         0.27707E+08         0.00000E+00
    0.00000E+00         0.00000E+00         0.11907E+08
 
    0.11945E+08         0.11633E+06         0.00000E+00
    0.11633E+06         0.27630E+08         0.00000E+00
    0.00000E+00         0.00000E+00         0.11872E+08
 
    0.11908E+08         0.11853E+06         0.00000E+00
    0.11853E+06         0.27552E+08         0.00000E+00
    0.00000E+00         0.00000E+00         0.11838E+08
 
    0.11871E+08         0.12061E+06         0.00000E+00
    0.12061E+06         0.27474E+08         0.00000E+00
    0.00000E+00         0.00000E+00         0.11803E+08
 
    0.11834E+08         0.12260E+06         0.00000E+00
    0.12260E+06         0.27395E+08         0.00000E+00
    0.00000E+00         0.00000E+00         0.11769E+08
 
    0.11798E+08         0.12449E+06         0.00000E+00
    0.12449E+06         0.27315E+08         0.00000E+00
    0.00000E+00         0.00000E+00         0.11734E+08
 
    0.11761E+08         0.12631E+06         0.00000E+00
    0.12631E+06         0.27235E+08         0.00000E+00
    0.00000E+00         0.00000E+00         0.11699E+08
 
    0.11724E+08         0.12805E+06         0.00000E+00
    0.12805E+06         0.27155E+08         0.00000E+00
    0.00000E+00         0.00000E+00         0.11664E+08
 
    0.11688E+08         0.12974E+06         0.00000E+00
    0.12974E+06         0.27073E+08         0.00000E+00
    0.00000E+00         0.00000E+00         0.11628E+08
 
    0.11651E+08         0.13136E+06         0.00000E+00
    0.13136E+06         0.26991E+08         0.00000E+00
    0.00000E+00         0.00000E+00         0.11593E+08
 
    0.11614E+08         0.13293E+06         0.00000E+00
    0.13293E+06         0.26909E+08         0.00000E+00
    0.00000E+00         0.00000E+00         0.11557E+08
 
    0.11577E+08         0.13444E+06         0.00000E+00
    0.13444E+06         0.26825E+08         0.00000E+00
    0.00000E+00         0.00000E+00         0.11521E+08
 
    0.11539E+08         0.13592E+06         0.00000E+00
    0.13592E+06         0.26741E+08         0.00000E+00
    0.00000E+00         0.00000E+00         0.11484E+08
 
    0.11502E+08         0.13735E+06         0.00000E+00
    0.13735E+06         0.26656E+08         0.00000E+00
    0.00000E+00         0.00000E+00         0.11447E+08
 
    0.11464E+08         0.13874E+06         0.00000E+00
    0.13874E+06         0.26571E+08         0.00000E+00
    0.00000E+00         0.00000E+00         0.11410E+08
 
    0.11426E+08         0.14009E+06         0.00000E+00
    0.14009E+06         0.26485E+08         0.00000E+00
    0.00000E+00         0.00000E+00         0.11373E+08
 
    0.11387E+08         0.14140E+06         0.00000E+00
    0.14140E+06         0.26398E+08         0.00000E+00
    0.00000E+00         0.00000E+00         0.11336E+08
 
    0.11349E+08         0.14268E+06         0.00000E+00
    0.14268E+06         0.26310E+08         0.00000E+00
    0.00000E+00         0.00000E+00         0.11298E+08
 
    0.11310E+08         0.14392E+06         0.00000E+00
    0.14392E+06         0.26221E+08         0.00000E+00
    0.00000E+00         0.00000E+00         0.11259E+08
 
    0.11270E+08         0.14513E+06         0.00000E+00
    0.14513E+06         0.26132E+08         0.00000E+00
    0.00000E+00         0.00000E+00         0.11221E+08
 
    0.11231E+08         0.14631E+06         0.00000E+00
    0.14631E+06         0.26042E+08         0.00000E+00
    0.00000E+00         0.00000E+00         0.11182E+08
 
    0.11191E+08         0.14745E+06         0.00000E+00
    0.14745E+06         0.25951E+08         0.00000E+00
    0.00000E+00         0.00000E+00         0.11143E+08
 
    0.11150E+08         0.14855E+06         0.00000E+00
    0.14855E+06         0.25860E+08         0.00000E+00
    0.00000E+00         0.00000E+00         0.11103E+08
 
    0.11109E+08         0.14962E+06         0.00000E+00
    0.14962E+06         0.25767E+08         0.00000E+00
    0.00000E+00         0.00000E+00         0.11063E+08
 
    0.11068E+08         0.15065E+06         0.00000E+00
    0.15065E+06         0.25674E+08         0.00000E+00
    0.00000E+00         0.00000E+00         0.11023E+08
 
    0.11026E+08         0.15164E+06         0.00000E+00
    0.15164E+06         0.25580E+08         0.00000E+00
    0.00000E+00         0.00000E+00         0.10982E+08
 
    0.10984E+08         0.15259E+06         0.00000E+00
    0.15259E+06         0.25485E+08         0.00000E+00
    0.00000E+00         0.00000E+00         0.10941E+08
 
    0.10941E+08         0.15350E+06         0.00000E+00
    0.15350E+06         0.25390E+08         0.00000E+00
    0.00000E+00         0.00000E+00         0.10899E+08
 
    0.10898E+08         0.15436E+06         0.00000E+00
    0.15436E+06         0.25293E+08         0.00000E+00
    0.00000E+00         0.00000E+00         0.10857E+08
 
    0.10855E+08         0.15517E+06         0.00000E+00
    0.15517E+06         0.25196E+08         0.00000E+00
    0.00000E+00         0.00000E+00         0.10815E+08
 
    0.10810E+08         0.15593E+06         0.00000E+00
    0.15593E+06         0.25098E+08         0.00000E+00
    0.00000E+00         0.00000E+00         0.10772E+08
 
    0.10766E+08         0.15663E+06         0.00000E+00
    0.15663E+06         0.24999E+08         0.00000E+00
    0.00000E+00         0.00000E+00         0.10729E+08
 
    0.10720E+08         0.15727E+06         0.00000E+00
    0.15727E+06         0.24899E+08         0.00000E+00
    0.00000E+00         0.00000E+00         0.10686E+08
 
    0.10675E+08         0.15785E+06         0.00000E+00
    0.15785E+06         0.24799E+08         0.00000E+00
    0.00000E+00         0.00000E+00         0.10642E+08
 
    0.10628E+08         0.15835E+06         0.00000E+00
    0.15835E+06         0.24698E+08         0.00000E+00
    0.00000E+00         0.00000E+00         0.10598E+08
 
    0.10581E+08         0.15878E+06         0.00000E+00
    0.15878E+06         0.24595E+08         0.00000E+00
    0.00000E+00         0.00000E+00         0.10553E+08
 
    0.10534E+08         0.15912E+06         0.00000E+00
    0.15912E+06         0.24493E+08         0.00000E+00
    0.00000E+00         0.00000E+00         0.10508E+08
 
    0.10485E+08         0.15938E+06         0.00000E+00
    0.15938E+06         0.24389E+08         0.00000E+00
    0.00000E+00         0.00000E+00         0.10462E+08
 
    0.10436E+08         0.15953E+06         0.00000E+00
    0.15953E+06         0.24285E+08         0.00000E+00
    0.00000E+00         0.00000E+00         0.10416E+08
 
    0.10387E+08         0.15958E+06         0.00000E+00
    0.15958E+06         0.24179E+08         0.00000E+00
    0.00000E+00         0.00000E+00         0.10370E+08
 
    0.10336E+08         0.15952E+06         0.00000E+00
    0.15952E+06         0.24073E+08         0.00000E+00
    0.00000E+00         0.00000E+00         0.10323E+08
 
    0.10285E+08         0.15933E+06         0.00000E+00
    0.15933E+06         0.23967E+08         0.00000E+00
    0.00000E+00         0.00000E+00         0.10276E+08
 
    0.10234E+08         0.15900E+06         0.00000E+00
    0.15900E+06         0.23859E+08         0.00000E+00
    0.00000E+00         0.00000E+00         0.10228E+08
 
    0.10181E+08         0.15853E+06         0.00000E+00
    0.15853E+06         0.23751E+08         0.00000E+00
    0.00000E+00         0.00000E+00         0.10180E+08
 
    0.10127E+08         0.15789E+06         0.00000E+00
    0.15789E+06         0.23642E+08         0.00000E+00
    0.00000E+00         0.00000E+00         0.10131E+08
 
    0.10073E+08         0.15708E+06         0.00000E+00
    0.15708E+06         0.23533E+08         0.00000E+00
    0.00000E+00         0.00000E+00         0.10082E+08
 
    0.10018E+08         0.15607E+06         0.00000E+00
    0.15607E+06         0.23422E+08         0.00000E+00
    0.00000E+00         0.00000E+00         0.10032E+08
 
    0.99613E+07         0.15484E+06         0.00000E+00
    0.15484E+06         0.23311E+08         0.00000E+00
    0.00000E+00         0.00000E+00         0.99818E+07
 
    0.99039E+07         0.15338E+06         0.00000E+00
    0.15338E+06         0.23200E+08         0.00000E+00
    0.00000E+00         0.00000E+00         0.99310E+07
 
    0.98454E+07         0.15164E+06         0.00000E+00
    0.15164E+06         0.23087E+08         0.00000E+00
    0.00000E+00         0.00000E+00         0.98798E+07
 
    0.97857E+07         0.14962E+06         0.00000E+00
    0.14962E+06         0.22974E+08         0.00000E+00
    0.00000E+00         0.00000E+00         0.98280E+07
 
    0.97248E+07         0.14726E+06         0.00000E+00
    0.14726E+06         0.22861E+08         0.00000E+00
    0.00000E+00         0.00000E+00         0.97756E+07
 
    0.96625E+07         0.14453E+06         0.00000E+00
    0.14453E+06         0.22746E+08         0.00000E+00
    0.00000E+00         0.00000E+00         0.97226E+07
 
    0.95987E+07         0.14138E+06         0.00000E+00
    0.14138E+06         0.22631E+08         0.00000E+00
    0.00000E+00         0.00000E+00         0.96690E+07
 
    0.95334E+07         0.13776E+06         0.00000E+00
    0.13776E+06         0.22516E+08         0.00000E+00
    0.00000E+00         0.00000E+00         0.96148E+07
 
    0.94665E+07         0.13361E+06         0.00000E+00
    0.13361E+06         0.22400E+08         0.00000E+00
    0.00000E+00         0.00000E+00         0.95598E+07
 
    0.93978E+07         0.12886E+06         0.00000E+00
    0.12886E+06         0.22283E+08         0.00000E+00
    0.00000E+00         0.00000E+00         0.95041E+07
 
    0.93271E+07         0.12343E+06         0.00000E+00
    0.12343E+06         0.22165E+08         0.00000E+00
    0.00000E+00         0.00000E+00         0.94477E+07
 
    0.92543E+07         0.11724E+06         0.00000E+00
    0.11724E+06         0.22047E+08         0.00000E+00
    0.00000E+00         0.00000E+00         0.93905E+07
 
    0.91793E+07         0.11021E+06         0.00000E+00
    0.11021E+06         0.21929E+08         0.00000E+00
    0.00000E+00         0.00000E+00         0.93324E+07
 
    0.91019E+07         0.10224E+06         0.00000E+00
    0.10224E+06         0.21810E+08         0.00000E+00
    0.00000E+00         0.00000E+00         0.92735E+07
 
    0.90220E+07         0.93275E+05         0.00000E+00
    0.93275E+05         0.21690E+08         0.00000E+00
    0.00000E+00         0.00000E+00         0.92136E+07
 
    0.89392E+07         0.83231E+05         0.00000E+00
    0.83231E+05         0.21570E+08         0.00000E+00
    0.00000E+00         0.00000E+00         0.91527E+07
 
    0.88535E+07         0.72077E+05         0.00000E+00
    0.72077E+05         0.21449E+08         0.00000E+00
    0.00000E+00         0.00000E+00         0.90908E+07
 
    0.87647E+07         0.59822E+05         0.00000E+00
    0.59822E+05         0.21328E+08         0.00000E+00
    0.00000E+00         0.00000E+00         0.90279E+07
 
    0.86726E+07         0.46545E+05         0.00000E+00
    0.46545E+05         0.21207E+08         0.00000E+00
    0.00000E+00         0.00000E+00         0.89640E+07
 
    0.85773E+07         0.32426E+05         0.00000E+00
    0.32426E+05         0.21087E+08         0.00000E+00
    0.00000E+00         0.00000E+00         0.88992E+07
 
    0.84786E+07         0.17787E+05         0.00000E+00
    0.17787E+05         0.20966E+08         0.00000E+00
    0.00000E+00         0.00000E+00         0.88334E+07
 
    0.83767E+07         0.31481E+04         0.00000E+00
    0.31481E+04         0.20846E+08         0.00000E+00
    0.00000E+00         0.00000E+00         0.87669E+07
 
    0.82719E+07        -0.10695E+05         0.00000E+00
   -0.10695E+05         0.20727E+08         0.00000E+00
    0.00000E+00         0.00000E+00         0.86998E+07
 
    0.81649E+07        -0.22560E+05         0.00000E+00
   -0.22560E+05         0.20610E+08         0.00000E+00
    0.00000E+00         0.00000E+00         0.86326E+07
 
    0.80565E+07        -0.30691E+05         0.00000E+00
   -0.30691E+05         0.20497E+08         0.00000E+00
    0.00000E+00         0.00000E+00         0.85659E+07
 
    0.79473E+07        -0.32600E+05         0.00000E+00
   -0.32600E+05         0.20388E+08         0.00000E+00
    0.00000E+00         0.00000E+00         0.85007E+07
 
    0.78371E+07        -0.25714E+05         0.00000E+00
   -0.25714E+05         0.20291E+08         0.00000E+00
    0.00000E+00         0.00000E+00         0.84384E+07
 
    0.77232E+07        -0.98957E+04         0.00000E+00
   -0.98957E+04         0.20213E+08         0.00000E+00
    0.00000E+00         0.00000E+00         0.83808E+07
 
    0.13222E+08        -0.56972E+04         0.00000E+00
   -0.56972E+04         0.29471E+08         0.00000E+00
    0.00000E+00         0.00000E+00         0.12808E+08
 
    0.13156E+08        -0.14532E+05         0.00000E+00
   -0.14532E+05         0.29425E+08         0.00000E+00
    0.00000E+00         0.00000E+00         0.12774E+08
 
    0.13093E+08        -0.17781E+05         0.00000E+00
   -0.17781E+05         0.29368E+08         0.00000E+00
    0.00000E+00         0.00000E+00         0.12738E+08
 
    0.13029E+08        -0.15795E+05         0.00000E+00
   -0.15795E+05         0.29304E+08         0.00000E+00
    0.00000E+00         0.00000E+00         0.12700E+08
 
    0.12966E+08        -0.10298E+05         0.00000E+00
   -0.10298E+05         0.29237E+08         0.00000E+00
    0.00000E+00         0.00000E+00         0.12661E+08
 
    0.12904E+08        -0.27728E+04         0.00000E+00
   -0.27728E+04         0.29169E+08         0.00000E+00
    0.00000E+00         0.00000E+00         0.12622E+08
 
    0.12844E+08         0.57987E+04         0.00000E+00
    0.57987E+04         0.29100E+08         0.00000E+00
    0.00000E+00         0.00000E+00         0.12583E+08
 
    0.12785E+08         0.14774E+05         0.00000E+00
    0.14774E+05         0.29029E+08         0.00000E+00
    0.00000E+00         0.00000E+00         0.12544E+08
 
    0.12728E+08         0.23726E+05         0.00000E+00
    0.23726E+05         0.28959E+08         0.00000E+00
    0.00000E+00         0.00000E+00         0.12506E+08
 
    0.12673E+08         0.32377E+05         0.00000E+00
    0.32377E+05         0.28887E+08         0.00000E+00
    0.00000E+00         0.00000E+00         0.12468E+08
 
    0.12620E+08         0.40557E+05         0.00000E+00
    0.40557E+05         0.28816E+08         0.00000E+00
    0.00000E+00         0.00000E+00         0.12431E+08
 
    0.12569E+08         0.48175E+05         0.00000E+00
    0.48175E+05         0.28744E+08         0.00000E+00
    0.00000E+00         0.00000E+00         0.12394E+08
 
    0.12520E+08         0.55190E+05         0.00000E+00
    0.55190E+05         0.28672E+08         0.00000E+00
    0.00000E+00         0.00000E+00         0.12358E+08
 
    0.12473E+08         0.61604E+05         0.00000E+00
    0.61604E+05         0.28599E+08         0.00000E+00
    0.00000E+00         0.00000E+00         0.12322E+08
 
    0.12427E+08         0.67440E+05         0.00000E+00
    0.67440E+05         0.28527E+08         0.00000E+00
    0.00000E+00         0.00000E+00         0.12286E+08
 
    0.12382E+08         0.72739E+05         0.00000E+00
    0.72739E+05         0.28454E+08         0.00000E+00
    0.00000E+00         0.00000E+00         0.12251E+08
 
    0.12339E+08         0.77546E+05         0.00000E+00
    0.77546E+05         0.28381E+08         0.00000E+00
    0.00000E+00         0.00000E+00         0.12216E+08
 
    0.12296E+08         0.81912E+05         0.00000E+00
    0.81912E+05         0.28307E+08         0.00000E+00
    0.00000E+00         0.00000E+00         0.12181E+08
 
    0.12255E+08         0.85885E+05         0.00000E+00
    0.85885E+05         0.28233E+08         0.00000E+00
    0.00000E+00         0.00000E+00         0.12147E+08
 
    0.12214E+08         0.89513E+05         0.00000E+00
    0.89513E+05         0.28159E+08         0.00000E+00
    0.00000E+00         0.00000E+00         0.12112E+08
 
    0.12175E+08         0.92839E+05         0.00000E+00
    0.92839E+05         0.28085E+08         0.00000E+00
    0.00000E+00         0.00000E+00         0.12078E+08
 
    0.12135E+08         0.95900E+05         0.00000E+00
    0.95900E+05         0.28010E+08         0.00000E+00
    0.00000E+00         0.00000E+00         0.12044E+08
 
    0.12097E+08         0.98730E+05         0.00000E+00
    0.98730E+05         0.27935E+08         0.00000E+00
    0.00000E+00         0.00000E+00         0.12010E+08
 
    0.12059E+08         0.10136E+06         0.00000E+00
    0.10136E+06         0.27859E+08         0.00000E+00
    0.00000E+00         0.00000E+00         0.11975E+08
 
    0.12021E+08         0.10381E+06         0.00000E+00
    0.10381E+06         0.27783E+08         0.00000E+00
    0.00000E+00         0.00000E+00         0.11941E+08
 
    0.11984E+08         0.10612E+06         0.00000E+00
    0.10612E+06         0.27706E+08         0.00000E+00
    0.00000E+00         0.00000E+00         0.11907E+08
 
    0.11946E+08         0.10828E+06         0.00000E+00
    0.10828E+06         0.27629E+08         0.00000E+00
    0.00000E+00         0.00000E+00         0.11873E+08
 
    0.11910E+08         0.11033E+06         0.00000E+00
    0.11033E+06         0.27552E+08         0.00000E+00
    0.00000E+00         0.00000E+00         0.11838E+08
 
    0.11873E+08         0.11227E+06         0.00000E+00
    0.11227E+06         0.27473E+08         0.00000E+00
    0.00000E+00         0.00000E+00         0.11804E+08
 
    0.11836E+08         0.11413E+06         0.00000E+00
    0.11413E+06         0.27394E+08         0.00000E+00
    0.00000E+00         0.00000E+00         0.11769E+08
 
    0.11799E+08         0.11589E+06         0.00000E+00
    0.11589E+06         0.27315E+08         0.00000E+00
    0.00000E+00         0.00000E+00         0.11734E+08
 
    0.11763E+08         0.11759E+06         0.00000E+00
    0.11759E+06         0.27235E+08         0.00000E+00
    0.00000E+00         0.00000E+00         0.11699E+08
 
    0.11726E+08         0.11921E+06         0.00000E+00
    0.11921E+06         0.27154E+08         0.00000E+00
    0.00000E+00         0.00000E+00         0.11664E+08
 
    0.11689E+08         0.12078E+06         0.00000E+00
    0.12078E+06         0.27073E+08         0.00000E+00
    0.00000E+00         0.00000E+00         0.11629E+08
 
    0.11652E+08         0.12229E+06         0.00000E+00
    0.12229E+06         0.26991E+08         0.00000E+00
    0.00000E+00         0.00000E+00         0.11593E+08
 
    0.11615E+08         0.12375E+06         0.00000E+00
    0.12375E+06         0.26908E+08         0.00000E+00
    0.00000E+00         0.00000E+00         0.11557E+08
 
    0.11578E+08         0.12517E+06         0.00000E+00
    0.12517E+06         0.26825E+08         0.00000E+00
    0.00000E+00         0.00000E+00         0.11521E+08
 
    0.11541E+08         0.12654E+06         0.00000E+00
    0.12654E+06         0.26741E+08         0.00000E+00
    0.00000E+00         0.00000E+00         0.11485E+08
 
    0.11503E+08         0.12787E+06         0.00000E+00
    0.12787E+06         0.26656E+08         0.00000E+00
    0.00000E+00         0.00000E+00         0.11448E+08
 
    0.11465E+08         0.12916E+06         0.00000E+00
    0.12916E+06         0.26571E+08         0.00000E+00
    0.00000E+00         0.00000E+00         0.11411E+08
 
    0.11427E+08         0.13042E+06         0.00000E+00
    0.13042E+06         0.26484E+08         0.00000E+00
    0.00000E+00         0.00000E+00         0.11374E+08
 
    0.11389E+08         0.13164E+06         0.00000E+00
    0.13164E+06         0.26397E+08         0.00000E+00
    0.00000E+00         0.00000E+00         0.11336E+08
 
    0.11350E+08         0.13283E+06         0.00000E+00
    0.13283E+06         0.26310E+08         0.00000E+00
    0.00000E+00         0.00000E+00         0.11298E+08
 
    0.11311E+08         0.13399E+06         0.00000E+00
    0.13399E+06         0.26221E+08         0.00000E+00
    0.00000E+00         0.00000E+00         0.11260E+08
 
    0.11272E+08         0.13511E+06         0.00000E+00
    0.13511E+06         0.26132E+08         0.00000E+00
    0.00000E+00         0.00000E+00         0.11221E+08
 
    0.11232E+08         0.13621E+06         0.00000E+00
    0.13621E+06         0.26042E+08         0.00000E+00
    0.00000E+00         0.00000E+00         0.11182E+08
 
    0.11192E+08         0.13727E+06         0.00000E+00
    0.13727E+06         0.25951E+08         0.00000E+00
    0.00000E+00         0.00000E+00         0.11143E+08
 
    0.11152E+08         0.13829E+06         0.00000E+00
    0.13829E+06         0.25859E+08         0.00000E+00
    0.00000E+00         0.00000E+00         0.11103E+08
 
    0.11111E+08         0.13929E+06         0.00000E+00
    0.13929E+06         0.25767E+08         0.00000E+00
    0.00000E+00         0.00000E+00         0.11063E+08
 
    0.11069E+08         0.14024E+06         0.00000E+00
    0.14024E+06         0.25674E+08         0.00000E+00
    0.00000E+00         0.00000E+00         0.11023E+08
 
    0.11028E+08         0.14117E+06         0.00000E+00
    0.14117E+06         0.25580E+08         0.00000E+00
    0.00000E+00         0.00000E+00         0.10982E+08
 
    0.10985E+08         0.14205E+06         0.00000E+00
    0.14205E+06         0.25485E+08         0.00000E+00
    0.00000E+00         0.00000E+00         0.10941E+08
 
    0.10943E+08         0.14289E+06         0.00000E+00
    0.14289E+06         0.25389E+08         0.00000E+00
    0.00000E+00         0.00000E+00         0.10900E+08
 
    0.10899E+08         0.14369E+06         0.00000E+00
    0.14369E+06         0.25293E+08         0.00000E+00
    0.00000E+00         0.00000E+00         0.10858E+08
 
    0.10856E+08         0.14444E+06         0.00000E+00
    0.14444E+06         0.25196E+08         0.00000E+00
    0.00000E+00         0.00000E+00         0.10815E+08
 
    0.10812E+08         0.14514E+06         0.00000E+00
    0.14514E+06         0.25098E+08         0.00000E+00
    0.00000E+00         0.00000E+00         0.10773E+08
 
    0.10767E+08         0.14579E+06         0.00000E+00
    0.14579E+06         0.24999E+08         0.00000E+00
    0.00000E+00         0.00000E+00         0.10730E+08
 
    0.10722E+08         0.14639E+06         0.00000E+00
    0.14639E+06         0.24899E+08         0.00000E+00
    0.00000E+00         0.00000E+00         0.10686E+08
 
    0.10676E+08         0.14692E+06         0.00000E+00
    0.14692E+06         0.24799E+08         0.00000E+00
    0.00000E+00         0.00000E+00         0.10642E+08
 
    0.10629E+08         0.14738E+06         0.00000E+00
    0.14738E+06         0.24697E+08         0.00000E+00
    0.00000E+00         0.00000E+00         0.10598E+08
 
    0.10582E+08         0.14777E+06         0.00000E+00
    0.14777E+06         0.24595E+08         0.00000E+00
    0.00000E+00         0.00000E+00         0.10553E+08
 
    0.10535E+08         0.14809E+06         0.00000E+00
    0.14809E+06         0.24493E+08         0.00000E+00
    0.00000E+00         0.00000E+00         0.10508E+08
 
    0.10486E+08         0.14832E+06         0.00000E+00
    0.14832E+06         0.24389E+08         0.00000E+00
    0.00000E+00         0.00000E+00         0.10463E+08
 
    0.10437E+08         0.14846E+06         0.00000E+00
    0.14846E+06         0.24285E+08         0.00000E+00
    0.00000E+00         0.00000E+00         0.10417E+08
 
    0.10388E+08         0.14850E+06         0.00000E+00
    0.14850E+06         0.24179E+08         0.00000E+00
    0.00000E+00         0.00000E+00         0.10370E+08
 
    0.10337E+08         0.14844E+06         0.00000E+00
    0.14844E+06         0.24073E+08         0.00000E+00
    0.00000E+00         0.00000E+00         0.10323E+08
 
    0.10286E+08         0.14825E+06         0.00000E+00
    0.14825E+06         0.23967E+08         0.00000E+00
    0.00000E+00         0.00000E+00         0.10276E+08
 
    0.10234E+08         0.14794E+06         0.00000E+00
    0.14794E+06         0.23859E+08         0.00000E+00
    0.00000E+00         0.00000E+00         0.10228E+08
 
    0.10181E+08         0.14750E+06         0.00000E+00
    0.14750E+06         0.23751E+08         0.00000E+00
    0.00000E+00         0.00000E+00         0.10180E+08
 
    0.10128E+08         0.14690E+06         0.00000E+00
    0.14690E+06         0.23642E+08         0.00000E+00
    0.00000E+00         0.00000E+00         0.10131E+08
 
    0.10073E+08         0.14613E+06         0.00000E+00
    0.14613E+06         0.23533E+08         0.00000E+00
    0.00000E+00         0.00000E+00         0.10082E+08
 
    0.10018E+08         0.14518E+06         0.00000E+00
    0.14518E+06         0.23422E+08         0.00000E+00
    0.00000E+00         0.00000E+00         0.10032E+08
 
    0.99614E+07         0.14403E+06         0.00000E+00
    0.14403E+06         0.23312E+08         0.00000E+00
    0.00000E+00         0.00000E+00         0.99819E+07
 
    0.99038E+07         0.14265E+06         0.00000E+00
    0.14265E+06         0.23200E+08         0.00000E+00
    0.00000E+00         0.00000E+00         0.99311E+07
 
    0.98452E+07         0.14103E+06         0.00000E+00
    0.14103E+06         0.23088E+08         0.00000E+00
    0.00000E+00         0.00000E+00         0.98798E+07
 
    0.97853E+07         0.13913E+06         0.00000E+00
    0.13913E+06         0.22975E+08         0.00000E+00
    0.00000E+00         0.00000E+00         0.98280E+07
 
    0.97242E+07         0.13691E+06         0.00000E+00
    0.13691E+06         0.22861E+08         0.00000E+00
    0.00000E+00         0.00000E+00         0.97756E+07
 
    0.96617E+07         0.13435E+06         0.00000E+00
    0.13435E+06         0.22747E+08         0.00000E+00
    0.00000E+00         0.00000E+00         0.97226E+07
 
    0.95978E+07         0.13140E+06         0.00000E+00
    0.13140E+06         0.22632E+08         0.00000E+00
    0.00000E+00         0.00000E+00         0.96689E+07
 
    0.95322E+07         0.12800E+06         0.00000E+00
    0.12800E+06         0.22516E+08         0.00000E+00
    0.00000E+00         0.00000E+00         0.96146E+07
 
    0.94650E+07         0.12409E+06         0.00000E+00
    0.12409E+06         0.22400E+08         0.00000E+00
    0.00000E+00         0.00000E+00         0.95596E+07
 
    0.93959E+07         0.11962E+06         0.00000E+00
    0.11962E+06         0.22284E+08         0.00000E+00
    0.00000E+00         0.00000E+00         0.95039E+07
 
    0.93249E+07         0.11450E+06         0.00000E+00
    0.11450E+06         0.22166E+08         0.00000E+00
    0.00000E+00         0.00000E+00         0.94474E+07
 
    0.92517E+07         0.10866E+06         0.00000E+00
    0.10866E+06         0.22049E+08         0.00000E+00
    0.00000E+00         0.00000E+00         0.93901E+07
 
    0.91763E+07         0.10202E+06         0.00000E+00
    0.10202E+06         0.21930E+08         0.00000E+00
    0.00000E+00         0.00000E+00         0.93319E+07
 
    0.90983E+07         0.94493E+05         0.00000E+00
    0.94493E+05         0.21811E+08         0.00000E+00
    0.00000E+00         0.00000E+00         0.92729E+07
 
    0.90176E+07         0.85996E+05         0.00000E+00
    0.85996E+05         0.21692E+08         0.00000E+00
    0.00000E+00         0.00000E+00         0.92128E+07
 
    0.89341E+07         0.76469E+05         0.00000E+00
    0.76469E+05         0.21572E+08         0.00000E+00
    0.00000E+00         0.00000E+00         0.91518E+07
 
    0.88475E+07         0.65872E+05         0.00000E+00
    0.65872E+05         0.21452E+08         0.00000E+00
    0.00000E+00         0.00000E+00         0.90897E+07
 
    0.87576E+07         0.54212E+05         0.00000E+00
    0.54212E+05         0.21331E+08         0.00000E+00
    0.00000E+00         0.00000E+00         0.90266E+07
 
    0.86643E+07         0.41560E+05         0.00000E+00
    0.41560E+05         0.21210E+08         0.00000E+00
    0.00000E+00         0.00000E+00         0.89623E+07
 
    0.85675E+07         0.28081E+05         0.00000E+00
    0.28081E+05         0.21089E+08         0.00000E+00
    0.00000E+00         0.00000E+00         0.88971E+07
 
    0.84671E+07         0.14077E+05         0.00000E+00
    0.14077E+05         0.20969E+08         0.00000E+00
    0.00000E+00         0.00000E+00         0.88308E+07
 
    0.83634E+07         0.33252E+02         0.00000E+00
    0.33252E+02         0.20849E+08         0.00000E+00
    0.00000E+00         0.00000E+00         0.87637E+07
 
    0.82567E+07        -0.13304E+05         0.00000E+00
   -0.13304E+05         0.20730E+08         0.00000E+00
    0.00000E+00         0.00000E+00         0.86960E+07
 
    0.81475E+07        -0.24817E+05         0.00000E+00
   -0.24817E+05         0.20613E+08         0.00000E+00
    0.00000E+00         0.00000E+00         0.86280E+07
 
    0.80371E+07        -0.32804E+05         0.00000E+00
   -0.32804E+05         0.20498E+08         0.00000E+00
    0.00000E+00         0.00000E+00         0.85604E+07
 
    0.79263E+07        -0.34696E+05         0.00000E+00
   -0.34696E+05         0.20388E+08         0.00000E+00
    0.00000E+00         0.00000E+00         0.84942E+07
 
    0.78150E+07        -0.27511E+05         0.00000E+00
   -0.27511E+05         0.20288E+08         0.00000E+00
    0.00000E+00         0.00000E+00         0.84310E+07
 
    0.77009E+07        -0.10649E+05         0.00000E+00
   -0.10649E+05         0.20209E+08         0.00000E+00
    0.00000E+00         0.00000E+00         0.83729E+07
 
    0.13236E+08        -0.61551E+04         0.00000E+00
   -0.61551E+04         0.29474E+08         0.00000E+00
    0.00000E+00         0.00000E+00         0.12813E+08
 
    0.13170E+08        -0.15590E+05         0.00000E+00
   -0.15590E+05         0.29427E+08         0.00000E+00
    0.00000E+00         0.00000E+00         0.12779E+08
 
    0.13106E+08        -0.18966E+05         0.00000E+00
   -0.18966E+05         0.29368E+08         0.00000E+00
    0.00000E+00         0.00000E+00         0.12742E+08
 
    0.13041E+08        -0.16981E+05         0.00000E+00
   -0.16981E+05         0.29303E+08         0.00000E+00
    0.00000E+00         0.00000E+00         0.12703E+08
 
    0.12977E+08        -0.11607E+05         0.00000E+00
   -0.11607E+05         0.29236E+08         0.00000E+00
    0.00000E+00         0.00000E+00         0.12664E+08
 
    0.12914E+08        -0.43533E+04         0.00000E+00
   -0.43533E+04         0.29167E+08         0.00000E+00
    0.00000E+00         0.00000E+00         0.12624E+08
 
    0.12852E+08         0.38480E+04         0.00000E+00
    0.38480E+04         0.29098E+08         0.00000E+00
    0.00000E+00         0.00000E+00         0.12585E+08
 
    0.12792E+08         0.12397E+05         0.00000E+00
    0.12397E+05         0.29028E+08         0.00000E+00
    0.00000E+00         0.00000E+00         0.12546E+08
 
    0.12734E+08         0.20898E+05         0.00000E+00
    0.20898E+05         0.28957E+08         0.00000E+00
    0.00000E+00         0.00000E+00         0.12507E+08
 
    0.12679E+08         0.29094E+05         0.00000E+00
    0.29094E+05         0.28886E+08         0.00000E+00
    0.00000E+00         0.00000E+00         0.12469E+08
 
    0.12625E+08         0.36830E+05         0.00000E+00
    0.36830E+05         0.28814E+08         0.00000E+00
    0.00000E+00         0.00000E+00         0.12432E+08
 
    0.12574E+08         0.44020E+05         0.00000E+00
    0.44020E+05         0.28742E+08         0.00000E+00
    0.00000E+00         0.00000E+00         0.12395E+08
 
    0.12524E+08         0.50631E+05         0.00000E+00
    0.50631E+05         0.28670E+08         0.00000E+00
    0.00000E+00         0.00000E+00         0.12358E+08
 
    0.12476E+08         0.56665E+05         0.00000E+00
    0.56665E+05         0.28598E+08         0.00000E+00
    0.00000E+00         0.00000E+00         0.12322E+08
 
    0.12430E+08         0.62147E+05         0.00000E+00
    0.62147E+05         0.28526E+08         0.00000E+00
    0.00000E+00         0.00000E+00         0.12287E+08
 
    0.12385E+08         0.67115E+05         0.00000E+00
    0.67115E+05         0.28453E+08         0.00000E+00
    0.00000E+00         0.00000E+00         0.12251E+08
 
    0.12341E+08         0.71616E+05         0.00000E+00
    0.71616E+05         0.28380E+08         0.00000E+00
    0.00000E+00         0.00000E+00         0.12216E+08
 
    0.12299E+08         0.75698E+05         0.00000E+00
    0.75698E+05         0.28306E+08         0.00000E+00
    0.00000E+00         0.00000E+00         0.12182E+08
 
    0.12257E+08         0.79408E+05         0.00000E+00
    0.79408E+05         0.28233E+08         0.00000E+00
    0.00000E+00         0.00000E+00         0.12147E+08
 
    0.12217E+08         0.82791E+05         0.00000E+00
    0.82791E+05         0.28159E+08         0.00000E+00
    0.00000E+00         0.00000E+00         0.12113E+08
 
    0.12177E+08         0.85889E+05         0.00000E+00
    0.85889E+05         0.28084E+08         0.00000E+00
    0.00000E+00         0.00000E+00         0.12078E+08
 
    0.12137E+08         0.88738E+05         0.00000E+00
    0.88738E+05         0.28010E+08         0.00000E+00
    0.00000E+00         0.00000E+00         0.12044E+08
 
    0.12099E+08         0.91370E+05         0.00000E+00
    0.91370E+05         0.27934E+08         0.00000E+00
    0.00000E+00         0.00000E+00         0.12010E+08
 
    0.12061E+08         0.93813E+05         0.00000E+00
    0.93813E+05         0.27859E+08         0.00000E+00
    0.00000E+00         0.00000E+00         0.11976E+08
 
    0.12023E+08         0.96093E+05         0.00000E+00
    0.96093E+05         0.27783E+08         0.00000E+00
    0.00000E+00         0.00000E+00         0.11942E+08
 
    0.11985E+08         0.98229E+05         0.00000E+00
    0.98229E+05         0.27706E+08         0.00000E+00
    0.00000E+00         0.00000E+00         0.11907E+08
 
    0.11948E+08         0.10024E+06         0.00000E+00
    0.10024E+06         0.27629E+08         0.00000E+00
    0.00000E+00         0.00000E+00         0.11873E+08
 
    0.11911E+08         0.10214E+06         0.00000E+00
    0.10214E+06         0.27551E+08         0.00000E+00
    0.00000E+00         0.00000E+00         0.11839E+08
 
    0.11874E+08         0.10394E+06         0.00000E+00
    0.10394E+06         0.27473E+08         0.00000E+00
    0.00000E+00         0.00000E+00         0.11804E+08
 
    0.11838E+08         0.10566E+06         0.00000E+00
    0.10566E+06         0.27394E+08         0.00000E+00
    0.00000E+00         0.00000E+00         0.11770E+08
 
    0.11801E+08         0.10730E+06         0.00000E+00
    0.10730E+06         0.27315E+08         0.00000E+00
    0.00000E+00         0.00000E+00         0.11735E+08
 
    0.11764E+08         0.10887E+06         0.00000E+00
    0.10887E+06         0.27235E+08         0.00000E+00
    0.00000E+00         0.00000E+00         0.11700E+08
 
    0.11728E+08         0.11038E+06         0.00000E+00
    0.11038E+06         0.27154E+08         0.00000E+00
    0.00000E+00         0.00000E+00         0.11664E+08
 
    0.11691E+08         0.11183E+06         0.00000E+00
    0.11183E+06         0.27073E+08         0.00000E+00
    0.00000E+00         0.00000E+00         0.11629E+08
 
    0.11654E+08         0.11323E+06         0.00000E+00
    0.11323E+06         0.26991E+08         0.00000E+00
    0.00000E+00         0.00000E+00         0.11593E+08
 
    0.11617E+08         0.11458E+06         0.00000E+00
    0.11458E+06         0.26908E+08         0.00000E+00
    0.00000E+00         0.00000E+00         0.11557E+08
 
    0.11580E+08         0.11589E+06         0.00000E+00
    0.11589E+06         0.26825E+08         0.00000E+00
    0.00000E+00         0.00000E+00         0.11521E+08
 
    0.11542E+08         0.11716E+06         0.00000E+00
    0.11716E+06         0.26741E+08         0.00000E+00
    0.00000E+00         0.00000E+00         0.11485E+08
 
    0.11505E+08         0.11840E+06         0.00000E+00
    0.11840E+06         0.26656E+08         0.00000E+00
    0.00000E+00         0.00000E+00         0.11448E+08
 
    0.11467E+08         0.11959E+06         0.00000E+00
    0.11959E+06         0.26570E+08         0.00000E+00
    0.00000E+00         0.00000E+00         0.11411E+08
 
    0.11429E+08         0.12076E+06         0.00000E+00
    0.12076E+06         0.26484E+08         0.00000E+00
    0.00000E+00         0.00000E+00         0.11374E+08
 
    0.11390E+08         0.12189E+06         0.00000E+00
    0.12189E+06         0.26397E+08         0.00000E+00
    0.00000E+00         0.00000E+00         0.11336E+08
 
    0.11352E+08         0.12299E+06         0.00000E+00
    0.12299E+06         0.26310E+08         0.00000E+00
    0.00000E+00         0.00000E+00         0.11298E+08
 
    0.11313E+08         0.12406E+06         0.00000E+00
    0.12406E+06         0.26221E+08         0.00000E+00
    0.00000E+00         0.00000E+00         0.11260E+08
 
    0.11273E+08         0.12510E+06         0.00000E+00
    0.12510E+06         0.26132E+08         0.00000E+00
    0.00000E+00         0.00000E+00         0.11222E+08
 
    0.11234E+08         0.12611E+06         0.00000E+00
    0.12611E+06         0.26042E+08         0.00000E+00
    0.00000E+00         0.00000E+00         0.11183E+08
 
    0.11193E+08         0.12709E+06         0.00000E+00
    0.12709E+06         0.25951E+08         0.00000E+00
    0.00000E+00         0.00000E+00         0.11143E+08
 
    0.11153E+08         0.12804E+06         0.00000E+00
    0.12804E+06         0.25859E+08         0.00000E+00
    0.00000E+00         0.00000E+00         0.11104E+08
 
    0.11112E+08         0.12896E+06         0.00000E+00
    0.12896E+06         0.25767E+08         0.00000E+00
    0.00000E+00         0.00000E+00         0.11064E+08
 
    0.11071E+08         0.12984E+06         0.00000E+00
    0.12984E+06         0.25674E+08         0.00000E+00
    0.00000E+00         0.00000E+00         0.11023E+08
 
    0.11029E+08         0.13069E+06         0.00000E+00
    0.13069E+06         0.25580E+08         0.00000E+00
    0.00000E+00         0.00000E+00         0.10983E+08
 
    0.10987E+08         0.13151E+06         0.00000E+00
    0.13151E+06         0.25485E+08         0.00000E+00
    0.00000E+00         0.00000E+00         0.10941E+08
 
    0.10944E+08         0.13228E+06         0.00000E+00
    0.13228E+06         0.25389E+08         0.00000E+00
    0.00000E+00         0.00000E+00         0.10900E+08
 
    0.10901E+08         0.13302E+06         0.00000E+00
    0.13302E+06         0.25293E+08         0.00000E+00
    0.00000E+00         0.00000E+00         0.10858E+08
 
    0.10857E+08         0.13371E+06         0.00000E+00
    0.13371E+06         0.25196E+08         0.00000E+00
    0.00000E+00         0.00000E+00         0.10816E+08
 
    0.10813E+08         0.13436E+06         0.00000E+00
    0.13436E+06         0.25098E+08         0.00000E+00
    0.00000E+00         0.00000E+00         0.10773E+08
 
    0.10768E+08         0.13496E+06         0.00000E+00
    0.13496E+06         0.24999E+08         0.00000E+00
    0.00000E+00         0.00000E+00         0.10730E+08
 
    0.10723E+08         0.13551E+06         0.00000E+00
    0.13551E+06         0.24899E+08         0.00000E+00
    0.00000E+00         0.00000E+00         0.10687E+08
 
    0.10677E+08         0.13599E+06         0.00000E+00
    0.13599E+06         0.24799E+08         0.00000E+00
    0.00000E+00         0.00000E+00         0.10643E+08
 
    0.10630E+08         0.13642E+06         0.00000E+00
    0.13642E+06         0.24697E+08         0.00000E+00
    0.00000E+00         0.00000E+00         0.10598E+08
 
    0.10583E+08         0.13678E+06         0.00000E+00
    0.13678E+06         0.24595E+08         0.00000E+00
    0.00000E+00         0.00000E+00         0.10554E+08
 
    0.10536E+08         0.13707E+06         0.00000E+00
    0.13707E+06         0.24492E+08         0.00000E+00
    0.00000E+00         0.00000E+00         0.10508E+08
 
    0.10487E+08         0.13728E+06         0.00000E+00
    0.13728E+06         0.24389E+08         0.00000E+00
    0.00000E+00         0.00000E+00         0.10463E+08
 
    0.10438E+08         0.13740E+06         0.00000E+00
    0.13740E+06         0.24284E+08         0.00000E+00
    0.00000E+00         0.00000E+00         0.10417E+08
 
    0.10388E+08         0.13744E+06         0.00000E+00
    0.13744E+06         0.24179E+08         0.00000E+00
    0.00000E+00         0.00000E+00         0.10370E+08
 
    0.10338E+08         0.13737E+06         0.00000E+00
    0.13737E+06         0.24073E+08         0.00000E+00
    0.00000E+00         0.00000E+00         0.10323E+08
 
    0.10287E+08         0.13719E+06         0.00000E+00
    0.13719E+06         0.23967E+08         0.00000E+00
    0.00000E+00         0.00000E+00         0.10276E+08
 
    0.10235E+08         0.13690E+06         0.00000E+00
    0.13690E+06         0.23859E+08         0.00000E+00
    0.00000E+00         0.00000E+00         0.10228E+08
 
    0.10182E+08         0.13648E+06         0.00000E+00
    0.13648E+06         0.23751E+08         0.00000E+00
    0.00000E+00         0.00000E+00         0.10180E+08
 
    0.10128E+08         0.13592E+06         0.00000E+00
    0.13592E+06         0.23642E+08         0.00000E+00
    0.00000E+00         0.00000E+00         0.10131E+08
 
    0.10074E+08         0.13520E+06         0.00000E+00
    0.13520E+06         0.23533E+08         0.00000E+00
    0.00000E+00         0.00000E+00         0.10082E+08
 
    0.10018E+08         0.13431E+06         0.00000E+00
    0.13431E+06         0.23423E+08         0.00000E+00
    0.00000E+00         0.00000E+00         0.10032E+08
 
    0.99615E+07         0.13324E+06         0.00000E+00
    0.13324E+06         0.23312E+08         0.00000E+00
    0.00000E+00         0.00000E+00         0.99820E+07
 
    0.99038E+07         0.13195E+06         0.00000E+00
    0.13195E+06         0.23200E+08         0.00000E+00
    0.00000E+00         0.00000E+00         0.99312E+07
 
    0.98450E+07         0.13044E+06         0.00000E+00
    0.13044E+06         0.23088E+08         0.00000E+00
    0.00000E+00         0.00000E+00         0.98799E+07
 
    0.97850E+07         0.12867E+06         0.00000E+00
    0.12867E+06         0.22975E+08         0.00000E+00
    0.00000E+00         0.00000E+00         0.98280E+07
 
    0.97237E+07         0.12660E+06         0.00000E+00
    0.12660E+06         0.22861E+08         0.00000E+00
    0.00000E+00         0.00000E+00         0.97756E+07
 
    0.96610E+07         0.12421E+06         0.00000E+00
    0.12421E+06         0.22747E+08         0.00000E+00
    0.00000E+00         0.00000E+00         0.97225E+07
 
    0.95969E+07         0.12146E+06         0.00000E+00
    0.12146E+06         0.22633E+08         0.00000E+00
    0.00000E+00         0.00000E+00         0.96688E+07
 
    0.95311E+07         0.11828E+06         0.00000E+00
    0.11828E+06         0.22517E+08         0.00000E+00
    0.00000E+00         0.00000E+00         0.96145E+07
 
    0.94636E+07         0.11463E+06         0.00000E+00
    0.11463E+06         0.22401E+08         0.00000E+00
    0.00000E+00         0.00000E+00         0.95595E+07
 
    0.93943E+07         0.11044E+06         0.00000E+00
    0.11044E+06         0.22285E+08         0.00000E+00
    0.00000E+00         0.00000E+00         0.95037E+07
 
    0.93229E+07         0.10565E+06         0.00000E+00
    0.10565E+06         0.22168E+08         0.00000E+00
    0.00000E+00         0.00000E+00         0.94471E+07
 
    0.92493E+07         0.10018E+06         0.00000E+00
    0.10018E+06         0.22050E+08         0.00000E+00
    0.00000E+00         0.00000E+00         0.93897E+07
 
    0.91734E+07         0.93943E+05         0.00000E+00
    0.93943E+05         0.21932E+08         0.00000E+00
    0.00000E+00         0.00000E+00         0.93315E+07
 
    0.90949E+07         0.86863E+05         0.00000E+00
    0.86863E+05         0.21813E+08         0.00000E+00
    0.00000E+00         0.00000E+00         0.92723E+07
 
    0.90135E+07         0.78861E+05         0.00000E+00
    0.78861E+05         0.21694E+08         0.00000E+00
    0.00000E+00         0.00000E+00         0.92121E+07
 
    0.89292E+07         0.69876E+05         0.00000E+00
    0.69876E+05         0.21574E+08         0.00000E+00
    0.00000E+00         0.00000E+00         0.91509E+07
 
    0.88417E+07         0.59867E+05         0.00000E+00
    0.59867E+05         0.21454E+08         0.00000E+00
    0.00000E+00         0.00000E+00         0.90886E+07
 
    0.87507E+07         0.48835E+05         0.00000E+00
    0.48835E+05         0.21333E+08         0.00000E+00
    0.00000E+00         0.00000E+00         0.90252E+07
 
    0.86562E+07         0.36844E+05         0.00000E+00
    0.36844E+05         0.21213E+08         0.00000E+00
    0.00000E+00         0.00000E+00         0.89607E+07
 
    0.85579E+07         0.24046E+05         0.00000E+00
    0.24046E+05         0.21092E+08         0.00000E+00
    0.00000E+00         0.00000E+00         0.88950E+07
 
    0.84559E+07         0.10717E+05         0.00000E+00
    0.10717E+05         0.20972E+08         0.00000E+00
    0.00000E+00         0.00000E+00         0.88283E+07
 
    0.83503E+07        -0.26917E+04         0.00000E+00
   -0.26917E+04         0.20852E+08         0.00000E+00
    0.00000E+00         0.00000E+00         0.87606E+07
 
    0.82415E+07        -0.15491E+05         0.00000E+00
   -0.15491E+05         0.20732E+08         0.00000E+00
    0.00000E+00         0.00000E+00         0.86922E+07
 
    0.81302E+07        -0.26636E+05         0.00000E+00
   -0.26636E+05         0.20615E+08         0.00000E+00
    0.00000E+00         0.00000E+00         0.86234E+07
 
    0.80175E+07        -0.34509E+05         0.00000E+00
   -0.34509E+05         0.20499E+08         0.00000E+00
    0.00000E+00         0.00000E+00         0.85549E+07
 
    0.79048E+07        -0.36498E+05         0.00000E+00
   -0.36498E+05         0.20387E+08         0.00000E+00
    0.00000E+00         0.00000E+00         0.84876E+07
 
    0.77924E+07        -0.29193E+05         0.00000E+00
   -0.29193E+05         0.20286E+08         0.00000E+00
    0.00000E+00         0.00000E+00         0.84235E+07
 
    0.76779E+07        -0.11392E+05         0.00000E+00
   -0.11392E+05         0.20204E+08         0.00000E+00
    0.00000E+00         0.00000E+00         0.83647E+07
 
    0.13250E+08        -0.66067E+04         0.00000E+00
   -0.66067E+04         0.29476E+08         0.00000E+00
    0.00000E+00         0.00000E+00         0.12818E+08
 
    0.13184E+08        -0.16567E+05         0.00000E+00
   -0.16567E+05         0.29428E+08         0.00000E+00
    0.00000E+00         0.00000E+00         0.12784E+08
 
    0.13119E+08        -0.19957E+05         0.00000E+00
   -0.19957E+05         0.29368E+08         0.00000E+00
    0.00000E+00         0.00000E+00         0.12746E+08
 
    0.13053E+08        -0.17910E+05         0.00000E+00
   -0.17910E+05         0.29302E+08         0.00000E+00
    0.00000E+00         0.00000E+00         0.12707E+08
 
    0.12988E+08        -0.12653E+05         0.00000E+00
   -0.12653E+05         0.29235E+08         0.00000E+00
    0.00000E+00         0.00000E+00         0.12667E+08
 
    0.12923E+08        -0.56862E+04         0.00000E+00
   -0.56862E+04         0.29166E+08         0.00000E+00
    0.00000E+00         0.00000E+00         0.12627E+08
 
    0.12860E+08         0.21211E+04         0.00000E+00
    0.21211E+04         0.29096E+08         0.00000E+00
    0.00000E+00         0.00000E+00         0.12587E+08
 
    0.12799E+08         0.10217E+05         0.00000E+00
    0.10217E+05         0.29026E+08         0.00000E+00
    0.00000E+00         0.00000E+00         0.12547E+08
 
    0.12740E+08         0.18241E+05         0.00000E+00
    0.18241E+05         0.28955E+08         0.00000E+00
    0.00000E+00         0.00000E+00         0.12509E+08
 
    0.12684E+08         0.25958E+05         0.00000E+00
    0.25958E+05         0.28884E+08         0.00000E+00
    0.00000E+00         0.00000E+00         0.12470E+08
 
    0.12630E+08         0.33226E+05         0.00000E+00
    0.33226E+05         0.28813E+08         0.00000E+00
    0.00000E+00         0.00000E+00         0.12433E+08
 
    0.12578E+08         0.39969E+05         0.00000E+00
    0.39969E+05         0.28741E+08         0.00000E+00
    0.00000E+00         0.00000E+00         0.12396E+08
 
    0.12528E+08         0.46158E+05         0.00000E+00
    0.46158E+05         0.28669E+08         0.00000E+00
    0.00000E+00         0.00000E+00         0.12359E+08
 
    0.12479E+08         0.51796E+05         0.00000E+00
    0.51796E+05         0.28597E+08         0.00000E+00
    0.00000E+00         0.00000E+00         0.12323E+08
 
    0.12433E+08         0.56911E+05         0.00000E+00
    0.56911E+05         0.28525E+08         0.00000E+00
    0.00000E+00         0.00000E+00         0.12287E+08
 
    0.12388E+08         0.61539E+05         0.00000E+00
    0.61539E+05         0.28452E+08         0.00000E+00
    0.00000E+00         0.00000E+00         0.12252E+08
 
    0.12344E+08         0.65725E+05         0.00000E+00
    0.65725E+05         0.28379E+08         0.00000E+00
    0.00000E+00         0.00000E+00         0.12217E+08
 
    0.12301E+08         0.69515E+05         0.00000E+00
    0.69515E+05         0.28306E+08         0.00000E+00
    0.00000E+00         0.00000E+00         0.12182E+08
 
    0.12259E+08         0.72956E+05         0.00000E+00
    0.72956E+05         0.28232E+08         0.00000E+00
    0.00000E+00         0.00000E+00         0.12147E+08
 
    0.12219E+08         0.76090E+05         0.00000E+00
    0.76090E+05         0.28158E+08         0.00000E+00
    0.00000E+00         0.00000E+00         0.12113E+08
 
    0.12179E+08         0.78957E+05         0.00000E+00
    0.78957E+05         0.28084E+08         0.00000E+00
    0.00000E+00         0.00000E+00         0.12079E+08
 
    0.12139E+08         0.81590E+05         0.00000E+00
    0.81590E+05         0.28009E+08         0.00000E+00
    0.00000E+00         0.00000E+00         0.12045E+08
 
    0.12101E+08         0.84022E+05         0.00000E+00
    0.84022E+05         0.27934E+08         0.00000E+00
    0.00000E+00         0.00000E+00         0.12010E+08
 
    0.12062E+08         0.86277E+05         0.00000E+00
    0.86277E+05         0.27858E+08         0.00000E+00
    0.00000E+00         0.00000E+00         0.11976E+08
 
    0.12025E+08         0.88381E+05         0.00000E+00
    0.88381E+05         0.27782E+08         0.00000E+00
    0.00000E+00         0.00000E+00         0.11942E+08
 
    0.11987E+08         0.90351E+05         0.00000E+00
    0.90351E+05         0.27706E+08         0.00000E+00
    0.00000E+00         0.00000E+00         0.11908E+08
 
    0.11950E+08         0.92205E+05         0.00000E+00
    0.92205E+05         0.27628E+08         0.00000E+00
    0.00000E+00         0.00000E+00         0.11873E+08
 
    0.11913E+08         0.93956E+05         0.00000E+00
    0.93956E+05         0.27551E+08         0.00000E+00
    0.00000E+00         0.00000E+00         0.11839E+08
 
    0.11876E+08         0.95617E+05         0.00000E+00
    0.95617E+05         0.27473E+08         0.00000E+00
    0.00000E+00         0.00000E+00         0.11805E+08
 
    0.11839E+08         0.97199E+05         0.00000E+00
    0.97199E+05         0.27394E+08         0.00000E+00
    0.00000E+00         0.00000E+00         0.11770E+08
 
    0.11802E+08         0.98709E+05         0.00000E+00
    0.98709E+05         0.27314E+08         0.00000E+00
    0.00000E+00         0.00000E+00         0.11735E+08
 
    0.11766E+08         0.10015E+06         0.00000E+00
    0.10015E+06         0.27234E+08         0.00000E+00
    0.00000E+00         0.00000E+00         0.11700E+08
 
    0.11729E+08         0.10154E+06         0.00000E+00
    0.10154E+06         0.27154E+08         0.00000E+00
    0.00000E+00         0.00000E+00         0.11665E+08
 
    0.11692E+08         0.10288E+06         0.00000E+00
    0.10288E+06         0.27072E+08         0.00000E+00
    0.00000E+00         0.00000E+00         0.11629E+08
 
    0.11655E+08         0.10417E+06         0.00000E+00
    0.10417E+06         0.26990E+08         0.00000E+00
    0.00000E+00         0.00000E+00         0.11594E+08
 
    0.11618E+08         0.10541E+06         0.00000E+00
    0.10541E+06         0.26908E+08         0.00000E+00
    0.00000E+00         0.00000E+00         0.11558E+08
 
    0.11581E+08         0.10662E+06         0.00000E+00
    0.10662E+06         0.26824E+08         0.00000E+00
    0.00000E+00         0.00000E+00         0.11522E+08
 
    0.11544E+08         0.10779E+06         0.00000E+00
    0.10779E+06         0.26740E+08         0.00000E+00
    0.00000E+00         0.00000E+00         0.11485E+08
 
    0.11506E+08         0.10892E+06         0.00000E+00
    0.10892E+06         0.26656E+08         0.00000E+00
    0.00000E+00         0.00000E+00         0.11449E+08
 
    0.11468E+08         0.11002E+06         0.00000E+00
    0.11002E+06         0.26570E+08         0.00000E+00
    0.00000E+00         0.00000E+00         0.11412E+08
 
    0.11430E+08         0.11109E+06         0.00000E+00
    0.11109E+06         0.26484E+08         0.00000E+00
    0.00000E+00         0.00000E+00         0.11374E+08
 
    0.11392E+08         0.11214E+06         0.00000E+00
    0.11214E+06         0.26397E+08         0.00000E+00
    0.00000E+00         0.00000E+00         0.11337E+08
 
    0.11353E+08         0.11315E+06         0.00000E+00
    0.11315E+06         0.26309E+08         0.00000E+00
    0.00000E+00         0.00000E+00         0.11299E+08
 
    0.11314E+08         0.11413E+06         0.00000E+00
    0.11413E+06         0.26221E+08         0.00000E+00
    0.00000E+00         0.00000E+00         0.11260E+08
 
    0.11275E+08         0.11509E+06         0.00000E+00
    0.11509E+06         0.26132E+08         0.00000E+00
    0.00000E+00         0.00000E+00         0.11222E+08
 
    0.11235E+08         0.11602E+06         0.00000E+00
    0.11602E+06         0.26042E+08         0.00000E+00
    0.00000E+00         0.00000E+00         0.11183E+08
 
    0.11195E+08         0.11692E+06         0.00000E+00
    0.11692E+06         0.25951E+08         0.00000E+00
    0.00000E+00         0.00000E+00         0.11144E+08
 
    0.11154E+08         0.11779E+06         0.00000E+00
    0.11779E+06         0.25859E+08         0.00000E+00
    0.00000E+00         0.00000E+00         0.11104E+08
 
    0.11113E+08         0.11863E+06         0.00000E+00
    0.11863E+06         0.25767E+08         0.00000E+00
    0.00000E+00         0.00000E+00         0.11064E+08
 
    0.11072E+08         0.11944E+06         0.00000E+00
    0.11944E+06         0.25674E+08         0.00000E+00
    0.00000E+00         0.00000E+00         0.11024E+08
 
    0.11030E+08         0.12022E+06         0.00000E+00
    0.12022E+06         0.25580E+08         0.00000E+00
    0.00000E+00         0.00000E+00         0.10983E+08
 
    0.10988E+08         0.12097E+06         0.00000E+00
    0.12097E+06         0.25485E+08         0.00000E+00
    0.00000E+00         0.00000E+00         0.10942E+08
 
    0.10945E+08         0.12168E+06         0.00000E+00
    0.12168E+06         0.25389E+08         0.00000E+00
    0.00000E+00         0.00000E+00         0.10900E+08
 
    0.10902E+08         0.12236E+06         0.00000E+00
    0.12236E+06         0.25293E+08         0.00000E+00
    0.00000E+00         0.00000E+00         0.10858E+08
 
    0.10858E+08         0.12299E+06         0.00000E+00
    0.12299E+06         0.25195E+08         0.00000E+00
    0.00000E+00         0.00000E+00         0.10816E+08
 
    0.10814E+08         0.12359E+06         0.00000E+00
    0.12359E+06         0.25097E+08         0.00000E+00
    0.00000E+00         0.00000E+00         0.10773E+08
 
    0.10769E+08         0.12413E+06         0.00000E+00
    0.12413E+06         0.24999E+08         0.00000E+00
    0.00000E+00         0.00000E+00         0.10730E+08
 
    0.10724E+08         0.12463E+06         0.00000E+00
    0.12463E+06         0.24899E+08         0.00000E+00
    0.00000E+00         0.00000E+00         0.10687E+08
 
    0.10678E+08         0.12508E+06         0.00000E+00
    0.12508E+06         0.24799E+08         0.00000E+00
    0.00000E+00         0.00000E+00         0.10643E+08
 
    0.10632E+08         0.12547E+06         0.00000E+00
    0.12547E+06         0.24697E+08         0.00000E+00
    0.00000E+00         0.00000E+00         0.10599E+08
 
    0.10584E+08         0.12579E+06         0.00000E+00
    0.12579E+06         0.24595E+08         0.00000E+00
    0.00000E+00         0.00000E+00         0.10554E+08
 
    0.10537E+08         0.12606E+06         0.00000E+00
    0.12606E+06         0.24492E+08         0.00000E+00
    0.00000E+00         0.00000E+00         0.10509E+08
 
    0.10488E+08         0.12624E+06         0.00000E+00
    0.12624E+06         0.24389E+08         0.00000E+00
    0.00000E+00         0.00000E+00         0.10463E+08
 
    0.10439E+08         0.12635E+06         0.00000E+00
    0.12635E+06         0.24284E+08         0.00000E+00
    0.00000E+00         0.00000E+00         0.10417E+08
 
    0.10389E+08         0.12638E+06         0.00000E+00
    0.12638E+06         0.24179E+08         0.00000E+00
    0.00000E+00         0.00000E+00         0.10371E+08
 
    0.10339E+08         0.12632E+06         0.00000E+00
    0.12632E+06         0.24073E+08         0.00000E+00
    0.00000E+00         0.00000E+00         0.10324E+08
 
    0.10288E+08         0.12615E+06         0.00000E+00
    0.12615E+06         0.23967E+08         0.00000E+00
    0.00000E+00         0.00000E+00         0.10276E+08
 
    0.10235E+08         0.12587E+06         0.00000E+00
    0.12587E+06         0.23859E+08         0.00000E+00
    0.00000E+00         0.00000E+00         0.10228E+08
 
    0.10182E+08         0.12548E+06         0.00000E+00
    0.12548E+06         0.23751E+08         0.00000E+00
    0.00000E+00         0.00000E+00         0.10180E+08
 
    0.10129E+08         0.12496E+06         0.00000E+00
    0.12496E+06         0.23643E+08         0.00000E+00
    0.00000E+00         0.00000E+00         0.10131E+08
 
    0.10074E+08         0.12429E+06         0.00000E+00
    0.12429E+06         0.23533E+08         0.00000E+00
    0.00000E+00         0.00000E+00         0.10082E+08
 
    0.10018E+08         0.12347E+06         0.00000E+00
    0.12347E+06         0.23423E+08         0.00000E+00
    0.00000E+00         0.00000E+00         0.10032E+08
 
    0.99616E+07         0.12247E+06         0.00000E+00
    0.12247E+06         0.23312E+08         0.00000E+00
    0.00000E+00         0.00000E+00         0.99821E+07
 
    0.99038E+07         0.12128E+06         0.00000E+00
    0.12128E+06         0.23200E+08         0.00000E+00
    0.00000E+00         0.00000E+00         0.99313E+07
 
    0.98449E+07         0.11988E+06         0.00000E+00
    0.11988E+06         0.23088E+08         0.00000E+00
    0.00000E+00         0.00000E+00         0.98799E+07
 
    0.97848E+07         0.11824E+06         0.00000E+00
    0.11824E+06         0.22975E+08         0.00000E+00
    0.00000E+00         0.00000E+00         0.98280E+07
 
    0.97233E+07         0.11633E+06         0.00000E+00
    0.11633E+06         0.22862E+08         0.00000E+00
    0.00000E+00         0.00000E+00         0.97756E+07
 
    0.96605E+07         0.11411E+06         0.00000E+00
    0.11411E+06         0.22748E+08         0.00000E+00
    0.00000E+00         0.00000E+00         0.97225E+07
 
    0.95961E+07         0.11156E+06         0.00000E+00
    0.11156E+06         0.22633E+08         0.00000E+00
    0.00000E+00         0.00000E+00         0.96688E+07
 
    0.95301E+07         0.10861E+06         0.00000E+00
    0.10861E+06         0.22518E+08         0.00000E+00
    0.00000E+00         0.00000E+00         0.96144E+07
 
    0.94624E+07         0.10522E+06         0.00000E+00
    0.10522E+06         0.22402E+08         0.00000E+00
    0.00000E+00         0.00000E+00         0.95593E+07
 
    0.93928E+07         0.10134E+06         0.00000E+00
    0.10134E+06         0.22286E+08         0.00000E+00
    0.00000E+00         0.00000E+00         0.95035E+07
 
    0.93210E+07         0.96878E+05         0.00000E+00
    0.96878E+05         0.22168E+08         0.00000E+00
    0.00000E+00         0.00000E+00         0.94469E+07
 
    0.92471E+07         0.91780E+05         0.00000E+00
    0.91780E+05         0.22051E+08         0.00000E+00
    0.00000E+00         0.00000E+00         0.93894E+07
 
    0.91707E+07         0.85964E+05         0.00000E+00
    0.85964E+05         0.21933E+08         0.00000E+00
    0.00000E+00         0.00000E+00         0.93311E+07
 
    0.90916E+07         0.79351E+05         0.00000E+00
    0.79351E+05         0.21814E+08         0.00000E+00
    0.00000E+00         0.00000E+00         0.92718E+07
 
    0.90097E+07         0.71867E+05         0.00000E+00
    0.71867E+05         0.21695E+08         0.00000E+00
    0.00000E+00         0.00000E+00         0.92114E+07
 
    0.89246E+07         0.63449E+05         0.00000E+00
    0.63449E+05         0.21576E+08         0.00000E+00
    0.00000E+00         0.00000E+00         0.91501E+07
 
    0.88362E+07         0.54057E+05         0.00000E+00
    0.54057E+05         0.21456E+08         0.00000E+00
    0.00000E+00         0.00000E+00         0.90876E+07
 
    0.87441E+07         0.43688E+05         0.00000E+00
    0.43688E+05         0.21336E+08         0.00000E+00
    0.00000E+00         0.00000E+00         0.90239E+07
 
    0.86483E+07         0.32398E+05         0.00000E+00
    0.32398E+05         0.21215E+08         0.00000E+00
    0.00000E+00         0.00000E+00         0.89590E+07
 
    0.85486E+07         0.20322E+05         0.00000E+00
    0.20322E+05         0.21095E+08         0.00000E+00
    0.00000E+00         0.00000E+00         0.88930E+07
 
    0.84450E+07         0.77142E+04         0.00000E+00
    0.77142E+04         0.20974E+08         0.00000E+00
    0.00000E+00         0.00000E+00         0.88258E+07
 
    0.83375E+07        -0.50163E+04         0.00000E+00
   -0.50163E+04         0.20854E+08         0.00000E+00
    0.00000E+00         0.00000E+00         0.87575E+07
 
    0.82265E+07        -0.17237E+05         0.00000E+00
   -0.17237E+05         0.20735E+08         0.00000E+00
    0.00000E+00         0.00000E+00         0.86884E+07
 
    0.81128E+07        -0.27988E+05         0.00000E+00
   -0.27988E+05         0.20616E+08         0.00000E+00
    0.00000E+00         0.00000E+00         0.86188E+07
 
    0.79977E+07        -0.35761E+05         0.00000E+00
   -0.35761E+05         0.20500E+08         0.00000E+00
    0.00000E+00         0.00000E+00         0.85493E+07
 
    0.78829E+07        -0.37958E+05         0.00000E+00
   -0.37958E+05         0.20387E+08         0.00000E+00
    0.00000E+00         0.00000E+00         0.84809E+07
 
    0.77691E+07        -0.30732E+05         0.00000E+00
   -0.30732E+05         0.20283E+08         0.00000E+00
    0.00000E+00         0.00000E+00         0.84157E+07
 
    0.76542E+07        -0.12122E+05         0.00000E+00
   -0.12122E+05         0.20200E+08         0.00000E+00
    0.00000E+00         0.00000E+00         0.83562E+07
 
    0.13265E+08        -0.70506E+04         0.00000E+00
   -0.70506E+04         0.29479E+08         0.00000E+00
    0.00000E+00         0.00000E+00         0.12823E+08
 
    0.13198E+08        -0.17444E+05         0.00000E+00
   -0.17444E+05         0.29429E+08         0.00000E+00
    0.00000E+00         0.00000E+00         0.12788E+08
 
    0.13132E+08        -0.20716E+05         0.00000E+00
   -0.20716E+05         0.29368E+08         0.00000E+00
    0.00000E+00         0.00000E+00         0.12750E+08
 
    0.13065E+08        -0.18551E+05         0.00000E+00
   -0.18551E+05         0.29302E+08         0.00000E+00
    0.00000E+00         0.00000E+00         0.12710E+08
 
    0.12998E+08        -0.13417E+05         0.00000E+00
   -0.13417E+05         0.29233E+08         0.00000E+00
    0.00000E+00         0.00000E+00         0.12669E+08
 
    0.12932E+08        -0.67611E+04         0.00000E+00
   -0.67611E+04         0.29164E+08         0.00000E+00
    0.00000E+00         0.00000E+00         0.12629E+08
 
    0.12868E+08         0.62373E+03         0.00000E+00
    0.62373E+03         0.29095E+08         0.00000E+00
    0.00000E+00         0.00000E+00         0.12589E+08
 
    0.12806E+08         0.82381E+04         0.00000E+00
    0.82381E+04         0.29024E+08         0.00000E+00
    0.00000E+00         0.00000E+00         0.12549E+08
 
    0.12746E+08         0.15756E+05         0.00000E+00
    0.15756E+05         0.28954E+08         0.00000E+00
    0.00000E+00         0.00000E+00         0.12510E+08
 
    0.12689E+08         0.22967E+05         0.00000E+00
    0.22967E+05         0.28883E+08         0.00000E+00
    0.00000E+00         0.00000E+00         0.12472E+08
 
    0.12634E+08         0.29744E+05         0.00000E+00
    0.29744E+05         0.28811E+08         0.00000E+00
    0.00000E+00         0.00000E+00         0.12434E+08
 
    0.12582E+08         0.36019E+05         0.00000E+00
    0.36019E+05         0.28740E+08         0.00000E+00
    0.00000E+00         0.00000E+00         0.12396E+08
 
    0.12531E+08         0.41768E+05         0.00000E+00
    0.41768E+05         0.28668E+08         0.00000E+00
    0.00000E+00         0.00000E+00         0.12360E+08
 
    0.12482E+08         0.46997E+05         0.00000E+00
    0.46997E+05         0.28596E+08         0.00000E+00
    0.00000E+00         0.00000E+00         0.12324E+08
 
    0.12436E+08         0.51731E+05         0.00000E+00
    0.51731E+05         0.28524E+08         0.00000E+00
    0.00000E+00         0.00000E+00         0.12288E+08
 
    0.12390E+08         0.56008E+05         0.00000E+00
    0.56008E+05         0.28451E+08         0.00000E+00
    0.00000E+00         0.00000E+00         0.12252E+08
 
    0.12346E+08         0.59870E+05         0.00000E+00
    0.59870E+05         0.28378E+08         0.00000E+00
    0.00000E+00         0.00000E+00         0.12217E+08
 
    0.12303E+08         0.63363E+05         0.00000E+00
    0.63363E+05         0.28305E+08         0.00000E+00
    0.00000E+00         0.00000E+00         0.12182E+08
 
    0.12261E+08         0.66529E+05         0.00000E+00
    0.66529E+05         0.28231E+08         0.00000E+00
    0.00000E+00         0.00000E+00         0.12148E+08
 
    0.12221E+08         0.69409E+05         0.00000E+00
    0.69409E+05         0.28158E+08         0.00000E+00
    0.00000E+00         0.00000E+00         0.12113E+08
 
    0.12180E+08         0.72041E+05         0.00000E+00
    0.72041E+05         0.28083E+08         0.00000E+00
    0.00000E+00         0.00000E+00         0.12079E+08
 
    0.12141E+08         0.74456E+05         0.00000E+00
    0.74456E+05         0.28009E+08         0.00000E+00
    0.00000E+00         0.00000E+00         0.12045E+08
 
    0.12102E+08         0.76685E+05         0.00000E+00
    0.76685E+05         0.27933E+08         0.00000E+00
    0.00000E+00         0.00000E+00         0.12011E+08
 
    0.12064E+08         0.78751E+05         0.00000E+00
    0.78751E+05         0.27858E+08         0.00000E+00
    0.00000E+00         0.00000E+00         0.11977E+08
 
    0.12026E+08         0.80676E+05         0.00000E+00
    0.80676E+05         0.27782E+08         0.00000E+00
    0.00000E+00         0.00000E+00         0.11942E+08
 
    0.11989E+08         0.82479E+05         0.00000E+00
    0.82479E+05         0.27705E+08         0.00000E+00
    0.00000E+00         0.00000E+00         0.11908E+08
 
    0.11951E+08         0.84175E+05         0.00000E+00
    0.84175E+05         0.27628E+08         0.00000E+00
    0.00000E+00         0.00000E+00         0.11874E+08
 
    0.11914E+08         0.85776E+05         0.00000E+00
    0.85776E+05         0.27550E+08         0.00000E+00
    0.00000E+00         0.00000E+00         0.11839E+08
 
    0.11877E+08         0.87295E+05         0.00000E+00
    0.87295E+05         0.27472E+08         0.00000E+00
    0.00000E+00         0.00000E+00         0.11805E+08
 
    0.11841E+08         0.88741E+05         0.00000E+00
    0.88741E+05         0.27393E+08         0.00000E+00
    0.00000E+00         0.00000E+00         0.11770E+08
 
    0.11804E+08         0.90121E+05         0.00000E+00
    0.90121E+05         0.27314E+08         0.00000E+00
    0.00000E+00         0.00000E+00         0.11735E+08
 
    0.11767E+08         0.91442E+05         0.00000E+00
    0.91442E+05         0.27234E+08         0.00000E+00
    0.00000E+00         0.00000E+00         0.11700E+08
 
    0.11731E+08         0.92711E+05         0.00000E+00
    0.92711E+05         0.27153E+08         0.00000E+00
    0.00000E+00         0.00000E+00         0.11665E+08
 
    0.11694E+08         0.93932E+05         0.00000E+00
    0.93932E+05         0.27072E+08         0.00000E+00
    0.00000E+00         0.00000E+00         0.11630E+08
 
    0.11657E+08         0.95110E+05         0.00000E+00
    0.95110E+05         0.26990E+08         0.00000E+00
    0.00000E+00         0.00000E+00         0.11594E+08
 
    0.11620E+08         0.96248E+05         0.00000E+00
    0.96248E+05         0.26908E+08         0.00000E+00
    0.00000E+00         0.00000E+00         0.11558E+08
 
    0.11583E+08         0.97349E+05         0.00000E+00
    0.97349E+05         0.26824E+08         0.00000E+00
    0.00000E+00         0.00000E+00         0.11522E+08
 
    0.11545E+08         0.98416E+05         0.00000E+00
    0.98416E+05         0.26740E+08         0.00000E+00
    0.00000E+00         0.00000E+00         0.11486E+08
 
    0.11508E+08         0.99451E+05         0.00000E+00
    0.99451E+05         0.26655E+08         0.00000E+00
    0.00000E+00         0.00000E+00         0.11449E+08
 
    0.11470E+08         0.10046E+06         0.00000E+00
    0.10046E+06         0.26570E+08         0.00000E+00
    0.00000E+00         0.00000E+00         0.11412E+08
 
    0.11432E+08         0.10143E+06         0.00000E+00
    0.10143E+06         0.26484E+08         0.00000E+00
    0.00000E+00         0.00000E+00         0.11375E+08
 
    0.11393E+08         0.10238E+06         0.00000E+00
    0.10238E+06         0.26397E+08         0.00000E+00
    0.00000E+00         0.00000E+00         0.11337E+08
 
    0.11355E+08         0.10331E+06         0.00000E+00
    0.10331E+06         0.26309E+08         0.00000E+00
    0.00000E+00         0.00000E+00         0.11299E+08
 
    0.11316E+08         0.10420E+06         0.00000E+00
    0.10420E+06         0.26221E+08         0.00000E+00
    0.00000E+00         0.00000E+00         0.11261E+08
 
    0.11276E+08         0.10508E+06         0.00000E+00
    0.10508E+06         0.26131E+08         0.00000E+00
    0.00000E+00         0.00000E+00         0.11222E+08
 
    0.11236E+08         0.10592E+06         0.00000E+00
    0.10592E+06         0.26041E+08         0.00000E+00
    0.00000E+00         0.00000E+00         0.11183E+08
 
    0.11196E+08         0.10674E+06         0.00000E+00
    0.10674E+06         0.25951E+08         0.00000E+00
    0.00000E+00         0.00000E+00         0.11144E+08
 
    0.11156E+08         0.10754E+06         0.00000E+00
    0.10754E+06         0.25859E+08         0.00000E+00
    0.00000E+00         0.00000E+00         0.11104E+08
 
    0.11115E+08         0.10831E+06         0.00000E+00
    0.10831E+06         0.25767E+08         0.00000E+00
    0.00000E+00         0.00000E+00         0.11064E+08
 
    0.11073E+08         0.10905E+06         0.00000E+00
    0.10905E+06         0.25673E+08         0.00000E+00
    0.00000E+00         0.00000E+00         0.11024E+08
 
    0.11032E+08         0.10976E+06         0.00000E+00
    0.10976E+06         0.25579E+08         0.00000E+00
    0.00000E+00         0.00000E+00         0.10983E+08
 
    0.10989E+08         0.11044E+06         0.00000E+00
    0.11044E+06         0.25485E+08         0.00000E+00
    0.00000E+00         0.00000E+00         0.10942E+08
 
    0.10947E+08         0.11109E+06         0.00000E+00
    0.11109E+06         0.25389E+08         0.00000E+00
    0.00000E+00         0.00000E+00         0.10901E+08
 
    0.10903E+08         0.11170E+06         0.00000E+00
    0.11170E+06         0.25293E+08         0.00000E+00
    0.00000E+00         0.00000E+00         0.10859E+08
 
    0.10860E+08         0.11228E+06         0.00000E+00
    0.11228E+06         0.25195E+08         0.00000E+00
    0.00000E+00         0.00000E+00         0.10816E+08
 
    0.10815E+08         0.11282E+06         0.00000E+00
    0.11282E+06         0.25097E+08         0.00000E+00
    0.00000E+00         0.00000E+00         0.10774E+08
 
    0.10771E+08         0.11331E+06         0.00000E+00
    0.11331E+06         0.24998E+08         0.00000E+00
    0.00000E+00         0.00000E+00         0.10731E+08
 
    0.10725E+08         0.11377E+06         0.00000E+00
    0.11377E+06         0.24899E+08         0.00000E+00
    0.00000E+00         0.00000E+00         0.10687E+08
 
    0.10679E+08         0.11417E+06         0.00000E+00
    0.11417E+06         0.24798E+08         0.00000E+00
    0.00000E+00         0.00000E+00         0.10643E+08
 
    0.10633E+08         0.11452E+06         0.00000E+00
    0.11452E+06         0.24697E+08         0.00000E+00
    0.00000E+00         0.00000E+00         0.10599E+08
 
    0.10585E+08         0.11482E+06         0.00000E+00
    0.11482E+06         0.24595E+08         0.00000E+00
    0.00000E+00         0.00000E+00         0.10554E+08
 
    0.10538E+08         0.11505E+06         0.00000E+00
    0.11505E+06         0.24492E+08         0.00000E+00
    0.00000E+00         0.00000E+00         0.10509E+08
 
    0.10489E+08         0.11522E+06         0.00000E+00
    0.11522E+06         0.24389E+08         0.00000E+00
    0.00000E+00         0.00000E+00         0.10463E+08
 
    0.10440E+08         0.11532E+06         0.00000E+00
    0.11532E+06         0.24284E+08         0.00000E+00
    0.00000E+00         0.00000E+00         0.10417E+08
 
    0.10390E+08         0.11534E+06         0.00000E+00
    0.11534E+06         0.24179E+08         0.00000E+00
    0.00000E+00         0.00000E+00         0.10371E+08
 
    0.10340E+08         0.11528E+06         0.00000E+00
    0.11528E+06         0.24073E+08         0.00000E+00
    0.00000E+00         0.00000E+00         0.10324E+08
 
    0.10288E+08         0.11512E+06         0.00000E+00
    0.11512E+06         0.23967E+08         0.00000E+00
    0.00000E+00         0.00000E+00         0.10277E+08
 
    0.10236E+08         0.11486E+06         0.00000E+00
    0.11486E+06         0.23860E+08         0.00000E+00
    0.00000E+00         0.00000E+00         0.10229E+08
 
    0.10183E+08         0.11450E+06         0.00000E+00
    0.11450E+06         0.23751E+08         0.00000E+00
    0.00000E+00         0.00000E+00         0.10180E+08
 
    0.10129E+08         0.11402E+06         0.00000E+00
    0.11402E+06         0.23643E+08         0.00000E+00
    0.00000E+00         0.00000E+00         0.10132E+08
 
    0.10074E+08         0.11340E+06         0.00000E+00
    0.11340E+06         0.23533E+08         0.00000E+00
    0.00000E+00         0.00000E+00         0.10082E+08
 
    0.10019E+08         0.11265E+06         0.00000E+00
    0.11265E+06         0.23423E+08         0.00000E+00
    0.00000E+00         0.00000E+00         0.10032E+08
 
    0.99618E+07         0.11173E+06         0.00000E+00
    0.11173E+06         0.23312E+08         0.00000E+00
    0.00000E+00         0.00000E+00         0.99822E+07
 
    0.99039E+07         0.11064E+06         0.00000E+00
    0.11064E+06         0.23201E+08         0.00000E+00
    0.00000E+00         0.00000E+00         0.99314E+07
 
    0.98449E+07         0.10935E+06         0.00000E+00
    0.10935E+06         0.23089E+08         0.00000E+00
    0.00000E+00         0.00000E+00         0.98800E+07
 
    0.97846E+07         0.10784E+06         0.00000E+00
    0.10784E+06         0.22976E+08         0.00000E+00
    0.00000E+00         0.00000E+00         0.98281E+07
 
    0.97230E+07         0.10609E+06         0.00000E+00
    0.10609E+06         0.22862E+08         0.00000E+00
    0.00000E+00         0.00000E+00         0.97756E+07
 
    0.96600E+07         0.10405E+06         0.00000E+00
    0.10405E+06         0.22748E+08         0.00000E+00
    0.00000E+00         0.00000E+00         0.97225E+07
 
    0.95954E+07         0.10170E+06         0.00000E+00
    0.10170E+06         0.22634E+08         0.00000E+00
    0.00000E+00         0.00000E+00         0.96687E+07
 
    0.95292E+07         0.98989E+05         0.00000E+00
    0.98989E+05         0.22518E+08         0.00000E+00
    0.00000E+00         0.00000E+00         0.96143E+07
 
    0.94613E+07         0.95870E+05         0.00000E+00
    0.95870E+05         0.22403E+08         0.00000E+00
    0.00000E+00         0.00000E+00         0.95592E+07
 
    0.93914E+07         0.92285E+05         0.00000E+00
    0.92285E+05         0.22286E+08         0.00000E+00
    0.00000E+00         0.00000E+00         0.95033E+07
 
    0.93193E+07         0.88172E+05         0.00000E+00
    0.88172E+05         0.22169E+08         0.00000E+00
    0.00000E+00         0.00000E+00         0.94466E+07
 
    0.92450E+07         0.83462E+05         0.00000E+00
    0.83462E+05         0.22052E+08         0.00000E+00
    0.00000E+00         0.00000E+00         0.93891E+07
 
    0.91682E+07         0.78081E+05         0.00000E+00
    0.78081E+05         0.21934E+08         0.00000E+00
    0.00000E+00         0.00000E+00         0.93307E+07
 
    0.90886E+07         0.71954E+05         0.00000E+00
    0.71954E+05         0.21816E+08         0.00000E+00
    0.00000E+00         0.00000E+00         0.92713E+07
 
    0.90060E+07         0.65009E+05         0.00000E+00
    0.65009E+05         0.21697E+08         0.00000E+00
    0.00000E+00         0.00000E+00         0.92108E+07
 
    0.89202E+07         0.57185E+05         0.00000E+00
    0.57185E+05         0.21577E+08         0.00000E+00
    0.00000E+00         0.00000E+00         0.91493E+07
 
    0.88309E+07         0.48441E+05         0.00000E+00
    0.48441E+05         0.21458E+08         0.00000E+00
    0.00000E+00         0.00000E+00         0.90866E+07
 
    0.87378E+07         0.38771E+05         0.00000E+00
    0.38771E+05         0.21338E+08         0.00000E+00
    0.00000E+00         0.00000E+00         0.90226E+07
 
    0.86408E+07         0.28220E+05         0.00000E+00
    0.28220E+05         0.21217E+08         0.00000E+00
    0.00000E+00         0.00000E+00         0.89575E+07
 
    0.85396E+07         0.16912E+05         0.00000E+00
    0.16912E+05         0.21097E+08         0.00000E+00
    0.00000E+00         0.00000E+00         0.88910E+07
 
    0.84343E+07         0.50720E+04         0.00000E+00
    0.50720E+04         0.20977E+08         0.00000E+00
    0.00000E+00         0.00000E+00         0.88233E+07
 
    0.83248E+07        -0.69302E+04         0.00000E+00
   -0.69302E+04         0.20857E+08         0.00000E+00
    0.00000E+00         0.00000E+00         0.87545E+07
 
    0.82117E+07        -0.18525E+05         0.00000E+00
   -0.18525E+05         0.20737E+08         0.00000E+00
    0.00000E+00         0.00000E+00         0.86847E+07
 
    0.80956E+07        -0.28843E+05         0.00000E+00
   -0.28843E+05         0.20618E+08         0.00000E+00
    0.00000E+00         0.00000E+00         0.86142E+07
 
    0.79778E+07        -0.36508E+05         0.00000E+00
   -0.36508E+05         0.20501E+08         0.00000E+00
    0.00000E+00         0.00000E+00         0.85437E+07
 
    0.78605E+07        -0.39014E+05         0.00000E+00
   -0.39014E+05         0.20387E+08         0.00000E+00
    0.00000E+00         0.00000E+00         0.84741E+07
 
    0.77451E+07        -0.32093E+05         0.00000E+00
   -0.32093E+05         0.20281E+08         0.00000E+00
    0.00000E+00         0.00000E+00         0.84077E+07
 
    0.76296E+07        -0.12838E+05         0.00000E+00
   -0.12838E+05         0.20195E+08         0.00000E+00
    0.00000E+00         0.00000E+00         0.83474E+07
 
    0.13280E+08        -0.74847E+04         0.00000E+00
   -0.74847E+04         0.29482E+08         0.00000E+00
    0.00000E+00         0.00000E+00         0.12829E+08
 
    0.13213E+08        -0.18193E+05         0.00000E+00
   -0.18193E+05         0.29431E+08         0.00000E+00
    0.00000E+00         0.00000E+00         0.12793E+08
 
    0.13146E+08        -0.21202E+05         0.00000E+00
   -0.21202E+05         0.29368E+08         0.00000E+00
    0.00000E+00         0.00000E+00         0.12754E+08
 
    0.13077E+08        -0.18875E+05         0.00000E+00
   -0.18875E+05         0.29301E+08         0.00000E+00
    0.00000E+00         0.00000E+00         0.12713E+08
 
    0.13009E+08        -0.13881E+05         0.00000E+00
   -0.13881E+05         0.29232E+08         0.00000E+00
    0.00000E+00         0.00000E+00         0.12672E+08
 
    0.12941E+08        -0.75675E+04         0.00000E+00
   -0.75675E+04         0.29163E+08         0.00000E+00
    0.00000E+00         0.00000E+00         0.12631E+08
 
    0.12876E+08        -0.63847E+03         0.00000E+00
   -0.63847E+03         0.29093E+08         0.00000E+00
    0.00000E+00         0.00000E+00         0.12591E+08
 
    0.12813E+08         0.64614E+04         0.00000E+00
    0.64614E+04         0.29023E+08         0.00000E+00
    0.00000E+00         0.00000E+00         0.12551E+08
 
    0.12752E+08         0.13444E+05         0.00000E+00
    0.13444E+05         0.28952E+08         0.00000E+00
    0.00000E+00         0.00000E+00         0.12511E+08
 
    0.12694E+08         0.20122E+05         0.00000E+00
    0.20122E+05         0.28881E+08         0.00000E+00
    0.00000E+00         0.00000E+00         0.12473E+08
 
    0.12639E+08         0.26383E+05         0.00000E+00
    0.26383E+05         0.28810E+08         0.00000E+00
    0.00000E+00         0.00000E+00         0.12435E+08
 
    0.12585E+08         0.32169E+05         0.00000E+00
    0.32169E+05         0.28739E+08         0.00000E+00
    0.00000E+00         0.00000E+00         0.12397E+08
 
    0.12534E+08         0.37460E+05         0.00000E+00
    0.37460E+05         0.28667E+08         0.00000E+00
    0.00000E+00         0.00000E+00         0.12360E+08
 
    0.12485E+08         0.42263E+05         0.00000E+00
    0.42263E+05         0.28595E+08         0.00000E+00
    0.00000E+00         0.00000E+00         0.12324E+08
 
    0.12438E+08         0.46604E+05         0.00000E+00
    0.46604E+05         0.28523E+08         0.00000E+00
    0.00000E+00         0.00000E+00         0.12288E+08
 
    0.12393E+08         0.50520E+05         0.00000E+00
    0.50520E+05         0.28450E+08         0.00000E+00
    0.00000E+00         0.00000E+00         0.12253E+08
 
    0.12348E+08         0.54050E+05         0.00000E+00
    0.54050E+05         0.28377E+08         0.00000E+00
    0.00000E+00         0.00000E+00         0.12218E+08
 
    0.12305E+08         0.57238E+05         0.00000E+00
    0.57238E+05         0.28304E+08         0.00000E+00
    0.00000E+00         0.00000E+00         0.12183E+08
 
    0.12263E+08         0.60124E+05         0.00000E+00
    0.60124E+05         0.28231E+08         0.00000E+00
    0.00000E+00         0.00000E+00         0.12148E+08
 
    0.12222E+08         0.62746E+05         0.00000E+00
    0.62746E+05         0.28157E+08         0.00000E+00
    0.00000E+00         0.00000E+00         0.12114E+08
 
    0.12182E+08         0.65139E+05         0.00000E+00
    0.65139E+05         0.28083E+08         0.00000E+00
    0.00000E+00         0.00000E+00         0.12080E+08
 
    0.12143E+08         0.67334E+05         0.00000E+00
    0.67334E+05         0.28008E+08         0.00000E+00
    0.00000E+00         0.00000E+00         0.12045E+08
 
    0.12104E+08         0.69357E+05         0.00000E+00
    0.69357E+05         0.27933E+08         0.00000E+00
    0.00000E+00         0.00000E+00         0.12011E+08
 
    0.12066E+08         0.71232E+05         0.00000E+00
    0.71232E+05         0.27857E+08         0.00000E+00
    0.00000E+00         0.00000E+00         0.11977E+08
 
    0.12028E+08         0.72978E+05         0.00000E+00
    0.72978E+05         0.27781E+08         0.00000E+00
    0.00000E+00         0.00000E+00         0.11943E+08
 
    0.11990E+08         0.74613E+05         0.00000E+00
    0.74613E+05         0.27705E+08         0.00000E+00
    0.00000E+00         0.00000E+00         0.11909E+08
 
    0.11953E+08         0.76150E+05         0.00000E+00
    0.76150E+05         0.27628E+08         0.00000E+00
    0.00000E+00         0.00000E+00         0.11874E+08
 
    0.11916E+08         0.77601E+05         0.00000E+00
    0.77601E+05         0.27550E+08         0.00000E+00
    0.00000E+00         0.00000E+00         0.11840E+08
 
    0.11879E+08         0.78977E+05         0.00000E+00
    0.78977E+05         0.27472E+08         0.00000E+00
    0.00000E+00         0.00000E+00         0.11805E+08
 
    0.11842E+08         0.80286E+05         0.00000E+00
    0.80286E+05         0.27393E+08         0.00000E+00
    0.00000E+00         0.00000E+00         0.11771E+08
 
    0.11805E+08         0.81536E+05         0.00000E+00
    0.81536E+05         0.27314E+08         0.00000E+00
    0.00000E+00         0.00000E+00         0.11736E+08
 
    0.11769E+08         0.82732E+05         0.00000E+00
    0.82732E+05         0.27234E+08         0.00000E+00
    0.00000E+00         0.00000E+00         0.11701E+08
 
    0.11732E+08         0.83881E+05         0.00000E+00
    0.83881E+05         0.27153E+08         0.00000E+00
    0.00000E+00         0.00000E+00         0.11666E+08
 
    0.11695E+08         0.84986E+05         0.00000E+00
    0.84986E+05         0.27072E+08         0.00000E+00
    0.00000E+00         0.00000E+00         0.11630E+08
 
    0.11658E+08         0.86052E+05         0.00000E+00
    0.86052E+05         0.26990E+08         0.00000E+00
    0.00000E+00         0.00000E+00         0.11594E+08
 
    0.11621E+08         0.87082E+05         0.00000E+00
    0.87082E+05         0.26907E+08         0.00000E+00
    0.00000E+00         0.00000E+00         0.11559E+08
 
    0.11584E+08         0.88079E+05         0.00000E+00
    0.88079E+05         0.26824E+08         0.00000E+00
    0.00000E+00         0.00000E+00         0.11522E+08
 
    0.11547E+08         0.89044E+05         0.00000E+00
    0.89044E+05         0.26740E+08         0.00000E+00
    0.00000E+00         0.00000E+00         0.11486E+08
 
    0.11509E+08         0.89981E+05         0.00000E+00
    0.89981E+05         0.26655E+08         0.00000E+00
    0.00000E+00         0.00000E+00         0.11449E+08
 
    0.11471E+08         0.90890E+05         0.00000E+00
    0.90890E+05         0.26570E+08         0.00000E+00
    0.00000E+00         0.00000E+00         0.11412E+08
 
    0.11433E+08         0.91774E+05         0.00000E+00
    0.91774E+05         0.26484E+08         0.00000E+00
    0.00000E+00         0.00000E+00         0.11375E+08
 
    0.11395E+08         0.92632E+05         0.00000E+00
    0.92632E+05         0.26397E+08         0.00000E+00
    0.00000E+00         0.00000E+00         0.11337E+08
 
    0.11356E+08         0.93467E+05         0.00000E+00
    0.93467E+05         0.26309E+08         0.00000E+00
    0.00000E+00         0.00000E+00         0.11299E+08
 
    0.11317E+08         0.94278E+05         0.00000E+00
    0.94278E+05         0.26220E+08         0.00000E+00
    0.00000E+00         0.00000E+00         0.11261E+08
 
    0.11278E+08         0.95066E+05         0.00000E+00
    0.95066E+05         0.26131E+08         0.00000E+00
    0.00000E+00         0.00000E+00         0.11223E+08
 
    0.11238E+08         0.95831E+05         0.00000E+00
    0.95831E+05         0.26041E+08         0.00000E+00
    0.00000E+00         0.00000E+00         0.11184E+08
 
    0.11198E+08         0.96572E+05         0.00000E+00
    0.96572E+05         0.25950E+08         0.00000E+00
    0.00000E+00         0.00000E+00         0.11144E+08
 
    0.11157E+08         0.97290E+05         0.00000E+00
    0.97290E+05         0.25859E+08         0.00000E+00
    0.00000E+00         0.00000E+00         0.11105E+08
 
    0.11116E+08         0.97984E+05         0.00000E+00
    0.97984E+05         0.25766E+08         0.00000E+00
    0.00000E+00         0.00000E+00         0.11065E+08
 
    0.11075E+08         0.98652E+05         0.00000E+00
    0.98652E+05         0.25673E+08         0.00000E+00
    0.00000E+00         0.00000E+00         0.11024E+08
 
    0.11033E+08         0.99293E+05         0.00000E+00
    0.99293E+05         0.25579E+08         0.00000E+00
    0.00000E+00         0.00000E+00         0.10984E+08
 
    0.10991E+08         0.99908E+05         0.00000E+00
    0.99908E+05         0.25484E+08         0.00000E+00
    0.00000E+00         0.00000E+00         0.10943E+08
 
    0.10948E+08         0.10049E+06         0.00000E+00
    0.10049E+06         0.25389E+08         0.00000E+00
    0.00000E+00         0.00000E+00         0.10901E+08
 
    0.10905E+08         0.10105E+06         0.00000E+00
    0.10105E+06         0.25292E+08         0.00000E+00
    0.00000E+00         0.00000E+00         0.10859E+08
 
    0.10861E+08         0.10157E+06         0.00000E+00
    0.10157E+06         0.25195E+08         0.00000E+00
    0.00000E+00         0.00000E+00         0.10817E+08
 
    0.10817E+08         0.10205E+06         0.00000E+00
    0.10205E+06         0.25097E+08         0.00000E+00
    0.00000E+00         0.00000E+00         0.10774E+08
 
    0.10772E+08         0.10250E+06         0.00000E+00
    0.10250E+06         0.24998E+08         0.00000E+00
    0.00000E+00         0.00000E+00         0.10731E+08
 
    0.10726E+08         0.10291E+06         0.00000E+00
    0.10291E+06         0.24899E+08         0.00000E+00
    0.00000E+00         0.00000E+00         0.10688E+08
 
    0.10680E+08         0.10327E+06         0.00000E+00
    0.10327E+06         0.24798E+08         0.00000E+00
    0.00000E+00         0.00000E+00         0.10644E+08
 
    0.10634E+08         0.10359E+06         0.00000E+00
    0.10359E+06         0.24697E+08         0.00000E+00
    0.00000E+00         0.00000E+00         0.10599E+08
 
    0.10587E+08         0.10385E+06         0.00000E+00
    0.10385E+06         0.24595E+08         0.00000E+00
    0.00000E+00         0.00000E+00         0.10555E+08
 
    0.10539E+08         0.10406E+06         0.00000E+00
    0.10406E+06         0.24492E+08         0.00000E+00
    0.00000E+00         0.00000E+00         0.10509E+08
 
    0.10490E+08         0.10421E+06         0.00000E+00
    0.10421E+06         0.24389E+08         0.00000E+00
    0.00000E+00         0.00000E+00         0.10464E+08
 
    0.10441E+08         0.10429E+06         0.00000E+00
    0.10429E+06         0.24284E+08         0.00000E+00
    0.00000E+00         0.00000E+00         0.10418E+08
 
    0.10391E+08         0.10431E+06         0.00000E+00
    0.10431E+06         0.24179E+08         0.00000E+00
    0.00000E+00         0.00000E+00         0.10371E+08
 
    0.10340E+08         0.10425E+06         0.00000E+00
    0.10425E+06         0.24074E+08         0.00000E+00
    0.00000E+00         0.00000E+00         0.10324E+08
 
    0.10289E+08         0.10410E+06         0.00000E+00
    0.10410E+06         0.23967E+08         0.00000E+00
    0.00000E+00         0.00000E+00         0.10277E+08
 
    0.10237E+08         0.10387E+06         0.00000E+00
    0.10387E+06         0.23860E+08         0.00000E+00
    0.00000E+00         0.00000E+00         0.10229E+08
 
    0.10184E+08         0.10353E+06         0.00000E+00
    0.10353E+06         0.23752E+08         0.00000E+00
    0.00000E+00         0.00000E+00         0.10181E+08
 
    0.10130E+08         0.10309E+06         0.00000E+00
    0.10309E+06         0.23643E+08         0.00000E+00
    0.00000E+00         0.00000E+00         0.10132E+08
 
    0.10075E+08         0.10253E+06         0.00000E+00
    0.10253E+06         0.23533E+08         0.00000E+00
    0.00000E+00         0.00000E+00         0.10082E+08
 
    0.10019E+08         0.10184E+06         0.00000E+00
    0.10184E+06         0.23423E+08         0.00000E+00
    0.00000E+00         0.00000E+00         0.10033E+08
 
    0.99621E+07         0.10101E+06         0.00000E+00
    0.10101E+06         0.23312E+08         0.00000E+00
    0.00000E+00         0.00000E+00         0.99823E+07
 
    0.99041E+07         0.10002E+06         0.00000E+00
    0.10002E+06         0.23201E+08         0.00000E+00
    0.00000E+00         0.00000E+00         0.99315E+07
 
    0.98449E+07         0.98843E+05         0.00000E+00
    0.98843E+05         0.23089E+08         0.00000E+00
    0.00000E+00         0.00000E+00         0.98801E+07
 
    0.97845E+07         0.97470E+05         0.00000E+00
    0.97470E+05         0.22976E+08         0.00000E+00
    0.00000E+00         0.00000E+00         0.98282E+07
 
    0.97228E+07         0.95873E+05         0.00000E+00
    0.95873E+05         0.22863E+08         0.00000E+00
    0.00000E+00         0.00000E+00         0.97756E+07
 
    0.96596E+07         0.94021E+05         0.00000E+00
    0.94021E+05         0.22749E+08         0.00000E+00
    0.00000E+00         0.00000E+00         0.97225E+07
 
    0.95949E+07         0.91879E+05         0.00000E+00
    0.91879E+05         0.22634E+08         0.00000E+00
    0.00000E+00         0.00000E+00         0.96687E+07
 
    0.95285E+07         0.89409E+05         0.00000E+00
    0.89409E+05         0.22519E+08         0.00000E+00
    0.00000E+00         0.00000E+00         0.96142E+07
 
    0.94603E+07         0.86564E+05         0.00000E+00
    0.86564E+05         0.22403E+08         0.00000E+00
    0.00000E+00         0.00000E+00         0.95591E+07
 
    0.93901E+07         0.83292E+05         0.00000E+00
    0.83292E+05         0.22287E+08         0.00000E+00
    0.00000E+00         0.00000E+00         0.95031E+07
 
    0.93178E+07         0.79532E+05         0.00000E+00
    0.79532E+05         0.22170E+08         0.00000E+00
    0.00000E+00         0.00000E+00         0.94464E+07
 
    0.92431E+07         0.75222E+05         0.00000E+00
    0.75222E+05         0.22053E+08         0.00000E+00
    0.00000E+00         0.00000E+00         0.93888E+07
 
    0.91659E+07         0.70290E+05         0.00000E+00
    0.70290E+05         0.21935E+08         0.00000E+00
    0.00000E+00         0.00000E+00         0.93303E+07
 
    0.90858E+07         0.64667E+05         0.00000E+00
    0.64667E+05         0.21817E+08         0.00000E+00
    0.00000E+00         0.00000E+00         0.92708E+07
 
    0.90026E+07         0.58283E+05         0.00000E+00
    0.58283E+05         0.21698E+08         0.00000E+00
    0.00000E+00         0.00000E+00         0.92102E+07
 
    0.89161E+07         0.51079E+05         0.00000E+00
    0.51079E+05         0.21579E+08         0.00000E+00
    0.00000E+00         0.00000E+00         0.91485E+07
 
    0.88259E+07         0.43014E+05         0.00000E+00
    0.43014E+05         0.21459E+08         0.00000E+00
    0.00000E+00         0.00000E+00         0.90856E+07
 
    0.87318E+07         0.34079E+05         0.00000E+00
    0.34079E+05         0.21340E+08         0.00000E+00
    0.00000E+00         0.00000E+00         0.90214E+07
 
    0.86336E+07         0.24310E+05         0.00000E+00
    0.24310E+05         0.21220E+08         0.00000E+00
    0.00000E+00         0.00000E+00         0.89559E+07
 
    0.85310E+07         0.13816E+05         0.00000E+00
    0.13816E+05         0.21099E+08         0.00000E+00
    0.00000E+00         0.00000E+00         0.88891E+07
 
    0.84239E+07         0.27952E+04         0.00000E+00
    0.27952E+04         0.20979E+08         0.00000E+00
    0.00000E+00         0.00000E+00         0.88209E+07
 
    0.83125E+07        -0.84235E+04         0.00000E+00
   -0.84235E+04         0.20859E+08         0.00000E+00
    0.00000E+00         0.00000E+00         0.87515E+07
 
    0.81970E+07        -0.19336E+05         0.00000E+00
   -0.19336E+05         0.20739E+08         0.00000E+00
    0.00000E+00         0.00000E+00         0.86809E+07
 
    0.80784E+07        -0.29168E+05         0.00000E+00
   -0.29168E+05         0.20620E+08         0.00000E+00
    0.00000E+00         0.00000E+00         0.86096E+07
 
    0.79578E+07        -0.36696E+05         0.00000E+00
   -0.36696E+05         0.20502E+08         0.00000E+00
    0.00000E+00         0.00000E+00         0.85380E+07
 
    0.78376E+07        -0.39589E+05         0.00000E+00
   -0.39589E+05         0.20386E+08         0.00000E+00
    0.00000E+00         0.00000E+00         0.84672E+07
 
    0.77202E+07        -0.33229E+05         0.00000E+00
   -0.33229E+05         0.20278E+08         0.00000E+00
    0.00000E+00         0.00000E+00         0.83995E+07
 
    0.76040E+07        -0.13536E+05         0.00000E+00
   -0.13536E+05         0.20190E+08         0.00000E+00
    0.00000E+00         0.00000E+00         0.83382E+07
 
    0.13296E+08        -0.79064E+04         0.00000E+00
   -0.79064E+04         0.29485E+08         0.00000E+00
    0.00000E+00         0.00000E+00         0.12834E+08
 
    0.13229E+08        -0.18776E+05         0.00000E+00
   -0.18776E+05         0.29432E+08         0.00000E+00
    0.00000E+00         0.00000E+00         0.12798E+08
 
    0.13160E+08        -0.21362E+05         0.00000E+00
   -0.21362E+05         0.29368E+08         0.00000E+00
    0.00000E+00         0.00000E+00         0.12758E+08
 
    0.13090E+08        -0.18847E+05         0.00000E+00
   -0.18847E+05         0.29300E+08         0.00000E+00
    0.00000E+00         0.00000E+00         0.12717E+08
 
    0.13019E+08        -0.14028E+05         0.00000E+00
   -0.14028E+05         0.29231E+08         0.00000E+00
    0.00000E+00         0.00000E+00         0.12675E+08
 
    0.12950E+08        -0.80954E+04         0.00000E+00
   -0.80954E+04         0.29162E+08         0.00000E+00
    0.00000E+00         0.00000E+00         0.12634E+08
 
    0.12883E+08        -0.16604E+04         0.00000E+00
   -0.16604E+04         0.29092E+08         0.00000E+00
    0.00000E+00         0.00000E+00         0.12593E+08
 
    0.12819E+08         0.48893E+04         0.00000E+00
    0.48893E+04         0.29021E+08         0.00000E+00
    0.00000E+00         0.00000E+00         0.12552E+08
 
    0.12758E+08         0.11304E+05         0.00000E+00
    0.11304E+05         0.28951E+08         0.00000E+00
    0.00000E+00         0.00000E+00         0.12513E+08
 
    0.12699E+08         0.17420E+05         0.00000E+00
    0.17420E+05         0.28880E+08         0.00000E+00
    0.00000E+00         0.00000E+00         0.12474E+08
 
    0.12643E+08         0.23141E+05         0.00000E+00
    0.23141E+05         0.28809E+08         0.00000E+00
    0.00000E+00         0.00000E+00         0.12435E+08
 
    0.12589E+08         0.28416E+05         0.00000E+00
    0.28416E+05         0.28738E+08         0.00000E+00
    0.00000E+00         0.00000E+00         0.12398E+08
 
    0.12538E+08         0.33230E+05         0.00000E+00
    0.33230E+05         0.28666E+08         0.00000E+00
    0.00000E+00         0.00000E+00         0.12361E+08
 
    0.12488E+08         0.37593E+05         0.00000E+00
    0.37593E+05         0.28594E+08         0.00000E+00
    0.00000E+00         0.00000E+00         0.12325E+08
 
    0.12441E+08         0.41529E+05         0.00000E+00
    0.41529E+05         0.28522E+08         0.00000E+00
    0.00000E+00         0.00000E+00         0.12289E+08
 
    0.12395E+08         0.45072E+05         0.00000E+00
    0.45072E+05         0.28450E+08         0.00000E+00
    0.00000E+00         0.00000E+00         0.12253E+08
 
    0.12350E+08         0.48263E+05         0.00000E+00
    0.48263E+05         0.28377E+08         0.00000E+00
    0.00000E+00         0.00000E+00         0.12218E+08
 
    0.12307E+08         0.51139E+05         0.00000E+00
    0.51139E+05         0.28304E+08         0.00000E+00
    0.00000E+00         0.00000E+00         0.12183E+08
 
    0.12265E+08         0.53740E+05         0.00000E+00
    0.53740E+05         0.28230E+08         0.00000E+00
    0.00000E+00         0.00000E+00         0.12149E+08
 
    0.12224E+08         0.56100E+05         0.00000E+00
    0.56100E+05         0.28157E+08         0.00000E+00
    0.00000E+00         0.00000E+00         0.12114E+08
 
    0.12184E+08         0.58251E+05         0.00000E+00
    0.58251E+05         0.28082E+08         0.00000E+00
    0.00000E+00         0.00000E+00         0.12080E+08
 
    0.12144E+08         0.60223E+05         0.00000E+00
    0.60223E+05         0.28008E+08         0.00000E+00
    0.00000E+00         0.00000E+00         0.12046E+08
 
    0.12106E+08         0.62039E+05         0.00000E+00
    0.62039E+05         0.27933E+08         0.00000E+00
    0.00000E+00         0.00000E+00         0.12011E+08
 
    0.12067E+08         0.63721E+05         0.00000E+00
    0.63721E+05         0.27857E+08         0.00000E+00
    0.00000E+00         0.00000E+00         0.11977E+08
 
    0.12029E+08         0.65287E+05         0.00000E+00
    0.65287E+05         0.27781E+08         0.00000E+00
    0.00000E+00         0.00000E+00         0.11943E+08
 
    0.11992E+08         0.66752E+05         0.00000E+00
    0.66752E+05         0.27705E+08         0.00000E+00
    0.00000E+00         0.00000E+00         0.11909E+08
 
    0.11954E+08         0.68129E+05         0.00000E+00
    0.68129E+05         0.27628E+08         0.00000E+00
    0.00000E+00         0.00000E+00         0.11875E+08
 
    0.11917E+08         0.69429E+05         0.00000E+00
    0.69429E+05         0.27550E+08         0.00000E+00
    0.00000E+00         0.00000E+00         0.11840E+08
 
    0.11880E+08         0.70661E+05         0.00000E+00
    0.70661E+05         0.27472E+08         0.00000E+00
    0.00000E+00         0.00000E+00         0.11806E+08
 
    0.11844E+08         0.71833E+05         0.00000E+00
    0.71833E+05         0.27393E+08         0.00000E+00
    0.00000E+00         0.00000E+00         0.11771E+08
 
    0.11807E+08         0.72952E+05         0.00000E+00
    0.72952E+05         0.27314E+08         0.00000E+00
    0.00000E+00         0.00000E+00         0.11736E+08
 
    0.11770E+08         0.74024E+05         0.00000E+00
    0.74024E+05         0.27234E+08         0.00000E+00
    0.00000E+00         0.00000E+00         0.11701E+08
 
    0.11733E+08         0.75052E+05         0.00000E+00
    0.75052E+05         0.27153E+08         0.00000E+00
    0.00000E+00         0.00000E+00         0.11666E+08
 
    0.11697E+08         0.76042E+05         0.00000E+00
    0.76042E+05         0.27072E+08         0.00000E+00
    0.00000E+00         0.00000E+00         0.11631E+08
 
    0.11660E+08         0.76996E+05         0.00000E+00
    0.76996E+05         0.26990E+08         0.00000E+00
    0.00000E+00         0.00000E+00         0.11595E+08
 
    0.11623E+08         0.77917E+05         0.00000E+00
    0.77917E+05         0.26907E+08         0.00000E+00
    0.00000E+00         0.00000E+00         0.11559E+08
 
    0.11585E+08         0.78809E+05         0.00000E+00
    0.78809E+05         0.26824E+08         0.00000E+00
    0.00000E+00         0.00000E+00         0.11523E+08
 
    0.11548E+08         0.79673E+05         0.00000E+00
    0.79673E+05         0.26740E+08         0.00000E+00
    0.00000E+00         0.00000E+00         0.11486E+08
 
    0.11510E+08         0.80510E+05         0.00000E+00
    0.80510E+05         0.26655E+08         0.00000E+00
    0.00000E+00         0.00000E+00         0.11450E+08
 
    0.11473E+08         0.81324E+05         0.00000E+00
    0.81324E+05         0.26570E+08         0.00000E+00
    0.00000E+00         0.00000E+00         0.11413E+08
 
    0.11435E+08         0.82114E+05         0.00000E+00
    0.82114E+05         0.26483E+08         0.00000E+00
    0.00000E+00         0.00000E+00         0.11375E+08
 
    0.11396E+08         0.82882E+05         0.00000E+00
    0.82882E+05         0.26396E+08         0.00000E+00
    0.00000E+00         0.00000E+00         0.11338E+08
 
    0.11357E+08         0.83628E+05         0.00000E+00
    0.83628E+05         0.26309E+08         0.00000E+00
    0.00000E+00         0.00000E+00         0.11300E+08
 
    0.11318E+08         0.84353E+05         0.00000E+00
    0.84353E+05         0.26220E+08         0.00000E+00
    0.00000E+00         0.00000E+00         0.11262E+08
 
    0.11279E+08         0.85057E+05         0.00000E+00
    0.85057E+05         0.26131E+08         0.00000E+00
    0.00000E+00         0.00000E+00         0.11223E+08
 
    0.11239E+08         0.85741E+05         0.00000E+00
    0.85741E+05         0.26041E+08         0.00000E+00
    0.00000E+00         0.00000E+00         0.11184E+08
 
    0.11199E+08         0.86403E+05         0.00000E+00
    0.86403E+05         0.25950E+08         0.00000E+00
    0.00000E+00         0.00000E+00         0.11145E+08
 
    0.11159E+08         0.87044E+05         0.00000E+00
    0.87044E+05         0.25859E+08         0.00000E+00
    0.00000E+00         0.00000E+00         0.11105E+08
 
    0.11118E+08         0.87664E+05         0.00000E+00
    0.87664E+05         0.25766E+08         0.00000E+00
    0.00000E+00         0.00000E+00         0.11065E+08
 
    0.11076E+08         0.88260E+05         0.00000E+00
    0.88260E+05         0.25673E+08         0.00000E+00
    0.00000E+00         0.00000E+00         0.11025E+08
 
    0.11034E+08         0.88833E+05         0.00000E+00
    0.88833E+05         0.25579E+08         0.00000E+00
    0.00000E+00         0.00000E+00         0.10984E+08
 
    0.10992E+08         0.89381E+05         0.00000E+00
    0.89381E+05         0.25484E+08         0.00000E+00
    0.00000E+00         0.00000E+00         0.10943E+08
 
    0.10949E+08         0.89903E+05         0.00000E+00
    0.89903E+05         0.25389E+08         0.00000E+00
    0.00000E+00         0.00000E+00         0.10901E+08
 
    0.10906E+08         0.90397E+05         0.00000E+00
    0.90397E+05         0.25292E+08         0.00000E+00
    0.00000E+00         0.00000E+00         0.10859E+08
 
    0.10862E+08         0.90861E+05         0.00000E+00
    0.90861E+05         0.25195E+08         0.00000E+00
    0.00000E+00         0.00000E+00         0.10817E+08
 
    0.10818E+08         0.91294E+05         0.00000E+00
    0.91294E+05         0.25097E+08         0.00000E+00
    0.00000E+00         0.00000E+00         0.10774E+08
 
    0.10773E+08         0.91692E+05         0.00000E+00
    0.91692E+05         0.24998E+08         0.00000E+00
    0.00000E+00         0.00000E+00         0.10731E+08
 
    0.10728E+08         0.92054E+05         0.00000E+00
    0.92054E+05         0.24899E+08         0.00000E+00
    0.00000E+00         0.00000E+00         0.10688E+08
 
    0.10682E+08         0.92377E+05         0.00000E+00
    0.92377E+05         0.24798E+08         0.00000E+00
    0.00000E+00         0.00000E+00         0.10644E+08
 
    0.10635E+08         0.92657E+05         0.00000E+00
    0.92657E+05         0.24697E+08         0.00000E+00
    0.00000E+00         0.00000E+00         0.10600E+08
 
    0.10588E+08         0.92891E+05         0.00000E+00
    0.92891E+05         0.24595E+08         0.00000E+00
    0.00000E+00         0.00000E+00         0.10555E+08
 
    0.10540E+08         0.93076E+05         0.00000E+00
    0.93076E+05         0.24492E+08         0.00000E+00
    0.00000E+00         0.00000E+00         0.10510E+08
 
    0.10491E+08         0.93207E+05         0.00000E+00
    0.93207E+05         0.24389E+08         0.00000E+00
    0.00000E+00         0.00000E+00         0.10464E+08
 
    0.10442E+08         0.93280E+05         0.00000E+00
    0.93280E+05         0.24284E+08         0.00000E+00
    0.00000E+00         0.00000E+00         0.10418E+08
 
    0.10392E+08         0.93290E+05         0.00000E+00
    0.93290E+05         0.24179E+08         0.00000E+00
    0.00000E+00         0.00000E+00         0.10371E+08
 
    0.10341E+08         0.93232E+05         0.00000E+00
    0.93232E+05         0.24074E+08         0.00000E+00
    0.00000E+00         0.00000E+00         0.10324E+08
 
    0.10290E+08         0.93099E+05         0.00000E+00
    0.93099E+05         0.23967E+08         0.00000E+00
    0.00000E+00         0.00000E+00         0.10277E+08
 
    0.10237E+08         0.92886E+05         0.00000E+00
    0.92886E+05         0.23860E+08         0.00000E+00
    0.00000E+00         0.00000E+00         0.10229E+08
 
    0.10184E+08         0.92584E+05         0.00000E+00
    0.92584E+05         0.23752E+08         0.00000E+00
    0.00000E+00         0.00000E+00         0.10181E+08
 
    0.10130E+08         0.92186E+05         0.00000E+00
    0.92186E+05         0.23643E+08         0.00000E+00
    0.00000E+00         0.00000E+00         0.10132E+08
 
    0.10075E+08         0.91681E+05         0.00000E+00
    0.91681E+05         0.23533E+08         0.00000E+00
    0.00000E+00         0.00000E+00         0.10083E+08
 
    0.10019E+08         0.91060E+05         0.00000E+00
    0.91060E+05         0.23423E+08         0.00000E+00
    0.00000E+00         0.00000E+00         0.10033E+08
 
    0.99624E+07         0.90309E+05         0.00000E+00
    0.90309E+05         0.23313E+08         0.00000E+00
    0.00000E+00         0.00000E+00         0.99825E+07
 
    0.99043E+07         0.89415E+05         0.00000E+00
    0.89415E+05         0.23201E+08         0.00000E+00
    0.00000E+00         0.00000E+00         0.99316E+07
 
    0.98450E+07         0.88360E+05         0.00000E+00
    0.88360E+05         0.23089E+08         0.00000E+00
    0.00000E+00         0.00000E+00         0.98802E+07
 
    0.97845E+07         0.87126E+05         0.00000E+00
    0.87126E+05         0.22976E+08         0.00000E+00
    0.00000E+00         0.00000E+00         0.98282E+07
 
    0.97226E+07         0.85689E+05         0.00000E+00
    0.85689E+05         0.22863E+08         0.00000E+00
    0.00000E+00         0.00000E+00         0.97757E+07
 
    0.96593E+07         0.84022E+05         0.00000E+00
    0.84022E+05         0.22749E+08         0.00000E+00
    0.00000E+00         0.00000E+00         0.97225E+07
 
    0.95944E+07         0.82095E+05         0.00000E+00
    0.82095E+05         0.22635E+08         0.00000E+00
    0.00000E+00         0.00000E+00         0.96687E+07
 
    0.95278E+07         0.79870E+05         0.00000E+00
    0.79870E+05         0.22520E+08         0.00000E+00
    0.00000E+00         0.00000E+00         0.96142E+07
 
    0.94594E+07         0.77305E+05         0.00000E+00
    0.77305E+05         0.22404E+08         0.00000E+00
    0.00000E+00         0.00000E+00         0.95590E+07
 
    0.93890E+07         0.74351E+05         0.00000E+00
    0.74351E+05         0.22288E+08         0.00000E+00
    0.00000E+00         0.00000E+00         0.95030E+07
 
    0.93164E+07         0.70955E+05         0.00000E+00
    0.70955E+05         0.22171E+08         0.00000E+00
    0.00000E+00         0.00000E+00         0.94462E+07
 
    0.92414E+07         0.67056E+05         0.00000E+00
    0.67056E+05         0.22054E+08         0.00000E+00
    0.00000E+00         0.00000E+00         0.93886E+07
 
    0.91638E+07         0.62588E+05         0.00000E+00
    0.62588E+05         0.21936E+08         0.00000E+00
    0.00000E+00         0.00000E+00         0.93300E+07
 
    0.90832E+07         0.57486E+05         0.00000E+00
    0.57486E+05         0.21818E+08         0.00000E+00
    0.00000E+00         0.00000E+00         0.92704E+07
 
    0.89995E+07         0.51685E+05         0.00000E+00
    0.51685E+05         0.21699E+08         0.00000E+00
    0.00000E+00         0.00000E+00         0.92097E+07
 
    0.89123E+07         0.45127E+05         0.00000E+00
    0.45127E+05         0.21580E+08         0.00000E+00
    0.00000E+00         0.00000E+00         0.91478E+07
 
    0.88213E+07         0.37773E+05         0.00000E+00
    0.37773E+05         0.21461E+08         0.00000E+00
    0.00000E+00         0.00000E+00         0.90847E+07
 
    0.87262E+07         0.29609E+05         0.00000E+00
    0.29609E+05         0.21341E+08         0.00000E+00
    0.00000E+00         0.00000E+00         0.90203E+07
 
    0.86267E+07         0.20666E+05         0.00000E+00
    0.20666E+05         0.21221E+08         0.00000E+00
    0.00000E+00         0.00000E+00         0.89545E+07
 
    0.85226E+07         0.11034E+05         0.00000E+00
    0.11034E+05         0.21101E+08         0.00000E+00
    0.00000E+00         0.00000E+00         0.88872E+07
 
    0.84139E+07         0.88758E+03         0.00000E+00
    0.88758E+03         0.20981E+08         0.00000E+00
    0.00000E+00         0.00000E+00         0.88185E+07
 
    0.83004E+07        -0.94871E+04         0.00000E+00
   -0.94871E+04         0.20861E+08         0.00000E+00
    0.00000E+00         0.00000E+00         0.87485E+07
 
    0.81827E+07        -0.19653E+05         0.00000E+00
   -0.19653E+05         0.20741E+08         0.00000E+00
    0.00000E+00         0.00000E+00         0.86772E+07
 
    0.80613E+07        -0.28933E+05         0.00000E+00
   -0.28933E+05         0.20622E+08         0.00000E+00
    0.00000E+00         0.00000E+00         0.86050E+07
 
    0.79376E+07        -0.36268E+05         0.00000E+00
   -0.36268E+05         0.20503E+08         0.00000E+00
    0.00000E+00         0.00000E+00         0.85323E+07
 
    0.78143E+07        -0.39593E+05         0.00000E+00
   -0.39593E+05         0.20386E+08         0.00000E+00
    0.00000E+00         0.00000E+00         0.84602E+07
 
    0.76944E+07        -0.34073E+05         0.00000E+00
   -0.34073E+05         0.20275E+08         0.00000E+00
    0.00000E+00         0.00000E+00         0.83909E+07
 
    0.75772E+07        -0.14210E+05         0.00000E+00
   -0.14210E+05         0.20184E+08         0.00000E+00
    0.00000E+00         0.00000E+00         0.83285E+07
 
    0.13313E+08        -0.83115E+04         0.00000E+00
   -0.83115E+04         0.29488E+08         0.00000E+00
    0.00000E+00         0.00000E+00         0.12840E+08
 
    0.13245E+08        -0.19140E+05         0.00000E+00
   -0.19140E+05         0.29433E+08         0.00000E+00
    0.00000E+00         0.00000E+00         0.12803E+08
 
    0.13174E+08        -0.21134E+05         0.00000E+00
   -0.21134E+05         0.29367E+08         0.00000E+00
    0.00000E+00         0.00000E+00         0.12763E+08
 
    0.13102E+08        -0.18435E+05         0.00000E+00
   -0.18435E+05         0.29299E+08         0.00000E+00
    0.00000E+00         0.00000E+00         0.12720E+08
 
    0.13029E+08        -0.13841E+05         0.00000E+00
   -0.13841E+05         0.29230E+08         0.00000E+00
    0.00000E+00         0.00000E+00         0.12678E+08
 
    0.12959E+08        -0.83350E+04         0.00000E+00
   -0.83350E+04         0.29160E+08         0.00000E+00
    0.00000E+00         0.00000E+00         0.12636E+08
 
    0.12891E+08        -0.24372E+04         0.00000E+00
   -0.24372E+04         0.29090E+08         0.00000E+00
    0.00000E+00         0.00000E+00         0.12594E+08
 
    0.12825E+08         0.35236E+04         0.00000E+00
    0.35236E+04         0.29020E+08         0.00000E+00
    0.00000E+00         0.00000E+00         0.12554E+08
 
    0.12763E+08         0.93360E+04         0.00000E+00
    0.93360E+04         0.28950E+08         0.00000E+00
    0.00000E+00         0.00000E+00         0.12514E+08
 
    0.12703E+08         0.14861E+05         0.00000E+00
    0.14861E+05         0.28879E+08         0.00000E+00
    0.00000E+00         0.00000E+00         0.12475E+08
 
    0.12647E+08         0.20015E+05         0.00000E+00
    0.20015E+05         0.28808E+08         0.00000E+00
    0.00000E+00         0.00000E+00         0.12436E+08
 
    0.12592E+08         0.24758E+05         0.00000E+00
    0.24758E+05         0.28737E+08         0.00000E+00
    0.00000E+00         0.00000E+00         0.12399E+08
 
    0.12541E+08         0.29077E+05         0.00000E+00
    0.29077E+05         0.28665E+08         0.00000E+00
    0.00000E+00         0.00000E+00         0.12362E+08
 
    0.12491E+08         0.32983E+05         0.00000E+00
    0.32983E+05         0.28593E+08         0.00000E+00
    0.00000E+00         0.00000E+00         0.12325E+08
 
    0.12443E+08         0.36501E+05         0.00000E+00
    0.36501E+05         0.28521E+08         0.00000E+00
    0.00000E+00         0.00000E+00         0.12289E+08
 
    0.12397E+08         0.39663E+05         0.00000E+00
    0.39663E+05         0.28449E+08         0.00000E+00
    0.00000E+00         0.00000E+00         0.12254E+08
 
    0.12352E+08         0.42505E+05         0.00000E+00
    0.42505E+05         0.28376E+08         0.00000E+00
    0.00000E+00         0.00000E+00         0.12219E+08
 
    0.12309E+08         0.45064E+05         0.00000E+00
    0.45064E+05         0.28303E+08         0.00000E+00
    0.00000E+00         0.00000E+00         0.12184E+08
 
    0.12267E+08         0.47374E+05         0.00000E+00
    0.47374E+05         0.28230E+08         0.00000E+00
    0.00000E+00         0.00000E+00         0.12149E+08
 
    0.12226E+08         0.49468E+05         0.00000E+00
    0.49468E+05         0.28156E+08         0.00000E+00
    0.00000E+00         0.00000E+00         0.12115E+08
 
    0.12186E+08         0.51375E+05         0.00000E+00
    0.51375E+05         0.28082E+08         0.00000E+00
    0.00000E+00         0.00000E+00         0.12080E+08
 
    0.12146E+08         0.53121E+05         0.00000E+00
    0.53121E+05         0.28007E+08         0.00000E+00
    0.00000E+00         0.00000E+00         0.12046E+08
 
    0.12107E+08         0.54728E+05         0.00000E+00
    0.54728E+05         0.27932E+08         0.00000E+00
    0.00000E+00         0.00000E+00         0.12012E+08
 
    0.12069E+08         0.56216E+05         0.00000E+00
    0.56216E+05         0.27857E+08         0.00000E+00
    0.00000E+00         0.00000E+00         0.11978E+08
 
    0.12031E+08         0.57600E+05         0.00000E+00
    0.57600E+05         0.27781E+08         0.00000E+00
    0.00000E+00         0.00000E+00         0.11943E+08
 
    0.11993E+08         0.58894E+05         0.00000E+00
    0.58894E+05         0.27704E+08         0.00000E+00
    0.00000E+00         0.00000E+00         0.11909E+08
 
    0.11956E+08         0.60111E+05         0.00000E+00
    0.60111E+05         0.27627E+08         0.00000E+00
    0.00000E+00         0.00000E+00         0.11875E+08
 
    0.11919E+08         0.61259E+05         0.00000E+00
    0.61259E+05         0.27550E+08         0.00000E+00
    0.00000E+00         0.00000E+00         0.11841E+08
 
    0.11882E+08         0.62347E+05         0.00000E+00
    0.62347E+05         0.27472E+08         0.00000E+00
    0.00000E+00         0.00000E+00         0.11806E+08
 
    0.11845E+08         0.63383E+05         0.00000E+00
    0.63383E+05         0.27393E+08         0.00000E+00
    0.00000E+00         0.00000E+00         0.11771E+08
 
    0.11808E+08         0.64371E+05         0.00000E+00
    0.64371E+05         0.27313E+08         0.00000E+00
    0.00000E+00         0.00000E+00         0.11737E+08
 
    0.11772E+08         0.65316E+05         0.00000E+00
    0.65316E+05         0.27233E+08         0.00000E+00
    0.00000E+00         0.00000E+00         0.11702E+08
 
    0.11735E+08         0.66224E+05         0.00000E+00
    0.66224E+05         0.27153E+08         0.00000E+00
    0.00000E+00         0.00000E+00         0.11666E+08
 
    0.11698E+08         0.67097E+05         0.00000E+00
    0.67097E+05         0.27072E+08         0.00000E+00
    0.00000E+00         0.00000E+00         0.11631E+08
 
    0.11661E+08         0.67939E+05         0.00000E+00
    0.67939E+05         0.26990E+08         0.00000E+00
    0.00000E+00         0.00000E+00         0.11595E+08
 
    0.11624E+08         0.68753E+05         0.00000E+00
    0.68753E+05         0.26907E+08         0.00000E+00
    0.00000E+00         0.00000E+00         0.11559E+08
 
    0.11587E+08         0.69539E+05         0.00000E+00
    0.69539E+05         0.26824E+08         0.00000E+00
    0.00000E+00         0.00000E+00         0.11523E+08
 
    0.11549E+08         0.70302E+05         0.00000E+00
    0.70302E+05         0.26740E+08         0.00000E+00
    0.00000E+00         0.00000E+00         0.11487E+08
 
    0.11512E+08         0.71041E+05         0.00000E+00
    0.71041E+05         0.26655E+08         0.00000E+00
    0.00000E+00         0.00000E+00         0.11450E+08
 
    0.11474E+08         0.71758E+05         0.00000E+00
    0.71758E+05         0.26569E+08         0.00000E+00
    0.00000E+00         0.00000E+00         0.11413E+08
 
    0.11436E+08         0.72455E+05         0.00000E+00
    0.72455E+05         0.26483E+08         0.00000E+00
    0.00000E+00         0.00000E+00         0.11376E+08
 
    0.11397E+08         0.73132E+05         0.00000E+00
    0.73132E+05         0.26396E+08         0.00000E+00
    0.00000E+00         0.00000E+00         0.11338E+08
 
    0.11359E+08         0.73790E+05         0.00000E+00
    0.73790E+05         0.26309E+08         0.00000E+00
    0.00000E+00         0.00000E+00         0.11300E+08
 
    0.11320E+08         0.74429E+05         0.00000E+00
    0.74429E+05         0.26220E+08         0.00000E+00
    0.00000E+00         0.00000E+00         0.11262E+08
 
    0.11280E+08         0.75050E+05         0.00000E+00
    0.75050E+05         0.26131E+08         0.00000E+00
    0.00000E+00         0.00000E+00         0.11223E+08
 
    0.11241E+08         0.75652E+05         0.00000E+00
    0.75652E+05         0.26041E+08         0.00000E+00
    0.00000E+00         0.00000E+00         0.11184E+08
 
    0.11200E+08         0.76236E+05         0.00000E+00
    0.76236E+05         0.25950E+08         0.00000E+00
    0.00000E+00         0.00000E+00         0.11145E+08
 
    0.11160E+08         0.76800E+05         0.00000E+00
    0.76800E+05         0.25859E+08         0.00000E+00
    0.00000E+00         0.00000E+00         0.11106E+08
 
    0.11119E+08         0.77346E+05         0.00000E+00
    0.77346E+05         0.25766E+08         0.00000E+00
    0.00000E+00         0.00000E+00         0.11066E+08
 
    0.11078E+08         0.77871E+05         0.00000E+00
    0.77871E+05         0.25673E+08         0.00000E+00
    0.00000E+00         0.00000E+00         0.11025E+08
 
    0.11036E+08         0.78375E+05         0.00000E+00
    0.78375E+05         0.25579E+08         0.00000E+00
    0.00000E+00         0.00000E+00         0.10984E+08
 
    0.10993E+08         0.78858E+05         0.00000E+00
    0.78858E+05         0.25484E+08         0.00000E+00
    0.00000E+00         0.00000E+00         0.10943E+08
 
    0.10951E+08         0.79317E+05         0.00000E+00
    0.79317E+05         0.25389E+08         0.00000E+00
    0.00000E+00         0.00000E+00         0.10902E+08
 
    0.10907E+08         0.79751E+05         0.00000E+00
    0.79751E+05         0.25292E+08         0.00000E+00
    0.00000E+00         0.00000E+00         0.10860E+08
 
    0.10863E+08         0.80159E+05         0.00000E+00
    0.80159E+05         0.25195E+08         0.00000E+00
    0.00000E+00         0.00000E+00         0.10818E+08
 
    0.10819E+08         0.80539E+05         0.00000E+00
    0.80539E+05         0.25097E+08         0.00000E+00
    0.00000E+00         0.00000E+00         0.10775E+08
 
    0.10774E+08         0.80889E+05         0.00000E+00
    0.80889E+05         0.24998E+08         0.00000E+00
    0.00000E+00         0.00000E+00         0.10732E+08
 
    0.10729E+08         0.81207E+05         0.00000E+00
    0.81207E+05         0.24899E+08         0.00000E+00
    0.00000E+00         0.00000E+00         0.10688E+08
 
    0.10683E+08         0.81489E+05         0.00000E+00
    0.81489E+05         0.24798E+08         0.00000E+00
    0.00000E+00         0.00000E+00         0.10644E+08
 
    0.10636E+08         0.81735E+05         0.00000E+00
    0.81735E+05         0.24697E+08         0.00000E+00
    0.00000E+00         0.00000E+00         0.10600E+08
 
    0.10589E+08         0.81939E+05         0.00000E+00
    0.81939E+05         0.24595E+08         0.00000E+00
    0.00000E+00         0.00000E+00         0.10555E+08
 
    0.10541E+08         0.82100E+05         0.00000E+00
    0.82100E+05         0.24492E+08         0.00000E+00
    0.00000E+00         0.00000E+00         0.10510E+08
 
    0.10492E+08         0.82213E+05         0.00000E+00
    0.82213E+05         0.24389E+08         0.00000E+00
    0.00000E+00         0.00000E+00         0.10464E+08
 
    0.10443E+08         0.82275E+05         0.00000E+00
    0.82275E+05         0.24284E+08         0.00000E+00
    0.00000E+00         0.00000E+00         0.10418E+08
 
    0.10393E+08         0.82282E+05         0.00000E+00
    0.82282E+05         0.24179E+08         0.00000E+00
    0.00000E+00         0.00000E+00         0.10372E+08
 
    0.10342E+08         0.82228E+05         0.00000E+00
    0.82228E+05         0.24074E+08         0.00000E+00
    0.00000E+00         0.00000E+00         0.10325E+08
 
    0.10291E+08         0.82108E+05         0.00000E+00
    0.82108E+05         0.23967E+08         0.00000E+00
    0.00000E+00         0.00000E+00         0.10277E+08
 
    0.10238E+08         0.81917E+05         0.00000E+00
    0.81917E+05         0.23860E+08         0.00000E+00
    0.00000E+00         0.00000E+00         0.10229E+08
 
    0.10185E+08         0.81648E+05         0.00000E+00
    0.81648E+05         0.23752E+08         0.00000E+00
    0.00000E+00         0.00000E+00         0.10181E+08
 
    0.10131E+08         0.81293E+05         0.00000E+00
    0.81293E+05         0.23643E+08         0.00000E+00
    0.00000E+00         0.00000E+00         0.10132E+08
 
    0.10076E+08         0.80845E+05         0.00000E+00
    0.80845E+05         0.23534E+08         0.00000E+00
    0.00000E+00         0.00000E+00         0.10083E+08
 
    0.10020E+08         0.80293E+05         0.00000E+00
    0.80293E+05         0.23423E+08         0.00000E+00
    0.00000E+00         0.00000E+00         0.10033E+08
 
    0.99627E+07         0.79627E+05         0.00000E+00
    0.79627E+05         0.23313E+08         0.00000E+00
    0.00000E+00         0.00000E+00         0.99826E+07
 
    0.99045E+07         0.78834E+05         0.00000E+00
    0.78834E+05         0.23201E+08         0.00000E+00
    0.00000E+00         0.00000E+00         0.99318E+07
 
    0.98452E+07         0.77900E+05         0.00000E+00
    0.77900E+05         0.23089E+08         0.00000E+00
    0.00000E+00         0.00000E+00         0.98803E+07
 
    0.97845E+07         0.76805E+05         0.00000E+00
    0.76805E+05         0.22977E+08         0.00000E+00
    0.00000E+00         0.00000E+00         0.98283E+07
 
    0.97225E+07         0.75531E+05         0.00000E+00
    0.75531E+05         0.22863E+08         0.00000E+00
    0.00000E+00         0.00000E+00         0.97757E+07
 
    0.96591E+07         0.74053E+05         0.00000E+00
    0.74053E+05         0.22749E+08         0.00000E+00
    0.00000E+00         0.00000E+00         0.97225E+07
 
    0.95940E+07         0.72343E+05         0.00000E+00
    0.72343E+05         0.22635E+08         0.00000E+00
    0.00000E+00         0.00000E+00         0.96687E+07
 
    0.95273E+07         0.70367E+05         0.00000E+00
    0.70367E+05         0.22520E+08         0.00000E+00
    0.00000E+00         0.00000E+00         0.96142E+07
 
    0.94587E+07         0.68088E+05         0.00000E+00
    0.68088E+05         0.22404E+08         0.00000E+00
    0.00000E+00         0.00000E+00         0.95589E+07
 
    0.93881E+07         0.65461E+05         0.00000E+00
    0.65461E+05         0.22288E+08         0.00000E+00
    0.00000E+00         0.00000E+00         0.95029E+07
 
    0.93152E+07         0.62437E+05         0.00000E+00
    0.62437E+05         0.22172E+08         0.00000E+00
    0.00000E+00         0.00000E+00         0.94461E+07
 
    0.92399E+07         0.58960E+05         0.00000E+00
    0.58960E+05         0.22055E+08         0.00000E+00
    0.00000E+00         0.00000E+00         0.93884E+07
 
    0.91619E+07         0.54970E+05         0.00000E+00
    0.54970E+05         0.21937E+08         0.00000E+00
    0.00000E+00         0.00000E+00         0.93297E+07
 
    0.90809E+07         0.50407E+05         0.00000E+00
    0.50407E+05         0.21819E+08         0.00000E+00
    0.00000E+00         0.00000E+00         0.92700E+07
 
    0.89966E+07         0.45210E+05         0.00000E+00
    0.45210E+05         0.21701E+08         0.00000E+00
    0.00000E+00         0.00000E+00         0.92092E+07
 
    0.89087E+07         0.39325E+05         0.00000E+00
    0.39325E+05         0.21582E+08         0.00000E+00
    0.00000E+00         0.00000E+00         0.91471E+07
 
    0.88169E+07         0.32713E+05         0.00000E+00
    0.32713E+05         0.21463E+08         0.00000E+00
    0.00000E+00         0.00000E+00         0.90838E+07
 
    0.87208E+07         0.25359E+05         0.00000E+00
    0.25359E+05         0.21343E+08         0.00000E+00
    0.00000E+00         0.00000E+00         0.90192E+07
 
    0.86202E+07         0.17285E+05         0.00000E+00
    0.17285E+05         0.21223E+08         0.00000E+00
    0.00000E+00         0.00000E+00         0.89530E+07
 
    0.85147E+07         0.85664E+04         0.00000E+00
    0.85664E+04         0.21103E+08         0.00000E+00
    0.00000E+00         0.00000E+00         0.88854E+07
 
    0.84042E+07        -0.64764E+03         0.00000E+00
   -0.64764E+03         0.20983E+08         0.00000E+00
    0.00000E+00         0.00000E+00         0.88162E+07
 
    0.82887E+07        -0.10113E+05         0.00000E+00
   -0.10113E+05         0.20863E+08         0.00000E+00
    0.00000E+00         0.00000E+00         0.87456E+07
 
    0.81685E+07        -0.19458E+05         0.00000E+00
   -0.19458E+05         0.20743E+08         0.00000E+00
    0.00000E+00         0.00000E+00         0.86735E+07
 
    0.80443E+07        -0.28109E+05         0.00000E+00
   -0.28109E+05         0.20624E+08         0.00000E+00
    0.00000E+00         0.00000E+00         0.86004E+07
 
    0.79175E+07        -0.35164E+05         0.00000E+00
   -0.35164E+05         0.20505E+08         0.00000E+00
    0.00000E+00         0.00000E+00         0.85266E+07
 
    0.77905E+07        -0.38919E+05         0.00000E+00
   -0.38919E+05         0.20387E+08         0.00000E+00
    0.00000E+00         0.00000E+00         0.84531E+07
 
    0.76675E+07        -0.34535E+05         0.00000E+00
   -0.34535E+05         0.20273E+08         0.00000E+00
    0.00000E+00         0.00000E+00         0.83822E+07
 
    0.75491E+07        -0.14854E+05         0.00000E+00
   -0.14854E+05         0.20179E+08         0.00000E+00
    0.00000E+00         0.00000E+00         0.83184E+07
 
    0.13331E+08        -0.86934E+04         0.00000E+00
   -0.86934E+04         0.29491E+08         0.00000E+00
    0.00000E+00         0.00000E+00         0.12846E+08
 
    0.13262E+08        -0.19213E+05         0.00000E+00
   -0.19213E+05         0.29434E+08         0.00000E+00
    0.00000E+00         0.00000E+00         0.12809E+08
 
    0.13189E+08        -0.20444E+05         0.00000E+00
   -0.20444E+05         0.29367E+08         0.00000E+00
    0.00000E+00         0.00000E+00         0.12767E+08
 
    0.13114E+08        -0.17605E+05         0.00000E+00
   -0.17605E+05         0.29298E+08         0.00000E+00
    0.00000E+00         0.00000E+00         0.12724E+08
 
    0.13040E+08        -0.13303E+05         0.00000E+00
   -0.13303E+05         0.29229E+08         0.00000E+00
    0.00000E+00         0.00000E+00         0.12681E+08
 
    0.12967E+08        -0.82770E+04         0.00000E+00
   -0.82770E+04         0.29159E+08         0.00000E+00
    0.00000E+00         0.00000E+00         0.12638E+08
 
    0.12898E+08        -0.29651E+04         0.00000E+00
   -0.29651E+04         0.29089E+08         0.00000E+00
    0.00000E+00         0.00000E+00         0.12596E+08
 
    0.12831E+08         0.23654E+04         0.00000E+00
    0.23654E+04         0.29019E+08         0.00000E+00
    0.00000E+00         0.00000E+00         0.12555E+08
 
    0.12768E+08         0.75398E+04         0.00000E+00
    0.75398E+04         0.28949E+08         0.00000E+00
    0.00000E+00         0.00000E+00         0.12515E+08
 
    0.12708E+08         0.12442E+05         0.00000E+00
    0.12442E+05         0.28878E+08         0.00000E+00
    0.00000E+00         0.00000E+00         0.12476E+08
 
    0.12650E+08         0.17003E+05         0.00000E+00
    0.17003E+05         0.28807E+08         0.00000E+00
    0.00000E+00         0.00000E+00         0.12437E+08
 
    0.12596E+08         0.21190E+05         0.00000E+00
    0.21190E+05         0.28736E+08         0.00000E+00
    0.00000E+00         0.00000E+00         0.12399E+08
 
    0.12543E+08         0.24996E+05         0.00000E+00
    0.24996E+05         0.28664E+08         0.00000E+00
    0.00000E+00         0.00000E+00         0.12362E+08
 
    0.12493E+08         0.28431E+05         0.00000E+00
    0.28431E+05         0.28593E+08         0.00000E+00
    0.00000E+00         0.00000E+00         0.12326E+08
 
    0.12445E+08         0.31518E+05         0.00000E+00
    0.31518E+05         0.28521E+08         0.00000E+00
    0.00000E+00         0.00000E+00         0.12290E+08
 
    0.12399E+08         0.34289E+05         0.00000E+00
    0.34289E+05         0.28448E+08         0.00000E+00
    0.00000E+00         0.00000E+00         0.12254E+08
 
    0.12354E+08         0.36775E+05         0.00000E+00
    0.36775E+05         0.28376E+08         0.00000E+00
    0.00000E+00         0.00000E+00         0.12219E+08
 
    0.12311E+08         0.39010E+05         0.00000E+00
    0.39010E+05         0.28303E+08         0.00000E+00
    0.00000E+00         0.00000E+00         0.12184E+08
 
    0.12269E+08         0.41025E+05         0.00000E+00
    0.41025E+05         0.28229E+08         0.00000E+00
    0.00000E+00         0.00000E+00         0.12149E+08
 
    0.12227E+08         0.42849E+05         0.00000E+00
    0.42849E+05         0.28156E+08         0.00000E+00
    0.00000E+00         0.00000E+00         0.12115E+08
 
    0.12187E+08         0.44509E+05         0.00000E+00
    0.44509E+05         0.28082E+08         0.00000E+00
    0.00000E+00         0.00000E+00         0.12081E+08
 
    0.12148E+08         0.46027E+05         0.00000E+00
    0.46027E+05         0.28007E+08         0.00000E+00
    0.00000E+00         0.00000E+00         0.12046E+08
 
    0.12109E+08         0.47423E+05         0.00000E+00
    0.47423E+05         0.27932E+08         0.00000E+00
    0.00000E+00         0.00000E+00         0.12012E+08
 
    0.12070E+08         0.48715E+05         0.00000E+00
    0.48715E+05         0.27857E+08         0.00000E+00
    0.00000E+00         0.00000E+00         0.11978E+08
 
    0.12032E+08         0.49917E+05         0.00000E+00
    0.49917E+05         0.27781E+08         0.00000E+00
    0.00000E+00         0.00000E+00         0.11944E+08
 
    0.11995E+08         0.51040E+05         0.00000E+00
    0.51040E+05         0.27704E+08         0.00000E+00
    0.00000E+00         0.00000E+00         0.11910E+08
 
    0.11957E+08         0.52096E+05         0.00000E+00
    0.52096E+05         0.27627E+08         0.00000E+00
    0.00000E+00         0.00000E+00         0.11875E+08
 
    0.11920E+08         0.53092E+05         0.00000E+00
    0.53092E+05         0.27549E+08         0.00000E+00
    0.00000E+00         0.00000E+00         0.11841E+08
 
    0.11883E+08         0.54035E+05         0.00000E+00
    0.54035E+05         0.27471E+08         0.00000E+00
    0.00000E+00         0.00000E+00         0.11806E+08
 
    0.11846E+08         0.54933E+05         0.00000E+00
    0.54933E+05         0.27393E+08         0.00000E+00
    0.00000E+00         0.00000E+00         0.11772E+08
 
    0.11810E+08         0.55790E+05         0.00000E+00
    0.55790E+05         0.27313E+08         0.00000E+00
    0.00000E+00         0.00000E+00         0.11737E+08
 
    0.11773E+08         0.56610E+05         0.00000E+00
    0.56610E+05         0.27233E+08         0.00000E+00
    0.00000E+00         0.00000E+00         0.11702E+08
 
    0.11736E+08         0.57397E+05         0.00000E+00
    0.57397E+05         0.27153E+08         0.00000E+00
    0.00000E+00         0.00000E+00         0.11667E+08
 
    0.11699E+08         0.58154E+05         0.00000E+00
    0.58154E+05         0.27071E+08         0.00000E+00
    0.00000E+00         0.00000E+00         0.11631E+08
 
    0.11662E+08         0.58884E+05         0.00000E+00
    0.58884E+05         0.26989E+08         0.00000E+00
    0.00000E+00         0.00000E+00         0.11596E+08
 
    0.11625E+08         0.59588E+05         0.00000E+00
    0.59588E+05         0.26907E+08         0.00000E+00
    0.00000E+00         0.00000E+00         0.11560E+08
 
    0.11588E+08         0.60270E+05         0.00000E+00
    0.60270E+05         0.26824E+08         0.00000E+00
    0.00000E+00         0.00000E+00         0.11524E+08
 
    0.11551E+08         0.60931E+05         0.00000E+00
    0.60931E+05         0.26740E+08         0.00000E+00
    0.00000E+00         0.00000E+00         0.11487E+08
 
    0.11513E+08         0.61571E+05         0.00000E+00
    0.61571E+05         0.26655E+08         0.00000E+00
    0.00000E+00         0.00000E+00         0.11450E+08
 
    0.11475E+08         0.62193E+05         0.00000E+00
    0.62193E+05         0.26569E+08         0.00000E+00
    0.00000E+00         0.00000E+00         0.11413E+08
 
    0.11437E+08         0.62796E+05         0.00000E+00
    0.62796E+05         0.26483E+08         0.00000E+00
    0.00000E+00         0.00000E+00         0.11376E+08
 
    0.11399E+08         0.63382E+05         0.00000E+00
    0.63382E+05         0.26396E+08         0.00000E+00
    0.00000E+00         0.00000E+00         0.11339E+08
 
    0.11360E+08         0.63952E+05         0.00000E+00
    0.63952E+05         0.26309E+08         0.00000E+00
    0.00000E+00         0.00000E+00         0.11301E+08
 
    0.11321E+08         0.64506E+05         0.00000E+00
    0.64506E+05         0.26220E+08         0.00000E+00
    0.00000E+00         0.00000E+00         0.11262E+08
 
    0.11282E+08         0.65043E+05         0.00000E+00
    0.65043E+05         0.26131E+08         0.00000E+00
    0.00000E+00         0.00000E+00         0.11224E+08
 
    0.11242E+08         0.65564E+05         0.00000E+00
    0.65564E+05         0.26041E+08         0.00000E+00
    0.00000E+00         0.00000E+00         0.11185E+08
 
    0.11202E+08         0.66069E+05         0.00000E+00
    0.66069E+05         0.25950E+08         0.00000E+00
    0.00000E+00         0.00000E+00         0.11146E+08
 
    0.11161E+08         0.66558E+05         0.00000E+00
    0.66558E+05         0.25858E+08         0.00000E+00
    0.00000E+00         0.00000E+00         0.11106E+08
 
    0.11120E+08         0.67030E+05         0.00000E+00
    0.67030E+05         0.25766E+08         0.00000E+00
    0.00000E+00         0.00000E+00         0.11066E+08
 
    0.11079E+08         0.67484E+05         0.00000E+00
    0.67484E+05         0.25673E+08         0.00000E+00
    0.00000E+00         0.00000E+00         0.11026E+08
 
    0.11037E+08         0.67920E+05         0.00000E+00
    0.67920E+05         0.25579E+08         0.00000E+00
    0.00000E+00         0.00000E+00         0.10985E+08
 
    0.10995E+08         0.68337E+05         0.00000E+00
    0.68337E+05         0.25484E+08         0.00000E+00
    0.00000E+00         0.00000E+00         0.10944E+08
 
    0.10952E+08         0.68733E+05         0.00000E+00
    0.68733E+05         0.25389E+08         0.00000E+00
    0.00000E+00         0.00000E+00         0.10902E+08
 
    0.10909E+08         0.69109E+05         0.00000E+00
    0.69109E+05         0.25292E+08         0.00000E+00
    0.00000E+00         0.00000E+00         0.10860E+08
 
    0.10865E+08         0.69461E+05         0.00000E+00
    0.69461E+05         0.25195E+08         0.00000E+00
    0.00000E+00         0.00000E+00         0.10818E+08
 
    0.10820E+08         0.69789E+05         0.00000E+00
    0.69789E+05         0.25097E+08         0.00000E+00
    0.00000E+00         0.00000E+00         0.10775E+08
 
    0.10775E+08         0.70091E+05         0.00000E+00
    0.70091E+05         0.24998E+08         0.00000E+00
    0.00000E+00         0.00000E+00         0.10732E+08
 
    0.10730E+08         0.70364E+05         0.00000E+00
    0.70364E+05         0.24899E+08         0.00000E+00
    0.00000E+00         0.00000E+00         0.10689E+08
 
    0.10684E+08         0.70608E+05         0.00000E+00
    0.70608E+05         0.24798E+08         0.00000E+00
    0.00000E+00         0.00000E+00         0.10645E+08
 
    0.10637E+08         0.70819E+05         0.00000E+00
    0.70819E+05         0.24697E+08         0.00000E+00
    0.00000E+00         0.00000E+00         0.10600E+08
 
    0.10590E+08         0.70994E+05         0.00000E+00
    0.70994E+05         0.24595E+08         0.00000E+00
    0.00000E+00         0.00000E+00         0.10555E+08
 
    0.10542E+08         0.71132E+05         0.00000E+00
    0.71132E+05         0.24492E+08         0.00000E+00
    0.00000E+00         0.00000E+00         0.10510E+08
 
    0.10493E+08         0.71228E+05         0.00000E+00
    0.71228E+05         0.24389E+08         0.00000E+00
    0.00000E+00         0.00000E+00         0.10465E+08
 
    0.10444E+08         0.71280E+05         0.00000E+00
    0.71280E+05         0.24284E+08         0.00000E+00
    0.00000E+00         0.00000E+00         0.10419E+08
 
    0.10394E+08         0.71284E+05         0.00000E+00
    0.71284E+05         0.24179E+08         0.00000E+00
    0.00000E+00         0.00000E+00         0.10372E+08
 
    0.10343E+08         0.71235E+05         0.00000E+00
    0.71235E+05         0.24074E+08         0.00000E+00
    0.00000E+00         0.00000E+00         0.10325E+08
 
    0.10291E+08         0.71129E+05         0.00000E+00
    0.71129E+05         0.23967E+08         0.00000E+00
    0.00000E+00         0.00000E+00         0.10278E+08
 
    0.10239E+08         0.70961E+05         0.00000E+00
    0.70961E+05         0.23860E+08         0.00000E+00
    0.00000E+00         0.00000E+00         0.10230E+08
 
    0.10186E+08         0.70725E+05         0.00000E+00
    0.70725E+05         0.23752E+08         0.00000E+00
    0.00000E+00         0.00000E+00         0.10181E+08
 
    0.10132E+08         0.70415E+05         0.00000E+00
    0.70415E+05         0.23643E+08         0.00000E+00
    0.00000E+00         0.00000E+00         0.10132E+08
 
    0.10076E+08         0.70024E+05         0.00000E+00
    0.70024E+05         0.23534E+08         0.00000E+00
    0.00000E+00         0.00000E+00         0.10083E+08
 
    0.10020E+08         0.69544E+05         0.00000E+00
    0.69544E+05         0.23424E+08         0.00000E+00
    0.00000E+00         0.00000E+00         0.10033E+08
 
    0.99631E+07         0.68964E+05         0.00000E+00
    0.68964E+05         0.23313E+08         0.00000E+00
    0.00000E+00         0.00000E+00         0.99828E+07
 
    0.99049E+07         0.68273E+05         0.00000E+00
    0.68273E+05         0.23201E+08         0.00000E+00
    0.00000E+00         0.00000E+00         0.99319E+07
 
    0.98454E+07         0.67460E+05         0.00000E+00
    0.67460E+05         0.23089E+08         0.00000E+00
    0.00000E+00         0.00000E+00         0.98804E+07
 
    0.97846E+07         0.66507E+05         0.00000E+00
    0.66507E+05         0.22977E+08         0.00000E+00
    0.00000E+00         0.00000E+00         0.98284E+07
 
    0.97225E+07         0.65398E+05         0.00000E+00
    0.65398E+05         0.22864E+08         0.00000E+00
    0.00000E+00         0.00000E+00         0.97758E+07
 
    0.96590E+07         0.64112E+05         0.00000E+00
    0.64112E+05         0.22750E+08         0.00000E+00
    0.00000E+00         0.00000E+00         0.97226E+07
 
    0.95938E+07         0.62622E+05         0.00000E+00
    0.62622E+05         0.22635E+08         0.00000E+00
    0.00000E+00         0.00000E+00         0.96687E+07
 
    0.95269E+07         0.60900E+05         0.00000E+00
    0.60900E+05         0.22520E+08         0.00000E+00
    0.00000E+00         0.00000E+00         0.96142E+07
 
    0.94581E+07         0.58911E+05         0.00000E+00
    0.58911E+05         0.22405E+08         0.00000E+00
    0.00000E+00         0.00000E+00         0.95589E+07
 
    0.93873E+07         0.56617E+05         0.00000E+00
    0.56617E+05         0.22289E+08         0.00000E+00
    0.00000E+00         0.00000E+00         0.95028E+07
 
    0.93142E+07         0.53973E+05         0.00000E+00
    0.53973E+05         0.22172E+08         0.00000E+00
    0.00000E+00         0.00000E+00         0.94460E+07
 
    0.92386E+07         0.50929E+05         0.00000E+00
    0.50929E+05         0.22055E+08         0.00000E+00
    0.00000E+00         0.00000E+00         0.93882E+07
 
    0.91602E+07         0.47431E+05         0.00000E+00
    0.47431E+05         0.21938E+08         0.00000E+00
    0.00000E+00         0.00000E+00         0.93294E+07
 
    0.90788E+07         0.43424E+05         0.00000E+00
    0.43424E+05         0.21820E+08         0.00000E+00
    0.00000E+00         0.00000E+00         0.92696E+07
 
    0.89940E+07         0.38853E+05         0.00000E+00
    0.38853E+05         0.21702E+08         0.00000E+00
    0.00000E+00         0.00000E+00         0.92087E+07
 
    0.89055E+07         0.33667E+05         0.00000E+00
    0.33667E+05         0.21583E+08         0.00000E+00
    0.00000E+00         0.00000E+00         0.91465E+07
 
    0.88129E+07         0.27829E+05         0.00000E+00
    0.27829E+05         0.21464E+08         0.00000E+00
    0.00000E+00         0.00000E+00         0.90830E+07
 
    0.87158E+07         0.21323E+05         0.00000E+00
    0.21323E+05         0.21344E+08         0.00000E+00
    0.00000E+00         0.00000E+00         0.90181E+07
 
    0.86140E+07         0.14163E+05         0.00000E+00
    0.14163E+05         0.21225E+08         0.00000E+00
    0.00000E+00         0.00000E+00         0.89516E+07
 
    0.85071E+07         0.64120E+04         0.00000E+00
    0.64120E+04         0.21105E+08         0.00000E+00
    0.00000E+00         0.00000E+00         0.88836E+07
 
    0.83949E+07        -0.18081E+04         0.00000E+00
   -0.18081E+04         0.20985E+08         0.00000E+00
    0.00000E+00         0.00000E+00         0.88140E+07
 
    0.82773E+07        -0.10292E+05         0.00000E+00
   -0.10292E+05         0.20865E+08         0.00000E+00
    0.00000E+00         0.00000E+00         0.87427E+07
 
    0.81547E+07        -0.18734E+05         0.00000E+00
   -0.18734E+05         0.20745E+08         0.00000E+00
    0.00000E+00         0.00000E+00         0.86699E+07
 
    0.80276E+07        -0.26667E+05         0.00000E+00
   -0.26667E+05         0.20625E+08         0.00000E+00
    0.00000E+00         0.00000E+00         0.85958E+07
 
    0.78973E+07        -0.33329E+05         0.00000E+00
   -0.33329E+05         0.20506E+08         0.00000E+00
    0.00000E+00         0.00000E+00         0.85209E+07
 
    0.77662E+07        -0.37440E+05         0.00000E+00
   -0.37440E+05         0.20387E+08         0.00000E+00
    0.00000E+00         0.00000E+00         0.84460E+07
 
    0.76394E+07        -0.34489E+05         0.00000E+00
   -0.34489E+05         0.20271E+08         0.00000E+00
    0.00000E+00         0.00000E+00         0.83731E+07
 
    0.75193E+07        -0.15457E+05         0.00000E+00
   -0.15457E+05         0.20173E+08         0.00000E+00
    0.00000E+00         0.00000E+00         0.83077E+07
 
    0.13349E+08        -0.90409E+04         0.00000E+00
   -0.90409E+04         0.29494E+08         0.00000E+00
    0.00000E+00         0.00000E+00         0.12853E+08
 
    0.13279E+08        -0.18890E+05         0.00000E+00
   -0.18890E+05         0.29435E+08         0.00000E+00
    0.00000E+00         0.00000E+00         0.12814E+08
 
    0.13203E+08        -0.19213E+05         0.00000E+00
   -0.19213E+05         0.29367E+08         0.00000E+00
    0.00000E+00         0.00000E+00         0.12771E+08
 
    0.13126E+08        -0.16331E+05         0.00000E+00
   -0.16331E+05         0.29298E+08         0.00000E+00
    0.00000E+00         0.00000E+00         0.12727E+08
 
    0.13050E+08        -0.12398E+05         0.00000E+00
   -0.12398E+05         0.29228E+08         0.00000E+00
    0.00000E+00         0.00000E+00         0.12683E+08
 
    0.12976E+08        -0.79129E+04         0.00000E+00
   -0.79129E+04         0.29158E+08         0.00000E+00
    0.00000E+00         0.00000E+00         0.12640E+08
 
    0.12905E+08        -0.32407E+04         0.00000E+00
   -0.32407E+04         0.29088E+08         0.00000E+00
    0.00000E+00         0.00000E+00         0.12598E+08
 
    0.12837E+08         0.14154E+04         0.00000E+00
    0.14154E+04         0.29018E+08         0.00000E+00
    0.00000E+00         0.00000E+00         0.12557E+08
 
    0.12773E+08         0.59137E+04         0.00000E+00
    0.59137E+04         0.28948E+08         0.00000E+00
    0.00000E+00         0.00000E+00         0.12516E+08
 
    0.12712E+08         0.10161E+05         0.00000E+00
    0.10161E+05         0.28877E+08         0.00000E+00
    0.00000E+00         0.00000E+00         0.12477E+08
 
    0.12654E+08         0.14102E+05         0.00000E+00
    0.14102E+05         0.28806E+08         0.00000E+00
    0.00000E+00         0.00000E+00         0.12438E+08
 
    0.12599E+08         0.17711E+05         0.00000E+00
    0.17711E+05         0.28735E+08         0.00000E+00
    0.00000E+00         0.00000E+00         0.12400E+08
 
    0.12546E+08         0.20984E+05         0.00000E+00
    0.20984E+05         0.28664E+08         0.00000E+00
    0.00000E+00         0.00000E+00         0.12363E+08
 
    0.12496E+08         0.23932E+05         0.00000E+00
    0.23932E+05         0.28592E+08         0.00000E+00
    0.00000E+00         0.00000E+00         0.12326E+08
 
    0.12447E+08         0.26578E+05         0.00000E+00
    0.26578E+05         0.28520E+08         0.00000E+00
    0.00000E+00         0.00000E+00         0.12290E+08
 
    0.12401E+08         0.28947E+05         0.00000E+00
    0.28947E+05         0.28448E+08         0.00000E+00
    0.00000E+00         0.00000E+00         0.12255E+08
 
    0.12356E+08         0.31069E+05         0.00000E+00
    0.31069E+05         0.28375E+08         0.00000E+00
    0.00000E+00         0.00000E+00         0.12219E+08
 
    0.12313E+08         0.32974E+05         0.00000E+00
    0.32974E+05         0.28302E+08         0.00000E+00
    0.00000E+00         0.00000E+00         0.12184E+08
 
    0.12270E+08         0.34690E+05         0.00000E+00
    0.34690E+05         0.28229E+08         0.00000E+00
    0.00000E+00         0.00000E+00         0.12150E+08
 
    0.12229E+08         0.36241E+05         0.00000E+00
    0.36241E+05         0.28155E+08         0.00000E+00
    0.00000E+00         0.00000E+00         0.12115E+08
 
    0.12189E+08         0.37651E+05         0.00000E+00
    0.37651E+05         0.28081E+08         0.00000E+00
    0.00000E+00         0.00000E+00         0.12081E+08
 
    0.12149E+08         0.38939E+05         0.00000E+00
    0.38939E+05         0.28007E+08         0.00000E+00
    0.00000E+00         0.00000E+00         0.12047E+08
 
    0.12110E+08         0.40124E+05         0.00000E+00
    0.40124E+05         0.27932E+08         0.00000E+00
    0.00000E+00         0.00000E+00         0.12013E+08
 
    0.12072E+08         0.41219E+05         0.00000E+00
    0.41219E+05         0.27856E+08         0.00000E+00
    0.00000E+00         0.00000E+00         0.11978E+08
 
    0.12034E+08         0.42237E+05         0.00000E+00
    0.42237E+05         0.27780E+08         0.00000E+00
    0.00000E+00         0.00000E+00         0.11944E+08
 
    0.11996E+08         0.43188E+05         0.00000E+00
    0.43188E+05         0.27704E+08         0.00000E+00
    0.00000E+00         0.00000E+00         0.11910E+08
 
    0.11959E+08         0.44082E+05         0.00000E+00
    0.44082E+05         0.27627E+08         0.00000E+00
    0.00000E+00         0.00000E+00         0.11876E+08
 
    0.11922E+08         0.44925E+05         0.00000E+00
    0.44925E+05         0.27549E+08         0.00000E+00
    0.00000E+00         0.00000E+00         0.11841E+08
 
    0.11885E+08         0.45724E+05         0.00000E+00
    0.45724E+05         0.27471E+08         0.00000E+00
    0.00000E+00         0.00000E+00         0.11807E+08
 
    0.11848E+08         0.46484E+05         0.00000E+00
    0.46484E+05         0.27392E+08         0.00000E+00
    0.00000E+00         0.00000E+00         0.11772E+08
 
    0.11811E+08         0.47209E+05         0.00000E+00
    0.47209E+05         0.27313E+08         0.00000E+00
    0.00000E+00         0.00000E+00         0.11737E+08
 
    0.11774E+08         0.47903E+05         0.00000E+00
    0.47903E+05         0.27233E+08         0.00000E+00
    0.00000E+00         0.00000E+00         0.11702E+08
 
    0.11738E+08         0.48569E+05         0.00000E+00
    0.48569E+05         0.27152E+08         0.00000E+00
    0.00000E+00         0.00000E+00         0.11667E+08
 
    0.11701E+08         0.49210E+05         0.00000E+00
    0.49210E+05         0.27071E+08         0.00000E+00
    0.00000E+00         0.00000E+00         0.11632E+08
 
    0.11664E+08         0.49828E+05         0.00000E+00
    0.49828E+05         0.26989E+08         0.00000E+00
    0.00000E+00         0.00000E+00         0.11596E+08
 
    0.11627E+08         0.50424E+05         0.00000E+00
    0.50424E+05         0.26907E+08         0.00000E+00
    0.00000E+00         0.00000E+00         0.11560E+08
 
    0.11590E+08         0.51001E+05         0.00000E+00
    0.51001E+05         0.26823E+08         0.00000E+00
    0.00000E+00         0.00000E+00         0.11524E+08
 
    0.11552E+08         0.51560E+05         0.00000E+00
    0.51560E+05         0.26739E+08         0.00000E+00
    0.00000E+00         0.00000E+00         0.11487E+08
 
    0.11515E+08         0.52101E+05         0.00000E+00
    0.52101E+05         0.26655E+08         0.00000E+00
    0.00000E+00         0.00000E+00         0.11451E+08
 
    0.11477E+08         0.52627E+05         0.00000E+00
    0.52627E+05         0.26569E+08         0.00000E+00
    0.00000E+00         0.00000E+00         0.11414E+08
 
    0.11439E+08         0.53137E+05         0.00000E+00
    0.53137E+05         0.26483E+08         0.00000E+00
    0.00000E+00         0.00000E+00         0.11376E+08
 
    0.11400E+08         0.53633E+05         0.00000E+00
    0.53633E+05         0.26396E+08         0.00000E+00
    0.00000E+00         0.00000E+00         0.11339E+08
 
    0.11361E+08         0.54115E+05         0.00000E+00
    0.54115E+05         0.26308E+08         0.00000E+00
    0.00000E+00         0.00000E+00         0.11301E+08
 
    0.11322E+08         0.54582E+05         0.00000E+00
    0.54582E+05         0.26220E+08         0.00000E+00
    0.00000E+00         0.00000E+00         0.11263E+08
 
    0.11283E+08         0.55036E+05         0.00000E+00
    0.55036E+05         0.26131E+08         0.00000E+00
    0.00000E+00         0.00000E+00         0.11224E+08
 
    0.11243E+08         0.55477E+05         0.00000E+00
    0.55477E+05         0.26041E+08         0.00000E+00
    0.00000E+00         0.00000E+00         0.11185E+08
 
    0.11203E+08         0.55904E+05         0.00000E+00
    0.55904E+05         0.25950E+08         0.00000E+00
    0.00000E+00         0.00000E+00         0.11146E+08
 
    0.11163E+08         0.56316E+05         0.00000E+00
    0.56316E+05         0.25858E+08         0.00000E+00
    0.00000E+00         0.00000E+00         0.11106E+08
 
    0.11122E+08         0.56715E+05         0.00000E+00
    0.56715E+05         0.25766E+08         0.00000E+00
    0.00000E+00         0.00000E+00         0.11066E+08
 
    0.11080E+08         0.57098E+05         0.00000E+00
    0.57098E+05         0.25673E+08         0.00000E+00
    0.00000E+00         0.00000E+00         0.11026E+08
 
    0.11038E+08         0.57466E+05         0.00000E+00
    0.57466E+05         0.25579E+08         0.00000E+00
    0.00000E+00         0.00000E+00         0.10985E+08
 
    0.10996E+08         0.57818E+05         0.00000E+00
    0.57818E+05         0.25484E+08         0.00000E+00
    0.00000E+00         0.00000E+00         0.10944E+08
 
    0.10953E+08         0.58153E+05         0.00000E+00
    0.58153E+05         0.25388E+08         0.00000E+00
    0.00000E+00         0.00000E+00         0.10902E+08
 
    0.10910E+08         0.58469E+05         0.00000E+00
    0.58469E+05         0.25292E+08         0.00000E+00
    0.00000E+00         0.00000E+00         0.10861E+08
 
    0.10866E+08         0.58766E+05         0.00000E+00
    0.58766E+05         0.25195E+08         0.00000E+00
    0.00000E+00         0.00000E+00         0.10818E+08
 
    0.10822E+08         0.59043E+05         0.00000E+00
    0.59043E+05         0.25097E+08         0.00000E+00
    0.00000E+00         0.00000E+00         0.10776E+08
 
    0.10777E+08         0.59297E+05         0.00000E+00
    0.59297E+05         0.24998E+08         0.00000E+00
    0.00000E+00         0.00000E+00         0.10732E+08
 
    0.10731E+08         0.59527E+05         0.00000E+00
    0.59527E+05         0.24899E+08         0.00000E+00
    0.00000E+00         0.00000E+00         0.10689E+08
 
    0.10685E+08         0.59732E+05         0.00000E+00
    0.59732E+05         0.24798E+08         0.00000E+00
    0.00000E+00         0.00000E+00         0.10645E+08
 
    0.10638E+08         0.59909E+05         0.00000E+00
    0.59909E+05         0.24697E+08         0.00000E+00
    0.00000E+00         0.00000E+00         0.10601E+08
 
    0.10591E+08         0.60056E+05         0.00000E+00
    0.60056E+05         0.24595E+08         0.00000E+00
    0.00000E+00         0.00000E+00         0.10556E+08
 
    0.10543E+08         0.60171E+05         0.00000E+00
    0.60171E+05         0.24492E+08         0.00000E+00
    0.00000E+00         0.00000E+00         0.10511E+08
 
    0.10494E+08         0.60251E+05         0.00000E+00
    0.60251E+05         0.24389E+08         0.00000E+00
    0.00000E+00         0.00000E+00         0.10465E+08
 
    0.10445E+08         0.60293E+05         0.00000E+00
    0.60293E+05         0.24284E+08         0.00000E+00
    0.00000E+00         0.00000E+00         0.10419E+08
 
    0.10395E+08         0.60295E+05         0.00000E+00
    0.60295E+05         0.24179E+08         0.00000E+00
    0.00000E+00         0.00000E+00         0.10372E+08
 
    0.10344E+08         0.60252E+05         0.00000E+00
    0.60252E+05         0.24074E+08         0.00000E+00
    0.00000E+00         0.00000E+00         0.10325E+08
 
    0.10292E+08         0.60160E+05         0.00000E+00
    0.60160E+05         0.23967E+08         0.00000E+00
    0.00000E+00         0.00000E+00         0.10278E+08
 
    0.10240E+08         0.60016E+05         0.00000E+00
    0.60016E+05         0.23860E+08         0.00000E+00
    0.00000E+00         0.00000E+00         0.10230E+08
 
    0.10186E+08         0.59815E+05         0.00000E+00
    0.59815E+05         0.23752E+08         0.00000E+00
    0.00000E+00         0.00000E+00         0.10181E+08
 
    0.10132E+08         0.59551E+05         0.00000E+00
    0.59551E+05         0.23643E+08         0.00000E+00
    0.00000E+00         0.00000E+00         0.10133E+08
 
    0.10077E+08         0.59218E+05         0.00000E+00
    0.59218E+05         0.23534E+08         0.00000E+00
    0.00000E+00         0.00000E+00         0.10083E+08
 
    0.10021E+08         0.58809E+05         0.00000E+00
    0.58809E+05         0.23424E+08         0.00000E+00
    0.00000E+00         0.00000E+00         0.10033E+08
 
    0.99636E+07         0.58316E+05         0.00000E+00
    0.58316E+05         0.23313E+08         0.00000E+00
    0.00000E+00         0.00000E+00         0.99830E+07
 
    0.99052E+07         0.57730E+05         0.00000E+00
    0.57730E+05         0.23202E+08         0.00000E+00
    0.00000E+00         0.00000E+00         0.99321E+07
 
    0.98457E+07         0.57039E+05         0.00000E+00
    0.57039E+05         0.23090E+08         0.00000E+00
    0.00000E+00         0.00000E+00         0.98806E+07
 
    0.97848E+07         0.56230E+05         0.00000E+00
    0.56230E+05         0.22977E+08         0.00000E+00
    0.00000E+00         0.00000E+00         0.98285E+07
 
    0.97226E+07         0.55288E+05         0.00000E+00
    0.55288E+05         0.22864E+08         0.00000E+00
    0.00000E+00         0.00000E+00         0.97759E+07
 
    0.96589E+07         0.54195E+05         0.00000E+00
    0.54195E+05         0.22750E+08         0.00000E+00
    0.00000E+00         0.00000E+00         0.97227E+07
 
    0.95936E+07         0.52928E+05         0.00000E+00
    0.52928E+05         0.22636E+08         0.00000E+00
    0.00000E+00         0.00000E+00         0.96688E+07
 
    0.95266E+07         0.51464E+05         0.00000E+00
    0.51464E+05         0.22521E+08         0.00000E+00
    0.00000E+00         0.00000E+00         0.96142E+07
 
    0.94577E+07         0.49771E+05         0.00000E+00
    0.49771E+05         0.22405E+08         0.00000E+00
    0.00000E+00         0.00000E+00         0.95589E+07
 
    0.93867E+07         0.47816E+05         0.00000E+00
    0.47816E+05         0.22289E+08         0.00000E+00
    0.00000E+00         0.00000E+00         0.95028E+07
 
    0.93133E+07         0.45560E+05         0.00000E+00
    0.45560E+05         0.22173E+08         0.00000E+00
    0.00000E+00         0.00000E+00         0.94459E+07
 
    0.92375E+07         0.42959E+05         0.00000E+00
    0.42959E+05         0.22056E+08         0.00000E+00
    0.00000E+00         0.00000E+00         0.93880E+07
 
    0.91588E+07         0.39966E+05         0.00000E+00
    0.39966E+05         0.21939E+08         0.00000E+00
    0.00000E+00         0.00000E+00         0.93292E+07
 
    0.90769E+07         0.36532E+05         0.00000E+00
    0.36532E+05         0.21821E+08         0.00000E+00
    0.00000E+00         0.00000E+00         0.92693E+07
 
    0.89917E+07         0.32607E+05         0.00000E+00
    0.32607E+05         0.21703E+08         0.00000E+00
    0.00000E+00         0.00000E+00         0.92083E+07
 
    0.89025E+07         0.28147E+05         0.00000E+00
    0.28147E+05         0.21584E+08         0.00000E+00
    0.00000E+00         0.00000E+00         0.91459E+07
 
    0.88092E+07         0.23116E+05         0.00000E+00
    0.23116E+05         0.21465E+08         0.00000E+00
    0.00000E+00         0.00000E+00         0.90823E+07
 
    0.87112E+07         0.17496E+05         0.00000E+00
    0.17496E+05         0.21346E+08         0.00000E+00
    0.00000E+00         0.00000E+00         0.90171E+07
 
    0.86082E+07         0.11298E+05         0.00000E+00
    0.11298E+05         0.21226E+08         0.00000E+00
    0.00000E+00         0.00000E+00         0.89503E+07
 
    0.84999E+07         0.45688E+04         0.00000E+00
    0.45688E+04         0.21107E+08         0.00000E+00
    0.00000E+00         0.00000E+00         0.88819E+07
 
    0.83860E+07        -0.25924E+04         0.00000E+00
   -0.25924E+04         0.20987E+08         0.00000E+00
    0.00000E+00         0.00000E+00         0.88118E+07
 
    0.82664E+07        -0.10021E+05         0.00000E+00
   -0.10021E+05         0.20867E+08         0.00000E+00
    0.00000E+00         0.00000E+00         0.87399E+07
 
    0.81412E+07        -0.17468E+05         0.00000E+00
   -0.17468E+05         0.20747E+08         0.00000E+00
    0.00000E+00         0.00000E+00         0.86664E+07
 
    0.80111E+07        -0.24578E+05         0.00000E+00
   -0.24578E+05         0.20627E+08         0.00000E+00
    0.00000E+00         0.00000E+00         0.85913E+07
 
    0.78771E+07        -0.30716E+05         0.00000E+00
   -0.30716E+05         0.20507E+08         0.00000E+00
    0.00000E+00         0.00000E+00         0.85152E+07
 
    0.77416E+07        -0.35016E+05         0.00000E+00
   -0.35016E+05         0.20388E+08         0.00000E+00
    0.00000E+00         0.00000E+00         0.84387E+07
 
    0.76100E+07        -0.33752E+05         0.00000E+00
   -0.33752E+05         0.20269E+08         0.00000E+00
    0.00000E+00         0.00000E+00         0.83638E+07
 
    0.74875E+07        -0.15998E+05         0.00000E+00
   -0.15998E+05         0.20167E+08         0.00000E+00
    0.00000E+00         0.00000E+00         0.82964E+07
 
    0.13370E+08        -0.93330E+04         0.00000E+00
   -0.93330E+04         0.29498E+08         0.00000E+00
    0.00000E+00         0.00000E+00         0.12860E+08
 
    0.13297E+08        -0.18022E+05         0.00000E+00
   -0.18022E+05         0.29436E+08         0.00000E+00
    0.00000E+00         0.00000E+00         0.12820E+08
 
    0.13218E+08        -0.17357E+05         0.00000E+00
   -0.17357E+05         0.29366E+08         0.00000E+00
    0.00000E+00         0.00000E+00         0.12775E+08
 
    0.13138E+08        -0.14593E+05         0.00000E+00
   -0.14593E+05         0.29297E+08         0.00000E+00
    0.00000E+00         0.00000E+00         0.12730E+08
 
    0.13059E+08        -0.11111E+05         0.00000E+00
   -0.11111E+05         0.29227E+08         0.00000E+00
    0.00000E+00         0.00000E+00         0.12686E+08
 
    0.12984E+08        -0.72359E+04         0.00000E+00
   -0.72359E+04         0.29157E+08         0.00000E+00
    0.00000E+00         0.00000E+00         0.12642E+08
 
    0.12911E+08        -0.32614E+04         0.00000E+00
   -0.32614E+04         0.29087E+08         0.00000E+00
    0.00000E+00         0.00000E+00         0.12600E+08
 
    0.12843E+08         0.67368E+03         0.00000E+00
    0.67368E+03         0.29017E+08         0.00000E+00
    0.00000E+00         0.00000E+00         0.12558E+08
 
    0.12777E+08         0.44560E+04         0.00000E+00
    0.44560E+04         0.28947E+08         0.00000E+00
    0.00000E+00         0.00000E+00         0.12517E+08
 
    0.12716E+08         0.80151E+04         0.00000E+00
    0.80151E+04         0.28876E+08         0.00000E+00
    0.00000E+00         0.00000E+00         0.12478E+08
 
    0.12657E+08         0.11308E+05         0.00000E+00
    0.11308E+05         0.28805E+08         0.00000E+00
    0.00000E+00         0.00000E+00         0.12439E+08
 
    0.12601E+08         0.14316E+05         0.00000E+00
    0.14316E+05         0.28734E+08         0.00000E+00
    0.00000E+00         0.00000E+00         0.12401E+08
 
    0.12548E+08         0.17038E+05         0.00000E+00
    0.17038E+05         0.28663E+08         0.00000E+00
    0.00000E+00         0.00000E+00         0.12363E+08
 
    0.12498E+08         0.19485E+05         0.00000E+00
    0.19485E+05         0.28591E+08         0.00000E+00
    0.00000E+00         0.00000E+00         0.12327E+08
 
    0.12449E+08         0.21676E+05         0.00000E+00
    0.21676E+05         0.28520E+08         0.00000E+00
    0.00000E+00         0.00000E+00         0.12291E+08
 
    0.12403E+08         0.23634E+05         0.00000E+00
    0.23634E+05         0.28447E+08         0.00000E+00
    0.00000E+00         0.00000E+00         0.12255E+08
 
    0.12358E+08         0.25386E+05         0.00000E+00
    0.25386E+05         0.28375E+08         0.00000E+00
    0.00000E+00         0.00000E+00         0.12220E+08
 
    0.12314E+08         0.26955E+05         0.00000E+00
    0.26955E+05         0.28302E+08         0.00000E+00
    0.00000E+00         0.00000E+00         0.12185E+08
 
    0.12272E+08         0.28367E+05         0.00000E+00
    0.28367E+05         0.28229E+08         0.00000E+00
    0.00000E+00         0.00000E+00         0.12150E+08
 
    0.12230E+08         0.29642E+05         0.00000E+00
    0.29642E+05         0.28155E+08         0.00000E+00
    0.00000E+00         0.00000E+00         0.12116E+08
 
    0.12190E+08         0.30799E+05         0.00000E+00
    0.30799E+05         0.28081E+08         0.00000E+00
    0.00000E+00         0.00000E+00         0.12081E+08
 
    0.12150E+08         0.31856E+05         0.00000E+00
    0.31856E+05         0.28007E+08         0.00000E+00
    0.00000E+00         0.00000E+00         0.12047E+08
 
    0.12111E+08         0.32827E+05         0.00000E+00
    0.32827E+05         0.27932E+08         0.00000E+00
    0.00000E+00         0.00000E+00         0.12013E+08
 
    0.12073E+08         0.33725E+05         0.00000E+00
    0.33725E+05         0.27856E+08         0.00000E+00
    0.00000E+00         0.00000E+00         0.11979E+08
 
    0.12035E+08         0.34559E+05         0.00000E+00
    0.34559E+05         0.27780E+08         0.00000E+00
    0.00000E+00         0.00000E+00         0.11945E+08
 
    0.11997E+08         0.35338E+05         0.00000E+00
    0.35338E+05         0.27704E+08         0.00000E+00
    0.00000E+00         0.00000E+00         0.11910E+08
 
    0.11960E+08         0.36069E+05         0.00000E+00
    0.36069E+05         0.27627E+08         0.00000E+00
    0.00000E+00         0.00000E+00         0.11876E+08
 
    0.11923E+08         0.36760E+05         0.00000E+00
    0.36760E+05         0.27549E+08         0.00000E+00
    0.00000E+00         0.00000E+00         0.11842E+08
 
    0.11886E+08         0.37414E+05         0.00000E+00
    0.37414E+05         0.27471E+08         0.00000E+00
    0.00000E+00         0.00000E+00         0.11807E+08
 
    0.11849E+08         0.38036E+05         0.00000E+00
    0.38036E+05         0.27392E+08         0.00000E+00
    0.00000E+00         0.00000E+00         0.11772E+08
 
    0.11812E+08         0.38629E+05         0.00000E+00
    0.38629E+05         0.27313E+08         0.00000E+00
    0.00000E+00         0.00000E+00         0.11738E+08
 
    0.11776E+08         0.39197E+05         0.00000E+00
    0.39197E+05         0.27233E+08         0.00000E+00
    0.00000E+00         0.00000E+00         0.11703E+08
 
    0.11739E+08         0.39742E+05         0.00000E+00
    0.39742E+05         0.27152E+08         0.00000E+00
    0.00000E+00         0.00000E+00         0.11667E+08
 
    0.11702E+08         0.40266E+05         0.00000E+00
    0.40266E+05         0.27071E+08         0.00000E+00
    0.00000E+00         0.00000E+00         0.11632E+08
 
    0.11665E+08         0.40771E+05         0.00000E+00
    0.40771E+05         0.26989E+08         0.00000E+00
    0.00000E+00         0.00000E+00         0.11596E+08
 
    0.11628E+08         0.41259E+05         0.00000E+00
    0.41259E+05         0.26907E+08         0.00000E+00
    0.00000E+00         0.00000E+00         0.11560E+08
 
    0.11591E+08         0.41731E+05         0.00000E+00
    0.41731E+05         0.26823E+08         0.00000E+00
    0.00000E+00         0.00000E+00         0.11524E+08
 
    0.11553E+08         0.42188E+05         0.00000E+00
    0.42188E+05         0.26739E+08         0.00000E+00
    0.00000E+00         0.00000E+00         0.11488E+08
 
    0.11516E+08         0.42631E+05         0.00000E+00
    0.42631E+05         0.26655E+08         0.00000E+00
    0.00000E+00         0.00000E+00         0.11451E+08
 
    0.11478E+08         0.43061E+05         0.00000E+00
    0.43061E+05         0.26569E+08         0.00000E+00
    0.00000E+00         0.00000E+00         0.11414E+08
 
    0.11440E+08         0.43478E+05         0.00000E+00
    0.43478E+05         0.26483E+08         0.00000E+00
    0.00000E+00         0.00000E+00         0.11377E+08
 
    0.11402E+08         0.43883E+05         0.00000E+00
    0.43883E+05         0.26396E+08         0.00000E+00
    0.00000E+00         0.00000E+00         0.11339E+08
 
    0.11363E+08         0.44277E+05         0.00000E+00
    0.44277E+05         0.26308E+08         0.00000E+00
    0.00000E+00         0.00000E+00         0.11301E+08
 
    0.11324E+08         0.44659E+05         0.00000E+00
    0.44659E+05         0.26220E+08         0.00000E+00
    0.00000E+00         0.00000E+00         0.11263E+08
 
    0.11284E+08         0.45030E+05         0.00000E+00
    0.45030E+05         0.26131E+08         0.00000E+00
    0.00000E+00         0.00000E+00         0.11225E+08
 
    0.11245E+08         0.45390E+05         0.00000E+00
    0.45390E+05         0.26041E+08         0.00000E+00
    0.00000E+00         0.00000E+00         0.11186E+08
 
    0.11204E+08         0.45739E+05         0.00000E+00
    0.45739E+05         0.25950E+08         0.00000E+00
    0.00000E+00         0.00000E+00         0.11146E+08
 
    0.11164E+08         0.46076E+05         0.00000E+00
    0.46076E+05         0.25858E+08         0.00000E+00
    0.00000E+00         0.00000E+00         0.11107E+08
 
    0.11123E+08         0.46401E+05         0.00000E+00
    0.46401E+05         0.25766E+08         0.00000E+00
    0.00000E+00         0.00000E+00         0.11067E+08
 
    0.11081E+08         0.46714E+05         0.00000E+00
    0.46714E+05         0.25673E+08         0.00000E+00
    0.00000E+00         0.00000E+00         0.11026E+08
 
    0.11040E+08         0.47015E+05         0.00000E+00
    0.47015E+05         0.25579E+08         0.00000E+00
    0.00000E+00         0.00000E+00         0.10986E+08
 
    0.10997E+08         0.47302E+05         0.00000E+00
    0.47302E+05         0.25484E+08         0.00000E+00
    0.00000E+00         0.00000E+00         0.10944E+08
 
    0.10954E+08         0.47575E+05         0.00000E+00
    0.47575E+05         0.25388E+08         0.00000E+00
    0.00000E+00         0.00000E+00         0.10903E+08
 
    0.10911E+08         0.47833E+05         0.00000E+00
    0.47833E+05         0.25292E+08         0.00000E+00
    0.00000E+00         0.00000E+00         0.10861E+08
 
    0.10867E+08         0.48075E+05         0.00000E+00
    0.48075E+05         0.25195E+08         0.00000E+00
    0.00000E+00         0.00000E+00         0.10819E+08
 
    0.10823E+08         0.48301E+05         0.00000E+00
    0.48301E+05         0.25097E+08         0.00000E+00
    0.00000E+00         0.00000E+00         0.10776E+08
 
    0.10778E+08         0.48508E+05         0.00000E+00
    0.48508E+05         0.24998E+08         0.00000E+00
    0.00000E+00         0.00000E+00         0.10733E+08
 
    0.10732E+08         0.48695E+05         0.00000E+00
    0.48695E+05         0.24899E+08         0.00000E+00
    0.00000E+00         0.00000E+00         0.10689E+08
 
    0.10686E+08         0.48861E+05         0.00000E+00
    0.48861E+05         0.24798E+08         0.00000E+00
    0.00000E+00         0.00000E+00         0.10645E+08
 
    0.10639E+08         0.49005E+05         0.00000E+00
    0.49005E+05         0.24697E+08         0.00000E+00
    0.00000E+00         0.00000E+00         0.10601E+08
 
    0.10592E+08         0.49124E+05         0.00000E+00
    0.49124E+05         0.24595E+08         0.00000E+00
    0.00000E+00         0.00000E+00         0.10556E+08
 
    0.10544E+08         0.49217E+05         0.00000E+00
    0.49217E+05         0.24492E+08         0.00000E+00
    0.00000E+00         0.00000E+00         0.10511E+08
 
    0.10495E+08         0.49281E+05         0.00000E+00
    0.49281E+05         0.24389E+08         0.00000E+00
    0.00000E+00         0.00000E+00         0.10465E+08
 
    0.10446E+08         0.49315E+05         0.00000E+00
    0.49315E+05         0.24284E+08         0.00000E+00
    0.00000E+00         0.00000E+00         0.10419E+08
 
    0.10396E+08         0.49314E+05         0.00000E+00
    0.49314E+05         0.24179E+08         0.00000E+00
    0.00000E+00         0.00000E+00         0.10373E+08
 
    0.10345E+08         0.49278E+05         0.00000E+00
    0.49278E+05         0.24074E+08         0.00000E+00
    0.00000E+00         0.00000E+00         0.10326E+08
 
    0.10293E+08         0.49202E+05         0.00000E+00
    0.49202E+05         0.23967E+08         0.00000E+00
    0.00000E+00         0.00000E+00         0.10278E+08
 
    0.10241E+08         0.49083E+05         0.00000E+00
    0.49083E+05         0.23860E+08         0.00000E+00
    0.00000E+00         0.00000E+00         0.10230E+08
 
    0.10187E+08         0.48917E+05         0.00000E+00
    0.48917E+05         0.23752E+08         0.00000E+00
    0.00000E+00         0.00000E+00         0.10182E+08
 
    0.10133E+08         0.48699E+05         0.00000E+00
    0.48699E+05         0.23643E+08         0.00000E+00
    0.00000E+00         0.00000E+00         0.10133E+08
 
    0.10078E+08         0.48425E+05         0.00000E+00
    0.48425E+05         0.23534E+08         0.00000E+00
    0.00000E+00         0.00000E+00         0.10083E+08
 
    0.10021E+08         0.48089E+05         0.00000E+00
    0.48089E+05         0.23424E+08         0.00000E+00
    0.00000E+00         0.00000E+00         0.10034E+08
 
    0.99641E+07         0.47684E+05         0.00000E+00
    0.47684E+05         0.23313E+08         0.00000E+00
    0.00000E+00         0.00000E+00         0.99832E+07
 
    0.99057E+07         0.47203E+05         0.00000E+00
    0.47203E+05         0.23202E+08         0.00000E+00
    0.00000E+00         0.00000E+00         0.99322E+07
 
    0.98460E+07         0.46636E+05         0.00000E+00
    0.46636E+05         0.23090E+08         0.00000E+00
    0.00000E+00         0.00000E+00         0.98807E+07
 
    0.97851E+07         0.45972E+05         0.00000E+00
    0.45972E+05         0.22977E+08         0.00000E+00
    0.00000E+00         0.00000E+00         0.98287E+07
 
    0.97228E+07         0.45199E+05         0.00000E+00
    0.45199E+05         0.22864E+08         0.00000E+00
    0.00000E+00         0.00000E+00         0.97760E+07
 
    0.96590E+07         0.44301E+05         0.00000E+00
    0.44301E+05         0.22750E+08         0.00000E+00
    0.00000E+00         0.00000E+00         0.97228E+07
 
    0.95936E+07         0.43260E+05         0.00000E+00
    0.43260E+05         0.22636E+08         0.00000E+00
    0.00000E+00         0.00000E+00         0.96688E+07
 
    0.95264E+07         0.42056E+05         0.00000E+00
    0.42056E+05         0.22521E+08         0.00000E+00
    0.00000E+00         0.00000E+00         0.96142E+07
 
    0.94574E+07         0.40663E+05         0.00000E+00
    0.40663E+05         0.22406E+08         0.00000E+00
    0.00000E+00         0.00000E+00         0.95589E+07
 
    0.93862E+07         0.39053E+05         0.00000E+00
    0.39053E+05         0.22290E+08         0.00000E+00
    0.00000E+00         0.00000E+00         0.95028E+07
 
    0.93126E+07         0.37192E+05         0.00000E+00
    0.37192E+05         0.22173E+08         0.00000E+00
    0.00000E+00         0.00000E+00         0.94458E+07
 
    0.92365E+07         0.35045E+05         0.00000E+00
    0.35045E+05         0.22056E+08         0.00000E+00
    0.00000E+00         0.00000E+00         0.93879E+07
 
    0.91575E+07         0.32570E+05         0.00000E+00
    0.32570E+05         0.21939E+08         0.00000E+00
    0.00000E+00         0.00000E+00         0.93290E+07
 
    0.90754E+07         0.29725E+05         0.00000E+00
    0.29725E+05         0.21821E+08         0.00000E+00
    0.00000E+00         0.00000E+00         0.92690E+07
 
    0.89896E+07         0.26467E+05         0.00000E+00
    0.26467E+05         0.21703E+08         0.00000E+00
    0.00000E+00         0.00000E+00         0.92079E+07
 
    0.88999E+07         0.22759E+05         0.00000E+00
    0.22759E+05         0.21585E+08         0.00000E+00
    0.00000E+00         0.00000E+00         0.91454E+07
 
    0.88058E+07         0.18566E+05         0.00000E+00
    0.18566E+05         0.21466E+08         0.00000E+00
    0.00000E+00         0.00000E+00         0.90815E+07
 
    0.87070E+07         0.13873E+05         0.00000E+00
    0.13873E+05         0.21347E+08         0.00000E+00
    0.00000E+00         0.00000E+00         0.90161E+07
 
    0.86028E+07         0.86841E+04         0.00000E+00
    0.86841E+04         0.21227E+08         0.00000E+00
    0.00000E+00         0.00000E+00         0.89491E+07
 
    0.84931E+07         0.30341E+04         0.00000E+00
    0.30341E+04         0.21108E+08         0.00000E+00
    0.00000E+00         0.00000E+00         0.88803E+07
 
    0.83775E+07        -0.29999E+04         0.00000E+00
   -0.29999E+04         0.20988E+08         0.00000E+00
    0.00000E+00         0.00000E+00         0.88096E+07
 
    0.82558E+07        -0.92928E+04         0.00000E+00
   -0.92928E+04         0.20868E+08         0.00000E+00
    0.00000E+00         0.00000E+00         0.87372E+07
 
    0.81282E+07        -0.15646E+05         0.00000E+00
   -0.15646E+05         0.20748E+08         0.00000E+00
    0.00000E+00         0.00000E+00         0.86629E+07
 
    0.79949E+07        -0.21814E+05         0.00000E+00
   -0.21814E+05         0.20628E+08         0.00000E+00
    0.00000E+00         0.00000E+00         0.85869E+07
 
    0.78572E+07        -0.27288E+05         0.00000E+00
   -0.27288E+05         0.20508E+08         0.00000E+00
    0.00000E+00         0.00000E+00         0.85095E+07
 
    0.77167E+07        -0.31502E+05         0.00000E+00
   -0.31502E+05         0.20388E+08         0.00000E+00
    0.00000E+00         0.00000E+00         0.84315E+07
 
    0.75793E+07        -0.32067E+05         0.00000E+00
   -0.32067E+05         0.20268E+08         0.00000E+00
    0.00000E+00         0.00000E+00         0.83543E+07
 
    0.74533E+07        -0.16442E+05         0.00000E+00
   -0.16442E+05         0.20161E+08         0.00000E+00
    0.00000E+00         0.00000E+00         0.82843E+07
 
    0.13391E+08        -0.95261E+04         0.00000E+00
   -0.95261E+04         0.29501E+08         0.00000E+00
    0.00000E+00         0.00000E+00         0.12868E+08
 
    0.13316E+08        -0.16390E+05         0.00000E+00
   -0.16390E+05         0.29436E+08         0.00000E+00
    0.00000E+00         0.00000E+00         0.12826E+08
 
    0.13233E+08        -0.14805E+05         0.00000E+00
   -0.14805E+05         0.29366E+08         0.00000E+00
    0.00000E+00         0.00000E+00         0.12780E+08
 
    0.13150E+08        -0.12375E+05         0.00000E+00
   -0.12375E+05         0.29296E+08         0.00000E+00
    0.00000E+00         0.00000E+00         0.12734E+08
 
    0.13069E+08        -0.94222E+04         0.00000E+00
   -0.94222E+04         0.29227E+08         0.00000E+00
    0.00000E+00         0.00000E+00         0.12689E+08
 
    0.12992E+08        -0.62418E+04         0.00000E+00
   -0.62418E+04         0.29157E+08         0.00000E+00
    0.00000E+00         0.00000E+00         0.12644E+08
 
    0.12918E+08        -0.30247E+04         0.00000E+00
   -0.30247E+04         0.29087E+08         0.00000E+00
    0.00000E+00         0.00000E+00         0.12601E+08
 
    0.12848E+08         0.13955E+03         0.00000E+00
    0.13955E+03         0.29017E+08         0.00000E+00
    0.00000E+00         0.00000E+00         0.12559E+08
 
    0.12782E+08         0.31643E+04         0.00000E+00
    0.31643E+04         0.28946E+08         0.00000E+00
    0.00000E+00         0.00000E+00         0.12518E+08
 
    0.12719E+08         0.60011E+04         0.00000E+00
    0.60011E+04         0.28876E+08         0.00000E+00
    0.00000E+00         0.00000E+00         0.12478E+08
 
    0.12660E+08         0.86176E+04         0.00000E+00
    0.86176E+04         0.28805E+08         0.00000E+00
    0.00000E+00         0.00000E+00         0.12439E+08
 
    0.12604E+08         0.11002E+05         0.00000E+00
    0.11002E+05         0.28734E+08         0.00000E+00
    0.00000E+00         0.00000E+00         0.12401E+08
 
    0.12550E+08         0.13153E+05         0.00000E+00
    0.13153E+05         0.28663E+08         0.00000E+00
    0.00000E+00         0.00000E+00         0.12364E+08
 
    0.12500E+08         0.15083E+05         0.00000E+00
    0.15083E+05         0.28591E+08         0.00000E+00
    0.00000E+00         0.00000E+00         0.12327E+08
 
    0.12451E+08         0.16808E+05         0.00000E+00
    0.16808E+05         0.28519E+08         0.00000E+00
    0.00000E+00         0.00000E+00         0.12291E+08
 
    0.12404E+08         0.18347E+05         0.00000E+00
    0.18347E+05         0.28447E+08         0.00000E+00
    0.00000E+00         0.00000E+00         0.12255E+08
 
    0.12359E+08         0.19721E+05         0.00000E+00
    0.19721E+05         0.28375E+08         0.00000E+00
    0.00000E+00         0.00000E+00         0.12220E+08
 
    0.12315E+08         0.20950E+05         0.00000E+00
    0.20950E+05         0.28302E+08         0.00000E+00
    0.00000E+00         0.00000E+00         0.12185E+08
 
    0.12273E+08         0.22054E+05         0.00000E+00
    0.22054E+05         0.28229E+08         0.00000E+00
    0.00000E+00         0.00000E+00         0.12150E+08
 
    0.12232E+08         0.23050E+05         0.00000E+00
    0.23050E+05         0.28155E+08         0.00000E+00
    0.00000E+00         0.00000E+00         0.12116E+08
 
    0.12191E+08         0.23953E+05         0.00000E+00
    0.23953E+05         0.28081E+08         0.00000E+00
    0.00000E+00         0.00000E+00         0.12082E+08
 
    0.12152E+08         0.24777E+05         0.00000E+00
    0.24777E+05         0.28006E+08         0.00000E+00
    0.00000E+00         0.00000E+00         0.12047E+08
 
    0.12113E+08         0.25534E+05         0.00000E+00
    0.25534E+05         0.27931E+08         0.00000E+00
    0.00000E+00         0.00000E+00         0.12013E+08
 
    0.12074E+08         0.26232E+05         0.00000E+00
    0.26232E+05         0.27856E+08         0.00000E+00
    0.00000E+00         0.00000E+00         0.11979E+08
 
    0.12036E+08         0.26881E+05         0.00000E+00
    0.26881E+05         0.27780E+08         0.00000E+00
    0.00000E+00         0.00000E+00         0.11945E+08
 
    0.11999E+08         0.27488E+05         0.00000E+00
    0.27488E+05         0.27704E+08         0.00000E+00
    0.00000E+00         0.00000E+00         0.11911E+08
 
    0.11961E+08         0.28057E+05         0.00000E+00
    0.28057E+05         0.27627E+08         0.00000E+00
    0.00000E+00         0.00000E+00         0.11876E+08
 
    0.11924E+08         0.28594E+05         0.00000E+00
    0.28594E+05         0.27549E+08         0.00000E+00
    0.00000E+00         0.00000E+00         0.11842E+08
 
    0.11887E+08         0.29103E+05         0.00000E+00
    0.29103E+05         0.27471E+08         0.00000E+00
    0.00000E+00         0.00000E+00         0.11807E+08
 
    0.11850E+08         0.29586E+05         0.00000E+00
    0.29586E+05         0.27392E+08         0.00000E+00
    0.00000E+00         0.00000E+00         0.11773E+08
 
    0.11814E+08         0.30048E+05         0.00000E+00
    0.30048E+05         0.27313E+08         0.00000E+00
    0.00000E+00         0.00000E+00         0.11738E+08
 
    0.11777E+08         0.30490E+05         0.00000E+00
    0.30490E+05         0.27233E+08         0.00000E+00
    0.00000E+00         0.00000E+00         0.11703E+08
 
    0.11740E+08         0.30913E+05         0.00000E+00
    0.30913E+05         0.27152E+08         0.00000E+00
    0.00000E+00         0.00000E+00         0.11668E+08
 
    0.11703E+08         0.31321E+05         0.00000E+00
    0.31321E+05         0.27071E+08         0.00000E+00
    0.00000E+00         0.00000E+00         0.11632E+08
 
    0.11666E+08         0.31714E+05         0.00000E+00
    0.31714E+05         0.26989E+08         0.00000E+00
    0.00000E+00         0.00000E+00         0.11597E+08
 
    0.11629E+08         0.32093E+05         0.00000E+00
    0.32093E+05         0.26907E+08         0.00000E+00
    0.00000E+00         0.00000E+00         0.11561E+08
 
    0.11592E+08         0.32460E+05         0.00000E+00
    0.32460E+05         0.26823E+08         0.00000E+00
    0.00000E+00         0.00000E+00         0.11525E+08
 
    0.11555E+08         0.32815E+05         0.00000E+00
    0.32815E+05         0.26739E+08         0.00000E+00
    0.00000E+00         0.00000E+00         0.11488E+08
 
    0.11517E+08         0.33160E+05         0.00000E+00
    0.33160E+05         0.26655E+08         0.00000E+00
    0.00000E+00         0.00000E+00         0.11452E+08
 
    0.11479E+08         0.33494E+05         0.00000E+00
    0.33494E+05         0.26569E+08         0.00000E+00
    0.00000E+00         0.00000E+00         0.11415E+08
 
    0.11441E+08         0.33818E+05         0.00000E+00
    0.33818E+05         0.26483E+08         0.00000E+00
    0.00000E+00         0.00000E+00         0.11377E+08
 
    0.11403E+08         0.34133E+05         0.00000E+00
    0.34133E+05         0.26396E+08         0.00000E+00
    0.00000E+00         0.00000E+00         0.11340E+08
 
    0.11364E+08         0.34439E+05         0.00000E+00
    0.34439E+05         0.26308E+08         0.00000E+00
    0.00000E+00         0.00000E+00         0.11302E+08
 
    0.11325E+08         0.34736E+05         0.00000E+00
    0.34736E+05         0.26220E+08         0.00000E+00
    0.00000E+00         0.00000E+00         0.11263E+08
 
    0.11286E+08         0.35024E+05         0.00000E+00
    0.35024E+05         0.26131E+08         0.00000E+00
    0.00000E+00         0.00000E+00         0.11225E+08
 
    0.11246E+08         0.35304E+05         0.00000E+00
    0.35304E+05         0.26041E+08         0.00000E+00
    0.00000E+00         0.00000E+00         0.11186E+08
 
    0.11206E+08         0.35575E+05         0.00000E+00
    0.35575E+05         0.25950E+08         0.00000E+00
    0.00000E+00         0.00000E+00         0.11147E+08
 
    0.11165E+08         0.35836E+05         0.00000E+00
    0.35836E+05         0.25858E+08         0.00000E+00
    0.00000E+00         0.00000E+00         0.11107E+08
 
    0.11124E+08         0.36089E+05         0.00000E+00
    0.36089E+05         0.25766E+08         0.00000E+00
    0.00000E+00         0.00000E+00         0.11067E+08
 
    0.11083E+08         0.36332E+05         0.00000E+00
    0.36332E+05         0.25673E+08         0.00000E+00
    0.00000E+00         0.00000E+00         0.11027E+08
 
    0.11041E+08         0.36565E+05         0.00000E+00
    0.36565E+05         0.25579E+08         0.00000E+00
    0.00000E+00         0.00000E+00         0.10986E+08
 
    0.10999E+08         0.36788E+05         0.00000E+00
    0.36788E+05         0.25484E+08         0.00000E+00
    0.00000E+00         0.00000E+00         0.10945E+08
 
    0.10956E+08         0.36999E+05         0.00000E+00
    0.36999E+05         0.25388E+08         0.00000E+00
    0.00000E+00         0.00000E+00         0.10903E+08
 
    0.10912E+08         0.37200E+05         0.00000E+00
    0.37200E+05         0.25292E+08         0.00000E+00
    0.00000E+00         0.00000E+00         0.10861E+08
 
    0.10868E+08         0.37387E+05         0.00000E+00
    0.37387E+05         0.25195E+08         0.00000E+00
    0.00000E+00         0.00000E+00         0.10819E+08
 
    0.10824E+08         0.37562E+05         0.00000E+00
    0.37562E+05         0.25097E+08         0.00000E+00
    0.00000E+00         0.00000E+00         0.10776E+08
 
    0.10779E+08         0.37722E+05         0.00000E+00
    0.37722E+05         0.24998E+08         0.00000E+00
    0.00000E+00         0.00000E+00         0.10733E+08
 
    0.10734E+08         0.37867E+05         0.00000E+00
    0.37867E+05         0.24898E+08         0.00000E+00
    0.00000E+00         0.00000E+00         0.10690E+08
 
    0.10687E+08         0.37996E+05         0.00000E+00
    0.37996E+05         0.24798E+08         0.00000E+00
    0.00000E+00         0.00000E+00         0.10646E+08
 
    0.10641E+08         0.38107E+05         0.00000E+00
    0.38107E+05         0.24697E+08         0.00000E+00
    0.00000E+00         0.00000E+00         0.10601E+08
 
    0.10593E+08         0.38198E+05         0.00000E+00
    0.38198E+05         0.24595E+08         0.00000E+00
    0.00000E+00         0.00000E+00         0.10556E+08
 
    0.10545E+08         0.38270E+05         0.00000E+00
    0.38270E+05         0.24492E+08         0.00000E+00
    0.00000E+00         0.00000E+00         0.10511E+08
 
    0.10496E+08         0.38319E+05         0.00000E+00
    0.38319E+05         0.24389E+08         0.00000E+00
    0.00000E+00         0.00000E+00         0.10466E+08
 
    0.10447E+08         0.38344E+05         0.00000E+00
    0.38344E+05         0.24284E+08         0.00000E+00
    0.00000E+00         0.00000E+00         0.10419E+08
 
    0.10397E+08         0.38343E+05         0.00000E+00
    0.38343E+05         0.24179E+08         0.00000E+00
    0.00000E+00         0.00000E+00         0.10373E+08
 
    0.10346E+08         0.38313E+05         0.00000E+00
    0.38313E+05         0.24074E+08         0.00000E+00
    0.00000E+00         0.00000E+00         0.10326E+08
 
    0.10294E+08         0.38253E+05         0.00000E+00
    0.38253E+05         0.23967E+08         0.00000E+00
    0.00000E+00         0.00000E+00         0.10278E+08
 
    0.10241E+08         0.38159E+05         0.00000E+00
    0.38159E+05         0.23860E+08         0.00000E+00
    0.00000E+00         0.00000E+00         0.10230E+08
 
    0.10188E+08         0.38029E+05         0.00000E+00
    0.38029E+05         0.23752E+08         0.00000E+00
    0.00000E+00         0.00000E+00         0.10182E+08
 
    0.10134E+08         0.37859E+05         0.00000E+00
    0.37859E+05         0.23643E+08         0.00000E+00
    0.00000E+00         0.00000E+00         0.10133E+08
 
    0.10078E+08         0.37645E+05         0.00000E+00
    0.37645E+05         0.23534E+08         0.00000E+00
    0.00000E+00         0.00000E+00         0.10084E+08
 
    0.10022E+08         0.37382E+05         0.00000E+00
    0.37382E+05         0.23424E+08         0.00000E+00
    0.00000E+00         0.00000E+00         0.10034E+08
 
    0.99647E+07         0.37066E+05         0.00000E+00
    0.37066E+05         0.23313E+08         0.00000E+00
    0.00000E+00         0.00000E+00         0.99834E+07
 
    0.99062E+07         0.36691E+05         0.00000E+00
    0.36691E+05         0.23202E+08         0.00000E+00
    0.00000E+00         0.00000E+00         0.99324E+07
 
    0.98465E+07         0.36248E+05         0.00000E+00
    0.36248E+05         0.23090E+08         0.00000E+00
    0.00000E+00         0.00000E+00         0.98809E+07
 
    0.97855E+07         0.35731E+05         0.00000E+00
    0.35731E+05         0.22977E+08         0.00000E+00
    0.00000E+00         0.00000E+00         0.98288E+07
 
    0.97231E+07         0.35128E+05         0.00000E+00
    0.35128E+05         0.22864E+08         0.00000E+00
    0.00000E+00         0.00000E+00         0.97762E+07
 
    0.96592E+07         0.34427E+05         0.00000E+00
    0.34427E+05         0.22750E+08         0.00000E+00
    0.00000E+00         0.00000E+00         0.97229E+07
 
    0.95937E+07         0.33615E+05         0.00000E+00
    0.33615E+05         0.22636E+08         0.00000E+00
    0.00000E+00         0.00000E+00         0.96689E+07
 
    0.95264E+07         0.32674E+05         0.00000E+00
    0.32674E+05         0.22521E+08         0.00000E+00
    0.00000E+00         0.00000E+00         0.96143E+07
 
    0.94572E+07         0.31585E+05         0.00000E+00
    0.31585E+05         0.22406E+08         0.00000E+00
    0.00000E+00         0.00000E+00         0.95589E+07
 
    0.93859E+07         0.30325E+05         0.00000E+00
    0.30325E+05         0.22290E+08         0.00000E+00
    0.00000E+00         0.00000E+00         0.95028E+07
 
    0.93122E+07         0.28867E+05         0.00000E+00
    0.28867E+05         0.22174E+08         0.00000E+00
    0.00000E+00         0.00000E+00         0.94457E+07
 
    0.92358E+07         0.27182E+05         0.00000E+00
    0.27182E+05         0.22057E+08         0.00000E+00
    0.00000E+00         0.00000E+00         0.93878E+07
 
    0.91566E+07         0.25236E+05         0.00000E+00
    0.25236E+05         0.21940E+08         0.00000E+00
    0.00000E+00         0.00000E+00         0.93288E+07
 
    0.90740E+07         0.22996E+05         0.00000E+00
    0.22996E+05         0.21822E+08         0.00000E+00
    0.00000E+00         0.00000E+00         0.92688E+07
 
    0.89879E+07         0.20427E+05         0.00000E+00
    0.20427E+05         0.21704E+08         0.00000E+00
    0.00000E+00         0.00000E+00         0.92075E+07
 
    0.88976E+07         0.17495E+05         0.00000E+00
    0.17495E+05         0.21586E+08         0.00000E+00
    0.00000E+00         0.00000E+00         0.91449E+07
 
    0.88029E+07         0.14174E+05         0.00000E+00
    0.14174E+05         0.21467E+08         0.00000E+00
    0.00000E+00         0.00000E+00         0.90809E+07
 
    0.87031E+07         0.10447E+05         0.00000E+00
    0.10447E+05         0.21348E+08         0.00000E+00
    0.00000E+00         0.00000E+00         0.90153E+07
 
    0.85979E+07         0.63164E+04         0.00000E+00
    0.63164E+04         0.21228E+08         0.00000E+00
    0.00000E+00         0.00000E+00         0.89479E+07
 
    0.84868E+07         0.18040E+04         0.00000E+00
    0.18040E+04         0.21109E+08         0.00000E+00
    0.00000E+00         0.00000E+00         0.88787E+07
 
    0.83695E+07        -0.30315E+04         0.00000E+00
   -0.30315E+04         0.20989E+08         0.00000E+00
    0.00000E+00         0.00000E+00         0.88076E+07
 
    0.82458E+07        -0.81039E+04         0.00000E+00
   -0.81039E+04         0.20869E+08         0.00000E+00
    0.00000E+00         0.00000E+00         0.87345E+07
 
    0.81155E+07        -0.13260E+05         0.00000E+00
   -0.13260E+05         0.20749E+08         0.00000E+00
    0.00000E+00         0.00000E+00         0.86594E+07
 
    0.79791E+07        -0.18344E+05         0.00000E+00
   -0.18344E+05         0.20629E+08         0.00000E+00
    0.00000E+00         0.00000E+00         0.85824E+07
 
    0.78374E+07        -0.23021E+05         0.00000E+00
   -0.23021E+05         0.20509E+08         0.00000E+00
    0.00000E+00         0.00000E+00         0.85039E+07
 
    0.76919E+07        -0.26778E+05         0.00000E+00
   -0.26778E+05         0.20389E+08         0.00000E+00
    0.00000E+00         0.00000E+00         0.84243E+07
 
    0.75472E+07        -0.29057E+05         0.00000E+00
   -0.29057E+05         0.20268E+08         0.00000E+00
    0.00000E+00         0.00000E+00         0.83445E+07
 
    0.74160E+07        -0.16712E+05         0.00000E+00
   -0.16712E+05         0.20155E+08         0.00000E+00
    0.00000E+00         0.00000E+00         0.82714E+07
 
    0.13416E+08        -0.95243E+04         0.00000E+00
   -0.95243E+04         0.29504E+08         0.00000E+00
    0.00000E+00         0.00000E+00         0.12876E+08
 
    0.13335E+08        -0.13681E+05         0.00000E+00
   -0.13681E+05         0.29435E+08         0.00000E+00
    0.00000E+00         0.00000E+00         0.12831E+08
 
    0.13248E+08        -0.11530E+05         0.00000E+00
   -0.11530E+05         0.29365E+08         0.00000E+00
    0.00000E+00         0.00000E+00         0.12784E+08
 
    0.13162E+08        -0.96621E+04         0.00000E+00
   -0.96621E+04         0.29296E+08         0.00000E+00
    0.00000E+00         0.00000E+00         0.12737E+08
 
    0.13078E+08        -0.73154E+04         0.00000E+00
   -0.73154E+04         0.29226E+08         0.00000E+00
    0.00000E+00         0.00000E+00         0.12691E+08
 
    0.12999E+08        -0.49302E+04         0.00000E+00
   -0.49302E+04         0.29156E+08         0.00000E+00
    0.00000E+00         0.00000E+00         0.12647E+08
 
    0.12924E+08        -0.25280E+04         0.00000E+00
   -0.25280E+04         0.29086E+08         0.00000E+00
    0.00000E+00         0.00000E+00         0.12603E+08
 
    0.12853E+08        -0.18920E+03         0.00000E+00
   -0.18920E+03         0.29016E+08         0.00000E+00
    0.00000E+00         0.00000E+00         0.12561E+08
 
    0.12786E+08         0.20361E+04         0.00000E+00
    0.20361E+04         0.28946E+08         0.00000E+00
    0.00000E+00         0.00000E+00         0.12519E+08
 
    0.12722E+08         0.41150E+04         0.00000E+00
    0.41150E+04         0.28875E+08         0.00000E+00
    0.00000E+00         0.00000E+00         0.12479E+08
 
    0.12663E+08         0.60261E+04         0.00000E+00
    0.60261E+04         0.28804E+08         0.00000E+00
    0.00000E+00         0.00000E+00         0.12440E+08
 
    0.12606E+08         0.77625E+04         0.00000E+00
    0.77625E+04         0.28733E+08         0.00000E+00
    0.00000E+00         0.00000E+00         0.12402E+08
 
    0.12552E+08         0.93258E+04         0.00000E+00
    0.93258E+04         0.28662E+08         0.00000E+00
    0.00000E+00         0.00000E+00         0.12364E+08
 
    0.12501E+08         0.10725E+05         0.00000E+00
    0.10725E+05         0.28591E+08         0.00000E+00
    0.00000E+00         0.00000E+00         0.12328E+08
 
    0.12452E+08         0.11972E+05         0.00000E+00
    0.11972E+05         0.28519E+08         0.00000E+00
    0.00000E+00         0.00000E+00         0.12291E+08
 
    0.12406E+08         0.13082E+05         0.00000E+00
    0.13082E+05         0.28447E+08         0.00000E+00
    0.00000E+00         0.00000E+00         0.12256E+08
 
    0.12360E+08         0.14072E+05         0.00000E+00
    0.14072E+05         0.28374E+08         0.00000E+00
    0.00000E+00         0.00000E+00         0.12220E+08
 
    0.12317E+08         0.14956E+05         0.00000E+00
    0.14956E+05         0.28302E+08         0.00000E+00
    0.00000E+00         0.00000E+00         0.12185E+08
 
    0.12274E+08         0.15748E+05         0.00000E+00
    0.15748E+05         0.28228E+08         0.00000E+00
    0.00000E+00         0.00000E+00         0.12151E+08
 
    0.12233E+08         0.16462E+05         0.00000E+00
    0.16462E+05         0.28155E+08         0.00000E+00
    0.00000E+00         0.00000E+00         0.12116E+08
 
    0.12192E+08         0.17110E+05         0.00000E+00
    0.17110E+05         0.28081E+08         0.00000E+00
    0.00000E+00         0.00000E+00         0.12082E+08
 
    0.12153E+08         0.17699E+05         0.00000E+00
    0.17699E+05         0.28006E+08         0.00000E+00
    0.00000E+00         0.00000E+00         0.12048E+08
 
    0.12114E+08         0.18240E+05         0.00000E+00
    0.18240E+05         0.27931E+08         0.00000E+00
    0.00000E+00         0.00000E+00         0.12014E+08
 
    0.12075E+08         0.18740E+05         0.00000E+00
    0.18740E+05         0.27856E+08         0.00000E+00
    0.00000E+00         0.00000E+00         0.11979E+08
 
    0.12037E+08         0.19204E+05         0.00000E+00
    0.19204E+05         0.27780E+08         0.00000E+00
    0.00000E+00         0.00000E+00         0.11945E+08
 
    0.12000E+08         0.19637E+05         0.00000E+00
    0.19637E+05         0.27704E+08         0.00000E+00
    0.00000E+00         0.00000E+00         0.11911E+08
 
    0.11962E+08         0.20044E+05         0.00000E+00
    0.20044E+05         0.27627E+08         0.00000E+00
    0.00000E+00         0.00000E+00         0.11877E+08
 
    0.11925E+08         0.20427E+05         0.00000E+00
    0.20427E+05         0.27549E+08         0.00000E+00
    0.00000E+00         0.00000E+00         0.11842E+08
 
    0.11888E+08         0.20791E+05         0.00000E+00
    0.20791E+05         0.27471E+08         0.00000E+00
    0.00000E+00         0.00000E+00         0.11808E+08
 
    0.11852E+08         0.21136E+05         0.00000E+00
    0.21136E+05         0.27392E+08         0.00000E+00
    0.00000E+00         0.00000E+00         0.11773E+08
 
    0.11815E+08         0.21466E+05         0.00000E+00
    0.21466E+05         0.27313E+08         0.00000E+00
    0.00000E+00         0.00000E+00         0.11738E+08
 
    0.11778E+08         0.21781E+05         0.00000E+00
    0.21781E+05         0.27233E+08         0.00000E+00
    0.00000E+00         0.00000E+00         0.11703E+08
 
    0.11741E+08         0.22084E+05         0.00000E+00
    0.22084E+05         0.27152E+08         0.00000E+00
    0.00000E+00         0.00000E+00         0.11668E+08
 
    0.11705E+08         0.22375E+05         0.00000E+00
    0.22375E+05         0.27071E+08         0.00000E+00
    0.00000E+00         0.00000E+00         0.11633E+08
 
    0.11668E+08         0.22655E+05         0.00000E+00
    0.22655E+05         0.26989E+08         0.00000E+00
    0.00000E+00         0.00000E+00         0.11597E+08
 
    0.11631E+08         0.22926E+05         0.00000E+00
    0.22926E+05         0.26906E+08         0.00000E+00
    0.00000E+00         0.00000E+00         0.11561E+08
 
    0.11593E+08         0.23188E+05         0.00000E+00
    0.23188E+05         0.26823E+08         0.00000E+00
    0.00000E+00         0.00000E+00         0.11525E+08
 
    0.11556E+08         0.23442E+05         0.00000E+00
    0.23442E+05         0.26739E+08         0.00000E+00
    0.00000E+00         0.00000E+00         0.11489E+08
 
    0.11518E+08         0.23688E+05         0.00000E+00
    0.23688E+05         0.26654E+08         0.00000E+00
    0.00000E+00         0.00000E+00         0.11452E+08
 
    0.11481E+08         0.23926E+05         0.00000E+00
    0.23926E+05         0.26569E+08         0.00000E+00
    0.00000E+00         0.00000E+00         0.11415E+08
 
    0.11443E+08         0.24158E+05         0.00000E+00
    0.24158E+05         0.26483E+08         0.00000E+00
    0.00000E+00         0.00000E+00         0.11378E+08
 
    0.11404E+08         0.24382E+05         0.00000E+00
    0.24382E+05         0.26396E+08         0.00000E+00
    0.00000E+00         0.00000E+00         0.11340E+08
 
    0.11365E+08         0.24601E+05         0.00000E+00
    0.24601E+05         0.26308E+08         0.00000E+00
    0.00000E+00         0.00000E+00         0.11302E+08
 
    0.11326E+08         0.24813E+05         0.00000E+00
    0.24813E+05         0.26220E+08         0.00000E+00
    0.00000E+00         0.00000E+00         0.11264E+08
 
    0.11287E+08         0.25018E+05         0.00000E+00
    0.25018E+05         0.26131E+08         0.00000E+00
    0.00000E+00         0.00000E+00         0.11225E+08
 
    0.11247E+08         0.25218E+05         0.00000E+00
    0.25218E+05         0.26041E+08         0.00000E+00
    0.00000E+00         0.00000E+00         0.11186E+08
 
    0.11207E+08         0.25411E+05         0.00000E+00
    0.25411E+05         0.25950E+08         0.00000E+00
    0.00000E+00         0.00000E+00         0.11147E+08
 
    0.11167E+08         0.25597E+05         0.00000E+00
    0.25597E+05         0.25858E+08         0.00000E+00
    0.00000E+00         0.00000E+00         0.11107E+08
 
    0.11126E+08         0.25777E+05         0.00000E+00
    0.25777E+05         0.25766E+08         0.00000E+00
    0.00000E+00         0.00000E+00         0.11067E+08
 
    0.11084E+08         0.25950E+05         0.00000E+00
    0.25950E+05         0.25673E+08         0.00000E+00
    0.00000E+00         0.00000E+00         0.11027E+08
 
    0.11042E+08         0.26116E+05         0.00000E+00
    0.26116E+05         0.25579E+08         0.00000E+00
    0.00000E+00         0.00000E+00         0.10986E+08
 
    0.11000E+08         0.26275E+05         0.00000E+00
    0.26275E+05         0.25484E+08         0.00000E+00
    0.00000E+00         0.00000E+00         0.10945E+08
 
    0.10957E+08         0.26426E+05         0.00000E+00
    0.26426E+05         0.25388E+08         0.00000E+00
    0.00000E+00         0.00000E+00         0.10904E+08
 
    0.10914E+08         0.26568E+05         0.00000E+00
    0.26568E+05         0.25292E+08         0.00000E+00
    0.00000E+00         0.00000E+00         0.10862E+08
 
    0.10870E+08         0.26702E+05         0.00000E+00
    0.26702E+05         0.25195E+08         0.00000E+00
    0.00000E+00         0.00000E+00         0.10819E+08
 
    0.10825E+08         0.26826E+05         0.00000E+00
    0.26826E+05         0.25097E+08         0.00000E+00
    0.00000E+00         0.00000E+00         0.10777E+08
 
    0.10780E+08         0.26940E+05         0.00000E+00
    0.26940E+05         0.24998E+08         0.00000E+00
    0.00000E+00         0.00000E+00         0.10733E+08
 
    0.10735E+08         0.27043E+05         0.00000E+00
    0.27043E+05         0.24898E+08         0.00000E+00
    0.00000E+00         0.00000E+00         0.10690E+08
 
    0.10689E+08         0.27134E+05         0.00000E+00
    0.27134E+05         0.24798E+08         0.00000E+00
    0.00000E+00         0.00000E+00         0.10646E+08
 
    0.10642E+08         0.27213E+05         0.00000E+00
    0.27213E+05         0.24697E+08         0.00000E+00
    0.00000E+00         0.00000E+00         0.10602E+08
 
    0.10594E+08         0.27278E+05         0.00000E+00
    0.27278E+05         0.24595E+08         0.00000E+00
    0.00000E+00         0.00000E+00         0.10557E+08
 
    0.10546E+08         0.27328E+05         0.00000E+00
    0.27328E+05         0.24492E+08         0.00000E+00
    0.00000E+00         0.00000E+00         0.10512E+08
 
    0.10497E+08         0.27363E+05         0.00000E+00
    0.27363E+05         0.24389E+08         0.00000E+00
    0.00000E+00         0.00000E+00         0.10466E+08
 
    0.10448E+08         0.27380E+05         0.00000E+00
    0.27380E+05         0.24284E+08         0.00000E+00
    0.00000E+00         0.00000E+00         0.10420E+08
 
    0.10398E+08         0.27378E+05         0.00000E+00
    0.27378E+05         0.24179E+08         0.00000E+00
    0.00000E+00         0.00000E+00         0.10373E+08
 
    0.10347E+08         0.27356E+05         0.00000E+00
    0.27356E+05         0.24074E+08         0.00000E+00
    0.00000E+00         0.00000E+00         0.10326E+08
 
    0.10295E+08         0.27313E+05         0.00000E+00
    0.27313E+05         0.23967E+08         0.00000E+00
    0.00000E+00         0.00000E+00         0.10279E+08
 
    0.10242E+08         0.27245E+05         0.00000E+00
    0.27245E+05         0.23860E+08         0.00000E+00
    0.00000E+00         0.00000E+00         0.10231E+08
 
    0.10189E+08         0.27151E+05         0.00000E+00
    0.27151E+05         0.23752E+08         0.00000E+00
    0.00000E+00         0.00000E+00         0.10182E+08
 
    0.10134E+08         0.27029E+05         0.00000E+00
    0.27029E+05         0.23643E+08         0.00000E+00
    0.00000E+00         0.00000E+00         0.10133E+08
 
    0.10079E+08         0.26876E+05         0.00000E+00
    0.26876E+05         0.23534E+08         0.00000E+00
    0.00000E+00         0.00000E+00         0.10084E+08
 
    0.10023E+08         0.26687E+05         0.00000E+00
    0.26687E+05         0.23424E+08         0.00000E+00
    0.00000E+00         0.00000E+00         0.10034E+08
 
    0.99653E+07         0.26461E+05         0.00000E+00
    0.26461E+05         0.23313E+08         0.00000E+00
    0.00000E+00         0.00000E+00         0.99836E+07
 
    0.99067E+07         0.26192E+05         0.00000E+00
    0.26192E+05         0.23202E+08         0.00000E+00
    0.00000E+00         0.00000E+00         0.99326E+07
 
    0.98470E+07         0.25875E+05         0.00000E+00
    0.25875E+05         0.23090E+08         0.00000E+00
    0.00000E+00         0.00000E+00         0.98811E+07
 
    0.97859E+07         0.25505E+05         0.00000E+00
    0.25505E+05         0.22977E+08         0.00000E+00
    0.00000E+00         0.00000E+00         0.98290E+07
 
    0.97234E+07         0.25073E+05         0.00000E+00
    0.25073E+05         0.22864E+08         0.00000E+00
    0.00000E+00         0.00000E+00         0.97763E+07
 
    0.96595E+07         0.24571E+05         0.00000E+00
    0.24571E+05         0.22750E+08         0.00000E+00
    0.00000E+00         0.00000E+00         0.97230E+07
 
    0.95939E+07         0.23989E+05         0.00000E+00
    0.23989E+05         0.22636E+08         0.00000E+00
    0.00000E+00         0.00000E+00         0.96690E+07
 
    0.95265E+07         0.23315E+05         0.00000E+00
    0.23315E+05         0.22521E+08         0.00000E+00
    0.00000E+00         0.00000E+00         0.96144E+07
 
    0.94572E+07         0.22533E+05         0.00000E+00
    0.22533E+05         0.22406E+08         0.00000E+00
    0.00000E+00         0.00000E+00         0.95590E+07
 
    0.93857E+07         0.21628E+05         0.00000E+00
    0.21628E+05         0.22290E+08         0.00000E+00
    0.00000E+00         0.00000E+00         0.95028E+07
 
    0.93118E+07         0.20579E+05         0.00000E+00
    0.20579E+05         0.22174E+08         0.00000E+00
    0.00000E+00         0.00000E+00         0.94457E+07
 
    0.92353E+07         0.19364E+05         0.00000E+00
    0.19364E+05         0.22057E+08         0.00000E+00
    0.00000E+00         0.00000E+00         0.93877E+07
 
    0.91558E+07         0.17960E+05         0.00000E+00
    0.17960E+05         0.21940E+08         0.00000E+00
    0.00000E+00         0.00000E+00         0.93287E+07
 
    0.90730E+07         0.16340E+05         0.00000E+00
    0.16340E+05         0.21822E+08         0.00000E+00
    0.00000E+00         0.00000E+00         0.92686E+07
 
    0.89864E+07         0.14478E+05         0.00000E+00
    0.14478E+05         0.21704E+08         0.00000E+00
    0.00000E+00         0.00000E+00         0.92072E+07
 
    0.88957E+07         0.12349E+05         0.00000E+00
    0.12349E+05         0.21586E+08         0.00000E+00
    0.00000E+00         0.00000E+00         0.91445E+07
 
    0.88003E+07         0.99315E+04         0.00000E+00
    0.99315E+04         0.21467E+08         0.00000E+00
    0.00000E+00         0.00000E+00         0.90803E+07
 
    0.86997E+07         0.72116E+04         0.00000E+00
    0.72116E+04         0.21348E+08         0.00000E+00
    0.00000E+00         0.00000E+00         0.90144E+07
 
    0.85934E+07         0.41881E+04         0.00000E+00
    0.41881E+04         0.21229E+08         0.00000E+00
    0.00000E+00         0.00000E+00         0.89468E+07
 
    0.84810E+07         0.87453E+03         0.00000E+00
    0.87453E+03         0.21110E+08         0.00000E+00
    0.00000E+00         0.00000E+00         0.88772E+07
 
    0.83621E+07        -0.26907E+04         0.00000E+00
   -0.26907E+04         0.20990E+08         0.00000E+00
    0.00000E+00         0.00000E+00         0.88056E+07
 
    0.82362E+07        -0.64486E+04         0.00000E+00
   -0.64486E+04         0.20870E+08         0.00000E+00
    0.00000E+00         0.00000E+00         0.87319E+07
 
    0.81034E+07        -0.10311E+05         0.00000E+00
   -0.10311E+05         0.20750E+08         0.00000E+00
    0.00000E+00         0.00000E+00         0.86560E+07
 
    0.79637E+07        -0.14136E+05         0.00000E+00
   -0.14136E+05         0.20630E+08         0.00000E+00
    0.00000E+00         0.00000E+00         0.85781E+07
 
    0.78178E+07        -0.17885E+05         0.00000E+00
   -0.17885E+05         0.20510E+08         0.00000E+00
    0.00000E+00         0.00000E+00         0.84982E+07
 
    0.76672E+07        -0.20795E+05         0.00000E+00
   -0.20795E+05         0.20390E+08         0.00000E+00
    0.00000E+00         0.00000E+00         0.84171E+07
 
    0.75142E+07        -0.24179E+05         0.00000E+00
   -0.24179E+05         0.20269E+08         0.00000E+00
    0.00000E+00         0.00000E+00         0.83348E+07
 
    0.73748E+07        -0.16643E+05         0.00000E+00
   -0.16643E+05         0.20149E+08         0.00000E+00
    0.00000E+00         0.00000E+00         0.82573E+07
 
    0.13443E+08        -0.91022E+04         0.00000E+00
   -0.91022E+04         0.29507E+08         0.00000E+00
    0.00000E+00         0.00000E+00         0.12885E+08
 
    0.13355E+08        -0.94548E+04         0.00000E+00
   -0.94548E+04         0.29434E+08         0.00000E+00
    0.00000E+00         0.00000E+00         0.12837E+08
 
    0.13262E+08        -0.76117E+04         0.00000E+00
   -0.76117E+04         0.29365E+08         0.00000E+00
    0.00000E+00         0.00000E+00         0.12788E+08
 
    0.13173E+08        -0.64021E+04         0.00000E+00
   -0.64021E+04         0.29295E+08         0.00000E+00
    0.00000E+00         0.00000E+00         0.12741E+08
 
    0.13087E+08        -0.47889E+04         0.00000E+00
   -0.47889E+04         0.29226E+08         0.00000E+00
    0.00000E+00         0.00000E+00         0.12694E+08
 
    0.13006E+08        -0.32985E+04         0.00000E+00
   -0.32985E+04         0.29156E+08         0.00000E+00
    0.00000E+00         0.00000E+00         0.12649E+08
 
    0.12929E+08        -0.17695E+04         0.00000E+00
   -0.17695E+04         0.29086E+08         0.00000E+00
    0.00000E+00         0.00000E+00         0.12605E+08
 
    0.12857E+08        -0.31598E+03         0.00000E+00
   -0.31598E+03         0.29016E+08         0.00000E+00
    0.00000E+00         0.00000E+00         0.12562E+08
 
    0.12789E+08         0.10686E+04         0.00000E+00
    0.10686E+04         0.28945E+08         0.00000E+00
    0.00000E+00         0.00000E+00         0.12520E+08
 
    0.12725E+08         0.23520E+04         0.00000E+00
    0.23520E+04         0.28875E+08         0.00000E+00
    0.00000E+00         0.00000E+00         0.12480E+08
 
    0.12665E+08         0.35291E+04         0.00000E+00
    0.35291E+04         0.28804E+08         0.00000E+00
    0.00000E+00         0.00000E+00         0.12441E+08
 
    0.12608E+08         0.45943E+04         0.00000E+00
    0.45943E+04         0.28733E+08         0.00000E+00
    0.00000E+00         0.00000E+00         0.12402E+08
 
    0.12554E+08         0.55507E+04         0.00000E+00
    0.55507E+04         0.28662E+08         0.00000E+00
    0.00000E+00         0.00000E+00         0.12365E+08
 
    0.12503E+08         0.64038E+04         0.00000E+00
    0.64038E+04         0.28591E+08         0.00000E+00
    0.00000E+00         0.00000E+00         0.12328E+08
 
    0.12454E+08         0.71626E+04         0.00000E+00
    0.71626E+04         0.28519E+08         0.00000E+00
    0.00000E+00         0.00000E+00         0.12292E+08
 
    0.12407E+08         0.78365E+04         0.00000E+00
    0.78365E+04         0.28447E+08         0.00000E+00
    0.00000E+00         0.00000E+00         0.12256E+08
 
    0.12362E+08         0.84357E+04         0.00000E+00
    0.84357E+04         0.28374E+08         0.00000E+00
    0.00000E+00         0.00000E+00         0.12221E+08
 
    0.12318E+08         0.89698E+04         0.00000E+00
    0.89698E+04         0.28301E+08         0.00000E+00
    0.00000E+00         0.00000E+00         0.12186E+08
 
    0.12275E+08         0.94479E+04         0.00000E+00
    0.94479E+04         0.28228E+08         0.00000E+00
    0.00000E+00         0.00000E+00         0.12151E+08
 
    0.12234E+08         0.98781E+04         0.00000E+00
    0.98781E+04         0.28155E+08         0.00000E+00
    0.00000E+00         0.00000E+00         0.12117E+08
 
    0.12194E+08         0.10267E+05         0.00000E+00
    0.10267E+05         0.28081E+08         0.00000E+00
    0.00000E+00         0.00000E+00         0.12082E+08
 
    0.12154E+08         0.10622E+05         0.00000E+00
    0.10622E+05         0.28006E+08         0.00000E+00
    0.00000E+00         0.00000E+00         0.12048E+08
 
    0.12115E+08         0.10947E+05         0.00000E+00
    0.10947E+05         0.27931E+08         0.00000E+00
    0.00000E+00         0.00000E+00         0.12014E+08
 
    0.12076E+08         0.11247E+05         0.00000E+00
    0.11247E+05         0.27856E+08         0.00000E+00
    0.00000E+00         0.00000E+00         0.11980E+08
 
    0.12038E+08         0.11525E+05         0.00000E+00
    0.11525E+05         0.27780E+08         0.00000E+00
    0.00000E+00         0.00000E+00         0.11946E+08
 
    0.12001E+08         0.11785E+05         0.00000E+00
    0.11785E+05         0.27703E+08         0.00000E+00
    0.00000E+00         0.00000E+00         0.11911E+08
 
    0.11964E+08         0.12029E+05         0.00000E+00
    0.12029E+05         0.27626E+08         0.00000E+00
    0.00000E+00         0.00000E+00         0.11877E+08
 
    0.11926E+08         0.12259E+05         0.00000E+00
    0.12259E+05         0.27549E+08         0.00000E+00
    0.00000E+00         0.00000E+00         0.11843E+08
 
    0.11890E+08         0.12477E+05         0.00000E+00
    0.12477E+05         0.27471E+08         0.00000E+00
    0.00000E+00         0.00000E+00         0.11808E+08
 
    0.11853E+08         0.12684E+05         0.00000E+00
    0.12684E+05         0.27392E+08         0.00000E+00
    0.00000E+00         0.00000E+00         0.11773E+08
 
    0.11816E+08         0.12882E+05         0.00000E+00
    0.12882E+05         0.27313E+08         0.00000E+00
    0.00000E+00         0.00000E+00         0.11739E+08
 
    0.11779E+08         0.13071E+05         0.00000E+00
    0.13071E+05         0.27233E+08         0.00000E+00
    0.00000E+00         0.00000E+00         0.11704E+08
 
    0.11743E+08         0.13253E+05         0.00000E+00
    0.13253E+05         0.27152E+08         0.00000E+00
    0.00000E+00         0.00000E+00         0.11668E+08
 
    0.11706E+08         0.13427E+05         0.00000E+00
    0.13427E+05         0.27071E+08         0.00000E+00
    0.00000E+00         0.00000E+00         0.11633E+08
 
    0.11669E+08         0.13595E+05         0.00000E+00
    0.13595E+05         0.26989E+08         0.00000E+00
    0.00000E+00         0.00000E+00         0.11597E+08
 
    0.11632E+08         0.13758E+05         0.00000E+00
    0.13758E+05         0.26906E+08         0.00000E+00
    0.00000E+00         0.00000E+00         0.11561E+08
 
    0.11595E+08         0.13915E+05         0.00000E+00
    0.13915E+05         0.26823E+08         0.00000E+00
    0.00000E+00         0.00000E+00         0.11525E+08
 
    0.11557E+08         0.14067E+05         0.00000E+00
    0.14067E+05         0.26739E+08         0.00000E+00
    0.00000E+00         0.00000E+00         0.11489E+08
 
    0.11520E+08         0.14214E+05         0.00000E+00
    0.14214E+05         0.26654E+08         0.00000E+00
    0.00000E+00         0.00000E+00         0.11452E+08
 
    0.11482E+08         0.14357E+05         0.00000E+00
    0.14357E+05         0.26569E+08         0.00000E+00
    0.00000E+00         0.00000E+00         0.11415E+08
 
    0.11444E+08         0.14496E+05         0.00000E+00
    0.14496E+05         0.26483E+08         0.00000E+00
    0.00000E+00         0.00000E+00         0.11378E+08
 
    0.11405E+08         0.14631E+05         0.00000E+00
    0.14631E+05         0.26396E+08         0.00000E+00
    0.00000E+00         0.00000E+00         0.11340E+08
 
    0.11367E+08         0.14762E+05         0.00000E+00
    0.14762E+05         0.26308E+08         0.00000E+00
    0.00000E+00         0.00000E+00         0.11302E+08
 
    0.11328E+08         0.14888E+05         0.00000E+00
    0.14888E+05         0.26220E+08         0.00000E+00
    0.00000E+00         0.00000E+00         0.11264E+08
 
    0.11288E+08         0.15012E+05         0.00000E+00
    0.15012E+05         0.26131E+08         0.00000E+00
    0.00000E+00         0.00000E+00         0.11226E+08
 
    0.11249E+08         0.15131E+05         0.00000E+00
    0.15131E+05         0.26041E+08         0.00000E+00
    0.00000E+00         0.00000E+00         0.11187E+08
 
    0.11208E+08         0.15247E+05         0.00000E+00
    0.15247E+05         0.25950E+08         0.00000E+00
    0.00000E+00         0.00000E+00         0.11147E+08
 
    0.11168E+08         0.15358E+05         0.00000E+00
    0.15358E+05         0.25858E+08         0.00000E+00
    0.00000E+00         0.00000E+00         0.11108E+08
 
    0.11127E+08         0.15466E+05         0.00000E+00
    0.15466E+05         0.25766E+08         0.00000E+00
    0.00000E+00         0.00000E+00         0.11068E+08
 
    0.11085E+08         0.15570E+05         0.00000E+00
    0.15570E+05         0.25673E+08         0.00000E+00
    0.00000E+00         0.00000E+00         0.11027E+08
 
    0.11043E+08         0.15669E+05         0.00000E+00
    0.15669E+05         0.25579E+08         0.00000E+00
    0.00000E+00         0.00000E+00         0.10987E+08
 
    0.11001E+08         0.15764E+05         0.00000E+00
    0.15764E+05         0.25484E+08         0.00000E+00
    0.00000E+00         0.00000E+00         0.10946E+08
 
    0.10958E+08         0.15854E+05         0.00000E+00
    0.15854E+05         0.25388E+08         0.00000E+00
    0.00000E+00         0.00000E+00         0.10904E+08
 
    0.10915E+08         0.15939E+05         0.00000E+00
    0.15939E+05         0.25292E+08         0.00000E+00
    0.00000E+00         0.00000E+00         0.10862E+08
 
    0.10871E+08         0.16019E+05         0.00000E+00
    0.16019E+05         0.25195E+08         0.00000E+00
    0.00000E+00         0.00000E+00         0.10820E+08
 
    0.10827E+08         0.16093E+05         0.00000E+00
    0.16093E+05         0.25097E+08         0.00000E+00
    0.00000E+00         0.00000E+00         0.10777E+08
 
    0.10782E+08         0.16161E+05         0.00000E+00
    0.16161E+05         0.24998E+08         0.00000E+00
    0.00000E+00         0.00000E+00         0.10734E+08
 
    0.10736E+08         0.16223E+05         0.00000E+00
    0.16223E+05         0.24898E+08         0.00000E+00
    0.00000E+00         0.00000E+00         0.10690E+08
 
    0.10690E+08         0.16277E+05         0.00000E+00
    0.16277E+05         0.24798E+08         0.00000E+00
    0.00000E+00         0.00000E+00         0.10646E+08
 
    0.10643E+08         0.16324E+05         0.00000E+00
    0.16324E+05         0.24697E+08         0.00000E+00
    0.00000E+00         0.00000E+00         0.10602E+08
 
    0.10595E+08         0.16362E+05         0.00000E+00
    0.16362E+05         0.24595E+08         0.00000E+00
    0.00000E+00         0.00000E+00         0.10557E+08
 
    0.10547E+08         0.16392E+05         0.00000E+00
    0.16392E+05         0.24492E+08         0.00000E+00
    0.00000E+00         0.00000E+00         0.10512E+08
 
    0.10499E+08         0.16412E+05         0.00000E+00
    0.16412E+05         0.24389E+08         0.00000E+00
    0.00000E+00         0.00000E+00         0.10466E+08
 
    0.10449E+08         0.16422E+05         0.00000E+00
    0.16422E+05         0.24284E+08         0.00000E+00
    0.00000E+00         0.00000E+00         0.10420E+08
 
    0.10399E+08         0.16421E+05         0.00000E+00
    0.16421E+05         0.24179E+08         0.00000E+00
    0.00000E+00         0.00000E+00         0.10373E+08
 
    0.10348E+08         0.16407E+05         0.00000E+00
    0.16407E+05         0.24074E+08         0.00000E+00
    0.00000E+00         0.00000E+00         0.10326E+08
 
    0.10296E+08         0.16381E+05         0.00000E+00
    0.16381E+05         0.23967E+08         0.00000E+00
    0.00000E+00         0.00000E+00         0.10279E+08
 
    0.10243E+08         0.16340E+05         0.00000E+00
    0.16340E+05         0.23860E+08         0.00000E+00
    0.00000E+00         0.00000E+00         0.10231E+08
 
    0.10190E+08         0.16283E+05         0.00000E+00
    0.16283E+05         0.23752E+08         0.00000E+00
    0.00000E+00         0.00000E+00         0.10183E+08
 
    0.10135E+08         0.16209E+05         0.00000E+00
    0.16209E+05         0.23643E+08         0.00000E+00
    0.00000E+00         0.00000E+00         0.10134E+08
 
    0.10080E+08         0.16117E+05         0.00000E+00
    0.16117E+05         0.23534E+08         0.00000E+00
    0.00000E+00         0.00000E+00         0.10084E+08
 
    0.10023E+08         0.16003E+05         0.00000E+00
    0.16003E+05         0.23424E+08         0.00000E+00
    0.00000E+00         0.00000E+00         0.10034E+08
 
    0.99660E+07         0.15867E+05         0.00000E+00
    0.15867E+05         0.23313E+08         0.00000E+00
    0.00000E+00         0.00000E+00         0.99838E+07
 
    0.99074E+07         0.15705E+05         0.00000E+00
    0.15705E+05         0.23202E+08         0.00000E+00
    0.00000E+00         0.00000E+00         0.99328E+07
 
    0.98475E+07         0.15515E+05         0.00000E+00
    0.15515E+05         0.23090E+08         0.00000E+00
    0.00000E+00         0.00000E+00         0.98813E+07
 
    0.97864E+07         0.15292E+05         0.00000E+00
    0.15292E+05         0.22977E+08         0.00000E+00
    0.00000E+00         0.00000E+00         0.98291E+07
 
    0.97239E+07         0.15033E+05         0.00000E+00
    0.15033E+05         0.22864E+08         0.00000E+00
    0.00000E+00         0.00000E+00         0.97764E+07
 
    0.96598E+07         0.14731E+05         0.00000E+00
    0.14731E+05         0.22751E+08         0.00000E+00
    0.00000E+00         0.00000E+00         0.97231E+07
 
    0.95942E+07         0.14381E+05         0.00000E+00
    0.14381E+05         0.22636E+08         0.00000E+00
    0.00000E+00         0.00000E+00         0.96691E+07
 
    0.95267E+07         0.13974E+05         0.00000E+00
    0.13974E+05         0.22522E+08         0.00000E+00
    0.00000E+00         0.00000E+00         0.96145E+07
 
    0.94573E+07         0.13503E+05         0.00000E+00
    0.13503E+05         0.22406E+08         0.00000E+00
    0.00000E+00         0.00000E+00         0.95590E+07
 
    0.93857E+07         0.12957E+05         0.00000E+00
    0.12957E+05         0.22290E+08         0.00000E+00
    0.00000E+00         0.00000E+00         0.95028E+07
 
    0.93117E+07         0.12323E+05         0.00000E+00
    0.12323E+05         0.22174E+08         0.00000E+00
    0.00000E+00         0.00000E+00         0.94457E+07
 
    0.92350E+07         0.11587E+05         0.00000E+00
    0.11587E+05         0.22057E+08         0.00000E+00
    0.00000E+00         0.00000E+00         0.93877E+07
 
    0.91553E+07         0.10735E+05         0.00000E+00
    0.10735E+05         0.21940E+08         0.00000E+00
    0.00000E+00         0.00000E+00         0.93287E+07
 
    0.90722E+07         0.97496E+04         0.00000E+00
    0.97496E+04         0.21823E+08         0.00000E+00
    0.00000E+00         0.00000E+00         0.92685E+07
 
    0.89853E+07         0.86142E+04         0.00000E+00
    0.86142E+04         0.21705E+08         0.00000E+00
    0.00000E+00         0.00000E+00         0.92070E+07
 
    0.88941E+07         0.73126E+04         0.00000E+00
    0.73126E+04         0.21586E+08         0.00000E+00
    0.00000E+00         0.00000E+00         0.91441E+07
 
    0.87981E+07         0.58303E+04         0.00000E+00
    0.58303E+04         0.21468E+08         0.00000E+00
    0.00000E+00         0.00000E+00         0.90798E+07
 
    0.86967E+07         0.41580E+04         0.00000E+00
    0.41580E+04         0.21349E+08         0.00000E+00
    0.00000E+00         0.00000E+00         0.90137E+07
 
    0.85894E+07         0.22914E+04         0.00000E+00
    0.22914E+04         0.21230E+08         0.00000E+00
    0.00000E+00         0.00000E+00         0.89457E+07
 
    0.84758E+07         0.24114E+03         0.00000E+00
    0.24114E+03         0.21110E+08         0.00000E+00
    0.00000E+00         0.00000E+00         0.88758E+07
 
    0.83551E+07        -0.19829E+04         0.00000E+00
   -0.19829E+04         0.20991E+08         0.00000E+00
    0.00000E+00         0.00000E+00         0.88037E+07
 
    0.82272E+07        -0.43239E+04         0.00000E+00
   -0.43239E+04         0.20871E+08         0.00000E+00
    0.00000E+00         0.00000E+00         0.87294E+07
 
    0.80917E+07        -0.67918E+04         0.00000E+00
   -0.67918E+04         0.20751E+08         0.00000E+00
    0.00000E+00         0.00000E+00         0.86527E+07
 
    0.79489E+07        -0.91882E+04         0.00000E+00
   -0.91882E+04         0.20631E+08         0.00000E+00
    0.00000E+00         0.00000E+00         0.85739E+07
 
    0.77986E+07        -0.11790E+05         0.00000E+00
   -0.11790E+05         0.20510E+08         0.00000E+00
    0.00000E+00         0.00000E+00         0.84927E+07
 
    0.76428E+07        -0.13687E+05         0.00000E+00
   -0.13687E+05         0.20390E+08         0.00000E+00
    0.00000E+00         0.00000E+00         0.84098E+07
 
    0.74810E+07        -0.16670E+05         0.00000E+00
   -0.16670E+05         0.20270E+08         0.00000E+00
    0.00000E+00         0.00000E+00         0.83254E+07
 
    0.73284E+07        -0.15845E+05         0.00000E+00
   -0.15845E+05         0.20144E+08         0.00000E+00
    0.00000E+00         0.00000E+00         0.82417E+07
 
    0.13474E+08        -0.77009E+04         0.00000E+00
   -0.77009E+04         0.29510E+08         0.00000E+00
    0.00000E+00         0.00000E+00         0.12895E+08
 
    0.13373E+08        -0.31353E+04         0.00000E+00
   -0.31353E+04         0.29432E+08         0.00000E+00
    0.00000E+00         0.00000E+00         0.12842E+08
 
    0.13277E+08        -0.33420E+04         0.00000E+00
   -0.33420E+04         0.29366E+08         0.00000E+00
    0.00000E+00         0.00000E+00         0.12793E+08
 
    0.13184E+08        -0.24162E+04         0.00000E+00
   -0.24162E+04         0.29295E+08         0.00000E+00
    0.00000E+00         0.00000E+00         0.12744E+08
 
    0.13096E+08        -0.19164E+04         0.00000E+00
   -0.19164E+04         0.29226E+08         0.00000E+00
    0.00000E+00         0.00000E+00         0.12696E+08
 
    0.13013E+08        -0.13087E+04         0.00000E+00
   -0.13087E+04         0.29155E+08         0.00000E+00
    0.00000E+00         0.00000E+00         0.12651E+08
 
    0.12935E+08        -0.76678E+03         0.00000E+00
   -0.76678E+03         0.29086E+08         0.00000E+00
    0.00000E+00         0.00000E+00         0.12606E+08
 
    0.12861E+08        -0.23643E+03         0.00000E+00
   -0.23643E+03         0.29015E+08         0.00000E+00
    0.00000E+00         0.00000E+00         0.12563E+08
 
    0.12793E+08         0.25434E+03         0.00000E+00
    0.25434E+03         0.28945E+08         0.00000E+00
    0.00000E+00         0.00000E+00         0.12521E+08
 
    0.12728E+08         0.70860E+03         0.00000E+00
    0.70860E+03         0.28875E+08         0.00000E+00
    0.00000E+00         0.00000E+00         0.12481E+08
 
    0.12667E+08         0.11209E+04         0.00000E+00
    0.11209E+04         0.28804E+08         0.00000E+00
    0.00000E+00         0.00000E+00         0.12441E+08
 
    0.12610E+08         0.14919E+04         0.00000E+00
    0.14919E+04         0.28733E+08         0.00000E+00
    0.00000E+00         0.00000E+00         0.12403E+08
 
    0.12556E+08         0.18228E+04         0.00000E+00
    0.18228E+04         0.28662E+08         0.00000E+00
    0.00000E+00         0.00000E+00         0.12365E+08
 
    0.12504E+08         0.21163E+04         0.00000E+00
    0.21163E+04         0.28590E+08         0.00000E+00
    0.00000E+00         0.00000E+00         0.12328E+08
 
    0.12455E+08         0.23760E+04         0.00000E+00
    0.23760E+04         0.28519E+08         0.00000E+00
    0.00000E+00         0.00000E+00         0.12292E+08
 
    0.12408E+08         0.26055E+04         0.00000E+00
    0.26055E+04         0.28447E+08         0.00000E+00
    0.00000E+00         0.00000E+00         0.12256E+08
 
    0.12363E+08         0.28086E+04         0.00000E+00
    0.28086E+04         0.28374E+08         0.00000E+00
    0.00000E+00         0.00000E+00         0.12221E+08
 
    0.12319E+08         0.29890E+04         0.00000E+00
    0.29890E+04         0.28301E+08         0.00000E+00
    0.00000E+00         0.00000E+00         0.12186E+08
 
    0.12276E+08         0.31499E+04         0.00000E+00
    0.31499E+04         0.28228E+08         0.00000E+00
    0.00000E+00         0.00000E+00         0.12151E+08
 
    0.12235E+08         0.32942E+04         0.00000E+00
    0.32942E+04         0.28155E+08         0.00000E+00
    0.00000E+00         0.00000E+00         0.12117E+08
 
    0.12195E+08         0.34245E+04         0.00000E+00
    0.34245E+04         0.28081E+08         0.00000E+00
    0.00000E+00         0.00000E+00         0.12083E+08
 
    0.12155E+08         0.35430E+04         0.00000E+00
    0.35430E+04         0.28006E+08         0.00000E+00
    0.00000E+00         0.00000E+00         0.12048E+08
 
    0.12116E+08         0.36515E+04         0.00000E+00
    0.36515E+04         0.27931E+08         0.00000E+00
    0.00000E+00         0.00000E+00         0.12014E+08
 
    0.12078E+08         0.37514E+04         0.00000E+00
    0.37514E+04         0.27856E+08         0.00000E+00
    0.00000E+00         0.00000E+00         0.11980E+08
 
    0.12040E+08         0.38442E+04         0.00000E+00
    0.38442E+04         0.27780E+08         0.00000E+00
    0.00000E+00         0.00000E+00         0.11946E+08
 
    0.12002E+08         0.39307E+04         0.00000E+00
    0.39307E+04         0.27703E+08         0.00000E+00
    0.00000E+00         0.00000E+00         0.11912E+08
 
    0.11965E+08         0.40119E+04         0.00000E+00
    0.40119E+04         0.27626E+08         0.00000E+00
    0.00000E+00         0.00000E+00         0.11877E+08
 
    0.11928E+08         0.40885E+04         0.00000E+00
    0.40885E+04         0.27549E+08         0.00000E+00
    0.00000E+00         0.00000E+00         0.11843E+08
 
    0.11891E+08         0.41611E+04         0.00000E+00
    0.41611E+04         0.27471E+08         0.00000E+00
    0.00000E+00         0.00000E+00         0.11808E+08
 
    0.11854E+08         0.42300E+04         0.00000E+00
    0.42300E+04         0.27392E+08         0.00000E+00
    0.00000E+00         0.00000E+00         0.11774E+08
 
    0.11817E+08         0.42959E+04         0.00000E+00
    0.42959E+04         0.27313E+08         0.00000E+00
    0.00000E+00         0.00000E+00         0.11739E+08
 
    0.11780E+08         0.43589E+04         0.00000E+00
    0.43589E+04         0.27233E+08         0.00000E+00
    0.00000E+00         0.00000E+00         0.11704E+08
 
    0.11744E+08         0.44193E+04         0.00000E+00
    0.44193E+04         0.27152E+08         0.00000E+00
    0.00000E+00         0.00000E+00         0.11669E+08
 
    0.11707E+08         0.44774E+04         0.00000E+00
    0.44774E+04         0.27071E+08         0.00000E+00
    0.00000E+00         0.00000E+00         0.11633E+08
 
    0.11670E+08         0.45334E+04         0.00000E+00
    0.45334E+04         0.26989E+08         0.00000E+00
    0.00000E+00         0.00000E+00         0.11598E+08
 
    0.11633E+08         0.45875E+04         0.00000E+00
    0.45875E+04         0.26906E+08         0.00000E+00
    0.00000E+00         0.00000E+00         0.11562E+08
 
    0.11596E+08         0.46398E+04         0.00000E+00
    0.46398E+04         0.26823E+08         0.00000E+00
    0.00000E+00         0.00000E+00         0.11526E+08
 
    0.11559E+08         0.46904E+04         0.00000E+00
    0.46904E+04         0.26739E+08         0.00000E+00
    0.00000E+00         0.00000E+00         0.11489E+08
 
    0.11521E+08         0.47394E+04         0.00000E+00
    0.47394E+04         0.26654E+08         0.00000E+00
    0.00000E+00         0.00000E+00         0.11453E+08
 
    0.11483E+08         0.47870E+04         0.00000E+00
    0.47870E+04         0.26569E+08         0.00000E+00
    0.00000E+00         0.00000E+00         0.11416E+08
 
    0.11445E+08         0.48331E+04         0.00000E+00
    0.48331E+04         0.26483E+08         0.00000E+00
    0.00000E+00         0.00000E+00         0.11378E+08
 
    0.11407E+08         0.48779E+04         0.00000E+00
    0.48779E+04         0.26396E+08         0.00000E+00
    0.00000E+00         0.00000E+00         0.11341E+08
 
    0.11368E+08         0.49214E+04         0.00000E+00
    0.49214E+04         0.26308E+08         0.00000E+00
    0.00000E+00         0.00000E+00         0.11303E+08
 
    0.11329E+08         0.49636E+04         0.00000E+00
    0.49636E+04         0.26220E+08         0.00000E+00
    0.00000E+00         0.00000E+00         0.11265E+08
 
    0.11290E+08         0.50045E+04         0.00000E+00
    0.50045E+04         0.26130E+08         0.00000E+00
    0.00000E+00         0.00000E+00         0.11226E+08
 
    0.11250E+08         0.50441E+04         0.00000E+00
    0.50441E+04         0.26040E+08         0.00000E+00
    0.00000E+00         0.00000E+00         0.11187E+08
 
    0.11210E+08         0.50825E+04         0.00000E+00
    0.50825E+04         0.25950E+08         0.00000E+00
    0.00000E+00         0.00000E+00         0.11148E+08
 
    0.11169E+08         0.51196E+04         0.00000E+00
    0.51196E+04         0.25858E+08         0.00000E+00
    0.00000E+00         0.00000E+00         0.11108E+08
 
    0.11128E+08         0.51553E+04         0.00000E+00
    0.51553E+04         0.25766E+08         0.00000E+00
    0.00000E+00         0.00000E+00         0.11068E+08
 
    0.11087E+08         0.51897E+04         0.00000E+00
    0.51897E+04         0.25673E+08         0.00000E+00
    0.00000E+00         0.00000E+00         0.11028E+08
 
    0.11045E+08         0.52226E+04         0.00000E+00
    0.52226E+04         0.25579E+08         0.00000E+00
    0.00000E+00         0.00000E+00         0.10987E+08
 
    0.11002E+08         0.52541E+04         0.00000E+00
    0.52541E+04         0.25484E+08         0.00000E+00
    0.00000E+00         0.00000E+00         0.10946E+08
 
    0.10960E+08         0.52839E+04         0.00000E+00
    0.52839E+04         0.25388E+08         0.00000E+00
    0.00000E+00         0.00000E+00         0.10904E+08
 
    0.10916E+08         0.53121E+04         0.00000E+00
    0.53121E+04         0.25292E+08         0.00000E+00
    0.00000E+00         0.00000E+00         0.10862E+08
 
    0.10872E+08         0.53385E+04         0.00000E+00
    0.53385E+04         0.25195E+08         0.00000E+00
    0.00000E+00         0.00000E+00         0.10820E+08
 
    0.10828E+08         0.53630E+04         0.00000E+00
    0.53630E+04         0.25097E+08         0.00000E+00
    0.00000E+00         0.00000E+00         0.10777E+08
 
    0.10783E+08         0.53854E+04         0.00000E+00
    0.53854E+04         0.24998E+08         0.00000E+00
    0.00000E+00         0.00000E+00         0.10734E+08
 
    0.10737E+08         0.54056E+04         0.00000E+00
    0.54056E+04         0.24898E+08         0.00000E+00
    0.00000E+00         0.00000E+00         0.10691E+08
 
    0.10691E+08         0.54235E+04         0.00000E+00
    0.54235E+04         0.24798E+08         0.00000E+00
    0.00000E+00         0.00000E+00         0.10647E+08
 
    0.10644E+08         0.54388E+04         0.00000E+00
    0.54388E+04         0.24697E+08         0.00000E+00
    0.00000E+00         0.00000E+00         0.10602E+08
 
    0.10597E+08         0.54514E+04         0.00000E+00
    0.54514E+04         0.24595E+08         0.00000E+00
    0.00000E+00         0.00000E+00         0.10557E+08
 
    0.10548E+08         0.54611E+04         0.00000E+00
    0.54611E+04         0.24492E+08         0.00000E+00
    0.00000E+00         0.00000E+00         0.10512E+08
 
    0.10500E+08         0.54675E+04         0.00000E+00
    0.54675E+04         0.24389E+08         0.00000E+00
    0.00000E+00         0.00000E+00         0.10467E+08
 
    0.10450E+08         0.54705E+04         0.00000E+00
    0.54705E+04         0.24284E+08         0.00000E+00
    0.00000E+00         0.00000E+00         0.10420E+08
 
    0.10400E+08         0.54698E+04         0.00000E+00
    0.54698E+04         0.24179E+08         0.00000E+00
    0.00000E+00         0.00000E+00         0.10374E+08
 
    0.10349E+08         0.54650E+04         0.00000E+00
    0.54650E+04         0.24074E+08         0.00000E+00
    0.00000E+00         0.00000E+00         0.10327E+08
 
    0.10297E+08         0.54558E+04         0.00000E+00
    0.54558E+04         0.23967E+08         0.00000E+00
    0.00000E+00         0.00000E+00         0.10279E+08
 
    0.10244E+08         0.54418E+04         0.00000E+00
    0.54418E+04         0.23860E+08         0.00000E+00
    0.00000E+00         0.00000E+00         0.10231E+08
 
    0.10191E+08         0.54227E+04         0.00000E+00
    0.54227E+04         0.23752E+08         0.00000E+00
    0.00000E+00         0.00000E+00         0.10183E+08
 
    0.10136E+08         0.53979E+04         0.00000E+00
    0.53979E+04         0.23643E+08         0.00000E+00
    0.00000E+00         0.00000E+00         0.10134E+08
 
    0.10081E+08         0.53668E+04         0.00000E+00
    0.53668E+04         0.23534E+08         0.00000E+00
    0.00000E+00         0.00000E+00         0.10084E+08
 
    0.10024E+08         0.53289E+04         0.00000E+00
    0.53289E+04         0.23424E+08         0.00000E+00
    0.00000E+00         0.00000E+00         0.10034E+08
 
    0.99667E+07         0.52833E+04         0.00000E+00
    0.52833E+04         0.23313E+08         0.00000E+00
    0.00000E+00         0.00000E+00         0.99840E+07
 
    0.99081E+07         0.52292E+04         0.00000E+00
    0.52292E+04         0.23202E+08         0.00000E+00
    0.00000E+00         0.00000E+00         0.99330E+07
 
    0.98482E+07         0.51656E+04         0.00000E+00
    0.51656E+04         0.23090E+08         0.00000E+00
    0.00000E+00         0.00000E+00         0.98815E+07
 
    0.97870E+07         0.50912E+04         0.00000E+00
    0.50912E+04         0.22977E+08         0.00000E+00
    0.00000E+00         0.00000E+00         0.98293E+07
 
    0.97244E+07         0.50044E+04         0.00000E+00
    0.50044E+04         0.22864E+08         0.00000E+00
    0.00000E+00         0.00000E+00         0.97766E+07
 
    0.96603E+07         0.49035E+04         0.00000E+00
    0.49035E+04         0.22751E+08         0.00000E+00
    0.00000E+00         0.00000E+00         0.97233E+07
 
    0.95946E+07         0.47863E+04         0.00000E+00
    0.47863E+04         0.22636E+08         0.00000E+00
    0.00000E+00         0.00000E+00         0.96693E+07
 
    0.95271E+07         0.46501E+04         0.00000E+00
    0.46501E+04         0.22522E+08         0.00000E+00
    0.00000E+00         0.00000E+00         0.96146E+07
 
    0.94576E+07         0.44919E+04         0.00000E+00
    0.44919E+04         0.22406E+08         0.00000E+00
    0.00000E+00         0.00000E+00         0.95591E+07
 
    0.93859E+07         0.43078E+04         0.00000E+00
    0.43078E+04         0.22290E+08         0.00000E+00
    0.00000E+00         0.00000E+00         0.95029E+07
 
    0.93118E+07         0.40935E+04         0.00000E+00
    0.40935E+04         0.22174E+08         0.00000E+00
    0.00000E+00         0.00000E+00         0.94458E+07
 
    0.92349E+07         0.38441E+04         0.00000E+00
    0.38441E+04         0.22057E+08         0.00000E+00
    0.00000E+00         0.00000E+00         0.93877E+07
 
    0.91551E+07         0.35540E+04         0.00000E+00
    0.35540E+04         0.21940E+08         0.00000E+00
    0.00000E+00         0.00000E+00         0.93286E+07
 
    0.90717E+07         0.32170E+04         0.00000E+00
    0.32170E+04         0.21823E+08         0.00000E+00
    0.00000E+00         0.00000E+00         0.92684E+07
 
    0.89845E+07         0.28268E+04         0.00000E+00
    0.28268E+04         0.21705E+08         0.00000E+00
    0.00000E+00         0.00000E+00         0.92068E+07
 
    0.88928E+07         0.23770E+04         0.00000E+00
    0.23770E+04         0.21587E+08         0.00000E+00
    0.00000E+00         0.00000E+00         0.91438E+07
 
    0.87963E+07         0.18619E+04         0.00000E+00
    0.18619E+04         0.21468E+08         0.00000E+00
    0.00000E+00         0.00000E+00         0.90793E+07
 
    0.86942E+07         0.12769E+04         0.00000E+00
    0.12769E+04         0.21349E+08         0.00000E+00
    0.00000E+00         0.00000E+00         0.90130E+07
 
    0.85860E+07         0.62035E+03         0.00000E+00
    0.62035E+03         0.21230E+08         0.00000E+00
    0.00000E+00         0.00000E+00         0.89448E+07
 
    0.84710E+07        -0.10868E+03         0.00000E+00
   -0.10868E+03         0.21111E+08         0.00000E+00
    0.00000E+00         0.00000E+00         0.88745E+07
 
    0.83488E+07        -0.90033E+03         0.00000E+00
   -0.90033E+03         0.20991E+08         0.00000E+00
    0.00000E+00         0.00000E+00         0.88019E+07
 
    0.82188E+07        -0.17595E+04         0.00000E+00
   -0.17595E+04         0.20871E+08         0.00000E+00
    0.00000E+00         0.00000E+00         0.87269E+07
 
    0.80808E+07        -0.26373E+04         0.00000E+00
   -0.26373E+04         0.20751E+08         0.00000E+00
    0.00000E+00         0.00000E+00         0.86496E+07
 
    0.79345E+07        -0.36270E+04         0.00000E+00
   -0.36270E+04         0.20631E+08         0.00000E+00
    0.00000E+00         0.00000E+00         0.85695E+07
 
    0.77803E+07        -0.44278E+04         0.00000E+00
   -0.44278E+04         0.20511E+08         0.00000E+00
    0.00000E+00         0.00000E+00         0.84875E+07
 
    0.76178E+07        -0.59618E+04         0.00000E+00
   -0.59618E+04         0.20389E+08         0.00000E+00
    0.00000E+00         0.00000E+00         0.84020E+07
 
    0.74499E+07        -0.55346E+04         0.00000E+00
   -0.55346E+04         0.20274E+08         0.00000E+00
    0.00000E+00         0.00000E+00         0.83171E+07
 
    0.72744E+07        -0.13352E+05         0.00000E+00
   -0.13352E+05         0.20139E+08         0.00000E+00
    0.00000E+00         0.00000E+00         0.82241E+07
 
TENSORS stresstot double 
   -0.18784E+08         0.30122E+05         0.00000E+00
    0.30122E+05        -0.19175E+07         0.00000E+00
    0.00000E+00         0.00000E+00        -0.18796E+08
 
   -0.18739E+08         0.78227E+05         0.00000E+00
    0.78227E+05        -0.18885E+07         0.00000E+00
    0.00000E+00         0.00000E+00        -0.18746E+08
 
   -0.18693E+08         0.11009E+06         0.00000E+00
    0.11009E+06        -0.18702E+07         0.00000E+00
    0.00000E+00         0.00000E+00        -0.18699E+08
 
   -0.18649E+08         0.13537E+06         0.00000E+00
    0.13537E+06        -0.18569E+07         0.00000E+00
    0.00000E+00         0.00000E+00        -0.18654E+08
 
   -0.18607E+08         0.15662E+06         0.00000E+00
    0.15662E+06        -0.18490E+07         0.00000E+00
    0.00000E+00         0.00000E+00        -0.18611E+08
 
   -0.18566E+08         0.17539E+06         0.00000E+00
    0.17539E+06        -0.18452E+07         0.00000E+00
    0.00000E+00         0.00000E+00        -0.18570E+08
 
   -0.18526E+08         0.19255E+06         0.00000E+00
    0.19255E+06        -0.18448E+07         0.00000E+00
    0.00000E+00         0.00000E+00        -0.18530E+08
 
   -0.18487E+08         0.20862E+06         0.00000E+00
    0.20862E+06        -0.18467E+07         0.00000E+00
    0.00000E+00         0.00000E+00        -0.18490E+08
 
   -0.18449E+08         0.22389E+06         0.00000E+00
    0.22389E+06        -0.18504E+07         0.00000E+00
    0.00000E+00         0.00000E+00        -0.18452E+08
 
   -0.18411E+08         0.23852E+06         0.00000E+00
    0.23852E+06        -0.18553E+07         0.00000E+00
    0.00000E+00         0.00000E+00        -0.18414E+08
 
   -0.18373E+08         0.25257E+06         0.00000E+00
    0.25257E+06        -0.18609E+07         0.00000E+00
    0.00000E+00         0.00000E+00        -0.18376E+08
 
   -0.18335E+08         0.26607E+06         0.00000E+00
    0.26607E+06        -0.18668E+07         0.00000E+00
    0.00000E+00         0.00000E+00        -0.18338E+08
 
   -0.18297E+08         0.27902E+06         0.00000E+00
    0.27902E+06        -0.18728E+07         0.00000E+00
    0.00000E+00         0.00000E+00        -0.18300E+08
 
   -0.18259E+08         0.29141E+06         0.00000E+00
    0.29141E+06        -0.18787E+07         0.00000E+00
    0.00000E+00         0.00000E+00        -0.18262E+08
 
   -0.18221E+08         0.30325E+06         0.00000E+00
    0.30325E+06        -0.18843E+07         0.00000E+00
    0.00000E+00         0.00000E+00        -0.18223E+08
 
   -0.18182E+08         0.31453E+06         0.00000E+00
    0.31453E+06        -0.18896E+07         0.00000E+00
    0.00000E+00         0.00000E+00        -0.18184E+08
 
   -0.18143E+08         0.32526E+06         0.00000E+00
    0.32526E+06        -0.18946E+07         0.00000E+00
    0.00000E+00         0.00000E+00        -0.18145E+08
 
   -0.18103E+08         0.33545E+06         0.00000E+00
    0.33545E+06        -0.18992E+07         0.00000E+00
    0.00000E+00         0.00000E+00        -0.18105E+08
 
   -0.18063E+08         0.34513E+06         0.00000E+00
    0.34513E+06        -0.19033E+07         0.00000E+00
    0.00000E+00         0.00000E+00        -0.18065E+08
 
   -0.18023E+08         0.35431E+06         0.00000E+00
    0.35431E+06        -0.19071E+07         0.00000E+00
    0.00000E+00         0.00000E+00        -0.18025E+08
 
   -0.17982E+08         0.36303E+06         0.00000E+00
    0.36303E+06        -0.19105E+07         0.00000E+00
    0.00000E+00         0.00000E+00        -0.17984E+08
 
   -0.17941E+08         0.37131E+06         0.00000E+00
    0.37131E+06        -0.19136E+07         0.00000E+00
    0.00000E+00         0.00000E+00        -0.17943E+08
 
   -0.17900E+08         0.37919E+06         0.00000E+00
    0.37919E+06        -0.19164E+07         0.00000E+00
    0.00000E+00         0.00000E+00        -0.17901E+08
 
   -0.17858E+08         0.38670E+06         0.00000E+00
    0.38670E+06        -0.19188E+07         0.00000E+00
    0.00000E+00         0.00000E+00        -0.17859E+08
 
   -0.17815E+08         0.39386E+06         0.00000E+00
    0.39386E+06        -0.19211E+07         0.00000E+00
    0.00000E+00         0.00000E+00        -0.17817E+08
 
   -0.17773E+08         0.40072E+06         0.00000E+00
    0.40072E+06        -0.19230E+07         0.00000E+00
    0.00000E+00         0.00000E+00        -0.17774E+08
 
   -0.17730E+08         0.40729E+06         0.00000E+00
    0.40729E+06        -0.19248E+07         0.00000E+00
    0.00000E+00         0.00000E+00        -0.17731E+08
 
   -0.17686E+08         0.41360E+06         0.00000E+00
    0.41360E+06        -0.19264E+07         0.00000E+00
    0.00000E+00         0.00000E+00        -0.17687E+08
 
   -0.17642E+08         0.41968E+06         0.00000E+00
    0.41968E+06        -0.19279E+07         0.00000E+00
    0.00000E+00         0.00000E+00        -0.17643E+08
 
   -0.17598E+08         0.42556E+06         0.00000E+00
    0.42556E+06        -0.19291E+07         0.00000E+00
    0.00000E+00         0.00000E+00        -0.17599E+08
 
   -0.17553E+08         0.43124E+06         0.00000E+00
    0.43124E+06        -0.19303E+07         0.00000E+00
    0.00000E+00         0.00000E+00        -0.17554E+08
 
   -0.17508E+08         0.43676E+06         0.00000E+00
    0.43676E+06        -0.19313E+07         0.00000E+00
    0.00000E+00         0.00000E+00        -0.17509E+08
 
   -0.17462E+08         0.44212E+06         0.00000E+00
    0.44212E+06        -0.19323E+07         0.00000E+00
    0.00000E+00         0.00000E+00        -0.17463E+08
 
   -0.17416E+08         0.44735E+06         0.00000E+00
    0.44735E+06        -0.19331E+07         0.00000E+00
    0.00000E+00         0.00000E+00        -0.17417E+08
 
   -0.17370E+08         0.45245E+06         0.00000E+00
    0.45245E+06        -0.19339E+07         0.00000E+00
    0.00000E+00         0.00000E+00        -0.17371E+08
 
   -0.17323E+08         0.45743E+06         0.00000E+00
    0.45743E+06        -0.19346E+07         0.00000E+00
    0.00000E+00         0.00000E+00        -0.17324E+08
 
   -0.17275E+08         0.46232E+06         0.00000E+00
    0.46232E+06        -0.19353E+07         0.00000E+00
    0.00000E+00         0.00000E+00        -0.17276E+08
 
   -0.17228E+08         0.46711E+06         0.00000E+00
    0.46711E+06        -0.19359E+07         0.00000E+00
    0.00000E+00         0.00000E+00        -0.17229E+08
 
   -0.17180E+08         0.47180E+06         0.00000E+00
    0.47180E+06        -0.19365E+07         0.00000E+00
    0.00000E+00         0.00000E+00        -0.17181E+08
 
   -0.17131E+08         0.47642E+06         0.00000E+00
    0.47642E+06        -0.19370E+07         0.00000E+00
    0.00000E+00         0.00000E+00        -0.17132E+08
 
   -0.17082E+08         0.48096E+06         0.00000E+00
    0.48096E+06        -0.19375E+07         0.00000E+00
    0.00000E+00         0.00000E+00        -0.17083E+08
 
   -0.17033E+08         0.48542E+06         0.00000E+00
    0.48542E+06        -0.19380E+07         0.00000E+00
    0.00000E+00         0.00000E+00        -0.17033E+08
 
   -0.16983E+08         0.48981E+06         0.00000E+00
    0.48981E+06        -0.19385E+07         0.00000E+00
    0.00000E+00         0.00000E+00        -0.16984E+08
 
   -0.16932E+08         0.49412E+06         0.00000E+00
    0.49412E+06        -0.19390E+07         0.00000E+00
    0.00000E+00         0.00000E+00        -0.16933E+08
 
   -0.16882E+08         0.49837E+06         0.00000E+00
    0.49837E+06        -0.19394E+07         0.00000E+00
    0.00000E+00         0.00000E+00        -0.16882E+08
 
   -0.16830E+08         0.50254E+06         0.00000E+00
    0.50254E+06        -0.19399E+07         0.00000E+00
    0.00000E+00         0.00000E+00        -0.16831E+08
 
   -0.16779E+08         0.50663E+06         0.00000E+00
    0.50663E+06        -0.19404E+07         0.00000E+00
    0.00000E+00         0.00000E+00        -0.16780E+08
 
   -0.16727E+08         0.51065E+06         0.00000E+00
    0.51065E+06        -0.19409E+07         0.00000E+00
    0.00000E+00         0.00000E+00        -0.16728E+08
 
   -0.16674E+08         0.51459E+06         0.00000E+00
    0.51459E+06        -0.19414E+07         0.00000E+00
    0.00000E+00         0.00000E+00        -0.16675E+08
 
   -0.16621E+08         0.51844E+06         0.00000E+00
    0.51844E+06        -0.19420E+07         0.00000E+00
    0.00000E+00         0.00000E+00        -0.16622E+08
 
   -0.16568E+08         0.52219E+06         0.00000E+00
    0.52219E+06        -0.19426E+07         0.00000E+00
    0.00000E+00         0.00000E+00        -0.16569E+08
 
   -0.16514E+08         0.52586E+06         0.00000E+00
    0.52586E+06        -0.19432E+07         0.00000E+00
    0.00000E+00         0.00000E+00        -0.16515E+08
 
   -0.16460E+08         0.52941E+06         0.00000E+00
    0.52941E+06        -0.19438E+07         0.00000E+00
    0.00000E+00         0.00000E+00        -0.16460E+08
 
   -0.16405E+08         0.53286E+06         0.00000E+00
    0.53286E+06        -0.19445E+07         0.00000E+00
    0.00000E+00         0.00000E+00        -0.16406E+08
 
   -0.16350E+08         0.53618E+06         0.00000E+00
    0.53618E+06        -0.19453E+07         0.00000E+00
    0.00000E+00         0.00000E+00        -0.16350E+08
 
   -0.16294E+08         0.53937E+06         0.00000E+00
    0.53937E+06        -0.19461E+07         0.00000E+00
    0.00000E+00         0.00000E+00        -0.16295E+08
 
   -0.16238E+08         0.54242E+06         0.00000E+00
    0.54242E+06        -0.19470E+07         0.00000E+00
    0.00000E+00         0.00000E+00        -0.16239E+08
 
   -0.16182E+08         0.54531E+06         0.00000E+00
    0.54531E+06        -0.19479E+07         0.00000E+00
    0.00000E+00         0.00000E+00        -0.16182E+08
 
   -0.16125E+08         0.54803E+06         0.00000E+00
    0.54803E+06        -0.19489E+07         0.00000E+00
    0.00000E+00         0.00000E+00        -0.16125E+08
 
   -0.16067E+08         0.55057E+06         0.00000E+00
    0.55057E+06        -0.19500E+07         0.00000E+00
    0.00000E+00         0.00000E+00        -0.16068E+08
 
   -0.16010E+08         0.55292E+06         0.00000E+00
    0.55292E+06        -0.19512E+07         0.00000E+00
    0.00000E+00         0.00000E+00        -0.16010E+08
 
   -0.15952E+08         0.55505E+06         0.00000E+00
    0.55505E+06        -0.19525E+07         0.00000E+00
    0.00000E+00         0.00000E+00        -0.15952E+08
 
   -0.15893E+08         0.55694E+06         0.00000E+00
    0.55694E+06        -0.19539E+07         0.00000E+00
    0.00000E+00         0.00000E+00        -0.15894E+08
 
   -0.15834E+08         0.55858E+06         0.00000E+00
    0.55858E+06        -0.19555E+07         0.00000E+00
    0.00000E+00         0.00000E+00        -0.15835E+08
 
   -0.15775E+08         0.55994E+06         0.00000E+00
    0.55994E+06        -0.19571E+07         0.00000E+00
    0.00000E+00         0.00000E+00        -0.15775E+08
 
   -0.15716E+08         0.56099E+06         0.00000E+00
    0.56099E+06        -0.19589E+07         0.00000E+00
    0.00000E+00         0.00000E+00        -0.15716E+08
 
   -0.15656E+08         0.56172E+06         0.00000E+00
    0.56172E+06        -0.19609E+07         0.00000E+00
    0.00000E+00         0.00000E+00        -0.15656E+08
 
   -0.15595E+08         0.56209E+06         0.00000E+00
    0.56209E+06        -0.19630E+07         0.00000E+00
    0.00000E+00         0.00000E+00        -0.15595E+08
 
   -0.15535E+08         0.56207E+06         0.00000E+00
    0.56207E+06        -0.19654E+07         0.00000E+00
    0.00000E+00         0.00000E+00        -0.15535E+08
 
   -0.15474E+08         0.56163E+06         0.00000E+00
    0.56163E+06        -0.19679E+07         0.00000E+00
    0.00000E+00         0.00000E+00        -0.15474E+08
 
   -0.15413E+08         0.56073E+06         0.00000E+00
    0.56073E+06        -0.19707E+07         0.00000E+00
    0.00000E+00         0.00000E+00        -0.15413E+08
 
   -0.15351E+08         0.55933E+06         0.00000E+00
    0.55933E+06        -0.19737E+07         0.00000E+00
    0.00000E+00         0.00000E+00        -0.15351E+08
 
   -0.15290E+08         0.55739E+06         0.00000E+00
    0.55739E+06        -0.19770E+07         0.00000E+00
    0.00000E+00         0.00000E+00        -0.15289E+08
 
   -0.15228E+08         0.55486E+06         0.00000E+00
    0.55486E+06        -0.19807E+07         0.00000E+00
    0.00000E+00         0.00000E+00        -0.15227E+08
 
   -0.15166E+08         0.55169E+06         0.00000E+00
    0.55169E+06        -0.19846E+07         0.00000E+00
    0.00000E+00         0.00000E+00        -0.15165E+08
 
   -0.15104E+08         0.54783E+06         0.00000E+00
    0.54783E+06        -0.19890E+07         0.00000E+00
    0.00000E+00         0.00000E+00        -0.15103E+08
 
   -0.15041E+08         0.54324E+06         0.00000E+00
    0.54324E+06        -0.19938E+07         0.00000E+00
    0.00000E+00         0.00000E+00        -0.15040E+08
 
   -0.14979E+08         0.53784E+06         0.00000E+00
    0.53784E+06        -0.19990E+07         0.00000E+00
    0.00000E+00         0.00000E+00        -0.14978E+08
 
   -0.14916E+08         0.53159E+06         0.00000E+00
    0.53159E+06        -0.20047E+07         0.00000E+00
    0.00000E+00         0.00000E+00        -0.14915E+08
 
   -0.14853E+08         0.52443E+06         0.00000E+00
    0.52443E+06        -0.20110E+07         0.00000E+00
    0.00000E+00         0.00000E+00        -0.14852E+08
 
   -0.14791E+08         0.51630E+06         0.00000E+00
    0.51630E+06        -0.20179E+07         0.00000E+00
    0.00000E+00         0.00000E+00        -0.14789E+08
 
   -0.14728E+08         0.50715E+06         0.00000E+00
    0.50715E+06        -0.20254E+07         0.00000E+00
    0.00000E+00         0.00000E+00        -0.14726E+08
 
   -0.14665E+08         0.49693E+06         0.00000E+00
    0.49693E+06        -0.20335E+07         0.00000E+00
    0.00000E+00         0.00000E+00        -0.14663E+08
 
   -0.14603E+08         0.48560E+06         0.00000E+00
    0.48560E+06        -0.20423E+07         0.00000E+00
    0.00000E+00         0.00000E+00        -0.14601E+08
 
   -0.14540E+08         0.47312E+06         0.00000E+00
    0.47312E+06        -0.20518E+07         0.00000E+00
    0.00000E+00         0.00000E+00        -0.14538E+08
 
   -0.14478E+08         0.45949E+06         0.00000E+00
    0.45949E+06        -0.20619E+07         0.00000E+00
    0.00000E+00         0.00000E+00        -0.14475E+08
 
   -0.14415E+08         0.44468E+06         0.00000E+00
    0.44468E+06        -0.20725E+07         0.00000E+00
    0.00000E+00         0.00000E+00        -0.14412E+08
 
   -0.14353E+08         0.42870E+06         0.00000E+00
    0.42870E+06        -0.20835E+07         0.00000E+00
    0.00000E+00         0.00000E+00        -0.14350E+08
 
   -0.14290E+08         0.41155E+06         0.00000E+00
    0.41155E+06        -0.20946E+07         0.00000E+00
    0.00000E+00         0.00000E+00        -0.14287E+08
 
   -0.14227E+08         0.39327E+06         0.00000E+00
    0.39327E+06        -0.21055E+07         0.00000E+00
    0.00000E+00         0.00000E+00        -0.14223E+08
 
   -0.14164E+08         0.37384E+06         0.00000E+00
    0.37384E+06        -0.21158E+07         0.00000E+00
    0.00000E+00         0.00000E+00        -0.14160E+08
 
   -0.14100E+08         0.35323E+06         0.00000E+00
    0.35323E+06        -0.21248E+07         0.00000E+00
    0.00000E+00         0.00000E+00        -0.14096E+08
 
   -0.14035E+08         0.33133E+06         0.00000E+00
    0.33133E+06        -0.21317E+07         0.00000E+00
    0.00000E+00         0.00000E+00        -0.14030E+08
 
   -0.13969E+08         0.30789E+06         0.00000E+00
    0.30789E+06        -0.21355E+07         0.00000E+00
    0.00000E+00         0.00000E+00        -0.13964E+08
 
   -0.13900E+08         0.28240E+06         0.00000E+00
    0.28240E+06        -0.21350E+07         0.00000E+00
    0.00000E+00         0.00000E+00        -0.13895E+08
 
   -0.13830E+08         0.25400E+06         0.00000E+00
    0.25400E+06        -0.21287E+07         0.00000E+00
    0.00000E+00         0.00000E+00        -0.13824E+08
 
   -0.13757E+08         0.22116E+06         0.00000E+00
    0.22116E+06        -0.21153E+07         0.00000E+00
    0.00000E+00         0.00000E+00        -0.13750E+08
 
   -0.13681E+08         0.18126E+06         0.00000E+00
    0.18126E+06        -0.20924E+07         0.00000E+00
    0.00000E+00         0.00000E+00        -0.13672E+08
 
   -0.13603E+08         0.12986E+06         0.00000E+00
    0.12986E+06        -0.20608E+07         0.00000E+00
    0.00000E+00         0.00000E+00        -0.13591E+08
 
   -0.13525E+08         0.50294E+05         0.00000E+00
    0.50294E+05        -0.20106E+07         0.00000E+00
    0.00000E+00         0.00000E+00        -0.13505E+08
 
   -0.18755E+08         0.25178E+05         0.00000E+00
    0.25178E+05        -0.19280E+07         0.00000E+00
    0.00000E+00         0.00000E+00        -0.18791E+08
 
   -0.18721E+08         0.69076E+05         0.00000E+00
    0.69076E+05        -0.18964E+07         0.00000E+00
    0.00000E+00         0.00000E+00        -0.18743E+08
 
   -0.18680E+08         0.10155E+06         0.00000E+00
    0.10155E+06        -0.18755E+07         0.00000E+00
    0.00000E+00         0.00000E+00        -0.18697E+08
 
   -0.18638E+08         0.12688E+06         0.00000E+00
    0.12688E+06        -0.18616E+07         0.00000E+00
    0.00000E+00         0.00000E+00        -0.18652E+08
 
   -0.18597E+08         0.14842E+06         0.00000E+00
    0.14842E+06        -0.18530E+07         0.00000E+00
    0.00000E+00         0.00000E+00        -0.18609E+08
 
   -0.18557E+08         0.16738E+06         0.00000E+00
    0.16738E+06        -0.18488E+07         0.00000E+00
    0.00000E+00         0.00000E+00        -0.18568E+08
 
   -0.18518E+08         0.18473E+06         0.00000E+00
    0.18473E+06        -0.18481E+07         0.00000E+00
    0.00000E+00         0.00000E+00        -0.18528E+08
 
   -0.18480E+08         0.20093E+06         0.00000E+00
    0.20093E+06        -0.18498E+07         0.00000E+00
    0.00000E+00         0.00000E+00        -0.18489E+08
 
   -0.18442E+08         0.21629E+06         0.00000E+00
    0.21629E+06        -0.18534E+07         0.00000E+00
    0.00000E+00         0.00000E+00        -0.18451E+08
 
   -0.18404E+08         0.23096E+06         0.00000E+00
    0.23096E+06        -0.18582E+07         0.00000E+00
    0.00000E+00         0.00000E+00        -0.18412E+08
 
   -0.18366E+08         0.24503E+06         0.00000E+00
    0.24503E+06        -0.18636E+07         0.00000E+00
    0.00000E+00         0.00000E+00        -0.18375E+08
 
   -0.18329E+08         0.25852E+06         0.00000E+00
    0.25852E+06        -0.18694E+07         0.00000E+00
    0.00000E+00         0.00000E+00        -0.18337E+08
 
   -0.18291E+08         0.27144E+06         0.00000E+00
    0.27144E+06        -0.18753E+07         0.00000E+00
    0.00000E+00         0.00000E+00        -0.18299E+08
 
   -0.18253E+08         0.28378E+06         0.00000E+00
    0.28378E+06        -0.18811E+07         0.00000E+00
    0.00000E+00         0.00000E+00        -0.18260E+08
 
   -0.18215E+08         0.29556E+06         0.00000E+00
    0.29556E+06        -0.18866E+07         0.00000E+00
    0.00000E+00         0.00000E+00        -0.18222E+08
 
   -0.18177E+08         0.30677E+06         0.00000E+00
    0.30677E+06        -0.18918E+07         0.00000E+00
    0.00000E+00         0.00000E+00        -0.18183E+08
 
   -0.18138E+08         0.31743E+06         0.00000E+00
    0.31743E+06        -0.18967E+07         0.00000E+00
    0.00000E+00         0.00000E+00        -0.18144E+08
 
   -0.18098E+08         0.32754E+06         0.00000E+00
    0.32754E+06        -0.19011E+07         0.00000E+00
    0.00000E+00         0.00000E+00        -0.18104E+08
 
   -0.18059E+08         0.33713E+06         0.00000E+00
    0.33713E+06        -0.19052E+07         0.00000E+00
    0.00000E+00         0.00000E+00        -0.18064E+08
 
   -0.18019E+08         0.34624E+06         0.00000E+00
    0.34624E+06        -0.19089E+07         0.00000E+00
    0.00000E+00         0.00000E+00        -0.18024E+08
 
   -0.17978E+08         0.35487E+06         0.00000E+00
    0.35487E+06        -0.19122E+07         0.00000E+00
    0.00000E+00         0.00000E+00        -0.17983E+08
 
   -0.17937E+08         0.36307E+06         0.00000E+00
    0.36307E+06        -0.19152E+07         0.00000E+00
    0.00000E+00         0.00000E+00        -0.17942E+08
 
   -0.17896E+08         0.37087E+06         0.00000E+00
    0.37087E+06        -0.19179E+07         0.00000E+00
    0.00000E+00         0.00000E+00        -0.17901E+08
 
   -0.17854E+08         0.37829E+06         0.00000E+00
    0.37829E+06        -0.19203E+07         0.00000E+00
    0.00000E+00         0.00000E+00        -0.17859E+08
 
   -0.17812E+08         0.38537E+06         0.00000E+00
    0.38537E+06        -0.19225E+07         0.00000E+00
    0.00000E+00         0.00000E+00        -0.17816E+08
 
   -0.17769E+08         0.39214E+06         0.00000E+00
    0.39214E+06        -0.19244E+07         0.00000E+00
    0.00000E+00         0.00000E+00        -0.17774E+08
 
   -0.17726E+08         0.39863E+06         0.00000E+00
    0.39863E+06        -0.19261E+07         0.00000E+00
    0.00000E+00         0.00000E+00        -0.17730E+08
 
   -0.17683E+08         0.40486E+06         0.00000E+00
    0.40486E+06        -0.19277E+07         0.00000E+00
    0.00000E+00         0.00000E+00        -0.17687E+08
 
   -0.17639E+08         0.41086E+06         0.00000E+00
    0.41086E+06        -0.19290E+07         0.00000E+00
    0.00000E+00         0.00000E+00        -0.17643E+08
 
   -0.17595E+08         0.41665E+06         0.00000E+00
    0.41665E+06        -0.19303E+07         0.00000E+00
    0.00000E+00         0.00000E+00        -0.17598E+08
 
   -0.17550E+08         0.42225E+06         0.00000E+00
    0.42225E+06        -0.19314E+07         0.00000E+00
    0.00000E+00         0.00000E+00        -0.17554E+08
 
   -0.17505E+08         0.42768E+06         0.00000E+00
    0.42768E+06        -0.19324E+07         0.00000E+00
    0.00000E+00         0.00000E+00        -0.17508E+08
 
   -0.17460E+08         0.43296E+06         0.00000E+00
    0.43296E+06        -0.19333E+07         0.00000E+00
    0.00000E+00         0.00000E+00        -0.17463E+08
 
   -0.17414E+08         0.43811E+06         0.00000E+00
    0.43811E+06        -0.19342E+07         0.00000E+00
    0.00000E+00         0.00000E+00        -0.17417E+08
 
   -0.17367E+08         0.44312E+06         0.00000E+00
    0.44312E+06        -0.19349E+07         0.00000E+00
    0.00000E+00         0.00000E+00        -0.17370E+08
 
   -0.17320E+08         0.44802E+06         0.00000E+00
    0.44802E+06        -0.19356E+07         0.00000E+00
    0.00000E+00         0.00000E+00        -0.17323E+08
 
   -0.17273E+08         0.45282E+06         0.00000E+00
    0.45282E+06        -0.19362E+07         0.00000E+00
    0.00000E+00         0.00000E+00        -0.17276E+08
 
   -0.17225E+08         0.45752E+06         0.00000E+00
    0.45752E+06        -0.19368E+07         0.00000E+00
    0.00000E+00         0.00000E+00        -0.17228E+08
 
   -0.17177E+08         0.46214E+06         0.00000E+00
    0.46214E+06        -0.19374E+07         0.00000E+00
    0.00000E+00         0.00000E+00        -0.17180E+08
 
   -0.17129E+08         0.46667E+06         0.00000E+00
    0.46667E+06        -0.19379E+07         0.00000E+00
    0.00000E+00         0.00000E+00        -0.17132E+08
 
   -0.17080E+08         0.47112E+06         0.00000E+00
    0.47112E+06        -0.19384E+07         0.00000E+00
    0.00000E+00         0.00000E+00        -0.17083E+08
 
   -0.17030E+08         0.47549E+06         0.00000E+00
    0.47549E+06        -0.19389E+07         0.00000E+00
    0.00000E+00         0.00000E+00        -0.17033E+08
 
   -0.16981E+08         0.47979E+06         0.00000E+00
    0.47979E+06        -0.19394E+07         0.00000E+00
    0.00000E+00         0.00000E+00        -0.16983E+08
 
   -0.16930E+08         0.48402E+06         0.00000E+00
    0.48402E+06        -0.19398E+07         0.00000E+00
    0.00000E+00         0.00000E+00        -0.16933E+08
 
   -0.16880E+08         0.48818E+06         0.00000E+00
    0.48818E+06        -0.19403E+07         0.00000E+00
    0.00000E+00         0.00000E+00        -0.16882E+08
 
   -0.16828E+08         0.49226E+06         0.00000E+00
    0.49226E+06        -0.19407E+07         0.00000E+00
    0.00000E+00         0.00000E+00        -0.16831E+08
 
   -0.16777E+08         0.49626E+06         0.00000E+00
    0.49626E+06        -0.19412E+07         0.00000E+00
    0.00000E+00         0.00000E+00        -0.16779E+08
 
   -0.16725E+08         0.50019E+06         0.00000E+00
    0.50019E+06        -0.19417E+07         0.00000E+00
    0.00000E+00         0.00000E+00        -0.16727E+08
 
   -0.16672E+08         0.50404E+06         0.00000E+00
    0.50404E+06        -0.19422E+07         0.00000E+00
    0.00000E+00         0.00000E+00        -0.16675E+08
 
   -0.16619E+08         0.50780E+06         0.00000E+00
    0.50780E+06        -0.19427E+07         0.00000E+00
    0.00000E+00         0.00000E+00        -0.16622E+08
 
   -0.16566E+08         0.51147E+06         0.00000E+00
    0.51147E+06        -0.19433E+07         0.00000E+00
    0.00000E+00         0.00000E+00        -0.16568E+08
 
   -0.16512E+08         0.51504E+06         0.00000E+00
    0.51504E+06        -0.19439E+07         0.00000E+00
    0.00000E+00         0.00000E+00        -0.16514E+08
 
   -0.16458E+08         0.51851E+06         0.00000E+00
    0.51851E+06        -0.19445E+07         0.00000E+00
    0.00000E+00         0.00000E+00        -0.16460E+08
 
   -0.16403E+08         0.52187E+06         0.00000E+00
    0.52187E+06        -0.19452E+07         0.00000E+00
    0.00000E+00         0.00000E+00        -0.16405E+08
 
   -0.16348E+08         0.52511E+06         0.00000E+00
    0.52511E+06        -0.19459E+07         0.00000E+00
    0.00000E+00         0.00000E+00        -0.16350E+08
 
   -0.16293E+08         0.52821E+06         0.00000E+00
    0.52821E+06        -0.19467E+07         0.00000E+00
    0.00000E+00         0.00000E+00        -0.16294E+08
 
   -0.16237E+08         0.53117E+06         0.00000E+00
    0.53117E+06        -0.19475E+07         0.00000E+00
    0.00000E+00         0.00000E+00        -0.16238E+08
 
   -0.16180E+08         0.53398E+06         0.00000E+00
    0.53398E+06        -0.19484E+07         0.00000E+00
    0.00000E+00         0.00000E+00        -0.16182E+08
 
   -0.16123E+08         0.53663E+06         0.00000E+00
    0.53663E+06        -0.19494E+07         0.00000E+00
    0.00000E+00         0.00000E+00        -0.16125E+08
 
   -0.16066E+08         0.53909E+06         0.00000E+00
    0.53909E+06        -0.19505E+07         0.00000E+00
    0.00000E+00         0.00000E+00        -0.16068E+08
 
   -0.16009E+08         0.54135E+06         0.00000E+00
    0.54135E+06        -0.19517E+07         0.00000E+00
    0.00000E+00         0.00000E+00        -0.16010E+08
 
   -0.15951E+08         0.54340E+06         0.00000E+00
    0.54340E+06        -0.19529E+07         0.00000E+00
    0.00000E+00         0.00000E+00        -0.15952E+08
 
   -0.15892E+08         0.54522E+06         0.00000E+00
    0.54522E+06        -0.19543E+07         0.00000E+00
    0.00000E+00         0.00000E+00        -0.15893E+08
 
   -0.15834E+08         0.54678E+06         0.00000E+00
    0.54678E+06        -0.19557E+07         0.00000E+00
    0.00000E+00         0.00000E+00        -0.15835E+08
 
   -0.15775E+08         0.54807E+06         0.00000E+00
    0.54807E+06        -0.19574E+07         0.00000E+00
    0.00000E+00         0.00000E+00        -0.15775E+08
 
   -0.15715E+08         0.54906E+06         0.00000E+00
    0.54906E+06        -0.19591E+07         0.00000E+00
    0.00000E+00         0.00000E+00        -0.15716E+08
 
   -0.15655E+08         0.54972E+06         0.00000E+00
    0.54972E+06        -0.19610E+07         0.00000E+00
    0.00000E+00         0.00000E+00        -0.15656E+08
 
   -0.15595E+08         0.55003E+06         0.00000E+00
    0.55003E+06        -0.19631E+07         0.00000E+00
    0.00000E+00         0.00000E+00        -0.15595E+08
 
   -0.15535E+08         0.54995E+06         0.00000E+00
    0.54995E+06        -0.19653E+07         0.00000E+00
    0.00000E+00         0.00000E+00        -0.15535E+08
 
   -0.15474E+08         0.54945E+06         0.00000E+00
    0.54945E+06        -0.19678E+07         0.00000E+00
    0.00000E+00         0.00000E+00        -0.15474E+08
 
   -0.15413E+08         0.54850E+06         0.00000E+00
    0.54850E+06        -0.19705E+07         0.00000E+00
    0.00000E+00         0.00000E+00        -0.15413E+08
 
   -0.15352E+08         0.54705E+06         0.00000E+00
    0.54705E+06        -0.19734E+07         0.00000E+00
    0.00000E+00         0.00000E+00        -0.15351E+08
 
   -0.15291E+08         0.54506E+06         0.00000E+00
    0.54506E+06        -0.19766E+07         0.00000E+00
    0.00000E+00         0.00000E+00        -0.15290E+08
 
   -0.15229E+08         0.54249E+06         0.00000E+00
    0.54249E+06        -0.19801E+07         0.00000E+00
    0.00000E+00         0.00000E+00        -0.15228E+08
 
   -0.15167E+08         0.53929E+06         0.00000E+00
    0.53929E+06        -0.19839E+07         0.00000E+00
    0.00000E+00         0.00000E+00        -0.15165E+08
 
   -0.15106E+08         0.53541E+06         0.00000E+00
    0.53541E+06        -0.19881E+07         0.00000E+00
    0.00000E+00         0.00000E+00        -0.15103E+08
 
   -0.15044E+08         0.53079E+06         0.00000E+00
    0.53079E+06        -0.19928E+07         0.00000E+00
    0.00000E+00         0.00000E+00        -0.15041E+08
 
   -0.14981E+08         0.52537E+06         0.00000E+00
    0.52537E+06        -0.19978E+07         0.00000E+00
    0.00000E+00         0.00000E+00        -0.14978E+08
 
   -0.14919E+08         0.51911E+06         0.00000E+00
    0.51911E+06        -0.20034E+07         0.00000E+00
    0.00000E+00         0.00000E+00        -0.14915E+08
 
   -0.14857E+08         0.51194E+06         0.00000E+00
    0.51194E+06        -0.20095E+07         0.00000E+00
    0.00000E+00         0.00000E+00        -0.14853E+08
 
   -0.14795E+08         0.50381E+06         0.00000E+00
    0.50381E+06        -0.20161E+07         0.00000E+00
    0.00000E+00         0.00000E+00        -0.14790E+08
 
   -0.14733E+08         0.49467E+06         0.00000E+00
    0.49467E+06        -0.20234E+07         0.00000E+00
    0.00000E+00         0.00000E+00        -0.14727E+08
 
   -0.14671E+08         0.48446E+06         0.00000E+00
    0.48446E+06        -0.20313E+07         0.00000E+00
    0.00000E+00         0.00000E+00        -0.14664E+08
 
   -0.14609E+08         0.47314E+06         0.00000E+00
    0.47314E+06        -0.20399E+07         0.00000E+00
    0.00000E+00         0.00000E+00        -0.14602E+08
 
   -0.14547E+08         0.46068E+06         0.00000E+00
    0.46068E+06        -0.20492E+07         0.00000E+00
    0.00000E+00         0.00000E+00        -0.14539E+08
 
   -0.14485E+08         0.44705E+06         0.00000E+00
    0.44705E+06        -0.20590E+07         0.00000E+00
    0.00000E+00         0.00000E+00        -0.14476E+08
 
   -0.14423E+08         0.43223E+06         0.00000E+00
    0.43223E+06        -0.20694E+07         0.00000E+00
    0.00000E+00         0.00000E+00        -0.14414E+08
 
   -0.14361E+08         0.41624E+06         0.00000E+00
    0.41624E+06        -0.20801E+07         0.00000E+00
    0.00000E+00         0.00000E+00        -0.14351E+08
 
   -0.14299E+08         0.39906E+06         0.00000E+00
    0.39906E+06        -0.20910E+07         0.00000E+00
    0.00000E+00         0.00000E+00        -0.14288E+08
 
   -0.14236E+08         0.38070E+06         0.00000E+00
    0.38070E+06        -0.21018E+07         0.00000E+00
    0.00000E+00         0.00000E+00        -0.14225E+08
 
   -0.14174E+08         0.36117E+06         0.00000E+00
    0.36117E+06        -0.21118E+07         0.00000E+00
    0.00000E+00         0.00000E+00        -0.14162E+08
 
   -0.14110E+08         0.34040E+06         0.00000E+00
    0.34040E+06        -0.21206E+07         0.00000E+00
    0.00000E+00         0.00000E+00        -0.14097E+08
 
   -0.14046E+08         0.31828E+06         0.00000E+00
    0.31828E+06        -0.21272E+07         0.00000E+00
    0.00000E+00         0.00000E+00        -0.14032E+08
 
   -0.13981E+08         0.29455E+06         0.00000E+00
    0.29455E+06        -0.21306E+07         0.00000E+00
    0.00000E+00         0.00000E+00        -0.13966E+08
 
   -0.13914E+08         0.26870E+06         0.00000E+00
    0.26870E+06        -0.21296E+07         0.00000E+00
    0.00000E+00         0.00000E+00        -0.13897E+08
 
   -0.13845E+08         0.23990E+06         0.00000E+00
    0.23990E+06        -0.21227E+07         0.00000E+00
    0.00000E+00         0.00000E+00        -0.13827E+08
 
   -0.13775E+08         0.20655E+06         0.00000E+00
    0.20655E+06        -0.21079E+07         0.00000E+00
    0.00000E+00         0.00000E+00        -0.13753E+08
 
   -0.13703E+08         0.16652E+06         0.00000E+00
    0.16652E+06        -0.20839E+07         0.00000E+00
    0.00000E+00         0.00000E+00        -0.13676E+08
 
   -0.13631E+08         0.11404E+06         0.00000E+00
    0.11404E+06        -0.20478E+07         0.00000E+00
    0.00000E+00         0.00000E+00        -0.13596E+08
 
   -0.13573E+08         0.41745E+05         0.00000E+00
    0.41745E+05        -0.19933E+07         0.00000E+00
    0.00000E+00         0.00000E+00        -0.13514E+08
 
   -0.18730E+08         0.21648E+05         0.00000E+00
    0.21648E+05        -0.19370E+07         0.00000E+00
    0.00000E+00         0.00000E+00        -0.18786E+08
 
   -0.18703E+08         0.61471E+05         0.00000E+00
    0.61471E+05        -0.19040E+07         0.00000E+00
    0.00000E+00         0.00000E+00        -0.18740E+08
 
   -0.18666E+08         0.93463E+05         0.00000E+00
    0.93463E+05        -0.18811E+07         0.00000E+00
    0.00000E+00         0.00000E+00        -0.18694E+08
 
   -0.18627E+08         0.11883E+06         0.00000E+00
    0.11883E+06        -0.18662E+07         0.00000E+00
    0.00000E+00         0.00000E+00        -0.18650E+08
 
   -0.18587E+08         0.14043E+06         0.00000E+00
    0.14043E+06        -0.18570E+07         0.00000E+00
    0.00000E+00         0.00000E+00        -0.18607E+08
 
   -0.18548E+08         0.15955E+06         0.00000E+00
    0.15955E+06        -0.18525E+07         0.00000E+00
    0.00000E+00         0.00000E+00        -0.18566E+08
 
   -0.18510E+08         0.17702E+06         0.00000E+00
    0.17702E+06        -0.18514E+07         0.00000E+00
    0.00000E+00         0.00000E+00        -0.18527E+08
 
   -0.18472E+08         0.19332E+06         0.00000E+00
    0.19332E+06        -0.18530E+07         0.00000E+00
    0.00000E+00         0.00000E+00        -0.18488E+08
 
   -0.18434E+08         0.20876E+06         0.00000E+00
    0.20876E+06        -0.18564E+07         0.00000E+00
    0.00000E+00         0.00000E+00        -0.18449E+08
 
   -0.18397E+08         0.22347E+06         0.00000E+00
    0.22347E+06        -0.18610E+07         0.00000E+00
    0.00000E+00         0.00000E+00        -0.18411E+08
 
   -0.18360E+08         0.23755E+06         0.00000E+00
    0.23755E+06        -0.18664E+07         0.00000E+00
    0.00000E+00         0.00000E+00        -0.18373E+08
 
   -0.18322E+08         0.25103E+06         0.00000E+00
    0.25103E+06        -0.18721E+07         0.00000E+00
    0.00000E+00         0.00000E+00        -0.18336E+08
 
   -0.18285E+08         0.26391E+06         0.00000E+00
    0.26391E+06        -0.18778E+07         0.00000E+00
    0.00000E+00         0.00000E+00        -0.18298E+08
 
   -0.18247E+08         0.27621E+06         0.00000E+00
    0.27621E+06        -0.18835E+07         0.00000E+00
    0.00000E+00         0.00000E+00        -0.18259E+08
 
   -0.18209E+08         0.28792E+06         0.00000E+00
    0.28792E+06        -0.18889E+07         0.00000E+00
    0.00000E+00         0.00000E+00        -0.18221E+08
 
   -0.18171E+08         0.29907E+06         0.00000E+00
    0.29907E+06        -0.18940E+07         0.00000E+00
    0.00000E+00         0.00000E+00        -0.18182E+08
 
   -0.18133E+08         0.30964E+06         0.00000E+00
    0.30964E+06        -0.18988E+07         0.00000E+00
    0.00000E+00         0.00000E+00        -0.18143E+08
 
   -0.18094E+08         0.31968E+06         0.00000E+00
    0.31968E+06        -0.19031E+07         0.00000E+00
    0.00000E+00         0.00000E+00        -0.18104E+08
 
   -0.18054E+08         0.32919E+06         0.00000E+00
    0.32919E+06        -0.19071E+07         0.00000E+00
    0.00000E+00         0.00000E+00        -0.18064E+08
 
   -0.18014E+08         0.33820E+06         0.00000E+00
    0.33820E+06        -0.19106E+07         0.00000E+00
    0.00000E+00         0.00000E+00        -0.18023E+08
 
   -0.17974E+08         0.34675E+06         0.00000E+00
    0.34675E+06        -0.19139E+07         0.00000E+00
    0.00000E+00         0.00000E+00        -0.17983E+08
 
   -0.17934E+08         0.35486E+06         0.00000E+00
    0.35486E+06        -0.19168E+07         0.00000E+00
    0.00000E+00         0.00000E+00        -0.17942E+08
 
   -0.17892E+08         0.36257E+06         0.00000E+00
    0.36257E+06        -0.19194E+07         0.00000E+00
    0.00000E+00         0.00000E+00        -0.17900E+08
 
   -0.17851E+08         0.36991E+06         0.00000E+00
    0.36991E+06        -0.19217E+07         0.00000E+00
    0.00000E+00         0.00000E+00        -0.17858E+08
 
   -0.17809E+08         0.37691E+06         0.00000E+00
    0.37691E+06        -0.19238E+07         0.00000E+00
    0.00000E+00         0.00000E+00        -0.17816E+08
 
   -0.17766E+08         0.38359E+06         0.00000E+00
    0.38359E+06        -0.19257E+07         0.00000E+00
    0.00000E+00         0.00000E+00        -0.17773E+08
 
   -0.17723E+08         0.38999E+06         0.00000E+00
    0.38999E+06        -0.19274E+07         0.00000E+00
    0.00000E+00         0.00000E+00        -0.17730E+08
 
   -0.17680E+08         0.39614E+06         0.00000E+00
    0.39614E+06        -0.19289E+07         0.00000E+00
    0.00000E+00         0.00000E+00        -0.17686E+08
 
   -0.17636E+08         0.40205E+06         0.00000E+00
    0.40205E+06        -0.19302E+07         0.00000E+00
    0.00000E+00         0.00000E+00        -0.17642E+08
 
   -0.17592E+08         0.40776E+06         0.00000E+00
    0.40776E+06        -0.19314E+07         0.00000E+00
    0.00000E+00         0.00000E+00        -0.17598E+08
 
   -0.17547E+08         0.41328E+06         0.00000E+00
    0.41328E+06        -0.19325E+07         0.00000E+00
    0.00000E+00         0.00000E+00        -0.17553E+08
 
   -0.17502E+08         0.41863E+06         0.00000E+00
    0.41863E+06        -0.19335E+07         0.00000E+00
    0.00000E+00         0.00000E+00        -0.17508E+08
 
   -0.17457E+08         0.42382E+06         0.00000E+00
    0.42382E+06        -0.19344E+07         0.00000E+00
    0.00000E+00         0.00000E+00        -0.17462E+08
 
   -0.17411E+08         0.42888E+06         0.00000E+00
    0.42888E+06        -0.19352E+07         0.00000E+00
    0.00000E+00         0.00000E+00        -0.17416E+08
 
   -0.17365E+08         0.43381E+06         0.00000E+00
    0.43381E+06        -0.19359E+07         0.00000E+00
    0.00000E+00         0.00000E+00        -0.17370E+08
 
   -0.17318E+08         0.43862E+06         0.00000E+00
    0.43862E+06        -0.19366E+07         0.00000E+00
    0.00000E+00         0.00000E+00        -0.17323E+08
 
   -0.17271E+08         0.44334E+06         0.00000E+00
    0.44334E+06        -0.19372E+07         0.00000E+00
    0.00000E+00         0.00000E+00        -0.17276E+08
 
   -0.17223E+08         0.44795E+06         0.00000E+00
    0.44795E+06        -0.19378E+07         0.00000E+00
    0.00000E+00         0.00000E+00        -0.17228E+08
 
   -0.17175E+08         0.45248E+06         0.00000E+00
    0.45248E+06        -0.19383E+07         0.00000E+00
    0.00000E+00         0.00000E+00        -0.17180E+08
 
   -0.17127E+08         0.45692E+06         0.00000E+00
    0.45692E+06        -0.19388E+07         0.00000E+00
    0.00000E+00         0.00000E+00        -0.17131E+08
 
   -0.17078E+08         0.46128E+06         0.00000E+00
    0.46128E+06        -0.19393E+07         0.00000E+00
    0.00000E+00         0.00000E+00        -0.17082E+08
 
   -0.17028E+08         0.46557E+06         0.00000E+00
    0.46557E+06        -0.19397E+07         0.00000E+00
    0.00000E+00         0.00000E+00        -0.17033E+08
 
   -0.16979E+08         0.46978E+06         0.00000E+00
    0.46978E+06        -0.19402E+07         0.00000E+00
    0.00000E+00         0.00000E+00        -0.16983E+08
 
   -0.16928E+08         0.47392E+06         0.00000E+00
    0.47392E+06        -0.19406E+07         0.00000E+00
    0.00000E+00         0.00000E+00        -0.16933E+08
 
   -0.16878E+08         0.47799E+06         0.00000E+00
    0.47799E+06        -0.19411E+07         0.00000E+00
    0.00000E+00         0.00000E+00        -0.16882E+08
 
   -0.16826E+08         0.48198E+06         0.00000E+00
    0.48198E+06        -0.19415E+07         0.00000E+00
    0.00000E+00         0.00000E+00        -0.16831E+08
 
   -0.16775E+08         0.48590E+06         0.00000E+00
    0.48590E+06        -0.19420E+07         0.00000E+00
    0.00000E+00         0.00000E+00        -0.16779E+08
 
   -0.16723E+08         0.48974E+06         0.00000E+00
    0.48974E+06        -0.19425E+07         0.00000E+00
    0.00000E+00         0.00000E+00        -0.16727E+08
 
   -0.16670E+08         0.49350E+06         0.00000E+00
    0.49350E+06        -0.19430E+07         0.00000E+00
    0.00000E+00         0.00000E+00        -0.16674E+08
 
   -0.16618E+08         0.49717E+06         0.00000E+00
    0.49717E+06        -0.19435E+07         0.00000E+00
    0.00000E+00         0.00000E+00        -0.16621E+08
 
   -0.16564E+08         0.50076E+06         0.00000E+00
    0.50076E+06        -0.19440E+07         0.00000E+00
    0.00000E+00         0.00000E+00        -0.16568E+08
 
   -0.16510E+08         0.50424E+06         0.00000E+00
    0.50424E+06        -0.19446E+07         0.00000E+00
    0.00000E+00         0.00000E+00        -0.16514E+08
 
   -0.16456E+08         0.50763E+06         0.00000E+00
    0.50763E+06        -0.19452E+07         0.00000E+00
    0.00000E+00         0.00000E+00        -0.16460E+08
 
   -0.16402E+08         0.51090E+06         0.00000E+00
    0.51090E+06        -0.19458E+07         0.00000E+00
    0.00000E+00         0.00000E+00        -0.16405E+08
 
   -0.16347E+08         0.51405E+06         0.00000E+00
    0.51405E+06        -0.19465E+07         0.00000E+00
    0.00000E+00         0.00000E+00        -0.16350E+08
 
   -0.16291E+08         0.51707E+06         0.00000E+00
    0.51707E+06        -0.19473E+07         0.00000E+00
    0.00000E+00         0.00000E+00        -0.16294E+08
 
   -0.16235E+08         0.51995E+06         0.00000E+00
    0.51995E+06        -0.19481E+07         0.00000E+00
    0.00000E+00         0.00000E+00        -0.16238E+08
 
   -0.16179E+08         0.52267E+06         0.00000E+00
    0.52267E+06        -0.19490E+07         0.00000E+00
    0.00000E+00         0.00000E+00        -0.16182E+08
 
   -0.16122E+08         0.52524E+06         0.00000E+00
    0.52524E+06        -0.19499E+07         0.00000E+00
    0.00000E+00         0.00000E+00        -0.16125E+08
 
   -0.16065E+08         0.52762E+06         0.00000E+00
    0.52762E+06        -0.19510E+07         0.00000E+00
    0.00000E+00         0.00000E+00        -0.16068E+08
 
   -0.16008E+08         0.52981E+06         0.00000E+00
    0.52981E+06        -0.19521E+07         0.00000E+00
    0.00000E+00         0.00000E+00        -0.16010E+08
 
   -0.15950E+08         0.53178E+06         0.00000E+00
    0.53178E+06        -0.19533E+07         0.00000E+00
    0.00000E+00         0.00000E+00        -0.15952E+08
 
   -0.15891E+08         0.53352E+06         0.00000E+00
    0.53352E+06        -0.19546E+07         0.00000E+00
    0.00000E+00         0.00000E+00        -0.15893E+08
 
   -0.15833E+08         0.53501E+06         0.00000E+00
    0.53501E+06        -0.19560E+07         0.00000E+00
    0.00000E+00         0.00000E+00        -0.15834E+08
 
   -0.15774E+08         0.53623E+06         0.00000E+00
    0.53623E+06        -0.19576E+07         0.00000E+00
    0.00000E+00         0.00000E+00        -0.15775E+08
 
   -0.15715E+08         0.53716E+06         0.00000E+00
    0.53716E+06        -0.19593E+07         0.00000E+00
    0.00000E+00         0.00000E+00        -0.15716E+08
 
   -0.15655E+08         0.53775E+06         0.00000E+00
    0.53775E+06        -0.19611E+07         0.00000E+00
    0.00000E+00         0.00000E+00        -0.15656E+08
 
   -0.15595E+08         0.53800E+06         0.00000E+00
    0.53800E+06        -0.19631E+07         0.00000E+00
    0.00000E+00         0.00000E+00        -0.15595E+08
 
   -0.15535E+08         0.53787E+06         0.00000E+00
    0.53787E+06        -0.19653E+07         0.00000E+00
    0.00000E+00         0.00000E+00        -0.15535E+08
 
   -0.15475E+08         0.53732E+06         0.00000E+00
    0.53732E+06        -0.19676E+07         0.00000E+00
    0.00000E+00         0.00000E+00        -0.15474E+08
 
   -0.15414E+08         0.53631E+06         0.00000E+00
    0.53631E+06        -0.19702E+07         0.00000E+00
    0.00000E+00         0.00000E+00        -0.15413E+08
 
   -0.15353E+08         0.53482E+06         0.00000E+00
    0.53482E+06        -0.19730E+07         0.00000E+00
    0.00000E+00         0.00000E+00        -0.15351E+08
 
   -0.15292E+08         0.53279E+06         0.00000E+00
    0.53279E+06        -0.19761E+07         0.00000E+00
    0.00000E+00         0.00000E+00        -0.15290E+08
 
   -0.15231E+08         0.53019E+06         0.00000E+00
    0.53019E+06        -0.19795E+07         0.00000E+00
    0.00000E+00         0.00000E+00        -0.15228E+08
 
   -0.15169E+08         0.52696E+06         0.00000E+00
    0.52696E+06        -0.19832E+07         0.00000E+00
    0.00000E+00         0.00000E+00        -0.15166E+08
 
   -0.15108E+08         0.52305E+06         0.00000E+00
    0.52305E+06        -0.19873E+07         0.00000E+00
    0.00000E+00         0.00000E+00        -0.15103E+08
 
   -0.15046E+08         0.51841E+06         0.00000E+00
    0.51841E+06        -0.19918E+07         0.00000E+00
    0.00000E+00         0.00000E+00        -0.15041E+08
 
   -0.14984E+08         0.51299E+06         0.00000E+00
    0.51299E+06        -0.19967E+07         0.00000E+00
    0.00000E+00         0.00000E+00        -0.14978E+08
 
   -0.14923E+08         0.50672E+06         0.00000E+00
    0.50672E+06        -0.20020E+07         0.00000E+00
    0.00000E+00         0.00000E+00        -0.14916E+08
 
   -0.14861E+08         0.49955E+06         0.00000E+00
    0.49955E+06        -0.20079E+07         0.00000E+00
    0.00000E+00         0.00000E+00        -0.14853E+08
 
   -0.14799E+08         0.49143E+06         0.00000E+00
    0.49143E+06        -0.20144E+07         0.00000E+00
    0.00000E+00         0.00000E+00        -0.14791E+08
 
   -0.14737E+08         0.48229E+06         0.00000E+00
    0.48229E+06        -0.20215E+07         0.00000E+00
    0.00000E+00         0.00000E+00        -0.14728E+08
 
   -0.14676E+08         0.47210E+06         0.00000E+00
    0.47210E+06        -0.20292E+07         0.00000E+00
    0.00000E+00         0.00000E+00        -0.14665E+08
 
   -0.14614E+08         0.46079E+06         0.00000E+00
    0.46079E+06        -0.20376E+07         0.00000E+00
    0.00000E+00         0.00000E+00        -0.14603E+08
 
   -0.14553E+08         0.44834E+06         0.00000E+00
    0.44834E+06        -0.20466E+07         0.00000E+00
    0.00000E+00         0.00000E+00        -0.14540E+08
 
   -0.14492E+08         0.43472E+06         0.00000E+00
    0.43472E+06        -0.20562E+07         0.00000E+00
    0.00000E+00         0.00000E+00        -0.14477E+08
 
   -0.14430E+08         0.41991E+06         0.00000E+00
    0.41991E+06        -0.20663E+07         0.00000E+00
    0.00000E+00         0.00000E+00        -0.14415E+08
 
   -0.14369E+08         0.40389E+06         0.00000E+00
    0.40389E+06        -0.20768E+07         0.00000E+00
    0.00000E+00         0.00000E+00        -0.14352E+08
 
   -0.14307E+08         0.38668E+06         0.00000E+00
    0.38668E+06        -0.20875E+07         0.00000E+00
    0.00000E+00         0.00000E+00        -0.14290E+08
 
   -0.14246E+08         0.36826E+06         0.00000E+00
    0.36826E+06        -0.20980E+07         0.00000E+00
    0.00000E+00         0.00000E+00        -0.14227E+08
 
   -0.14184E+08         0.34862E+06         0.00000E+00
    0.34862E+06        -0.21078E+07         0.00000E+00
    0.00000E+00         0.00000E+00        -0.14163E+08
 
   -0.14121E+08         0.32771E+06         0.00000E+00
    0.32771E+06        -0.21163E+07         0.00000E+00
    0.00000E+00         0.00000E+00        -0.14099E+08
 
   -0.14057E+08         0.30540E+06         0.00000E+00
    0.30540E+06        -0.21226E+07         0.00000E+00
    0.00000E+00         0.00000E+00        -0.14034E+08
 
   -0.13993E+08         0.28142E+06         0.00000E+00
    0.28142E+06        -0.21257E+07         0.00000E+00
    0.00000E+00         0.00000E+00        -0.13968E+08
 
   -0.13927E+08         0.25531E+06         0.00000E+00
    0.25531E+06        -0.21241E+07         0.00000E+00
    0.00000E+00         0.00000E+00        -0.13900E+08
 
   -0.13861E+08         0.22621E+06         0.00000E+00
    0.22621E+06        -0.21165E+07         0.00000E+00
    0.00000E+00         0.00000E+00        -0.13829E+08
 
   -0.13793E+08         0.19269E+06         0.00000E+00
    0.19269E+06        -0.21007E+07         0.00000E+00
    0.00000E+00         0.00000E+00        -0.13756E+08
 
   -0.13726E+08         0.15257E+06         0.00000E+00
    0.15257E+06        -0.20750E+07         0.00000E+00
    0.00000E+00         0.00000E+00        -0.13680E+08
 
   -0.13661E+08         0.10090E+06         0.00000E+00
    0.10090E+06        -0.20354E+07         0.00000E+00
    0.00000E+00         0.00000E+00        -0.13601E+08
 
   -0.13615E+08         0.35644E+05         0.00000E+00
    0.35644E+05        -0.19783E+07         0.00000E+00
    0.00000E+00         0.00000E+00        -0.13522E+08
 
   -0.18706E+08         0.18971E+05         0.00000E+00
    0.18971E+05        -0.19450E+07         0.00000E+00
    0.00000E+00         0.00000E+00        -0.18781E+08
 
   -0.18685E+08         0.55085E+05         0.00000E+00
    0.55085E+05        -0.19111E+07         0.00000E+00
    0.00000E+00         0.00000E+00        -0.18737E+08
 
   -0.18652E+08         0.85949E+05         0.00000E+00
    0.85949E+05        -0.18867E+07         0.00000E+00
    0.00000E+00         0.00000E+00        -0.18691E+08
 
   -0.18615E+08         0.11115E+06         0.00000E+00
    0.11115E+06        -0.18708E+07         0.00000E+00
    0.00000E+00         0.00000E+00        -0.18648E+08
 
   -0.18577E+08         0.13270E+06         0.00000E+00
    0.13270E+06        -0.18611E+07         0.00000E+00
    0.00000E+00         0.00000E+00        -0.18606E+08
 
   -0.18539E+08         0.15189E+06         0.00000E+00
    0.15189E+06        -0.18561E+07         0.00000E+00
    0.00000E+00         0.00000E+00        -0.18565E+08
 
   -0.18501E+08         0.16943E+06         0.00000E+00
    0.16943E+06        -0.18548E+07         0.00000E+00
    0.00000E+00         0.00000E+00        -0.18525E+08
 
   -0.18464E+08         0.18581E+06         0.00000E+00
    0.18581E+06        -0.18562E+07         0.00000E+00
    0.00000E+00         0.00000E+00        -0.18486E+08
 
   -0.18427E+08         0.20130E+06         0.00000E+00
    0.20130E+06        -0.18594E+07         0.00000E+00
    0.00000E+00         0.00000E+00        -0.18448E+08
 
   -0.18390E+08         0.21605E+06         0.00000E+00
    0.21605E+06        -0.18639E+07         0.00000E+00
    0.00000E+00         0.00000E+00        -0.18410E+08
 
   -0.18353E+08         0.23014E+06         0.00000E+00
    0.23014E+06        -0.18691E+07         0.00000E+00
    0.00000E+00         0.00000E+00        -0.18372E+08
 
   -0.18316E+08         0.24360E+06         0.00000E+00
    0.24360E+06        -0.18747E+07         0.00000E+00
    0.00000E+00         0.00000E+00        -0.18334E+08
 
   -0.18279E+08         0.25645E+06         0.00000E+00
    0.25645E+06        -0.18804E+07         0.00000E+00
    0.00000E+00         0.00000E+00        -0.18297E+08
 
   -0.18242E+08         0.26869E+06         0.00000E+00
    0.26869E+06        -0.18859E+07         0.00000E+00
    0.00000E+00         0.00000E+00        -0.18258E+08
 
   -0.18204E+08         0.28035E+06         0.00000E+00
    0.28035E+06        -0.18912E+07         0.00000E+00
    0.00000E+00         0.00000E+00        -0.18220E+08
 
   -0.18166E+08         0.29142E+06         0.00000E+00
    0.29142E+06        -0.18962E+07         0.00000E+00
    0.00000E+00         0.00000E+00        -0.18181E+08
 
   -0.18128E+08         0.30192E+06         0.00000E+00
    0.30192E+06        -0.19008E+07         0.00000E+00
    0.00000E+00         0.00000E+00        -0.18142E+08
 
   -0.18089E+08         0.31186E+06         0.00000E+00
    0.31186E+06        -0.19050E+07         0.00000E+00
    0.00000E+00         0.00000E+00        -0.18103E+08
 
   -0.18050E+08         0.32129E+06         0.00000E+00
    0.32129E+06        -0.19089E+07         0.00000E+00
    0.00000E+00         0.00000E+00        -0.18063E+08
 
   -0.18010E+08         0.33022E+06         0.00000E+00
    0.33022E+06        -0.19124E+07         0.00000E+00
    0.00000E+00         0.00000E+00        -0.18023E+08
 
   -0.17970E+08         0.33867E+06         0.00000E+00
    0.33867E+06        -0.19155E+07         0.00000E+00
    0.00000E+00         0.00000E+00        -0.17982E+08
 
   -0.17930E+08         0.34670E+06         0.00000E+00
    0.34670E+06        -0.19184E+07         0.00000E+00
    0.00000E+00         0.00000E+00        -0.17941E+08
 
   -0.17889E+08         0.35432E+06         0.00000E+00
    0.35432E+06        -0.19209E+07         0.00000E+00
    0.00000E+00         0.00000E+00        -0.17899E+08
 
   -0.17847E+08         0.36156E+06         0.00000E+00
    0.36156E+06        -0.19232E+07         0.00000E+00
    0.00000E+00         0.00000E+00        -0.17857E+08
 
   -0.17805E+08         0.36847E+06         0.00000E+00
    0.36847E+06        -0.19252E+07         0.00000E+00
    0.00000E+00         0.00000E+00        -0.17815E+08
 
   -0.17763E+08         0.37507E+06         0.00000E+00
    0.37507E+06        -0.19270E+07         0.00000E+00
    0.00000E+00         0.00000E+00        -0.17772E+08
 
   -0.17720E+08         0.38138E+06         0.00000E+00
    0.38138E+06        -0.19286E+07         0.00000E+00
    0.00000E+00         0.00000E+00        -0.17729E+08
 
   -0.17677E+08         0.38744E+06         0.00000E+00
    0.38744E+06        -0.19301E+07         0.00000E+00
    0.00000E+00         0.00000E+00        -0.17686E+08
 
   -0.17633E+08         0.39327E+06         0.00000E+00
    0.39327E+06        -0.19314E+07         0.00000E+00
    0.00000E+00         0.00000E+00        -0.17642E+08
 
   -0.17589E+08         0.39889E+06         0.00000E+00
    0.39889E+06        -0.19325E+07         0.00000E+00
    0.00000E+00         0.00000E+00        -0.17597E+08
 
   -0.17545E+08         0.40432E+06         0.00000E+00
    0.40432E+06        -0.19336E+07         0.00000E+00
    0.00000E+00         0.00000E+00        -0.17553E+08
 
   -0.17500E+08         0.40958E+06         0.00000E+00
    0.40958E+06        -0.19345E+07         0.00000E+00
    0.00000E+00         0.00000E+00        -0.17507E+08
 
   -0.17454E+08         0.41469E+06         0.00000E+00
    0.41469E+06        -0.19354E+07         0.00000E+00
    0.00000E+00         0.00000E+00        -0.17462E+08
 
   -0.17409E+08         0.41966E+06         0.00000E+00
    0.41966E+06        -0.19362E+07         0.00000E+00
    0.00000E+00         0.00000E+00        -0.17416E+08
 
   -0.17362E+08         0.42450E+06         0.00000E+00
    0.42450E+06        -0.19369E+07         0.00000E+00
    0.00000E+00         0.00000E+00        -0.17369E+08
 
   -0.17316E+08         0.42923E+06         0.00000E+00
    0.42923E+06        -0.19375E+07         0.00000E+00
    0.00000E+00         0.00000E+00        -0.17322E+08
 
   -0.17268E+08         0.43386E+06         0.00000E+00
    0.43386E+06        -0.19381E+07         0.00000E+00
    0.00000E+00         0.00000E+00        -0.17275E+08
 
   -0.17221E+08         0.43839E+06         0.00000E+00
    0.43839E+06        -0.19387E+07         0.00000E+00
    0.00000E+00         0.00000E+00        -0.17227E+08
 
   -0.17173E+08         0.44283E+06         0.00000E+00
    0.44283E+06        -0.19392E+07         0.00000E+00
    0.00000E+00         0.00000E+00        -0.17179E+08
 
   -0.17124E+08         0.44718E+06         0.00000E+00
    0.44718E+06        -0.19397E+07         0.00000E+00
    0.00000E+00         0.00000E+00        -0.17131E+08
 
   -0.17076E+08         0.45146E+06         0.00000E+00
    0.45146E+06        -0.19401E+07         0.00000E+00
    0.00000E+00         0.00000E+00        -0.17082E+08
 
   -0.17026E+08         0.45566E+06         0.00000E+00
    0.45566E+06        -0.19406E+07         0.00000E+00
    0.00000E+00         0.00000E+00        -0.17032E+08
 
   -0.16976E+08         0.45978E+06         0.00000E+00
    0.45978E+06        -0.19410E+07         0.00000E+00
    0.00000E+00         0.00000E+00        -0.16982E+08
 
   -0.16926E+08         0.46383E+06         0.00000E+00
    0.46383E+06        -0.19415E+07         0.00000E+00
    0.00000E+00         0.00000E+00        -0.16932E+08
 
   -0.16876E+08         0.46781E+06         0.00000E+00
    0.46781E+06        -0.19419E+07         0.00000E+00
    0.00000E+00         0.00000E+00        -0.16881E+08
 
   -0.16824E+08         0.47172E+06         0.00000E+00
    0.47172E+06        -0.19423E+07         0.00000E+00
    0.00000E+00         0.00000E+00        -0.16830E+08
 
   -0.16773E+08         0.47555E+06         0.00000E+00
    0.47555E+06        -0.19428E+07         0.00000E+00
    0.00000E+00         0.00000E+00        -0.16779E+08
 
   -0.16721E+08         0.47930E+06         0.00000E+00
    0.47930E+06        -0.19432E+07         0.00000E+00
    0.00000E+00         0.00000E+00        -0.16726E+08
 
   -0.16669E+08         0.48297E+06         0.00000E+00
    0.48297E+06        -0.19437E+07         0.00000E+00
    0.00000E+00         0.00000E+00        -0.16674E+08
 
   -0.16616E+08         0.48656E+06         0.00000E+00
    0.48656E+06        -0.19442E+07         0.00000E+00
    0.00000E+00         0.00000E+00        -0.16621E+08
 
   -0.16562E+08         0.49005E+06         0.00000E+00
    0.49005E+06        -0.19447E+07         0.00000E+00
    0.00000E+00         0.00000E+00        -0.16568E+08
 
   -0.16509E+08         0.49345E+06         0.00000E+00
    0.49345E+06        -0.19453E+07         0.00000E+00
    0.00000E+00         0.00000E+00        -0.16514E+08
 
   -0.16455E+08         0.49675E+06         0.00000E+00
    0.49675E+06        -0.19458E+07         0.00000E+00
    0.00000E+00         0.00000E+00        -0.16459E+08
 
   -0.16400E+08         0.49993E+06         0.00000E+00
    0.49993E+06        -0.19465E+07         0.00000E+00
    0.00000E+00         0.00000E+00        -0.16405E+08
 
   -0.16345E+08         0.50300E+06         0.00000E+00
    0.50300E+06        -0.19472E+07         0.00000E+00
    0.00000E+00         0.00000E+00        -0.16350E+08
 
   -0.16290E+08         0.50594E+06         0.00000E+00
    0.50594E+06        -0.19479E+07         0.00000E+00
    0.00000E+00         0.00000E+00        -0.16294E+08
 
   -0.16234E+08         0.50874E+06         0.00000E+00
    0.50874E+06        -0.19487E+07         0.00000E+00
    0.00000E+00         0.00000E+00        -0.16238E+08
 
   -0.16178E+08         0.51138E+06         0.00000E+00
    0.51138E+06        -0.19495E+07         0.00000E+00
    0.00000E+00         0.00000E+00        -0.16181E+08
 
   -0.16121E+08         0.51387E+06         0.00000E+00
    0.51387E+06        -0.19504E+07         0.00000E+00
    0.00000E+00         0.00000E+00        -0.16125E+08
 
   -0.16064E+08         0.51617E+06         0.00000E+00
    0.51617E+06        -0.19514E+07         0.00000E+00
    0.00000E+00         0.00000E+00        -0.16067E+08
 
   -0.16007E+08         0.51828E+06         0.00000E+00
    0.51828E+06        -0.19525E+07         0.00000E+00
    0.00000E+00         0.00000E+00        -0.16010E+08
 
   -0.15949E+08         0.52018E+06         0.00000E+00
    0.52018E+06        -0.19537E+07         0.00000E+00
    0.00000E+00         0.00000E+00        -0.15952E+08
 
   -0.15891E+08         0.52185E+06         0.00000E+00
    0.52185E+06        -0.19549E+07         0.00000E+00
    0.00000E+00         0.00000E+00        -0.15893E+08
 
   -0.15832E+08         0.52327E+06         0.00000E+00
    0.52327E+06        -0.19563E+07         0.00000E+00
    0.00000E+00         0.00000E+00        -0.15834E+08
 
   -0.15773E+08         0.52443E+06         0.00000E+00
    0.52443E+06        -0.19578E+07         0.00000E+00
    0.00000E+00         0.00000E+00        -0.15775E+08
 
   -0.15714E+08         0.52528E+06         0.00000E+00
    0.52528E+06        -0.19594E+07         0.00000E+00
    0.00000E+00         0.00000E+00        -0.15716E+08
 
   -0.15655E+08         0.52582E+06         0.00000E+00
    0.52582E+06        -0.19612E+07         0.00000E+00
    0.00000E+00         0.00000E+00        -0.15656E+08
 
   -0.15595E+08         0.52601E+06         0.00000E+00
    0.52601E+06        -0.19631E+07         0.00000E+00
    0.00000E+00         0.00000E+00        -0.15595E+08
 
   -0.15535E+08         0.52582E+06         0.00000E+00
    0.52582E+06        -0.19652E+07         0.00000E+00
    0.00000E+00         0.00000E+00        -0.15535E+08
 
   -0.15475E+08         0.52522E+06         0.00000E+00
    0.52522E+06        -0.19675E+07         0.00000E+00
    0.00000E+00         0.00000E+00        -0.15474E+08
 
   -0.15414E+08         0.52418E+06         0.00000E+00
    0.52418E+06        -0.19700E+07         0.00000E+00
    0.00000E+00         0.00000E+00        -0.15413E+08
 
   -0.15354E+08         0.52264E+06         0.00000E+00
    0.52264E+06        -0.19727E+07         0.00000E+00
    0.00000E+00         0.00000E+00        -0.15351E+08
 
   -0.15293E+08         0.52058E+06         0.00000E+00
    0.52058E+06        -0.19757E+07         0.00000E+00
    0.00000E+00         0.00000E+00        -0.15290E+08
 
   -0.15232E+08         0.51795E+06         0.00000E+00
    0.51795E+06        -0.19789E+07         0.00000E+00
    0.00000E+00         0.00000E+00        -0.15228E+08
 
   -0.15171E+08         0.51469E+06         0.00000E+00
    0.51469E+06        -0.19825E+07         0.00000E+00
    0.00000E+00         0.00000E+00        -0.15166E+08
 
   -0.15110E+08         0.51076E+06         0.00000E+00
    0.51076E+06        -0.19864E+07         0.00000E+00
    0.00000E+00         0.00000E+00        -0.15104E+08
 
   -0.15048E+08         0.50611E+06         0.00000E+00
    0.50611E+06        -0.19908E+07         0.00000E+00
    0.00000E+00         0.00000E+00        -0.15041E+08
 
   -0.14987E+08         0.50068E+06         0.00000E+00
    0.50068E+06        -0.19955E+07         0.00000E+00
    0.00000E+00         0.00000E+00        -0.14979E+08
 
   -0.14926E+08         0.49442E+06         0.00000E+00
    0.49442E+06        -0.20007E+07         0.00000E+00
    0.00000E+00         0.00000E+00        -0.14916E+08
 
   -0.14864E+08         0.48726E+06         0.00000E+00
    0.48726E+06        -0.20064E+07         0.00000E+00
    0.00000E+00         0.00000E+00        -0.14854E+08
 
   -0.14803E+08         0.47914E+06         0.00000E+00
    0.47914E+06        -0.20127E+07         0.00000E+00
    0.00000E+00         0.00000E+00        -0.14791E+08
 
   -0.14742E+08         0.47002E+06         0.00000E+00
    0.47002E+06        -0.20196E+07         0.00000E+00
    0.00000E+00         0.00000E+00        -0.14729E+08
 
   -0.14681E+08         0.45984E+06         0.00000E+00
    0.45984E+06        -0.20270E+07         0.00000E+00
    0.00000E+00         0.00000E+00        -0.14666E+08
 
   -0.14620E+08         0.44856E+06         0.00000E+00
    0.44856E+06        -0.20352E+07         0.00000E+00
    0.00000E+00         0.00000E+00        -0.14604E+08
 
   -0.14559E+08         0.43612E+06         0.00000E+00
    0.43612E+06        -0.20440E+07         0.00000E+00
    0.00000E+00         0.00000E+00        -0.14541E+08
 
   -0.14498E+08         0.42251E+06         0.00000E+00
    0.42251E+06        -0.20533E+07         0.00000E+00
    0.00000E+00         0.00000E+00        -0.14479E+08
 
   -0.14438E+08         0.40770E+06         0.00000E+00
    0.40770E+06        -0.20632E+07         0.00000E+00
    0.00000E+00         0.00000E+00        -0.14416E+08
 
   -0.14377E+08         0.39167E+06         0.00000E+00
    0.39167E+06        -0.20735E+07         0.00000E+00
    0.00000E+00         0.00000E+00        -0.14354E+08
 
   -0.14316E+08         0.37442E+06         0.00000E+00
    0.37442E+06        -0.20839E+07         0.00000E+00
    0.00000E+00         0.00000E+00        -0.14291E+08
 
   -0.14255E+08         0.35594E+06         0.00000E+00
    0.35594E+06        -0.20941E+07         0.00000E+00
    0.00000E+00         0.00000E+00        -0.14228E+08
 
   -0.14194E+08         0.33621E+06         0.00000E+00
    0.33621E+06        -0.21037E+07         0.00000E+00
    0.00000E+00         0.00000E+00        -0.14165E+08
 
   -0.14132E+08         0.31517E+06         0.00000E+00
    0.31517E+06        -0.21119E+07         0.00000E+00
    0.00000E+00         0.00000E+00        -0.14101E+08
 
   -0.14069E+08         0.29269E+06         0.00000E+00
    0.29269E+06        -0.21179E+07         0.00000E+00
    0.00000E+00         0.00000E+00        -0.14036E+08
 
   -0.14005E+08         0.26853E+06         0.00000E+00
    0.26853E+06        -0.21206E+07         0.00000E+00
    0.00000E+00         0.00000E+00        -0.13970E+08
 
   -0.13941E+08         0.24222E+06         0.00000E+00
    0.24222E+06        -0.21186E+07         0.00000E+00
    0.00000E+00         0.00000E+00        -0.13902E+08
 
   -0.13876E+08         0.21296E+06         0.00000E+00
    0.21296E+06        -0.21102E+07         0.00000E+00
    0.00000E+00         0.00000E+00        -0.13832E+08
 
   -0.13812E+08         0.17949E+06         0.00000E+00
    0.17949E+06        -0.20935E+07         0.00000E+00
    0.00000E+00         0.00000E+00        -0.13760E+08
 
   -0.13748E+08         0.13962E+06         0.00000E+00
    0.13962E+06        -0.20661E+07         0.00000E+00
    0.00000E+00         0.00000E+00        -0.13684E+08
 
   -0.13691E+08         0.89883E+05         0.00000E+00
    0.89883E+05        -0.20239E+07         0.00000E+00
    0.00000E+00         0.00000E+00        -0.13606E+08
 
   -0.13654E+08         0.31020E+05         0.00000E+00
    0.31020E+05        -0.19653E+07         0.00000E+00
    0.00000E+00         0.00000E+00        -0.13529E+08
 
   -0.18685E+08         0.16843E+05         0.00000E+00
    0.16843E+05        -0.19520E+07         0.00000E+00
    0.00000E+00         0.00000E+00        -0.18777E+08
 
   -0.18667E+08         0.49643E+05         0.00000E+00
    0.49643E+05        -0.19177E+07         0.00000E+00
    0.00000E+00         0.00000E+00        -0.18733E+08
 
   -0.18637E+08         0.79032E+05         0.00000E+00
    0.79032E+05        -0.18922E+07         0.00000E+00
    0.00000E+00         0.00000E+00        -0.18689E+08
 
   -0.18603E+08         0.10383E+06         0.00000E+00
    0.10383E+06        -0.18754E+07         0.00000E+00
    0.00000E+00         0.00000E+00        -0.18646E+08
 
   -0.18567E+08         0.12523E+06         0.00000E+00
    0.12523E+06        -0.18651E+07         0.00000E+00
    0.00000E+00         0.00000E+00        -0.18604E+08
 
   -0.18530E+08         0.14440E+06         0.00000E+00
    0.14440E+06        -0.18598E+07         0.00000E+00
    0.00000E+00         0.00000E+00        -0.18563E+08
 
   -0.18493E+08         0.16198E+06         0.00000E+00
    0.16198E+06        -0.18582E+07         0.00000E+00
    0.00000E+00         0.00000E+00        -0.18524E+08
 
   -0.18456E+08         0.17840E+06         0.00000E+00
    0.17840E+06        -0.18594E+07         0.00000E+00
    0.00000E+00         0.00000E+00        -0.18485E+08
 
   -0.18419E+08         0.19393E+06         0.00000E+00
    0.19393E+06        -0.18624E+07         0.00000E+00
    0.00000E+00         0.00000E+00        -0.18447E+08
 
   -0.18383E+08         0.20870E+06         0.00000E+00
    0.20870E+06        -0.18668E+07         0.00000E+00
    0.00000E+00         0.00000E+00        -0.18409E+08
 
   -0.18346E+08         0.22279E+06         0.00000E+00
    0.22279E+06        -0.18719E+07         0.00000E+00
    0.00000E+00         0.00000E+00        -0.18371E+08
 
   -0.18309E+08         0.23623E+06         0.00000E+00
    0.23623E+06        -0.18773E+07         0.00000E+00
    0.00000E+00         0.00000E+00        -0.18333E+08
 
   -0.18273E+08         0.24904E+06         0.00000E+00
    0.24904E+06        -0.18829E+07         0.00000E+00
    0.00000E+00         0.00000E+00        -0.18295E+08
 
   -0.18236E+08         0.26124E+06         0.00000E+00
    0.26124E+06        -0.18883E+07         0.00000E+00
    0.00000E+00         0.00000E+00        -0.18257E+08
 
   -0.18198E+08         0.27283E+06         0.00000E+00
    0.27283E+06        -0.18935E+07         0.00000E+00
    0.00000E+00         0.00000E+00        -0.18219E+08
 
   -0.18161E+08         0.28382E+06         0.00000E+00
    0.28382E+06        -0.18983E+07         0.00000E+00
    0.00000E+00         0.00000E+00        -0.18180E+08
 
   -0.18123E+08         0.29424E+06         0.00000E+00
    0.29424E+06        -0.19028E+07         0.00000E+00
    0.00000E+00         0.00000E+00        -0.18141E+08
 
   -0.18084E+08         0.30410E+06         0.00000E+00
    0.30410E+06        -0.19070E+07         0.00000E+00
    0.00000E+00         0.00000E+00        -0.18102E+08
 
   -0.18045E+08         0.31344E+06         0.00000E+00
    0.31344E+06        -0.19107E+07         0.00000E+00
    0.00000E+00         0.00000E+00        -0.18062E+08
 
   -0.18006E+08         0.32227E+06         0.00000E+00
    0.32227E+06        -0.19141E+07         0.00000E+00
    0.00000E+00         0.00000E+00        -0.18022E+08
 
   -0.17966E+08         0.33064E+06         0.00000E+00
    0.33064E+06        -0.19172E+07         0.00000E+00
    0.00000E+00         0.00000E+00        -0.17981E+08
 
   -0.17926E+08         0.33857E+06         0.00000E+00
    0.33857E+06        -0.19199E+07         0.00000E+00
    0.00000E+00         0.00000E+00        -0.17940E+08
 
   -0.17885E+08         0.34609E+06         0.00000E+00
    0.34609E+06        -0.19224E+07         0.00000E+00
    0.00000E+00         0.00000E+00        -0.17899E+08
 
   -0.17844E+08         0.35325E+06         0.00000E+00
    0.35325E+06        -0.19246E+07         0.00000E+00
    0.00000E+00         0.00000E+00        -0.17857E+08
 
   -0.17802E+08         0.36007E+06         0.00000E+00
    0.36007E+06        -0.19265E+07         0.00000E+00
    0.00000E+00         0.00000E+00        -0.17815E+08
 
   -0.17760E+08         0.36657E+06         0.00000E+00
    0.36657E+06        -0.19283E+07         0.00000E+00
    0.00000E+00         0.00000E+00        -0.17772E+08
 
   -0.17717E+08         0.37280E+06         0.00000E+00
    0.37280E+06        -0.19298E+07         0.00000E+00
    0.00000E+00         0.00000E+00        -0.17729E+08
 
   -0.17674E+08         0.37876E+06         0.00000E+00
    0.37876E+06        -0.19312E+07         0.00000E+00
    0.00000E+00         0.00000E+00        -0.17685E+08
 
   -0.17631E+08         0.38450E+06         0.00000E+00
    0.38450E+06        -0.19325E+07         0.00000E+00
    0.00000E+00         0.00000E+00        -0.17641E+08
 
   -0.17587E+08         0.39003E+06         0.00000E+00
    0.39003E+06        -0.19336E+07         0.00000E+00
    0.00000E+00         0.00000E+00        -0.17597E+08
 
   -0.17542E+08         0.39538E+06         0.00000E+00
    0.39538E+06        -0.19346E+07         0.00000E+00
    0.00000E+00         0.00000E+00        -0.17552E+08
 
   -0.17497E+08         0.40055E+06         0.00000E+00
    0.40055E+06        -0.19355E+07         0.00000E+00
    0.00000E+00         0.00000E+00        -0.17507E+08
 
   -0.17452E+08         0.40557E+06         0.00000E+00
    0.40557E+06        -0.19364E+07         0.00000E+00
    0.00000E+00         0.00000E+00        -0.17461E+08
 
   -0.17406E+08         0.41045E+06         0.00000E+00
    0.41045E+06        -0.19371E+07         0.00000E+00
    0.00000E+00         0.00000E+00        -0.17415E+08
 
   -0.17360E+08         0.41521E+06         0.00000E+00
    0.41521E+06        -0.19378E+07         0.00000E+00
    0.00000E+00         0.00000E+00        -0.17369E+08
 
   -0.17313E+08         0.41985E+06         0.00000E+00
    0.41985E+06        -0.19384E+07         0.00000E+00
    0.00000E+00         0.00000E+00        -0.17322E+08
 
   -0.17266E+08         0.42439E+06         0.00000E+00
    0.42439E+06        -0.19390E+07         0.00000E+00
    0.00000E+00         0.00000E+00        -0.17275E+08
 
   -0.17219E+08         0.42883E+06         0.00000E+00
    0.42883E+06        -0.19395E+07         0.00000E+00
    0.00000E+00         0.00000E+00        -0.17227E+08
 
   -0.17171E+08         0.43318E+06         0.00000E+00
    0.43318E+06        -0.19401E+07         0.00000E+00
    0.00000E+00         0.00000E+00        -0.17179E+08
 
   -0.17122E+08         0.43745E+06         0.00000E+00
    0.43745E+06        -0.19405E+07         0.00000E+00
    0.00000E+00         0.00000E+00        -0.17130E+08
 
   -0.17073E+08         0.44164E+06         0.00000E+00
    0.44164E+06        -0.19410E+07         0.00000E+00
    0.00000E+00         0.00000E+00        -0.17081E+08
 
   -0.17024E+08         0.44575E+06         0.00000E+00
    0.44575E+06        -0.19414E+07         0.00000E+00
    0.00000E+00         0.00000E+00        -0.17032E+08
 
   -0.16974E+08         0.44979E+06         0.00000E+00
    0.44979E+06        -0.19418E+07         0.00000E+00
    0.00000E+00         0.00000E+00        -0.16982E+08
 
   -0.16924E+08         0.45375E+06         0.00000E+00
    0.45375E+06        -0.19423E+07         0.00000E+00
    0.00000E+00         0.00000E+00        -0.16932E+08
 
   -0.16874E+08         0.45764E+06         0.00000E+00
    0.45764E+06        -0.19427E+07         0.00000E+00
    0.00000E+00         0.00000E+00        -0.16881E+08
 
   -0.16822E+08         0.46146E+06         0.00000E+00
    0.46146E+06        -0.19431E+07         0.00000E+00
    0.00000E+00         0.00000E+00        -0.16830E+08
 
   -0.16771E+08         0.46520E+06         0.00000E+00
    0.46520E+06        -0.19435E+07         0.00000E+00
    0.00000E+00         0.00000E+00        -0.16778E+08
 
   -0.16719E+08         0.46886E+06         0.00000E+00
    0.46886E+06        -0.19440E+07         0.00000E+00
    0.00000E+00         0.00000E+00        -0.16726E+08
 
   -0.16667E+08         0.47245E+06         0.00000E+00
    0.47245E+06        -0.19444E+07         0.00000E+00
    0.00000E+00         0.00000E+00        -0.16674E+08
 
   -0.16614E+08         0.47595E+06         0.00000E+00
    0.47595E+06        -0.19449E+07         0.00000E+00
    0.00000E+00         0.00000E+00        -0.16621E+08
 
   -0.16561E+08         0.47936E+06         0.00000E+00
    0.47936E+06        -0.19454E+07         0.00000E+00
    0.00000E+00         0.00000E+00        -0.16567E+08
 
   -0.16507E+08         0.48267E+06         0.00000E+00
    0.48267E+06        -0.19459E+07         0.00000E+00
    0.00000E+00         0.00000E+00        -0.16513E+08
 
   -0.16453E+08         0.48588E+06         0.00000E+00
    0.48588E+06        -0.19465E+07         0.00000E+00
    0.00000E+00         0.00000E+00        -0.16459E+08
 
   -0.16398E+08         0.48898E+06         0.00000E+00
    0.48898E+06        -0.19471E+07         0.00000E+00
    0.00000E+00         0.00000E+00        -0.16404E+08
 
   -0.16343E+08         0.49197E+06         0.00000E+00
    0.49197E+06        -0.19477E+07         0.00000E+00
    0.00000E+00         0.00000E+00        -0.16349E+08
 
   -0.16288E+08         0.49482E+06         0.00000E+00
    0.49482E+06        -0.19484E+07         0.00000E+00
    0.00000E+00         0.00000E+00        -0.16294E+08
 
   -0.16232E+08         0.49754E+06         0.00000E+00
    0.49754E+06        -0.19492E+07         0.00000E+00
    0.00000E+00         0.00000E+00        -0.16238E+08
 
   -0.16176E+08         0.50011E+06         0.00000E+00
    0.50011E+06        -0.19500E+07         0.00000E+00
    0.00000E+00         0.00000E+00        -0.16181E+08
 
   -0.16120E+08         0.50251E+06         0.00000E+00
    0.50251E+06        -0.19509E+07         0.00000E+00
    0.00000E+00         0.00000E+00        -0.16124E+08
 
   -0.16063E+08         0.50474E+06         0.00000E+00
    0.50474E+06        -0.19518E+07         0.00000E+00
    0.00000E+00         0.00000E+00        -0.16067E+08
 
   -0.16005E+08         0.50678E+06         0.00000E+00
    0.50678E+06        -0.19529E+07         0.00000E+00
    0.00000E+00         0.00000E+00        -0.16009E+08
 
   -0.15948E+08         0.50860E+06         0.00000E+00
    0.50860E+06        -0.19540E+07         0.00000E+00
    0.00000E+00         0.00000E+00        -0.15951E+08
 
   -0.15890E+08         0.51020E+06         0.00000E+00
    0.51020E+06        -0.19552E+07         0.00000E+00
    0.00000E+00         0.00000E+00        -0.15893E+08
 
   -0.15831E+08         0.51156E+06         0.00000E+00
    0.51156E+06        -0.19565E+07         0.00000E+00
    0.00000E+00         0.00000E+00        -0.15834E+08
 
   -0.15773E+08         0.51265E+06         0.00000E+00
    0.51265E+06        -0.19580E+07         0.00000E+00
    0.00000E+00         0.00000E+00        -0.15775E+08
 
   -0.15714E+08         0.51344E+06         0.00000E+00
    0.51344E+06        -0.19595E+07         0.00000E+00
    0.00000E+00         0.00000E+00        -0.15715E+08
 
   -0.15655E+08         0.51392E+06         0.00000E+00
    0.51392E+06        -0.19612E+07         0.00000E+00
    0.00000E+00         0.00000E+00        -0.15656E+08
 
   -0.15595E+08         0.51406E+06         0.00000E+00
    0.51406E+06        -0.19631E+07         0.00000E+00
    0.00000E+00         0.00000E+00        -0.15595E+08
 
   -0.15535E+08         0.51382E+06         0.00000E+00
    0.51382E+06        -0.19651E+07         0.00000E+00
    0.00000E+00         0.00000E+00        -0.15535E+08
 
   -0.15475E+08         0.51317E+06         0.00000E+00
    0.51317E+06        -0.19673E+07         0.00000E+00
    0.00000E+00         0.00000E+00        -0.15474E+08
 
   -0.15415E+08         0.51209E+06         0.00000E+00
    0.51209E+06        -0.19697E+07         0.00000E+00
    0.00000E+00         0.00000E+00        -0.15413E+08
 
   -0.15355E+08         0.51052E+06         0.00000E+00
    0.51052E+06        -0.19723E+07         0.00000E+00
    0.00000E+00         0.00000E+00        -0.15352E+08
 
   -0.15294E+08         0.50842E+06         0.00000E+00
    0.50842E+06        -0.19752E+07         0.00000E+00
    0.00000E+00         0.00000E+00        -0.15290E+08
 
   -0.15233E+08         0.50576E+06         0.00000E+00
    0.50576E+06        -0.19783E+07         0.00000E+00
    0.00000E+00         0.00000E+00        -0.15228E+08
 
   -0.15172E+08         0.50249E+06         0.00000E+00
    0.50249E+06        -0.19818E+07         0.00000E+00
    0.00000E+00         0.00000E+00        -0.15166E+08
 
   -0.15112E+08         0.49855E+06         0.00000E+00
    0.49855E+06        -0.19856E+07         0.00000E+00
    0.00000E+00         0.00000E+00        -0.15104E+08
 
   -0.15051E+08         0.49389E+06         0.00000E+00
    0.49389E+06        -0.19897E+07         0.00000E+00
    0.00000E+00         0.00000E+00        -0.15042E+08
 
   -0.14990E+08         0.48846E+06         0.00000E+00
    0.48846E+06        -0.19943E+07         0.00000E+00
    0.00000E+00         0.00000E+00        -0.14979E+08
 
   -0.14929E+08         0.48220E+06         0.00000E+00
    0.48220E+06        -0.19994E+07         0.00000E+00
    0.00000E+00         0.00000E+00        -0.14917E+08
 
   -0.14868E+08         0.47505E+06         0.00000E+00
    0.47505E+06        -0.20049E+07         0.00000E+00
    0.00000E+00         0.00000E+00        -0.14854E+08
 
   -0.14807E+08         0.46695E+06         0.00000E+00
    0.46695E+06        -0.20110E+07         0.00000E+00
    0.00000E+00         0.00000E+00        -0.14792E+08
 
   -0.14747E+08         0.45785E+06         0.00000E+00
    0.45785E+06        -0.20176E+07         0.00000E+00
    0.00000E+00         0.00000E+00        -0.14729E+08
 
   -0.14686E+08         0.44770E+06         0.00000E+00
    0.44770E+06        -0.20249E+07         0.00000E+00
    0.00000E+00         0.00000E+00        -0.14667E+08
 
   -0.14626E+08         0.43643E+06         0.00000E+00
    0.43643E+06        -0.20328E+07         0.00000E+00
    0.00000E+00         0.00000E+00        -0.14604E+08
 
   -0.14565E+08         0.42402E+06         0.00000E+00
    0.42402E+06        -0.20413E+07         0.00000E+00
    0.00000E+00         0.00000E+00        -0.14542E+08
 
   -0.14505E+08         0.41043E+06         0.00000E+00
    0.41043E+06        -0.20505E+07         0.00000E+00
    0.00000E+00         0.00000E+00        -0.14480E+08
 
   -0.14445E+08         0.39562E+06         0.00000E+00
    0.39562E+06        -0.20601E+07         0.00000E+00
    0.00000E+00         0.00000E+00        -0.14417E+08
 
   -0.14385E+08         0.37958E+06         0.00000E+00
    0.37958E+06        -0.20702E+07         0.00000E+00
    0.00000E+00         0.00000E+00        -0.14355E+08
 
   -0.14325E+08         0.36230E+06         0.00000E+00
    0.36230E+06        -0.20803E+07         0.00000E+00
    0.00000E+00         0.00000E+00        -0.14293E+08
 
   -0.14264E+08         0.34376E+06         0.00000E+00
    0.34376E+06        -0.20903E+07         0.00000E+00
    0.00000E+00         0.00000E+00        -0.14230E+08
 
   -0.14204E+08         0.32394E+06         0.00000E+00
    0.32394E+06        -0.20996E+07         0.00000E+00
    0.00000E+00         0.00000E+00        -0.14167E+08
 
   -0.14142E+08         0.30279E+06         0.00000E+00
    0.30279E+06        -0.21076E+07         0.00000E+00
    0.00000E+00         0.00000E+00        -0.14103E+08
 
   -0.14081E+08         0.28017E+06         0.00000E+00
    0.28017E+06        -0.21133E+07         0.00000E+00
    0.00000E+00         0.00000E+00        -0.14039E+08
 
   -0.14018E+08         0.25587E+06         0.00000E+00
    0.25587E+06        -0.21156E+07         0.00000E+00
    0.00000E+00         0.00000E+00        -0.13973E+08
 
   -0.13955E+08         0.22945E+06         0.00000E+00
    0.22945E+06        -0.21131E+07         0.00000E+00
    0.00000E+00         0.00000E+00        -0.13905E+08
 
   -0.13893E+08         0.20017E+06         0.00000E+00
    0.20017E+06        -0.21040E+07         0.00000E+00
    0.00000E+00         0.00000E+00        -0.13835E+08
 
   -0.13830E+08         0.16692E+06         0.00000E+00
    0.16692E+06        -0.20863E+07         0.00000E+00
    0.00000E+00         0.00000E+00        -0.13763E+08
 
   -0.13771E+08         0.12772E+06         0.00000E+00
    0.12772E+06        -0.20573E+07         0.00000E+00
    0.00000E+00         0.00000E+00        -0.13689E+08
 
   -0.13720E+08         0.80503E+05         0.00000E+00
    0.80503E+05        -0.20132E+07         0.00000E+00
    0.00000E+00         0.00000E+00        -0.13612E+08
 
   -0.13689E+08         0.27349E+05         0.00000E+00
    0.27349E+05        -0.19538E+07         0.00000E+00
    0.00000E+00         0.00000E+00        -0.13537E+08
 
   -0.18665E+08         0.15089E+05         0.00000E+00
    0.15089E+05        -0.19584E+07         0.00000E+00
    0.00000E+00         0.00000E+00        -0.18773E+08
 
   -0.18650E+08         0.44938E+05         0.00000E+00
    0.44938E+05        -0.19238E+07         0.00000E+00
    0.00000E+00         0.00000E+00        -0.18730E+08
 
   -0.18623E+08         0.72685E+05         0.00000E+00
    0.72685E+05        -0.18975E+07         0.00000E+00
    0.00000E+00         0.00000E+00        -0.18686E+08
 
   -0.18591E+08         0.96863E+05         0.00000E+00
    0.96863E+05        -0.18800E+07         0.00000E+00
    0.00000E+00         0.00000E+00        -0.18643E+08
 
   -0.18556E+08         0.11802E+06         0.00000E+00
    0.11802E+06        -0.18691E+07         0.00000E+00
    0.00000E+00         0.00000E+00        -0.18602E+08
 
   -0.18520E+08         0.13709E+06         0.00000E+00
    0.13709E+06        -0.18634E+07         0.00000E+00
    0.00000E+00         0.00000E+00        -0.18561E+08
 
   -0.18484E+08         0.15466E+06         0.00000E+00
    0.15466E+06        -0.18616E+07         0.00000E+00
    0.00000E+00         0.00000E+00        -0.18522E+08
 
   -0.18448E+08         0.17110E+06         0.00000E+00
    0.17110E+06        -0.18626E+07         0.00000E+00
    0.00000E+00         0.00000E+00        -0.18483E+08
 
   -0.18412E+08         0.18665E+06         0.00000E+00
    0.18665E+06        -0.18655E+07         0.00000E+00
    0.00000E+00         0.00000E+00        -0.18445E+08
 
   -0.18375E+08         0.20143E+06         0.00000E+00
    0.20143E+06        -0.18697E+07         0.00000E+00
    0.00000E+00         0.00000E+00        -0.18407E+08
 
   -0.18339E+08         0.21551E+06         0.00000E+00
    0.21551E+06        -0.18746E+07         0.00000E+00
    0.00000E+00         0.00000E+00        -0.18370E+08
 
   -0.18303E+08         0.22893E+06         0.00000E+00
    0.22893E+06        -0.18800E+07         0.00000E+00
    0.00000E+00         0.00000E+00        -0.18332E+08
 
   -0.18267E+08         0.24170E+06         0.00000E+00
    0.24170E+06        -0.18854E+07         0.00000E+00
    0.00000E+00         0.00000E+00        -0.18294E+08
 
   -0.18230E+08         0.25385E+06         0.00000E+00
    0.25385E+06        -0.18907E+07         0.00000E+00
    0.00000E+00         0.00000E+00        -0.18256E+08
 
   -0.18193E+08         0.26537E+06         0.00000E+00
    0.26537E+06        -0.18957E+07         0.00000E+00
    0.00000E+00         0.00000E+00        -0.18218E+08
 
   -0.18156E+08         0.27628E+06         0.00000E+00
    0.27628E+06        -0.19005E+07         0.00000E+00
    0.00000E+00         0.00000E+00        -0.18179E+08
 
   -0.18118E+08         0.28662E+06         0.00000E+00
    0.28662E+06        -0.19049E+07         0.00000E+00
    0.00000E+00         0.00000E+00        -0.18140E+08
 
   -0.18080E+08         0.29639E+06         0.00000E+00
    0.29639E+06        -0.19089E+07         0.00000E+00
    0.00000E+00         0.00000E+00        -0.18101E+08
 
   -0.18041E+08         0.30563E+06         0.00000E+00
    0.30563E+06        -0.19125E+07         0.00000E+00
    0.00000E+00         0.00000E+00        -0.18061E+08
 
   -0.18002E+08         0.31437E+06         0.00000E+00
    0.31437E+06        -0.19158E+07         0.00000E+00
    0.00000E+00         0.00000E+00        -0.18021E+08
 
   -0.17962E+08         0.32264E+06         0.00000E+00
    0.32264E+06        -0.19188E+07         0.00000E+00
    0.00000E+00         0.00000E+00        -0.17981E+08
 
   -0.17922E+08         0.33048E+06         0.00000E+00
    0.33048E+06        -0.19215E+07         0.00000E+00
    0.00000E+00         0.00000E+00        -0.17940E+08
 
   -0.17882E+08         0.33791E+06         0.00000E+00
    0.33791E+06        -0.19238E+07         0.00000E+00
    0.00000E+00         0.00000E+00        -0.17898E+08
 
   -0.17840E+08         0.34497E+06         0.00000E+00
    0.34497E+06        -0.19260E+07         0.00000E+00
    0.00000E+00         0.00000E+00        -0.17856E+08
 
   -0.17799E+08         0.35169E+06         0.00000E+00
    0.35169E+06        -0.19278E+07         0.00000E+00
    0.00000E+00         0.00000E+00        -0.17814E+08
 
   -0.17757E+08         0.35810E+06         0.00000E+00
    0.35810E+06        -0.19295E+07         0.00000E+00
    0.00000E+00         0.00000E+00        -0.17771E+08
 
   -0.17714E+08         0.36423E+06         0.00000E+00
    0.36423E+06        -0.19310E+07         0.00000E+00
    0.00000E+00         0.00000E+00        -0.17728E+08
 
   -0.17671E+08         0.37011E+06         0.00000E+00
    0.37011E+06        -0.19324E+07         0.00000E+00
    0.00000E+00         0.00000E+00        -0.17685E+08
 
   -0.17628E+08         0.37576E+06         0.00000E+00
    0.37576E+06        -0.19336E+07         0.00000E+00
    0.00000E+00         0.00000E+00        -0.17641E+08
 
   -0.17584E+08         0.38120E+06         0.00000E+00
    0.38120E+06        -0.19347E+07         0.00000E+00
    0.00000E+00         0.00000E+00        -0.17596E+08
 
   -0.17540E+08         0.38645E+06         0.00000E+00
    0.38645E+06        -0.19357E+07         0.00000E+00
    0.00000E+00         0.00000E+00        -0.17552E+08
 
   -0.17495E+08         0.39154E+06         0.00000E+00
    0.39154E+06        -0.19366E+07         0.00000E+00
    0.00000E+00         0.00000E+00        -0.17506E+08
 
   -0.17449E+08         0.39647E+06         0.00000E+00
    0.39647E+06        -0.19374E+07         0.00000E+00
    0.00000E+00         0.00000E+00        -0.17461E+08
 
   -0.17404E+08         0.40126E+06         0.00000E+00
    0.40126E+06        -0.19381E+07         0.00000E+00
    0.00000E+00         0.00000E+00        -0.17415E+08
 
   -0.17358E+08         0.40593E+06         0.00000E+00
    0.40593E+06        -0.19387E+07         0.00000E+00
    0.00000E+00         0.00000E+00        -0.17368E+08
 
   -0.17311E+08         0.41048E+06         0.00000E+00
    0.41048E+06        -0.19393E+07         0.00000E+00
    0.00000E+00         0.00000E+00        -0.17322E+08
 
   -0.17264E+08         0.41493E+06         0.00000E+00
    0.41493E+06        -0.19399E+07         0.00000E+00
    0.00000E+00         0.00000E+00        -0.17274E+08
 
   -0.17216E+08         0.41929E+06         0.00000E+00
    0.41929E+06        -0.19404E+07         0.00000E+00
    0.00000E+00         0.00000E+00        -0.17227E+08
 
   -0.17168E+08         0.42355E+06         0.00000E+00
    0.42355E+06        -0.19409E+07         0.00000E+00
    0.00000E+00         0.00000E+00        -0.17179E+08
 
   -0.17120E+08         0.42773E+06         0.00000E+00
    0.42773E+06        -0.19414E+07         0.00000E+00
    0.00000E+00         0.00000E+00        -0.17130E+08
 
   -0.17071E+08         0.43183E+06         0.00000E+00
    0.43183E+06        -0.19418E+07         0.00000E+00
    0.00000E+00         0.00000E+00        -0.17081E+08
 
   -0.17022E+08         0.43585E+06         0.00000E+00
    0.43585E+06        -0.19422E+07         0.00000E+00
    0.00000E+00         0.00000E+00        -0.17032E+08
 
   -0.16972E+08         0.43980E+06         0.00000E+00
    0.43980E+06        -0.19426E+07         0.00000E+00
    0.00000E+00         0.00000E+00        -0.16982E+08
 
   -0.16922E+08         0.44367E+06         0.00000E+00
    0.44367E+06        -0.19430E+07         0.00000E+00
    0.00000E+00         0.00000E+00        -0.16931E+08
 
   -0.16872E+08         0.44748E+06         0.00000E+00
    0.44748E+06        -0.19434E+07         0.00000E+00
    0.00000E+00         0.00000E+00        -0.16881E+08
 
   -0.16821E+08         0.45121E+06         0.00000E+00
    0.45121E+06        -0.19438E+07         0.00000E+00
    0.00000E+00         0.00000E+00        -0.16829E+08
 
   -0.16769E+08         0.45486E+06         0.00000E+00
    0.45486E+06        -0.19442E+07         0.00000E+00
    0.00000E+00         0.00000E+00        -0.16778E+08
 
   -0.16717E+08         0.45844E+06         0.00000E+00
    0.45844E+06        -0.19447E+07         0.00000E+00
    0.00000E+00         0.00000E+00        -0.16726E+08
 
   -0.16665E+08         0.46193E+06         0.00000E+00
    0.46193E+06        -0.19451E+07         0.00000E+00
    0.00000E+00         0.00000E+00        -0.16673E+08
 
   -0.16612E+08         0.46535E+06         0.00000E+00
    0.46535E+06        -0.19456E+07         0.00000E+00
    0.00000E+00         0.00000E+00        -0.16620E+08
 
   -0.16559E+08         0.46867E+06         0.00000E+00
    0.46867E+06        -0.19461E+07         0.00000E+00
    0.00000E+00         0.00000E+00        -0.16567E+08
 
   -0.16505E+08         0.47190E+06         0.00000E+00
    0.47190E+06        -0.19466E+07         0.00000E+00
    0.00000E+00         0.00000E+00        -0.16513E+08
 
   -0.16451E+08         0.47503E+06         0.00000E+00
    0.47503E+06        -0.19471E+07         0.00000E+00
    0.00000E+00         0.00000E+00        -0.16459E+08
 
   -0.16397E+08         0.47804E+06         0.00000E+00
    0.47804E+06        -0.19477E+07         0.00000E+00
    0.00000E+00         0.00000E+00        -0.16404E+08
 
   -0.16342E+08         0.48095E+06         0.00000E+00
    0.48095E+06        -0.19483E+07         0.00000E+00
    0.00000E+00         0.00000E+00        -0.16349E+08
 
   -0.16287E+08         0.48372E+06         0.00000E+00
    0.48372E+06        -0.19490E+07         0.00000E+00
    0.00000E+00         0.00000E+00        -0.16293E+08
 
   -0.16231E+08         0.48636E+06         0.00000E+00
    0.48636E+06        -0.19497E+07         0.00000E+00
    0.00000E+00         0.00000E+00        -0.16237E+08
 
   -0.16175E+08         0.48885E+06         0.00000E+00
    0.48885E+06        -0.19505E+07         0.00000E+00
    0.00000E+00         0.00000E+00        -0.16181E+08
 
   -0.16118E+08         0.49117E+06         0.00000E+00
    0.49117E+06        -0.19514E+07         0.00000E+00
    0.00000E+00         0.00000E+00        -0.16124E+08
 
   -0.16062E+08         0.49333E+06         0.00000E+00
    0.49333E+06        -0.19523E+07         0.00000E+00
    0.00000E+00         0.00000E+00        -0.16067E+08
 
   -0.16004E+08         0.49529E+06         0.00000E+00
    0.49529E+06        -0.19533E+07         0.00000E+00
    0.00000E+00         0.00000E+00        -0.16009E+08
 
   -0.15947E+08         0.49705E+06         0.00000E+00
    0.49705E+06        -0.19543E+07         0.00000E+00
    0.00000E+00         0.00000E+00        -0.15951E+08
 
   -0.15889E+08         0.49858E+06         0.00000E+00
    0.49858E+06        -0.19555E+07         0.00000E+00
    0.00000E+00         0.00000E+00        -0.15893E+08
 
   -0.15831E+08         0.49987E+06         0.00000E+00
    0.49987E+06        -0.19568E+07         0.00000E+00
    0.00000E+00         0.00000E+00        -0.15834E+08
 
   -0.15772E+08         0.50090E+06         0.00000E+00
    0.50090E+06        -0.19582E+07         0.00000E+00
    0.00000E+00         0.00000E+00        -0.15775E+08
 
   -0.15713E+08         0.50164E+06         0.00000E+00
    0.50164E+06        -0.19597E+07         0.00000E+00
    0.00000E+00         0.00000E+00        -0.15715E+08
 
   -0.15654E+08         0.50206E+06         0.00000E+00
    0.50206E+06        -0.19613E+07         0.00000E+00
    0.00000E+00         0.00000E+00        -0.15655E+08
 
   -0.15595E+08         0.50214E+06         0.00000E+00
    0.50214E+06        -0.19631E+07         0.00000E+00
    0.00000E+00         0.00000E+00        -0.15595E+08
 
   -0.15535E+08         0.50186E+06         0.00000E+00
    0.50186E+06        -0.19650E+07         0.00000E+00
    0.00000E+00         0.00000E+00        -0.15535E+08
 
   -0.15475E+08         0.50117E+06         0.00000E+00
    0.50117E+06        -0.19671E+07         0.00000E+00
    0.00000E+00         0.00000E+00        -0.15474E+08
 
   -0.15415E+08         0.50004E+06         0.00000E+00
    0.50004E+06        -0.19694E+07         0.00000E+00
    0.00000E+00         0.00000E+00        -0.15413E+08
 
   -0.15355E+08         0.49844E+06         0.00000E+00
    0.49844E+06        -0.19720E+07         0.00000E+00
    0.00000E+00         0.00000E+00        -0.15352E+08
 
   -0.15295E+08         0.49632E+06         0.00000E+00
    0.49632E+06        -0.19747E+07         0.00000E+00
    0.00000E+00         0.00000E+00        -0.15290E+08
 
   -0.15235E+08         0.49364E+06         0.00000E+00
    0.49364E+06        -0.19778E+07         0.00000E+00
    0.00000E+00         0.00000E+00        -0.15228E+08
 
   -0.15174E+08         0.49035E+06         0.00000E+00
    0.49035E+06        -0.19811E+07         0.00000E+00
    0.00000E+00         0.00000E+00        -0.15167E+08
 
   -0.15113E+08         0.48640E+06         0.00000E+00
    0.48640E+06        -0.19847E+07         0.00000E+00
    0.00000E+00         0.00000E+00        -0.15104E+08
 
   -0.15053E+08         0.48174E+06         0.00000E+00
    0.48174E+06        -0.19887E+07         0.00000E+00
    0.00000E+00         0.00000E+00        -0.15042E+08
 
   -0.14992E+08         0.47632E+06         0.00000E+00
    0.47632E+06        -0.19932E+07         0.00000E+00
    0.00000E+00         0.00000E+00        -0.14980E+08
 
   -0.14932E+08         0.47007E+06         0.00000E+00
    0.47007E+06        -0.19980E+07         0.00000E+00
    0.00000E+00         0.00000E+00        -0.14917E+08
 
   -0.14871E+08         0.46293E+06         0.00000E+00
    0.46293E+06        -0.20034E+07         0.00000E+00
    0.00000E+00         0.00000E+00        -0.14855E+08
 
   -0.14811E+08         0.45486E+06         0.00000E+00
    0.45486E+06        -0.20093E+07         0.00000E+00
    0.00000E+00         0.00000E+00        -0.14793E+08
 
   -0.14751E+08         0.44579E+06         0.00000E+00
    0.44579E+06        -0.20157E+07         0.00000E+00
    0.00000E+00         0.00000E+00        -0.14730E+08
 
   -0.14691E+08         0.43566E+06         0.00000E+00
    0.43566E+06        -0.20228E+07         0.00000E+00
    0.00000E+00         0.00000E+00        -0.14668E+08
 
   -0.14631E+08         0.42442E+06         0.00000E+00
    0.42442E+06        -0.20304E+07         0.00000E+00
    0.00000E+00         0.00000E+00        -0.14605E+08
 
   -0.14571E+08         0.41204E+06         0.00000E+00
    0.41204E+06        -0.20388E+07         0.00000E+00
    0.00000E+00         0.00000E+00        -0.14543E+08
 
   -0.14512E+08         0.39846E+06         0.00000E+00
    0.39846E+06        -0.20476E+07         0.00000E+00
    0.00000E+00         0.00000E+00        -0.14481E+08
 
   -0.14452E+08         0.38366E+06         0.00000E+00
    0.38366E+06        -0.20571E+07         0.00000E+00
    0.00000E+00         0.00000E+00        -0.14419E+08
 
   -0.14393E+08         0.36761E+06         0.00000E+00
    0.36761E+06        -0.20668E+07         0.00000E+00
    0.00000E+00         0.00000E+00        -0.14357E+08
 
   -0.14333E+08         0.35030E+06         0.00000E+00
    0.35030E+06        -0.20768E+07         0.00000E+00
    0.00000E+00         0.00000E+00        -0.14294E+08
 
   -0.14274E+08         0.33172E+06         0.00000E+00
    0.33172E+06        -0.20865E+07         0.00000E+00
    0.00000E+00         0.00000E+00        -0.14232E+08
 
   -0.14214E+08         0.31182E+06         0.00000E+00
    0.31182E+06        -0.20955E+07         0.00000E+00
    0.00000E+00         0.00000E+00        -0.14169E+08
 
   -0.14153E+08         0.29057E+06         0.00000E+00
    0.29057E+06        -0.21032E+07         0.00000E+00
    0.00000E+00         0.00000E+00        -0.14105E+08
 
   -0.14093E+08         0.26786E+06         0.00000E+00
    0.26786E+06        -0.21086E+07         0.00000E+00
    0.00000E+00         0.00000E+00        -0.14041E+08
 
   -0.14031E+08         0.24346E+06         0.00000E+00
    0.24346E+06        -0.21105E+07         0.00000E+00
    0.00000E+00         0.00000E+00        -0.13975E+08
 
   -0.13970E+08         0.21700E+06         0.00000E+00
    0.21700E+06        -0.21076E+07         0.00000E+00
    0.00000E+00         0.00000E+00        -0.13908E+08
 
   -0.13909E+08         0.18784E+06         0.00000E+00
    0.18784E+06        -0.20978E+07         0.00000E+00
    0.00000E+00         0.00000E+00        -0.13838E+08
 
   -0.13850E+08         0.15497E+06         0.00000E+00
    0.15497E+06        -0.20792E+07         0.00000E+00
    0.00000E+00         0.00000E+00        -0.13767E+08
 
   -0.13794E+08         0.11680E+06         0.00000E+00
    0.11680E+06        -0.20488E+07         0.00000E+00
    0.00000E+00         0.00000E+00        -0.13693E+08
 
   -0.13748E+08         0.72400E+05         0.00000E+00
    0.72400E+05        -0.20034E+07         0.00000E+00
    0.00000E+00         0.00000E+00        -0.13618E+08
 
   -0.13722E+08         0.24327E+05         0.00000E+00
    0.24327E+05        -0.19435E+07         0.00000E+00
    0.00000E+00         0.00000E+00        -0.13543E+08
 
   -0.18646E+08         0.13601E+05         0.00000E+00
    0.13601E+05        -0.19641E+07         0.00000E+00
    0.00000E+00         0.00000E+00        -0.18769E+08
 
   -0.18633E+08         0.40810E+05         0.00000E+00
    0.40810E+05        -0.19294E+07         0.00000E+00
    0.00000E+00         0.00000E+00        -0.18726E+08
 
   -0.18609E+08         0.66856E+05         0.00000E+00
    0.66856E+05        -0.19026E+07         0.00000E+00
    0.00000E+00         0.00000E+00        -0.18683E+08
 
   -0.18578E+08         0.90250E+05         0.00000E+00
    0.90250E+05        -0.18844E+07         0.00000E+00
    0.00000E+00         0.00000E+00        -0.18641E+08
 
   -0.18545E+08         0.11106E+06         0.00000E+00
    0.11106E+06        -0.18731E+07         0.00000E+00
    0.00000E+00         0.00000E+00        -0.18600E+08
 
   -0.18511E+08         0.12997E+06         0.00000E+00
    0.12997E+06        -0.18671E+07         0.00000E+00
    0.00000E+00         0.00000E+00        -0.18560E+08
 
   -0.18475E+08         0.14748E+06         0.00000E+00
    0.14748E+06        -0.18650E+07         0.00000E+00
    0.00000E+00         0.00000E+00        -0.18520E+08
 
   -0.18440E+08         0.16391E+06         0.00000E+00
    0.16391E+06        -0.18657E+07         0.00000E+00
    0.00000E+00         0.00000E+00        -0.18482E+08
 
   -0.18404E+08         0.17946E+06         0.00000E+00
    0.17946E+06        -0.18685E+07         0.00000E+00
    0.00000E+00         0.00000E+00        -0.18444E+08
 
   -0.18368E+08         0.19424E+06         0.00000E+00
    0.19424E+06        -0.18726E+07         0.00000E+00
    0.00000E+00         0.00000E+00        -0.18406E+08
 
   -0.18333E+08         0.20831E+06         0.00000E+00
    0.20831E+06        -0.18774E+07         0.00000E+00
    0.00000E+00         0.00000E+00        -0.18369E+08
 
   -0.18297E+08         0.22170E+06         0.00000E+00
    0.22170E+06        -0.18826E+07         0.00000E+00
    0.00000E+00         0.00000E+00        -0.18331E+08
 
   -0.18261E+08         0.23443E+06         0.00000E+00
    0.23443E+06        -0.18878E+07         0.00000E+00
    0.00000E+00         0.00000E+00        -0.18293E+08
 
   -0.18224E+08         0.24651E+06         0.00000E+00
    0.24651E+06        -0.18930E+07         0.00000E+00
    0.00000E+00         0.00000E+00        -0.18255E+08
 
   -0.18188E+08         0.25797E+06         0.00000E+00
    0.25797E+06        -0.18980E+07         0.00000E+00
    0.00000E+00         0.00000E+00        -0.18217E+08
 
   -0.18151E+08         0.26880E+06         0.00000E+00
    0.26880E+06        -0.19026E+07         0.00000E+00
    0.00000E+00         0.00000E+00        -0.18179E+08
 
   -0.18113E+08         0.27905E+06         0.00000E+00
    0.27905E+06        -0.19069E+07         0.00000E+00
    0.00000E+00         0.00000E+00        -0.18140E+08
 
   -0.18075E+08         0.28873E+06         0.00000E+00
    0.28873E+06        -0.19108E+07         0.00000E+00
    0.00000E+00         0.00000E+00        -0.18100E+08
 
   -0.18037E+08         0.29788E+06         0.00000E+00
    0.29788E+06        -0.19143E+07         0.00000E+00
    0.00000E+00         0.00000E+00        -0.18061E+08
 
   -0.17998E+08         0.30652E+06         0.00000E+00
    0.30652E+06        -0.19175E+07         0.00000E+00
    0.00000E+00         0.00000E+00        -0.18020E+08
 
   -0.17958E+08         0.31469E+06         0.00000E+00
    0.31469E+06        -0.19204E+07         0.00000E+00
    0.00000E+00         0.00000E+00        -0.17980E+08
 
   -0.17918E+08         0.32242E+06         0.00000E+00
    0.32242E+06        -0.19230E+07         0.00000E+00
    0.00000E+00         0.00000E+00        -0.17939E+08
 
   -0.17878E+08         0.32975E+06         0.00000E+00
    0.32975E+06        -0.19253E+07         0.00000E+00
    0.00000E+00         0.00000E+00        -0.17897E+08
 
   -0.17837E+08         0.33672E+06         0.00000E+00
    0.33672E+06        -0.19273E+07         0.00000E+00
    0.00000E+00         0.00000E+00        -0.17856E+08
 
   -0.17796E+08         0.34334E+06         0.00000E+00
    0.34334E+06        -0.19291E+07         0.00000E+00
    0.00000E+00         0.00000E+00        -0.17813E+08
 
   -0.17754E+08         0.34966E+06         0.00000E+00
    0.34966E+06        -0.19308E+07         0.00000E+00
    0.00000E+00         0.00000E+00        -0.17771E+08
 
   -0.17711E+08         0.35569E+06         0.00000E+00
    0.35569E+06        -0.19322E+07         0.00000E+00
    0.00000E+00         0.00000E+00        -0.17728E+08
 
   -0.17668E+08         0.36148E+06         0.00000E+00
    0.36148E+06        -0.19335E+07         0.00000E+00
    0.00000E+00         0.00000E+00        -0.17684E+08
 
   -0.17625E+08         0.36703E+06         0.00000E+00
    0.36703E+06        -0.19347E+07         0.00000E+00
    0.00000E+00         0.00000E+00        -0.17640E+08
 
   -0.17581E+08         0.37238E+06         0.00000E+00
    0.37238E+06        -0.19358E+07         0.00000E+00
    0.00000E+00         0.00000E+00        -0.17596E+08
 
   -0.17537E+08         0.37754E+06         0.00000E+00
    0.37754E+06        -0.19367E+07         0.00000E+00
    0.00000E+00         0.00000E+00        -0.17551E+08
 
   -0.17492E+08         0.38253E+06         0.00000E+00
    0.38253E+06        -0.19375E+07         0.00000E+00
    0.00000E+00         0.00000E+00        -0.17506E+08
 
   -0.17447E+08         0.38738E+06         0.00000E+00
    0.38738E+06        -0.19383E+07         0.00000E+00
    0.00000E+00         0.00000E+00        -0.17460E+08
 
   -0.17401E+08         0.39208E+06         0.00000E+00
    0.39208E+06        -0.19390E+07         0.00000E+00
    0.00000E+00         0.00000E+00        -0.17414E+08
 
   -0.17355E+08         0.39666E+06         0.00000E+00
    0.39666E+06        -0.19397E+07         0.00000E+00
    0.00000E+00         0.00000E+00        -0.17368E+08
 
   -0.17309E+08         0.40112E+06         0.00000E+00
    0.40112E+06        -0.19402E+07         0.00000E+00
    0.00000E+00         0.00000E+00        -0.17321E+08
 
   -0.17262E+08         0.40548E+06         0.00000E+00
    0.40548E+06        -0.19408E+07         0.00000E+00
    0.00000E+00         0.00000E+00        -0.17274E+08
 
   -0.17214E+08         0.40975E+06         0.00000E+00
    0.40975E+06        -0.19413E+07         0.00000E+00
    0.00000E+00         0.00000E+00        -0.17226E+08
 
   -0.17166E+08         0.41392E+06         0.00000E+00
    0.41392E+06        -0.19417E+07         0.00000E+00
    0.00000E+00         0.00000E+00        -0.17178E+08
 
   -0.17118E+08         0.41801E+06         0.00000E+00
    0.41801E+06        -0.19422E+07         0.00000E+00
    0.00000E+00         0.00000E+00        -0.17130E+08
 
   -0.17069E+08         0.42202E+06         0.00000E+00
    0.42202E+06        -0.19426E+07         0.00000E+00
    0.00000E+00         0.00000E+00        -0.17081E+08
 
   -0.17020E+08         0.42596E+06         0.00000E+00
    0.42596E+06        -0.19430E+07         0.00000E+00
    0.00000E+00         0.00000E+00        -0.17031E+08
 
   -0.16970E+08         0.42982E+06         0.00000E+00
    0.42982E+06        -0.19434E+07         0.00000E+00
    0.00000E+00         0.00000E+00        -0.16981E+08
 
   -0.16920E+08         0.43360E+06         0.00000E+00
    0.43360E+06        -0.19438E+07         0.00000E+00
    0.00000E+00         0.00000E+00        -0.16931E+08
 
   -0.16870E+08         0.43732E+06         0.00000E+00
    0.43732E+06        -0.19442E+07         0.00000E+00
    0.00000E+00         0.00000E+00        -0.16880E+08
 
   -0.16819E+08         0.44096E+06         0.00000E+00
    0.44096E+06        -0.19446E+07         0.00000E+00
    0.00000E+00         0.00000E+00        -0.16829E+08
 
   -0.16767E+08         0.44453E+06         0.00000E+00
    0.44453E+06        -0.19450E+07         0.00000E+00
    0.00000E+00         0.00000E+00        -0.16778E+08
 
   -0.16715E+08         0.44802E+06         0.00000E+00
    0.44802E+06        -0.19454E+07         0.00000E+00
    0.00000E+00         0.00000E+00        -0.16725E+08
 
   -0.16663E+08         0.45143E+06         0.00000E+00
    0.45143E+06        -0.19458E+07         0.00000E+00
    0.00000E+00         0.00000E+00        -0.16673E+08
 
   -0.16610E+08         0.45475E+06         0.00000E+00
    0.45475E+06        -0.19462E+07         0.00000E+00
    0.00000E+00         0.00000E+00        -0.16620E+08
 
   -0.16557E+08         0.45799E+06         0.00000E+00
    0.45799E+06        -0.19467E+07         0.00000E+00
    0.00000E+00         0.00000E+00        -0.16567E+08
 
   -0.16504E+08         0.46114E+06         0.00000E+00
    0.46114E+06        -0.19472E+07         0.00000E+00
    0.00000E+00         0.00000E+00        -0.16513E+08
 
   -0.16450E+08         0.46418E+06         0.00000E+00
    0.46418E+06        -0.19477E+07         0.00000E+00
    0.00000E+00         0.00000E+00        -0.16458E+08
 
   -0.16395E+08         0.46712E+06         0.00000E+00
    0.46712E+06        -0.19483E+07         0.00000E+00
    0.00000E+00         0.00000E+00        -0.16404E+08
 
   -0.16340E+08         0.46994E+06         0.00000E+00
    0.46994E+06        -0.19489E+07         0.00000E+00
    0.00000E+00         0.00000E+00        -0.16349E+08
 
   -0.16285E+08         0.47263E+06         0.00000E+00
    0.47263E+06        -0.19495E+07         0.00000E+00
    0.00000E+00         0.00000E+00        -0.16293E+08
 
   -0.16230E+08         0.47519E+06         0.00000E+00
    0.47519E+06        -0.19502E+07         0.00000E+00
    0.00000E+00         0.00000E+00        -0.16237E+08
 
   -0.16174E+08         0.47760E+06         0.00000E+00
    0.47760E+06        -0.19510E+07         0.00000E+00
    0.00000E+00         0.00000E+00        -0.16181E+08
 
   -0.16117E+08         0.47985E+06         0.00000E+00
    0.47985E+06        -0.19518E+07         0.00000E+00
    0.00000E+00         0.00000E+00        -0.16124E+08
 
   -0.16060E+08         0.48193E+06         0.00000E+00
    0.48193E+06        -0.19527E+07         0.00000E+00
    0.00000E+00         0.00000E+00        -0.16067E+08
 
   -0.16003E+08         0.48383E+06         0.00000E+00
    0.48383E+06        -0.19536E+07         0.00000E+00
    0.00000E+00         0.00000E+00        -0.16009E+08
 
   -0.15946E+08         0.48551E+06         0.00000E+00
    0.48551E+06        -0.19547E+07         0.00000E+00
    0.00000E+00         0.00000E+00        -0.15951E+08
 
   -0.15888E+08         0.48698E+06         0.00000E+00
    0.48698E+06        -0.19558E+07         0.00000E+00
    0.00000E+00         0.00000E+00        -0.15893E+08
 
   -0.15830E+08         0.48821E+06         0.00000E+00
    0.48821E+06        -0.19570E+07         0.00000E+00
    0.00000E+00         0.00000E+00        -0.15834E+08
 
   -0.15772E+08         0.48917E+06         0.00000E+00
    0.48917E+06        -0.19583E+07         0.00000E+00
    0.00000E+00         0.00000E+00        -0.15775E+08
 
   -0.15713E+08         0.48986E+06         0.00000E+00
    0.48986E+06        -0.19598E+07         0.00000E+00
    0.00000E+00         0.00000E+00        -0.15715E+08
 
   -0.15654E+08         0.49023E+06         0.00000E+00
    0.49023E+06        -0.19613E+07         0.00000E+00
    0.00000E+00         0.00000E+00        -0.15655E+08
 
   -0.15595E+08         0.49026E+06         0.00000E+00
    0.49026E+06        -0.19631E+07         0.00000E+00
    0.00000E+00         0.00000E+00        -0.15595E+08
 
   -0.15535E+08         0.48993E+06         0.00000E+00
    0.48993E+06        -0.19649E+07         0.00000E+00
    0.00000E+00         0.00000E+00        -0.15535E+08
 
   -0.15476E+08         0.48920E+06         0.00000E+00
    0.48920E+06        -0.19669E+07         0.00000E+00
    0.00000E+00         0.00000E+00        -0.15474E+08
 
   -0.15416E+08         0.48804E+06         0.00000E+00
    0.48804E+06        -0.19692E+07         0.00000E+00
    0.00000E+00         0.00000E+00        -0.15413E+08
 
   -0.15356E+08         0.48641E+06         0.00000E+00
    0.48641E+06        -0.19716E+07         0.00000E+00
    0.00000E+00         0.00000E+00        -0.15352E+08
 
   -0.15296E+08         0.48427E+06         0.00000E+00
    0.48427E+06        -0.19742E+07         0.00000E+00
    0.00000E+00         0.00000E+00        -0.15290E+08
 
   -0.15236E+08         0.48157E+06         0.00000E+00
    0.48157E+06        -0.19772E+07         0.00000E+00
    0.00000E+00         0.00000E+00        -0.15229E+08
 
   -0.15176E+08         0.47827E+06         0.00000E+00
    0.47827E+06        -0.19804E+07         0.00000E+00
    0.00000E+00         0.00000E+00        -0.15167E+08
 
   -0.15115E+08         0.47432E+06         0.00000E+00
    0.47432E+06        -0.19839E+07         0.00000E+00
    0.00000E+00         0.00000E+00        -0.15105E+08
 
   -0.15055E+08         0.46967E+06         0.00000E+00
    0.46967E+06        -0.19877E+07         0.00000E+00
    0.00000E+00         0.00000E+00        -0.15043E+08
 
   -0.14995E+08         0.46425E+06         0.00000E+00
    0.46425E+06        -0.19920E+07         0.00000E+00
    0.00000E+00         0.00000E+00        -0.14980E+08
 
   -0.14935E+08         0.45802E+06         0.00000E+00
    0.45802E+06        -0.19967E+07         0.00000E+00
    0.00000E+00         0.00000E+00        -0.14918E+08
 
   -0.14875E+08         0.45091E+06         0.00000E+00
    0.45091E+06        -0.20019E+07         0.00000E+00
    0.00000E+00         0.00000E+00        -0.14856E+08
 
   -0.14815E+08         0.44286E+06         0.00000E+00
    0.44286E+06        -0.20075E+07         0.00000E+00
    0.00000E+00         0.00000E+00        -0.14793E+08
 
   -0.14755E+08         0.43382E+06         0.00000E+00
    0.43382E+06        -0.20138E+07         0.00000E+00
    0.00000E+00         0.00000E+00        -0.14731E+08
 
   -0.14696E+08         0.42373E+06         0.00000E+00
    0.42373E+06        -0.20206E+07         0.00000E+00
    0.00000E+00         0.00000E+00        -0.14669E+08
 
   -0.14637E+08         0.41253E+06         0.00000E+00
    0.41253E+06        -0.20281E+07         0.00000E+00
    0.00000E+00         0.00000E+00        -0.14606E+08
 
   -0.14578E+08         0.40017E+06         0.00000E+00
    0.40017E+06        -0.20362E+07         0.00000E+00
    0.00000E+00         0.00000E+00        -0.14544E+08
 
   -0.14519E+08         0.38662E+06         0.00000E+00
    0.38662E+06        -0.20448E+07         0.00000E+00
    0.00000E+00         0.00000E+00        -0.14482E+08
 
   -0.14460E+08         0.37183E+06         0.00000E+00
    0.37183E+06        -0.20540E+07         0.00000E+00
    0.00000E+00         0.00000E+00        -0.14420E+08
 
   -0.14401E+08         0.35578E+06         0.00000E+00
    0.35578E+06        -0.20635E+07         0.00000E+00
    0.00000E+00         0.00000E+00        -0.14358E+08
 
   -0.14342E+08         0.33845E+06         0.00000E+00
    0.33845E+06        -0.20732E+07         0.00000E+00
    0.00000E+00         0.00000E+00        -0.14296E+08
 
   -0.14283E+08         0.31982E+06         0.00000E+00
    0.31982E+06        -0.20826E+07         0.00000E+00
    0.00000E+00         0.00000E+00        -0.14233E+08
 
   -0.14224E+08         0.29987E+06         0.00000E+00
    0.29987E+06        -0.20914E+07         0.00000E+00
    0.00000E+00         0.00000E+00        -0.14171E+08
 
   -0.14164E+08         0.27854E+06         0.00000E+00
    0.27854E+06        -0.20988E+07         0.00000E+00
    0.00000E+00         0.00000E+00        -0.14107E+08
 
   -0.14105E+08         0.25575E+06         0.00000E+00
    0.25575E+06        -0.21039E+07         0.00000E+00
    0.00000E+00         0.00000E+00        -0.14043E+08
 
   -0.14045E+08         0.23131E+06         0.00000E+00
    0.23131E+06        -0.21055E+07         0.00000E+00
    0.00000E+00         0.00000E+00        -0.13977E+08
 
   -0.13985E+08         0.20489E+06         0.00000E+00
    0.20489E+06        -0.21020E+07         0.00000E+00
    0.00000E+00         0.00000E+00        -0.13910E+08
 
   -0.13926E+08         0.17596E+06         0.00000E+00
    0.17596E+06        -0.20917E+07         0.00000E+00
    0.00000E+00         0.00000E+00        -0.13842E+08
 
   -0.13869E+08         0.14365E+06         0.00000E+00
    0.14365E+06        -0.20722E+07         0.00000E+00
    0.00000E+00         0.00000E+00        -0.13771E+08
 
   -0.13817E+08         0.10680E+06         0.00000E+00
    0.10680E+06        -0.20407E+07         0.00000E+00
    0.00000E+00         0.00000E+00        -0.13697E+08
 
   -0.13776E+08         0.65302E+05         0.00000E+00
    0.65302E+05        -0.19944E+07         0.00000E+00
    0.00000E+00         0.00000E+00        -0.13623E+08
 
   -0.13753E+08         0.21766E+05         0.00000E+00
    0.21766E+05        -0.19344E+07         0.00000E+00
    0.00000E+00         0.00000E+00        -0.13550E+08
 
   -0.18628E+08         0.12309E+05         0.00000E+00
    0.12309E+05        -0.19692E+07         0.00000E+00
    0.00000E+00         0.00000E+00        -0.18765E+08
 
   -0.18616E+08         0.37141E+05         0.00000E+00
    0.37141E+05        -0.19346E+07         0.00000E+00
    0.00000E+00         0.00000E+00        -0.18723E+08
 
   -0.18595E+08         0.61488E+05         0.00000E+00
    0.61488E+05        -0.19075E+07         0.00000E+00
    0.00000E+00         0.00000E+00        -0.18681E+08
 
   -0.18566E+08         0.83976E+05         0.00000E+00
    0.83976E+05        -0.18887E+07         0.00000E+00
    0.00000E+00         0.00000E+00        -0.18639E+08
 
   -0.18534E+08         0.10434E+06         0.00000E+00
    0.10434E+06        -0.18770E+07         0.00000E+00
    0.00000E+00         0.00000E+00        -0.18598E+08
 
   -0.18501E+08         0.12303E+06         0.00000E+00
    0.12303E+06        -0.18707E+07         0.00000E+00
    0.00000E+00         0.00000E+00        -0.18558E+08
 
   -0.18466E+08         0.14045E+06         0.00000E+00
    0.14045E+06        -0.18683E+07         0.00000E+00
    0.00000E+00         0.00000E+00        -0.18519E+08
 
   -0.18431E+08         0.15684E+06         0.00000E+00
    0.15684E+06        -0.18689E+07         0.00000E+00
    0.00000E+00         0.00000E+00        -0.18480E+08
 
   -0.18396E+08         0.17237E+06         0.00000E+00
    0.17237E+06        -0.18715E+07         0.00000E+00
    0.00000E+00         0.00000E+00        -0.18442E+08
 
   -0.18361E+08         0.18714E+06         0.00000E+00
    0.18714E+06        -0.18754E+07         0.00000E+00
    0.00000E+00         0.00000E+00        -0.18405E+08
 
   -0.18326E+08         0.20119E+06         0.00000E+00
    0.20119E+06        -0.18801E+07         0.00000E+00
    0.00000E+00         0.00000E+00        -0.18367E+08
 
   -0.18290E+08         0.21455E+06         0.00000E+00
    0.21455E+06        -0.18852E+07         0.00000E+00
    0.00000E+00         0.00000E+00        -0.18330E+08
 
   -0.18255E+08         0.22723E+06         0.00000E+00
    0.22723E+06        -0.18903E+07         0.00000E+00
    0.00000E+00         0.00000E+00        -0.18292E+08
 
   -0.18219E+08         0.23925E+06         0.00000E+00
    0.23925E+06        -0.18954E+07         0.00000E+00
    0.00000E+00         0.00000E+00        -0.18254E+08
 
   -0.18182E+08         0.25063E+06         0.00000E+00
    0.25063E+06        -0.19002E+07         0.00000E+00
    0.00000E+00         0.00000E+00        -0.18216E+08
 
   -0.18145E+08         0.26138E+06         0.00000E+00
    0.26138E+06        -0.19047E+07         0.00000E+00
    0.00000E+00         0.00000E+00        -0.18178E+08
 
   -0.18108E+08         0.27154E+06         0.00000E+00
    0.27154E+06        -0.19088E+07         0.00000E+00
    0.00000E+00         0.00000E+00        -0.18139E+08
 
   -0.18071E+08         0.28112E+06         0.00000E+00
    0.28112E+06        -0.19126E+07         0.00000E+00
    0.00000E+00         0.00000E+00        -0.18099E+08
 
   -0.18032E+08         0.29017E+06         0.00000E+00
    0.29017E+06        -0.19161E+07         0.00000E+00
    0.00000E+00         0.00000E+00        -0.18060E+08
 
   -0.17994E+08         0.29871E+06         0.00000E+00
    0.29871E+06        -0.19192E+07         0.00000E+00
    0.00000E+00         0.00000E+00        -0.18020E+08
 
   -0.17954E+08         0.30678E+06         0.00000E+00
    0.30678E+06        -0.19220E+07         0.00000E+00
    0.00000E+00         0.00000E+00        -0.17979E+08
 
   -0.17915E+08         0.31441E+06         0.00000E+00
    0.31441E+06        -0.19245E+07         0.00000E+00
    0.00000E+00         0.00000E+00        -0.17938E+08
 
   -0.17874E+08         0.32164E+06         0.00000E+00
    0.32164E+06        -0.19267E+07         0.00000E+00
    0.00000E+00         0.00000E+00        -0.17897E+08
 
   -0.17834E+08         0.32850E+06         0.00000E+00
    0.32850E+06        -0.19287E+07         0.00000E+00
    0.00000E+00         0.00000E+00        -0.17855E+08
 
   -0.17792E+08         0.33502E+06         0.00000E+00
    0.33502E+06        -0.19304E+07         0.00000E+00
    0.00000E+00         0.00000E+00        -0.17813E+08
 
   -0.17751E+08         0.34124E+06         0.00000E+00
    0.34124E+06        -0.19320E+07         0.00000E+00
    0.00000E+00         0.00000E+00        -0.17770E+08
 
   -0.17708E+08         0.34718E+06         0.00000E+00
    0.34718E+06        -0.19334E+07         0.00000E+00
    0.00000E+00         0.00000E+00        -0.17727E+08
 
   -0.17666E+08         0.35286E+06         0.00000E+00
    0.35286E+06        -0.19347E+07         0.00000E+00
    0.00000E+00         0.00000E+00        -0.17684E+08
 
   -0.17622E+08         0.35832E+06         0.00000E+00
    0.35832E+06        -0.19358E+07         0.00000E+00
    0.00000E+00         0.00000E+00        -0.17640E+08
 
   -0.17579E+08         0.36358E+06         0.00000E+00
    0.36358E+06        -0.19368E+07         0.00000E+00
    0.00000E+00         0.00000E+00        -0.17595E+08
 
   -0.17534E+08         0.36864E+06         0.00000E+00
    0.36864E+06        -0.19377E+07         0.00000E+00
    0.00000E+00         0.00000E+00        -0.17551E+08
 
   -0.17490E+08         0.37355E+06         0.00000E+00
    0.37355E+06        -0.19385E+07         0.00000E+00
    0.00000E+00         0.00000E+00        -0.17506E+08
 
   -0.17445E+08         0.37830E+06         0.00000E+00
    0.37830E+06        -0.19393E+07         0.00000E+00
    0.00000E+00         0.00000E+00        -0.17460E+08
 
   -0.17399E+08         0.38291E+06         0.00000E+00
    0.38291E+06        -0.19399E+07         0.00000E+00
    0.00000E+00         0.00000E+00        -0.17414E+08
 
   -0.17353E+08         0.38740E+06         0.00000E+00
    0.38740E+06        -0.19405E+07         0.00000E+00
    0.00000E+00         0.00000E+00        -0.17368E+08
 
   -0.17306E+08         0.39177E+06         0.00000E+00
    0.39177E+06        -0.19411E+07         0.00000E+00
    0.00000E+00         0.00000E+00        -0.17321E+08
 
   -0.17259E+08         0.39604E+06         0.00000E+00
    0.39604E+06        -0.19416E+07         0.00000E+00
    0.00000E+00         0.00000E+00        -0.17274E+08
 
   -0.17212E+08         0.40022E+06         0.00000E+00
    0.40022E+06        -0.19421E+07         0.00000E+00
    0.00000E+00         0.00000E+00        -0.17226E+08
 
   -0.17164E+08         0.40430E+06         0.00000E+00
    0.40430E+06        -0.19426E+07         0.00000E+00
    0.00000E+00         0.00000E+00        -0.17178E+08
 
   -0.17116E+08         0.40830E+06         0.00000E+00
    0.40830E+06        -0.19430E+07         0.00000E+00
    0.00000E+00         0.00000E+00        -0.17129E+08
 
   -0.17067E+08         0.41222E+06         0.00000E+00
    0.41222E+06        -0.19434E+07         0.00000E+00
    0.00000E+00         0.00000E+00        -0.17080E+08
 
   -0.17018E+08         0.41607E+06         0.00000E+00
    0.41607E+06        -0.19438E+07         0.00000E+00
    0.00000E+00         0.00000E+00        -0.17031E+08
 
   -0.16968E+08         0.41984E+06         0.00000E+00
    0.41984E+06        -0.19442E+07         0.00000E+00
    0.00000E+00         0.00000E+00        -0.16981E+08
 
   -0.16918E+08         0.42354E+06         0.00000E+00
    0.42354E+06        -0.19445E+07         0.00000E+00
    0.00000E+00         0.00000E+00        -0.16931E+08
 
   -0.16868E+08         0.42717E+06         0.00000E+00
    0.42717E+06        -0.19449E+07         0.00000E+00
    0.00000E+00         0.00000E+00        -0.16880E+08
 
   -0.16817E+08         0.43072E+06         0.00000E+00
    0.43072E+06        -0.19453E+07         0.00000E+00
    0.00000E+00         0.00000E+00        -0.16829E+08
 
   -0.16765E+08         0.43420E+06         0.00000E+00
    0.43420E+06        -0.19457E+07         0.00000E+00
    0.00000E+00         0.00000E+00        -0.16777E+08
 
   -0.16713E+08         0.43760E+06         0.00000E+00
    0.43760E+06        -0.19460E+07         0.00000E+00
    0.00000E+00         0.00000E+00        -0.16725E+08
 
   -0.16661E+08         0.44093E+06         0.00000E+00
    0.44093E+06        -0.19465E+07         0.00000E+00
    0.00000E+00         0.00000E+00        -0.16673E+08
 
   -0.16609E+08         0.44417E+06         0.00000E+00
    0.44417E+06        -0.19469E+07         0.00000E+00
    0.00000E+00         0.00000E+00        -0.16620E+08
 
   -0.16555E+08         0.44732E+06         0.00000E+00
    0.44732E+06        -0.19473E+07         0.00000E+00
    0.00000E+00         0.00000E+00        -0.16566E+08
 
   -0.16502E+08         0.45038E+06         0.00000E+00
    0.45038E+06        -0.19478E+07         0.00000E+00
    0.00000E+00         0.00000E+00        -0.16512E+08
 
   -0.16448E+08         0.45335E+06         0.00000E+00
    0.45335E+06        -0.19483E+07         0.00000E+00
    0.00000E+00         0.00000E+00        -0.16458E+08
 
   -0.16394E+08         0.45620E+06         0.00000E+00
    0.45620E+06        -0.19488E+07         0.00000E+00
    0.00000E+00         0.00000E+00        -0.16403E+08
 
   -0.16339E+08         0.45894E+06         0.00000E+00
    0.45894E+06        -0.19494E+07         0.00000E+00
    0.00000E+00         0.00000E+00        -0.16348E+08
 
   -0.16284E+08         0.46155E+06         0.00000E+00
    0.46155E+06        -0.19500E+07         0.00000E+00
    0.00000E+00         0.00000E+00        -0.16293E+08
 
   -0.16228E+08         0.46403E+06         0.00000E+00
    0.46403E+06        -0.19507E+07         0.00000E+00
    0.00000E+00         0.00000E+00        -0.16237E+08
 
   -0.16172E+08         0.46637E+06         0.00000E+00
    0.46637E+06        -0.19514E+07         0.00000E+00
    0.00000E+00         0.00000E+00        -0.16180E+08
 
   -0.16116E+08         0.46855E+06         0.00000E+00
    0.46855E+06        -0.19522E+07         0.00000E+00
    0.00000E+00         0.00000E+00        -0.16124E+08
 
   -0.16059E+08         0.47056E+06         0.00000E+00
    0.47056E+06        -0.19531E+07         0.00000E+00
    0.00000E+00         0.00000E+00        -0.16066E+08
 
   -0.16002E+08         0.47238E+06         0.00000E+00
    0.47238E+06        -0.19540E+07         0.00000E+00
    0.00000E+00         0.00000E+00        -0.16009E+08
 
   -0.15945E+08         0.47400E+06         0.00000E+00
    0.47400E+06        -0.19550E+07         0.00000E+00
    0.00000E+00         0.00000E+00        -0.15951E+08
 
   -0.15887E+08         0.47541E+06         0.00000E+00
    0.47541E+06        -0.19561E+07         0.00000E+00
    0.00000E+00         0.00000E+00        -0.15892E+08
 
   -0.15829E+08         0.47657E+06         0.00000E+00
    0.47657E+06        -0.19572E+07         0.00000E+00
    0.00000E+00         0.00000E+00        -0.15834E+08
 
   -0.15771E+08         0.47748E+06         0.00000E+00
    0.47748E+06        -0.19585E+07         0.00000E+00
    0.00000E+00         0.00000E+00        -0.15775E+08
 
   -0.15712E+08         0.47811E+06         0.00000E+00
    0.47811E+06        -0.19599E+07         0.00000E+00
    0.00000E+00         0.00000E+00        -0.15715E+08
 
   -0.15654E+08         0.47843E+06         0.00000E+00
    0.47843E+06        -0.19614E+07         0.00000E+00
    0.00000E+00         0.00000E+00        -0.15655E+08
 
   -0.15595E+08         0.47842E+06         0.00000E+00
    0.47842E+06        -0.19630E+07         0.00000E+00
    0.00000E+00         0.00000E+00        -0.15595E+08
 
   -0.15535E+08         0.47805E+06         0.00000E+00
    0.47805E+06        -0.19648E+07         0.00000E+00
    0.00000E+00         0.00000E+00        -0.15535E+08
 
   -0.15476E+08         0.47728E+06         0.00000E+00
    0.47728E+06        -0.19668E+07         0.00000E+00
    0.00000E+00         0.00000E+00        -0.15474E+08
 
   -0.15416E+08         0.47609E+06         0.00000E+00
    0.47609E+06        -0.19689E+07         0.00000E+00
    0.00000E+00         0.00000E+00        -0.15413E+08
 
   -0.15357E+08         0.47443E+06         0.00000E+00
    0.47443E+06        -0.19712E+07         0.00000E+00
    0.00000E+00         0.00000E+00        -0.15352E+08
 
   -0.15297E+08         0.47227E+06         0.00000E+00
    0.47227E+06        -0.19738E+07         0.00000E+00
    0.00000E+00         0.00000E+00        -0.15290E+08
 
   -0.15237E+08         0.46956E+06         0.00000E+00
    0.46956E+06        -0.19766E+07         0.00000E+00
    0.00000E+00         0.00000E+00        -0.15229E+08
 
   -0.15177E+08         0.46626E+06         0.00000E+00
    0.46626E+06        -0.19796E+07         0.00000E+00
    0.00000E+00         0.00000E+00        -0.15167E+08
 
   -0.15117E+08         0.46231E+06         0.00000E+00
    0.46231E+06        -0.19830E+07         0.00000E+00
    0.00000E+00         0.00000E+00        -0.15105E+08
 
   -0.15057E+08         0.45766E+06         0.00000E+00
    0.45766E+06        -0.19867E+07         0.00000E+00
    0.00000E+00         0.00000E+00        -0.15043E+08
 
   -0.14998E+08         0.45227E+06         0.00000E+00
    0.45227E+06        -0.19908E+07         0.00000E+00
    0.00000E+00         0.00000E+00        -0.14981E+08
 
   -0.14938E+08         0.44606E+06         0.00000E+00
    0.44606E+06        -0.19954E+07         0.00000E+00
    0.00000E+00         0.00000E+00        -0.14918E+08
 
   -0.14878E+08         0.43898E+06         0.00000E+00
    0.43898E+06        -0.20003E+07         0.00000E+00
    0.00000E+00         0.00000E+00        -0.14856E+08
 
   -0.14819E+08         0.43096E+06         0.00000E+00
    0.43096E+06        -0.20058E+07         0.00000E+00
    0.00000E+00         0.00000E+00        -0.14794E+08
 
   -0.14760E+08         0.42196E+06         0.00000E+00
    0.42196E+06        -0.20119E+07         0.00000E+00
    0.00000E+00         0.00000E+00        -0.14732E+08
 
   -0.14701E+08         0.41191E+06         0.00000E+00
    0.41191E+06        -0.20185E+07         0.00000E+00
    0.00000E+00         0.00000E+00        -0.14669E+08
 
   -0.14642E+08         0.40075E+06         0.00000E+00
    0.40075E+06        -0.20257E+07         0.00000E+00
    0.00000E+00         0.00000E+00        -0.14607E+08
 
   -0.14584E+08         0.38843E+06         0.00000E+00
    0.38843E+06        -0.20336E+07         0.00000E+00
    0.00000E+00         0.00000E+00        -0.14545E+08
 
   -0.14525E+08         0.37490E+06         0.00000E+00
    0.37490E+06        -0.20420E+07         0.00000E+00
    0.00000E+00         0.00000E+00        -0.14483E+08
 
   -0.14467E+08         0.36013E+06         0.00000E+00
    0.36013E+06        -0.20509E+07         0.00000E+00
    0.00000E+00         0.00000E+00        -0.14421E+08
 
   -0.14409E+08         0.34409E+06         0.00000E+00
    0.34409E+06        -0.20602E+07         0.00000E+00
    0.00000E+00         0.00000E+00        -0.14359E+08
 
   -0.14351E+08         0.32674E+06         0.00000E+00
    0.32674E+06        -0.20696E+07         0.00000E+00
    0.00000E+00         0.00000E+00        -0.14297E+08
 
   -0.14293E+08         0.30808E+06         0.00000E+00
    0.30808E+06        -0.20788E+07         0.00000E+00
    0.00000E+00         0.00000E+00        -0.14235E+08
 
   -0.14234E+08         0.28808E+06         0.00000E+00
    0.28808E+06        -0.20873E+07         0.00000E+00
    0.00000E+00         0.00000E+00        -0.14172E+08
 
   -0.14176E+08         0.26670E+06         0.00000E+00
    0.26670E+06        -0.20944E+07         0.00000E+00
    0.00000E+00         0.00000E+00        -0.14109E+08
 
   -0.14117E+08         0.24386E+06         0.00000E+00
    0.24386E+06        -0.20992E+07         0.00000E+00
    0.00000E+00         0.00000E+00        -0.14045E+08
 
   -0.14058E+08         0.21942E+06         0.00000E+00
    0.21942E+06        -0.21004E+07         0.00000E+00
    0.00000E+00         0.00000E+00        -0.13980E+08
 
   -0.14000E+08         0.19312E+06         0.00000E+00
    0.19312E+06        -0.20966E+07         0.00000E+00
    0.00000E+00         0.00000E+00        -0.13913E+08
 
   -0.13943E+08         0.16451E+06         0.00000E+00
    0.16451E+06        -0.20857E+07         0.00000E+00
    0.00000E+00         0.00000E+00        -0.13845E+08
 
   -0.13888E+08         0.13292E+06         0.00000E+00
    0.13292E+06        -0.20654E+07         0.00000E+00
    0.00000E+00         0.00000E+00        -0.13774E+08
 
   -0.13840E+08         0.97592E+05         0.00000E+00
    0.97592E+05        -0.20330E+07         0.00000E+00
    0.00000E+00         0.00000E+00        -0.13702E+08
 
   -0.13802E+08         0.59002E+05         0.00000E+00
    0.59002E+05        -0.19861E+07         0.00000E+00
    0.00000E+00         0.00000E+00        -0.13629E+08
 
   -0.13782E+08         0.19546E+05         0.00000E+00
    0.19546E+05        -0.19261E+07         0.00000E+00
    0.00000E+00         0.00000E+00        -0.13556E+08
 
   -0.18611E+08         0.11164E+05         0.00000E+00
    0.11164E+05        -0.19739E+07         0.00000E+00
    0.00000E+00         0.00000E+00        -0.18761E+08
 
   -0.18601E+08         0.33839E+05         0.00000E+00
    0.33839E+05        -0.19393E+07         0.00000E+00
    0.00000E+00         0.00000E+00        -0.18720E+08
 
   -0.18580E+08         0.56525E+05         0.00000E+00
    0.56525E+05        -0.19121E+07         0.00000E+00
    0.00000E+00         0.00000E+00        -0.18678E+08
 
   -0.18554E+08         0.78026E+05         0.00000E+00
    0.78026E+05        -0.18930E+07         0.00000E+00
    0.00000E+00         0.00000E+00        -0.18636E+08
 
   -0.18523E+08         0.97874E+05         0.00000E+00
    0.97874E+05        -0.18809E+07         0.00000E+00
    0.00000E+00         0.00000E+00        -0.18595E+08
 
   -0.18491E+08         0.11629E+06         0.00000E+00
    0.11629E+06        -0.18742E+07         0.00000E+00
    0.00000E+00         0.00000E+00        -0.18556E+08
 
   -0.18457E+08         0.13356E+06         0.00000E+00
    0.13356E+06        -0.18717E+07         0.00000E+00
    0.00000E+00         0.00000E+00        -0.18517E+08
 
   -0.18423E+08         0.14989E+06         0.00000E+00
    0.14989E+06        -0.18721E+07         0.00000E+00
    0.00000E+00         0.00000E+00        -0.18479E+08
 
   -0.18389E+08         0.16539E+06         0.00000E+00
    0.16539E+06        -0.18746E+07         0.00000E+00
    0.00000E+00         0.00000E+00        -0.18441E+08
 
   -0.18354E+08         0.18013E+06         0.00000E+00
    0.18013E+06        -0.18783E+07         0.00000E+00
    0.00000E+00         0.00000E+00        -0.18404E+08
 
   -0.18319E+08         0.19415E+06         0.00000E+00
    0.19415E+06        -0.18829E+07         0.00000E+00
    0.00000E+00         0.00000E+00        -0.18366E+08
 
   -0.18284E+08         0.20747E+06         0.00000E+00
    0.20747E+06        -0.18878E+07         0.00000E+00
    0.00000E+00         0.00000E+00        -0.18329E+08
 
   -0.18248E+08         0.22009E+06         0.00000E+00
    0.22009E+06        -0.18928E+07         0.00000E+00
    0.00000E+00         0.00000E+00        -0.18291E+08
 
   -0.18213E+08         0.23205E+06         0.00000E+00
    0.23205E+06        -0.18977E+07         0.00000E+00
    0.00000E+00         0.00000E+00        -0.18253E+08
 
   -0.18177E+08         0.24335E+06         0.00000E+00
    0.24335E+06        -0.19024E+07         0.00000E+00
    0.00000E+00         0.00000E+00        -0.18215E+08
 
   -0.18140E+08         0.25401E+06         0.00000E+00
    0.25401E+06        -0.19068E+07         0.00000E+00
    0.00000E+00         0.00000E+00        -0.18177E+08
 
   -0.18103E+08         0.26408E+06         0.00000E+00
    0.26408E+06        -0.19108E+07         0.00000E+00
    0.00000E+00         0.00000E+00        -0.18138E+08
 
   -0.18066E+08         0.27356E+06         0.00000E+00
    0.27356E+06        -0.19145E+07         0.00000E+00
    0.00000E+00         0.00000E+00        -0.18099E+08
 
   -0.18028E+08         0.28250E+06         0.00000E+00
    0.28250E+06        -0.19178E+07         0.00000E+00
    0.00000E+00         0.00000E+00        -0.18059E+08
 
   -0.17990E+08         0.29094E+06         0.00000E+00
    0.29094E+06        -0.19208E+07         0.00000E+00
    0.00000E+00         0.00000E+00        -0.18019E+08
 
   -0.17951E+08         0.29890E+06         0.00000E+00
    0.29890E+06        -0.19235E+07         0.00000E+00
    0.00000E+00         0.00000E+00        -0.17978E+08
 
   -0.17911E+08         0.30643E+06         0.00000E+00
    0.30643E+06        -0.19259E+07         0.00000E+00
    0.00000E+00         0.00000E+00        -0.17938E+08
 
   -0.17871E+08         0.31355E+06         0.00000E+00
    0.31355E+06        -0.19281E+07         0.00000E+00
    0.00000E+00         0.00000E+00        -0.17896E+08
 
   -0.17830E+08         0.32031E+06         0.00000E+00
    0.32031E+06        -0.19300E+07         0.00000E+00
    0.00000E+00         0.00000E+00        -0.17854E+08
 
   -0.17789E+08         0.32673E+06         0.00000E+00
    0.32673E+06        -0.19317E+07         0.00000E+00
    0.00000E+00         0.00000E+00        -0.17812E+08
 
   -0.17748E+08         0.33284E+06         0.00000E+00
    0.33284E+06        -0.19332E+07         0.00000E+00
    0.00000E+00         0.00000E+00        -0.17770E+08
 
   -0.17705E+08         0.33868E+06         0.00000E+00
    0.33868E+06        -0.19346E+07         0.00000E+00
    0.00000E+00         0.00000E+00        -0.17727E+08
 
   -0.17663E+08         0.34427E+06         0.00000E+00
    0.34427E+06        -0.19358E+07         0.00000E+00
    0.00000E+00         0.00000E+00        -0.17683E+08
 
   -0.17620E+08         0.34963E+06         0.00000E+00
    0.34963E+06        -0.19369E+07         0.00000E+00
    0.00000E+00         0.00000E+00        -0.17639E+08
 
   -0.17576E+08         0.35479E+06         0.00000E+00
    0.35479E+06        -0.19378E+07         0.00000E+00
    0.00000E+00         0.00000E+00        -0.17595E+08
 
   -0.17532E+08         0.35976E+06         0.00000E+00
    0.35976E+06        -0.19387E+07         0.00000E+00
    0.00000E+00         0.00000E+00        -0.17550E+08
 
   -0.17487E+08         0.36457E+06         0.00000E+00
    0.36457E+06        -0.19395E+07         0.00000E+00
    0.00000E+00         0.00000E+00        -0.17505E+08
 
   -0.17442E+08         0.36923E+06         0.00000E+00
    0.36923E+06        -0.19402E+07         0.00000E+00
    0.00000E+00         0.00000E+00        -0.17460E+08
 
   -0.17397E+08         0.37375E+06         0.00000E+00
    0.37375E+06        -0.19408E+07         0.00000E+00
    0.00000E+00         0.00000E+00        -0.17414E+08
 
   -0.17351E+08         0.37814E+06         0.00000E+00
    0.37814E+06        -0.19414E+07         0.00000E+00
    0.00000E+00         0.00000E+00        -0.17367E+08
 
   -0.17304E+08         0.38243E+06         0.00000E+00
    0.38243E+06        -0.19420E+07         0.00000E+00
    0.00000E+00         0.00000E+00        -0.17320E+08
 
   -0.17257E+08         0.38661E+06         0.00000E+00
    0.38661E+06        -0.19425E+07         0.00000E+00
    0.00000E+00         0.00000E+00        -0.17273E+08
 
   -0.17210E+08         0.39069E+06         0.00000E+00
    0.39069E+06        -0.19429E+07         0.00000E+00
    0.00000E+00         0.00000E+00        -0.17225E+08
 
   -0.17162E+08         0.39469E+06         0.00000E+00
    0.39469E+06        -0.19434E+07         0.00000E+00
    0.00000E+00         0.00000E+00        -0.17177E+08
 
   -0.17114E+08         0.39860E+06         0.00000E+00
    0.39860E+06        -0.19438E+07         0.00000E+00
    0.00000E+00         0.00000E+00        -0.17129E+08
 
   -0.17065E+08         0.40243E+06         0.00000E+00
    0.40243E+06        -0.19442E+07         0.00000E+00
    0.00000E+00         0.00000E+00        -0.17080E+08
 
   -0.17016E+08         0.40619E+06         0.00000E+00
    0.40619E+06        -0.19445E+07         0.00000E+00
    0.00000E+00         0.00000E+00        -0.17030E+08
 
   -0.16966E+08         0.40987E+06         0.00000E+00
    0.40987E+06        -0.19449E+07         0.00000E+00
    0.00000E+00         0.00000E+00        -0.16981E+08
 
   -0.16916E+08         0.41348E+06         0.00000E+00
    0.41348E+06        -0.19453E+07         0.00000E+00
    0.00000E+00         0.00000E+00        -0.16930E+08
 
   -0.16866E+08         0.41702E+06         0.00000E+00
    0.41702E+06        -0.19456E+07         0.00000E+00
    0.00000E+00         0.00000E+00        -0.16880E+08
 
   -0.16815E+08         0.42049E+06         0.00000E+00
    0.42049E+06        -0.19460E+07         0.00000E+00
    0.00000E+00         0.00000E+00        -0.16828E+08
 
   -0.16763E+08         0.42388E+06         0.00000E+00
    0.42388E+06        -0.19463E+07         0.00000E+00
    0.00000E+00         0.00000E+00        -0.16777E+08
 
   -0.16712E+08         0.42720E+06         0.00000E+00
    0.42720E+06        -0.19467E+07         0.00000E+00
    0.00000E+00         0.00000E+00        -0.16725E+08
 
   -0.16659E+08         0.43044E+06         0.00000E+00
    0.43044E+06        -0.19471E+07         0.00000E+00
    0.00000E+00         0.00000E+00        -0.16672E+08
 
   -0.16607E+08         0.43359E+06         0.00000E+00
    0.43359E+06        -0.19475E+07         0.00000E+00
    0.00000E+00         0.00000E+00        -0.16619E+08
 
   -0.16554E+08         0.43666E+06         0.00000E+00
    0.43666E+06        -0.19479E+07         0.00000E+00
    0.00000E+00         0.00000E+00        -0.16566E+08
 
   -0.16500E+08         0.43964E+06         0.00000E+00
    0.43964E+06        -0.19484E+07         0.00000E+00
    0.00000E+00         0.00000E+00        -0.16512E+08
 
   -0.16446E+08         0.44252E+06         0.00000E+00
    0.44252E+06        -0.19489E+07         0.00000E+00
    0.00000E+00         0.00000E+00        -0.16458E+08
 
   -0.16392E+08         0.44529E+06         0.00000E+00
    0.44529E+06        -0.19494E+07         0.00000E+00
    0.00000E+00         0.00000E+00        -0.16403E+08
 
   -0.16337E+08         0.44795E+06         0.00000E+00
    0.44795E+06        -0.19500E+07         0.00000E+00
    0.00000E+00         0.00000E+00        -0.16348E+08
 
   -0.16282E+08         0.45049E+06         0.00000E+00
    0.45049E+06        -0.19505E+07         0.00000E+00
    0.00000E+00         0.00000E+00        -0.16293E+08
 
   -0.16227E+08         0.45289E+06         0.00000E+00
    0.45289E+06        -0.19512E+07         0.00000E+00
    0.00000E+00         0.00000E+00        -0.16237E+08
 
   -0.16171E+08         0.45516E+06         0.00000E+00
    0.45516E+06        -0.19519E+07         0.00000E+00
    0.00000E+00         0.00000E+00        -0.16180E+08
 
   -0.16115E+08         0.45726E+06         0.00000E+00
    0.45726E+06        -0.19526E+07         0.00000E+00
    0.00000E+00         0.00000E+00        -0.16123E+08
 
   -0.16058E+08         0.45920E+06         0.00000E+00
    0.45920E+06        -0.19534E+07         0.00000E+00
    0.00000E+00         0.00000E+00        -0.16066E+08
 
   -0.16001E+08         0.46095E+06         0.00000E+00
    0.46095E+06        -0.19543E+07         0.00000E+00
    0.00000E+00         0.00000E+00        -0.16009E+08
 
   -0.15944E+08         0.46251E+06         0.00000E+00
    0.46251E+06        -0.19553E+07         0.00000E+00
    0.00000E+00         0.00000E+00        -0.15951E+08
 
   -0.15886E+08         0.46385E+06         0.00000E+00
    0.46385E+06        -0.19563E+07         0.00000E+00
    0.00000E+00         0.00000E+00        -0.15892E+08
 
   -0.15829E+08         0.46496E+06         0.00000E+00
    0.46496E+06        -0.19574E+07         0.00000E+00
    0.00000E+00         0.00000E+00        -0.15834E+08
 
   -0.15770E+08         0.46581E+06         0.00000E+00
    0.46581E+06        -0.19586E+07         0.00000E+00
    0.00000E+00         0.00000E+00        -0.15774E+08
 
   -0.15712E+08         0.46639E+06         0.00000E+00
    0.46639E+06        -0.19600E+07         0.00000E+00
    0.00000E+00         0.00000E+00        -0.15715E+08
 
   -0.15653E+08         0.46666E+06         0.00000E+00
    0.46666E+06        -0.19614E+07         0.00000E+00
    0.00000E+00         0.00000E+00        -0.15655E+08
 
   -0.15595E+08         0.46661E+06         0.00000E+00
    0.46661E+06        -0.19630E+07         0.00000E+00
    0.00000E+00         0.00000E+00        -0.15595E+08
 
   -0.15535E+08         0.46620E+06         0.00000E+00
    0.46620E+06        -0.19647E+07         0.00000E+00
    0.00000E+00         0.00000E+00        -0.15535E+08
 
   -0.15476E+08         0.46540E+06         0.00000E+00
    0.46540E+06        -0.19666E+07         0.00000E+00
    0.00000E+00         0.00000E+00        -0.15474E+08
 
   -0.15417E+08         0.46418E+06         0.00000E+00
    0.46418E+06        -0.19686E+07         0.00000E+00
    0.00000E+00         0.00000E+00        -0.15413E+08
 
   -0.15357E+08         0.46251E+06         0.00000E+00
    0.46251E+06        -0.19708E+07         0.00000E+00
    0.00000E+00         0.00000E+00        -0.15352E+08
 
   -0.15298E+08         0.46033E+06         0.00000E+00
    0.46033E+06        -0.19733E+07         0.00000E+00
    0.00000E+00         0.00000E+00        -0.15291E+08
 
   -0.15238E+08         0.45761E+06         0.00000E+00
    0.45761E+06        -0.19760E+07         0.00000E+00
    0.00000E+00         0.00000E+00        -0.15229E+08
 
   -0.15179E+08         0.45431E+06         0.00000E+00
    0.45431E+06        -0.19789E+07         0.00000E+00
    0.00000E+00         0.00000E+00        -0.15167E+08
 
   -0.15119E+08         0.45037E+06         0.00000E+00
    0.45037E+06        -0.19822E+07         0.00000E+00
    0.00000E+00         0.00000E+00        -0.15105E+08
 
   -0.15060E+08         0.44573E+06         0.00000E+00
    0.44573E+06        -0.19857E+07         0.00000E+00
    0.00000E+00         0.00000E+00        -0.15043E+08
 
   -0.15000E+08         0.44036E+06         0.00000E+00
    0.44036E+06        -0.19897E+07         0.00000E+00
    0.00000E+00         0.00000E+00        -0.14981E+08
 
   -0.14941E+08         0.43418E+06         0.00000E+00
    0.43418E+06        -0.19940E+07         0.00000E+00
    0.00000E+00         0.00000E+00        -0.14919E+08
 
   -0.14882E+08         0.42713E+06         0.00000E+00
    0.42713E+06        -0.19988E+07         0.00000E+00
    0.00000E+00         0.00000E+00        -0.14857E+08
 
   -0.14823E+08         0.41916E+06         0.00000E+00
    0.41916E+06        -0.20041E+07         0.00000E+00
    0.00000E+00         0.00000E+00        -0.14795E+08
 
   -0.14764E+08         0.41020E+06         0.00000E+00
    0.41020E+06        -0.20100E+07         0.00000E+00
    0.00000E+00         0.00000E+00        -0.14732E+08
 
   -0.14706E+08         0.40019E+06         0.00000E+00
    0.40019E+06        -0.20164E+07         0.00000E+00
    0.00000E+00         0.00000E+00        -0.14670E+08
 
   -0.14648E+08         0.38908E+06         0.00000E+00
    0.38908E+06        -0.20234E+07         0.00000E+00
    0.00000E+00         0.00000E+00        -0.14608E+08
 
   -0.14590E+08         0.37680E+06         0.00000E+00
    0.37680E+06        -0.20310E+07         0.00000E+00
    0.00000E+00         0.00000E+00        -0.14546E+08
 
   -0.14532E+08         0.36331E+06         0.00000E+00
    0.36331E+06        -0.20392E+07         0.00000E+00
    0.00000E+00         0.00000E+00        -0.14484E+08
 
   -0.14474E+08         0.34856E+06         0.00000E+00
    0.34856E+06        -0.20478E+07         0.00000E+00
    0.00000E+00         0.00000E+00        -0.14423E+08
 
   -0.14417E+08         0.33253E+06         0.00000E+00
    0.33253E+06        -0.20568E+07         0.00000E+00
    0.00000E+00         0.00000E+00        -0.14361E+08
 
   -0.14360E+08         0.31519E+06         0.00000E+00
    0.31519E+06        -0.20660E+07         0.00000E+00
    0.00000E+00         0.00000E+00        -0.14299E+08
 
   -0.14302E+08         0.29650E+06         0.00000E+00
    0.29650E+06        -0.20749E+07         0.00000E+00
    0.00000E+00         0.00000E+00        -0.14237E+08
 
   -0.14245E+08         0.27647E+06         0.00000E+00
    0.27647E+06        -0.20831E+07         0.00000E+00
    0.00000E+00         0.00000E+00        -0.14174E+08
 
   -0.14187E+08         0.25505E+06         0.00000E+00
    0.25505E+06        -0.20899E+07         0.00000E+00
    0.00000E+00         0.00000E+00        -0.14111E+08
 
   -0.14129E+08         0.23220E+06         0.00000E+00
    0.23220E+06        -0.20944E+07         0.00000E+00
    0.00000E+00         0.00000E+00        -0.14047E+08
 
   -0.14072E+08         0.20781E+06         0.00000E+00
    0.20781E+06        -0.20954E+07         0.00000E+00
    0.00000E+00         0.00000E+00        -0.13983E+08
 
   -0.14015E+08         0.18169E+06         0.00000E+00
    0.18169E+06        -0.20911E+07         0.00000E+00
    0.00000E+00         0.00000E+00        -0.13916E+08
 
   -0.13960E+08         0.15350E+06         0.00000E+00
    0.15350E+06        -0.20797E+07         0.00000E+00
    0.00000E+00         0.00000E+00        -0.13848E+08
 
   -0.13908E+08         0.12276E+06         0.00000E+00
    0.12276E+06        -0.20589E+07         0.00000E+00
    0.00000E+00         0.00000E+00        -0.13778E+08
 
   -0.13862E+08         0.89095E+05         0.00000E+00
    0.89095E+05        -0.20258E+07         0.00000E+00
    0.00000E+00         0.00000E+00        -0.13707E+08
 
   -0.13828E+08         0.53341E+05         0.00000E+00
    0.53341E+05        -0.19786E+07         0.00000E+00
    0.00000E+00         0.00000E+00        -0.13634E+08
 
   -0.13810E+08         0.17583E+05         0.00000E+00
    0.17583E+05        -0.19187E+07         0.00000E+00
    0.00000E+00         0.00000E+00        -0.13562E+08
 
   -0.18595E+08         0.10135E+05         0.00000E+00
    0.10135E+05        -0.19782E+07         0.00000E+00
    0.00000E+00         0.00000E+00        -0.18758E+08
 
   -0.18585E+08         0.30835E+05         0.00000E+00
    0.30835E+05        -0.19437E+07         0.00000E+00
    0.00000E+00         0.00000E+00        -0.18717E+08
 
   -0.18567E+08         0.51916E+05         0.00000E+00
    0.51916E+05        -0.19164E+07         0.00000E+00
    0.00000E+00         0.00000E+00        -0.18675E+08
 
   -0.18542E+08         0.72378E+05         0.00000E+00
    0.72378E+05        -0.18970E+07         0.00000E+00
    0.00000E+00         0.00000E+00        -0.18634E+08
 
   -0.18512E+08         0.91640E+05         0.00000E+00
    0.91640E+05        -0.18846E+07         0.00000E+00
    0.00000E+00         0.00000E+00        -0.18593E+08
 
   -0.18481E+08         0.10973E+06         0.00000E+00
    0.10973E+06        -0.18778E+07         0.00000E+00
    0.00000E+00         0.00000E+00        -0.18554E+08
 
   -0.18448E+08         0.12683E+06         0.00000E+00
    0.12683E+06        -0.18751E+07         0.00000E+00
    0.00000E+00         0.00000E+00        -0.18515E+08
 
   -0.18415E+08         0.14307E+06         0.00000E+00
    0.14307E+06        -0.18753E+07         0.00000E+00
    0.00000E+00         0.00000E+00        -0.18477E+08
 
   -0.18381E+08         0.15852E+06         0.00000E+00
    0.15852E+06        -0.18776E+07         0.00000E+00
    0.00000E+00         0.00000E+00        -0.18440E+08
 
   -0.18347E+08         0.17322E+06         0.00000E+00
    0.17322E+06        -0.18812E+07         0.00000E+00
    0.00000E+00         0.00000E+00        -0.18402E+08
 
   -0.18312E+08         0.18720E+06         0.00000E+00
    0.18720E+06        -0.18856E+07         0.00000E+00
    0.00000E+00         0.00000E+00        -0.18365E+08
 
   -0.18277E+08         0.20046E+06         0.00000E+00
    0.20046E+06        -0.18904E+07         0.00000E+00
    0.00000E+00         0.00000E+00        -0.18328E+08
 
   -0.18242E+08         0.21303E+06         0.00000E+00
    0.21303E+06        -0.18952E+07         0.00000E+00
    0.00000E+00         0.00000E+00        -0.18290E+08
 
   -0.18207E+08         0.22491E+06         0.00000E+00
    0.22491E+06        -0.19000E+07         0.00000E+00
    0.00000E+00         0.00000E+00        -0.18252E+08
 
   -0.18171E+08         0.23613E+06         0.00000E+00
    0.23613E+06        -0.19046E+07         0.00000E+00
    0.00000E+00         0.00000E+00        -0.18214E+08
 
   -0.18135E+08         0.24671E+06         0.00000E+00
    0.24671E+06        -0.19088E+07         0.00000E+00
    0.00000E+00         0.00000E+00        -0.18176E+08
 
   -0.18099E+08         0.25667E+06         0.00000E+00
    0.25667E+06        -0.19128E+07         0.00000E+00
    0.00000E+00         0.00000E+00        -0.18137E+08
 
   -0.18062E+08         0.26605E+06         0.00000E+00
    0.26605E+06        -0.19163E+07         0.00000E+00
    0.00000E+00         0.00000E+00        -0.18098E+08
 
   -0.18024E+08         0.27489E+06         0.00000E+00
    0.27489E+06        -0.19196E+07         0.00000E+00
    0.00000E+00         0.00000E+00        -0.18058E+08
 
   -0.17986E+08         0.28321E+06         0.00000E+00
    0.28321E+06        -0.19225E+07         0.00000E+00
    0.00000E+00         0.00000E+00        -0.18018E+08
 
   -0.17947E+08         0.29107E+06         0.00000E+00
    0.29107E+06        -0.19251E+07         0.00000E+00
    0.00000E+00         0.00000E+00        -0.17978E+08
 
   -0.17907E+08         0.29848E+06         0.00000E+00
    0.29848E+06        -0.19274E+07         0.00000E+00
    0.00000E+00         0.00000E+00        -0.17937E+08
 
   -0.17868E+08         0.30550E+06         0.00000E+00
    0.30550E+06        -0.19295E+07         0.00000E+00
    0.00000E+00         0.00000E+00        -0.17896E+08
 
   -0.17827E+08         0.31215E+06         0.00000E+00
    0.31215E+06        -0.19313E+07         0.00000E+00
    0.00000E+00         0.00000E+00        -0.17854E+08
 
   -0.17786E+08         0.31846E+06         0.00000E+00
    0.31846E+06        -0.19329E+07         0.00000E+00
    0.00000E+00         0.00000E+00        -0.17812E+08
 
   -0.17745E+08         0.32447E+06         0.00000E+00
    0.32447E+06        -0.19344E+07         0.00000E+00
    0.00000E+00         0.00000E+00        -0.17769E+08
 
   -0.17703E+08         0.33021E+06         0.00000E+00
    0.33021E+06        -0.19357E+07         0.00000E+00
    0.00000E+00         0.00000E+00        -0.17726E+08
 
   -0.17660E+08         0.33570E+06         0.00000E+00
    0.33570E+06        -0.19369E+07         0.00000E+00
    0.00000E+00         0.00000E+00        -0.17683E+08
 
   -0.17617E+08         0.34096E+06         0.00000E+00
    0.34096E+06        -0.19379E+07         0.00000E+00
    0.00000E+00         0.00000E+00        -0.17639E+08
 
   -0.17573E+08         0.34602E+06         0.00000E+00
    0.34602E+06        -0.19388E+07         0.00000E+00
    0.00000E+00         0.00000E+00        -0.17594E+08
 
   -0.17529E+08         0.35090E+06         0.00000E+00
    0.35090E+06        -0.19397E+07         0.00000E+00
    0.00000E+00         0.00000E+00        -0.17550E+08
 
   -0.17485E+08         0.35561E+06         0.00000E+00
    0.35561E+06        -0.19404E+07         0.00000E+00
    0.00000E+00         0.00000E+00        -0.17505E+08
 
   -0.17440E+08         0.36017E+06         0.00000E+00
    0.36017E+06        -0.19411E+07         0.00000E+00
    0.00000E+00         0.00000E+00        -0.17459E+08
 
   -0.17394E+08         0.36460E+06         0.00000E+00
    0.36460E+06        -0.19417E+07         0.00000E+00
    0.00000E+00         0.00000E+00        -0.17413E+08
 
   -0.17348E+08         0.36890E+06         0.00000E+00
    0.36890E+06        -0.19423E+07         0.00000E+00
    0.00000E+00         0.00000E+00        -0.17367E+08
 
   -0.17302E+08         0.37309E+06         0.00000E+00
    0.37309E+06        -0.19428E+07         0.00000E+00
    0.00000E+00         0.00000E+00        -0.17320E+08
 
   -0.17255E+08         0.37718E+06         0.00000E+00
    0.37718E+06        -0.19433E+07         0.00000E+00
    0.00000E+00         0.00000E+00        -0.17273E+08
 
   -0.17208E+08         0.38118E+06         0.00000E+00
    0.38118E+06        -0.19437E+07         0.00000E+00
    0.00000E+00         0.00000E+00        -0.17225E+08
 
   -0.17160E+08         0.38508E+06         0.00000E+00
    0.38508E+06        -0.19441E+07         0.00000E+00
    0.00000E+00         0.00000E+00        -0.17177E+08
 
   -0.17112E+08         0.38890E+06         0.00000E+00
    0.38890E+06        -0.19445E+07         0.00000E+00
    0.00000E+00         0.00000E+00        -0.17128E+08
 
   -0.17063E+08         0.39265E+06         0.00000E+00
    0.39265E+06        -0.19449E+07         0.00000E+00
    0.00000E+00         0.00000E+00        -0.17079E+08
 
   -0.17014E+08         0.39631E+06         0.00000E+00
    0.39631E+06        -0.19453E+07         0.00000E+00
    0.00000E+00         0.00000E+00        -0.17030E+08
 
   -0.16964E+08         0.39991E+06         0.00000E+00
    0.39991E+06        -0.19456E+07         0.00000E+00
    0.00000E+00         0.00000E+00        -0.16980E+08
 
   -0.16914E+08         0.40343E+06         0.00000E+00
    0.40343E+06        -0.19460E+07         0.00000E+00
    0.00000E+00         0.00000E+00        -0.16930E+08
 
   -0.16864E+08         0.40688E+06         0.00000E+00
    0.40688E+06        -0.19463E+07         0.00000E+00
    0.00000E+00         0.00000E+00        -0.16879E+08
 
   -0.16813E+08         0.41026E+06         0.00000E+00
    0.41026E+06        -0.19466E+07         0.00000E+00
    0.00000E+00         0.00000E+00        -0.16828E+08
 
   -0.16762E+08         0.41357E+06         0.00000E+00
    0.41357E+06        -0.19470E+07         0.00000E+00
    0.00000E+00         0.00000E+00        -0.16776E+08
 
   -0.16710E+08         0.41680E+06         0.00000E+00
    0.41680E+06        -0.19474E+07         0.00000E+00
    0.00000E+00         0.00000E+00        -0.16724E+08
 
   -0.16658E+08         0.41996E+06         0.00000E+00
    0.41996E+06        -0.19477E+07         0.00000E+00
    0.00000E+00         0.00000E+00        -0.16672E+08
 
   -0.16605E+08         0.42303E+06         0.00000E+00
    0.42303E+06        -0.19481E+07         0.00000E+00
    0.00000E+00         0.00000E+00        -0.16619E+08
 
   -0.16552E+08         0.42601E+06         0.00000E+00
    0.42601E+06        -0.19485E+07         0.00000E+00
    0.00000E+00         0.00000E+00        -0.16566E+08
 
   -0.16499E+08         0.42891E+06         0.00000E+00
    0.42891E+06        -0.19490E+07         0.00000E+00
    0.00000E+00         0.00000E+00        -0.16512E+08
 
   -0.16445E+08         0.43171E+06         0.00000E+00
    0.43171E+06        -0.19494E+07         0.00000E+00
    0.00000E+00         0.00000E+00        -0.16458E+08
 
   -0.16391E+08         0.43440E+06         0.00000E+00
    0.43440E+06        -0.19499E+07         0.00000E+00
    0.00000E+00         0.00000E+00        -0.16403E+08
 
   -0.16336E+08         0.43698E+06         0.00000E+00
    0.43698E+06        -0.19505E+07         0.00000E+00
    0.00000E+00         0.00000E+00        -0.16348E+08
 
   -0.16281E+08         0.43944E+06         0.00000E+00
    0.43944E+06        -0.19510E+07         0.00000E+00
    0.00000E+00         0.00000E+00        -0.16292E+08
 
   -0.16225E+08         0.44177E+06         0.00000E+00
    0.44177E+06        -0.19516E+07         0.00000E+00
    0.00000E+00         0.00000E+00        -0.16236E+08
 
   -0.16170E+08         0.44396E+06         0.00000E+00
    0.44396E+06        -0.19523E+07         0.00000E+00
    0.00000E+00         0.00000E+00        -0.16180E+08
 
   -0.16113E+08         0.44599E+06         0.00000E+00
    0.44599E+06        -0.19530E+07         0.00000E+00
    0.00000E+00         0.00000E+00        -0.16123E+08
 
   -0.16057E+08         0.44786E+06         0.00000E+00
    0.44786E+06        -0.19538E+07         0.00000E+00
    0.00000E+00         0.00000E+00        -0.16066E+08
 
   -0.16000E+08         0.44955E+06         0.00000E+00
    0.44955E+06        -0.19546E+07         0.00000E+00
    0.00000E+00         0.00000E+00        -0.16008E+08
 
   -0.15943E+08         0.45104E+06         0.00000E+00
    0.45104E+06        -0.19556E+07         0.00000E+00
    0.00000E+00         0.00000E+00        -0.15950E+08
 
   -0.15886E+08         0.45232E+06         0.00000E+00
    0.45232E+06        -0.19565E+07         0.00000E+00
    0.00000E+00         0.00000E+00        -0.15892E+08
 
   -0.15828E+08         0.45337E+06         0.00000E+00
    0.45337E+06        -0.19576E+07         0.00000E+00
    0.00000E+00         0.00000E+00        -0.15833E+08
 
   -0.15770E+08         0.45417E+06         0.00000E+00
    0.45417E+06        -0.19588E+07         0.00000E+00
    0.00000E+00         0.00000E+00        -0.15774E+08
 
   -0.15712E+08         0.45470E+06         0.00000E+00
    0.45470E+06        -0.19600E+07         0.00000E+00
    0.00000E+00         0.00000E+00        -0.15715E+08
 
   -0.15653E+08         0.45493E+06         0.00000E+00
    0.45493E+06        -0.19614E+07         0.00000E+00
    0.00000E+00         0.00000E+00        -0.15655E+08
 
   -0.15594E+08         0.45483E+06         0.00000E+00
    0.45483E+06        -0.19629E+07         0.00000E+00
    0.00000E+00         0.00000E+00        -0.15595E+08
 
   -0.15536E+08         0.45439E+06         0.00000E+00
    0.45439E+06        -0.19646E+07         0.00000E+00
    0.00000E+00         0.00000E+00        -0.15535E+08
 
   -0.15477E+08         0.45356E+06         0.00000E+00
    0.45356E+06        -0.19664E+07         0.00000E+00
    0.00000E+00         0.00000E+00        -0.15474E+08
 
   -0.15417E+08         0.45232E+06         0.00000E+00
    0.45232E+06        -0.19683E+07         0.00000E+00
    0.00000E+00         0.00000E+00        -0.15413E+08
 
   -0.15358E+08         0.45063E+06         0.00000E+00
    0.45063E+06        -0.19704E+07         0.00000E+00
    0.00000E+00         0.00000E+00        -0.15352E+08
 
   -0.15299E+08         0.44844E+06         0.00000E+00
    0.44844E+06        -0.19728E+07         0.00000E+00
    0.00000E+00         0.00000E+00        -0.15291E+08
 
   -0.15239E+08         0.44572E+06         0.00000E+00
    0.44572E+06        -0.19754E+07         0.00000E+00
    0.00000E+00         0.00000E+00        -0.15229E+08
 
   -0.15180E+08         0.44242E+06         0.00000E+00
    0.44242E+06        -0.19782E+07         0.00000E+00
    0.00000E+00         0.00000E+00        -0.15167E+08
 
   -0.15121E+08         0.43849E+06         0.00000E+00
    0.43849E+06        -0.19813E+07         0.00000E+00
    0.00000E+00         0.00000E+00        -0.15106E+08
 
   -0.15062E+08         0.43388E+06         0.00000E+00
    0.43388E+06        -0.19847E+07         0.00000E+00
    0.00000E+00         0.00000E+00        -0.15044E+08
 
   -0.15003E+08         0.42853E+06         0.00000E+00
    0.42853E+06        -0.19885E+07         0.00000E+00
    0.00000E+00         0.00000E+00        -0.14982E+08
 
   -0.14944E+08         0.42238E+06         0.00000E+00
    0.42238E+06        -0.19927E+07         0.00000E+00
    0.00000E+00         0.00000E+00        -0.14919E+08
 
   -0.14885E+08         0.41537E+06         0.00000E+00
    0.41537E+06        -0.19973E+07         0.00000E+00
    0.00000E+00         0.00000E+00        -0.14857E+08
 
   -0.14827E+08         0.40745E+06         0.00000E+00
    0.40745E+06        -0.20025E+07         0.00000E+00
    0.00000E+00         0.00000E+00        -0.14795E+08
 
   -0.14768E+08         0.39854E+06         0.00000E+00
    0.39854E+06        -0.20081E+07         0.00000E+00
    0.00000E+00         0.00000E+00        -0.14733E+08
 
   -0.14711E+08         0.38859E+06         0.00000E+00
    0.38859E+06        -0.20143E+07         0.00000E+00
    0.00000E+00         0.00000E+00        -0.14671E+08
 
   -0.14653E+08         0.37752E+06         0.00000E+00
    0.37752E+06        -0.20211E+07         0.00000E+00
    0.00000E+00         0.00000E+00        -0.14609E+08
 
   -0.14596E+08         0.36529E+06         0.00000E+00
    0.36529E+06        -0.20284E+07         0.00000E+00
    0.00000E+00         0.00000E+00        -0.14547E+08
 
   -0.14539E+08         0.35185E+06         0.00000E+00
    0.35185E+06        -0.20363E+07         0.00000E+00
    0.00000E+00         0.00000E+00        -0.14486E+08
 
   -0.14482E+08         0.33714E+06         0.00000E+00
    0.33714E+06        -0.20447E+07         0.00000E+00
    0.00000E+00         0.00000E+00        -0.14424E+08
 
   -0.14425E+08         0.32112E+06         0.00000E+00
    0.32112E+06        -0.20535E+07         0.00000E+00
    0.00000E+00         0.00000E+00        -0.14362E+08
 
   -0.14368E+08         0.30378E+06         0.00000E+00
    0.30378E+06        -0.20624E+07         0.00000E+00
    0.00000E+00         0.00000E+00        -0.14300E+08
 
   -0.14312E+08         0.28509E+06         0.00000E+00
    0.28509E+06        -0.20710E+07         0.00000E+00
    0.00000E+00         0.00000E+00        -0.14238E+08
 
   -0.14255E+08         0.26504E+06         0.00000E+00
    0.26504E+06        -0.20790E+07         0.00000E+00
    0.00000E+00         0.00000E+00        -0.14176E+08
 
   -0.14198E+08         0.24361E+06         0.00000E+00
    0.24361E+06        -0.20855E+07         0.00000E+00
    0.00000E+00         0.00000E+00        -0.14113E+08
 
   -0.14142E+08         0.22077E+06         0.00000E+00
    0.22077E+06        -0.20897E+07         0.00000E+00
    0.00000E+00         0.00000E+00        -0.14050E+08
 
   -0.14085E+08         0.19648E+06         0.00000E+00
    0.19648E+06        -0.20903E+07         0.00000E+00
    0.00000E+00         0.00000E+00        -0.13985E+08
 
   -0.14030E+08         0.17059E+06         0.00000E+00
    0.17059E+06        -0.20857E+07         0.00000E+00
    0.00000E+00         0.00000E+00        -0.13919E+08
 
   -0.13977E+08         0.14290E+06         0.00000E+00
    0.14290E+06        -0.20739E+07         0.00000E+00
    0.00000E+00         0.00000E+00        -0.13852E+08
 
   -0.13927E+08         0.11313E+06         0.00000E+00
    0.11313E+06        -0.20526E+07         0.00000E+00
    0.00000E+00         0.00000E+00        -0.13782E+08
 
   -0.13885E+08         0.81217E+05         0.00000E+00
    0.81217E+05        -0.20190E+07         0.00000E+00
    0.00000E+00         0.00000E+00        -0.13711E+08
 
   -0.13853E+08         0.48201E+05         0.00000E+00
    0.48201E+05        -0.19717E+07         0.00000E+00
    0.00000E+00         0.00000E+00        -0.13639E+08
 
   -0.13836E+08         0.15820E+05         0.00000E+00
    0.15820E+05        -0.19121E+07         0.00000E+00
    0.00000E+00         0.00000E+00        -0.13568E+08
 
   -0.18579E+08         0.91964E+04         0.00000E+00
    0.91964E+04        -0.19820E+07         0.00000E+00
    0.00000E+00         0.00000E+00        -0.18754E+08
 
   -0.18570E+08         0.28076E+05         0.00000E+00
    0.28076E+05        -0.19478E+07         0.00000E+00
    0.00000E+00         0.00000E+00        -0.18713E+08
 
   -0.18553E+08         0.47614E+05         0.00000E+00
    0.47614E+05        -0.19205E+07         0.00000E+00
    0.00000E+00         0.00000E+00        -0.18672E+08
 
   -0.18529E+08         0.67011E+05         0.00000E+00
    0.67011E+05        -0.19009E+07         0.00000E+00
    0.00000E+00         0.00000E+00        -0.18631E+08
 
   -0.18501E+08         0.85636E+05         0.00000E+00
    0.85636E+05        -0.18883E+07         0.00000E+00
    0.00000E+00         0.00000E+00        -0.18591E+08
 
   -0.18471E+08         0.10336E+06         0.00000E+00
    0.10336E+06        -0.18813E+07         0.00000E+00
    0.00000E+00         0.00000E+00        -0.18552E+08
 
   -0.18439E+08         0.12025E+06         0.00000E+00
    0.12025E+06        -0.18784E+07         0.00000E+00
    0.00000E+00         0.00000E+00        -0.18513E+08
 
   -0.18406E+08         0.13637E+06         0.00000E+00
    0.13637E+06        -0.18785E+07         0.00000E+00
    0.00000E+00         0.00000E+00        -0.18476E+08
 
   -0.18373E+08         0.15175E+06         0.00000E+00
    0.15175E+06        -0.18806E+07         0.00000E+00
    0.00000E+00         0.00000E+00        -0.18438E+08
 
   -0.18339E+08         0.16640E+06         0.00000E+00
    0.16640E+06        -0.18841E+07         0.00000E+00
    0.00000E+00         0.00000E+00        -0.18401E+08
 
   -0.18305E+08         0.18033E+06         0.00000E+00
    0.18033E+06        -0.18883E+07         0.00000E+00
    0.00000E+00         0.00000E+00        -0.18364E+08
 
   -0.18271E+08         0.19354E+06         0.00000E+00
    0.19354E+06        -0.18929E+07         0.00000E+00
    0.00000E+00         0.00000E+00        -0.18326E+08
 
   -0.18237E+08         0.20605E+06         0.00000E+00
    0.20605E+06        -0.18977E+07         0.00000E+00
    0.00000E+00         0.00000E+00        -0.18289E+08
 
   -0.18202E+08         0.21785E+06         0.00000E+00
    0.21785E+06        -0.19023E+07         0.00000E+00
    0.00000E+00         0.00000E+00        -0.18251E+08
 
   -0.18166E+08         0.22898E+06         0.00000E+00
    0.22898E+06        -0.19067E+07         0.00000E+00
    0.00000E+00         0.00000E+00        -0.18213E+08
 
   -0.18130E+08         0.23946E+06         0.00000E+00
    0.23946E+06        -0.19109E+07         0.00000E+00
    0.00000E+00         0.00000E+00        -0.18175E+08
 
   -0.18094E+08         0.24932E+06         0.00000E+00
    0.24932E+06        -0.19147E+07         0.00000E+00
    0.00000E+00         0.00000E+00        -0.18136E+08
 
   -0.18057E+08         0.25860E+06         0.00000E+00
    0.25860E+06        -0.19181E+07         0.00000E+00
    0.00000E+00         0.00000E+00        -0.18097E+08
 
   -0.18020E+08         0.26732E+06         0.00000E+00
    0.26732E+06        -0.19213E+07         0.00000E+00
    0.00000E+00         0.00000E+00        -0.18058E+08
 
   -0.17982E+08         0.27553E+06         0.00000E+00
    0.27553E+06        -0.19241E+07         0.00000E+00
    0.00000E+00         0.00000E+00        -0.18018E+08
 
   -0.17943E+08         0.28327E+06         0.00000E+00
    0.28327E+06        -0.19266E+07         0.00000E+00
    0.00000E+00         0.00000E+00        -0.17977E+08
 
   -0.17904E+08         0.29058E+06         0.00000E+00
    0.29058E+06        -0.19288E+07         0.00000E+00
    0.00000E+00         0.00000E+00        -0.17936E+08
 
   -0.17864E+08         0.29748E+06         0.00000E+00
    0.29748E+06        -0.19308E+07         0.00000E+00
    0.00000E+00         0.00000E+00        -0.17895E+08
 
   -0.17824E+08         0.30402E+06         0.00000E+00
    0.30402E+06        -0.19326E+07         0.00000E+00
    0.00000E+00         0.00000E+00        -0.17853E+08
 
   -0.17783E+08         0.31022E+06         0.00000E+00
    0.31022E+06        -0.19342E+07         0.00000E+00
    0.00000E+00         0.00000E+00        -0.17811E+08
 
   -0.17742E+08         0.31613E+06         0.00000E+00
    0.31613E+06        -0.19356E+07         0.00000E+00
    0.00000E+00         0.00000E+00        -0.17769E+08
 
   -0.17700E+08         0.32176E+06         0.00000E+00
    0.32176E+06        -0.19368E+07         0.00000E+00
    0.00000E+00         0.00000E+00        -0.17726E+08
 
   -0.17657E+08         0.32714E+06         0.00000E+00
    0.32714E+06        -0.19379E+07         0.00000E+00
    0.00000E+00         0.00000E+00        -0.17682E+08
 
   -0.17614E+08         0.33231E+06         0.00000E+00
    0.33231E+06        -0.19389E+07         0.00000E+00
    0.00000E+00         0.00000E+00        -0.17638E+08
 
   -0.17571E+08         0.33727E+06         0.00000E+00
    0.33727E+06        -0.19398E+07         0.00000E+00
    0.00000E+00         0.00000E+00        -0.17594E+08
 
   -0.17527E+08         0.34205E+06         0.00000E+00
    0.34205E+06        -0.19406E+07         0.00000E+00
    0.00000E+00         0.00000E+00        -0.17549E+08
 
   -0.17482E+08         0.34666E+06         0.00000E+00
    0.34666E+06        -0.19413E+07         0.00000E+00
    0.00000E+00         0.00000E+00        -0.17504E+08
 
   -0.17437E+08         0.35113E+06         0.00000E+00
    0.35113E+06        -0.19420E+07         0.00000E+00
    0.00000E+00         0.00000E+00        -0.17459E+08
 
   -0.17392E+08         0.35546E+06         0.00000E+00
    0.35546E+06        -0.19426E+07         0.00000E+00
    0.00000E+00         0.00000E+00        -0.17413E+08
 
   -0.17346E+08         0.35967E+06         0.00000E+00
    0.35967E+06        -0.19431E+07         0.00000E+00
    0.00000E+00         0.00000E+00        -0.17366E+08
 
   -0.17300E+08         0.36377E+06         0.00000E+00
    0.36377E+06        -0.19436E+07         0.00000E+00
    0.00000E+00         0.00000E+00        -0.17320E+08
 
   -0.17253E+08         0.36777E+06         0.00000E+00
    0.36777E+06        -0.19441E+07         0.00000E+00
    0.00000E+00         0.00000E+00        -0.17272E+08
 
   -0.17206E+08         0.37167E+06         0.00000E+00
    0.37167E+06        -0.19445E+07         0.00000E+00
    0.00000E+00         0.00000E+00        -0.17225E+08
 
   -0.17158E+08         0.37548E+06         0.00000E+00
    0.37548E+06        -0.19449E+07         0.00000E+00
    0.00000E+00         0.00000E+00        -0.17177E+08
 
   -0.17110E+08         0.37922E+06         0.00000E+00
    0.37922E+06        -0.19453E+07         0.00000E+00
    0.00000E+00         0.00000E+00        -0.17128E+08
 
   -0.17061E+08         0.38287E+06         0.00000E+00
    0.38287E+06        -0.19456E+07         0.00000E+00
    0.00000E+00         0.00000E+00        -0.17079E+08
 
   -0.17012E+08         0.38645E+06         0.00000E+00
    0.38645E+06        -0.19460E+07         0.00000E+00
    0.00000E+00         0.00000E+00        -0.17030E+08
 
   -0.16962E+08         0.38995E+06         0.00000E+00
    0.38995E+06        -0.19463E+07         0.00000E+00
    0.00000E+00         0.00000E+00        -0.16980E+08
 
   -0.16912E+08         0.39339E+06         0.00000E+00
    0.39339E+06        -0.19466E+07         0.00000E+00
    0.00000E+00         0.00000E+00        -0.16930E+08
 
   -0.16862E+08         0.39675E+06         0.00000E+00
    0.39675E+06        -0.19470E+07         0.00000E+00
    0.00000E+00         0.00000E+00        -0.16879E+08
 
   -0.16811E+08         0.40004E+06         0.00000E+00
    0.40004E+06        -0.19473E+07         0.00000E+00
    0.00000E+00         0.00000E+00        -0.16828E+08
 
   -0.16760E+08         0.40326E+06         0.00000E+00
    0.40326E+06        -0.19476E+07         0.00000E+00
    0.00000E+00         0.00000E+00        -0.16776E+08
 
   -0.16708E+08         0.40641E+06         0.00000E+00
    0.40641E+06        -0.19480E+07         0.00000E+00
    0.00000E+00         0.00000E+00        -0.16724E+08
 
   -0.16656E+08         0.40948E+06         0.00000E+00
    0.40948E+06        -0.19484E+07         0.00000E+00
    0.00000E+00         0.00000E+00        -0.16672E+08
 
   -0.16603E+08         0.41247E+06         0.00000E+00
    0.41247E+06        -0.19487E+07         0.00000E+00
    0.00000E+00         0.00000E+00        -0.16619E+08
 
   -0.16550E+08         0.41537E+06         0.00000E+00
    0.41537E+06        -0.19491E+07         0.00000E+00
    0.00000E+00         0.00000E+00        -0.16565E+08
 
   -0.16497E+08         0.41818E+06         0.00000E+00
    0.41818E+06        -0.19495E+07         0.00000E+00
    0.00000E+00         0.00000E+00        -0.16511E+08
 
   -0.16443E+08         0.42090E+06         0.00000E+00
    0.42090E+06        -0.19500E+07         0.00000E+00
    0.00000E+00         0.00000E+00        -0.16457E+08
 
   -0.16389E+08         0.42351E+06         0.00000E+00
    0.42351E+06        -0.19505E+07         0.00000E+00
    0.00000E+00         0.00000E+00        -0.16403E+08
 
   -0.16334E+08         0.42602E+06         0.00000E+00
    0.42602E+06        -0.19510E+07         0.00000E+00
    0.00000E+00         0.00000E+00        -0.16347E+08
 
   -0.16279E+08         0.42840E+06         0.00000E+00
    0.42840E+06        -0.19515E+07         0.00000E+00
    0.00000E+00         0.00000E+00        -0.16292E+08
 
   -0.16224E+08         0.43066E+06         0.00000E+00
    0.43066E+06        -0.19521E+07         0.00000E+00
    0.00000E+00         0.00000E+00        -0.16236E+08
 
   -0.16168E+08         0.43277E+06         0.00000E+00
    0.43277E+06        -0.19527E+07         0.00000E+00
    0.00000E+00         0.00000E+00        -0.16180E+08
 
   -0.16112E+08         0.43474E+06         0.00000E+00
    0.43474E+06        -0.19534E+07         0.00000E+00
    0.00000E+00         0.00000E+00        -0.16123E+08
 
   -0.16056E+08         0.43654E+06         0.00000E+00
    0.43654E+06        -0.19542E+07         0.00000E+00
    0.00000E+00         0.00000E+00        -0.16066E+08
 
   -0.15999E+08         0.43816E+06         0.00000E+00
    0.43816E+06        -0.19550E+07         0.00000E+00
    0.00000E+00         0.00000E+00        -0.16008E+08
 
   -0.15942E+08         0.43959E+06         0.00000E+00
    0.43959E+06        -0.19558E+07         0.00000E+00
    0.00000E+00         0.00000E+00        -0.15950E+08
 
   -0.15885E+08         0.44081E+06         0.00000E+00
    0.44081E+06        -0.19568E+07         0.00000E+00
    0.00000E+00         0.00000E+00        -0.15892E+08
 
   -0.15827E+08         0.44181E+06         0.00000E+00
    0.44181E+06        -0.19578E+07         0.00000E+00
    0.00000E+00         0.00000E+00        -0.15833E+08
 
   -0.15769E+08         0.44256E+06         0.00000E+00
    0.44256E+06        -0.19589E+07         0.00000E+00
    0.00000E+00         0.00000E+00        -0.15774E+08
 
   -0.15711E+08         0.44304E+06         0.00000E+00
    0.44304E+06        -0.19601E+07         0.00000E+00
    0.00000E+00         0.00000E+00        -0.15715E+08
 
   -0.15653E+08         0.44322E+06         0.00000E+00
    0.44322E+06        -0.19614E+07         0.00000E+00
    0.00000E+00         0.00000E+00        -0.15655E+08
 
   -0.15594E+08         0.44309E+06         0.00000E+00
    0.44309E+06        -0.19629E+07         0.00000E+00
    0.00000E+00         0.00000E+00        -0.15595E+08
 
   -0.15536E+08         0.44261E+06         0.00000E+00
    0.44261E+06        -0.19644E+07         0.00000E+00
    0.00000E+00         0.00000E+00        -0.15535E+08
 
   -0.15477E+08         0.44176E+06         0.00000E+00
    0.44176E+06        -0.19661E+07         0.00000E+00
    0.00000E+00         0.00000E+00        -0.15474E+08
 
   -0.15418E+08         0.44050E+06         0.00000E+00
    0.44050E+06        -0.19680E+07         0.00000E+00
    0.00000E+00         0.00000E+00        -0.15413E+08
 
   -0.15359E+08         0.43879E+06         0.00000E+00
    0.43879E+06        -0.19701E+07         0.00000E+00
    0.00000E+00         0.00000E+00        -0.15352E+08
 
   -0.15300E+08         0.43660E+06         0.00000E+00
    0.43660E+06        -0.19723E+07         0.00000E+00
    0.00000E+00         0.00000E+00        -0.15291E+08
 
   -0.15241E+08         0.43388E+06         0.00000E+00
    0.43388E+06        -0.19748E+07         0.00000E+00
    0.00000E+00         0.00000E+00        -0.15229E+08
 
   -0.15182E+08         0.43059E+06         0.00000E+00
    0.43059E+06        -0.19775E+07         0.00000E+00
    0.00000E+00         0.00000E+00        -0.15168E+08
 
   -0.15123E+08         0.42668E+06         0.00000E+00
    0.42668E+06        -0.19805E+07         0.00000E+00
    0.00000E+00         0.00000E+00        -0.15106E+08
 
   -0.15064E+08         0.42209E+06         0.00000E+00
    0.42209E+06        -0.19837E+07         0.00000E+00
    0.00000E+00         0.00000E+00        -0.15044E+08
 
   -0.15005E+08         0.41677E+06         0.00000E+00
    0.41677E+06        -0.19874E+07         0.00000E+00
    0.00000E+00         0.00000E+00        -0.14982E+08
 
   -0.14947E+08         0.41066E+06         0.00000E+00
    0.41066E+06        -0.19914E+07         0.00000E+00
    0.00000E+00         0.00000E+00        -0.14920E+08
 
   -0.14888E+08         0.40371E+06         0.00000E+00
    0.40371E+06        -0.19959E+07         0.00000E+00
    0.00000E+00         0.00000E+00        -0.14858E+08
 
   -0.14830E+08         0.39583E+06         0.00000E+00
    0.39583E+06        -0.20008E+07         0.00000E+00
    0.00000E+00         0.00000E+00        -0.14796E+08
 
   -0.14773E+08         0.38698E+06         0.00000E+00
    0.38698E+06        -0.20062E+07         0.00000E+00
    0.00000E+00         0.00000E+00        -0.14734E+08
 
   -0.14715E+08         0.37709E+06         0.00000E+00
    0.37709E+06        -0.20122E+07         0.00000E+00
    0.00000E+00         0.00000E+00        -0.14672E+08
 
   -0.14658E+08         0.36608E+06         0.00000E+00
    0.36608E+06        -0.20187E+07         0.00000E+00
    0.00000E+00         0.00000E+00        -0.14610E+08
 
   -0.14602E+08         0.35391E+06         0.00000E+00
    0.35391E+06        -0.20259E+07         0.00000E+00
    0.00000E+00         0.00000E+00        -0.14548E+08
 
   -0.14545E+08         0.34051E+06         0.00000E+00
    0.34051E+06        -0.20335E+07         0.00000E+00
    0.00000E+00         0.00000E+00        -0.14487E+08
 
   -0.14489E+08         0.32584E+06         0.00000E+00
    0.32584E+06        -0.20417E+07         0.00000E+00
    0.00000E+00         0.00000E+00        -0.14425E+08
 
   -0.14433E+08         0.30986E+06         0.00000E+00
    0.30986E+06        -0.20501E+07         0.00000E+00
    0.00000E+00         0.00000E+00        -0.14364E+08
 
   -0.14377E+08         0.29253E+06         0.00000E+00
    0.29253E+06        -0.20588E+07         0.00000E+00
    0.00000E+00         0.00000E+00        -0.14302E+08
 
   -0.14321E+08         0.27385E+06         0.00000E+00
    0.27385E+06        -0.20671E+07         0.00000E+00
    0.00000E+00         0.00000E+00        -0.14240E+08
 
   -0.14265E+08         0.25379E+06         0.00000E+00
    0.25379E+06        -0.20748E+07         0.00000E+00
    0.00000E+00         0.00000E+00        -0.14178E+08
 
   -0.14210E+08         0.23237E+06         0.00000E+00
    0.23237E+06        -0.20811E+07         0.00000E+00
    0.00000E+00         0.00000E+00        -0.14115E+08
 
   -0.14154E+08         0.20959E+06         0.00000E+00
    0.20959E+06        -0.20850E+07         0.00000E+00
    0.00000E+00         0.00000E+00        -0.14052E+08
 
   -0.14099E+08         0.18542E+06         0.00000E+00
    0.18542E+06        -0.20853E+07         0.00000E+00
    0.00000E+00         0.00000E+00        -0.13988E+08
 
   -0.14046E+08         0.15983E+06         0.00000E+00
    0.15983E+06        -0.20804E+07         0.00000E+00
    0.00000E+00         0.00000E+00        -0.13922E+08
 
   -0.13994E+08         0.13272E+06         0.00000E+00
    0.13272E+06        -0.20683E+07         0.00000E+00
    0.00000E+00         0.00000E+00        -0.13855E+08
 
   -0.13947E+08         0.10399E+06         0.00000E+00
    0.10399E+06        -0.20465E+07         0.00000E+00
    0.00000E+00         0.00000E+00        -0.13786E+08
 
   -0.13906E+08         0.73878E+05         0.00000E+00
    0.73878E+05        -0.20127E+07         0.00000E+00
    0.00000E+00         0.00000E+00        -0.13716E+08
 
   -0.13877E+08         0.43487E+05         0.00000E+00
    0.43487E+05        -0.19654E+07         0.00000E+00
    0.00000E+00         0.00000E+00        -0.13645E+08
 
   -0.13862E+08         0.14216E+05         0.00000E+00
    0.14216E+05        -0.19060E+07         0.00000E+00
    0.00000E+00         0.00000E+00        -0.13574E+08
 
   -0.18564E+08         0.83310E+04         0.00000E+00
    0.83310E+04        -0.19855E+07         0.00000E+00
    0.00000E+00         0.00000E+00        -0.18751E+08
 
   -0.18556E+08         0.25519E+05         0.00000E+00
    0.25519E+05        -0.19515E+07         0.00000E+00
    0.00000E+00         0.00000E+00        -0.18710E+08
 
   -0.18539E+08         0.43580E+05         0.00000E+00
    0.43580E+05        -0.19243E+07         0.00000E+00
    0.00000E+00         0.00000E+00        -0.18669E+08
 
   -0.18517E+08         0.61905E+05         0.00000E+00
    0.61905E+05        -0.19046E+07         0.00000E+00
    0.00000E+00         0.00000E+00        -0.18629E+08
 
   -0.18490E+08         0.79853E+05         0.00000E+00
    0.79853E+05        -0.18919E+07         0.00000E+00
    0.00000E+00         0.00000E+00        -0.18589E+08
 
   -0.18461E+08         0.97176E+05         0.00000E+00
    0.97176E+05        -0.18847E+07         0.00000E+00
    0.00000E+00         0.00000E+00        -0.18550E+08
 
   -0.18430E+08         0.11383E+06         0.00000E+00
    0.11383E+06        -0.18817E+07         0.00000E+00
    0.00000E+00         0.00000E+00        -0.18512E+08
 
   -0.18398E+08         0.12981E+06         0.00000E+00
    0.12981E+06        -0.18816E+07         0.00000E+00
    0.00000E+00         0.00000E+00        -0.18474E+08
 
   -0.18365E+08         0.14511E+06         0.00000E+00
    0.14511E+06        -0.18836E+07         0.00000E+00
    0.00000E+00         0.00000E+00        -0.18437E+08
 
   -0.18332E+08         0.15969E+06         0.00000E+00
    0.15969E+06        -0.18869E+07         0.00000E+00
    0.00000E+00         0.00000E+00        -0.18400E+08
 
   -0.18299E+08         0.17356E+06         0.00000E+00
    0.17356E+06        -0.18910E+07         0.00000E+00
    0.00000E+00         0.00000E+00        -0.18362E+08
 
   -0.18265E+08         0.18671E+06         0.00000E+00
    0.18671E+06        -0.18955E+07         0.00000E+00
    0.00000E+00         0.00000E+00        -0.18325E+08
 
   -0.18231E+08         0.19914E+06         0.00000E+00
    0.19914E+06        -0.19001E+07         0.00000E+00
    0.00000E+00         0.00000E+00        -0.18288E+08
 
   -0.18196E+08         0.21086E+06         0.00000E+00
    0.21086E+06        -0.19046E+07         0.00000E+00
    0.00000E+00         0.00000E+00        -0.18250E+08
 
   -0.18161E+08         0.22190E+06         0.00000E+00
    0.22190E+06        -0.19089E+07         0.00000E+00
    0.00000E+00         0.00000E+00        -0.18212E+08
 
   -0.18125E+08         0.23227E+06         0.00000E+00
    0.23227E+06        -0.19129E+07         0.00000E+00
    0.00000E+00         0.00000E+00        -0.18174E+08
 
   -0.18089E+08         0.24203E+06         0.00000E+00
    0.24203E+06        -0.19166E+07         0.00000E+00
    0.00000E+00         0.00000E+00        -0.18135E+08
 
   -0.18053E+08         0.25119E+06         0.00000E+00
    0.25119E+06        -0.19199E+07         0.00000E+00
    0.00000E+00         0.00000E+00        -0.18096E+08
 
   -0.18016E+08         0.25980E+06         0.00000E+00
    0.25980E+06        -0.19229E+07         0.00000E+00
    0.00000E+00         0.00000E+00        -0.18057E+08
 
   -0.17978E+08         0.26790E+06         0.00000E+00
    0.26790E+06        -0.19257E+07         0.00000E+00
    0.00000E+00         0.00000E+00        -0.18017E+08
 
   -0.17939E+08         0.27552E+06         0.00000E+00
    0.27552E+06        -0.19281E+07         0.00000E+00
    0.00000E+00         0.00000E+00        -0.17976E+08
 
   -0.17900E+08         0.28270E+06         0.00000E+00
    0.28270E+06        -0.19302E+07         0.00000E+00
    0.00000E+00         0.00000E+00        -0.17936E+08
 
   -0.17861E+08         0.28949E+06         0.00000E+00
    0.28949E+06        -0.19321E+07         0.00000E+00
    0.00000E+00         0.00000E+00        -0.17894E+08
 
   -0.17821E+08         0.29592E+06         0.00000E+00
    0.29592E+06        -0.19338E+07         0.00000E+00
    0.00000E+00         0.00000E+00        -0.17853E+08
 
   -0.17780E+08         0.30201E+06         0.00000E+00
    0.30201E+06        -0.19354E+07         0.00000E+00
    0.00000E+00         0.00000E+00        -0.17811E+08
 
   -0.17739E+08         0.30781E+06         0.00000E+00
    0.30781E+06        -0.19367E+07         0.00000E+00
    0.00000E+00         0.00000E+00        -0.17768E+08
 
   -0.17697E+08         0.31333E+06         0.00000E+00
    0.31333E+06        -0.19379E+07         0.00000E+00
    0.00000E+00         0.00000E+00        -0.17725E+08
 
   -0.17655E+08         0.31861E+06         0.00000E+00
    0.31861E+06        -0.19390E+07         0.00000E+00
    0.00000E+00         0.00000E+00        -0.17682E+08
 
   -0.17612E+08         0.32367E+06         0.00000E+00
    0.32367E+06        -0.19399E+07         0.00000E+00
    0.00000E+00         0.00000E+00        -0.17638E+08
 
   -0.17568E+08         0.32853E+06         0.00000E+00
    0.32853E+06        -0.19408E+07         0.00000E+00
    0.00000E+00         0.00000E+00        -0.17594E+08
 
   -0.17524E+08         0.33321E+06         0.00000E+00
    0.33321E+06        -0.19415E+07         0.00000E+00
    0.00000E+00         0.00000E+00        -0.17549E+08
 
   -0.17480E+08         0.33772E+06         0.00000E+00
    0.33772E+06        -0.19422E+07         0.00000E+00
    0.00000E+00         0.00000E+00        -0.17504E+08
 
   -0.17435E+08         0.34210E+06         0.00000E+00
    0.34210E+06        -0.19429E+07         0.00000E+00
    0.00000E+00         0.00000E+00        -0.17458E+08
 
   -0.17390E+08         0.34633E+06         0.00000E+00
    0.34633E+06        -0.19434E+07         0.00000E+00
    0.00000E+00         0.00000E+00        -0.17412E+08
 
   -0.17344E+08         0.35045E+06         0.00000E+00
    0.35045E+06        -0.19439E+07         0.00000E+00
    0.00000E+00         0.00000E+00        -0.17366E+08
 
   -0.17298E+08         0.35445E+06         0.00000E+00
    0.35445E+06        -0.19444E+07         0.00000E+00
    0.00000E+00         0.00000E+00        -0.17319E+08
 
   -0.17251E+08         0.35836E+06         0.00000E+00
    0.35836E+06        -0.19449E+07         0.00000E+00
    0.00000E+00         0.00000E+00        -0.17272E+08
 
   -0.17204E+08         0.36217E+06         0.00000E+00
    0.36217E+06        -0.19453E+07         0.00000E+00
    0.00000E+00         0.00000E+00        -0.17224E+08
 
   -0.17156E+08         0.36589E+06         0.00000E+00
    0.36589E+06        -0.19456E+07         0.00000E+00
    0.00000E+00         0.00000E+00        -0.17176E+08
 
   -0.17108E+08         0.36953E+06         0.00000E+00
    0.36953E+06        -0.19460E+07         0.00000E+00
    0.00000E+00         0.00000E+00        -0.17128E+08
 
   -0.17059E+08         0.37310E+06         0.00000E+00
    0.37310E+06        -0.19463E+07         0.00000E+00
    0.00000E+00         0.00000E+00        -0.17079E+08
 
   -0.17010E+08         0.37659E+06         0.00000E+00
    0.37659E+06        -0.19467E+07         0.00000E+00
    0.00000E+00         0.00000E+00        -0.17029E+08
 
   -0.16960E+08         0.38000E+06         0.00000E+00
    0.38000E+06        -0.19470E+07         0.00000E+00
    0.00000E+00         0.00000E+00        -0.16979E+08
 
   -0.16910E+08         0.38335E+06         0.00000E+00
    0.38335E+06        -0.19473E+07         0.00000E+00
    0.00000E+00         0.00000E+00        -0.16929E+08
 
   -0.16860E+08         0.38663E+06         0.00000E+00
    0.38663E+06        -0.19476E+07         0.00000E+00
    0.00000E+00         0.00000E+00        -0.16878E+08
 
   -0.16809E+08         0.38983E+06         0.00000E+00
    0.38983E+06        -0.19480E+07         0.00000E+00
    0.00000E+00         0.00000E+00        -0.16827E+08
 
   -0.16758E+08         0.39297E+06         0.00000E+00
    0.39297E+06        -0.19483E+07         0.00000E+00
    0.00000E+00         0.00000E+00        -0.16776E+08
 
   -0.16706E+08         0.39603E+06         0.00000E+00
    0.39603E+06        -0.19486E+07         0.00000E+00
    0.00000E+00         0.00000E+00        -0.16724E+08
 
   -0.16654E+08         0.39901E+06         0.00000E+00
    0.39901E+06        -0.19489E+07         0.00000E+00
    0.00000E+00         0.00000E+00        -0.16671E+08
 
   -0.16602E+08         0.40192E+06         0.00000E+00
    0.40192E+06        -0.19493E+07         0.00000E+00
    0.00000E+00         0.00000E+00        -0.16618E+08
 
   -0.16549E+08         0.40474E+06         0.00000E+00
    0.40474E+06        -0.19497E+07         0.00000E+00
    0.00000E+00         0.00000E+00        -0.16565E+08
 
   -0.16495E+08         0.40747E+06         0.00000E+00
    0.40747E+06        -0.19501E+07         0.00000E+00
    0.00000E+00         0.00000E+00        -0.16511E+08
 
   -0.16442E+08         0.41010E+06         0.00000E+00
    0.41010E+06        -0.19505E+07         0.00000E+00
    0.00000E+00         0.00000E+00        -0.16457E+08
 
   -0.16387E+08         0.41264E+06         0.00000E+00
    0.41264E+06        -0.19510E+07         0.00000E+00
    0.00000E+00         0.00000E+00        -0.16402E+08
 
   -0.16333E+08         0.41507E+06         0.00000E+00
    0.41507E+06        -0.19514E+07         0.00000E+00
    0.00000E+00         0.00000E+00        -0.16347E+08
 
   -0.16278E+08         0.41737E+06         0.00000E+00
    0.41737E+06        -0.19520E+07         0.00000E+00
    0.00000E+00         0.00000E+00        -0.16292E+08
 
   -0.16223E+08         0.41956E+06         0.00000E+00
    0.41956E+06        -0.19525E+07         0.00000E+00
    0.00000E+00         0.00000E+00        -0.16236E+08
 
   -0.16167E+08         0.42160E+06         0.00000E+00
    0.42160E+06        -0.19531E+07         0.00000E+00
    0.00000E+00         0.00000E+00        -0.16179E+08
 
   -0.16111E+08         0.42350E+06         0.00000E+00
    0.42350E+06        -0.19538E+07         0.00000E+00
    0.00000E+00         0.00000E+00        -0.16123E+08
 
   -0.16055E+08         0.42523E+06         0.00000E+00
    0.42523E+06        -0.19545E+07         0.00000E+00
    0.00000E+00         0.00000E+00        -0.16065E+08
 
   -0.15998E+08         0.42679E+06         0.00000E+00
    0.42679E+06        -0.19553E+07         0.00000E+00
    0.00000E+00         0.00000E+00        -0.16008E+08
 
   -0.15941E+08         0.42816E+06         0.00000E+00
    0.42816E+06        -0.19561E+07         0.00000E+00
    0.00000E+00         0.00000E+00        -0.15950E+08
 
   -0.15884E+08         0.42933E+06         0.00000E+00
    0.42933E+06        -0.19570E+07         0.00000E+00
    0.00000E+00         0.00000E+00        -0.15892E+08
 
   -0.15826E+08         0.43027E+06         0.00000E+00
    0.43027E+06        -0.19580E+07         0.00000E+00
    0.00000E+00         0.00000E+00        -0.15833E+08
 
   -0.15769E+08         0.43097E+06         0.00000E+00
    0.43097E+06        -0.19590E+07         0.00000E+00
    0.00000E+00         0.00000E+00        -0.15774E+08
 
   -0.15711E+08         0.43140E+06         0.00000E+00
    0.43140E+06        -0.19602E+07         0.00000E+00
    0.00000E+00         0.00000E+00        -0.15715E+08
 
   -0.15653E+08         0.43155E+06         0.00000E+00
    0.43155E+06        -0.19614E+07         0.00000E+00
    0.00000E+00         0.00000E+00        -0.15655E+08
 
   -0.15594E+08         0.43138E+06         0.00000E+00
    0.43138E+06        -0.19628E+07         0.00000E+00
    0.00000E+00         0.00000E+00        -0.15595E+08
 
   -0.15536E+08         0.43088E+06         0.00000E+00
    0.43088E+06        -0.19643E+07         0.00000E+00
    0.00000E+00         0.00000E+00        -0.15535E+08
 
   -0.15477E+08         0.43000E+06         0.00000E+00
    0.43000E+06        -0.19659E+07         0.00000E+00
    0.00000E+00         0.00000E+00        -0.15474E+08
 
   -0.15418E+08         0.42872E+06         0.00000E+00
    0.42872E+06        -0.19677E+07         0.00000E+00
    0.00000E+00         0.00000E+00        -0.15413E+08
 
   -0.15359E+08         0.42701E+06         0.00000E+00
    0.42701E+06        -0.19697E+07         0.00000E+00
    0.00000E+00         0.00000E+00        -0.15352E+08
 
   -0.15301E+08         0.42481E+06         0.00000E+00
    0.42481E+06        -0.19718E+07         0.00000E+00
    0.00000E+00         0.00000E+00        -0.15291E+08
 
   -0.15242E+08         0.42210E+06         0.00000E+00
    0.42210E+06        -0.19742E+07         0.00000E+00
    0.00000E+00         0.00000E+00        -0.15230E+08
 
   -0.15183E+08         0.41882E+06         0.00000E+00
    0.41882E+06        -0.19767E+07         0.00000E+00
    0.00000E+00         0.00000E+00        -0.15168E+08
 
   -0.15124E+08         0.41493E+06         0.00000E+00
    0.41493E+06        -0.19796E+07         0.00000E+00
    0.00000E+00         0.00000E+00        -0.15106E+08
 
   -0.15066E+08         0.41037E+06         0.00000E+00
    0.41037E+06        -0.19828E+07         0.00000E+00
    0.00000E+00         0.00000E+00        -0.15044E+08
 
   -0.15008E+08         0.40509E+06         0.00000E+00
    0.40509E+06        -0.19862E+07         0.00000E+00
    0.00000E+00         0.00000E+00        -0.14982E+08
 
   -0.14949E+08         0.39903E+06         0.00000E+00
    0.39903E+06        -0.19901E+07         0.00000E+00
    0.00000E+00         0.00000E+00        -0.14920E+08
 
   -0.14892E+08         0.39212E+06         0.00000E+00
    0.39212E+06        -0.19944E+07         0.00000E+00
    0.00000E+00         0.00000E+00        -0.14858E+08
 
   -0.14834E+08         0.38431E+06         0.00000E+00
    0.38431E+06        -0.19991E+07         0.00000E+00
    0.00000E+00         0.00000E+00        -0.14796E+08
 
   -0.14777E+08         0.37553E+06         0.00000E+00
    0.37553E+06        -0.20044E+07         0.00000E+00
    0.00000E+00         0.00000E+00        -0.14735E+08
 
   -0.14720E+08         0.36570E+06         0.00000E+00
    0.36570E+06        -0.20101E+07         0.00000E+00
    0.00000E+00         0.00000E+00        -0.14673E+08
 
   -0.14664E+08         0.35476E+06         0.00000E+00
    0.35476E+06        -0.20164E+07         0.00000E+00
    0.00000E+00         0.00000E+00        -0.14611E+08
 
   -0.14607E+08         0.34265E+06         0.00000E+00
    0.34265E+06        -0.20233E+07         0.00000E+00
    0.00000E+00         0.00000E+00        -0.14549E+08
 
   -0.14552E+08         0.32931E+06         0.00000E+00
    0.32931E+06        -0.20307E+07         0.00000E+00
    0.00000E+00         0.00000E+00        -0.14488E+08
 
   -0.14496E+08         0.31469E+06         0.00000E+00
    0.31469E+06        -0.20386E+07         0.00000E+00
    0.00000E+00         0.00000E+00        -0.14426E+08
 
   -0.14441E+08         0.29875E+06         0.00000E+00
    0.29875E+06        -0.20468E+07         0.00000E+00
    0.00000E+00         0.00000E+00        -0.14365E+08
 
   -0.14386E+08         0.28145E+06         0.00000E+00
    0.28145E+06        -0.20552E+07         0.00000E+00
    0.00000E+00         0.00000E+00        -0.14303E+08
 
   -0.14331E+08         0.26278E+06         0.00000E+00
    0.26278E+06        -0.20633E+07         0.00000E+00
    0.00000E+00         0.00000E+00        -0.14242E+08
 
   -0.14276E+08         0.24274E+06         0.00000E+00
    0.24274E+06        -0.20707E+07         0.00000E+00
    0.00000E+00         0.00000E+00        -0.14180E+08
 
   -0.14221E+08         0.22135E+06         0.00000E+00
    0.22135E+06        -0.20767E+07         0.00000E+00
    0.00000E+00         0.00000E+00        -0.14118E+08
 
   -0.14167E+08         0.19864E+06         0.00000E+00
    0.19864E+06        -0.20803E+07         0.00000E+00
    0.00000E+00         0.00000E+00        -0.14055E+08
 
   -0.14113E+08         0.17464E+06         0.00000E+00
    0.17464E+06        -0.20804E+07         0.00000E+00
    0.00000E+00         0.00000E+00        -0.13991E+08
 
   -0.14061E+08         0.14940E+06         0.00000E+00
    0.14940E+06        -0.20752E+07         0.00000E+00
    0.00000E+00         0.00000E+00        -0.13925E+08
 
   -0.14011E+08         0.12292E+06         0.00000E+00
    0.12292E+06        -0.20628E+07         0.00000E+00
    0.00000E+00         0.00000E+00        -0.13859E+08
 
   -0.13966E+08         0.95314E+05         0.00000E+00
    0.95314E+05        -0.20407E+07         0.00000E+00
    0.00000E+00         0.00000E+00        -0.13790E+08
 
   -0.13928E+08         0.67008E+05         0.00000E+00
    0.67008E+05        -0.20068E+07         0.00000E+00
    0.00000E+00         0.00000E+00        -0.13721E+08
 
   -0.13901E+08         0.39126E+05         0.00000E+00
    0.39126E+05        -0.19597E+07         0.00000E+00
    0.00000E+00         0.00000E+00        -0.13650E+08
 
   -0.13887E+08         0.12740E+05         0.00000E+00
    0.12740E+05        -0.19007E+07         0.00000E+00
    0.00000E+00         0.00000E+00        -0.13580E+08
 
   -0.18549E+08         0.75251E+04         0.00000E+00
    0.75251E+04        -0.19887E+07         0.00000E+00
    0.00000E+00         0.00000E+00        -0.18747E+08
 
   -0.18541E+08         0.23130E+05         0.00000E+00
    0.23130E+05        -0.19548E+07         0.00000E+00
    0.00000E+00         0.00000E+00        -0.18707E+08
 
   -0.18526E+08         0.39780E+05         0.00000E+00
    0.39780E+05        -0.19278E+07         0.00000E+00
    0.00000E+00         0.00000E+00        -0.18666E+08
 
   -0.18505E+08         0.57036E+05         0.00000E+00
    0.57036E+05        -0.19082E+07         0.00000E+00
    0.00000E+00         0.00000E+00        -0.18626E+08
 
   -0.18479E+08         0.74281E+05         0.00000E+00
    0.74281E+05        -0.18954E+07         0.00000E+00
    0.00000E+00         0.00000E+00        -0.18587E+08
 
   -0.18451E+08         0.91171E+05         0.00000E+00
    0.91171E+05        -0.18881E+07         0.00000E+00
    0.00000E+00         0.00000E+00        -0.18548E+08
 
   -0.18421E+08         0.10757E+06         0.00000E+00
    0.10757E+06        -0.18849E+07         0.00000E+00
    0.00000E+00         0.00000E+00        -0.18510E+08
 
   -0.18389E+08         0.12339E+06         0.00000E+00
    0.12339E+06        -0.18847E+07         0.00000E+00
    0.00000E+00         0.00000E+00        -0.18472E+08
 
   -0.18357E+08         0.13858E+06         0.00000E+00
    0.13858E+06        -0.18866E+07         0.00000E+00
    0.00000E+00         0.00000E+00        -0.18435E+08
 
   -0.18325E+08         0.15309E+06         0.00000E+00
    0.15309E+06        -0.18898E+07         0.00000E+00
    0.00000E+00         0.00000E+00        -0.18398E+08
 
   -0.18292E+08         0.16689E+06         0.00000E+00
    0.16689E+06        -0.18937E+07         0.00000E+00
    0.00000E+00         0.00000E+00        -0.18361E+08
 
   -0.18258E+08         0.17996E+06         0.00000E+00
    0.17996E+06        -0.18981E+07         0.00000E+00
    0.00000E+00         0.00000E+00        -0.18324E+08
 
   -0.18225E+08         0.19231E+06         0.00000E+00
    0.19231E+06        -0.19025E+07         0.00000E+00
    0.00000E+00         0.00000E+00        -0.18287E+08
 
   -0.18190E+08         0.20394E+06         0.00000E+00
    0.20394E+06        -0.19069E+07         0.00000E+00
    0.00000E+00         0.00000E+00        -0.18249E+08
 
   -0.18156E+08         0.21488E+06         0.00000E+00
    0.21488E+06        -0.19110E+07         0.00000E+00
    0.00000E+00         0.00000E+00        -0.18212E+08
 
   -0.18121E+08         0.22515E+06         0.00000E+00
    0.22515E+06        -0.19149E+07         0.00000E+00
    0.00000E+00         0.00000E+00        -0.18173E+08
 
   -0.18085E+08         0.23479E+06         0.00000E+00
    0.23479E+06        -0.19185E+07         0.00000E+00
    0.00000E+00         0.00000E+00        -0.18135E+08
 
   -0.18048E+08         0.24383E+06         0.00000E+00
    0.24383E+06        -0.19217E+07         0.00000E+00
    0.00000E+00         0.00000E+00        -0.18096E+08
 
   -0.18012E+08         0.25232E+06         0.00000E+00
    0.25232E+06        -0.19246E+07         0.00000E+00
    0.00000E+00         0.00000E+00        -0.18056E+08
 
   -0.17974E+08         0.26030E+06         0.00000E+00
    0.26030E+06        -0.19272E+07         0.00000E+00
    0.00000E+00         0.00000E+00        -0.18016E+08
 
   -0.17936E+08         0.26780E+06         0.00000E+00
    0.26780E+06        -0.19295E+07         0.00000E+00
    0.00000E+00         0.00000E+00        -0.17976E+08
 
   -0.17897E+08         0.27487E+06         0.00000E+00
    0.27487E+06        -0.19316E+07         0.00000E+00
    0.00000E+00         0.00000E+00        -0.17935E+08
 
   -0.17858E+08         0.28154E+06         0.00000E+00
    0.28154E+06        -0.19335E+07         0.00000E+00
    0.00000E+00         0.00000E+00        -0.17894E+08
 
   -0.17818E+08         0.28785E+06         0.00000E+00
    0.28785E+06        -0.19351E+07         0.00000E+00
    0.00000E+00         0.00000E+00        -0.17852E+08
 
   -0.17777E+08         0.29383E+06         0.00000E+00
    0.29383E+06        -0.19365E+07         0.00000E+00
    0.00000E+00         0.00000E+00        -0.17810E+08
 
   -0.17736E+08         0.29951E+06         0.00000E+00
    0.29951E+06        -0.19378E+07         0.00000E+00
    0.00000E+00         0.00000E+00        -0.17767E+08
 
   -0.17694E+08         0.30492E+06         0.00000E+00
    0.30492E+06        -0.19390E+07         0.00000E+00
    0.00000E+00         0.00000E+00        -0.17724E+08
 
   -0.17652E+08         0.31010E+06         0.00000E+00
    0.31010E+06        -0.19400E+07         0.00000E+00
    0.00000E+00         0.00000E+00        -0.17681E+08
 
   -0.17609E+08         0.31505E+06         0.00000E+00
    0.31505E+06        -0.19409E+07         0.00000E+00
    0.00000E+00         0.00000E+00        -0.17637E+08
 
   -0.17566E+08         0.31981E+06         0.00000E+00
    0.31981E+06        -0.19417E+07         0.00000E+00
    0.00000E+00         0.00000E+00        -0.17593E+08
 
   -0.17522E+08         0.32438E+06         0.00000E+00
    0.32438E+06        -0.19424E+07         0.00000E+00
    0.00000E+00         0.00000E+00        -0.17548E+08
 
   -0.17478E+08         0.32880E+06         0.00000E+00
    0.32880E+06        -0.19431E+07         0.00000E+00
    0.00000E+00         0.00000E+00        -0.17503E+08
 
   -0.17433E+08         0.33307E+06         0.00000E+00
    0.33307E+06        -0.19437E+07         0.00000E+00
    0.00000E+00         0.00000E+00        -0.17458E+08
 
   -0.17387E+08         0.33721E+06         0.00000E+00
    0.33721E+06        -0.19442E+07         0.00000E+00
    0.00000E+00         0.00000E+00        -0.17412E+08
 
   -0.17342E+08         0.34124E+06         0.00000E+00
    0.34124E+06        -0.19447E+07         0.00000E+00
    0.00000E+00         0.00000E+00        -0.17365E+08
 
   -0.17295E+08         0.34515E+06         0.00000E+00
    0.34515E+06        -0.19452E+07         0.00000E+00
    0.00000E+00         0.00000E+00        -0.17319E+08
 
   -0.17249E+08         0.34896E+06         0.00000E+00
    0.34896E+06        -0.19456E+07         0.00000E+00
    0.00000E+00         0.00000E+00        -0.17271E+08
 
   -0.17201E+08         0.35268E+06         0.00000E+00
    0.35268E+06        -0.19460E+07         0.00000E+00
    0.00000E+00         0.00000E+00        -0.17224E+08
 
   -0.17154E+08         0.35631E+06         0.00000E+00
    0.35631E+06        -0.19464E+07         0.00000E+00
    0.00000E+00         0.00000E+00        -0.17176E+08
 
   -0.17106E+08         0.35986E+06         0.00000E+00
    0.35986E+06        -0.19467E+07         0.00000E+00
    0.00000E+00         0.00000E+00        -0.17127E+08
 
   -0.17057E+08         0.36333E+06         0.00000E+00
    0.36333E+06        -0.19470E+07         0.00000E+00
    0.00000E+00         0.00000E+00        -0.17078E+08
 
   -0.17008E+08         0.36673E+06         0.00000E+00
    0.36673E+06        -0.19474E+07         0.00000E+00
    0.00000E+00         0.00000E+00        -0.17029E+08
 
   -0.16959E+08         0.37006E+06         0.00000E+00
    0.37006E+06        -0.19477E+07         0.00000E+00
    0.00000E+00         0.00000E+00        -0.16979E+08
 
   -0.16909E+08         0.37332E+06         0.00000E+00
    0.37332E+06        -0.19480E+07         0.00000E+00
    0.00000E+00         0.00000E+00        -0.16929E+08
 
   -0.16858E+08         0.37651E+06         0.00000E+00
    0.37651E+06        -0.19483E+07         0.00000E+00
    0.00000E+00         0.00000E+00        -0.16878E+08
 
   -0.16807E+08         0.37963E+06         0.00000E+00
    0.37963E+06        -0.19486E+07         0.00000E+00
    0.00000E+00         0.00000E+00        -0.16827E+08
 
   -0.16756E+08         0.38267E+06         0.00000E+00
    0.38267E+06        -0.19489E+07         0.00000E+00
    0.00000E+00         0.00000E+00        -0.16775E+08
 
   -0.16705E+08         0.38565E+06         0.00000E+00
    0.38565E+06        -0.19492E+07         0.00000E+00
    0.00000E+00         0.00000E+00        -0.16723E+08
 
   -0.16652E+08         0.38855E+06         0.00000E+00
    0.38855E+06        -0.19495E+07         0.00000E+00
    0.00000E+00         0.00000E+00        -0.16671E+08
 
   -0.16600E+08         0.39137E+06         0.00000E+00
    0.39137E+06        -0.19499E+07         0.00000E+00
    0.00000E+00         0.00000E+00        -0.16618E+08
 
   -0.16547E+08         0.39411E+06         0.00000E+00
    0.39411E+06        -0.19502E+07         0.00000E+00
    0.00000E+00         0.00000E+00        -0.16565E+08
 
   -0.16494E+08         0.39676E+06         0.00000E+00
    0.39676E+06        -0.19506E+07         0.00000E+00
    0.00000E+00         0.00000E+00        -0.16511E+08
 
   -0.16440E+08         0.39932E+06         0.00000E+00
    0.39932E+06        -0.19510E+07         0.00000E+00
    0.00000E+00         0.00000E+00        -0.16457E+08
 
   -0.16386E+08         0.40178E+06         0.00000E+00
    0.40178E+06        -0.19514E+07         0.00000E+00
    0.00000E+00         0.00000E+00        -0.16402E+08
 
   -0.16331E+08         0.40413E+06         0.00000E+00
    0.40413E+06        -0.19519E+07         0.00000E+00
    0.00000E+00         0.00000E+00        -0.16347E+08
 
   -0.16277E+08         0.40636E+06         0.00000E+00
    0.40636E+06        -0.19524E+07         0.00000E+00
    0.00000E+00         0.00000E+00        -0.16291E+08
 
   -0.16221E+08         0.40847E+06         0.00000E+00
    0.40847E+06        -0.19529E+07         0.00000E+00
    0.00000E+00         0.00000E+00        -0.16235E+08
 
   -0.16166E+08         0.41044E+06         0.00000E+00
    0.41044E+06        -0.19535E+07         0.00000E+00
    0.00000E+00         0.00000E+00        -0.16179E+08
 
   -0.16110E+08         0.41227E+06         0.00000E+00
    0.41227E+06        -0.19541E+07         0.00000E+00
    0.00000E+00         0.00000E+00        -0.16122E+08
 
   -0.16054E+08         0.41394E+06         0.00000E+00
    0.41394E+06        -0.19548E+07         0.00000E+00
    0.00000E+00         0.00000E+00        -0.16065E+08
 
   -0.15997E+08         0.41544E+06         0.00000E+00
    0.41544E+06        -0.19555E+07         0.00000E+00
    0.00000E+00         0.00000E+00        -0.16008E+08
 
   -0.15940E+08         0.41675E+06         0.00000E+00
    0.41675E+06        -0.19563E+07         0.00000E+00
    0.00000E+00         0.00000E+00        -0.15950E+08
 
   -0.15883E+08         0.41786E+06         0.00000E+00
    0.41786E+06        -0.19572E+07         0.00000E+00
    0.00000E+00         0.00000E+00        -0.15892E+08
 
   -0.15826E+08         0.41875E+06         0.00000E+00
    0.41875E+06        -0.19581E+07         0.00000E+00
    0.00000E+00         0.00000E+00        -0.15833E+08
 
   -0.15768E+08         0.41941E+06         0.00000E+00
    0.41941E+06        -0.19591E+07         0.00000E+00
    0.00000E+00         0.00000E+00        -0.15774E+08
 
   -0.15710E+08         0.41980E+06         0.00000E+00
    0.41980E+06        -0.19602E+07         0.00000E+00
    0.00000E+00         0.00000E+00        -0.15715E+08
 
   -0.15652E+08         0.41991E+06         0.00000E+00
    0.41991E+06        -0.19614E+07         0.00000E+00
    0.00000E+00         0.00000E+00        -0.15655E+08
 
   -0.15594E+08         0.41971E+06         0.00000E+00
    0.41971E+06        -0.19627E+07         0.00000E+00
    0.00000E+00         0.00000E+00        -0.15595E+08
 
   -0.15536E+08         0.41918E+06         0.00000E+00
    0.41918E+06        -0.19642E+07         0.00000E+00
    0.00000E+00         0.00000E+00        -0.15535E+08
 
   -0.15477E+08         0.41828E+06         0.00000E+00
    0.41828E+06        -0.19657E+07         0.00000E+00
    0.00000E+00         0.00000E+00        -0.15474E+08
 
   -0.15419E+08         0.41699E+06         0.00000E+00
    0.41699E+06        -0.19674E+07         0.00000E+00
    0.00000E+00         0.00000E+00        -0.15413E+08
 
   -0.15360E+08         0.41526E+06         0.00000E+00
    0.41526E+06        -0.19693E+07         0.00000E+00
    0.00000E+00         0.00000E+00        -0.15352E+08
 
   -0.15301E+08         0.41307E+06         0.00000E+00
    0.41307E+06        -0.19713E+07         0.00000E+00
    0.00000E+00         0.00000E+00        -0.15291E+08
 
   -0.15243E+08         0.41037E+06         0.00000E+00
    0.41037E+06        -0.19736E+07         0.00000E+00
    0.00000E+00         0.00000E+00        -0.15230E+08
 
   -0.15184E+08         0.40711E+06         0.00000E+00
    0.40711E+06        -0.19760E+07         0.00000E+00
    0.00000E+00         0.00000E+00        -0.15168E+08
 
   -0.15126E+08         0.40324E+06         0.00000E+00
    0.40324E+06        -0.19788E+07         0.00000E+00
    0.00000E+00         0.00000E+00        -0.15106E+08
 
   -0.15068E+08         0.39872E+06         0.00000E+00
    0.39872E+06        -0.19818E+07         0.00000E+00
    0.00000E+00         0.00000E+00        -0.15045E+08
 
   -0.15010E+08         0.39348E+06         0.00000E+00
    0.39348E+06        -0.19851E+07         0.00000E+00
    0.00000E+00         0.00000E+00        -0.14983E+08
 
   -0.14952E+08         0.38747E+06         0.00000E+00
    0.38747E+06        -0.19888E+07         0.00000E+00
    0.00000E+00         0.00000E+00        -0.14921E+08
 
   -0.14895E+08         0.38063E+06         0.00000E+00
    0.38063E+06        -0.19929E+07         0.00000E+00
    0.00000E+00         0.00000E+00        -0.14859E+08
 
   -0.14838E+08         0.37288E+06         0.00000E+00
    0.37288E+06        -0.19975E+07         0.00000E+00
    0.00000E+00         0.00000E+00        -0.14797E+08
 
   -0.14781E+08         0.36417E+06         0.00000E+00
    0.36417E+06        -0.20025E+07         0.00000E+00
    0.00000E+00         0.00000E+00        -0.14735E+08
 
   -0.14725E+08         0.35441E+06         0.00000E+00
    0.35441E+06        -0.20080E+07         0.00000E+00
    0.00000E+00         0.00000E+00        -0.14673E+08
 
   -0.14669E+08         0.34355E+06         0.00000E+00
    0.34355E+06        -0.20141E+07         0.00000E+00
    0.00000E+00         0.00000E+00        -0.14612E+08
 
   -0.14613E+08         0.33152E+06         0.00000E+00
    0.33152E+06        -0.20208E+07         0.00000E+00
    0.00000E+00         0.00000E+00        -0.14550E+08
 
   -0.14558E+08         0.31825E+06         0.00000E+00
    0.31825E+06        -0.20279E+07         0.00000E+00
    0.00000E+00         0.00000E+00        -0.14489E+08
 
   -0.14503E+08         0.30369E+06         0.00000E+00
    0.30369E+06        -0.20356E+07         0.00000E+00
    0.00000E+00         0.00000E+00        -0.14428E+08
 
   -0.14449E+08         0.28779E+06         0.00000E+00
    0.28779E+06        -0.20435E+07         0.00000E+00
    0.00000E+00         0.00000E+00        -0.14366E+08
 
   -0.14394E+08         0.27054E+06         0.00000E+00
    0.27054E+06        -0.20516E+07         0.00000E+00
    0.00000E+00         0.00000E+00        -0.14305E+08
 
   -0.14340E+08         0.25190E+06         0.00000E+00
    0.25190E+06        -0.20594E+07         0.00000E+00
    0.00000E+00         0.00000E+00        -0.14244E+08
 
   -0.14287E+08         0.23189E+06         0.00000E+00
    0.23189E+06        -0.20665E+07         0.00000E+00
    0.00000E+00         0.00000E+00        -0.14182E+08
 
   -0.14233E+08         0.21056E+06         0.00000E+00
    0.21056E+06        -0.20723E+07         0.00000E+00
    0.00000E+00         0.00000E+00        -0.14120E+08
 
   -0.14180E+08         0.18795E+06         0.00000E+00
    0.18795E+06        -0.20757E+07         0.00000E+00
    0.00000E+00         0.00000E+00        -0.14057E+08
 
   -0.14128E+08         0.16415E+06         0.00000E+00
    0.16415E+06        -0.20755E+07         0.00000E+00
    0.00000E+00         0.00000E+00        -0.13993E+08
 
   -0.14077E+08         0.13929E+06         0.00000E+00
    0.13929E+06        -0.20701E+07         0.00000E+00
    0.00000E+00         0.00000E+00        -0.13928E+08
 
   -0.14029E+08         0.11351E+06         0.00000E+00
    0.11351E+06        -0.20574E+07         0.00000E+00
    0.00000E+00         0.00000E+00        -0.13862E+08
 
   -0.13985E+08         0.87058E+05         0.00000E+00
    0.87058E+05        -0.20353E+07         0.00000E+00
    0.00000E+00         0.00000E+00        -0.13794E+08
 
   -0.13949E+08         0.60548E+05         0.00000E+00
    0.60548E+05        -0.20013E+07         0.00000E+00
    0.00000E+00         0.00000E+00        -0.13725E+08
 
   -0.13924E+08         0.35061E+05         0.00000E+00
    0.35061E+05        -0.19545E+07         0.00000E+00
    0.00000E+00         0.00000E+00        -0.13655E+08
 
   -0.13910E+08         0.11368E+05         0.00000E+00
    0.11368E+05        -0.18958E+07         0.00000E+00
    0.00000E+00         0.00000E+00        -0.13586E+08
 
   -0.18535E+08         0.67684E+04         0.00000E+00
    0.67684E+04        -0.19916E+07         0.00000E+00
    0.00000E+00         0.00000E+00        -0.18744E+08
 
   -0.18527E+08         0.20883E+05         0.00000E+00
    0.20883E+05        -0.19579E+07         0.00000E+00
    0.00000E+00         0.00000E+00        -0.18703E+08
 
   -0.18513E+08         0.36184E+05         0.00000E+00
    0.36184E+05        -0.19311E+07         0.00000E+00
    0.00000E+00         0.00000E+00        -0.18663E+08
 
   -0.18493E+08         0.52387E+05         0.00000E+00
    0.52387E+05        -0.19116E+07         0.00000E+00
    0.00000E+00         0.00000E+00        -0.18623E+08
 
   -0.18468E+08         0.68912E+05         0.00000E+00
    0.68912E+05        -0.18988E+07         0.00000E+00
    0.00000E+00         0.00000E+00        -0.18584E+08
 
   -0.18441E+08         0.85345E+05         0.00000E+00
    0.85345E+05        -0.18914E+07         0.00000E+00
    0.00000E+00         0.00000E+00        -0.18546E+08
 
   -0.18411E+08         0.10146E+06         0.00000E+00
    0.10146E+06        -0.18881E+07         0.00000E+00
    0.00000E+00         0.00000E+00        -0.18508E+08
 
   -0.18381E+08         0.11710E+06         0.00000E+00
    0.11710E+06        -0.18878E+07         0.00000E+00
    0.00000E+00         0.00000E+00        -0.18471E+08
 
   -0.18349E+08         0.13217E+06         0.00000E+00
    0.13217E+06        -0.18895E+07         0.00000E+00
    0.00000E+00         0.00000E+00        -0.18434E+08
 
   -0.18317E+08         0.14659E+06         0.00000E+00
    0.14659E+06        -0.18926E+07         0.00000E+00
    0.00000E+00         0.00000E+00        -0.18397E+08
 
   -0.18285E+08         0.16031E+06         0.00000E+00
    0.16031E+06        -0.18964E+07         0.00000E+00
    0.00000E+00         0.00000E+00        -0.18360E+08
 
   -0.18252E+08         0.17330E+06         0.00000E+00
    0.17330E+06        -0.19006E+07         0.00000E+00
    0.00000E+00         0.00000E+00        -0.18323E+08
 
   -0.18219E+08         0.18556E+06         0.00000E+00
    0.18556E+06        -0.19049E+07         0.00000E+00
    0.00000E+00         0.00000E+00        -0.18286E+08
 
   -0.18185E+08         0.19709E+06         0.00000E+00
    0.19709E+06        -0.19091E+07         0.00000E+00
    0.00000E+00         0.00000E+00        -0.18248E+08
 
   -0.18151E+08         0.20792E+06         0.00000E+00
    0.20792E+06        -0.19131E+07         0.00000E+00
    0.00000E+00         0.00000E+00        -0.18211E+08
 
   -0.18116E+08         0.21808E+06         0.00000E+00
    0.21808E+06        -0.19169E+07         0.00000E+00
    0.00000E+00         0.00000E+00        -0.18172E+08
 
   -0.18080E+08         0.22760E+06         0.00000E+00
    0.22760E+06        -0.19203E+07         0.00000E+00
    0.00000E+00         0.00000E+00        -0.18134E+08
 
   -0.18044E+08         0.23653E+06         0.00000E+00
    0.23653E+06        -0.19234E+07         0.00000E+00
    0.00000E+00         0.00000E+00        -0.18095E+08
 
   -0.18008E+08         0.24489E+06         0.00000E+00
    0.24489E+06        -0.19262E+07         0.00000E+00
    0.00000E+00         0.00000E+00        -0.18055E+08
 
   -0.17970E+08         0.25275E+06         0.00000E+00
    0.25275E+06        -0.19287E+07         0.00000E+00
    0.00000E+00         0.00000E+00        -0.18016E+08
 
   -0.17932E+08         0.26012E+06         0.00000E+00
    0.26012E+06        -0.19310E+07         0.00000E+00
    0.00000E+00         0.00000E+00        -0.17975E+08
 
   -0.17894E+08         0.26707E+06         0.00000E+00
    0.26707E+06        -0.19330E+07         0.00000E+00
    0.00000E+00         0.00000E+00        -0.17934E+08
 
   -0.17854E+08         0.27361E+06         0.00000E+00
    0.27361E+06        -0.19347E+07         0.00000E+00
    0.00000E+00         0.00000E+00        -0.17893E+08
 
   -0.17815E+08         0.27980E+06         0.00000E+00
    0.27980E+06        -0.19363E+07         0.00000E+00
    0.00000E+00         0.00000E+00        -0.17852E+08
 
   -0.17774E+08         0.28567E+06         0.00000E+00
    0.28567E+06        -0.19377E+07         0.00000E+00
    0.00000E+00         0.00000E+00        -0.17809E+08
 
   -0.17733E+08         0.29123E+06         0.00000E+00
    0.29123E+06        -0.19389E+07         0.00000E+00
    0.00000E+00         0.00000E+00        -0.17767E+08
 
   -0.17691E+08         0.29654E+06         0.00000E+00
    0.29654E+06        -0.19400E+07         0.00000E+00
    0.00000E+00         0.00000E+00        -0.17724E+08
 
   -0.17649E+08         0.30160E+06         0.00000E+00
    0.30160E+06        -0.19410E+07         0.00000E+00
    0.00000E+00         0.00000E+00        -0.17681E+08
 
   -0.17607E+08         0.30645E+06         0.00000E+00
    0.30645E+06        -0.19419E+07         0.00000E+00
    0.00000E+00         0.00000E+00        -0.17637E+08
 
   -0.17563E+08         0.31110E+06         0.00000E+00
    0.31110E+06        -0.19426E+07         0.00000E+00
    0.00000E+00         0.00000E+00        -0.17593E+08
 
   -0.17520E+08         0.31557E+06         0.00000E+00
    0.31557E+06        -0.19433E+07         0.00000E+00
    0.00000E+00         0.00000E+00        -0.17548E+08
 
   -0.17475E+08         0.31989E+06         0.00000E+00
    0.31989E+06        -0.19440E+07         0.00000E+00
    0.00000E+00         0.00000E+00        -0.17503E+08
 
   -0.17431E+08         0.32406E+06         0.00000E+00
    0.32406E+06        -0.19445E+07         0.00000E+00
    0.00000E+00         0.00000E+00        -0.17457E+08
 
   -0.17385E+08         0.32811E+06         0.00000E+00
    0.32811E+06        -0.19451E+07         0.00000E+00
    0.00000E+00         0.00000E+00        -0.17411E+08
 
   -0.17340E+08         0.33203E+06         0.00000E+00
    0.33203E+06        -0.19455E+07         0.00000E+00
    0.00000E+00         0.00000E+00        -0.17365E+08
 
   -0.17293E+08         0.33585E+06         0.00000E+00
    0.33585E+06        -0.19460E+07         0.00000E+00
    0.00000E+00         0.00000E+00        -0.17318E+08
 
   -0.17247E+08         0.33956E+06         0.00000E+00
    0.33956E+06        -0.19464E+07         0.00000E+00
    0.00000E+00         0.00000E+00        -0.17271E+08
 
   -0.17199E+08         0.34319E+06         0.00000E+00
    0.34319E+06        -0.19467E+07         0.00000E+00
    0.00000E+00         0.00000E+00        -0.17223E+08
 
   -0.17152E+08         0.34673E+06         0.00000E+00
    0.34673E+06        -0.19471E+07         0.00000E+00
    0.00000E+00         0.00000E+00        -0.17175E+08
 
   -0.17104E+08         0.35019E+06         0.00000E+00
    0.35019E+06        -0.19474E+07         0.00000E+00
    0.00000E+00         0.00000E+00        -0.17127E+08
 
   -0.17055E+08         0.35357E+06         0.00000E+00
    0.35357E+06        -0.19477E+07         0.00000E+00
    0.00000E+00         0.00000E+00        -0.17078E+08
 
   -0.17006E+08         0.35688E+06         0.00000E+00
    0.35688E+06        -0.19480E+07         0.00000E+00
    0.00000E+00         0.00000E+00        -0.17029E+08
 
   -0.16957E+08         0.36012E+06         0.00000E+00
    0.36012E+06        -0.19483E+07         0.00000E+00
    0.00000E+00         0.00000E+00        -0.16979E+08
 
   -0.16907E+08         0.36329E+06         0.00000E+00
    0.36329E+06        -0.19486E+07         0.00000E+00
    0.00000E+00         0.00000E+00        -0.16928E+08
 
   -0.16856E+08         0.36639E+06         0.00000E+00
    0.36639E+06        -0.19489E+07         0.00000E+00
    0.00000E+00         0.00000E+00        -0.16878E+08
 
   -0.16806E+08         0.36943E+06         0.00000E+00
    0.36943E+06        -0.19492E+07         0.00000E+00
    0.00000E+00         0.00000E+00        -0.16827E+08
 
   -0.16754E+08         0.37239E+06         0.00000E+00
    0.37239E+06        -0.19495E+07         0.00000E+00
    0.00000E+00         0.00000E+00        -0.16775E+08
 
   -0.16703E+08         0.37528E+06         0.00000E+00
    0.37528E+06        -0.19498E+07         0.00000E+00
    0.00000E+00         0.00000E+00        -0.16723E+08
 
   -0.16651E+08         0.37810E+06         0.00000E+00
    0.37810E+06        -0.19501E+07         0.00000E+00
    0.00000E+00         0.00000E+00        -0.16671E+08
 
   -0.16598E+08         0.38084E+06         0.00000E+00
    0.38084E+06        -0.19504E+07         0.00000E+00
    0.00000E+00         0.00000E+00        -0.16618E+08
 
   -0.16545E+08         0.38349E+06         0.00000E+00
    0.38349E+06        -0.19508E+07         0.00000E+00
    0.00000E+00         0.00000E+00        -0.16564E+08
 
   -0.16492E+08         0.38606E+06         0.00000E+00
    0.38606E+06        -0.19511E+07         0.00000E+00
    0.00000E+00         0.00000E+00        -0.16511E+08
 
   -0.16438E+08         0.38854E+06         0.00000E+00
    0.38854E+06        -0.19515E+07         0.00000E+00
    0.00000E+00         0.00000E+00        -0.16456E+08
 
   -0.16384E+08         0.39092E+06         0.00000E+00
    0.39092E+06        -0.19519E+07         0.00000E+00
    0.00000E+00         0.00000E+00        -0.16402E+08
 
   -0.16330E+08         0.39320E+06         0.00000E+00
    0.39320E+06        -0.19524E+07         0.00000E+00
    0.00000E+00         0.00000E+00        -0.16347E+08
 
   -0.16275E+08         0.39536E+06         0.00000E+00
    0.39536E+06        -0.19528E+07         0.00000E+00
    0.00000E+00         0.00000E+00        -0.16291E+08
 
   -0.16220E+08         0.39740E+06         0.00000E+00
    0.39740E+06        -0.19533E+07         0.00000E+00
    0.00000E+00         0.00000E+00        -0.16235E+08
 
   -0.16165E+08         0.39930E+06         0.00000E+00
    0.39930E+06        -0.19539E+07         0.00000E+00
    0.00000E+00         0.00000E+00        -0.16179E+08
 
   -0.16109E+08         0.40107E+06         0.00000E+00
    0.40107E+06        -0.19545E+07         0.00000E+00
    0.00000E+00         0.00000E+00        -0.16122E+08
 
   -0.16053E+08         0.40267E+06         0.00000E+00
    0.40267E+06        -0.19551E+07         0.00000E+00
    0.00000E+00         0.00000E+00        -0.16065E+08
 
   -0.15996E+08         0.40411E+06         0.00000E+00
    0.40411E+06        -0.19558E+07         0.00000E+00
    0.00000E+00         0.00000E+00        -0.16008E+08
 
   -0.15939E+08         0.40537E+06         0.00000E+00
    0.40537E+06        -0.19566E+07         0.00000E+00
    0.00000E+00         0.00000E+00        -0.15950E+08
 
   -0.15882E+08         0.40642E+06         0.00000E+00
    0.40642E+06        -0.19574E+07         0.00000E+00
    0.00000E+00         0.00000E+00        -0.15891E+08
 
   -0.15825E+08         0.40726E+06         0.00000E+00
    0.40726E+06        -0.19583E+07         0.00000E+00
    0.00000E+00         0.00000E+00        -0.15833E+08
 
   -0.15768E+08         0.40787E+06         0.00000E+00
    0.40787E+06        -0.19592E+07         0.00000E+00
    0.00000E+00         0.00000E+00        -0.15774E+08
 
   -0.15710E+08         0.40822E+06         0.00000E+00
    0.40822E+06        -0.19603E+07         0.00000E+00
    0.00000E+00         0.00000E+00        -0.15714E+08
 
   -0.15652E+08         0.40829E+06         0.00000E+00
    0.40829E+06        -0.19614E+07         0.00000E+00
    0.00000E+00         0.00000E+00        -0.15655E+08
 
   -0.15594E+08         0.40807E+06         0.00000E+00
    0.40807E+06        -0.19627E+07         0.00000E+00
    0.00000E+00         0.00000E+00        -0.15595E+08
 
   -0.15536E+08         0.40751E+06         0.00000E+00
    0.40751E+06        -0.19640E+07         0.00000E+00
    0.00000E+00         0.00000E+00        -0.15535E+08
 
   -0.15477E+08         0.40660E+06         0.00000E+00
    0.40660E+06        -0.19655E+07         0.00000E+00
    0.00000E+00         0.00000E+00        -0.15474E+08
 
   -0.15419E+08         0.40530E+06         0.00000E+00
    0.40530E+06        -0.19671E+07         0.00000E+00
    0.00000E+00         0.00000E+00        -0.15413E+08
 
   -0.15361E+08         0.40357E+06         0.00000E+00
    0.40357E+06        -0.19689E+07         0.00000E+00
    0.00000E+00         0.00000E+00        -0.15352E+08
 
   -0.15302E+08         0.40138E+06         0.00000E+00
    0.40138E+06        -0.19708E+07         0.00000E+00
    0.00000E+00         0.00000E+00        -0.15291E+08
 
   -0.15244E+08         0.39869E+06         0.00000E+00
    0.39869E+06        -0.19730E+07         0.00000E+00
    0.00000E+00         0.00000E+00        -0.15230E+08
 
   -0.15186E+08         0.39545E+06         0.00000E+00
    0.39545E+06        -0.19753E+07         0.00000E+00
    0.00000E+00         0.00000E+00        -0.15168E+08
 
   -0.15128E+08         0.39162E+06         0.00000E+00
    0.39162E+06        -0.19779E+07         0.00000E+00
    0.00000E+00         0.00000E+00        -0.15107E+08
 
   -0.15070E+08         0.38714E+06         0.00000E+00
    0.38714E+06        -0.19808E+07         0.00000E+00
    0.00000E+00         0.00000E+00        -0.15045E+08
 
   -0.15012E+08         0.38195E+06         0.00000E+00
    0.38195E+06        -0.19840E+07         0.00000E+00
    0.00000E+00         0.00000E+00        -0.14983E+08
 
   -0.14955E+08         0.37600E+06         0.00000E+00
    0.37600E+06        -0.19875E+07         0.00000E+00
    0.00000E+00         0.00000E+00        -0.14921E+08
 
   -0.14898E+08         0.36922E+06         0.00000E+00
    0.36922E+06        -0.19915E+07         0.00000E+00
    0.00000E+00         0.00000E+00        -0.14859E+08
 
   -0.14841E+08         0.36155E+06         0.00000E+00
    0.36155E+06        -0.19958E+07         0.00000E+00
    0.00000E+00         0.00000E+00        -0.14798E+08
 
   -0.14785E+08         0.35291E+06         0.00000E+00
    0.35291E+06        -0.20007E+07         0.00000E+00
    0.00000E+00         0.00000E+00        -0.14736E+08
 
   -0.14729E+08         0.34324E+06         0.00000E+00
    0.34324E+06        -0.20060E+07         0.00000E+00
    0.00000E+00         0.00000E+00        -0.14674E+08
 
   -0.14674E+08         0.33246E+06         0.00000E+00
    0.33246E+06        -0.20119E+07         0.00000E+00
    0.00000E+00         0.00000E+00        -0.14613E+08
 
   -0.14619E+08         0.32051E+06         0.00000E+00
    0.32051E+06        -0.20183E+07         0.00000E+00
    0.00000E+00         0.00000E+00        -0.14551E+08
 
   -0.14564E+08         0.30732E+06         0.00000E+00
    0.30732E+06        -0.20252E+07         0.00000E+00
    0.00000E+00         0.00000E+00        -0.14490E+08
 
   -0.14510E+08         0.29283E+06         0.00000E+00
    0.29283E+06        -0.20325E+07         0.00000E+00
    0.00000E+00         0.00000E+00        -0.14429E+08
 
   -0.14456E+08         0.27700E+06         0.00000E+00
    0.27700E+06        -0.20402E+07         0.00000E+00
    0.00000E+00         0.00000E+00        -0.14368E+08
 
   -0.14403E+08         0.25979E+06         0.00000E+00
    0.25979E+06        -0.20480E+07         0.00000E+00
    0.00000E+00         0.00000E+00        -0.14307E+08
 
   -0.14350E+08         0.24120E+06         0.00000E+00
    0.24120E+06        -0.20555E+07         0.00000E+00
    0.00000E+00         0.00000E+00        -0.14245E+08
 
   -0.14297E+08         0.22125E+06         0.00000E+00
    0.22125E+06        -0.20624E+07         0.00000E+00
    0.00000E+00         0.00000E+00        -0.14184E+08
 
   -0.14245E+08         0.19999E+06         0.00000E+00
    0.19999E+06        -0.20679E+07         0.00000E+00
    0.00000E+00         0.00000E+00        -0.14122E+08
 
   -0.14193E+08         0.17750E+06         0.00000E+00
    0.17750E+06        -0.20710E+07         0.00000E+00
    0.00000E+00         0.00000E+00        -0.14059E+08
 
   -0.14142E+08         0.15394E+06         0.00000E+00
    0.15394E+06        -0.20706E+07         0.00000E+00
    0.00000E+00         0.00000E+00        -0.13996E+08
 
   -0.14092E+08         0.12950E+06         0.00000E+00
    0.12950E+06        -0.20650E+07         0.00000E+00
    0.00000E+00         0.00000E+00        -0.13932E+08
 
   -0.14046E+08         0.10445E+06         0.00000E+00
    0.10445E+06        -0.20523E+07         0.00000E+00
    0.00000E+00         0.00000E+00        -0.13866E+08
 
   -0.14005E+08         0.79187E+05         0.00000E+00
    0.79187E+05        -0.20301E+07         0.00000E+00
    0.00000E+00         0.00000E+00        -0.13799E+08
 
   -0.13970E+08         0.54448E+05         0.00000E+00
    0.54448E+05        -0.19963E+07         0.00000E+00
    0.00000E+00         0.00000E+00        -0.13730E+08
 
   -0.13946E+08         0.31244E+05         0.00000E+00
    0.31244E+05        -0.19498E+07         0.00000E+00
    0.00000E+00         0.00000E+00        -0.13661E+08
 
   -0.13934E+08         0.10082E+05         0.00000E+00
    0.10082E+05        -0.18915E+07         0.00000E+00
    0.00000E+00         0.00000E+00        -0.13591E+08
 
   -0.18521E+08         0.60526E+04         0.00000E+00
    0.60526E+04        -0.19942E+07         0.00000E+00
    0.00000E+00         0.00000E+00        -0.18740E+08
 
   -0.18514E+08         0.18757E+05         0.00000E+00
    0.18757E+05        -0.19607E+07         0.00000E+00
    0.00000E+00         0.00000E+00        -0.18700E+08
 
   -0.18500E+08         0.32767E+05         0.00000E+00
    0.32767E+05        -0.19342E+07         0.00000E+00
    0.00000E+00         0.00000E+00        -0.18660E+08
 
   -0.18481E+08         0.47938E+05         0.00000E+00
    0.47938E+05        -0.19148E+07         0.00000E+00
    0.00000E+00         0.00000E+00        -0.18621E+08
 
   -0.18457E+08         0.63735E+05         0.00000E+00
    0.63735E+05        -0.19020E+07         0.00000E+00
    0.00000E+00         0.00000E+00        -0.18582E+08
 
   -0.18431E+08         0.79695E+05         0.00000E+00
    0.79695E+05        -0.18946E+07         0.00000E+00
    0.00000E+00         0.00000E+00        -0.18544E+08
 
   -0.18402E+08         0.95506E+05         0.00000E+00
    0.95506E+05        -0.18913E+07         0.00000E+00
    0.00000E+00         0.00000E+00        -0.18506E+08
 
   -0.18372E+08         0.11096E+06         0.00000E+00
    0.11096E+06        -0.18909E+07         0.00000E+00
    0.00000E+00         0.00000E+00        -0.18469E+08
 
   -0.18341E+08         0.12589E+06         0.00000E+00
    0.12589E+06        -0.18925E+07         0.00000E+00
    0.00000E+00         0.00000E+00        -0.18432E+08
 
   -0.18310E+08         0.14021E+06         0.00000E+00
    0.14021E+06        -0.18954E+07         0.00000E+00
    0.00000E+00         0.00000E+00        -0.18396E+08
 
   -0.18278E+08         0.15383E+06         0.00000E+00
    0.15383E+06        -0.18991E+07         0.00000E+00
    0.00000E+00         0.00000E+00        -0.18359E+08
 
   -0.18246E+08         0.16673E+06         0.00000E+00
    0.16673E+06        -0.19031E+07         0.00000E+00
    0.00000E+00         0.00000E+00        -0.18322E+08
 
   -0.18213E+08         0.17889E+06         0.00000E+00
    0.17889E+06        -0.19073E+07         0.00000E+00
    0.00000E+00         0.00000E+00        -0.18285E+08
 
   -0.18180E+08         0.19032E+06         0.00000E+00
    0.19032E+06        -0.19113E+07         0.00000E+00
    0.00000E+00         0.00000E+00        -0.18247E+08
 
   -0.18146E+08         0.20104E+06         0.00000E+00
    0.20104E+06        -0.19152E+07         0.00000E+00
    0.00000E+00         0.00000E+00        -0.18210E+08
 
   -0.18111E+08         0.21108E+06         0.00000E+00
    0.21108E+06        -0.19188E+07         0.00000E+00
    0.00000E+00         0.00000E+00        -0.18172E+08
 
   -0.18076E+08         0.22048E+06         0.00000E+00
    0.22048E+06        -0.19221E+07         0.00000E+00
    0.00000E+00         0.00000E+00        -0.18133E+08
 
   -0.18040E+08         0.22927E+06         0.00000E+00
    0.22927E+06        -0.19251E+07         0.00000E+00
    0.00000E+00         0.00000E+00        -0.18094E+08
 
   -0.18004E+08         0.23751E+06         0.00000E+00
    0.23751E+06        -0.19278E+07         0.00000E+00
    0.00000E+00         0.00000E+00        -0.18055E+08
 
   -0.17966E+08         0.24523E+06         0.00000E+00
    0.24523E+06        -0.19303E+07         0.00000E+00
    0.00000E+00         0.00000E+00        -0.18015E+08
 
   -0.17929E+08         0.25248E+06         0.00000E+00
    0.25248E+06        -0.19324E+07         0.00000E+00
    0.00000E+00         0.00000E+00        -0.17975E+08
 
   -0.17890E+08         0.25930E+06         0.00000E+00
    0.25930E+06        -0.19343E+07         0.00000E+00
    0.00000E+00         0.00000E+00        -0.17934E+08
 
   -0.17851E+08         0.26572E+06         0.00000E+00
    0.26572E+06        -0.19360E+07         0.00000E+00
    0.00000E+00         0.00000E+00        -0.17893E+08
 
   -0.17811E+08         0.27179E+06         0.00000E+00
    0.27179E+06        -0.19375E+07         0.00000E+00
    0.00000E+00         0.00000E+00        -0.17851E+08
 
   -0.17771E+08         0.27753E+06         0.00000E+00
    0.27753E+06        -0.19388E+07         0.00000E+00
    0.00000E+00         0.00000E+00        -0.17809E+08
 
   -0.17730E+08         0.28298E+06         0.00000E+00
    0.28298E+06        -0.19400E+07         0.00000E+00
    0.00000E+00         0.00000E+00        -0.17766E+08
 
   -0.17689E+08         0.28817E+06         0.00000E+00
    0.28817E+06        -0.19410E+07         0.00000E+00
    0.00000E+00         0.00000E+00        -0.17723E+08
 
   -0.17647E+08         0.29312E+06         0.00000E+00
    0.29312E+06        -0.19420E+07         0.00000E+00
    0.00000E+00         0.00000E+00        -0.17680E+08
 
   -0.17604E+08         0.29786E+06         0.00000E+00
    0.29786E+06        -0.19428E+07         0.00000E+00
    0.00000E+00         0.00000E+00        -0.17636E+08
 
   -0.17561E+08         0.30241E+06         0.00000E+00
    0.30241E+06        -0.19435E+07         0.00000E+00
    0.00000E+00         0.00000E+00        -0.17592E+08
 
   -0.17517E+08         0.30678E+06         0.00000E+00
    0.30678E+06        -0.19442E+07         0.00000E+00
    0.00000E+00         0.00000E+00        -0.17547E+08
 
   -0.17473E+08         0.31099E+06         0.00000E+00
    0.31099E+06        -0.19448E+07         0.00000E+00
    0.00000E+00         0.00000E+00        -0.17502E+08
 
   -0.17428E+08         0.31506E+06         0.00000E+00
    0.31506E+06        -0.19453E+07         0.00000E+00
    0.00000E+00         0.00000E+00        -0.17457E+08
 
   -0.17383E+08         0.31901E+06         0.00000E+00
    0.31901E+06        -0.19458E+07         0.00000E+00
    0.00000E+00         0.00000E+00        -0.17411E+08
 
   -0.17337E+08         0.32284E+06         0.00000E+00
    0.32284E+06        -0.19463E+07         0.00000E+00
    0.00000E+00         0.00000E+00        -0.17365E+08
 
   -0.17291E+08         0.32656E+06         0.00000E+00
    0.32656E+06        -0.19467E+07         0.00000E+00
    0.00000E+00         0.00000E+00        -0.17318E+08
 
   -0.17244E+08         0.33018E+06         0.00000E+00
    0.33018E+06        -0.19471E+07         0.00000E+00
    0.00000E+00         0.00000E+00        -0.17271E+08
 
   -0.17197E+08         0.33371E+06         0.00000E+00
    0.33371E+06        -0.19474E+07         0.00000E+00
    0.00000E+00         0.00000E+00        -0.17223E+08
 
   -0.17150E+08         0.33716E+06         0.00000E+00
    0.33716E+06        -0.19478E+07         0.00000E+00
    0.00000E+00         0.00000E+00        -0.17175E+08
 
   -0.17102E+08         0.34052E+06         0.00000E+00
    0.34052E+06        -0.19481E+07         0.00000E+00
    0.00000E+00         0.00000E+00        -0.17126E+08
 
   -0.17053E+08         0.34382E+06         0.00000E+00
    0.34382E+06        -0.19484E+07         0.00000E+00
    0.00000E+00         0.00000E+00        -0.17078E+08
 
   -0.17004E+08         0.34704E+06         0.00000E+00
    0.34704E+06        -0.19487E+07         0.00000E+00
    0.00000E+00         0.00000E+00        -0.17028E+08
 
   -0.16955E+08         0.35019E+06         0.00000E+00
    0.35019E+06        -0.19490E+07         0.00000E+00
    0.00000E+00         0.00000E+00        -0.16978E+08
 
   -0.16905E+08         0.35327E+06         0.00000E+00
    0.35327E+06        -0.19492E+07         0.00000E+00
    0.00000E+00         0.00000E+00        -0.16928E+08
 
   -0.16855E+08         0.35629E+06         0.00000E+00
    0.35629E+06        -0.19495E+07         0.00000E+00
    0.00000E+00         0.00000E+00        -0.16877E+08
 
   -0.16804E+08         0.35923E+06         0.00000E+00
    0.35923E+06        -0.19498E+07         0.00000E+00
    0.00000E+00         0.00000E+00        -0.16826E+08
 
   -0.16753E+08         0.36211E+06         0.00000E+00
    0.36211E+06        -0.19501E+07         0.00000E+00
    0.00000E+00         0.00000E+00        -0.16775E+08
 
   -0.16701E+08         0.36492E+06         0.00000E+00
    0.36492E+06        -0.19503E+07         0.00000E+00
    0.00000E+00         0.00000E+00        -0.16723E+08
 
   -0.16649E+08         0.36765E+06         0.00000E+00
    0.36765E+06        -0.19506E+07         0.00000E+00
    0.00000E+00         0.00000E+00        -0.16670E+08
 
   -0.16597E+08         0.37031E+06         0.00000E+00
    0.37031E+06        -0.19509E+07         0.00000E+00
    0.00000E+00         0.00000E+00        -0.16617E+08
 
   -0.16544E+08         0.37288E+06         0.00000E+00
    0.37288E+06        -0.19513E+07         0.00000E+00
    0.00000E+00         0.00000E+00        -0.16564E+08
 
   -0.16491E+08         0.37537E+06         0.00000E+00
    0.37537E+06        -0.19516E+07         0.00000E+00
    0.00000E+00         0.00000E+00        -0.16510E+08
 
   -0.16437E+08         0.37778E+06         0.00000E+00
    0.37778E+06        -0.19520E+07         0.00000E+00
    0.00000E+00         0.00000E+00        -0.16456E+08
 
   -0.16383E+08         0.38008E+06         0.00000E+00
    0.38008E+06        -0.19524E+07         0.00000E+00
    0.00000E+00         0.00000E+00        -0.16401E+08
 
   -0.16329E+08         0.38228E+06         0.00000E+00
    0.38228E+06        -0.19528E+07         0.00000E+00
    0.00000E+00         0.00000E+00        -0.16346E+08
 
   -0.16274E+08         0.38437E+06         0.00000E+00
    0.38437E+06        -0.19532E+07         0.00000E+00
    0.00000E+00         0.00000E+00        -0.16291E+08
 
   -0.16219E+08         0.38634E+06         0.00000E+00
    0.38634E+06        -0.19537E+07         0.00000E+00
    0.00000E+00         0.00000E+00        -0.16235E+08
 
   -0.16163E+08         0.38818E+06         0.00000E+00
    0.38818E+06        -0.19543E+07         0.00000E+00
    0.00000E+00         0.00000E+00        -0.16179E+08
 
   -0.16108E+08         0.38987E+06         0.00000E+00
    0.38987E+06        -0.19548E+07         0.00000E+00
    0.00000E+00         0.00000E+00        -0.16122E+08
 
   -0.16051E+08         0.39142E+06         0.00000E+00
    0.39142E+06        -0.19554E+07         0.00000E+00
    0.00000E+00         0.00000E+00        -0.16065E+08
 
   -0.15995E+08         0.39280E+06         0.00000E+00
    0.39280E+06        -0.19561E+07         0.00000E+00
    0.00000E+00         0.00000E+00        -0.16007E+08
 
   -0.15938E+08         0.39400E+06         0.00000E+00
    0.39400E+06        -0.19568E+07         0.00000E+00
    0.00000E+00         0.00000E+00        -0.15949E+08
 
   -0.15881E+08         0.39500E+06         0.00000E+00
    0.39500E+06        -0.19576E+07         0.00000E+00
    0.00000E+00         0.00000E+00        -0.15891E+08
 
   -0.15824E+08         0.39579E+06         0.00000E+00
    0.39579E+06        -0.19584E+07         0.00000E+00
    0.00000E+00         0.00000E+00        -0.15833E+08
 
   -0.15767E+08         0.39636E+06         0.00000E+00
    0.39636E+06        -0.19593E+07         0.00000E+00
    0.00000E+00         0.00000E+00        -0.15774E+08
 
   -0.15709E+08         0.39667E+06         0.00000E+00
    0.39667E+06        -0.19603E+07         0.00000E+00
    0.00000E+00         0.00000E+00        -0.15714E+08
 
   -0.15652E+08         0.39671E+06         0.00000E+00
    0.39671E+06        -0.19614E+07         0.00000E+00
    0.00000E+00         0.00000E+00        -0.15655E+08
 
   -0.15594E+08         0.39646E+06         0.00000E+00
    0.39646E+06        -0.19626E+07         0.00000E+00
    0.00000E+00         0.00000E+00        -0.15595E+08
 
   -0.15536E+08         0.39588E+06         0.00000E+00
    0.39588E+06        -0.19639E+07         0.00000E+00
    0.00000E+00         0.00000E+00        -0.15535E+08
 
   -0.15478E+08         0.39495E+06         0.00000E+00
    0.39495E+06        -0.19653E+07         0.00000E+00
    0.00000E+00         0.00000E+00        -0.15474E+08
 
   -0.15419E+08         0.39364E+06         0.00000E+00
    0.39364E+06        -0.19668E+07         0.00000E+00
    0.00000E+00         0.00000E+00        -0.15413E+08
 
   -0.15361E+08         0.39192E+06         0.00000E+00
    0.39192E+06        -0.19685E+07         0.00000E+00
    0.00000E+00         0.00000E+00        -0.15352E+08
 
   -0.15303E+08         0.38974E+06         0.00000E+00
    0.38974E+06        -0.19703E+07         0.00000E+00
    0.00000E+00         0.00000E+00        -0.15291E+08
 
   -0.15245E+08         0.38707E+06         0.00000E+00
    0.38707E+06        -0.19724E+07         0.00000E+00
    0.00000E+00         0.00000E+00        -0.15230E+08
 
   -0.15187E+08         0.38385E+06         0.00000E+00
    0.38385E+06        -0.19746E+07         0.00000E+00
    0.00000E+00         0.00000E+00        -0.15169E+08
 
   -0.15129E+08         0.38006E+06         0.00000E+00
    0.38006E+06        -0.19771E+07         0.00000E+00
    0.00000E+00         0.00000E+00        -0.15107E+08
 
   -0.15072E+08         0.37562E+06         0.00000E+00
    0.37562E+06        -0.19799E+07         0.00000E+00
    0.00000E+00         0.00000E+00        -0.15045E+08
 
   -0.15015E+08         0.37049E+06         0.00000E+00
    0.37049E+06        -0.19829E+07         0.00000E+00
    0.00000E+00         0.00000E+00        -0.14983E+08
 
   -0.14958E+08         0.36460E+06         0.00000E+00
    0.36460E+06        -0.19863E+07         0.00000E+00
    0.00000E+00         0.00000E+00        -0.14922E+08
 
   -0.14901E+08         0.35790E+06         0.00000E+00
    0.35790E+06        -0.19900E+07         0.00000E+00
    0.00000E+00         0.00000E+00        -0.14860E+08
 
   -0.14845E+08         0.35030E+06         0.00000E+00
    0.35030E+06        -0.19942E+07         0.00000E+00
    0.00000E+00         0.00000E+00        -0.14798E+08
 
   -0.14789E+08         0.34175E+06         0.00000E+00
    0.34175E+06        -0.19988E+07         0.00000E+00
    0.00000E+00         0.00000E+00        -0.14737E+08
 
   -0.14734E+08         0.33217E+06         0.00000E+00
    0.33217E+06        -0.20040E+07         0.00000E+00
    0.00000E+00         0.00000E+00        -0.14675E+08
 
   -0.14679E+08         0.32148E+06         0.00000E+00
    0.32148E+06        -0.20096E+07         0.00000E+00
    0.00000E+00         0.00000E+00        -0.14614E+08
 
   -0.14625E+08         0.30962E+06         0.00000E+00
    0.30962E+06        -0.20158E+07         0.00000E+00
    0.00000E+00         0.00000E+00        -0.14552E+08
 
   -0.14571E+08         0.29652E+06         0.00000E+00
    0.29652E+06        -0.20224E+07         0.00000E+00
    0.00000E+00         0.00000E+00        -0.14491E+08
 
   -0.14517E+08         0.28211E+06         0.00000E+00
    0.28211E+06        -0.20295E+07         0.00000E+00
    0.00000E+00         0.00000E+00        -0.14430E+08
 
   -0.14464E+08         0.26636E+06         0.00000E+00
    0.26636E+06        -0.20369E+07         0.00000E+00
    0.00000E+00         0.00000E+00        -0.14369E+08
 
   -0.14412E+08         0.24922E+06         0.00000E+00
    0.24922E+06        -0.20444E+07         0.00000E+00
    0.00000E+00         0.00000E+00        -0.14308E+08
 
   -0.14360E+08         0.23070E+06         0.00000E+00
    0.23070E+06        -0.20517E+07         0.00000E+00
    0.00000E+00         0.00000E+00        -0.14247E+08
 
   -0.14308E+08         0.21082E+06         0.00000E+00
    0.21082E+06        -0.20583E+07         0.00000E+00
    0.00000E+00         0.00000E+00        -0.14186E+08
 
   -0.14256E+08         0.18965E+06         0.00000E+00
    0.18965E+06        -0.20635E+07         0.00000E+00
    0.00000E+00         0.00000E+00        -0.14124E+08
 
   -0.14206E+08         0.16731E+06         0.00000E+00
    0.16731E+06        -0.20664E+07         0.00000E+00
    0.00000E+00         0.00000E+00        -0.14062E+08
 
   -0.14156E+08         0.14402E+06         0.00000E+00
    0.14402E+06        -0.20658E+07         0.00000E+00
    0.00000E+00         0.00000E+00        -0.13999E+08
 
   -0.14108E+08         0.12003E+06         0.00000E+00
    0.12003E+06        -0.20601E+07         0.00000E+00
    0.00000E+00         0.00000E+00        -0.13935E+08
 
   -0.14063E+08         0.95732E+05         0.00000E+00
    0.95732E+05        -0.20473E+07         0.00000E+00
    0.00000E+00         0.00000E+00        -0.13870E+08
 
   -0.14024E+08         0.71671E+05         0.00000E+00
    0.71671E+05        -0.20252E+07         0.00000E+00
    0.00000E+00         0.00000E+00        -0.13803E+08
 
   -0.13991E+08         0.48663E+05         0.00000E+00
    0.48663E+05        -0.19916E+07         0.00000E+00
    0.00000E+00         0.00000E+00        -0.13735E+08
 
   -0.13968E+08         0.27640E+05         0.00000E+00
    0.27640E+05        -0.19457E+07         0.00000E+00
    0.00000E+00         0.00000E+00        -0.13666E+08
 
   -0.13956E+08         0.88680E+04         0.00000E+00
    0.88680E+04        -0.18877E+07         0.00000E+00
    0.00000E+00         0.00000E+00        -0.13597E+08
 
   -0.18507E+08         0.53714E+04         0.00000E+00
    0.53714E+04        -0.19964E+07         0.00000E+00
    0.00000E+00         0.00000E+00        -0.18737E+08
 
   -0.18500E+08         0.16733E+05         0.00000E+00
    0.16733E+05        -0.19632E+07         0.00000E+00
    0.00000E+00         0.00000E+00        -0.18697E+08
 
   -0.18487E+08         0.29508E+05         0.00000E+00
    0.29508E+05        -0.19370E+07         0.00000E+00
    0.00000E+00         0.00000E+00        -0.18657E+08
 
   -0.18469E+08         0.43672E+05         0.00000E+00
    0.43672E+05        -0.19178E+07         0.00000E+00
    0.00000E+00         0.00000E+00        -0.18618E+08
 
   -0.18446E+08         0.58742E+05         0.00000E+00
    0.58742E+05        -0.19051E+07         0.00000E+00
    0.00000E+00         0.00000E+00        -0.18580E+08
 
   -0.18420E+08         0.74216E+05         0.00000E+00
    0.74216E+05        -0.18978E+07         0.00000E+00
    0.00000E+00         0.00000E+00        -0.18542E+08
 
   -0.18393E+08         0.89711E+05         0.00000E+00
    0.89711E+05        -0.18944E+07         0.00000E+00
    0.00000E+00         0.00000E+00        -0.18504E+08
 
   -0.18364E+08         0.10495E+06         0.00000E+00
    0.10495E+06        -0.18939E+07         0.00000E+00
    0.00000E+00         0.00000E+00        -0.18467E+08
 
   -0.18333E+08         0.11974E+06         0.00000E+00
    0.11974E+06        -0.18954E+07         0.00000E+00
    0.00000E+00         0.00000E+00        -0.18431E+08
 
   -0.18303E+08         0.13394E+06         0.00000E+00
    0.13394E+06        -0.18982E+07         0.00000E+00
    0.00000E+00         0.00000E+00        -0.18394E+08
 
   -0.18271E+08         0.14746E+06         0.00000E+00
    0.14746E+06        -0.19017E+07         0.00000E+00
    0.00000E+00         0.00000E+00        -0.18358E+08
 
   -0.18240E+08         0.16025E+06         0.00000E+00
    0.16025E+06        -0.19056E+07         0.00000E+00
    0.00000E+00         0.00000E+00        -0.18321E+08
 
   -0.18207E+08         0.17231E+06         0.00000E+00
    0.17231E+06        -0.19096E+07         0.00000E+00
    0.00000E+00         0.00000E+00        -0.18284E+08
 
   -0.18174E+08         0.18362E+06         0.00000E+00
    0.18362E+06        -0.19135E+07         0.00000E+00
    0.00000E+00         0.00000E+00        -0.18246E+08
 
   -0.18141E+08         0.19422E+06         0.00000E+00
    0.19422E+06        -0.19173E+07         0.00000E+00
    0.00000E+00         0.00000E+00        -0.18209E+08
 
   -0.18106E+08         0.20414E+06         0.00000E+00
    0.20414E+06        -0.19208E+07         0.00000E+00
    0.00000E+00         0.00000E+00        -0.18171E+08
 
   -0.18071E+08         0.21341E+06         0.00000E+00
    0.21341E+06        -0.19239E+07         0.00000E+00
    0.00000E+00         0.00000E+00        -0.18132E+08
 
   -0.18036E+08         0.22207E+06         0.00000E+00
    0.22207E+06        -0.19268E+07         0.00000E+00
    0.00000E+00         0.00000E+00        -0.18093E+08
 
   -0.18000E+08         0.23018E+06         0.00000E+00
    0.23018E+06        -0.19294E+07         0.00000E+00
    0.00000E+00         0.00000E+00        -0.18054E+08
 
   -0.17963E+08         0.23776E+06         0.00000E+00
    0.23776E+06        -0.19317E+07         0.00000E+00
    0.00000E+00         0.00000E+00        -0.18014E+08
 
   -0.17925E+08         0.24488E+06         0.00000E+00
    0.24488E+06        -0.19338E+07         0.00000E+00
    0.00000E+00         0.00000E+00        -0.17974E+08
 
   -0.17887E+08         0.25157E+06         0.00000E+00
    0.25157E+06        -0.19356E+07         0.00000E+00
    0.00000E+00         0.00000E+00        -0.17933E+08
 
   -0.17848E+08         0.25786E+06         0.00000E+00
    0.25786E+06        -0.19372E+07         0.00000E+00
    0.00000E+00         0.00000E+00        -0.17892E+08
 
   -0.17808E+08         0.26380E+06         0.00000E+00
    0.26380E+06        -0.19387E+07         0.00000E+00
    0.00000E+00         0.00000E+00        -0.17850E+08
 
   -0.17768E+08         0.26942E+06         0.00000E+00
    0.26942E+06        -0.19399E+07         0.00000E+00
    0.00000E+00         0.00000E+00        -0.17808E+08
 
   -0.17727E+08         0.27475E+06         0.00000E+00
    0.27475E+06        -0.19410E+07         0.00000E+00
    0.00000E+00         0.00000E+00        -0.17766E+08
 
   -0.17686E+08         0.27983E+06         0.00000E+00
    0.27983E+06        -0.19420E+07         0.00000E+00
    0.00000E+00         0.00000E+00        -0.17723E+08
 
   -0.17644E+08         0.28466E+06         0.00000E+00
    0.28466E+06        -0.19429E+07         0.00000E+00
    0.00000E+00         0.00000E+00        -0.17680E+08
 
   -0.17602E+08         0.28929E+06         0.00000E+00
    0.28929E+06        -0.19437E+07         0.00000E+00
    0.00000E+00         0.00000E+00        -0.17636E+08
 
   -0.17558E+08         0.29373E+06         0.00000E+00
    0.29373E+06        -0.19444E+07         0.00000E+00
    0.00000E+00         0.00000E+00        -0.17592E+08
 
   -0.17515E+08         0.29799E+06         0.00000E+00
    0.29799E+06        -0.19451E+07         0.00000E+00
    0.00000E+00         0.00000E+00        -0.17547E+08
 
   -0.17471E+08         0.30210E+06         0.00000E+00
    0.30210E+06        -0.19456E+07         0.00000E+00
    0.00000E+00         0.00000E+00        -0.17502E+08
 
   -0.17426E+08         0.30608E+06         0.00000E+00
    0.30608E+06        -0.19461E+07         0.00000E+00
    0.00000E+00         0.00000E+00        -0.17456E+08
 
   -0.17381E+08         0.30992E+06         0.00000E+00
    0.30992E+06        -0.19466E+07         0.00000E+00
    0.00000E+00         0.00000E+00        -0.17411E+08
 
   -0.17335E+08         0.31365E+06         0.00000E+00
    0.31365E+06        -0.19470E+07         0.00000E+00
    0.00000E+00         0.00000E+00        -0.17364E+08
 
   -0.17289E+08         0.31727E+06         0.00000E+00
    0.31727E+06        -0.19474E+07         0.00000E+00
    0.00000E+00         0.00000E+00        -0.17317E+08
 
   -0.17242E+08         0.32080E+06         0.00000E+00
    0.32080E+06        -0.19478E+07         0.00000E+00
    0.00000E+00         0.00000E+00        -0.17270E+08
 
   -0.17195E+08         0.32424E+06         0.00000E+00
    0.32424E+06        -0.19481E+07         0.00000E+00
    0.00000E+00         0.00000E+00        -0.17223E+08
 
   -0.17148E+08         0.32759E+06         0.00000E+00
    0.32759E+06        -0.19484E+07         0.00000E+00
    0.00000E+00         0.00000E+00        -0.17175E+08
 
   -0.17100E+08         0.33087E+06         0.00000E+00
    0.33087E+06        -0.19487E+07         0.00000E+00
    0.00000E+00         0.00000E+00        -0.17126E+08
 
   -0.17051E+08         0.33407E+06         0.00000E+00
    0.33407E+06        -0.19490E+07         0.00000E+00
    0.00000E+00         0.00000E+00        -0.17077E+08
 
   -0.17002E+08         0.33720E+06         0.00000E+00
    0.33720E+06        -0.19493E+07         0.00000E+00
    0.00000E+00         0.00000E+00        -0.17028E+08
 
   -0.16953E+08         0.34026E+06         0.00000E+00
    0.34026E+06        -0.19496E+07         0.00000E+00
    0.00000E+00         0.00000E+00        -0.16978E+08
 
   -0.16903E+08         0.34326E+06         0.00000E+00
    0.34326E+06        -0.19498E+07         0.00000E+00
    0.00000E+00         0.00000E+00        -0.16928E+08
 
   -0.16853E+08         0.34618E+06         0.00000E+00
    0.34618E+06        -0.19501E+07         0.00000E+00
    0.00000E+00         0.00000E+00        -0.16877E+08
 
   -0.16802E+08         0.34904E+06         0.00000E+00
    0.34904E+06        -0.19503E+07         0.00000E+00
    0.00000E+00         0.00000E+00        -0.16826E+08
 
   -0.16751E+08         0.35184E+06         0.00000E+00
    0.35184E+06        -0.19506E+07         0.00000E+00
    0.00000E+00         0.00000E+00        -0.16774E+08
 
   -0.16699E+08         0.35456E+06         0.00000E+00
    0.35456E+06        -0.19509E+07         0.00000E+00
    0.00000E+00         0.00000E+00        -0.16722E+08
 
   -0.16647E+08         0.35721E+06         0.00000E+00
    0.35721E+06        -0.19512E+07         0.00000E+00
    0.00000E+00         0.00000E+00        -0.16670E+08
 
   -0.16595E+08         0.35979E+06         0.00000E+00
    0.35979E+06        -0.19515E+07         0.00000E+00
    0.00000E+00         0.00000E+00        -0.16617E+08
 
   -0.16542E+08         0.36228E+06         0.00000E+00
    0.36228E+06        -0.19518E+07         0.00000E+00
    0.00000E+00         0.00000E+00        -0.16564E+08
 
   -0.16489E+08         0.36469E+06         0.00000E+00
    0.36469E+06        -0.19521E+07         0.00000E+00
    0.00000E+00         0.00000E+00        -0.16510E+08
 
   -0.16435E+08         0.36702E+06         0.00000E+00
    0.36702E+06        -0.19524E+07         0.00000E+00
    0.00000E+00         0.00000E+00        -0.16456E+08
 
   -0.16381E+08         0.36925E+06         0.00000E+00
    0.36925E+06        -0.19528E+07         0.00000E+00
    0.00000E+00         0.00000E+00        -0.16401E+08
 
   -0.16327E+08         0.37137E+06         0.00000E+00
    0.37137E+06        -0.19532E+07         0.00000E+00
    0.00000E+00         0.00000E+00        -0.16346E+08
 
   -0.16272E+08         0.37339E+06         0.00000E+00
    0.37339E+06        -0.19536E+07         0.00000E+00
    0.00000E+00         0.00000E+00        -0.16291E+08
 
   -0.16217E+08         0.37529E+06         0.00000E+00
    0.37529E+06        -0.19541E+07         0.00000E+00
    0.00000E+00         0.00000E+00        -0.16235E+08
 
   -0.16162E+08         0.37706E+06         0.00000E+00
    0.37706E+06        -0.19546E+07         0.00000E+00
    0.00000E+00         0.00000E+00        -0.16178E+08
 
   -0.16106E+08         0.37869E+06         0.00000E+00
    0.37869E+06        -0.19551E+07         0.00000E+00
    0.00000E+00         0.00000E+00        -0.16122E+08
 
   -0.16050E+08         0.38018E+06         0.00000E+00
    0.38018E+06        -0.19557E+07         0.00000E+00
    0.00000E+00         0.00000E+00        -0.16065E+08
 
   -0.15994E+08         0.38150E+06         0.00000E+00
    0.38150E+06        -0.19563E+07         0.00000E+00
    0.00000E+00         0.00000E+00        -0.16007E+08
 
   -0.15937E+08         0.38265E+06         0.00000E+00
    0.38265E+06        -0.19570E+07         0.00000E+00
    0.00000E+00         0.00000E+00        -0.15949E+08
 
   -0.15881E+08         0.38360E+06         0.00000E+00
    0.38360E+06        -0.19578E+07         0.00000E+00
    0.00000E+00         0.00000E+00        -0.15891E+08
 
   -0.15824E+08         0.38435E+06         0.00000E+00
    0.38435E+06        -0.19585E+07         0.00000E+00
    0.00000E+00         0.00000E+00        -0.15832E+08
 
   -0.15766E+08         0.38487E+06         0.00000E+00
    0.38487E+06        -0.19594E+07         0.00000E+00
    0.00000E+00         0.00000E+00        -0.15773E+08
 
   -0.15709E+08         0.38515E+06         0.00000E+00
    0.38515E+06        -0.19604E+07         0.00000E+00
    0.00000E+00         0.00000E+00        -0.15714E+08
 
   -0.15651E+08         0.38516E+06         0.00000E+00
    0.38516E+06        -0.19614E+07         0.00000E+00
    0.00000E+00         0.00000E+00        -0.15655E+08
 
   -0.15593E+08         0.38488E+06         0.00000E+00
    0.38488E+06        -0.19625E+07         0.00000E+00
    0.00000E+00         0.00000E+00        -0.15595E+08
 
   -0.15536E+08         0.38428E+06         0.00000E+00
    0.38428E+06        -0.19637E+07         0.00000E+00
    0.00000E+00         0.00000E+00        -0.15535E+08
 
   -0.15478E+08         0.38334E+06         0.00000E+00
    0.38334E+06        -0.19651E+07         0.00000E+00
    0.00000E+00         0.00000E+00        -0.15474E+08
 
   -0.15420E+08         0.38203E+06         0.00000E+00
    0.38203E+06        -0.19665E+07         0.00000E+00
    0.00000E+00         0.00000E+00        -0.15413E+08
 
   -0.15362E+08         0.38031E+06         0.00000E+00
    0.38031E+06        -0.19681E+07         0.00000E+00
    0.00000E+00         0.00000E+00        -0.15353E+08
 
   -0.15304E+08         0.37814E+06         0.00000E+00
    0.37814E+06        -0.19699E+07         0.00000E+00
    0.00000E+00         0.00000E+00        -0.15291E+08
 
   -0.15246E+08         0.37549E+06         0.00000E+00
    0.37549E+06        -0.19718E+07         0.00000E+00
    0.00000E+00         0.00000E+00        -0.15230E+08
 
   -0.15188E+08         0.37231E+06         0.00000E+00
    0.37231E+06        -0.19739E+07         0.00000E+00
    0.00000E+00         0.00000E+00        -0.15169E+08
 
   -0.15131E+08         0.36856E+06         0.00000E+00
    0.36856E+06        -0.19763E+07         0.00000E+00
    0.00000E+00         0.00000E+00        -0.15107E+08
 
   -0.15074E+08         0.36417E+06         0.00000E+00
    0.36417E+06        -0.19789E+07         0.00000E+00
    0.00000E+00         0.00000E+00        -0.15046E+08
 
   -0.15017E+08         0.35910E+06         0.00000E+00
    0.35910E+06        -0.19818E+07         0.00000E+00
    0.00000E+00         0.00000E+00        -0.14984E+08
 
   -0.14960E+08         0.35328E+06         0.00000E+00
    0.35328E+06        -0.19850E+07         0.00000E+00
    0.00000E+00         0.00000E+00        -0.14922E+08
 
   -0.14904E+08         0.34666E+06         0.00000E+00
    0.34666E+06        -0.19886E+07         0.00000E+00
    0.00000E+00         0.00000E+00        -0.14860E+08
 
   -0.14848E+08         0.33915E+06         0.00000E+00
    0.33915E+06        -0.19926E+07         0.00000E+00
    0.00000E+00         0.00000E+00        -0.14799E+08
 
   -0.14793E+08         0.33069E+06         0.00000E+00
    0.33069E+06        -0.19970E+07         0.00000E+00
    0.00000E+00         0.00000E+00        -0.14737E+08
 
   -0.14738E+08         0.32121E+06         0.00000E+00
    0.32121E+06        -0.20019E+07         0.00000E+00
    0.00000E+00         0.00000E+00        -0.14676E+08
 
   -0.14684E+08         0.31063E+06         0.00000E+00
    0.31063E+06        -0.20074E+07         0.00000E+00
    0.00000E+00         0.00000E+00        -0.14614E+08
 
   -0.14630E+08         0.29887E+06         0.00000E+00
    0.29887E+06        -0.20133E+07         0.00000E+00
    0.00000E+00         0.00000E+00        -0.14553E+08
 
   -0.14577E+08         0.28586E+06         0.00000E+00
    0.28586E+06        -0.20197E+07         0.00000E+00
    0.00000E+00         0.00000E+00        -0.14492E+08
 
   -0.14524E+08         0.27155E+06         0.00000E+00
    0.27155E+06        -0.20265E+07         0.00000E+00
    0.00000E+00         0.00000E+00        -0.14431E+08
 
   -0.14472E+08         0.25588E+06         0.00000E+00
    0.25588E+06        -0.20336E+07         0.00000E+00
    0.00000E+00         0.00000E+00        -0.14370E+08
 
   -0.14420E+08         0.23883E+06         0.00000E+00
    0.23883E+06        -0.20408E+07         0.00000E+00
    0.00000E+00         0.00000E+00        -0.14310E+08
 
   -0.14369E+08         0.22039E+06         0.00000E+00
    0.22039E+06        -0.20478E+07         0.00000E+00
    0.00000E+00         0.00000E+00        -0.14249E+08
 
   -0.14318E+08         0.20059E+06         0.00000E+00
    0.20059E+06        -0.20542E+07         0.00000E+00
    0.00000E+00         0.00000E+00        -0.14188E+08
 
   -0.14268E+08         0.17954E+06         0.00000E+00
    0.17954E+06        -0.20592E+07         0.00000E+00
    0.00000E+00         0.00000E+00        -0.14126E+08
 
   -0.14219E+08         0.15739E+06         0.00000E+00
    0.15739E+06        -0.20619E+07         0.00000E+00
    0.00000E+00         0.00000E+00        -0.14065E+08
 
   -0.14170E+08         0.13438E+06         0.00000E+00
    0.13438E+06        -0.20611E+07         0.00000E+00
    0.00000E+00         0.00000E+00        -0.14002E+08
 
   -0.14124E+08         0.11087E+06         0.00000E+00
    0.11087E+06        -0.20553E+07         0.00000E+00
    0.00000E+00         0.00000E+00        -0.13938E+08
 
   -0.14081E+08         0.87344E+05         0.00000E+00
    0.87344E+05        -0.20426E+07         0.00000E+00
    0.00000E+00         0.00000E+00        -0.13873E+08
 
   -0.14043E+08         0.64480E+05         0.00000E+00
    0.64480E+05        -0.20206E+07         0.00000E+00
    0.00000E+00         0.00000E+00        -0.13807E+08
 
   -0.14011E+08         0.43157E+05         0.00000E+00
    0.43157E+05        -0.19874E+07         0.00000E+00
    0.00000E+00         0.00000E+00        -0.13740E+08
 
   -0.13990E+08         0.24217E+05         0.00000E+00
    0.24217E+05        -0.19419E+07         0.00000E+00
    0.00000E+00         0.00000E+00        -0.13671E+08
 
   -0.13978E+08         0.77151E+04         0.00000E+00
    0.77151E+04        -0.18844E+07         0.00000E+00
    0.00000E+00         0.00000E+00        -0.13603E+08
 
   -0.18494E+08         0.47193E+04         0.00000E+00
    0.47193E+04        -0.19985E+07         0.00000E+00
    0.00000E+00         0.00000E+00        -0.18733E+08
 
   -0.18487E+08         0.14798E+05         0.00000E+00
    0.14798E+05        -0.19655E+07         0.00000E+00
    0.00000E+00         0.00000E+00        -0.18694E+08
 
   -0.18475E+08         0.26389E+05         0.00000E+00
    0.26389E+05        -0.19396E+07         0.00000E+00
    0.00000E+00         0.00000E+00        -0.18654E+08
 
   -0.18457E+08         0.39576E+05         0.00000E+00
    0.39576E+05        -0.19207E+07         0.00000E+00
    0.00000E+00         0.00000E+00        -0.18615E+08
 
   -0.18435E+08         0.53925E+05         0.00000E+00
    0.53925E+05        -0.19082E+07         0.00000E+00
    0.00000E+00         0.00000E+00        -0.18577E+08
 
   -0.18410E+08         0.68905E+05         0.00000E+00
    0.68905E+05        -0.19008E+07         0.00000E+00
    0.00000E+00         0.00000E+00        -0.18540E+08
 
   -0.18383E+08         0.84072E+05         0.00000E+00
    0.84072E+05        -0.18974E+07         0.00000E+00
    0.00000E+00         0.00000E+00        -0.18502E+08
 
   -0.18355E+08         0.99091E+05         0.00000E+00
    0.99091E+05        -0.18969E+07         0.00000E+00
    0.00000E+00         0.00000E+00        -0.18466E+08
 
   -0.18326E+08         0.11372E+06         0.00000E+00
    0.11372E+06        -0.18983E+07         0.00000E+00
    0.00000E+00         0.00000E+00        -0.18429E+08
 
   -0.18295E+08         0.12778E+06         0.00000E+00
    0.12778E+06        -0.19009E+07         0.00000E+00
    0.00000E+00         0.00000E+00        -0.18393E+08
 
   -0.18265E+08         0.14119E+06         0.00000E+00
    0.14119E+06        -0.19043E+07         0.00000E+00
    0.00000E+00         0.00000E+00        -0.18356E+08
 
   -0.18233E+08         0.15387E+06         0.00000E+00
    0.15387E+06        -0.19081E+07         0.00000E+00
    0.00000E+00         0.00000E+00        -0.18320E+08
 
   -0.18201E+08         0.16581E+06         0.00000E+00
    0.16581E+06        -0.19119E+07         0.00000E+00
    0.00000E+00         0.00000E+00        -0.18283E+08
 
   -0.18169E+08         0.17700E+06         0.00000E+00
    0.17700E+06        -0.19157E+07         0.00000E+00
    0.00000E+00         0.00000E+00        -0.18246E+08
 
   -0.18136E+08         0.18748E+06         0.00000E+00
    0.18748E+06        -0.19193E+07         0.00000E+00
    0.00000E+00         0.00000E+00        -0.18208E+08
 
   -0.18102E+08         0.19726E+06         0.00000E+00
    0.19726E+06        -0.19227E+07         0.00000E+00
    0.00000E+00         0.00000E+00        -0.18170E+08
 
   -0.18067E+08         0.20639E+06         0.00000E+00
    0.20639E+06        -0.19257E+07         0.00000E+00
    0.00000E+00         0.00000E+00        -0.18131E+08
 
   -0.18032E+08         0.21492E+06         0.00000E+00
    0.21492E+06        -0.19285E+07         0.00000E+00
    0.00000E+00         0.00000E+00        -0.18093E+08
 
   -0.17996E+08         0.22289E+06         0.00000E+00
    0.22289E+06        -0.19310E+07         0.00000E+00
    0.00000E+00         0.00000E+00        -0.18053E+08
 
   -0.17959E+08         0.23034E+06         0.00000E+00
    0.23034E+06        -0.19332E+07         0.00000E+00
    0.00000E+00         0.00000E+00        -0.18014E+08
 
   -0.17922E+08         0.23732E+06         0.00000E+00
    0.23732E+06        -0.19352E+07         0.00000E+00
    0.00000E+00         0.00000E+00        -0.17973E+08
 
   -0.17884E+08         0.24387E+06         0.00000E+00
    0.24387E+06        -0.19369E+07         0.00000E+00
    0.00000E+00         0.00000E+00        -0.17933E+08
 
   -0.17845E+08         0.25003E+06         0.00000E+00
    0.25003E+06        -0.19384E+07         0.00000E+00
    0.00000E+00         0.00000E+00        -0.17891E+08
 
   -0.17805E+08         0.25584E+06         0.00000E+00
    0.25584E+06        -0.19398E+07         0.00000E+00
    0.00000E+00         0.00000E+00        -0.17850E+08
 
   -0.17765E+08         0.26134E+06         0.00000E+00
    0.26134E+06        -0.19410E+07         0.00000E+00
    0.00000E+00         0.00000E+00        -0.17808E+08
 
   -0.17725E+08         0.26655E+06         0.00000E+00
    0.26655E+06        -0.19421E+07         0.00000E+00
    0.00000E+00         0.00000E+00        -0.17765E+08
 
   -0.17683E+08         0.27150E+06         0.00000E+00
    0.27150E+06        -0.19430E+07         0.00000E+00
    0.00000E+00         0.00000E+00        -0.17722E+08
 
   -0.17642E+08         0.27622E+06         0.00000E+00
    0.27622E+06        -0.19439E+07         0.00000E+00
    0.00000E+00         0.00000E+00        -0.17679E+08
 
   -0.17599E+08         0.28074E+06         0.00000E+00
    0.28074E+06        -0.19446E+07         0.00000E+00
    0.00000E+00         0.00000E+00        -0.17635E+08
 
   -0.17556E+08         0.28506E+06         0.00000E+00
    0.28506E+06        -0.19453E+07         0.00000E+00
    0.00000E+00         0.00000E+00        -0.17591E+08
 
   -0.17513E+08         0.28922E+06         0.00000E+00
    0.28922E+06        -0.19459E+07         0.00000E+00
    0.00000E+00         0.00000E+00        -0.17547E+08
 
   -0.17468E+08         0.29323E+06         0.00000E+00
    0.29323E+06        -0.19464E+07         0.00000E+00
    0.00000E+00         0.00000E+00        -0.17502E+08
 
   -0.17424E+08         0.29710E+06         0.00000E+00
    0.29710E+06        -0.19469E+07         0.00000E+00
    0.00000E+00         0.00000E+00        -0.17456E+08
 
   -0.17379E+08         0.30084E+06         0.00000E+00
    0.30084E+06        -0.19474E+07         0.00000E+00
    0.00000E+00         0.00000E+00        -0.17410E+08
 
   -0.17333E+08         0.30447E+06         0.00000E+00
    0.30447E+06        -0.19478E+07         0.00000E+00
    0.00000E+00         0.00000E+00        -0.17364E+08
 
   -0.17287E+08         0.30800E+06         0.00000E+00
    0.30800E+06        -0.19481E+07         0.00000E+00
    0.00000E+00         0.00000E+00        -0.17317E+08
 
   -0.17240E+08         0.31143E+06         0.00000E+00
    0.31143E+06        -0.19485E+07         0.00000E+00
    0.00000E+00         0.00000E+00        -0.17270E+08
 
   -0.17193E+08         0.31477E+06         0.00000E+00
    0.31477E+06        -0.19488E+07         0.00000E+00
    0.00000E+00         0.00000E+00        -0.17222E+08
 
   -0.17146E+08         0.31803E+06         0.00000E+00
    0.31803E+06        -0.19491E+07         0.00000E+00
    0.00000E+00         0.00000E+00        -0.17174E+08
 
   -0.17098E+08         0.32122E+06         0.00000E+00
    0.32122E+06        -0.19494E+07         0.00000E+00
    0.00000E+00         0.00000E+00        -0.17126E+08
 
   -0.17049E+08         0.32433E+06         0.00000E+00
    0.32433E+06        -0.19496E+07         0.00000E+00
    0.00000E+00         0.00000E+00        -0.17077E+08
 
   -0.17000E+08         0.32737E+06         0.00000E+00
    0.32737E+06        -0.19499E+07         0.00000E+00
    0.00000E+00         0.00000E+00        -0.17027E+08
 
   -0.16951E+08         0.33034E+06         0.00000E+00
    0.33034E+06        -0.19502E+07         0.00000E+00
    0.00000E+00         0.00000E+00        -0.16978E+08
 
   -0.16901E+08         0.33325E+06         0.00000E+00
    0.33325E+06        -0.19504E+07         0.00000E+00
    0.00000E+00         0.00000E+00        -0.16927E+08
 
   -0.16851E+08         0.33609E+06         0.00000E+00
    0.33609E+06        -0.19507E+07         0.00000E+00
    0.00000E+00         0.00000E+00        -0.16877E+08
 
   -0.16800E+08         0.33886E+06         0.00000E+00
    0.33886E+06        -0.19509E+07         0.00000E+00
    0.00000E+00         0.00000E+00        -0.16826E+08
 
   -0.16749E+08         0.34157E+06         0.00000E+00
    0.34157E+06        -0.19512E+07         0.00000E+00
    0.00000E+00         0.00000E+00        -0.16774E+08
 
   -0.16698E+08         0.34421E+06         0.00000E+00
    0.34421E+06        -0.19514E+07         0.00000E+00
    0.00000E+00         0.00000E+00        -0.16722E+08
 
   -0.16646E+08         0.34678E+06         0.00000E+00
    0.34678E+06        -0.19517E+07         0.00000E+00
    0.00000E+00         0.00000E+00        -0.16669E+08
 
   -0.16593E+08         0.34927E+06         0.00000E+00
    0.34927E+06        -0.19520E+07         0.00000E+00
    0.00000E+00         0.00000E+00        -0.16617E+08
 
   -0.16541E+08         0.35169E+06         0.00000E+00
    0.35169E+06        -0.19523E+07         0.00000E+00
    0.00000E+00         0.00000E+00        -0.16563E+08
 
   -0.16487E+08         0.35402E+06         0.00000E+00
    0.35402E+06        -0.19526E+07         0.00000E+00
    0.00000E+00         0.00000E+00        -0.16510E+08
 
   -0.16434E+08         0.35627E+06         0.00000E+00
    0.35627E+06        -0.19529E+07         0.00000E+00
    0.00000E+00         0.00000E+00        -0.16455E+08
 
   -0.16380E+08         0.35842E+06         0.00000E+00
    0.35842E+06        -0.19532E+07         0.00000E+00
    0.00000E+00         0.00000E+00        -0.16401E+08
 
   -0.16326E+08         0.36048E+06         0.00000E+00
    0.36048E+06        -0.19536E+07         0.00000E+00
    0.00000E+00         0.00000E+00        -0.16346E+08
 
   -0.16271E+08         0.36242E+06         0.00000E+00
    0.36242E+06        -0.19540E+07         0.00000E+00
    0.00000E+00         0.00000E+00        -0.16290E+08
 
   -0.16216E+08         0.36426E+06         0.00000E+00
    0.36426E+06        -0.19545E+07         0.00000E+00
    0.00000E+00         0.00000E+00        -0.16234E+08
 
   -0.16161E+08         0.36596E+06         0.00000E+00
    0.36596E+06        -0.19549E+07         0.00000E+00
    0.00000E+00         0.00000E+00        -0.16178E+08
 
   -0.16105E+08         0.36753E+06         0.00000E+00
    0.36753E+06        -0.19554E+07         0.00000E+00
    0.00000E+00         0.00000E+00        -0.16121E+08
 
   -0.16049E+08         0.36896E+06         0.00000E+00
    0.36896E+06        -0.19560E+07         0.00000E+00
    0.00000E+00         0.00000E+00        -0.16064E+08
 
   -0.15993E+08         0.37022E+06         0.00000E+00
    0.37022E+06        -0.19566E+07         0.00000E+00
    0.00000E+00         0.00000E+00        -0.16007E+08
 
   -0.15937E+08         0.37131E+06         0.00000E+00
    0.37131E+06        -0.19572E+07         0.00000E+00
    0.00000E+00         0.00000E+00        -0.15949E+08
 
   -0.15880E+08         0.37222E+06         0.00000E+00
    0.37222E+06        -0.19579E+07         0.00000E+00
    0.00000E+00         0.00000E+00        -0.15891E+08
 
   -0.15823E+08         0.37292E+06         0.00000E+00
    0.37292E+06        -0.19587E+07         0.00000E+00
    0.00000E+00         0.00000E+00        -0.15832E+08
 
   -0.15766E+08         0.37341E+06         0.00000E+00
    0.37341E+06        -0.19595E+07         0.00000E+00
    0.00000E+00         0.00000E+00        -0.15773E+08
 
   -0.15708E+08         0.37365E+06         0.00000E+00
    0.37365E+06        -0.19604E+07         0.00000E+00
    0.00000E+00         0.00000E+00        -0.15714E+08
 
   -0.15651E+08         0.37363E+06         0.00000E+00
    0.37363E+06        -0.19614E+07         0.00000E+00
    0.00000E+00         0.00000E+00        -0.15654E+08
 
   -0.15593E+08         0.37333E+06         0.00000E+00
    0.37333E+06        -0.19624E+07         0.00000E+00
    0.00000E+00         0.00000E+00        -0.15595E+08
 
   -0.15536E+08         0.37272E+06         0.00000E+00
    0.37272E+06        -0.19636E+07         0.00000E+00
    0.00000E+00         0.00000E+00        -0.15534E+08
 
   -0.15478E+08         0.37177E+06         0.00000E+00
    0.37177E+06        -0.19648E+07         0.00000E+00
    0.00000E+00         0.00000E+00        -0.15474E+08
 
   -0.15420E+08         0.37046E+06         0.00000E+00
    0.37046E+06        -0.19662E+07         0.00000E+00
    0.00000E+00         0.00000E+00        -0.15413E+08
 
   -0.15362E+08         0.36875E+06         0.00000E+00
    0.36875E+06        -0.19677E+07         0.00000E+00
    0.00000E+00         0.00000E+00        -0.15353E+08
 
   -0.15305E+08         0.36660E+06         0.00000E+00
    0.36660E+06        -0.19694E+07         0.00000E+00
    0.00000E+00         0.00000E+00        -0.15291E+08
 
   -0.15247E+08         0.36397E+06         0.00000E+00
    0.36397E+06        -0.19712E+07         0.00000E+00
    0.00000E+00         0.00000E+00        -0.15230E+08
 
   -0.15190E+08         0.36083E+06         0.00000E+00
    0.36083E+06        -0.19732E+07         0.00000E+00
    0.00000E+00         0.00000E+00        -0.15169E+08
 
   -0.15133E+08         0.35712E+06         0.00000E+00
    0.35712E+06        -0.19755E+07         0.00000E+00
    0.00000E+00         0.00000E+00        -0.15107E+08
 
   -0.15076E+08         0.35279E+06         0.00000E+00
    0.35279E+06        -0.19780E+07         0.00000E+00
    0.00000E+00         0.00000E+00        -0.15046E+08
 
   -0.15019E+08         0.34778E+06         0.00000E+00
    0.34778E+06        -0.19807E+07         0.00000E+00
    0.00000E+00         0.00000E+00        -0.14984E+08
 
   -0.14963E+08         0.34204E+06         0.00000E+00
    0.34204E+06        -0.19838E+07         0.00000E+00
    0.00000E+00         0.00000E+00        -0.14922E+08
 
   -0.14907E+08         0.33550E+06         0.00000E+00
    0.33550E+06        -0.19872E+07         0.00000E+00
    0.00000E+00         0.00000E+00        -0.14861E+08
 
   -0.14852E+08         0.32809E+06         0.00000E+00
    0.32809E+06        -0.19910E+07         0.00000E+00
    0.00000E+00         0.00000E+00        -0.14799E+08
 
   -0.14797E+08         0.31973E+06         0.00000E+00
    0.31973E+06        -0.19953E+07         0.00000E+00
    0.00000E+00         0.00000E+00        -0.14738E+08
 
   -0.14743E+08         0.31036E+06         0.00000E+00
    0.31036E+06        -0.20000E+07         0.00000E+00
    0.00000E+00         0.00000E+00        -0.14676E+08
 
   -0.14689E+08         0.29988E+06         0.00000E+00
    0.29988E+06        -0.20051E+07         0.00000E+00
    0.00000E+00         0.00000E+00        -0.14615E+08
 
   -0.14636E+08         0.28824E+06         0.00000E+00
    0.28824E+06        -0.20108E+07         0.00000E+00
    0.00000E+00         0.00000E+00        -0.14554E+08
 
   -0.14583E+08         0.27534E+06         0.00000E+00
    0.27534E+06        -0.20169E+07         0.00000E+00
    0.00000E+00         0.00000E+00        -0.14493E+08
 
   -0.14531E+08         0.26114E+06         0.00000E+00
    0.26114E+06        -0.20235E+07         0.00000E+00
    0.00000E+00         0.00000E+00        -0.14432E+08
 
   -0.14480E+08         0.24557E+06         0.00000E+00
    0.24557E+06        -0.20303E+07         0.00000E+00
    0.00000E+00         0.00000E+00        -0.14372E+08
 
   -0.14429E+08         0.22862E+06         0.00000E+00
    0.22862E+06        -0.20373E+07         0.00000E+00
    0.00000E+00         0.00000E+00        -0.14311E+08
 
   -0.14379E+08         0.21028E+06         0.00000E+00
    0.21028E+06        -0.20440E+07         0.00000E+00
    0.00000E+00         0.00000E+00        -0.14250E+08
 
   -0.14329E+08         0.19059E+06         0.00000E+00
    0.19059E+06        -0.20501E+07         0.00000E+00
    0.00000E+00         0.00000E+00        -0.14190E+08
 
   -0.14280E+08         0.16968E+06         0.00000E+00
    0.16968E+06        -0.20548E+07         0.00000E+00
    0.00000E+00         0.00000E+00        -0.14129E+08
 
   -0.14232E+08         0.14772E+06         0.00000E+00
    0.14772E+06        -0.20574E+07         0.00000E+00
    0.00000E+00         0.00000E+00        -0.14067E+08
 
   -0.14185E+08         0.12502E+06         0.00000E+00
    0.12502E+06        -0.20565E+07         0.00000E+00
    0.00000E+00         0.00000E+00        -0.14005E+08
 
   -0.14140E+08         0.10200E+06         0.00000E+00
    0.10200E+06        -0.20507E+07         0.00000E+00
    0.00000E+00         0.00000E+00        -0.13942E+08
 
   -0.14098E+08         0.79268E+05         0.00000E+00
    0.79268E+05        -0.20380E+07         0.00000E+00
    0.00000E+00         0.00000E+00        -0.13877E+08
 
   -0.14061E+08         0.57589E+05         0.00000E+00
    0.57589E+05        -0.20163E+07         0.00000E+00
    0.00000E+00         0.00000E+00        -0.13812E+08
 
   -0.14032E+08         0.37898E+05         0.00000E+00
    0.37898E+05        -0.19835E+07         0.00000E+00
    0.00000E+00         0.00000E+00        -0.13745E+08
 
   -0.14011E+08         0.20950E+05         0.00000E+00
    0.20950E+05        -0.19386E+07         0.00000E+00
    0.00000E+00         0.00000E+00        -0.13677E+08
 
   -0.14000E+08         0.66138E+04         0.00000E+00
    0.66138E+04        -0.18815E+07         0.00000E+00
    0.00000E+00         0.00000E+00        -0.13608E+08
 
   -0.18480E+08         0.40921E+04         0.00000E+00
    0.40921E+04        -0.20002E+07         0.00000E+00
    0.00000E+00         0.00000E+00        -0.18730E+08
 
   -0.18474E+08         0.12939E+05         0.00000E+00
    0.12939E+05        -0.19675E+07         0.00000E+00
    0.00000E+00         0.00000E+00        -0.18690E+08
 
   -0.18462E+08         0.23395E+05         0.00000E+00
    0.23395E+05        -0.19420E+07         0.00000E+00
    0.00000E+00         0.00000E+00        -0.18651E+08
 
   -0.18445E+08         0.35635E+05         0.00000E+00
    0.35635E+05        -0.19234E+07         0.00000E+00
    0.00000E+00         0.00000E+00        -0.18613E+08
 
   -0.18424E+08         0.49274E+05         0.00000E+00
    0.49274E+05        -0.19111E+07         0.00000E+00
    0.00000E+00         0.00000E+00        -0.18575E+08
 
   -0.18400E+08         0.63760E+05         0.00000E+00
    0.63760E+05        -0.19038E+07         0.00000E+00
    0.00000E+00         0.00000E+00        -0.18537E+08
 
   -0.18374E+08         0.78590E+05         0.00000E+00
    0.78590E+05        -0.19004E+07         0.00000E+00
    0.00000E+00         0.00000E+00        -0.18501E+08
 
   -0.18346E+08         0.93374E+05         0.00000E+00
    0.93374E+05        -0.18998E+07         0.00000E+00
    0.00000E+00         0.00000E+00        -0.18464E+08
 
   -0.18318E+08         0.10783E+06         0.00000E+00
    0.10783E+06        -0.19011E+07         0.00000E+00
    0.00000E+00         0.00000E+00        -0.18428E+08
 
   -0.18288E+08         0.12175E+06         0.00000E+00
    0.12175E+06        -0.19037E+07         0.00000E+00
    0.00000E+00         0.00000E+00        -0.18391E+08
 
   -0.18258E+08         0.13503E+06         0.00000E+00
    0.13503E+06        -0.19069E+07         0.00000E+00
    0.00000E+00         0.00000E+00        -0.18355E+08
 
   -0.18227E+08         0.14759E+06         0.00000E+00
    0.14759E+06        -0.19105E+07         0.00000E+00
    0.00000E+00         0.00000E+00        -0.18319E+08
 
   -0.18196E+08         0.15940E+06         0.00000E+00
    0.15940E+06        -0.19142E+07         0.00000E+00
    0.00000E+00         0.00000E+00        -0.18282E+08
 
   -0.18163E+08         0.17046E+06         0.00000E+00
    0.17046E+06        -0.19179E+07         0.00000E+00
    0.00000E+00         0.00000E+00        -0.18245E+08
 
   -0.18131E+08         0.18080E+06         0.00000E+00
    0.18080E+06        -0.19213E+07         0.00000E+00
    0.00000E+00         0.00000E+00        -0.18207E+08
 
   -0.18097E+08         0.19045E+06         0.00000E+00
    0.19045E+06        -0.19245E+07         0.00000E+00
    0.00000E+00         0.00000E+00        -0.18169E+08
 
   -0.18063E+08         0.19944E+06         0.00000E+00
    0.19944E+06        -0.19275E+07         0.00000E+00
    0.00000E+00         0.00000E+00        -0.18131E+08
 
   -0.18028E+08         0.20782E+06         0.00000E+00
    0.20782E+06        -0.19301E+07         0.00000E+00
    0.00000E+00         0.00000E+00        -0.18092E+08
 
   -0.17992E+08         0.21564E+06         0.00000E+00
    0.21564E+06        -0.19325E+07         0.00000E+00
    0.00000E+00         0.00000E+00        -0.18053E+08
 
   -0.17956E+08         0.22295E+06         0.00000E+00
    0.22295E+06        -0.19346E+07         0.00000E+00
    0.00000E+00         0.00000E+00        -0.18013E+08
 
   -0.17918E+08         0.22979E+06         0.00000E+00
    0.22979E+06        -0.19365E+07         0.00000E+00
    0.00000E+00         0.00000E+00        -0.17973E+08
 
   -0.17880E+08         0.23620E+06         0.00000E+00
    0.23620E+06        -0.19382E+07         0.00000E+00
    0.00000E+00         0.00000E+00        -0.17932E+08
 
   -0.17842E+08         0.24223E+06         0.00000E+00
    0.24223E+06        -0.19396E+07         0.00000E+00
    0.00000E+00         0.00000E+00        -0.17891E+08
 
   -0.17803E+08         0.24791E+06         0.00000E+00
    0.24791E+06        -0.19409E+07         0.00000E+00
    0.00000E+00         0.00000E+00        -0.17849E+08
 
   -0.17763E+08         0.25327E+06         0.00000E+00
    0.25327E+06        -0.19421E+07         0.00000E+00
    0.00000E+00         0.00000E+00        -0.17807E+08
 
   -0.17722E+08         0.25836E+06         0.00000E+00
    0.25836E+06        -0.19431E+07         0.00000E+00
    0.00000E+00         0.00000E+00        -0.17765E+08
 
   -0.17681E+08         0.26319E+06         0.00000E+00
    0.26319E+06        -0.19440E+07         0.00000E+00
    0.00000E+00         0.00000E+00        -0.17722E+08
 
   -0.17639E+08         0.26780E+06         0.00000E+00
    0.26780E+06        -0.19448E+07         0.00000E+00
    0.00000E+00         0.00000E+00        -0.17679E+08
 
   -0.17597E+08         0.27220E+06         0.00000E+00
    0.27220E+06        -0.19455E+07         0.00000E+00
    0.00000E+00         0.00000E+00        -0.17635E+08
 
   -0.17554E+08         0.27641E+06         0.00000E+00
    0.27641E+06        -0.19461E+07         0.00000E+00
    0.00000E+00         0.00000E+00        -0.17591E+08
 
   -0.17510E+08         0.28046E+06         0.00000E+00
    0.28046E+06        -0.19467E+07         0.00000E+00
    0.00000E+00         0.00000E+00        -0.17546E+08
 
   -0.17466E+08         0.28436E+06         0.00000E+00
    0.28436E+06        -0.19472E+07         0.00000E+00
    0.00000E+00         0.00000E+00        -0.17501E+08
 
   -0.17422E+08         0.28813E+06         0.00000E+00
    0.28813E+06        -0.19477E+07         0.00000E+00
    0.00000E+00         0.00000E+00        -0.17456E+08
 
   -0.17377E+08         0.29177E+06         0.00000E+00
    0.29177E+06        -0.19481E+07         0.00000E+00
    0.00000E+00         0.00000E+00        -0.17410E+08
 
   -0.17331E+08         0.29530E+06         0.00000E+00
    0.29530E+06        -0.19485E+07         0.00000E+00
    0.00000E+00         0.00000E+00        -0.17363E+08
 
   -0.17285E+08         0.29873E+06         0.00000E+00
    0.29873E+06        -0.19488E+07         0.00000E+00
    0.00000E+00         0.00000E+00        -0.17317E+08
 
   -0.17238E+08         0.30206E+06         0.00000E+00
    0.30206E+06        -0.19491E+07         0.00000E+00
    0.00000E+00         0.00000E+00        -0.17269E+08
 
   -0.17191E+08         0.30531E+06         0.00000E+00
    0.30531E+06        -0.19494E+07         0.00000E+00
    0.00000E+00         0.00000E+00        -0.17222E+08
 
   -0.17144E+08         0.30848E+06         0.00000E+00
    0.30848E+06        -0.19497E+07         0.00000E+00
    0.00000E+00         0.00000E+00        -0.17174E+08
 
   -0.17096E+08         0.31157E+06         0.00000E+00
    0.31157E+06        -0.19500E+07         0.00000E+00
    0.00000E+00         0.00000E+00        -0.17125E+08
 
   -0.17047E+08         0.31459E+06         0.00000E+00
    0.31459E+06        -0.19503E+07         0.00000E+00
    0.00000E+00         0.00000E+00        -0.17076E+08
 
   -0.16999E+08         0.31754E+06         0.00000E+00
    0.31754E+06        -0.19505E+07         0.00000E+00
    0.00000E+00         0.00000E+00        -0.17027E+08
 
   -0.16949E+08         0.32042E+06         0.00000E+00
    0.32042E+06        -0.19507E+07         0.00000E+00
    0.00000E+00         0.00000E+00        -0.16977E+08
 
   -0.16899E+08         0.32324E+06         0.00000E+00
    0.32324E+06        -0.19510E+07         0.00000E+00
    0.00000E+00         0.00000E+00        -0.16927E+08
 
   -0.16849E+08         0.32600E+06         0.00000E+00
    0.32600E+06        -0.19512E+07         0.00000E+00
    0.00000E+00         0.00000E+00        -0.16876E+08
 
   -0.16799E+08         0.32869E+06         0.00000E+00
    0.32869E+06        -0.19514E+07         0.00000E+00
    0.00000E+00         0.00000E+00        -0.16825E+08
 
   -0.16747E+08         0.33131E+06         0.00000E+00
    0.33131E+06        -0.19517E+07         0.00000E+00
    0.00000E+00         0.00000E+00        -0.16774E+08
 
   -0.16696E+08         0.33386E+06         0.00000E+00
    0.33386E+06        -0.19519E+07         0.00000E+00
    0.00000E+00         0.00000E+00        -0.16722E+08
 
   -0.16644E+08         0.33635E+06         0.00000E+00
    0.33635E+06        -0.19522E+07         0.00000E+00
    0.00000E+00         0.00000E+00        -0.16669E+08
 
   -0.16592E+08         0.33876E+06         0.00000E+00
    0.33876E+06        -0.19524E+07         0.00000E+00
    0.00000E+00         0.00000E+00        -0.16616E+08
 
   -0.16539E+08         0.34110E+06         0.00000E+00
    0.34110E+06        -0.19527E+07         0.00000E+00
    0.00000E+00         0.00000E+00        -0.16563E+08
 
   -0.16486E+08         0.34336E+06         0.00000E+00
    0.34336E+06        -0.19530E+07         0.00000E+00
    0.00000E+00         0.00000E+00        -0.16509E+08
 
   -0.16432E+08         0.34553E+06         0.00000E+00
    0.34553E+06        -0.19533E+07         0.00000E+00
    0.00000E+00         0.00000E+00        -0.16455E+08
 
   -0.16379E+08         0.34761E+06         0.00000E+00
    0.34761E+06        -0.19537E+07         0.00000E+00
    0.00000E+00         0.00000E+00        -0.16400E+08
 
   -0.16324E+08         0.34959E+06         0.00000E+00
    0.34959E+06        -0.19540E+07         0.00000E+00
    0.00000E+00         0.00000E+00        -0.16345E+08
 
   -0.16270E+08         0.35147E+06         0.00000E+00
    0.35147E+06        -0.19544E+07         0.00000E+00
    0.00000E+00         0.00000E+00        -0.16290E+08
 
   -0.16215E+08         0.35323E+06         0.00000E+00
    0.35323E+06        -0.19548E+07         0.00000E+00
    0.00000E+00         0.00000E+00        -0.16234E+08
 
   -0.16160E+08         0.35487E+06         0.00000E+00
    0.35487E+06        -0.19553E+07         0.00000E+00
    0.00000E+00         0.00000E+00        -0.16178E+08
 
   -0.16104E+08         0.35638E+06         0.00000E+00
    0.35638E+06        -0.19557E+07         0.00000E+00
    0.00000E+00         0.00000E+00        -0.16121E+08
 
   -0.16048E+08         0.35775E+06         0.00000E+00
    0.35775E+06        -0.19562E+07         0.00000E+00
    0.00000E+00         0.00000E+00        -0.16064E+08
 
   -0.15992E+08         0.35896E+06         0.00000E+00
    0.35896E+06        -0.19568E+07         0.00000E+00
    0.00000E+00         0.00000E+00        -0.16007E+08
 
   -0.15936E+08         0.36000E+06         0.00000E+00
    0.36000E+06        -0.19574E+07         0.00000E+00
    0.00000E+00         0.00000E+00        -0.15949E+08
 
   -0.15879E+08         0.36086E+06         0.00000E+00
    0.36086E+06        -0.19581E+07         0.00000E+00
    0.00000E+00         0.00000E+00        -0.15891E+08
 
   -0.15822E+08         0.36152E+06         0.00000E+00
    0.36152E+06        -0.19588E+07         0.00000E+00
    0.00000E+00         0.00000E+00        -0.15832E+08
 
   -0.15765E+08         0.36197E+06         0.00000E+00
    0.36197E+06        -0.19596E+07         0.00000E+00
    0.00000E+00         0.00000E+00        -0.15773E+08
 
   -0.15708E+08         0.36218E+06         0.00000E+00
    0.36218E+06        -0.19604E+07         0.00000E+00
    0.00000E+00         0.00000E+00        -0.15714E+08
 
   -0.15651E+08         0.36213E+06         0.00000E+00
    0.36213E+06        -0.19613E+07         0.00000E+00
    0.00000E+00         0.00000E+00        -0.15654E+08
 
   -0.15593E+08         0.36181E+06         0.00000E+00
    0.36181E+06        -0.19623E+07         0.00000E+00
    0.00000E+00         0.00000E+00        -0.15595E+08
 
   -0.15536E+08         0.36119E+06         0.00000E+00
    0.36119E+06        -0.19634E+07         0.00000E+00
    0.00000E+00         0.00000E+00        -0.15534E+08
 
   -0.15478E+08         0.36024E+06         0.00000E+00
    0.36024E+06        -0.19646E+07         0.00000E+00
    0.00000E+00         0.00000E+00        -0.15474E+08
 
   -0.15420E+08         0.35893E+06         0.00000E+00
    0.35893E+06        -0.19659E+07         0.00000E+00
    0.00000E+00         0.00000E+00        -0.15413E+08
 
   -0.15363E+08         0.35722E+06         0.00000E+00
    0.35722E+06        -0.19673E+07         0.00000E+00
    0.00000E+00         0.00000E+00        -0.15353E+08
 
   -0.15305E+08         0.35510E+06         0.00000E+00
    0.35510E+06        -0.19689E+07         0.00000E+00
    0.00000E+00         0.00000E+00        -0.15292E+08
 
   -0.15248E+08         0.35250E+06         0.00000E+00
    0.35250E+06        -0.19706E+07         0.00000E+00
    0.00000E+00         0.00000E+00        -0.15230E+08
 
   -0.15191E+08         0.34940E+06         0.00000E+00
    0.34940E+06        -0.19726E+07         0.00000E+00
    0.00000E+00         0.00000E+00        -0.15169E+08
 
   -0.15134E+08         0.34573E+06         0.00000E+00
    0.34573E+06        -0.19747E+07         0.00000E+00
    0.00000E+00         0.00000E+00        -0.15108E+08
 
   -0.15077E+08         0.34147E+06         0.00000E+00
    0.34147E+06        -0.19770E+07         0.00000E+00
    0.00000E+00         0.00000E+00        -0.15046E+08
 
   -0.15021E+08         0.33653E+06         0.00000E+00
    0.33653E+06        -0.19797E+07         0.00000E+00
    0.00000E+00         0.00000E+00        -0.14984E+08
 
   -0.14965E+08         0.33087E+06         0.00000E+00
    0.33087E+06        -0.19826E+07         0.00000E+00
    0.00000E+00         0.00000E+00        -0.14923E+08
 
   -0.14910E+08         0.32443E+06         0.00000E+00
    0.32443E+06        -0.19858E+07         0.00000E+00
    0.00000E+00         0.00000E+00        -0.14861E+08
 
   -0.14855E+08         0.31712E+06         0.00000E+00
    0.31712E+06        -0.19895E+07         0.00000E+00
    0.00000E+00         0.00000E+00        -0.14800E+08
 
   -0.14801E+08         0.30887E+06         0.00000E+00
    0.30887E+06        -0.19935E+07         0.00000E+00
    0.00000E+00         0.00000E+00        -0.14738E+08
 
   -0.14747E+08         0.29961E+06         0.00000E+00
    0.29961E+06        -0.19980E+07         0.00000E+00
    0.00000E+00         0.00000E+00        -0.14677E+08
 
   -0.14694E+08         0.28926E+06         0.00000E+00
    0.28926E+06        -0.20029E+07         0.00000E+00
    0.00000E+00         0.00000E+00        -0.14616E+08
 
   -0.14641E+08         0.27773E+06         0.00000E+00
    0.27773E+06        -0.20084E+07         0.00000E+00
    0.00000E+00         0.00000E+00        -0.14555E+08
 
   -0.14589E+08         0.26496E+06         0.00000E+00
    0.26496E+06        -0.20142E+07         0.00000E+00
    0.00000E+00         0.00000E+00        -0.14494E+08
 
   -0.14538E+08         0.25088E+06         0.00000E+00
    0.25088E+06        -0.20205E+07         0.00000E+00
    0.00000E+00         0.00000E+00        -0.14434E+08
 
   -0.14487E+08         0.23543E+06         0.00000E+00
    0.23543E+06        -0.20271E+07         0.00000E+00
    0.00000E+00         0.00000E+00        -0.14373E+08
 
   -0.14437E+08         0.21859E+06         0.00000E+00
    0.21859E+06        -0.20338E+07         0.00000E+00
    0.00000E+00         0.00000E+00        -0.14313E+08
 
   -0.14388E+08         0.20037E+06         0.00000E+00
    0.20037E+06        -0.20402E+07         0.00000E+00
    0.00000E+00         0.00000E+00        -0.14252E+08
 
   -0.14339E+08         0.18081E+06         0.00000E+00
    0.18081E+06        -0.20460E+07         0.00000E+00
    0.00000E+00         0.00000E+00        -0.14192E+08
 
   -0.14292E+08         0.16005E+06         0.00000E+00
    0.16005E+06        -0.20506E+07         0.00000E+00
    0.00000E+00         0.00000E+00        -0.14131E+08
 
   -0.14245E+08         0.13832E+06         0.00000E+00
    0.13832E+06        -0.20529E+07         0.00000E+00
    0.00000E+00         0.00000E+00        -0.14070E+08
 
   -0.14199E+08         0.11594E+06         0.00000E+00
    0.11594E+06        -0.20520E+07         0.00000E+00
    0.00000E+00         0.00000E+00        -0.14008E+08
 
   -0.14156E+08         0.93439E+05         0.00000E+00
    0.93439E+05        -0.20461E+07         0.00000E+00
    0.00000E+00         0.00000E+00        -0.13945E+08
 
   -0.14116E+08         0.71490E+05         0.00000E+00
    0.71490E+05        -0.20336E+07         0.00000E+00
    0.00000E+00         0.00000E+00        -0.13881E+08
 
   -0.14080E+08         0.50975E+05         0.00000E+00
    0.50975E+05        -0.20122E+07         0.00000E+00
    0.00000E+00         0.00000E+00        -0.13816E+08
 
   -0.14052E+08         0.32859E+05         0.00000E+00
    0.32859E+05        -0.19800E+07         0.00000E+00
    0.00000E+00         0.00000E+00        -0.13750E+08
 
   -0.14031E+08         0.17818E+05         0.00000E+00
    0.17818E+05        -0.19357E+07         0.00000E+00
    0.00000E+00         0.00000E+00        -0.13682E+08
 
   -0.14021E+08         0.55566E+04         0.00000E+00
    0.55566E+04        -0.18791E+07         0.00000E+00
    0.00000E+00         0.00000E+00        -0.13614E+08
 
   -0.18468E+08         0.34863E+04         0.00000E+00
    0.34863E+04        -0.20018E+07         0.00000E+00
    0.00000E+00         0.00000E+00        -0.18726E+08
 
   -0.18462E+08         0.11147E+05         0.00000E+00
    0.11147E+05        -0.19693E+07         0.00000E+00
    0.00000E+00         0.00000E+00        -0.18687E+08
 
   -0.18450E+08         0.20511E+05         0.00000E+00
    0.20511E+05        -0.19441E+07         0.00000E+00
    0.00000E+00         0.00000E+00        -0.18648E+08
 
   -0.18434E+08         0.31838E+05         0.00000E+00
    0.31838E+05        -0.19259E+07         0.00000E+00
    0.00000E+00         0.00000E+00        -0.18610E+08
 
   -0.18413E+08         0.44784E+05         0.00000E+00
    0.44784E+05        -0.19138E+07         0.00000E+00
    0.00000E+00         0.00000E+00        -0.18572E+08
 
   -0.18390E+08         0.58777E+05         0.00000E+00
    0.58777E+05        -0.19067E+07         0.00000E+00
    0.00000E+00         0.00000E+00        -0.18535E+08
 
   -0.18365E+08         0.73265E+05         0.00000E+00
    0.73265E+05        -0.19034E+07         0.00000E+00
    0.00000E+00         0.00000E+00        -0.18499E+08
 
   -0.18338E+08         0.87804E+05         0.00000E+00
    0.87804E+05        -0.19028E+07         0.00000E+00
    0.00000E+00         0.00000E+00        -0.18462E+08
 
   -0.18310E+08         0.10207E+06         0.00000E+00
    0.10207E+06        -0.19040E+07         0.00000E+00
    0.00000E+00         0.00000E+00        -0.18426E+08
 
   -0.18281E+08         0.11584E+06         0.00000E+00
    0.11584E+06        -0.19064E+07         0.00000E+00
    0.00000E+00         0.00000E+00        -0.18390E+08
 
   -0.18251E+08         0.12898E+06         0.00000E+00
    0.12898E+06        -0.19095E+07         0.00000E+00
    0.00000E+00         0.00000E+00        -0.18354E+08
 
   -0.18221E+08         0.14140E+06         0.00000E+00
    0.14140E+06        -0.19130E+07         0.00000E+00
    0.00000E+00         0.00000E+00        -0.18317E+08
 
   -0.18190E+08         0.15308E+06         0.00000E+00
    0.15308E+06        -0.19165E+07         0.00000E+00
    0.00000E+00         0.00000E+00        -0.18281E+08
 
   -0.18158E+08         0.16400E+06         0.00000E+00
    0.16400E+06        -0.19200E+07         0.00000E+00
    0.00000E+00         0.00000E+00        -0.18244E+08
 
   -0.18126E+08         0.17420E+06         0.00000E+00
    0.17420E+06        -0.19233E+07         0.00000E+00
    0.00000E+00         0.00000E+00        -0.18206E+08
 
   -0.18093E+08         0.18369E+06         0.00000E+00
    0.18369E+06        -0.19264E+07         0.00000E+00
    0.00000E+00         0.00000E+00        -0.18168E+08
 
   -0.18059E+08         0.19254E+06         0.00000E+00
    0.19254E+06        -0.19292E+07         0.00000E+00
    0.00000E+00         0.00000E+00        -0.18130E+08
 
   -0.18024E+08         0.20077E+06         0.00000E+00
    0.20077E+06        -0.19317E+07         0.00000E+00
    0.00000E+00         0.00000E+00        -0.18091E+08
 
   -0.17988E+08         0.20844E+06         0.00000E+00
    0.20844E+06        -0.19340E+07         0.00000E+00
    0.00000E+00         0.00000E+00        -0.18052E+08
 
   -0.17952E+08         0.21560E+06         0.00000E+00
    0.21560E+06        -0.19360E+07         0.00000E+00
    0.00000E+00         0.00000E+00        -0.18012E+08
 
   -0.17915E+08         0.22229E+06         0.00000E+00
    0.22229E+06        -0.19378E+07         0.00000E+00
    0.00000E+00         0.00000E+00        -0.17972E+08
 
   -0.17877E+08         0.22857E+06         0.00000E+00
    0.22857E+06        -0.19394E+07         0.00000E+00
    0.00000E+00         0.00000E+00        -0.17931E+08
 
   -0.17839E+08         0.23445E+06         0.00000E+00
    0.23445E+06        -0.19408E+07         0.00000E+00
    0.00000E+00         0.00000E+00        -0.17890E+08
 
   -0.17800E+08         0.24000E+06         0.00000E+00
    0.24000E+06        -0.19420E+07         0.00000E+00
    0.00000E+00         0.00000E+00        -0.17849E+08
 
   -0.17760E+08         0.24524E+06         0.00000E+00
    0.24524E+06        -0.19431E+07         0.00000E+00
    0.00000E+00         0.00000E+00        -0.17807E+08
 
   -0.17719E+08         0.25019E+06         0.00000E+00
    0.25019E+06        -0.19441E+07         0.00000E+00
    0.00000E+00         0.00000E+00        -0.17764E+08
 
   -0.17678E+08         0.25490E+06         0.00000E+00
    0.25490E+06        -0.19449E+07         0.00000E+00
    0.00000E+00         0.00000E+00        -0.17722E+08
 
   -0.17637E+08         0.25939E+06         0.00000E+00
    0.25939E+06        -0.19457E+07         0.00000E+00
    0.00000E+00         0.00000E+00        -0.17678E+08
 
   -0.17594E+08         0.26367E+06         0.00000E+00
    0.26367E+06        -0.19463E+07         0.00000E+00
    0.00000E+00         0.00000E+00        -0.17634E+08
 
   -0.17551E+08         0.26778E+06         0.00000E+00
    0.26778E+06        -0.19469E+07         0.00000E+00
    0.00000E+00         0.00000E+00        -0.17590E+08
 
   -0.17508E+08         0.27172E+06         0.00000E+00
    0.27172E+06        -0.19475E+07         0.00000E+00
    0.00000E+00         0.00000E+00        -0.17546E+08
 
   -0.17464E+08         0.27551E+06         0.00000E+00
    0.27551E+06        -0.19480E+07         0.00000E+00
    0.00000E+00         0.00000E+00        -0.17501E+08
 
   -0.17420E+08         0.27917E+06         0.00000E+00
    0.27917E+06        -0.19484E+07         0.00000E+00
    0.00000E+00         0.00000E+00        -0.17455E+08
 
   -0.17375E+08         0.28271E+06         0.00000E+00
    0.28271E+06        -0.19488E+07         0.00000E+00
    0.00000E+00         0.00000E+00        -0.17409E+08
 
   -0.17329E+08         0.28614E+06         0.00000E+00
    0.28614E+06        -0.19492E+07         0.00000E+00
    0.00000E+00         0.00000E+00        -0.17363E+08
 
   -0.17283E+08         0.28947E+06         0.00000E+00
    0.28947E+06        -0.19495E+07         0.00000E+00
    0.00000E+00         0.00000E+00        -0.17316E+08
 
   -0.17236E+08         0.29271E+06         0.00000E+00
    0.29271E+06        -0.19498E+07         0.00000E+00
    0.00000E+00         0.00000E+00        -0.17269E+08
 
   -0.17189E+08         0.29586E+06         0.00000E+00
    0.29586E+06        -0.19501E+07         0.00000E+00
    0.00000E+00         0.00000E+00        -0.17221E+08
 
   -0.17142E+08         0.29893E+06         0.00000E+00
    0.29893E+06        -0.19503E+07         0.00000E+00
    0.00000E+00         0.00000E+00        -0.17173E+08
 
   -0.17094E+08         0.30193E+06         0.00000E+00
    0.30193E+06        -0.19506E+07         0.00000E+00
    0.00000E+00         0.00000E+00        -0.17125E+08
 
   -0.17046E+08         0.30486E+06         0.00000E+00
    0.30486E+06        -0.19508E+07         0.00000E+00
    0.00000E+00         0.00000E+00        -0.17076E+08
 
   -0.16997E+08         0.30772E+06         0.00000E+00
    0.30772E+06        -0.19511E+07         0.00000E+00
    0.00000E+00         0.00000E+00        -0.17027E+08
 
   -0.16947E+08         0.31051E+06         0.00000E+00
    0.31051E+06        -0.19513E+07         0.00000E+00
    0.00000E+00         0.00000E+00        -0.16977E+08
 
   -0.16898E+08         0.31324E+06         0.00000E+00
    0.31324E+06        -0.19515E+07         0.00000E+00
    0.00000E+00         0.00000E+00        -0.16927E+08
 
   -0.16847E+08         0.31591E+06         0.00000E+00
    0.31591E+06        -0.19517E+07         0.00000E+00
    0.00000E+00         0.00000E+00        -0.16876E+08
 
   -0.16797E+08         0.31851E+06         0.00000E+00
    0.31851E+06        -0.19520E+07         0.00000E+00
    0.00000E+00         0.00000E+00        -0.16825E+08
 
   -0.16746E+08         0.32105E+06         0.00000E+00
    0.32105E+06        -0.19522E+07         0.00000E+00
    0.00000E+00         0.00000E+00        -0.16773E+08
 
   -0.16694E+08         0.32353E+06         0.00000E+00
    0.32353E+06        -0.19524E+07         0.00000E+00
    0.00000E+00         0.00000E+00        -0.16721E+08
 
   -0.16642E+08         0.32593E+06         0.00000E+00
    0.32593E+06        -0.19527E+07         0.00000E+00
    0.00000E+00         0.00000E+00        -0.16669E+08
 
   -0.16590E+08         0.32826E+06         0.00000E+00
    0.32826E+06        -0.19529E+07         0.00000E+00
    0.00000E+00         0.00000E+00        -0.16616E+08
 
   -0.16537E+08         0.33052E+06         0.00000E+00
    0.33052E+06        -0.19532E+07         0.00000E+00
    0.00000E+00         0.00000E+00        -0.16563E+08
 
   -0.16484E+08         0.33270E+06         0.00000E+00
    0.33270E+06        -0.19535E+07         0.00000E+00
    0.00000E+00         0.00000E+00        -0.16509E+08
 
   -0.16431E+08         0.33480E+06         0.00000E+00
    0.33480E+06        -0.19537E+07         0.00000E+00
    0.00000E+00         0.00000E+00        -0.16455E+08
 
   -0.16377E+08         0.33681E+06         0.00000E+00
    0.33681E+06        -0.19541E+07         0.00000E+00
    0.00000E+00         0.00000E+00        -0.16400E+08
 
   -0.16323E+08         0.33872E+06         0.00000E+00
    0.33872E+06        -0.19544E+07         0.00000E+00
    0.00000E+00         0.00000E+00        -0.16345E+08
 
   -0.16268E+08         0.34052E+06         0.00000E+00
    0.34052E+06        -0.19548E+07         0.00000E+00
    0.00000E+00         0.00000E+00        -0.16290E+08
 
   -0.16214E+08         0.34222E+06         0.00000E+00
    0.34222E+06        -0.19551E+07         0.00000E+00
    0.00000E+00         0.00000E+00        -0.16234E+08
 
   -0.16158E+08         0.34380E+06         0.00000E+00
    0.34380E+06        -0.19556E+07         0.00000E+00
    0.00000E+00         0.00000E+00        -0.16178E+08
 
   -0.16103E+08         0.34525E+06         0.00000E+00
    0.34525E+06        -0.19560E+07         0.00000E+00
    0.00000E+00         0.00000E+00        -0.16121E+08
 
   -0.16047E+08         0.34656E+06         0.00000E+00
    0.34656E+06        -0.19565E+07         0.00000E+00
    0.00000E+00         0.00000E+00        -0.16064E+08
 
   -0.15991E+08         0.34771E+06         0.00000E+00
    0.34771E+06        -0.19570E+07         0.00000E+00
    0.00000E+00         0.00000E+00        -0.16006E+08
 
   -0.15935E+08         0.34871E+06         0.00000E+00
    0.34871E+06        -0.19576E+07         0.00000E+00
    0.00000E+00         0.00000E+00        -0.15949E+08
 
   -0.15878E+08         0.34952E+06         0.00000E+00
    0.34952E+06        -0.19582E+07         0.00000E+00
    0.00000E+00         0.00000E+00        -0.15890E+08
 
   -0.15821E+08         0.35014E+06         0.00000E+00
    0.35014E+06        -0.19589E+07         0.00000E+00
    0.00000E+00         0.00000E+00        -0.15832E+08
 
   -0.15764E+08         0.35055E+06         0.00000E+00
    0.35055E+06        -0.19596E+07         0.00000E+00
    0.00000E+00         0.00000E+00        -0.15773E+08
 
   -0.15707E+08         0.35073E+06         0.00000E+00
    0.35073E+06        -0.19604E+07         0.00000E+00
    0.00000E+00         0.00000E+00        -0.15714E+08
 
   -0.15650E+08         0.35067E+06         0.00000E+00
    0.35067E+06        -0.19613E+07         0.00000E+00
    0.00000E+00         0.00000E+00        -0.15654E+08
 
   -0.15593E+08         0.35033E+06         0.00000E+00
    0.35033E+06        -0.19622E+07         0.00000E+00
    0.00000E+00         0.00000E+00        -0.15594E+08
 
   -0.15535E+08         0.34969E+06         0.00000E+00
    0.34969E+06        -0.19633E+07         0.00000E+00
    0.00000E+00         0.00000E+00        -0.15534E+08
 
   -0.15478E+08         0.34874E+06         0.00000E+00
    0.34874E+06        -0.19644E+07         0.00000E+00
    0.00000E+00         0.00000E+00        -0.15474E+08
 
   -0.15421E+08         0.34743E+06         0.00000E+00
    0.34743E+06        -0.19656E+07         0.00000E+00
    0.00000E+00         0.00000E+00        -0.15413E+08
 
   -0.15363E+08         0.34574E+06         0.00000E+00
    0.34574E+06        -0.19670E+07         0.00000E+00
    0.00000E+00         0.00000E+00        -0.15353E+08
 
   -0.15306E+08         0.34364E+06         0.00000E+00
    0.34364E+06        -0.19684E+07         0.00000E+00
    0.00000E+00         0.00000E+00        -0.15292E+08
 
   -0.15249E+08         0.34108E+06         0.00000E+00
    0.34108E+06        -0.19701E+07         0.00000E+00
    0.00000E+00         0.00000E+00        -0.15230E+08
 
   -0.15192E+08         0.33802E+06         0.00000E+00
    0.33802E+06        -0.19719E+07         0.00000E+00
    0.00000E+00         0.00000E+00        -0.15169E+08
 
   -0.15135E+08         0.33441E+06         0.00000E+00
    0.33441E+06        -0.19739E+07         0.00000E+00
    0.00000E+00         0.00000E+00        -0.15108E+08
 
   -0.15079E+08         0.33021E+06         0.00000E+00
    0.33021E+06        -0.19761E+07         0.00000E+00
    0.00000E+00         0.00000E+00        -0.15046E+08
 
   -0.15023E+08         0.32535E+06         0.00000E+00
    0.32535E+06        -0.19786E+07         0.00000E+00
    0.00000E+00         0.00000E+00        -0.14985E+08
 
   -0.14968E+08         0.31978E+06         0.00000E+00
    0.31978E+06        -0.19814E+07         0.00000E+00
    0.00000E+00         0.00000E+00        -0.14923E+08
 
   -0.14913E+08         0.31343E+06         0.00000E+00
    0.31343E+06        -0.19845E+07         0.00000E+00
    0.00000E+00         0.00000E+00        -0.14862E+08
 
   -0.14858E+08         0.30623E+06         0.00000E+00
    0.30623E+06        -0.19879E+07         0.00000E+00
    0.00000E+00         0.00000E+00        -0.14800E+08
 
   -0.14804E+08         0.29810E+06         0.00000E+00
    0.29810E+06        -0.19918E+07         0.00000E+00
    0.00000E+00         0.00000E+00        -0.14739E+08
 
   -0.14751E+08         0.28897E+06         0.00000E+00
    0.28897E+06        -0.19960E+07         0.00000E+00
    0.00000E+00         0.00000E+00        -0.14678E+08
 
   -0.14698E+08         0.27875E+06         0.00000E+00
    0.27875E+06        -0.20008E+07         0.00000E+00
    0.00000E+00         0.00000E+00        -0.14617E+08
 
   -0.14647E+08         0.26736E+06         0.00000E+00
    0.26736E+06        -0.20059E+07         0.00000E+00
    0.00000E+00         0.00000E+00        -0.14556E+08
 
   -0.14595E+08         0.25472E+06         0.00000E+00
    0.25472E+06        -0.20116E+07         0.00000E+00
    0.00000E+00         0.00000E+00        -0.14495E+08
 
   -0.14545E+08         0.24078E+06         0.00000E+00
    0.24078E+06        -0.20176E+07         0.00000E+00
    0.00000E+00         0.00000E+00        -0.14435E+08
 
   -0.14495E+08         0.22546E+06         0.00000E+00
    0.22546E+06        -0.20239E+07         0.00000E+00
    0.00000E+00         0.00000E+00        -0.14374E+08
 
   -0.14446E+08         0.20876E+06         0.00000E+00
    0.20876E+06        -0.20303E+07         0.00000E+00
    0.00000E+00         0.00000E+00        -0.14314E+08
 
   -0.14398E+08         0.19067E+06         0.00000E+00
    0.19067E+06        -0.20365E+07         0.00000E+00
    0.00000E+00         0.00000E+00        -0.14254E+08
 
   -0.14350E+08         0.17126E+06         0.00000E+00
    0.17126E+06        -0.20420E+07         0.00000E+00
    0.00000E+00         0.00000E+00        -0.14194E+08
 
   -0.14303E+08         0.15068E+06         0.00000E+00
    0.15068E+06        -0.20463E+07         0.00000E+00
    0.00000E+00         0.00000E+00        -0.14133E+08
 
   -0.14258E+08         0.12918E+06         0.00000E+00
    0.12918E+06        -0.20485E+07         0.00000E+00
    0.00000E+00         0.00000E+00        -0.14072E+08
 
   -0.14214E+08         0.10715E+06         0.00000E+00
    0.10715E+06        -0.20475E+07         0.00000E+00
    0.00000E+00         0.00000E+00        -0.14011E+08
 
   -0.14172E+08         0.85164E+05         0.00000E+00
    0.85164E+05        -0.20417E+07         0.00000E+00
    0.00000E+00         0.00000E+00        -0.13948E+08
 
   -0.14133E+08         0.63999E+05         0.00000E+00
    0.63999E+05        -0.20294E+07         0.00000E+00
    0.00000E+00         0.00000E+00        -0.13885E+08
 
   -0.14099E+08         0.44617E+05         0.00000E+00
    0.44617E+05        -0.20085E+07         0.00000E+00
    0.00000E+00         0.00000E+00        -0.13820E+08
 
   -0.14071E+08         0.28019E+05         0.00000E+00
    0.28019E+05        -0.19769E+07         0.00000E+00
    0.00000E+00         0.00000E+00        -0.13755E+08
 
   -0.14052E+08         0.14805E+05         0.00000E+00
    0.14805E+05        -0.19333E+07         0.00000E+00
    0.00000E+00         0.00000E+00        -0.13688E+08
 
   -0.14042E+08         0.45375E+04         0.00000E+00
    0.45375E+04        -0.18770E+07         0.00000E+00
    0.00000E+00         0.00000E+00        -0.13620E+08
 
   -0.18455E+08         0.28989E+04         0.00000E+00
    0.28989E+04        -0.20031E+07         0.00000E+00
    0.00000E+00         0.00000E+00        -0.18723E+08
 
   -0.18449E+08         0.94127E+04         0.00000E+00
    0.94127E+04        -0.19709E+07         0.00000E+00
    0.00000E+00         0.00000E+00        -0.18684E+08
 
   -0.18438E+08         0.17729E+05         0.00000E+00
    0.17729E+05        -0.19461E+07         0.00000E+00
    0.00000E+00         0.00000E+00        -0.18645E+08
 
   -0.18422E+08         0.28176E+05         0.00000E+00
    0.28176E+05        -0.19283E+07         0.00000E+00
    0.00000E+00         0.00000E+00        -0.18607E+08
 
   -0.18402E+08         0.40448E+05         0.00000E+00
    0.40448E+05        -0.19165E+07         0.00000E+00
    0.00000E+00         0.00000E+00        -0.18570E+08
 
   -0.18380E+08         0.53954E+05         0.00000E+00
    0.53954E+05        -0.19096E+07         0.00000E+00
    0.00000E+00         0.00000E+00        -0.18533E+08
 
   -0.18355E+08         0.68095E+05         0.00000E+00
    0.68095E+05        -0.19063E+07         0.00000E+00
    0.00000E+00         0.00000E+00        -0.18497E+08
 
   -0.18329E+08         0.82382E+05         0.00000E+00
    0.82382E+05        -0.19056E+07         0.00000E+00
    0.00000E+00         0.00000E+00        -0.18461E+08
 
   -0.18302E+08         0.96451E+05         0.00000E+00
    0.96451E+05        -0.19068E+07         0.00000E+00
    0.00000E+00         0.00000E+00        -0.18425E+08
 
   -0.18274E+08         0.11006E+06         0.00000E+00
    0.11006E+06        -0.19091E+07         0.00000E+00
    0.00000E+00         0.00000E+00        -0.18389E+08
 
   -0.18245E+08         0.12304E+06         0.00000E+00
    0.12304E+06        -0.19120E+07         0.00000E+00
    0.00000E+00         0.00000E+00        -0.18353E+08
 
   -0.18215E+08         0.13532E+06         0.00000E+00
    0.13532E+06        -0.19153E+07         0.00000E+00
    0.00000E+00         0.00000E+00        -0.18316E+08
 
   -0.18184E+08         0.14684E+06         0.00000E+00
    0.14684E+06        -0.19188E+07         0.00000E+00
    0.00000E+00         0.00000E+00        -0.18280E+08
 
   -0.18153E+08         0.15762E+06         0.00000E+00
    0.15762E+06        -0.19221E+07         0.00000E+00
    0.00000E+00         0.00000E+00        -0.18243E+08
 
   -0.18121E+08         0.16766E+06         0.00000E+00
    0.16766E+06        -0.19253E+07         0.00000E+00
    0.00000E+00         0.00000E+00        -0.18205E+08
 
   -0.18088E+08         0.17700E+06         0.00000E+00
    0.17700E+06        -0.19282E+07         0.00000E+00
    0.00000E+00         0.00000E+00        -0.18168E+08
 
   -0.18054E+08         0.18569E+06         0.00000E+00
    0.18569E+06        -0.19309E+07         0.00000E+00
    0.00000E+00         0.00000E+00        -0.18129E+08
 
   -0.18020E+08         0.19377E+06         0.00000E+00
    0.19377E+06        -0.19333E+07         0.00000E+00
    0.00000E+00         0.00000E+00        -0.18090E+08
 
   -0.17985E+08         0.20129E+06         0.00000E+00
    0.20129E+06        -0.19355E+07         0.00000E+00
    0.00000E+00         0.00000E+00        -0.18051E+08
 
   -0.17949E+08         0.20829E+06         0.00000E+00
    0.20829E+06        -0.19374E+07         0.00000E+00
    0.00000E+00         0.00000E+00        -0.18012E+08
 
   -0.17912E+08         0.21484E+06         0.00000E+00
    0.21484E+06        -0.19391E+07         0.00000E+00
    0.00000E+00         0.00000E+00        -0.17971E+08
 
   -0.17874E+08         0.22096E+06         0.00000E+00
    0.22096E+06        -0.19406E+07         0.00000E+00
    0.00000E+00         0.00000E+00        -0.17931E+08
 
   -0.17836E+08         0.22671E+06         0.00000E+00
    0.22671E+06        -0.19419E+07         0.00000E+00
    0.00000E+00         0.00000E+00        -0.17890E+08
 
   -0.17797E+08         0.23212E+06         0.00000E+00
    0.23212E+06        -0.19431E+07         0.00000E+00
    0.00000E+00         0.00000E+00        -0.17848E+08
 
   -0.17757E+08         0.23722E+06         0.00000E+00
    0.23722E+06        -0.19441E+07         0.00000E+00
    0.00000E+00         0.00000E+00        -0.17806E+08
 
   -0.17717E+08         0.24205E+06         0.00000E+00
    0.24205E+06        -0.19450E+07         0.00000E+00
    0.00000E+00         0.00000E+00        -0.17764E+08
 
   -0.17676E+08         0.24663E+06         0.00000E+00
    0.24663E+06        -0.19458E+07         0.00000E+00
    0.00000E+00         0.00000E+00        -0.17721E+08
 
   -0.17634E+08         0.25100E+06         0.00000E+00
    0.25100E+06        -0.19465E+07         0.00000E+00
    0.00000E+00         0.00000E+00        -0.17678E+08
 
   -0.17592E+08         0.25516E+06         0.00000E+00
    0.25516E+06        -0.19472E+07         0.00000E+00
    0.00000E+00         0.00000E+00        -0.17634E+08
 
   -0.17549E+08         0.25915E+06         0.00000E+00
    0.25915E+06        -0.19477E+07         0.00000E+00
    0.00000E+00         0.00000E+00        -0.17590E+08
 
   -0.17506E+08         0.26298E+06         0.00000E+00
    0.26298E+06        -0.19482E+07         0.00000E+00
    0.00000E+00         0.00000E+00        -0.17545E+08
 
   -0.17462E+08         0.26667E+06         0.00000E+00
    0.26667E+06        -0.19487E+07         0.00000E+00
    0.00000E+00         0.00000E+00        -0.17500E+08
 
   -0.17417E+08         0.27022E+06         0.00000E+00
    0.27022E+06        -0.19491E+07         0.00000E+00
    0.00000E+00         0.00000E+00        -0.17455E+08
 
   -0.17372E+08         0.27366E+06         0.00000E+00
    0.27366E+06        -0.19495E+07         0.00000E+00
    0.00000E+00         0.00000E+00        -0.17409E+08
 
   -0.17327E+08         0.27699E+06         0.00000E+00
    0.27699E+06        -0.19498E+07         0.00000E+00
    0.00000E+00         0.00000E+00        -0.17363E+08
 
   -0.17281E+08         0.28022E+06         0.00000E+00
    0.28022E+06        -0.19501E+07         0.00000E+00
    0.00000E+00         0.00000E+00        -0.17316E+08
 
   -0.17234E+08         0.28336E+06         0.00000E+00
    0.28336E+06        -0.19504E+07         0.00000E+00
    0.00000E+00         0.00000E+00        -0.17269E+08
 
   -0.17187E+08         0.28641E+06         0.00000E+00
    0.28641E+06        -0.19507E+07         0.00000E+00
    0.00000E+00         0.00000E+00        -0.17221E+08
 
   -0.17140E+08         0.28939E+06         0.00000E+00
    0.28939E+06        -0.19509E+07         0.00000E+00
    0.00000E+00         0.00000E+00        -0.17173E+08
 
   -0.17092E+08         0.29230E+06         0.00000E+00
    0.29230E+06        -0.19512E+07         0.00000E+00
    0.00000E+00         0.00000E+00        -0.17125E+08
 
   -0.17044E+08         0.29513E+06         0.00000E+00
    0.29513E+06        -0.19514E+07         0.00000E+00
    0.00000E+00         0.00000E+00        -0.17076E+08
 
   -0.16995E+08         0.29790E+06         0.00000E+00
    0.29790E+06        -0.19516E+07         0.00000E+00
    0.00000E+00         0.00000E+00        -0.17026E+08
 
   -0.16946E+08         0.30061E+06         0.00000E+00
    0.30061E+06        -0.19518E+07         0.00000E+00
    0.00000E+00         0.00000E+00        -0.16976E+08
 
   -0.16896E+08         0.30325E+06         0.00000E+00
    0.30325E+06        -0.19521E+07         0.00000E+00
    0.00000E+00         0.00000E+00        -0.16926E+08
 
   -0.16846E+08         0.30583E+06         0.00000E+00
    0.30583E+06        -0.19523E+07         0.00000E+00
    0.00000E+00         0.00000E+00        -0.16876E+08
 
   -0.16795E+08         0.30835E+06         0.00000E+00
    0.30835E+06        -0.19525E+07         0.00000E+00
    0.00000E+00         0.00000E+00        -0.16824E+08
 
   -0.16744E+08         0.31080E+06         0.00000E+00
    0.31080E+06        -0.19527E+07         0.00000E+00
    0.00000E+00         0.00000E+00        -0.16773E+08
 
   -0.16693E+08         0.31319E+06         0.00000E+00
    0.31319E+06        -0.19529E+07         0.00000E+00
    0.00000E+00         0.00000E+00        -0.16721E+08
 
   -0.16641E+08         0.31552E+06         0.00000E+00
    0.31552E+06        -0.19531E+07         0.00000E+00
    0.00000E+00         0.00000E+00        -0.16668E+08
 
   -0.16589E+08         0.31777E+06         0.00000E+00
    0.31777E+06        -0.19534E+07         0.00000E+00
    0.00000E+00         0.00000E+00        -0.16616E+08
 
   -0.16536E+08         0.31995E+06         0.00000E+00
    0.31995E+06        -0.19536E+07         0.00000E+00
    0.00000E+00         0.00000E+00        -0.16562E+08
 
   -0.16483E+08         0.32205E+06         0.00000E+00
    0.32205E+06        -0.19539E+07         0.00000E+00
    0.00000E+00         0.00000E+00        -0.16509E+08
 
   -0.16429E+08         0.32408E+06         0.00000E+00
    0.32408E+06        -0.19542E+07         0.00000E+00
    0.00000E+00         0.00000E+00        -0.16454E+08
 
   -0.16376E+08         0.32601E+06         0.00000E+00
    0.32601E+06        -0.19544E+07         0.00000E+00
    0.00000E+00         0.00000E+00        -0.16400E+08
 
   -0.16322E+08         0.32785E+06         0.00000E+00
    0.32785E+06        -0.19548E+07         0.00000E+00
    0.00000E+00         0.00000E+00        -0.16345E+08
 
   -0.16267E+08         0.32959E+06         0.00000E+00
    0.32959E+06        -0.19551E+07         0.00000E+00
    0.00000E+00         0.00000E+00        -0.16289E+08
 
   -0.16212E+08         0.33122E+06         0.00000E+00
    0.33122E+06        -0.19555E+07         0.00000E+00
    0.00000E+00         0.00000E+00        -0.16233E+08
 
   -0.16157E+08         0.33274E+06         0.00000E+00
    0.33274E+06        -0.19559E+07         0.00000E+00
    0.00000E+00         0.00000E+00        -0.16177E+08
 
   -0.16102E+08         0.33413E+06         0.00000E+00
    0.33413E+06        -0.19563E+07         0.00000E+00
    0.00000E+00         0.00000E+00        -0.16121E+08
 
   -0.16046E+08         0.33538E+06         0.00000E+00
    0.33538E+06        -0.19567E+07         0.00000E+00
    0.00000E+00         0.00000E+00        -0.16064E+08
 
   -0.15990E+08         0.33649E+06         0.00000E+00
    0.33649E+06        -0.19572E+07         0.00000E+00
    0.00000E+00         0.00000E+00        -0.16006E+08
 
   -0.15934E+08         0.33743E+06         0.00000E+00
    0.33743E+06        -0.19578E+07         0.00000E+00
    0.00000E+00         0.00000E+00        -0.15948E+08
 
   -0.15877E+08         0.33820E+06         0.00000E+00
    0.33820E+06        -0.19584E+07         0.00000E+00
    0.00000E+00         0.00000E+00        -0.15890E+08
 
   -0.15821E+08         0.33878E+06         0.00000E+00
    0.33878E+06        -0.19590E+07         0.00000E+00
    0.00000E+00         0.00000E+00        -0.15832E+08
 
   -0.15764E+08         0.33916E+06         0.00000E+00
    0.33916E+06        -0.19597E+07         0.00000E+00
    0.00000E+00         0.00000E+00        -0.15773E+08
 
   -0.15707E+08         0.33931E+06         0.00000E+00
    0.33931E+06        -0.19604E+07         0.00000E+00
    0.00000E+00         0.00000E+00        -0.15714E+08
 
   -0.15650E+08         0.33922E+06         0.00000E+00
    0.33922E+06        -0.19612E+07         0.00000E+00
    0.00000E+00         0.00000E+00        -0.15654E+08
 
   -0.15593E+08         0.33887E+06         0.00000E+00
    0.33887E+06        -0.19621E+07         0.00000E+00
    0.00000E+00         0.00000E+00        -0.15594E+08
 
   -0.15535E+08         0.33823E+06         0.00000E+00
    0.33823E+06        -0.19631E+07         0.00000E+00
    0.00000E+00         0.00000E+00        -0.15534E+08
 
   -0.15478E+08         0.33727E+06         0.00000E+00
    0.33727E+06        -0.19642E+07         0.00000E+00
    0.00000E+00         0.00000E+00        -0.15474E+08
 
   -0.15421E+08         0.33597E+06         0.00000E+00
    0.33597E+06        -0.19653E+07         0.00000E+00
    0.00000E+00         0.00000E+00        -0.15413E+08
 
   -0.15364E+08         0.33430E+06         0.00000E+00
    0.33430E+06        -0.19666E+07         0.00000E+00
    0.00000E+00         0.00000E+00        -0.15353E+08
 
   -0.15307E+08         0.33223E+06         0.00000E+00
    0.33223E+06        -0.19680E+07         0.00000E+00
    0.00000E+00         0.00000E+00        -0.15292E+08
 
   -0.15250E+08         0.32970E+06         0.00000E+00
    0.32970E+06        -0.19695E+07         0.00000E+00
    0.00000E+00         0.00000E+00        -0.15231E+08
 
   -0.15193E+08         0.32669E+06         0.00000E+00
    0.32669E+06        -0.19712E+07         0.00000E+00
    0.00000E+00         0.00000E+00        -0.15169E+08
 
   -0.15137E+08         0.32314E+06         0.00000E+00
    0.32314E+06        -0.19731E+07         0.00000E+00
    0.00000E+00         0.00000E+00        -0.15108E+08
 
   -0.15081E+08         0.31901E+06         0.00000E+00
    0.31901E+06        -0.19752E+07         0.00000E+00
    0.00000E+00         0.00000E+00        -0.15047E+08
 
   -0.15025E+08         0.31424E+06         0.00000E+00
    0.31424E+06        -0.19776E+07         0.00000E+00
    0.00000E+00         0.00000E+00        -0.14985E+08
 
   -0.14970E+08         0.30876E+06         0.00000E+00
    0.30876E+06        -0.19802E+07         0.00000E+00
    0.00000E+00         0.00000E+00        -0.14924E+08
 
   -0.14915E+08         0.30252E+06         0.00000E+00
    0.30252E+06        -0.19831E+07         0.00000E+00
    0.00000E+00         0.00000E+00        -0.14862E+08
 
   -0.14861E+08         0.29544E+06         0.00000E+00
    0.29544E+06        -0.19864E+07         0.00000E+00
    0.00000E+00         0.00000E+00        -0.14801E+08
 
   -0.14808E+08         0.28743E+06         0.00000E+00
    0.28743E+06        -0.19901E+07         0.00000E+00
    0.00000E+00         0.00000E+00        -0.14740E+08
 
   -0.14755E+08         0.27843E+06         0.00000E+00
    0.27843E+06        -0.19941E+07         0.00000E+00
    0.00000E+00         0.00000E+00        -0.14678E+08
 
   -0.14703E+08         0.26835E+06         0.00000E+00
    0.26835E+06        -0.19986E+07         0.00000E+00
    0.00000E+00         0.00000E+00        -0.14617E+08
 
   -0.14652E+08         0.25711E+06         0.00000E+00
    0.25711E+06        -0.20036E+07         0.00000E+00
    0.00000E+00         0.00000E+00        -0.14557E+08
 
   -0.14601E+08         0.24463E+06         0.00000E+00
    0.24463E+06        -0.20089E+07         0.00000E+00
    0.00000E+00         0.00000E+00        -0.14496E+08
 
   -0.14552E+08         0.23083E+06         0.00000E+00
    0.23083E+06        -0.20147E+07         0.00000E+00
    0.00000E+00         0.00000E+00        -0.14436E+08
 
   -0.14503E+08         0.21567E+06         0.00000E+00
    0.21567E+06        -0.20207E+07         0.00000E+00
    0.00000E+00         0.00000E+00        -0.14376E+08
 
   -0.14454E+08         0.19911E+06         0.00000E+00
    0.19911E+06        -0.20268E+07         0.00000E+00
    0.00000E+00         0.00000E+00        -0.14316E+08
 
   -0.14407E+08         0.18118E+06         0.00000E+00
    0.18118E+06        -0.20327E+07         0.00000E+00
    0.00000E+00         0.00000E+00        -0.14256E+08
 
   -0.14361E+08         0.16194E+06         0.00000E+00
    0.16194E+06        -0.20380E+07         0.00000E+00
    0.00000E+00         0.00000E+00        -0.14196E+08
 
   -0.14315E+08         0.14156E+06         0.00000E+00
    0.14156E+06        -0.20421E+07         0.00000E+00
    0.00000E+00         0.00000E+00        -0.14135E+08
 
   -0.14271E+08         0.12031E+06         0.00000E+00
    0.12031E+06        -0.20442E+07         0.00000E+00
    0.00000E+00         0.00000E+00        -0.14075E+08
 
   -0.14228E+08         0.98640E+05         0.00000E+00
    0.98640E+05        -0.20431E+07         0.00000E+00
    0.00000E+00         0.00000E+00        -0.14014E+08
 
   -0.14188E+08         0.77177E+05         0.00000E+00
    0.77177E+05        -0.20374E+07         0.00000E+00
    0.00000E+00         0.00000E+00        -0.13952E+08
 
   -0.14150E+08         0.56783E+05         0.00000E+00
    0.56783E+05        -0.20254E+07         0.00000E+00
    0.00000E+00         0.00000E+00        -0.13889E+08
 
   -0.14117E+08         0.38500E+05         0.00000E+00
    0.38500E+05        -0.20049E+07         0.00000E+00
    0.00000E+00         0.00000E+00        -0.13825E+08
 
   -0.14091E+08         0.23357E+05         0.00000E+00
    0.23357E+05        -0.19741E+07         0.00000E+00
    0.00000E+00         0.00000E+00        -0.13760E+08
 
   -0.14072E+08         0.11896E+05         0.00000E+00
    0.11896E+05        -0.19312E+07         0.00000E+00
    0.00000E+00         0.00000E+00        -0.13693E+08
 
   -0.14063E+08         0.35513E+04         0.00000E+00
    0.35513E+04        -0.18754E+07         0.00000E+00
    0.00000E+00         0.00000E+00        -0.13625E+08
 
   -0.18442E+08         0.23274E+04         0.00000E+00
    0.23274E+04        -0.20041E+07         0.00000E+00
    0.00000E+00         0.00000E+00        -0.18720E+08
 
   -0.18437E+08         0.77304E+04         0.00000E+00
    0.77304E+04        -0.19722E+07         0.00000E+00
    0.00000E+00         0.00000E+00        -0.18680E+08
 
   -0.18426E+08         0.15037E+05         0.00000E+00
    0.15037E+05        -0.19479E+07         0.00000E+00
    0.00000E+00         0.00000E+00        -0.18642E+08
 
   -0.18410E+08         0.24641E+05         0.00000E+00
    0.24641E+05        -0.19305E+07         0.00000E+00
    0.00000E+00         0.00000E+00        -0.18604E+08
 
   -0.18391E+08         0.36261E+05         0.00000E+00
    0.36261E+05        -0.19190E+07         0.00000E+00
    0.00000E+00         0.00000E+00        -0.18567E+08
 
   -0.18370E+08         0.49289E+05         0.00000E+00
    0.49289E+05        -0.19123E+07         0.00000E+00
    0.00000E+00         0.00000E+00        -0.18531E+08
 
   -0.18346E+08         0.63083E+05         0.00000E+00
    0.63083E+05        -0.19091E+07         0.00000E+00
    0.00000E+00         0.00000E+00        -0.18495E+08
 
   -0.18321E+08         0.77109E+05         0.00000E+00
    0.77109E+05        -0.19084E+07         0.00000E+00
    0.00000E+00         0.00000E+00        -0.18459E+08
 
   -0.18294E+08         0.90971E+05         0.00000E+00
    0.90971E+05        -0.19095E+07         0.00000E+00
    0.00000E+00         0.00000E+00        -0.18423E+08
 
   -0.18266E+08         0.10440E+06         0.00000E+00
    0.10440E+06        -0.19117E+07         0.00000E+00
    0.00000E+00         0.00000E+00        -0.18387E+08
 
   -0.18238E+08         0.11722E+06         0.00000E+00
    0.11722E+06        -0.19145E+07         0.00000E+00
    0.00000E+00         0.00000E+00        -0.18351E+08
 
   -0.18209E+08         0.12933E+06         0.00000E+00
    0.12933E+06        -0.19177E+07         0.00000E+00
    0.00000E+00         0.00000E+00        -0.18315E+08
 
   -0.18179E+08         0.14070E+06         0.00000E+00
    0.14070E+06        -0.19210E+07         0.00000E+00
    0.00000E+00         0.00000E+00        -0.18279E+08
 
   -0.18148E+08         0.15132E+06         0.00000E+00
    0.15132E+06        -0.19242E+07         0.00000E+00
    0.00000E+00         0.00000E+00        -0.18242E+08
 
   -0.18116E+08         0.16120E+06         0.00000E+00
    0.16120E+06        -0.19272E+07         0.00000E+00
    0.00000E+00         0.00000E+00        -0.18204E+08
 
   -0.18084E+08         0.17038E+06         0.00000E+00
    0.17038E+06        -0.19300E+07         0.00000E+00
    0.00000E+00         0.00000E+00        -0.18167E+08
 
   -0.18050E+08         0.17890E+06         0.00000E+00
    0.17890E+06        -0.19325E+07         0.00000E+00
    0.00000E+00         0.00000E+00        -0.18128E+08
 
   -0.18016E+08         0.18682E+06         0.00000E+00
    0.18682E+06        -0.19348E+07         0.00000E+00
    0.00000E+00         0.00000E+00        -0.18090E+08
 
   -0.17981E+08         0.19418E+06         0.00000E+00
    0.19418E+06        -0.19369E+07         0.00000E+00
    0.00000E+00         0.00000E+00        -0.18051E+08
 
   -0.17945E+08         0.20103E+06         0.00000E+00
    0.20103E+06        -0.19387E+07         0.00000E+00
    0.00000E+00         0.00000E+00        -0.18011E+08
 
   -0.17909E+08         0.20742E+06         0.00000E+00
    0.20742E+06        -0.19403E+07         0.00000E+00
    0.00000E+00         0.00000E+00        -0.17971E+08
 
   -0.17871E+08         0.21339E+06         0.00000E+00
    0.21339E+06        -0.19418E+07         0.00000E+00
    0.00000E+00         0.00000E+00        -0.17930E+08
 
   -0.17833E+08         0.21899E+06         0.00000E+00
    0.21899E+06        -0.19430E+07         0.00000E+00
    0.00000E+00         0.00000E+00        -0.17889E+08
 
   -0.17794E+08         0.22426E+06         0.00000E+00
    0.22426E+06        -0.19441E+07         0.00000E+00
    0.00000E+00         0.00000E+00        -0.17848E+08
 
   -0.17755E+08         0.22923E+06         0.00000E+00
    0.22923E+06        -0.19451E+07         0.00000E+00
    0.00000E+00         0.00000E+00        -0.17806E+08
 
   -0.17714E+08         0.23392E+06         0.00000E+00
    0.23392E+06        -0.19459E+07         0.00000E+00
    0.00000E+00         0.00000E+00        -0.17763E+08
 
   -0.17673E+08         0.23838E+06         0.00000E+00
    0.23838E+06        -0.19467E+07         0.00000E+00
    0.00000E+00         0.00000E+00        -0.17721E+08
 
   -0.17632E+08         0.24262E+06         0.00000E+00
    0.24262E+06        -0.19474E+07         0.00000E+00
    0.00000E+00         0.00000E+00        -0.17677E+08
 
   -0.17590E+08         0.24667E+06         0.00000E+00
    0.24667E+06        -0.19480E+07         0.00000E+00
    0.00000E+00         0.00000E+00        -0.17634E+08
 
   -0.17547E+08         0.25054E+06         0.00000E+00
    0.25054E+06        -0.19485E+07         0.00000E+00
    0.00000E+00         0.00000E+00        -0.17589E+08
 
   -0.17504E+08         0.25426E+06         0.00000E+00
    0.25426E+06        -0.19490E+07         0.00000E+00
    0.00000E+00         0.00000E+00        -0.17545E+08
 
   -0.17460E+08         0.25783E+06         0.00000E+00
    0.25783E+06        -0.19494E+07         0.00000E+00
    0.00000E+00         0.00000E+00        -0.17500E+08
 
   -0.17415E+08         0.26128E+06         0.00000E+00
    0.26128E+06        -0.19498E+07         0.00000E+00
    0.00000E+00         0.00000E+00        -0.17454E+08
 
   -0.17370E+08         0.26461E+06         0.00000E+00
    0.26461E+06        -0.19501E+07         0.00000E+00
    0.00000E+00         0.00000E+00        -0.17409E+08
 
   -0.17325E+08         0.26784E+06         0.00000E+00
    0.26784E+06        -0.19505E+07         0.00000E+00
    0.00000E+00         0.00000E+00        -0.17362E+08
 
   -0.17279E+08         0.27097E+06         0.00000E+00
    0.27097E+06        -0.19508E+07         0.00000E+00
    0.00000E+00         0.00000E+00        -0.17315E+08
 
   -0.17233E+08         0.27401E+06         0.00000E+00
    0.27401E+06        -0.19510E+07         0.00000E+00
    0.00000E+00         0.00000E+00        -0.17268E+08
 
   -0.17186E+08         0.27697E+06         0.00000E+00
    0.27697E+06        -0.19513E+07         0.00000E+00
    0.00000E+00         0.00000E+00        -0.17221E+08
 
   -0.17138E+08         0.27986E+06         0.00000E+00
    0.27986E+06        -0.19515E+07         0.00000E+00
    0.00000E+00         0.00000E+00        -0.17173E+08
 
   -0.17090E+08         0.28267E+06         0.00000E+00
    0.28267E+06        -0.19518E+07         0.00000E+00
    0.00000E+00         0.00000E+00        -0.17124E+08
 
   -0.17042E+08         0.28541E+06         0.00000E+00
    0.28541E+06        -0.19520E+07         0.00000E+00
    0.00000E+00         0.00000E+00        -0.17075E+08
 
   -0.16993E+08         0.28809E+06         0.00000E+00
    0.28809E+06        -0.19522E+07         0.00000E+00
    0.00000E+00         0.00000E+00        -0.17026E+08
 
   -0.16944E+08         0.29071E+06         0.00000E+00
    0.29071E+06        -0.19524E+07         0.00000E+00
    0.00000E+00         0.00000E+00        -0.16976E+08
 
   -0.16894E+08         0.29326E+06         0.00000E+00
    0.29326E+06        -0.19526E+07         0.00000E+00
    0.00000E+00         0.00000E+00        -0.16926E+08
 
   -0.16844E+08         0.29576E+06         0.00000E+00
    0.29576E+06        -0.19528E+07         0.00000E+00
    0.00000E+00         0.00000E+00        -0.16875E+08
 
   -0.16793E+08         0.29819E+06         0.00000E+00
    0.29819E+06        -0.19530E+07         0.00000E+00
    0.00000E+00         0.00000E+00        -0.16824E+08
 
   -0.16742E+08         0.30056E+06         0.00000E+00
    0.30056E+06        -0.19532E+07         0.00000E+00
    0.00000E+00         0.00000E+00        -0.16773E+08
 
   -0.16691E+08         0.30287E+06         0.00000E+00
    0.30287E+06        -0.19534E+07         0.00000E+00
    0.00000E+00         0.00000E+00        -0.16721E+08
 
   -0.16639E+08         0.30511E+06         0.00000E+00
    0.30511E+06        -0.19536E+07         0.00000E+00
    0.00000E+00         0.00000E+00        -0.16668E+08
 
   -0.16587E+08         0.30728E+06         0.00000E+00
    0.30728E+06        -0.19538E+07         0.00000E+00
    0.00000E+00         0.00000E+00        -0.16615E+08
 
   -0.16534E+08         0.30939E+06         0.00000E+00
    0.30939E+06        -0.19540E+07         0.00000E+00
    0.00000E+00         0.00000E+00        -0.16562E+08
 
   -0.16481E+08         0.31141E+06         0.00000E+00
    0.31141E+06        -0.19543E+07         0.00000E+00
    0.00000E+00         0.00000E+00        -0.16508E+08
 
   -0.16428E+08         0.31336E+06         0.00000E+00
    0.31336E+06        -0.19545E+07         0.00000E+00
    0.00000E+00         0.00000E+00        -0.16454E+08
 
   -0.16374E+08         0.31522E+06         0.00000E+00
    0.31522E+06        -0.19548E+07         0.00000E+00
    0.00000E+00         0.00000E+00        -0.16399E+08
 
   -0.16320E+08         0.31699E+06         0.00000E+00
    0.31699E+06        -0.19551E+07         0.00000E+00
    0.00000E+00         0.00000E+00        -0.16344E+08
 
   -0.16266E+08         0.31867E+06         0.00000E+00
    0.31867E+06        -0.19554E+07         0.00000E+00
    0.00000E+00         0.00000E+00        -0.16289E+08
 
   -0.16211E+08         0.32024E+06         0.00000E+00
    0.32024E+06        -0.19558E+07         0.00000E+00
    0.00000E+00         0.00000E+00        -0.16233E+08
 
   -0.16156E+08         0.32169E+06         0.00000E+00
    0.32169E+06        -0.19561E+07         0.00000E+00
    0.00000E+00         0.00000E+00        -0.16177E+08
 
   -0.16101E+08         0.32302E+06         0.00000E+00
    0.32302E+06        -0.19565E+07         0.00000E+00
    0.00000E+00         0.00000E+00        -0.16120E+08
 
   -0.16045E+08         0.32422E+06         0.00000E+00
    0.32422E+06        -0.19570E+07         0.00000E+00
    0.00000E+00         0.00000E+00        -0.16063E+08
 
   -0.15989E+08         0.32527E+06         0.00000E+00
    0.32527E+06        -0.19574E+07         0.00000E+00
    0.00000E+00         0.00000E+00        -0.16006E+08
 
   -0.15933E+08         0.32617E+06         0.00000E+00
    0.32617E+06        -0.19579E+07         0.00000E+00
    0.00000E+00         0.00000E+00        -0.15948E+08
 
   -0.15877E+08         0.32690E+06         0.00000E+00
    0.32690E+06        -0.19585E+07         0.00000E+00
    0.00000E+00         0.00000E+00        -0.15890E+08
 
   -0.15820E+08         0.32744E+06         0.00000E+00
    0.32744E+06        -0.19591E+07         0.00000E+00
    0.00000E+00         0.00000E+00        -0.15831E+08
 
   -0.15763E+08         0.32779E+06         0.00000E+00
    0.32779E+06        -0.19597E+07         0.00000E+00
    0.00000E+00         0.00000E+00        -0.15773E+08
 
   -0.15706E+08         0.32792E+06         0.00000E+00
    0.32792E+06        -0.19604E+07         0.00000E+00
    0.00000E+00         0.00000E+00        -0.15713E+08
 
   -0.15649E+08         0.32781E+06         0.00000E+00
    0.32781E+06        -0.19612E+07         0.00000E+00
    0.00000E+00         0.00000E+00        -0.15654E+08
 
   -0.15592E+08         0.32744E+06         0.00000E+00
    0.32744E+06        -0.19620E+07         0.00000E+00
    0.00000E+00         0.00000E+00        -0.15594E+08
 
   -0.15535E+08         0.32679E+06         0.00000E+00
    0.32679E+06        -0.19629E+07         0.00000E+00
    0.00000E+00         0.00000E+00        -0.15534E+08
 
   -0.15478E+08         0.32584E+06         0.00000E+00
    0.32584E+06        -0.19639E+07         0.00000E+00
    0.00000E+00         0.00000E+00        -0.15474E+08
 
   -0.15421E+08         0.32455E+06         0.00000E+00
    0.32455E+06        -0.19650E+07         0.00000E+00
    0.00000E+00         0.00000E+00        -0.15413E+08
 
   -0.15364E+08         0.32290E+06         0.00000E+00
    0.32290E+06        -0.19662E+07         0.00000E+00
    0.00000E+00         0.00000E+00        -0.15353E+08
 
   -0.15307E+08         0.32086E+06         0.00000E+00
    0.32086E+06        -0.19675E+07         0.00000E+00
    0.00000E+00         0.00000E+00        -0.15292E+08
 
   -0.15251E+08         0.31837E+06         0.00000E+00
    0.31837E+06        -0.19690E+07         0.00000E+00
    0.00000E+00         0.00000E+00        -0.15231E+08
 
   -0.15194E+08         0.31541E+06         0.00000E+00
    0.31541E+06        -0.19706E+07         0.00000E+00
    0.00000E+00         0.00000E+00        -0.15169E+08
 
   -0.15138E+08         0.31193E+06         0.00000E+00
    0.31193E+06        -0.19724E+07         0.00000E+00
    0.00000E+00         0.00000E+00        -0.15108E+08
 
   -0.15082E+08         0.30788E+06         0.00000E+00
    0.30788E+06        -0.19744E+07         0.00000E+00
    0.00000E+00         0.00000E+00        -0.15047E+08
 
   -0.15027E+08         0.30319E+06         0.00000E+00
    0.30319E+06        -0.19766E+07         0.00000E+00
    0.00000E+00         0.00000E+00        -0.14985E+08
 
   -0.14972E+08         0.29782E+06         0.00000E+00
    0.29782E+06        -0.19790E+07         0.00000E+00
    0.00000E+00         0.00000E+00        -0.14924E+08
 
   -0.14918E+08         0.29169E+06         0.00000E+00
    0.29169E+06        -0.19818E+07         0.00000E+00
    0.00000E+00         0.00000E+00        -0.14863E+08
 
   -0.14864E+08         0.28473E+06         0.00000E+00
    0.28473E+06        -0.19849E+07         0.00000E+00
    0.00000E+00         0.00000E+00        -0.14801E+08
 
   -0.14811E+08         0.27686E+06         0.00000E+00
    0.27686E+06        -0.19884E+07         0.00000E+00
    0.00000E+00         0.00000E+00        -0.14740E+08
 
   -0.14759E+08         0.26800E+06         0.00000E+00
    0.26800E+06        -0.19922E+07         0.00000E+00
    0.00000E+00         0.00000E+00        -0.14679E+08
 
   -0.14708E+08         0.25808E+06         0.00000E+00
    0.25808E+06        -0.19965E+07         0.00000E+00
    0.00000E+00         0.00000E+00        -0.14618E+08
 
   -0.14657E+08         0.24699E+06         0.00000E+00
    0.24699E+06        -0.20012E+07         0.00000E+00
    0.00000E+00         0.00000E+00        -0.14558E+08
 
   -0.14607E+08         0.23467E+06         0.00000E+00
    0.23467E+06        -0.20063E+07         0.00000E+00
    0.00000E+00         0.00000E+00        -0.14497E+08
 
   -0.14558E+08         0.22104E+06         0.00000E+00
    0.22104E+06        -0.20118E+07         0.00000E+00
    0.00000E+00         0.00000E+00        -0.14437E+08
 
   -0.14510E+08         0.20604E+06         0.00000E+00
    0.20604E+06        -0.20175E+07         0.00000E+00
    0.00000E+00         0.00000E+00        -0.14377E+08
 
   -0.14463E+08         0.18966E+06         0.00000E+00
    0.18966E+06        -0.20234E+07         0.00000E+00
    0.00000E+00         0.00000E+00        -0.14317E+08
 
   -0.14417E+08         0.17190E+06         0.00000E+00
    0.17190E+06        -0.20290E+07         0.00000E+00
    0.00000E+00         0.00000E+00        -0.14257E+08
 
   -0.14371E+08         0.15285E+06         0.00000E+00
    0.15285E+06        -0.20341E+07         0.00000E+00
    0.00000E+00         0.00000E+00        -0.14198E+08
 
   -0.14327E+08         0.13269E+06         0.00000E+00
    0.13269E+06        -0.20380E+07         0.00000E+00
    0.00000E+00         0.00000E+00        -0.14138E+08
 
   -0.14284E+08         0.11172E+06         0.00000E+00
    0.11172E+06        -0.20399E+07         0.00000E+00
    0.00000E+00         0.00000E+00        -0.14077E+08
 
   -0.14243E+08         0.90412E+05         0.00000E+00
    0.90412E+05        -0.20388E+07         0.00000E+00
    0.00000E+00         0.00000E+00        -0.14017E+08
 
   -0.14203E+08         0.69473E+05         0.00000E+00
    0.69473E+05        -0.20333E+07         0.00000E+00
    0.00000E+00         0.00000E+00        -0.13955E+08
 
   -0.14167E+08         0.49833E+05         0.00000E+00
    0.49833E+05        -0.20216E+07         0.00000E+00
    0.00000E+00         0.00000E+00        -0.13893E+08
 
   -0.14136E+08         0.32608E+05         0.00000E+00
    0.32608E+05        -0.20017E+07         0.00000E+00
    0.00000E+00         0.00000E+00        -0.13830E+08
 
   -0.14110E+08         0.18859E+05         0.00000E+00
    0.18859E+05        -0.19716E+07         0.00000E+00
    0.00000E+00         0.00000E+00        -0.13765E+08
 
   -0.14092E+08         0.90793E+04         0.00000E+00
    0.90793E+04        -0.19294E+07         0.00000E+00
    0.00000E+00         0.00000E+00        -0.13698E+08
 
   -0.14083E+08         0.25936E+04         0.00000E+00
    0.25936E+04        -0.18742E+07         0.00000E+00
    0.00000E+00         0.00000E+00        -0.13631E+08
 
   -0.18430E+08         0.17697E+04         0.00000E+00
    0.17697E+04        -0.20049E+07         0.00000E+00
    0.00000E+00         0.00000E+00        -0.18716E+08
 
   -0.18424E+08         0.60937E+04         0.00000E+00
    0.60937E+04        -0.19733E+07         0.00000E+00
    0.00000E+00         0.00000E+00        -0.18677E+08
 
   -0.18414E+08         0.12429E+05         0.00000E+00
    0.12429E+05        -0.19495E+07         0.00000E+00
    0.00000E+00         0.00000E+00        -0.18639E+08
 
   -0.18399E+08         0.21225E+05         0.00000E+00
    0.21225E+05        -0.19326E+07         0.00000E+00
    0.00000E+00         0.00000E+00        -0.18602E+08
 
   -0.18381E+08         0.32218E+05         0.00000E+00
    0.32218E+05        -0.19215E+07         0.00000E+00
    0.00000E+00         0.00000E+00        -0.18565E+08
 
   -0.18360E+08         0.44780E+05         0.00000E+00
    0.44780E+05        -0.19150E+07         0.00000E+00
    0.00000E+00         0.00000E+00        -0.18529E+08
 
   -0.18337E+08         0.58228E+05         0.00000E+00
    0.58228E+05        -0.19119E+07         0.00000E+00
    0.00000E+00         0.00000E+00        -0.18493E+08
 
   -0.18312E+08         0.71987E+05         0.00000E+00
    0.71987E+05        -0.19112E+07         0.00000E+00
    0.00000E+00         0.00000E+00        -0.18457E+08
 
   -0.18286E+08         0.85631E+05         0.00000E+00
    0.85631E+05        -0.19122E+07         0.00000E+00
    0.00000E+00         0.00000E+00        -0.18422E+08
 
   -0.18259E+08         0.98866E+05         0.00000E+00
    0.98866E+05        -0.19143E+07         0.00000E+00
    0.00000E+00         0.00000E+00        -0.18386E+08
 
   -0.18232E+08         0.11151E+06         0.00000E+00
    0.11151E+06        -0.19170E+07         0.00000E+00
    0.00000E+00         0.00000E+00        -0.18350E+08
 
   -0.18203E+08         0.12345E+06         0.00000E+00
    0.12345E+06        -0.19200E+07         0.00000E+00
    0.00000E+00         0.00000E+00        -0.18314E+08
 
   -0.18173E+08         0.13465E+06         0.00000E+00
    0.13465E+06        -0.19231E+07         0.00000E+00
    0.00000E+00         0.00000E+00        -0.18278E+08
 
   -0.18143E+08         0.14510E+06         0.00000E+00
    0.14510E+06        -0.19262E+07         0.00000E+00
    0.00000E+00         0.00000E+00        -0.18241E+08
 
   -0.18111E+08         0.15481E+06         0.00000E+00
    0.15481E+06        -0.19291E+07         0.00000E+00
    0.00000E+00         0.00000E+00        -0.18204E+08
 
   -0.18079E+08         0.16382E+06         0.00000E+00
    0.16382E+06        -0.19317E+07         0.00000E+00
    0.00000E+00         0.00000E+00        -0.18166E+08
 
   -0.18046E+08         0.17217E+06         0.00000E+00
    0.17217E+06        -0.19342E+07         0.00000E+00
    0.00000E+00         0.00000E+00        -0.18128E+08
 
   -0.18012E+08         0.17992E+06         0.00000E+00
    0.17992E+06        -0.19364E+07         0.00000E+00
    0.00000E+00         0.00000E+00        -0.18089E+08
 
   -0.17977E+08         0.18711E+06         0.00000E+00
    0.18711E+06        -0.19383E+07         0.00000E+00
    0.00000E+00         0.00000E+00        -0.18050E+08
 
   -0.17942E+08         0.19380E+06         0.00000E+00
    0.19380E+06        -0.19400E+07         0.00000E+00
    0.00000E+00         0.00000E+00        -0.18010E+08
 
   -0.17905E+08         0.20003E+06         0.00000E+00
    0.20003E+06        -0.19416E+07         0.00000E+00
    0.00000E+00         0.00000E+00        -0.17970E+08
 
   -0.17868E+08         0.20585E+06         0.00000E+00
    0.20585E+06        -0.19429E+07         0.00000E+00
    0.00000E+00         0.00000E+00        -0.17930E+08
 
   -0.17830E+08         0.21130E+06         0.00000E+00
    0.21130E+06        -0.19441E+07         0.00000E+00
    0.00000E+00         0.00000E+00        -0.17889E+08
 
   -0.17791E+08         0.21643E+06         0.00000E+00
    0.21643E+06        -0.19451E+07         0.00000E+00
    0.00000E+00         0.00000E+00        -0.17847E+08
 
   -0.17752E+08         0.22126E+06         0.00000E+00
    0.22126E+06        -0.19460E+07         0.00000E+00
    0.00000E+00         0.00000E+00        -0.17805E+08
 
   -0.17712E+08         0.22582E+06         0.00000E+00
    0.22582E+06        -0.19468E+07         0.00000E+00
    0.00000E+00         0.00000E+00        -0.17763E+08
 
   -0.17671E+08         0.23015E+06         0.00000E+00
    0.23015E+06        -0.19475E+07         0.00000E+00
    0.00000E+00         0.00000E+00        -0.17720E+08
 
   -0.17629E+08         0.23426E+06         0.00000E+00
    0.23426E+06        -0.19482E+07         0.00000E+00
    0.00000E+00         0.00000E+00        -0.17677E+08
 
   -0.17587E+08         0.23819E+06         0.00000E+00
    0.23819E+06        -0.19487E+07         0.00000E+00
    0.00000E+00         0.00000E+00        -0.17633E+08
 
   -0.17545E+08         0.24194E+06         0.00000E+00
    0.24194E+06        -0.19492E+07         0.00000E+00
    0.00000E+00         0.00000E+00        -0.17589E+08
 
   -0.17501E+08         0.24555E+06         0.00000E+00
    0.24555E+06        -0.19497E+07         0.00000E+00
    0.00000E+00         0.00000E+00        -0.17544E+08
 
   -0.17458E+08         0.24901E+06         0.00000E+00
    0.24901E+06        -0.19501E+07         0.00000E+00
    0.00000E+00         0.00000E+00        -0.17499E+08
 
   -0.17413E+08         0.25235E+06         0.00000E+00
    0.25235E+06        -0.19505E+07         0.00000E+00
    0.00000E+00         0.00000E+00        -0.17454E+08
 
   -0.17368E+08         0.25558E+06         0.00000E+00
    0.25558E+06        -0.19508E+07         0.00000E+00
    0.00000E+00         0.00000E+00        -0.17408E+08
 
   -0.17323E+08         0.25870E+06         0.00000E+00
    0.25870E+06        -0.19511E+07         0.00000E+00
    0.00000E+00         0.00000E+00        -0.17362E+08
 
   -0.17277E+08         0.26173E+06         0.00000E+00
    0.26173E+06        -0.19514E+07         0.00000E+00
    0.00000E+00         0.00000E+00        -0.17315E+08
 
   -0.17231E+08         0.26467E+06         0.00000E+00
    0.26467E+06        -0.19516E+07         0.00000E+00
    0.00000E+00         0.00000E+00        -0.17268E+08
 
   -0.17184E+08         0.26754E+06         0.00000E+00
    0.26754E+06        -0.19519E+07         0.00000E+00
    0.00000E+00         0.00000E+00        -0.17220E+08
 
   -0.17136E+08         0.27033E+06         0.00000E+00
    0.27033E+06        -0.19521E+07         0.00000E+00
    0.00000E+00         0.00000E+00        -0.17172E+08
 
   -0.17088E+08         0.27304E+06         0.00000E+00
    0.27304E+06        -0.19523E+07         0.00000E+00
    0.00000E+00         0.00000E+00        -0.17124E+08
 
   -0.17040E+08         0.27570E+06         0.00000E+00
    0.27570E+06        -0.19525E+07         0.00000E+00
    0.00000E+00         0.00000E+00        -0.17075E+08
 
   -0.16991E+08         0.27829E+06         0.00000E+00
    0.27829E+06        -0.19527E+07         0.00000E+00
    0.00000E+00         0.00000E+00        -0.17026E+08
 
   -0.16942E+08         0.28081E+06         0.00000E+00
    0.28081E+06        -0.19529E+07         0.00000E+00
    0.00000E+00         0.00000E+00        -0.16976E+08
 
   -0.16892E+08         0.28328E+06         0.00000E+00
    0.28328E+06        -0.19531E+07         0.00000E+00
    0.00000E+00         0.00000E+00        -0.16925E+08
 
   -0.16842E+08         0.28569E+06         0.00000E+00
    0.28569E+06        -0.19532E+07         0.00000E+00
    0.00000E+00         0.00000E+00        -0.16875E+08
 
   -0.16792E+08         0.28803E+06         0.00000E+00
    0.28803E+06        -0.19534E+07         0.00000E+00
    0.00000E+00         0.00000E+00        -0.16824E+08
 
   -0.16741E+08         0.29032E+06         0.00000E+00
    0.29032E+06        -0.19536E+07         0.00000E+00
    0.00000E+00         0.00000E+00        -0.16772E+08
 
   -0.16689E+08         0.29255E+06         0.00000E+00
    0.29255E+06        -0.19538E+07         0.00000E+00
    0.00000E+00         0.00000E+00        -0.16720E+08
 
   -0.16638E+08         0.29471E+06         0.00000E+00
    0.29471E+06        -0.19540E+07         0.00000E+00
    0.00000E+00         0.00000E+00        -0.16668E+08
 
   -0.16585E+08         0.29680E+06         0.00000E+00
    0.29680E+06        -0.19542E+07         0.00000E+00
    0.00000E+00         0.00000E+00        -0.16615E+08
 
   -0.16533E+08         0.29883E+06         0.00000E+00
    0.29883E+06        -0.19544E+07         0.00000E+00
    0.00000E+00         0.00000E+00        -0.16562E+08
 
   -0.16480E+08         0.30078E+06         0.00000E+00
    0.30078E+06        -0.19547E+07         0.00000E+00
    0.00000E+00         0.00000E+00        -0.16508E+08
 
   -0.16426E+08         0.30265E+06         0.00000E+00
    0.30265E+06        -0.19549E+07         0.00000E+00
    0.00000E+00         0.00000E+00        -0.16454E+08
 
   -0.16373E+08         0.30445E+06         0.00000E+00
    0.30445E+06        -0.19552E+07         0.00000E+00
    0.00000E+00         0.00000E+00        -0.16399E+08
 
   -0.16319E+08         0.30615E+06         0.00000E+00
    0.30615E+06        -0.19555E+07         0.00000E+00
    0.00000E+00         0.00000E+00        -0.16344E+08
 
   -0.16264E+08         0.30776E+06         0.00000E+00
    0.30776E+06        -0.19558E+07         0.00000E+00
    0.00000E+00         0.00000E+00        -0.16289E+08
 
   -0.16210E+08         0.30926E+06         0.00000E+00
    0.30926E+06        -0.19561E+07         0.00000E+00
    0.00000E+00         0.00000E+00        -0.16233E+08
 
   -0.16155E+08         0.31065E+06         0.00000E+00
    0.31065E+06        -0.19564E+07         0.00000E+00
    0.00000E+00         0.00000E+00        -0.16177E+08
 
   -0.16099E+08         0.31193E+06         0.00000E+00
    0.31193E+06        -0.19568E+07         0.00000E+00
    0.00000E+00         0.00000E+00        -0.16120E+08
 
   -0.16044E+08         0.31307E+06         0.00000E+00
    0.31307E+06        -0.19572E+07         0.00000E+00
    0.00000E+00         0.00000E+00        -0.16063E+08
 
   -0.15988E+08         0.31408E+06         0.00000E+00
    0.31408E+06        -0.19576E+07         0.00000E+00
    0.00000E+00         0.00000E+00        -0.16006E+08
 
   -0.15932E+08         0.31493E+06         0.00000E+00
    0.31493E+06        -0.19581E+07         0.00000E+00
    0.00000E+00         0.00000E+00        -0.15948E+08
 
   -0.15876E+08         0.31562E+06         0.00000E+00
    0.31562E+06        -0.19586E+07         0.00000E+00
    0.00000E+00         0.00000E+00        -0.15890E+08
 
   -0.15819E+08         0.31613E+06         0.00000E+00
    0.31613E+06        -0.19592E+07         0.00000E+00
    0.00000E+00         0.00000E+00        -0.15831E+08
 
   -0.15763E+08         0.31644E+06         0.00000E+00
    0.31644E+06        -0.19598E+07         0.00000E+00
    0.00000E+00         0.00000E+00        -0.15772E+08
 
   -0.15706E+08         0.31654E+06         0.00000E+00
    0.31654E+06        -0.19604E+07         0.00000E+00
    0.00000E+00         0.00000E+00        -0.15713E+08
 
   -0.15649E+08         0.31642E+06         0.00000E+00
    0.31642E+06        -0.19612E+07         0.00000E+00
    0.00000E+00         0.00000E+00        -0.15654E+08
 
   -0.15592E+08         0.31604E+06         0.00000E+00
    0.31604E+06        -0.19619E+07         0.00000E+00
    0.00000E+00         0.00000E+00        -0.15594E+08
 
   -0.15535E+08         0.31539E+06         0.00000E+00
    0.31539E+06        -0.19628E+07         0.00000E+00
    0.00000E+00         0.00000E+00        -0.15534E+08
 
   -0.15478E+08         0.31444E+06         0.00000E+00
    0.31444E+06        -0.19637E+07         0.00000E+00
    0.00000E+00         0.00000E+00        -0.15474E+08
 
   -0.15421E+08         0.31317E+06         0.00000E+00
    0.31317E+06        -0.19647E+07         0.00000E+00
    0.00000E+00         0.00000E+00        -0.15413E+08
 
   -0.15365E+08         0.31154E+06         0.00000E+00
    0.31154E+06        -0.19658E+07         0.00000E+00
    0.00000E+00         0.00000E+00        -0.15353E+08
 
   -0.15308E+08         0.30953E+06         0.00000E+00
    0.30953E+06        -0.19671E+07         0.00000E+00
    0.00000E+00         0.00000E+00        -0.15292E+08
 
   -0.15252E+08         0.30709E+06         0.00000E+00
    0.30709E+06        -0.19684E+07         0.00000E+00
    0.00000E+00         0.00000E+00        -0.15231E+08
 
   -0.15195E+08         0.30419E+06         0.00000E+00
    0.30419E+06        -0.19699E+07         0.00000E+00
    0.00000E+00         0.00000E+00        -0.15170E+08
 
   -0.15140E+08         0.30077E+06         0.00000E+00
    0.30077E+06        -0.19716E+07         0.00000E+00
    0.00000E+00         0.00000E+00        -0.15108E+08
 
   -0.15084E+08         0.29680E+06         0.00000E+00
    0.29680E+06        -0.19735E+07         0.00000E+00
    0.00000E+00         0.00000E+00        -0.15047E+08
 
   -0.15029E+08         0.29221E+06         0.00000E+00
    0.29221E+06        -0.19756E+07         0.00000E+00
    0.00000E+00         0.00000E+00        -0.14986E+08
 
   -0.14975E+08         0.28694E+06         0.00000E+00
    0.28694E+06        -0.19779E+07         0.00000E+00
    0.00000E+00         0.00000E+00        -0.14924E+08
 
   -0.14921E+08         0.28093E+06         0.00000E+00
    0.28093E+06        -0.19805E+07         0.00000E+00
    0.00000E+00         0.00000E+00        -0.14863E+08
 
   -0.14867E+08         0.27410E+06         0.00000E+00
    0.27410E+06        -0.19834E+07         0.00000E+00
    0.00000E+00         0.00000E+00        -0.14802E+08
 
   -0.14815E+08         0.26638E+06         0.00000E+00
    0.26638E+06        -0.19867E+07         0.00000E+00
    0.00000E+00         0.00000E+00        -0.14741E+08
 
   -0.14763E+08         0.25768E+06         0.00000E+00
    0.25768E+06        -0.19904E+07         0.00000E+00
    0.00000E+00         0.00000E+00        -0.14680E+08
 
   -0.14712E+08         0.24791E+06         0.00000E+00
    0.24791E+06        -0.19944E+07         0.00000E+00
    0.00000E+00         0.00000E+00        -0.14619E+08
 
   -0.14662E+08         0.23700E+06         0.00000E+00
    0.23700E+06        -0.19989E+07         0.00000E+00
    0.00000E+00         0.00000E+00        -0.14558E+08
 
   -0.14613E+08         0.22486E+06         0.00000E+00
    0.22486E+06        -0.20038E+07         0.00000E+00
    0.00000E+00         0.00000E+00        -0.14498E+08
 
   -0.14565E+08         0.21141E+06         0.00000E+00
    0.21141E+06        -0.20090E+07         0.00000E+00
    0.00000E+00         0.00000E+00        -0.14438E+08
 
   -0.14517E+08         0.19659E+06         0.00000E+00
    0.19659E+06        -0.20144E+07         0.00000E+00
    0.00000E+00         0.00000E+00        -0.14378E+08
 
   -0.14471E+08         0.18040E+06         0.00000E+00
    0.18040E+06        -0.20200E+07         0.00000E+00
    0.00000E+00         0.00000E+00        -0.14319E+08
 
   -0.14426E+08         0.16284E+06         0.00000E+00
    0.16284E+06        -0.20254E+07         0.00000E+00
    0.00000E+00         0.00000E+00        -0.14259E+08
 
   -0.14382E+08         0.14400E+06         0.00000E+00
    0.14400E+06        -0.20302E+07         0.00000E+00
    0.00000E+00         0.00000E+00        -0.14200E+08
 
   -0.14339E+08         0.12407E+06         0.00000E+00
    0.12407E+06        -0.20339E+07         0.00000E+00
    0.00000E+00         0.00000E+00        -0.14140E+08
 
   -0.14297E+08         0.10339E+06         0.00000E+00
    0.10339E+06        -0.20357E+07         0.00000E+00
    0.00000E+00         0.00000E+00        -0.14080E+08
 
   -0.14257E+08         0.82469E+05         0.00000E+00
    0.82469E+05        -0.20346E+07         0.00000E+00
    0.00000E+00         0.00000E+00        -0.14020E+08
 
   -0.14219E+08         0.62050E+05         0.00000E+00
    0.62050E+05        -0.20292E+07         0.00000E+00
    0.00000E+00         0.00000E+00        -0.13959E+08
 
   -0.14185E+08         0.43142E+05         0.00000E+00
    0.43142E+05        -0.20179E+07         0.00000E+00
    0.00000E+00         0.00000E+00        -0.13897E+08
 
   -0.14154E+08         0.26930E+05         0.00000E+00
    0.26930E+05        -0.19987E+07         0.00000E+00
    0.00000E+00         0.00000E+00        -0.13834E+08
 
   -0.14130E+08         0.14511E+05         0.00000E+00
    0.14511E+05        -0.19694E+07         0.00000E+00
    0.00000E+00         0.00000E+00        -0.13770E+08
 
   -0.14112E+08         0.63448E+04         0.00000E+00
    0.63448E+04        -0.19280E+07         0.00000E+00
    0.00000E+00         0.00000E+00        -0.13704E+08
 
   -0.14103E+08         0.16609E+04         0.00000E+00
    0.16609E+04        -0.18733E+07         0.00000E+00
    0.00000E+00         0.00000E+00        -0.13637E+08
 
   -0.18417E+08         0.12240E+04         0.00000E+00
    0.12240E+04        -0.20055E+07         0.00000E+00
    0.00000E+00         0.00000E+00        -0.18713E+08
 
   -0.18412E+08         0.44980E+04         0.00000E+00
    0.44980E+04        -0.19743E+07         0.00000E+00
    0.00000E+00         0.00000E+00        -0.18674E+08
 
   -0.18402E+08         0.98991E+04         0.00000E+00
    0.98991E+04        -0.19509E+07         0.00000E+00
    0.00000E+00         0.00000E+00        -0.18636E+08
 
   -0.18387E+08         0.17924E+05         0.00000E+00
    0.17924E+05        -0.19345E+07         0.00000E+00
    0.00000E+00         0.00000E+00        -0.18599E+08
 
   -0.18370E+08         0.28317E+05         0.00000E+00
    0.28317E+05        -0.19238E+07         0.00000E+00
    0.00000E+00         0.00000E+00        -0.18562E+08
 
   -0.18349E+08         0.40426E+05         0.00000E+00
    0.40426E+05        -0.19176E+07         0.00000E+00
    0.00000E+00         0.00000E+00        -0.18526E+08
 
   -0.18327E+08         0.53530E+05         0.00000E+00
    0.53530E+05        -0.19146E+07         0.00000E+00
    0.00000E+00         0.00000E+00        -0.18491E+08
 
   -0.18303E+08         0.67018E+05         0.00000E+00
    0.67018E+05        -0.19140E+07         0.00000E+00
    0.00000E+00         0.00000E+00        -0.18455E+08
 
   -0.18278E+08         0.80433E+05         0.00000E+00
    0.80433E+05        -0.19149E+07         0.00000E+00
    0.00000E+00         0.00000E+00        -0.18420E+08
 
   -0.18252E+08         0.93465E+05         0.00000E+00
    0.93465E+05        -0.19169E+07         0.00000E+00
    0.00000E+00         0.00000E+00        -0.18385E+08
 
   -0.18225E+08         0.10592E+06         0.00000E+00
    0.10592E+06        -0.19195E+07         0.00000E+00
    0.00000E+00         0.00000E+00        -0.18349E+08
 
   -0.18197E+08         0.11768E+06         0.00000E+00
    0.11768E+06        -0.19223E+07         0.00000E+00
    0.00000E+00         0.00000E+00        -0.18313E+08
 
   -0.18168E+08         0.12870E+06         0.00000E+00
    0.12870E+06        -0.19253E+07         0.00000E+00
    0.00000E+00         0.00000E+00        -0.18277E+08
 
   -0.18138E+08         0.13896E+06         0.00000E+00
    0.13896E+06        -0.19282E+07         0.00000E+00
    0.00000E+00         0.00000E+00        -0.18240E+08
 
   -0.18107E+08         0.14849E+06         0.00000E+00
    0.14849E+06        -0.19309E+07         0.00000E+00
    0.00000E+00         0.00000E+00        -0.18203E+08
 
   -0.18075E+08         0.15732E+06         0.00000E+00
    0.15732E+06        -0.19335E+07         0.00000E+00
    0.00000E+00         0.00000E+00        -0.18165E+08
 
   -0.18042E+08         0.16550E+06         0.00000E+00
    0.16550E+06        -0.19358E+07         0.00000E+00
    0.00000E+00         0.00000E+00        -0.18127E+08
 
   -0.18009E+08         0.17307E+06         0.00000E+00
    0.17307E+06        -0.19378E+07         0.00000E+00
    0.00000E+00         0.00000E+00        -0.18088E+08
 
   -0.17974E+08         0.18009E+06         0.00000E+00
    0.18009E+06        -0.19397E+07         0.00000E+00
    0.00000E+00         0.00000E+00        -0.18049E+08
 
   -0.17939E+08         0.18661E+06         0.00000E+00
    0.18661E+06        -0.19413E+07         0.00000E+00
    0.00000E+00         0.00000E+00        -0.18010E+08
 
   -0.17902E+08         0.19268E+06         0.00000E+00
    0.19268E+06        -0.19427E+07         0.00000E+00
    0.00000E+00         0.00000E+00        -0.17970E+08
 
   -0.17865E+08         0.19834E+06         0.00000E+00
    0.19834E+06        -0.19440E+07         0.00000E+00
    0.00000E+00         0.00000E+00        -0.17929E+08
 
   -0.17827E+08         0.20364E+06         0.00000E+00
    0.20364E+06        -0.19451E+07         0.00000E+00
    0.00000E+00         0.00000E+00        -0.17888E+08
 
   -0.17789E+08         0.20862E+06         0.00000E+00
    0.20862E+06        -0.19461E+07         0.00000E+00
    0.00000E+00         0.00000E+00        -0.17847E+08
 
   -0.17749E+08         0.21330E+06         0.00000E+00
    0.21330E+06        -0.19470E+07         0.00000E+00
    0.00000E+00         0.00000E+00        -0.17805E+08
 
   -0.17709E+08         0.21773E+06         0.00000E+00
    0.21773E+06        -0.19477E+07         0.00000E+00
    0.00000E+00         0.00000E+00        -0.17762E+08
 
   -0.17669E+08         0.22193E+06         0.00000E+00
    0.22193E+06        -0.19484E+07         0.00000E+00
    0.00000E+00         0.00000E+00        -0.17720E+08
 
   -0.17627E+08         0.22592E+06         0.00000E+00
    0.22592E+06        -0.19490E+07         0.00000E+00
    0.00000E+00         0.00000E+00        -0.17676E+08
 
   -0.17585E+08         0.22972E+06         0.00000E+00
    0.22972E+06        -0.19495E+07         0.00000E+00
    0.00000E+00         0.00000E+00        -0.17633E+08
 
   -0.17543E+08         0.23336E+06         0.00000E+00
    0.23336E+06        -0.19500E+07         0.00000E+00
    0.00000E+00         0.00000E+00        -0.17589E+08
 
   -0.17499E+08         0.23684E+06         0.00000E+00
    0.23684E+06        -0.19504E+07         0.00000E+00
    0.00000E+00         0.00000E+00        -0.17544E+08
 
   -0.17456E+08         0.24020E+06         0.00000E+00
    0.24020E+06        -0.19508E+07         0.00000E+00
    0.00000E+00         0.00000E+00        -0.17499E+08
 
   -0.17411E+08         0.24343E+06         0.00000E+00
    0.24343E+06        -0.19511E+07         0.00000E+00
    0.00000E+00         0.00000E+00        -0.17454E+08
 
   -0.17366E+08         0.24655E+06         0.00000E+00
    0.24655E+06        -0.19514E+07         0.00000E+00
    0.00000E+00         0.00000E+00        -0.17408E+08
 
   -0.17321E+08         0.24957E+06         0.00000E+00
    0.24957E+06        -0.19517E+07         0.00000E+00
    0.00000E+00         0.00000E+00        -0.17361E+08
 
   -0.17275E+08         0.25250E+06         0.00000E+00
    0.25250E+06        -0.19520E+07         0.00000E+00
    0.00000E+00         0.00000E+00        -0.17315E+08
 
   -0.17229E+08         0.25534E+06         0.00000E+00
    0.25534E+06        -0.19522E+07         0.00000E+00
    0.00000E+00         0.00000E+00        -0.17267E+08
 
   -0.17182E+08         0.25811E+06         0.00000E+00
    0.25811E+06        -0.19524E+07         0.00000E+00
    0.00000E+00         0.00000E+00        -0.17220E+08
 
   -0.17134E+08         0.26080E+06         0.00000E+00
    0.26080E+06        -0.19526E+07         0.00000E+00
    0.00000E+00         0.00000E+00        -0.17172E+08
 
   -0.17087E+08         0.26343E+06         0.00000E+00
    0.26343E+06        -0.19528E+07         0.00000E+00
    0.00000E+00         0.00000E+00        -0.17123E+08
 
   -0.17038E+08         0.26599E+06         0.00000E+00
    0.26599E+06        -0.19530E+07         0.00000E+00
    0.00000E+00         0.00000E+00        -0.17074E+08
 
   -0.16990E+08         0.26848E+06         0.00000E+00
    0.26848E+06        -0.19532E+07         0.00000E+00
    0.00000E+00         0.00000E+00        -0.17025E+08
 
   -0.16940E+08         0.27092E+06         0.00000E+00
    0.27092E+06        -0.19534E+07         0.00000E+00
    0.00000E+00         0.00000E+00        -0.16975E+08
 
   -0.16891E+08         0.27330E+06         0.00000E+00
    0.27330E+06        -0.19535E+07         0.00000E+00
    0.00000E+00         0.00000E+00        -0.16925E+08
 
   -0.16841E+08         0.27562E+06         0.00000E+00
    0.27562E+06        -0.19537E+07         0.00000E+00
    0.00000E+00         0.00000E+00        -0.16874E+08
 
   -0.16790E+08         0.27788E+06         0.00000E+00
    0.27788E+06        -0.19539E+07         0.00000E+00
    0.00000E+00         0.00000E+00        -0.16823E+08
 
   -0.16739E+08         0.28009E+06         0.00000E+00
    0.28009E+06        -0.19541E+07         0.00000E+00
    0.00000E+00         0.00000E+00        -0.16772E+08
 
   -0.16688E+08         0.28223E+06         0.00000E+00
    0.28223E+06        -0.19542E+07         0.00000E+00
    0.00000E+00         0.00000E+00        -0.16720E+08
 
   -0.16636E+08         0.28431E+06         0.00000E+00
    0.28431E+06        -0.19544E+07         0.00000E+00
    0.00000E+00         0.00000E+00        -0.16667E+08
 
   -0.16584E+08         0.28633E+06         0.00000E+00
    0.28633E+06        -0.19546E+07         0.00000E+00
    0.00000E+00         0.00000E+00        -0.16615E+08
 
   -0.16531E+08         0.28828E+06         0.00000E+00
    0.28828E+06        -0.19548E+07         0.00000E+00
    0.00000E+00         0.00000E+00        -0.16561E+08
 
   -0.16478E+08         0.29015E+06         0.00000E+00
    0.29015E+06        -0.19550E+07         0.00000E+00
    0.00000E+00         0.00000E+00        -0.16508E+08
 
   -0.16425E+08         0.29196E+06         0.00000E+00
    0.29196E+06        -0.19553E+07         0.00000E+00
    0.00000E+00         0.00000E+00        -0.16453E+08
 
   -0.16371E+08         0.29368E+06         0.00000E+00
    0.29368E+06        -0.19555E+07         0.00000E+00
    0.00000E+00         0.00000E+00        -0.16399E+08
 
   -0.16317E+08         0.29531E+06         0.00000E+00
    0.29531E+06        -0.19558E+07         0.00000E+00
    0.00000E+00         0.00000E+00        -0.16344E+08
 
   -0.16263E+08         0.29685E+06         0.00000E+00
    0.29685E+06        -0.19561E+07         0.00000E+00
    0.00000E+00         0.00000E+00        -0.16288E+08
 
   -0.16208E+08         0.29829E+06         0.00000E+00
    0.29829E+06        -0.19564E+07         0.00000E+00
    0.00000E+00         0.00000E+00        -0.16233E+08
 
   -0.16153E+08         0.29963E+06         0.00000E+00
    0.29963E+06        -0.19567E+07         0.00000E+00
    0.00000E+00         0.00000E+00        -0.16176E+08
 
   -0.16098E+08         0.30085E+06         0.00000E+00
    0.30085E+06        -0.19570E+07         0.00000E+00
    0.00000E+00         0.00000E+00        -0.16120E+08
 
   -0.16043E+08         0.30194E+06         0.00000E+00
    0.30194E+06        -0.19574E+07         0.00000E+00
    0.00000E+00         0.00000E+00        -0.16063E+08
 
   -0.15987E+08         0.30290E+06         0.00000E+00
    0.30290E+06        -0.19578E+07         0.00000E+00
    0.00000E+00         0.00000E+00        -0.16005E+08
 
   -0.15931E+08         0.30370E+06         0.00000E+00
    0.30370E+06        -0.19583E+07         0.00000E+00
    0.00000E+00         0.00000E+00        -0.15948E+08
 
   -0.15875E+08         0.30435E+06         0.00000E+00
    0.30435E+06        -0.19587E+07         0.00000E+00
    0.00000E+00         0.00000E+00        -0.15890E+08
 
   -0.15818E+08         0.30483E+06         0.00000E+00
    0.30483E+06        -0.19593E+07         0.00000E+00
    0.00000E+00         0.00000E+00        -0.15831E+08
 
   -0.15762E+08         0.30511E+06         0.00000E+00
    0.30511E+06        -0.19598E+07         0.00000E+00
    0.00000E+00         0.00000E+00        -0.15772E+08
 
   -0.15705E+08         0.30519E+06         0.00000E+00
    0.30519E+06        -0.19604E+07         0.00000E+00
    0.00000E+00         0.00000E+00        -0.15713E+08
 
   -0.15649E+08         0.30505E+06         0.00000E+00
    0.30505E+06        -0.19611E+07         0.00000E+00
    0.00000E+00         0.00000E+00        -0.15654E+08
 
   -0.15592E+08         0.30466E+06         0.00000E+00
    0.30466E+06        -0.19618E+07         0.00000E+00
    0.00000E+00         0.00000E+00        -0.15594E+08
 
   -0.15535E+08         0.30401E+06         0.00000E+00
    0.30401E+06        -0.19626E+07         0.00000E+00
    0.00000E+00         0.00000E+00        -0.15534E+08
 
   -0.15478E+08         0.30307E+06         0.00000E+00
    0.30307E+06        -0.19635E+07         0.00000E+00
    0.00000E+00         0.00000E+00        -0.15474E+08
 
   -0.15421E+08         0.30182E+06         0.00000E+00
    0.30182E+06        -0.19644E+07         0.00000E+00
    0.00000E+00         0.00000E+00        -0.15413E+08
 
   -0.15365E+08         0.30022E+06         0.00000E+00
    0.30022E+06        -0.19655E+07         0.00000E+00
    0.00000E+00         0.00000E+00        -0.15353E+08
 
   -0.15308E+08         0.29824E+06         0.00000E+00
    0.29824E+06        -0.19666E+07         0.00000E+00
    0.00000E+00         0.00000E+00        -0.15292E+08
 
   -0.15252E+08         0.29585E+06         0.00000E+00
    0.29585E+06        -0.19679E+07         0.00000E+00
    0.00000E+00         0.00000E+00        -0.15231E+08
 
   -0.15196E+08         0.29301E+06         0.00000E+00
    0.29301E+06        -0.19693E+07         0.00000E+00
    0.00000E+00         0.00000E+00        -0.15170E+08
 
   -0.15141E+08         0.28967E+06         0.00000E+00
    0.28967E+06        -0.19709E+07         0.00000E+00
    0.00000E+00         0.00000E+00        -0.15108E+08
 
   -0.15086E+08         0.28578E+06         0.00000E+00
    0.28578E+06        -0.19726E+07         0.00000E+00
    0.00000E+00         0.00000E+00        -0.15047E+08
 
   -0.15031E+08         0.28129E+06         0.00000E+00
    0.28129E+06        -0.19746E+07         0.00000E+00
    0.00000E+00         0.00000E+00        -0.14986E+08
 
   -0.14977E+08         0.27614E+06         0.00000E+00
    0.27614E+06        -0.19768E+07         0.00000E+00
    0.00000E+00         0.00000E+00        -0.14925E+08
 
   -0.14923E+08         0.27025E+06         0.00000E+00
    0.27025E+06        -0.19792E+07         0.00000E+00
    0.00000E+00         0.00000E+00        -0.14863E+08
 
   -0.14870E+08         0.26356E+06         0.00000E+00
    0.26356E+06        -0.19820E+07         0.00000E+00
    0.00000E+00         0.00000E+00        -0.14802E+08
 
   -0.14818E+08         0.25599E+06         0.00000E+00
    0.25599E+06        -0.19851E+07         0.00000E+00
    0.00000E+00         0.00000E+00        -0.14741E+08
 
   -0.14767E+08         0.24746E+06         0.00000E+00
    0.24746E+06        -0.19885E+07         0.00000E+00
    0.00000E+00         0.00000E+00        -0.14680E+08
 
   -0.14717E+08         0.23787E+06         0.00000E+00
    0.23787E+06        -0.19924E+07         0.00000E+00
    0.00000E+00         0.00000E+00        -0.14620E+08
 
   -0.14667E+08         0.22714E+06         0.00000E+00
    0.22714E+06        -0.19966E+07         0.00000E+00
    0.00000E+00         0.00000E+00        -0.14559E+08
 
   -0.14619E+08         0.21519E+06         0.00000E+00
    0.21519E+06        -0.20012E+07         0.00000E+00
    0.00000E+00         0.00000E+00        -0.14499E+08
 
   -0.14571E+08         0.20193E+06         0.00000E+00
    0.20193E+06        -0.20062E+07         0.00000E+00
    0.00000E+00         0.00000E+00        -0.14439E+08
 
   -0.14525E+08         0.18732E+06         0.00000E+00
    0.18732E+06        -0.20113E+07         0.00000E+00
    0.00000E+00         0.00000E+00        -0.14379E+08
 
   -0.14479E+08         0.17134E+06         0.00000E+00
    0.17134E+06        -0.20166E+07         0.00000E+00
    0.00000E+00         0.00000E+00        -0.14320E+08
 
   -0.14435E+08         0.15399E+06         0.00000E+00
    0.15399E+06        -0.20217E+07         0.00000E+00
    0.00000E+00         0.00000E+00        -0.14261E+08
 
   -0.14392E+08         0.13539E+06         0.00000E+00
    0.13539E+06        -0.20263E+07         0.00000E+00
    0.00000E+00         0.00000E+00        -0.14201E+08
 
   -0.14350E+08         0.11572E+06         0.00000E+00
    0.11572E+06        -0.20298E+07         0.00000E+00
    0.00000E+00         0.00000E+00        -0.14142E+08
 
   -0.14310E+08         0.95348E+05         0.00000E+00
    0.95348E+05        -0.20315E+07         0.00000E+00
    0.00000E+00         0.00000E+00        -0.14083E+08
 
   -0.14271E+08         0.74811E+05         0.00000E+00
    0.74811E+05        -0.20305E+07         0.00000E+00
    0.00000E+00         0.00000E+00        -0.14023E+08
 
   -0.14235E+08         0.54907E+05         0.00000E+00
    0.54907E+05        -0.20253E+07         0.00000E+00
    0.00000E+00         0.00000E+00        -0.13963E+08
 
   -0.14202E+08         0.36704E+05         0.00000E+00
    0.36704E+05        -0.20145E+07         0.00000E+00
    0.00000E+00         0.00000E+00        -0.13901E+08
 
   -0.14173E+08         0.21457E+05         0.00000E+00
    0.21457E+05        -0.19959E+07         0.00000E+00
    0.00000E+00         0.00000E+00        -0.13839E+08
 
   -0.14149E+08         0.10301E+05         0.00000E+00
    0.10301E+05        -0.19674E+07         0.00000E+00
    0.00000E+00         0.00000E+00        -0.13775E+08
 
   -0.14132E+08         0.36842E+04         0.00000E+00
    0.36842E+04        -0.19270E+07         0.00000E+00
    0.00000E+00         0.00000E+00        -0.13710E+08
 
   -0.14123E+08         0.75005E+03         0.00000E+00
    0.75005E+03        -0.18728E+07         0.00000E+00
    0.00000E+00         0.00000E+00        -0.13643E+08
 
   -0.18405E+08         0.68882E+03         0.00000E+00
    0.68882E+03        -0.20059E+07         0.00000E+00
    0.00000E+00         0.00000E+00        -0.18709E+08
 
   -0.18400E+08         0.29393E+04         0.00000E+00
    0.29393E+04        -0.19750E+07         0.00000E+00
    0.00000E+00         0.00000E+00        -0.18670E+08
 
   -0.18390E+08         0.74416E+04         0.00000E+00
    0.74416E+04        -0.19522E+07         0.00000E+00
    0.00000E+00         0.00000E+00        -0.18633E+08
 
   -0.18376E+08         0.14732E+05         0.00000E+00
    0.14732E+05        -0.19363E+07         0.00000E+00
    0.00000E+00         0.00000E+00        -0.18596E+08
 
   -0.18359E+08         0.24556E+05         0.00000E+00
    0.24556E+05        -0.19260E+07         0.00000E+00
    0.00000E+00         0.00000E+00        -0.18560E+08
 
   -0.18339E+08         0.36228E+05         0.00000E+00
    0.36228E+05        -0.19201E+07         0.00000E+00
    0.00000E+00         0.00000E+00        -0.18524E+08
 
   -0.18318E+08         0.48992E+05         0.00000E+00
    0.48992E+05        -0.19172E+07         0.00000E+00
    0.00000E+00         0.00000E+00        -0.18489E+08
 
   -0.18295E+08         0.62203E+05         0.00000E+00
    0.62203E+05        -0.19166E+07         0.00000E+00
    0.00000E+00         0.00000E+00        -0.18454E+08
 
   -0.18271E+08         0.75380E+05         0.00000E+00
    0.75380E+05        -0.19176E+07         0.00000E+00
    0.00000E+00         0.00000E+00        -0.18419E+08
 
   -0.18245E+08         0.88196E+05         0.00000E+00
    0.88196E+05        -0.19194E+07         0.00000E+00
    0.00000E+00         0.00000E+00        -0.18383E+08
 
   -0.18219E+08         0.10044E+06         0.00000E+00
    0.10044E+06        -0.19219E+07         0.00000E+00
    0.00000E+00         0.00000E+00        -0.18348E+08
 
   -0.18191E+08         0.11201E+06         0.00000E+00
    0.11201E+06        -0.19246E+07         0.00000E+00
    0.00000E+00         0.00000E+00        -0.18312E+08
 
   -0.18162E+08         0.12283E+06         0.00000E+00
    0.12283E+06        -0.19274E+07         0.00000E+00
    0.00000E+00         0.00000E+00        -0.18276E+08
 
   -0.18133E+08         0.13290E+06         0.00000E+00
    0.13290E+06        -0.19301E+07         0.00000E+00
    0.00000E+00         0.00000E+00        -0.18239E+08
 
   -0.18102E+08         0.14224E+06         0.00000E+00
    0.14224E+06        -0.19327E+07         0.00000E+00
    0.00000E+00         0.00000E+00        -0.18202E+08
 
   -0.18071E+08         0.15088E+06         0.00000E+00
    0.15088E+06        -0.19351E+07         0.00000E+00
    0.00000E+00         0.00000E+00        -0.18164E+08
 
   -0.18038E+08         0.15887E+06         0.00000E+00
    0.15887E+06        -0.19373E+07         0.00000E+00
    0.00000E+00         0.00000E+00        -0.18126E+08
 
   -0.18005E+08         0.16626E+06         0.00000E+00
    0.16626E+06        -0.19393E+07         0.00000E+00
    0.00000E+00         0.00000E+00        -0.18088E+08
 
   -0.17971E+08         0.17311E+06         0.00000E+00
    0.17311E+06        -0.19410E+07         0.00000E+00
    0.00000E+00         0.00000E+00        -0.18049E+08
 
   -0.17935E+08         0.17946E+06         0.00000E+00
    0.17946E+06        -0.19425E+07         0.00000E+00
    0.00000E+00         0.00000E+00        -0.18009E+08
 
   -0.17899E+08         0.18536E+06         0.00000E+00
    0.18536E+06        -0.19439E+07         0.00000E+00
    0.00000E+00         0.00000E+00        -0.17969E+08
 
   -0.17862E+08         0.19086E+06         0.00000E+00
    0.19086E+06        -0.19451E+07         0.00000E+00
    0.00000E+00         0.00000E+00        -0.17929E+08
 
   -0.17825E+08         0.19600E+06         0.00000E+00
    0.19600E+06        -0.19461E+07         0.00000E+00
    0.00000E+00         0.00000E+00        -0.17888E+08
 
   -0.17786E+08         0.20083E+06         0.00000E+00
    0.20083E+06        -0.19470E+07         0.00000E+00
    0.00000E+00         0.00000E+00        -0.17846E+08
 
   -0.17747E+08         0.20537E+06         0.00000E+00
    0.20537E+06        -0.19478E+07         0.00000E+00
    0.00000E+00         0.00000E+00        -0.17804E+08
 
   -0.17707E+08         0.20966E+06         0.00000E+00
    0.20966E+06        -0.19486E+07         0.00000E+00
    0.00000E+00         0.00000E+00        -0.17762E+08
 
   -0.17666E+08         0.21372E+06         0.00000E+00
    0.21372E+06        -0.19492E+07         0.00000E+00
    0.00000E+00         0.00000E+00        -0.17719E+08
 
   -0.17625E+08         0.21758E+06         0.00000E+00
    0.21758E+06        -0.19497E+07         0.00000E+00
    0.00000E+00         0.00000E+00        -0.17676E+08
 
   -0.17583E+08         0.22126E+06         0.00000E+00
    0.22126E+06        -0.19502E+07         0.00000E+00
    0.00000E+00         0.00000E+00        -0.17632E+08
 
   -0.17540E+08         0.22478E+06         0.00000E+00
    0.22478E+06        -0.19507E+07         0.00000E+00
    0.00000E+00         0.00000E+00        -0.17588E+08
 
   -0.17497E+08         0.22815E+06         0.00000E+00
    0.22815E+06        -0.19511E+07         0.00000E+00
    0.00000E+00         0.00000E+00        -0.17544E+08
 
   -0.17454E+08         0.23139E+06         0.00000E+00
    0.23139E+06        -0.19514E+07         0.00000E+00
    0.00000E+00         0.00000E+00        -0.17499E+08
 
   -0.17409E+08         0.23451E+06         0.00000E+00
    0.23451E+06        -0.19517E+07         0.00000E+00
    0.00000E+00         0.00000E+00        -0.17453E+08
 
   -0.17364E+08         0.23753E+06         0.00000E+00
    0.23753E+06        -0.19520E+07         0.00000E+00
    0.00000E+00         0.00000E+00        -0.17407E+08
 
   -0.17319E+08         0.24044E+06         0.00000E+00
    0.24044E+06        -0.19523E+07         0.00000E+00
    0.00000E+00         0.00000E+00        -0.17361E+08
 
   -0.17273E+08         0.24327E+06         0.00000E+00
    0.24327E+06        -0.19525E+07         0.00000E+00
    0.00000E+00         0.00000E+00        -0.17314E+08
 
   -0.17227E+08         0.24601E+06         0.00000E+00
    0.24601E+06        -0.19527E+07         0.00000E+00
    0.00000E+00         0.00000E+00        -0.17267E+08
 
   -0.17180E+08         0.24868E+06         0.00000E+00
    0.24868E+06        -0.19530E+07         0.00000E+00
    0.00000E+00         0.00000E+00        -0.17220E+08
 
   -0.17133E+08         0.25128E+06         0.00000E+00
    0.25128E+06        -0.19531E+07         0.00000E+00
    0.00000E+00         0.00000E+00        -0.17171E+08
 
   -0.17085E+08         0.25381E+06         0.00000E+00
    0.25381E+06        -0.19533E+07         0.00000E+00
    0.00000E+00         0.00000E+00        -0.17123E+08
 
   -0.17037E+08         0.25628E+06         0.00000E+00
    0.25628E+06        -0.19535E+07         0.00000E+00
    0.00000E+00         0.00000E+00        -0.17074E+08
 
   -0.16988E+08         0.25869E+06         0.00000E+00
    0.25869E+06        -0.19537E+07         0.00000E+00
    0.00000E+00         0.00000E+00        -0.17025E+08
 
   -0.16939E+08         0.26103E+06         0.00000E+00
    0.26103E+06        -0.19538E+07         0.00000E+00
    0.00000E+00         0.00000E+00        -0.16975E+08
 
   -0.16889E+08         0.26333E+06         0.00000E+00
    0.26333E+06        -0.19540E+07         0.00000E+00
    0.00000E+00         0.00000E+00        -0.16925E+08
 
   -0.16839E+08         0.26556E+06         0.00000E+00
    0.26556E+06        -0.19542E+07         0.00000E+00
    0.00000E+00         0.00000E+00        -0.16874E+08
 
   -0.16788E+08         0.26774E+06         0.00000E+00
    0.26774E+06        -0.19543E+07         0.00000E+00
    0.00000E+00         0.00000E+00        -0.16823E+08
 
   -0.16737E+08         0.26986E+06         0.00000E+00
    0.26986E+06        -0.19545E+07         0.00000E+00
    0.00000E+00         0.00000E+00        -0.16771E+08
 
   -0.16686E+08         0.27192E+06         0.00000E+00
    0.27192E+06        -0.19547E+07         0.00000E+00
    0.00000E+00         0.00000E+00        -0.16719E+08
 
   -0.16634E+08         0.27392E+06         0.00000E+00
    0.27392E+06        -0.19548E+07         0.00000E+00
    0.00000E+00         0.00000E+00        -0.16667E+08
 
   -0.16582E+08         0.27586E+06         0.00000E+00
    0.27586E+06        -0.19550E+07         0.00000E+00
    0.00000E+00         0.00000E+00        -0.16614E+08
 
   -0.16530E+08         0.27773E+06         0.00000E+00
    0.27773E+06        -0.19552E+07         0.00000E+00
    0.00000E+00         0.00000E+00        -0.16561E+08
 
   -0.16477E+08         0.27954E+06         0.00000E+00
    0.27954E+06        -0.19554E+07         0.00000E+00
    0.00000E+00         0.00000E+00        -0.16507E+08
 
   -0.16424E+08         0.28126E+06         0.00000E+00
    0.28126E+06        -0.19556E+07         0.00000E+00
    0.00000E+00         0.00000E+00        -0.16453E+08
 
   -0.16370E+08         0.28292E+06         0.00000E+00
    0.28292E+06        -0.19558E+07         0.00000E+00
    0.00000E+00         0.00000E+00        -0.16398E+08
 
   -0.16316E+08         0.28448E+06         0.00000E+00
    0.28448E+06        -0.19561E+07         0.00000E+00
    0.00000E+00         0.00000E+00        -0.16344E+08
 
   -0.16262E+08         0.28596E+06         0.00000E+00
    0.28596E+06        -0.19563E+07         0.00000E+00
    0.00000E+00         0.00000E+00        -0.16288E+08
 
   -0.16207E+08         0.28734E+06         0.00000E+00
    0.28734E+06        -0.19566E+07         0.00000E+00
    0.00000E+00         0.00000E+00        -0.16232E+08
 
   -0.16152E+08         0.28862E+06         0.00000E+00
    0.28862E+06        -0.19569E+07         0.00000E+00
    0.00000E+00         0.00000E+00        -0.16176E+08
 
   -0.16097E+08         0.28978E+06         0.00000E+00
    0.28978E+06        -0.19573E+07         0.00000E+00
    0.00000E+00         0.00000E+00        -0.16119E+08
 
   -0.16042E+08         0.29082E+06         0.00000E+00
    0.29082E+06        -0.19576E+07         0.00000E+00
    0.00000E+00         0.00000E+00        -0.16063E+08
 
   -0.15986E+08         0.29173E+06         0.00000E+00
    0.29173E+06        -0.19580E+07         0.00000E+00
    0.00000E+00         0.00000E+00        -0.16005E+08
 
   -0.15930E+08         0.29249E+06         0.00000E+00
    0.29249E+06        -0.19584E+07         0.00000E+00
    0.00000E+00         0.00000E+00        -0.15947E+08
 
   -0.15874E+08         0.29311E+06         0.00000E+00
    0.29311E+06        -0.19588E+07         0.00000E+00
    0.00000E+00         0.00000E+00        -0.15889E+08
 
   -0.15818E+08         0.29355E+06         0.00000E+00
    0.29355E+06        -0.19593E+07         0.00000E+00
    0.00000E+00         0.00000E+00        -0.15831E+08
 
   -0.15761E+08         0.29381E+06         0.00000E+00
    0.29381E+06        -0.19599E+07         0.00000E+00
    0.00000E+00         0.00000E+00        -0.15772E+08
 
   -0.15705E+08         0.29387E+06         0.00000E+00
    0.29387E+06        -0.19604E+07         0.00000E+00
    0.00000E+00         0.00000E+00        -0.15713E+08
 
   -0.15648E+08         0.29371E+06         0.00000E+00
    0.29371E+06        -0.19610E+07         0.00000E+00
    0.00000E+00         0.00000E+00        -0.15654E+08
 
   -0.15591E+08         0.29332E+06         0.00000E+00
    0.29332E+06        -0.19617E+07         0.00000E+00
    0.00000E+00         0.00000E+00        -0.15594E+08
 
   -0.15535E+08         0.29267E+06         0.00000E+00
    0.29267E+06        -0.19625E+07         0.00000E+00
    0.00000E+00         0.00000E+00        -0.15534E+08
 
   -0.15478E+08         0.29174E+06         0.00000E+00
    0.29174E+06        -0.19633E+07         0.00000E+00
    0.00000E+00         0.00000E+00        -0.15474E+08
 
   -0.15422E+08         0.29050E+06         0.00000E+00
    0.29050E+06        -0.19642E+07         0.00000E+00
    0.00000E+00         0.00000E+00        -0.15413E+08
 
   -0.15365E+08         0.28894E+06         0.00000E+00
    0.28894E+06        -0.19651E+07         0.00000E+00
    0.00000E+00         0.00000E+00        -0.15353E+08
 
   -0.15309E+08         0.28700E+06         0.00000E+00
    0.28700E+06        -0.19662E+07         0.00000E+00
    0.00000E+00         0.00000E+00        -0.15292E+08
 
   -0.15253E+08         0.28466E+06         0.00000E+00
    0.28466E+06        -0.19674E+07         0.00000E+00
    0.00000E+00         0.00000E+00        -0.15231E+08
 
   -0.15197E+08         0.28188E+06         0.00000E+00
    0.28188E+06        -0.19687E+07         0.00000E+00
    0.00000E+00         0.00000E+00        -0.15170E+08
 
   -0.15142E+08         0.27862E+06         0.00000E+00
    0.27862E+06        -0.19702E+07         0.00000E+00
    0.00000E+00         0.00000E+00        -0.15109E+08
 
   -0.15087E+08         0.27482E+06         0.00000E+00
    0.27482E+06        -0.19718E+07         0.00000E+00
    0.00000E+00         0.00000E+00        -0.15047E+08
 
   -0.15033E+08         0.27044E+06         0.00000E+00
    0.27044E+06        -0.19736E+07         0.00000E+00
    0.00000E+00         0.00000E+00        -0.14986E+08
 
   -0.14979E+08         0.26540E+06         0.00000E+00
    0.26540E+06        -0.19757E+07         0.00000E+00
    0.00000E+00         0.00000E+00        -0.14925E+08
 
   -0.14926E+08         0.25965E+06         0.00000E+00
    0.25965E+06        -0.19780E+07         0.00000E+00
    0.00000E+00         0.00000E+00        -0.14864E+08
 
   -0.14873E+08         0.25311E+06         0.00000E+00
    0.25311E+06        -0.19806E+07         0.00000E+00
    0.00000E+00         0.00000E+00        -0.14803E+08
 
   -0.14822E+08         0.24570E+06         0.00000E+00
    0.24570E+06        -0.19835E+07         0.00000E+00
    0.00000E+00         0.00000E+00        -0.14742E+08
 
   -0.14771E+08         0.23734E+06         0.00000E+00
    0.23734E+06        -0.19868E+07         0.00000E+00
    0.00000E+00         0.00000E+00        -0.14681E+08
 
   -0.14721E+08         0.22794E+06         0.00000E+00
    0.22794E+06        -0.19904E+07         0.00000E+00
    0.00000E+00         0.00000E+00        -0.14620E+08
 
   -0.14672E+08         0.21740E+06         0.00000E+00
    0.21740E+06        -0.19944E+07         0.00000E+00
    0.00000E+00         0.00000E+00        -0.14560E+08
 
   -0.14624E+08         0.20566E+06         0.00000E+00
    0.20566E+06        -0.19987E+07         0.00000E+00
    0.00000E+00         0.00000E+00        -0.14500E+08
 
   -0.14577E+08         0.19262E+06         0.00000E+00
    0.19262E+06        -0.20034E+07         0.00000E+00
    0.00000E+00         0.00000E+00        -0.14440E+08
 
   -0.14532E+08         0.17823E+06         0.00000E+00
    0.17823E+06        -0.20083E+07         0.00000E+00
    0.00000E+00         0.00000E+00        -0.14381E+08
 
   -0.14488E+08         0.16248E+06         0.00000E+00
    0.16248E+06        -0.20133E+07         0.00000E+00
    0.00000E+00         0.00000E+00        -0.14321E+08
 
   -0.14444E+08         0.14537E+06         0.00000E+00
    0.14537E+06        -0.20182E+07         0.00000E+00
    0.00000E+00         0.00000E+00        -0.14262E+08
 
   -0.14402E+08         0.12702E+06         0.00000E+00
    0.12702E+06        -0.20225E+07         0.00000E+00
    0.00000E+00         0.00000E+00        -0.14203E+08
 
   -0.14362E+08         0.10763E+06         0.00000E+00
    0.10763E+06        -0.20258E+07         0.00000E+00
    0.00000E+00         0.00000E+00        -0.14145E+08
 
   -0.14323E+08         0.87583E+05         0.00000E+00
    0.87583E+05        -0.20274E+07         0.00000E+00
    0.00000E+00         0.00000E+00        -0.14085E+08
 
   -0.14286E+08         0.67440E+05         0.00000E+00
    0.67440E+05        -0.20264E+07         0.00000E+00
    0.00000E+00         0.00000E+00        -0.14026E+08
 
   -0.14251E+08         0.48043E+05         0.00000E+00
    0.48043E+05        -0.20215E+07         0.00000E+00
    0.00000E+00         0.00000E+00        -0.13966E+08
 
   -0.14219E+08         0.30517E+05         0.00000E+00
    0.30517E+05        -0.20111E+07         0.00000E+00
    0.00000E+00         0.00000E+00        -0.13905E+08
 
   -0.14191E+08         0.16181E+05         0.00000E+00
    0.16181E+05        -0.19933E+07         0.00000E+00
    0.00000E+00         0.00000E+00        -0.13844E+08
 
   -0.14168E+08         0.62233E+04         0.00000E+00
    0.62233E+04        -0.19658E+07         0.00000E+00
    0.00000E+00         0.00000E+00        -0.13780E+08
 
   -0.14151E+08         0.10906E+04         0.00000E+00
    0.10906E+04        -0.19263E+07         0.00000E+00
    0.00000E+00         0.00000E+00        -0.13715E+08
 
   -0.14143E+08        -0.14159E+03         0.00000E+00
   -0.14159E+03        -0.18726E+07         0.00000E+00
    0.00000E+00         0.00000E+00        -0.13648E+08
 
   -0.18393E+08         0.16287E+03         0.00000E+00
    0.16287E+03        -0.20061E+07         0.00000E+00
    0.00000E+00         0.00000E+00        -0.18705E+08
 
   -0.18388E+08         0.14143E+04         0.00000E+00
    0.14143E+04        -0.19755E+07         0.00000E+00
    0.00000E+00         0.00000E+00        -0.18667E+08
 
   -0.18378E+08         0.50534E+04         0.00000E+00
    0.50534E+04        -0.19532E+07         0.00000E+00
    0.00000E+00         0.00000E+00        -0.18629E+08
 
   -0.18365E+08         0.11649E+05         0.00000E+00
    0.11649E+05        -0.19380E+07         0.00000E+00
    0.00000E+00         0.00000E+00        -0.18593E+08
 
   -0.18348E+08         0.20933E+05         0.00000E+00
    0.20933E+05        -0.19282E+07         0.00000E+00
    0.00000E+00         0.00000E+00        -0.18557E+08
 
   -0.18329E+08         0.32187E+05         0.00000E+00
    0.32187E+05        -0.19225E+07         0.00000E+00
    0.00000E+00         0.00000E+00        -0.18522E+08
 
   -0.18309E+08         0.44615E+05         0.00000E+00
    0.44615E+05        -0.19198E+07         0.00000E+00
    0.00000E+00         0.00000E+00        -0.18487E+08
 
   -0.18286E+08         0.57544E+05         0.00000E+00
    0.57544E+05        -0.19193E+07         0.00000E+00
    0.00000E+00         0.00000E+00        -0.18452E+08
 
   -0.18263E+08         0.70473E+05         0.00000E+00
    0.70473E+05        -0.19201E+07         0.00000E+00
    0.00000E+00         0.00000E+00        -0.18417E+08
 
   -0.18238E+08         0.83061E+05         0.00000E+00
    0.83061E+05        -0.19219E+07         0.00000E+00
    0.00000E+00         0.00000E+00        -0.18382E+08
 
   -0.18212E+08         0.95092E+05         0.00000E+00
    0.95092E+05        -0.19242E+07         0.00000E+00
    0.00000E+00         0.00000E+00        -0.18347E+08
 
   -0.18185E+08         0.10644E+06         0.00000E+00
    0.10644E+06        -0.19268E+07         0.00000E+00
    0.00000E+00         0.00000E+00        -0.18311E+08
 
   -0.18157E+08         0.11706E+06         0.00000E+00
    0.11706E+06        -0.19295E+07         0.00000E+00
    0.00000E+00         0.00000E+00        -0.18275E+08
 
   -0.18128E+08         0.12693E+06         0.00000E+00
    0.12693E+06        -0.19321E+07         0.00000E+00
    0.00000E+00         0.00000E+00        -0.18238E+08
 
   -0.18098E+08         0.13607E+06         0.00000E+00
    0.13607E+06        -0.19345E+07         0.00000E+00
    0.00000E+00         0.00000E+00        -0.18201E+08
 
   -0.18067E+08         0.14451E+06         0.00000E+00
    0.14451E+06        -0.19368E+07         0.00000E+00
    0.00000E+00         0.00000E+00        -0.18164E+08
 
   -0.18035E+08         0.15231E+06         0.00000E+00
    0.15231E+06        -0.19388E+07         0.00000E+00
    0.00000E+00         0.00000E+00        -0.18126E+08
 
   -0.18001E+08         0.15951E+06         0.00000E+00
    0.15951E+06        -0.19407E+07         0.00000E+00
    0.00000E+00         0.00000E+00        -0.18087E+08
 
   -0.17967E+08         0.16617E+06         0.00000E+00
    0.16617E+06        -0.19423E+07         0.00000E+00
    0.00000E+00         0.00000E+00        -0.18048E+08
 
   -0.17932E+08         0.17234E+06         0.00000E+00
    0.17234E+06        -0.19438E+07         0.00000E+00
    0.00000E+00         0.00000E+00        -0.18009E+08
 
   -0.17896E+08         0.17807E+06         0.00000E+00
    0.17807E+06        -0.19450E+07         0.00000E+00
    0.00000E+00         0.00000E+00        -0.17969E+08
 
   -0.17859E+08         0.18341E+06         0.00000E+00
    0.18341E+06        -0.19461E+07         0.00000E+00
    0.00000E+00         0.00000E+00        -0.17928E+08
 
   -0.17822E+08         0.18839E+06         0.00000E+00
    0.18839E+06        -0.19471E+07         0.00000E+00
    0.00000E+00         0.00000E+00        -0.17887E+08
 
   -0.17783E+08         0.19307E+06         0.00000E+00
    0.19307E+06        -0.19480E+07         0.00000E+00
    0.00000E+00         0.00000E+00        -0.17846E+08
 
   -0.17744E+08         0.19746E+06         0.00000E+00
    0.19746E+06        -0.19487E+07         0.00000E+00
    0.00000E+00         0.00000E+00        -0.17804E+08
 
   -0.17704E+08         0.20161E+06         0.00000E+00
    0.20161E+06        -0.19494E+07         0.00000E+00
    0.00000E+00         0.00000E+00        -0.17762E+08
 
   -0.17664E+08         0.20554E+06         0.00000E+00
    0.20554E+06        -0.19500E+07         0.00000E+00
    0.00000E+00         0.00000E+00        -0.17719E+08
 
   -0.17623E+08         0.20927E+06         0.00000E+00
    0.20927E+06        -0.19505E+07         0.00000E+00
    0.00000E+00         0.00000E+00        -0.17675E+08
 
   -0.17581E+08         0.21282E+06         0.00000E+00
    0.21282E+06        -0.19509E+07         0.00000E+00
    0.00000E+00         0.00000E+00        -0.17632E+08
 
   -0.17538E+08         0.21622E+06         0.00000E+00
    0.21622E+06        -0.19513E+07         0.00000E+00
    0.00000E+00         0.00000E+00        -0.17588E+08
 
   -0.17495E+08         0.21947E+06         0.00000E+00
    0.21947E+06        -0.19517E+07         0.00000E+00
    0.00000E+00         0.00000E+00        -0.17543E+08
 
   -0.17452E+08         0.22259E+06         0.00000E+00
    0.22259E+06        -0.19520E+07         0.00000E+00
    0.00000E+00         0.00000E+00        -0.17498E+08
 
   -0.17407E+08         0.22561E+06         0.00000E+00
    0.22561E+06        -0.19523E+07         0.00000E+00
    0.00000E+00         0.00000E+00        -0.17453E+08
 
   -0.17363E+08         0.22851E+06         0.00000E+00
    0.22851E+06        -0.19526E+07         0.00000E+00
    0.00000E+00         0.00000E+00        -0.17407E+08
 
   -0.17317E+08         0.23132E+06         0.00000E+00
    0.23132E+06        -0.19528E+07         0.00000E+00
    0.00000E+00         0.00000E+00        -0.17361E+08
 
   -0.17271E+08         0.23405E+06         0.00000E+00
    0.23405E+06        -0.19531E+07         0.00000E+00
    0.00000E+00         0.00000E+00        -0.17314E+08
 
   -0.17225E+08         0.23669E+06         0.00000E+00
    0.23669E+06        -0.19533E+07         0.00000E+00
    0.00000E+00         0.00000E+00        -0.17267E+08
 
   -0.17178E+08         0.23926E+06         0.00000E+00
    0.23926E+06        -0.19535E+07         0.00000E+00
    0.00000E+00         0.00000E+00        -0.17219E+08
 
   -0.17131E+08         0.24177E+06         0.00000E+00
    0.24177E+06        -0.19537E+07         0.00000E+00
    0.00000E+00         0.00000E+00        -0.17171E+08
 
   -0.17083E+08         0.24420E+06         0.00000E+00
    0.24420E+06        -0.19538E+07         0.00000E+00
    0.00000E+00         0.00000E+00        -0.17123E+08
 
   -0.17035E+08         0.24658E+06         0.00000E+00
    0.24658E+06        -0.19540E+07         0.00000E+00
    0.00000E+00         0.00000E+00        -0.17074E+08
 
   -0.16986E+08         0.24889E+06         0.00000E+00
    0.24889E+06        -0.19541E+07         0.00000E+00
    0.00000E+00         0.00000E+00        -0.17024E+08
 
   -0.16937E+08         0.25115E+06         0.00000E+00
    0.25115E+06        -0.19543E+07         0.00000E+00
    0.00000E+00         0.00000E+00        -0.16975E+08
 
   -0.16887E+08         0.25336E+06         0.00000E+00
    0.25336E+06        -0.19544E+07         0.00000E+00
    0.00000E+00         0.00000E+00        -0.16924E+08
 
   -0.16837E+08         0.25550E+06         0.00000E+00
    0.25550E+06        -0.19546E+07         0.00000E+00
    0.00000E+00         0.00000E+00        -0.16874E+08
 
   -0.16787E+08         0.25760E+06         0.00000E+00
    0.25760E+06        -0.19547E+07         0.00000E+00
    0.00000E+00         0.00000E+00        -0.16823E+08
 
   -0.16736E+08         0.25963E+06         0.00000E+00
    0.25963E+06        -0.19549E+07         0.00000E+00
    0.00000E+00         0.00000E+00        -0.16771E+08
 
   -0.16685E+08         0.26162E+06         0.00000E+00
    0.26162E+06        -0.19551E+07         0.00000E+00
    0.00000E+00         0.00000E+00        -0.16719E+08
 
   -0.16633E+08         0.26354E+06         0.00000E+00
    0.26354E+06        -0.19552E+07         0.00000E+00
    0.00000E+00         0.00000E+00        -0.16667E+08
 
   -0.16581E+08         0.26540E+06         0.00000E+00
    0.26540E+06        -0.19554E+07         0.00000E+00
    0.00000E+00         0.00000E+00        -0.16614E+08
 
   -0.16528E+08         0.26719E+06         0.00000E+00
    0.26719E+06        -0.19556E+07         0.00000E+00
    0.00000E+00         0.00000E+00        -0.16561E+08
 
   -0.16475E+08         0.26892E+06         0.00000E+00
    0.26892E+06        -0.19558E+07         0.00000E+00
    0.00000E+00         0.00000E+00        -0.16507E+08
 
   -0.16422E+08         0.27058E+06         0.00000E+00
    0.27058E+06        -0.19559E+07         0.00000E+00
    0.00000E+00         0.00000E+00        -0.16453E+08
 
   -0.16369E+08         0.27216E+06         0.00000E+00
    0.27216E+06        -0.19562E+07         0.00000E+00
    0.00000E+00         0.00000E+00        -0.16398E+08
 
   -0.16315E+08         0.27366E+06         0.00000E+00
    0.27366E+06        -0.19564E+07         0.00000E+00
    0.00000E+00         0.00000E+00        -0.16343E+08
 
   -0.16260E+08         0.27508E+06         0.00000E+00
    0.27508E+06        -0.19566E+07         0.00000E+00
    0.00000E+00         0.00000E+00        -0.16288E+08
 
   -0.16206E+08         0.27640E+06         0.00000E+00
    0.27640E+06        -0.19569E+07         0.00000E+00
    0.00000E+00         0.00000E+00        -0.16232E+08
 
   -0.16151E+08         0.27761E+06         0.00000E+00
    0.27761E+06        -0.19572E+07         0.00000E+00
    0.00000E+00         0.00000E+00        -0.16176E+08
 
   -0.16096E+08         0.27872E+06         0.00000E+00
    0.27872E+06        -0.19575E+07         0.00000E+00
    0.00000E+00         0.00000E+00        -0.16119E+08
 
   -0.16041E+08         0.27971E+06         0.00000E+00
    0.27971E+06        -0.19578E+07         0.00000E+00
    0.00000E+00         0.00000E+00        -0.16062E+08
 
   -0.15985E+08         0.28058E+06         0.00000E+00
    0.28058E+06        -0.19581E+07         0.00000E+00
    0.00000E+00         0.00000E+00        -0.16005E+08
 
   -0.15929E+08         0.28130E+06         0.00000E+00
    0.28130E+06        -0.19585E+07         0.00000E+00
    0.00000E+00         0.00000E+00        -0.15947E+08
 
   -0.15873E+08         0.28188E+06         0.00000E+00
    0.28188E+06        -0.19589E+07         0.00000E+00
    0.00000E+00         0.00000E+00        -0.15889E+08
 
   -0.15817E+08         0.28229E+06         0.00000E+00
    0.28229E+06        -0.19594E+07         0.00000E+00
    0.00000E+00         0.00000E+00        -0.15831E+08
 
   -0.15761E+08         0.28252E+06         0.00000E+00
    0.28252E+06        -0.19599E+07         0.00000E+00
    0.00000E+00         0.00000E+00        -0.15772E+08
 
   -0.15704E+08         0.28256E+06         0.00000E+00
    0.28256E+06        -0.19604E+07         0.00000E+00
    0.00000E+00         0.00000E+00        -0.15713E+08
 
   -0.15648E+08         0.28239E+06         0.00000E+00
    0.28239E+06        -0.19610E+07         0.00000E+00
    0.00000E+00         0.00000E+00        -0.15653E+08
 
   -0.15591E+08         0.28200E+06         0.00000E+00
    0.28200E+06        -0.19616E+07         0.00000E+00
    0.00000E+00         0.00000E+00        -0.15594E+08
 
   -0.15535E+08         0.28135E+06         0.00000E+00
    0.28135E+06        -0.19623E+07         0.00000E+00
    0.00000E+00         0.00000E+00        -0.15534E+08
 
   -0.15478E+08         0.28044E+06         0.00000E+00
    0.28044E+06        -0.19631E+07         0.00000E+00
    0.00000E+00         0.00000E+00        -0.15474E+08
 
   -0.15422E+08         0.27922E+06         0.00000E+00
    0.27922E+06        -0.19639E+07         0.00000E+00
    0.00000E+00         0.00000E+00        -0.15413E+08
 
   -0.15366E+08         0.27769E+06         0.00000E+00
    0.27769E+06        -0.19648E+07         0.00000E+00
    0.00000E+00         0.00000E+00        -0.15353E+08
 
   -0.15309E+08         0.27579E+06         0.00000E+00
    0.27579E+06        -0.19658E+07         0.00000E+00
    0.00000E+00         0.00000E+00        -0.15292E+08
 
   -0.15254E+08         0.27351E+06         0.00000E+00
    0.27351E+06        -0.19669E+07         0.00000E+00
    0.00000E+00         0.00000E+00        -0.15231E+08
 
   -0.15198E+08         0.27080E+06         0.00000E+00
    0.27080E+06        -0.19681E+07         0.00000E+00
    0.00000E+00         0.00000E+00        -0.15170E+08
 
   -0.15143E+08         0.26762E+06         0.00000E+00
    0.26762E+06        -0.19695E+07         0.00000E+00
    0.00000E+00         0.00000E+00        -0.15109E+08
 
   -0.15088E+08         0.26392E+06         0.00000E+00
    0.26392E+06        -0.19710E+07         0.00000E+00
    0.00000E+00         0.00000E+00        -0.15048E+08
 
   -0.15034E+08         0.25964E+06         0.00000E+00
    0.25964E+06        -0.19727E+07         0.00000E+00
    0.00000E+00         0.00000E+00        -0.14986E+08
 
   -0.14981E+08         0.25473E+06         0.00000E+00
    0.25473E+06        -0.19746E+07         0.00000E+00
    0.00000E+00         0.00000E+00        -0.14925E+08
 
   -0.14928E+08         0.24912E+06         0.00000E+00
    0.24912E+06        -0.19768E+07         0.00000E+00
    0.00000E+00         0.00000E+00        -0.14864E+08
 
   -0.14876E+08         0.24273E+06         0.00000E+00
    0.24273E+06        -0.19792E+07         0.00000E+00
    0.00000E+00         0.00000E+00        -0.14803E+08
 
   -0.14825E+08         0.23550E+06         0.00000E+00
    0.23550E+06        -0.19819E+07         0.00000E+00
    0.00000E+00         0.00000E+00        -0.14742E+08
 
   -0.14774E+08         0.22732E+06         0.00000E+00
    0.22732E+06        -0.19850E+07         0.00000E+00
    0.00000E+00         0.00000E+00        -0.14681E+08
 
   -0.14725E+08         0.21812E+06         0.00000E+00
    0.21812E+06        -0.19884E+07         0.00000E+00
    0.00000E+00         0.00000E+00        -0.14621E+08
 
   -0.14677E+08         0.20780E+06         0.00000E+00
    0.20780E+06        -0.19922E+07         0.00000E+00
    0.00000E+00         0.00000E+00        -0.14561E+08
 
   -0.14630E+08         0.19627E+06         0.00000E+00
    0.19627E+06        -0.19963E+07         0.00000E+00
    0.00000E+00         0.00000E+00        -0.14501E+08
 
   -0.14584E+08         0.18347E+06         0.00000E+00
    0.18347E+06        -0.20007E+07         0.00000E+00
    0.00000E+00         0.00000E+00        -0.14441E+08
 
   -0.14539E+08         0.16932E+06         0.00000E+00
    0.16932E+06        -0.20053E+07         0.00000E+00
    0.00000E+00         0.00000E+00        -0.14382E+08
 
   -0.14496E+08         0.15382E+06         0.00000E+00
    0.15382E+06        -0.20100E+07         0.00000E+00
    0.00000E+00         0.00000E+00        -0.14323E+08
 
   -0.14453E+08         0.13697E+06         0.00000E+00
    0.13697E+06        -0.20146E+07         0.00000E+00
    0.00000E+00         0.00000E+00        -0.14264E+08
 
   -0.14413E+08         0.11890E+06         0.00000E+00
    0.11890E+06        -0.20187E+07         0.00000E+00
    0.00000E+00         0.00000E+00        -0.14205E+08
 
   -0.14374E+08         0.99815E+05         0.00000E+00
    0.99815E+05        -0.20219E+07         0.00000E+00
    0.00000E+00         0.00000E+00        -0.14147E+08
 
   -0.14336E+08         0.80102E+05         0.00000E+00
    0.80102E+05        -0.20234E+07         0.00000E+00
    0.00000E+00         0.00000E+00        -0.14088E+08
 
   -0.14300E+08         0.60358E+05         0.00000E+00
    0.60358E+05        -0.20225E+07         0.00000E+00
    0.00000E+00         0.00000E+00        -0.14029E+08
 
   -0.14267E+08         0.41459E+05         0.00000E+00
    0.41459E+05        -0.20178E+07         0.00000E+00
    0.00000E+00         0.00000E+00        -0.13970E+08
 
   -0.14236E+08         0.24578E+05         0.00000E+00
    0.24578E+05        -0.20080E+07         0.00000E+00
    0.00000E+00         0.00000E+00        -0.13910E+08
 
   -0.14209E+08         0.11099E+05         0.00000E+00
    0.11099E+05        -0.19910E+07         0.00000E+00
    0.00000E+00         0.00000E+00        -0.13848E+08
 
   -0.14187E+08         0.22698E+04         0.00000E+00
    0.22698E+04        -0.19644E+07         0.00000E+00
    0.00000E+00         0.00000E+00        -0.13786E+08
 
   -0.14171E+08        -0.14416E+04         0.00000E+00
   -0.14416E+04        -0.19258E+07         0.00000E+00
    0.00000E+00         0.00000E+00        -0.13721E+08
 
   -0.14163E+08        -0.10163E+04         0.00000E+00
   -0.10163E+04        -0.18729E+07         0.00000E+00
    0.00000E+00         0.00000E+00        -0.13654E+08
 
   -0.18381E+08        -0.35498E+03         0.00000E+00
   -0.35498E+03        -0.20061E+07         0.00000E+00
    0.00000E+00         0.00000E+00        -0.18702E+08
 
   -0.18376E+08        -0.79580E+02         0.00000E+00
   -0.79580E+02        -0.19759E+07         0.00000E+00
    0.00000E+00         0.00000E+00        -0.18663E+08
 
   -0.18366E+08         0.27319E+04         0.00000E+00
    0.27319E+04        -0.19542E+07         0.00000E+00
    0.00000E+00         0.00000E+00        -0.18626E+08
 
   -0.18353E+08         0.86728E+04         0.00000E+00
    0.86728E+04        -0.19395E+07         0.00000E+00
    0.00000E+00         0.00000E+00        -0.18590E+08
 
   -0.18337E+08         0.17449E+05         0.00000E+00
    0.17449E+05        -0.19302E+07         0.00000E+00
    0.00000E+00         0.00000E+00        -0.18554E+08
 
   -0.18319E+08         0.28302E+05         0.00000E+00
    0.28302E+05        -0.19249E+07         0.00000E+00
    0.00000E+00         0.00000E+00        -0.18519E+08
 
   -0.18299E+08         0.40401E+05         0.00000E+00
    0.40401E+05        -0.19224E+07         0.00000E+00
    0.00000E+00         0.00000E+00        -0.18485E+08
 
   -0.18278E+08         0.53044E+05         0.00000E+00
    0.53044E+05        -0.19218E+07         0.00000E+00
    0.00000E+00         0.00000E+00        -0.18450E+08
 
   -0.18255E+08         0.65714E+05         0.00000E+00
    0.65714E+05        -0.19227E+07         0.00000E+00
    0.00000E+00         0.00000E+00        -0.18415E+08
 
   -0.18231E+08         0.78061E+05         0.00000E+00
    0.78061E+05        -0.19244E+07         0.00000E+00
    0.00000E+00         0.00000E+00        -0.18381E+08
 
   -0.18206E+08         0.89861E+05         0.00000E+00
    0.89861E+05        -0.19266E+07         0.00000E+00
    0.00000E+00         0.00000E+00        -0.18345E+08
 
   -0.18180E+08         0.10099E+06         0.00000E+00
    0.10099E+06        -0.19290E+07         0.00000E+00
    0.00000E+00         0.00000E+00        -0.18310E+08
 
   -0.18152E+08         0.11139E+06         0.00000E+00
    0.11139E+06        -0.19315E+07         0.00000E+00
    0.00000E+00         0.00000E+00        -0.18274E+08
 
   -0.18123E+08         0.12104E+06         0.00000E+00
    0.12104E+06        -0.19339E+07         0.00000E+00
    0.00000E+00         0.00000E+00        -0.18237E+08
 
   -0.18094E+08         0.12997E+06         0.00000E+00
    0.12997E+06        -0.19363E+07         0.00000E+00
    0.00000E+00         0.00000E+00        -0.18200E+08
 
   -0.18063E+08         0.13820E+06         0.00000E+00
    0.13820E+06        -0.19384E+07         0.00000E+00
    0.00000E+00         0.00000E+00        -0.18163E+08
 
   -0.18031E+08         0.14580E+06         0.00000E+00
    0.14580E+06        -0.19403E+07         0.00000E+00
    0.00000E+00         0.00000E+00        -0.18125E+08
 
   -0.17998E+08         0.15280E+06         0.00000E+00
    0.15280E+06        -0.19420E+07         0.00000E+00
    0.00000E+00         0.00000E+00        -0.18087E+08
 
   -0.17964E+08         0.15927E+06         0.00000E+00
    0.15927E+06        -0.19436E+07         0.00000E+00
    0.00000E+00         0.00000E+00        -0.18048E+08
 
   -0.17929E+08         0.16526E+06         0.00000E+00
    0.16526E+06        -0.19449E+07         0.00000E+00
    0.00000E+00         0.00000E+00        -0.18008E+08
 
   -0.17893E+08         0.17081E+06         0.00000E+00
    0.17081E+06        -0.19461E+07         0.00000E+00
    0.00000E+00         0.00000E+00        -0.17968E+08
 
   -0.17857E+08         0.17598E+06         0.00000E+00
    0.17598E+06        -0.19472E+07         0.00000E+00
    0.00000E+00         0.00000E+00        -0.17928E+08
 
   -0.17819E+08         0.18081E+06         0.00000E+00
    0.18081E+06        -0.19481E+07         0.00000E+00
    0.00000E+00         0.00000E+00        -0.17887E+08
 
   -0.17781E+08         0.18532E+06         0.00000E+00
    0.18532E+06        -0.19489E+07         0.00000E+00
    0.00000E+00         0.00000E+00        -0.17845E+08
 
   -0.17742E+08         0.18957E+06         0.00000E+00
    0.18957E+06        -0.19496E+07         0.00000E+00
    0.00000E+00         0.00000E+00        -0.17803E+08
 
   -0.17702E+08         0.19358E+06         0.00000E+00
    0.19358E+06        -0.19502E+07         0.00000E+00
    0.00000E+00         0.00000E+00        -0.17761E+08
 
   -0.17662E+08         0.19736E+06         0.00000E+00
    0.19736E+06        -0.19507E+07         0.00000E+00
    0.00000E+00         0.00000E+00        -0.17718E+08
 
   -0.17621E+08         0.20096E+06         0.00000E+00
    0.20096E+06        -0.19512E+07         0.00000E+00
    0.00000E+00         0.00000E+00        -0.17675E+08
 
   -0.17579E+08         0.20439E+06         0.00000E+00
    0.20439E+06        -0.19516E+07         0.00000E+00
    0.00000E+00         0.00000E+00        -0.17631E+08
 
   -0.17536E+08         0.20766E+06         0.00000E+00
    0.20766E+06        -0.19520E+07         0.00000E+00
    0.00000E+00         0.00000E+00        -0.17587E+08
 
   -0.17493E+08         0.21080E+06         0.00000E+00
    0.21080E+06        -0.19523E+07         0.00000E+00
    0.00000E+00         0.00000E+00        -0.17543E+08
 
   -0.17450E+08         0.21381E+06         0.00000E+00
    0.21381E+06        -0.19526E+07         0.00000E+00
    0.00000E+00         0.00000E+00        -0.17498E+08
 
   -0.17405E+08         0.21671E+06         0.00000E+00
    0.21671E+06        -0.19529E+07         0.00000E+00
    0.00000E+00         0.00000E+00        -0.17452E+08
 
   -0.17361E+08         0.21951E+06         0.00000E+00
    0.21951E+06        -0.19532E+07         0.00000E+00
    0.00000E+00         0.00000E+00        -0.17406E+08
 
   -0.17315E+08         0.22221E+06         0.00000E+00
    0.22221E+06        -0.19534E+07         0.00000E+00
    0.00000E+00         0.00000E+00        -0.17360E+08
 
   -0.17270E+08         0.22483E+06         0.00000E+00
    0.22483E+06        -0.19536E+07         0.00000E+00
    0.00000E+00         0.00000E+00        -0.17313E+08
 
   -0.17223E+08         0.22738E+06         0.00000E+00
    0.22738E+06        -0.19538E+07         0.00000E+00
    0.00000E+00         0.00000E+00        -0.17266E+08
 
   -0.17176E+08         0.22985E+06         0.00000E+00
    0.22985E+06        -0.19540E+07         0.00000E+00
    0.00000E+00         0.00000E+00        -0.17219E+08
 
   -0.17129E+08         0.23225E+06         0.00000E+00
    0.23225E+06        -0.19541E+07         0.00000E+00
    0.00000E+00         0.00000E+00        -0.17171E+08
 
   -0.17081E+08         0.23460E+06         0.00000E+00
    0.23460E+06        -0.19543E+07         0.00000E+00
    0.00000E+00         0.00000E+00        -0.17122E+08
 
   -0.17033E+08         0.23688E+06         0.00000E+00
    0.23688E+06        -0.19544E+07         0.00000E+00
    0.00000E+00         0.00000E+00        -0.17073E+08
 
   -0.16984E+08         0.23910E+06         0.00000E+00
    0.23910E+06        -0.19546E+07         0.00000E+00
    0.00000E+00         0.00000E+00        -0.17024E+08
 
   -0.16935E+08         0.24127E+06         0.00000E+00
    0.24127E+06        -0.19547E+07         0.00000E+00
    0.00000E+00         0.00000E+00        -0.16974E+08
 
   -0.16886E+08         0.24339E+06         0.00000E+00
    0.24339E+06        -0.19549E+07         0.00000E+00
    0.00000E+00         0.00000E+00        -0.16924E+08
 
   -0.16836E+08         0.24545E+06         0.00000E+00
    0.24545E+06        -0.19550E+07         0.00000E+00
    0.00000E+00         0.00000E+00        -0.16873E+08
 
   -0.16785E+08         0.24746E+06         0.00000E+00
    0.24746E+06        -0.19552E+07         0.00000E+00
    0.00000E+00         0.00000E+00        -0.16822E+08
 
   -0.16734E+08         0.24942E+06         0.00000E+00
    0.24942E+06        -0.19553E+07         0.00000E+00
    0.00000E+00         0.00000E+00        -0.16771E+08
 
   -0.16683E+08         0.25132E+06         0.00000E+00
    0.25132E+06        -0.19554E+07         0.00000E+00
    0.00000E+00         0.00000E+00        -0.16719E+08
 
   -0.16631E+08         0.25316E+06         0.00000E+00
    0.25316E+06        -0.19556E+07         0.00000E+00
    0.00000E+00         0.00000E+00        -0.16666E+08
 
   -0.16579E+08         0.25494E+06         0.00000E+00
    0.25494E+06        -0.19557E+07         0.00000E+00
    0.00000E+00         0.00000E+00        -0.16614E+08
 
   -0.16527E+08         0.25666E+06         0.00000E+00
    0.25666E+06        -0.19559E+07         0.00000E+00
    0.00000E+00         0.00000E+00        -0.16560E+08
 
   -0.16474E+08         0.25832E+06         0.00000E+00
    0.25832E+06        -0.19561E+07         0.00000E+00
    0.00000E+00         0.00000E+00        -0.16507E+08
 
   -0.16421E+08         0.25991E+06         0.00000E+00
    0.25991E+06        -0.19563E+07         0.00000E+00
    0.00000E+00         0.00000E+00        -0.16452E+08
 
   -0.16367E+08         0.26142E+06         0.00000E+00
    0.26142E+06        -0.19565E+07         0.00000E+00
    0.00000E+00         0.00000E+00        -0.16398E+08
 
   -0.16313E+08         0.26285E+06         0.00000E+00
    0.26285E+06        -0.19567E+07         0.00000E+00
    0.00000E+00         0.00000E+00        -0.16343E+08
 
   -0.16259E+08         0.26420E+06         0.00000E+00
    0.26420E+06        -0.19569E+07         0.00000E+00
    0.00000E+00         0.00000E+00        -0.16287E+08
 
   -0.16205E+08         0.26546E+06         0.00000E+00
    0.26546E+06        -0.19571E+07         0.00000E+00
    0.00000E+00         0.00000E+00        -0.16232E+08
 
   -0.16150E+08         0.26662E+06         0.00000E+00
    0.26662E+06        -0.19574E+07         0.00000E+00
    0.00000E+00         0.00000E+00        -0.16176E+08
 
   -0.16095E+08         0.26768E+06         0.00000E+00
    0.26768E+06        -0.19577E+07         0.00000E+00
    0.00000E+00         0.00000E+00        -0.16119E+08
 
   -0.16039E+08         0.26862E+06         0.00000E+00
    0.26862E+06        -0.19580E+07         0.00000E+00
    0.00000E+00         0.00000E+00        -0.16062E+08
 
   -0.15984E+08         0.26944E+06         0.00000E+00
    0.26944E+06        -0.19583E+07         0.00000E+00
    0.00000E+00         0.00000E+00        -0.16005E+08
 
   -0.15928E+08         0.27012E+06         0.00000E+00
    0.27012E+06        -0.19587E+07         0.00000E+00
    0.00000E+00         0.00000E+00        -0.15947E+08
 
   -0.15872E+08         0.27066E+06         0.00000E+00
    0.27066E+06        -0.19590E+07         0.00000E+00
    0.00000E+00         0.00000E+00        -0.15889E+08
 
   -0.15816E+08         0.27104E+06         0.00000E+00
    0.27104E+06        -0.19595E+07         0.00000E+00
    0.00000E+00         0.00000E+00        -0.15830E+08
 
   -0.15760E+08         0.27125E+06         0.00000E+00
    0.27125E+06        -0.19599E+07         0.00000E+00
    0.00000E+00         0.00000E+00        -0.15772E+08
 
   -0.15704E+08         0.27128E+06         0.00000E+00
    0.27128E+06        -0.19604E+07         0.00000E+00
    0.00000E+00         0.00000E+00        -0.15713E+08
 
   -0.15647E+08         0.27110E+06         0.00000E+00
    0.27110E+06        -0.19609E+07         0.00000E+00
    0.00000E+00         0.00000E+00        -0.15653E+08
 
   -0.15591E+08         0.27070E+06         0.00000E+00
    0.27070E+06        -0.19615E+07         0.00000E+00
    0.00000E+00         0.00000E+00        -0.15594E+08
 
   -0.15534E+08         0.27006E+06         0.00000E+00
    0.27006E+06        -0.19622E+07         0.00000E+00
    0.00000E+00         0.00000E+00        -0.15534E+08
 
   -0.15478E+08         0.26916E+06         0.00000E+00
    0.26916E+06        -0.19628E+07         0.00000E+00
    0.00000E+00         0.00000E+00        -0.15474E+08
 
   -0.15422E+08         0.26797E+06         0.00000E+00
    0.26797E+06        -0.19636E+07         0.00000E+00
    0.00000E+00         0.00000E+00        -0.15413E+08
 
   -0.15366E+08         0.26647E+06         0.00000E+00
    0.26647E+06        -0.19645E+07         0.00000E+00
    0.00000E+00         0.00000E+00        -0.15353E+08
 
   -0.15310E+08         0.26463E+06         0.00000E+00
    0.26463E+06        -0.19654E+07         0.00000E+00
    0.00000E+00         0.00000E+00        -0.15292E+08
 
   -0.15254E+08         0.26240E+06         0.00000E+00
    0.26240E+06        -0.19664E+07         0.00000E+00
    0.00000E+00         0.00000E+00        -0.15231E+08
 
   -0.15199E+08         0.25977E+06         0.00000E+00
    0.25977E+06        -0.19675E+07         0.00000E+00
    0.00000E+00         0.00000E+00        -0.15170E+08
 
   -0.15144E+08         0.25667E+06         0.00000E+00
    0.25667E+06        -0.19688E+07         0.00000E+00
    0.00000E+00         0.00000E+00        -0.15109E+08
 
   -0.15090E+08         0.25307E+06         0.00000E+00
    0.25307E+06        -0.19702E+07         0.00000E+00
    0.00000E+00         0.00000E+00        -0.15048E+08
 
   -0.15036E+08         0.24891E+06         0.00000E+00
    0.24891E+06        -0.19718E+07         0.00000E+00
    0.00000E+00         0.00000E+00        -0.14987E+08
 
   -0.14983E+08         0.24413E+06         0.00000E+00
    0.24413E+06        -0.19736E+07         0.00000E+00
    0.00000E+00         0.00000E+00        -0.14925E+08
 
   -0.14930E+08         0.23866E+06         0.00000E+00
    0.23866E+06        -0.19756E+07         0.00000E+00
    0.00000E+00         0.00000E+00        -0.14864E+08
 
   -0.14879E+08         0.23244E+06         0.00000E+00
    0.23244E+06        -0.19779E+07         0.00000E+00
    0.00000E+00         0.00000E+00        -0.14803E+08
 
   -0.14828E+08         0.22538E+06         0.00000E+00
    0.22538E+06        -0.19804E+07         0.00000E+00
    0.00000E+00         0.00000E+00        -0.14743E+08
 
   -0.14778E+08         0.21740E+06         0.00000E+00
    0.21740E+06        -0.19833E+07         0.00000E+00
    0.00000E+00         0.00000E+00        -0.14682E+08
 
   -0.14729E+08         0.20841E+06         0.00000E+00
    0.20841E+06        -0.19865E+07         0.00000E+00
    0.00000E+00         0.00000E+00        -0.14622E+08
 
   -0.14682E+08         0.19832E+06         0.00000E+00
    0.19832E+06        -0.19900E+07         0.00000E+00
    0.00000E+00         0.00000E+00        -0.14562E+08
 
   -0.14635E+08         0.18703E+06         0.00000E+00
    0.18703E+06        -0.19939E+07         0.00000E+00
    0.00000E+00         0.00000E+00        -0.14502E+08
 
   -0.14590E+08         0.17448E+06         0.00000E+00
    0.17448E+06        -0.19980E+07         0.00000E+00
    0.00000E+00         0.00000E+00        -0.14442E+08
 
   -0.14546E+08         0.16059E+06         0.00000E+00
    0.16059E+06        -0.20024E+07         0.00000E+00
    0.00000E+00         0.00000E+00        -0.14383E+08
 
   -0.14503E+08         0.14536E+06         0.00000E+00
    0.14536E+06        -0.20068E+07         0.00000E+00
    0.00000E+00         0.00000E+00        -0.14324E+08
 
   -0.14462E+08         0.12880E+06         0.00000E+00
    0.12880E+06        -0.20112E+07         0.00000E+00
    0.00000E+00         0.00000E+00        -0.14266E+08
 
   -0.14423E+08         0.11103E+06         0.00000E+00
    0.11103E+06        -0.20150E+07         0.00000E+00
    0.00000E+00         0.00000E+00        -0.14207E+08
 
   -0.14385E+08         0.92265E+05         0.00000E+00
    0.92265E+05        -0.20180E+07         0.00000E+00
    0.00000E+00         0.00000E+00        -0.14149E+08
 
   -0.14349E+08         0.72907E+05         0.00000E+00
    0.72907E+05        -0.20195E+07         0.00000E+00
    0.00000E+00         0.00000E+00        -0.14091E+08
 
   -0.14315E+08         0.53570E+05         0.00000E+00
    0.53570E+05        -0.20186E+07         0.00000E+00
    0.00000E+00         0.00000E+00        -0.14032E+08
 
   -0.14283E+08         0.35158E+05         0.00000E+00
    0.35158E+05        -0.20142E+07         0.00000E+00
    0.00000E+00         0.00000E+00        -0.13974E+08
 
   -0.14253E+08         0.18889E+05         0.00000E+00
    0.18889E+05        -0.20049E+07         0.00000E+00
    0.00000E+00         0.00000E+00        -0.13914E+08
 
   -0.14227E+08         0.62093E+04         0.00000E+00
    0.62093E+04        -0.19888E+07         0.00000E+00
    0.00000E+00         0.00000E+00        -0.13853E+08
 
   -0.14206E+08        -0.15632E+04         0.00000E+00
   -0.15632E+04        -0.19633E+07         0.00000E+00
    0.00000E+00         0.00000E+00        -0.13791E+08
 
   -0.14190E+08        -0.39168E+04         0.00000E+00
   -0.39168E+04        -0.19258E+07         0.00000E+00
    0.00000E+00         0.00000E+00        -0.13727E+08
 
   -0.14182E+08        -0.18759E+04         0.00000E+00
   -0.18759E+04        -0.18734E+07         0.00000E+00
    0.00000E+00         0.00000E+00        -0.13661E+08
 
   -0.18368E+08        -0.86570E+03         0.00000E+00
   -0.86570E+03        -0.20059E+07         0.00000E+00
    0.00000E+00         0.00000E+00        -0.18698E+08
 
   -0.18364E+08        -0.15442E+04         0.00000E+00
   -0.15442E+04        -0.19760E+07         0.00000E+00
    0.00000E+00         0.00000E+00        -0.18660E+08
 
   -0.18354E+08         0.47587E+03         0.00000E+00
    0.47587E+03        -0.19550E+07         0.00000E+00
    0.00000E+00         0.00000E+00        -0.18623E+08
 
   -0.18342E+08         0.58033E+04         0.00000E+00
    0.58033E+04        -0.19410E+07         0.00000E+00
    0.00000E+00         0.00000E+00        -0.18587E+08
 
   -0.18327E+08         0.14106E+05         0.00000E+00
    0.14106E+05        -0.19322E+07         0.00000E+00
    0.00000E+00         0.00000E+00        -0.18552E+08
 
   -0.18309E+08         0.24578E+05         0.00000E+00
    0.24578E+05        -0.19272E+07         0.00000E+00
    0.00000E+00         0.00000E+00        -0.18517E+08
 
   -0.18290E+08         0.36352E+05         0.00000E+00
    0.36352E+05        -0.19248E+07         0.00000E+00
    0.00000E+00         0.00000E+00        -0.18483E+08
 
   -0.18270E+08         0.48704E+05         0.00000E+00
    0.48704E+05        -0.19244E+07         0.00000E+00
    0.00000E+00         0.00000E+00        -0.18448E+08
 
   -0.18248E+08         0.61106E+05         0.00000E+00
    0.61106E+05        -0.19252E+07         0.00000E+00
    0.00000E+00         0.00000E+00        -0.18414E+08
 
   -0.18224E+08         0.73198E+05         0.00000E+00
    0.73198E+05        -0.19268E+07         0.00000E+00
    0.00000E+00         0.00000E+00        -0.18379E+08
 
   -0.18200E+08         0.84753E+05         0.00000E+00
    0.84753E+05        -0.19288E+07         0.00000E+00
    0.00000E+00         0.00000E+00        -0.18344E+08
 
   -0.18174E+08         0.95643E+05         0.00000E+00
    0.95643E+05        -0.19311E+07         0.00000E+00
    0.00000E+00         0.00000E+00        -0.18309E+08
 
   -0.18147E+08         0.10581E+06         0.00000E+00
    0.10581E+06        -0.19335E+07         0.00000E+00
    0.00000E+00         0.00000E+00        -0.18273E+08
 
   -0.18119E+08         0.11523E+06         0.00000E+00
    0.11523E+06        -0.19358E+07         0.00000E+00
    0.00000E+00         0.00000E+00        -0.18237E+08
 
   -0.18089E+08         0.12394E+06         0.00000E+00
    0.12394E+06        -0.19379E+07         0.00000E+00
    0.00000E+00         0.00000E+00        -0.18200E+08
 
   -0.18059E+08         0.13196E+06         0.00000E+00
    0.13196E+06        -0.19399E+07         0.00000E+00
    0.00000E+00         0.00000E+00        -0.18162E+08
 
   -0.18027E+08         0.13934E+06         0.00000E+00
    0.13934E+06        -0.19417E+07         0.00000E+00
    0.00000E+00         0.00000E+00        -0.18124E+08
 
   -0.17994E+08         0.14614E+06         0.00000E+00
    0.14614E+06        -0.19434E+07         0.00000E+00
    0.00000E+00         0.00000E+00        -0.18086E+08
 
   -0.17961E+08         0.15242E+06         0.00000E+00
    0.15242E+06        -0.19448E+07         0.00000E+00
    0.00000E+00         0.00000E+00        -0.18047E+08
 
   -0.17926E+08         0.15822E+06         0.00000E+00
    0.15822E+06        -0.19461E+07         0.00000E+00
    0.00000E+00         0.00000E+00        -0.18007E+08
 
   -0.17891E+08         0.16359E+06         0.00000E+00
    0.16359E+06        -0.19472E+07         0.00000E+00
    0.00000E+00         0.00000E+00        -0.17968E+08
 
   -0.17854E+08         0.16858E+06         0.00000E+00
    0.16858E+06        -0.19481E+07         0.00000E+00
    0.00000E+00         0.00000E+00        -0.17927E+08
 
   -0.17817E+08         0.17324E+06         0.00000E+00
    0.17324E+06        -0.19490E+07         0.00000E+00
    0.00000E+00         0.00000E+00        -0.17886E+08
 
   -0.17779E+08         0.17760E+06         0.00000E+00
    0.17760E+06        -0.19497E+07         0.00000E+00
    0.00000E+00         0.00000E+00        -0.17845E+08
 
   -0.17740E+08         0.18170E+06         0.00000E+00
    0.18170E+06        -0.19504E+07         0.00000E+00
    0.00000E+00         0.00000E+00        -0.17803E+08
 
   -0.17700E+08         0.18556E+06         0.00000E+00
    0.18556E+06        -0.19509E+07         0.00000E+00
    0.00000E+00         0.00000E+00        -0.17761E+08
 
   -0.17659E+08         0.18921E+06         0.00000E+00
    0.18921E+06        -0.19514E+07         0.00000E+00
    0.00000E+00         0.00000E+00        -0.17718E+08
 
   -0.17618E+08         0.19267E+06         0.00000E+00
    0.19267E+06        -0.19519E+07         0.00000E+00
    0.00000E+00         0.00000E+00        -0.17675E+08
 
   -0.17577E+08         0.19597E+06         0.00000E+00
    0.19597E+06        -0.19523E+07         0.00000E+00
    0.00000E+00         0.00000E+00        -0.17631E+08
 
   -0.17534E+08         0.19912E+06         0.00000E+00
    0.19912E+06        -0.19526E+07         0.00000E+00
    0.00000E+00         0.00000E+00        -0.17587E+08
 
   -0.17491E+08         0.20213E+06         0.00000E+00
    0.20213E+06        -0.19529E+07         0.00000E+00
    0.00000E+00         0.00000E+00        -0.17542E+08
 
   -0.17448E+08         0.20503E+06         0.00000E+00
    0.20503E+06        -0.19532E+07         0.00000E+00
    0.00000E+00         0.00000E+00        -0.17497E+08
 
   -0.17403E+08         0.20782E+06         0.00000E+00
    0.20782E+06        -0.19535E+07         0.00000E+00
    0.00000E+00         0.00000E+00        -0.17452E+08
 
   -0.17359E+08         0.21050E+06         0.00000E+00
    0.21050E+06        -0.19537E+07         0.00000E+00
    0.00000E+00         0.00000E+00        -0.17406E+08
 
   -0.17314E+08         0.21310E+06         0.00000E+00
    0.21310E+06        -0.19539E+07         0.00000E+00
    0.00000E+00         0.00000E+00        -0.17360E+08
 
   -0.17268E+08         0.21562E+06         0.00000E+00
    0.21562E+06        -0.19541E+07         0.00000E+00
    0.00000E+00         0.00000E+00        -0.17313E+08
 
   -0.17221E+08         0.21807E+06         0.00000E+00
    0.21807E+06        -0.19543E+07         0.00000E+00
    0.00000E+00         0.00000E+00        -0.17266E+08
 
   -0.17175E+08         0.22044E+06         0.00000E+00
    0.22044E+06        -0.19544E+07         0.00000E+00
    0.00000E+00         0.00000E+00        -0.17218E+08
 
   -0.17127E+08         0.22275E+06         0.00000E+00
    0.22275E+06        -0.19546E+07         0.00000E+00
    0.00000E+00         0.00000E+00        -0.17170E+08
 
   -0.17080E+08         0.22500E+06         0.00000E+00
    0.22500E+06        -0.19547E+07         0.00000E+00
    0.00000E+00         0.00000E+00        -0.17122E+08
 
   -0.17031E+08         0.22719E+06         0.00000E+00
    0.22719E+06        -0.19549E+07         0.00000E+00
    0.00000E+00         0.00000E+00        -0.17073E+08
 
   -0.16983E+08         0.22932E+06         0.00000E+00
    0.22932E+06        -0.19550E+07         0.00000E+00
    0.00000E+00         0.00000E+00        -0.17024E+08
 
   -0.16934E+08         0.23140E+06         0.00000E+00
    0.23140E+06        -0.19552E+07         0.00000E+00
    0.00000E+00         0.00000E+00        -0.16974E+08
 
   -0.16884E+08         0.23343E+06         0.00000E+00
    0.23343E+06        -0.19553E+07         0.00000E+00
    0.00000E+00         0.00000E+00        -0.16924E+08
 
   -0.16834E+08         0.23540E+06         0.00000E+00
    0.23540E+06        -0.19554E+07         0.00000E+00
    0.00000E+00         0.00000E+00        -0.16873E+08
 
   -0.16784E+08         0.23733E+06         0.00000E+00
    0.23733E+06        -0.19555E+07         0.00000E+00
    0.00000E+00         0.00000E+00        -0.16822E+08
 
   -0.16733E+08         0.23920E+06         0.00000E+00
    0.23920E+06        -0.19557E+07         0.00000E+00
    0.00000E+00         0.00000E+00        -0.16770E+08
 
   -0.16681E+08         0.24102E+06         0.00000E+00
    0.24102E+06        -0.19558E+07         0.00000E+00
    0.00000E+00         0.00000E+00        -0.16718E+08
 
   -0.16630E+08         0.24278E+06         0.00000E+00
    0.24278E+06        -0.19559E+07         0.00000E+00
    0.00000E+00         0.00000E+00        -0.16666E+08
 
   -0.16578E+08         0.24449E+06         0.00000E+00
    0.24449E+06        -0.19561E+07         0.00000E+00
    0.00000E+00         0.00000E+00        -0.16613E+08
 
   -0.16525E+08         0.24614E+06         0.00000E+00
    0.24614E+06        -0.19562E+07         0.00000E+00
    0.00000E+00         0.00000E+00        -0.16560E+08
 
   -0.16472E+08         0.24772E+06         0.00000E+00
    0.24772E+06        -0.19564E+07         0.00000E+00
    0.00000E+00         0.00000E+00        -0.16506E+08
 
   -0.16419E+08         0.24924E+06         0.00000E+00
    0.24924E+06        -0.19566E+07         0.00000E+00
    0.00000E+00         0.00000E+00        -0.16452E+08
 
   -0.16366E+08         0.25068E+06         0.00000E+00
    0.25068E+06        -0.19568E+07         0.00000E+00
    0.00000E+00         0.00000E+00        -0.16398E+08
 
   -0.16312E+08         0.25205E+06         0.00000E+00
    0.25205E+06        -0.19569E+07         0.00000E+00
    0.00000E+00         0.00000E+00        -0.16343E+08
 
   -0.16258E+08         0.25334E+06         0.00000E+00
    0.25334E+06        -0.19571E+07         0.00000E+00
    0.00000E+00         0.00000E+00        -0.16287E+08
 
   -0.16203E+08         0.25454E+06         0.00000E+00
    0.25454E+06        -0.19574E+07         0.00000E+00
    0.00000E+00         0.00000E+00        -0.16231E+08
 
   -0.16149E+08         0.25565E+06         0.00000E+00
    0.25565E+06        -0.19576E+07         0.00000E+00
    0.00000E+00         0.00000E+00        -0.16175E+08
 
   -0.16094E+08         0.25665E+06         0.00000E+00
    0.25665E+06        -0.19579E+07         0.00000E+00
    0.00000E+00         0.00000E+00        -0.16119E+08
 
   -0.16038E+08         0.25754E+06         0.00000E+00
    0.25754E+06        -0.19581E+07         0.00000E+00
    0.00000E+00         0.00000E+00        -0.16062E+08
 
   -0.15983E+08         0.25832E+06         0.00000E+00
    0.25832E+06        -0.19585E+07         0.00000E+00
    0.00000E+00         0.00000E+00        -0.16004E+08
 
   -0.15927E+08         0.25896E+06         0.00000E+00
    0.25896E+06        -0.19588E+07         0.00000E+00
    0.00000E+00         0.00000E+00        -0.15947E+08
 
   -0.15871E+08         0.25947E+06         0.00000E+00
    0.25947E+06        -0.19591E+07         0.00000E+00
    0.00000E+00         0.00000E+00        -0.15889E+08
 
   -0.15815E+08         0.25982E+06         0.00000E+00
    0.25982E+06        -0.19595E+07         0.00000E+00
    0.00000E+00         0.00000E+00        -0.15830E+08
 
   -0.15759E+08         0.26001E+06         0.00000E+00
    0.26001E+06        -0.19599E+07         0.00000E+00
    0.00000E+00         0.00000E+00        -0.15771E+08
 
   -0.15703E+08         0.26002E+06         0.00000E+00
    0.26002E+06        -0.19604E+07         0.00000E+00
    0.00000E+00         0.00000E+00        -0.15712E+08
 
   -0.15647E+08         0.25983E+06         0.00000E+00
    0.25983E+06        -0.19609E+07         0.00000E+00
    0.00000E+00         0.00000E+00        -0.15653E+08
 
   -0.15590E+08         0.25943E+06         0.00000E+00
    0.25943E+06        -0.19614E+07         0.00000E+00
    0.00000E+00         0.00000E+00        -0.15593E+08
 
   -0.15534E+08         0.25880E+06         0.00000E+00
    0.25880E+06        -0.19620E+07         0.00000E+00
    0.00000E+00         0.00000E+00        -0.15534E+08
 
   -0.15478E+08         0.25792E+06         0.00000E+00
    0.25792E+06        -0.19626E+07         0.00000E+00
    0.00000E+00         0.00000E+00        -0.15473E+08
 
   -0.15422E+08         0.25676E+06         0.00000E+00
    0.25676E+06        -0.19633E+07         0.00000E+00
    0.00000E+00         0.00000E+00        -0.15413E+08
 
   -0.15366E+08         0.25529E+06         0.00000E+00
    0.25529E+06        -0.19641E+07         0.00000E+00
    0.00000E+00         0.00000E+00        -0.15353E+08
 
   -0.15310E+08         0.25350E+06         0.00000E+00
    0.25350E+06        -0.19650E+07         0.00000E+00
    0.00000E+00         0.00000E+00        -0.15292E+08
 
   -0.15255E+08         0.25134E+06         0.00000E+00
    0.25134E+06        -0.19659E+07         0.00000E+00
    0.00000E+00         0.00000E+00        -0.15231E+08
 
   -0.15200E+08         0.24877E+06         0.00000E+00
    0.24877E+06        -0.19670E+07         0.00000E+00
    0.00000E+00         0.00000E+00        -0.15170E+08
 
   -0.15145E+08         0.24577E+06         0.00000E+00
    0.24577E+06        -0.19682E+07         0.00000E+00
    0.00000E+00         0.00000E+00        -0.15109E+08
 
   -0.15091E+08         0.24227E+06         0.00000E+00
    0.24227E+06        -0.19695E+07         0.00000E+00
    0.00000E+00         0.00000E+00        -0.15048E+08
 
   -0.15038E+08         0.23823E+06         0.00000E+00
    0.23823E+06        -0.19709E+07         0.00000E+00
    0.00000E+00         0.00000E+00        -0.14987E+08
 
   -0.14985E+08         0.23359E+06         0.00000E+00
    0.23359E+06        -0.19726E+07         0.00000E+00
    0.00000E+00         0.00000E+00        -0.14926E+08
 
   -0.14933E+08         0.22828E+06         0.00000E+00
    0.22828E+06        -0.19745E+07         0.00000E+00
    0.00000E+00         0.00000E+00        -0.14865E+08
 
   -0.14881E+08         0.22223E+06         0.00000E+00
    0.22223E+06        -0.19766E+07         0.00000E+00
    0.00000E+00         0.00000E+00        -0.14804E+08
 
   -0.14831E+08         0.21536E+06         0.00000E+00
    0.21536E+06        -0.19789E+07         0.00000E+00
    0.00000E+00         0.00000E+00        -0.14743E+08
 
   -0.14781E+08         0.20759E+06         0.00000E+00
    0.20759E+06        -0.19816E+07         0.00000E+00
    0.00000E+00         0.00000E+00        -0.14683E+08
 
   -0.14733E+08         0.19882E+06         0.00000E+00
    0.19882E+06        -0.19846E+07         0.00000E+00
    0.00000E+00         0.00000E+00        -0.14622E+08
 
   -0.14686E+08         0.18896E+06         0.00000E+00
    0.18896E+06        -0.19879E+07         0.00000E+00
    0.00000E+00         0.00000E+00        -0.14562E+08
 
   -0.14640E+08         0.17793E+06         0.00000E+00
    0.17793E+06        -0.19915E+07         0.00000E+00
    0.00000E+00         0.00000E+00        -0.14503E+08
 
   -0.14596E+08         0.16564E+06         0.00000E+00
    0.16564E+06        -0.19954E+07         0.00000E+00
    0.00000E+00         0.00000E+00        -0.14443E+08
 
   -0.14553E+08         0.15204E+06         0.00000E+00
    0.15204E+06        -0.19995E+07         0.00000E+00
    0.00000E+00         0.00000E+00        -0.14384E+08
 
   -0.14511E+08         0.13710E+06         0.00000E+00
    0.13710E+06        -0.20037E+07         0.00000E+00
    0.00000E+00         0.00000E+00        -0.14326E+08
 
   -0.14471E+08         0.12086E+06         0.00000E+00
    0.12086E+06        -0.20077E+07         0.00000E+00
    0.00000E+00         0.00000E+00        -0.14267E+08
 
   -0.14433E+08         0.10341E+06         0.00000E+00
    0.10341E+06        -0.20114E+07         0.00000E+00
    0.00000E+00         0.00000E+00        -0.14209E+08
 
   -0.14396E+08         0.84990E+05         0.00000E+00
    0.84990E+05        -0.20142E+07         0.00000E+00
    0.00000E+00         0.00000E+00        -0.14151E+08
 
   -0.14362E+08         0.66004E+05         0.00000E+00
    0.66004E+05        -0.20156E+07         0.00000E+00
    0.00000E+00         0.00000E+00        -0.14094E+08
 
   -0.14329E+08         0.47080E+05         0.00000E+00
    0.47080E+05        -0.20148E+07         0.00000E+00
    0.00000E+00         0.00000E+00        -0.14036E+08
 
   -0.14299E+08         0.29144E+05         0.00000E+00
    0.29144E+05        -0.20108E+07         0.00000E+00
    0.00000E+00         0.00000E+00        -0.13977E+08
 
   -0.14271E+08         0.13452E+05         0.00000E+00
    0.13452E+05        -0.20021E+07         0.00000E+00
    0.00000E+00         0.00000E+00        -0.13918E+08
 
   -0.14246E+08         0.15110E+04         0.00000E+00
    0.15110E+04        -0.19868E+07         0.00000E+00
    0.00000E+00         0.00000E+00        -0.13858E+08
 
   -0.14225E+08        -0.52780E+04         0.00000E+00
   -0.52780E+04        -0.19624E+07         0.00000E+00
    0.00000E+00         0.00000E+00        -0.13796E+08
 
   -0.14210E+08        -0.63384E+04         0.00000E+00
   -0.63384E+04        -0.19260E+07         0.00000E+00
    0.00000E+00         0.00000E+00        -0.13733E+08
 
   -0.14202E+08        -0.27222E+04         0.00000E+00
   -0.27222E+04        -0.18743E+07         0.00000E+00
    0.00000E+00         0.00000E+00        -0.13667E+08
 
   -0.18356E+08        -0.13701E+04         0.00000E+00
   -0.13701E+04        -0.20055E+07         0.00000E+00
    0.00000E+00         0.00000E+00        -0.18694E+08
 
   -0.18351E+08        -0.29810E+04         0.00000E+00
   -0.29810E+04        -0.19760E+07         0.00000E+00
    0.00000E+00         0.00000E+00        -0.18656E+08
 
   -0.18343E+08        -0.17148E+04         0.00000E+00
   -0.17148E+04        -0.19557E+07         0.00000E+00
    0.00000E+00         0.00000E+00        -0.18619E+08
 
   -0.18330E+08         0.30425E+04         0.00000E+00
    0.30425E+04        -0.19423E+07         0.00000E+00
    0.00000E+00         0.00000E+00        -0.18584E+08
 
   -0.18316E+08         0.10907E+05         0.00000E+00
    0.10907E+05        -0.19340E+07         0.00000E+00
    0.00000E+00         0.00000E+00        -0.18549E+08
 
   -0.18299E+08         0.21017E+05         0.00000E+00
    0.21017E+05        -0.19294E+07         0.00000E+00
    0.00000E+00         0.00000E+00        -0.18515E+08
 
   -0.18281E+08         0.32470E+05         0.00000E+00
    0.32470E+05        -0.19272E+07         0.00000E+00
    0.00000E+00         0.00000E+00        -0.18481E+08
 
   -0.18261E+08         0.44528E+05         0.00000E+00
    0.44528E+05        -0.19268E+07         0.00000E+00
    0.00000E+00         0.00000E+00        -0.18447E+08
 
   -0.18240E+08         0.56650E+05         0.00000E+00
    0.56650E+05        -0.19276E+07         0.00000E+00
    0.00000E+00         0.00000E+00        -0.18412E+08
 
   -0.18218E+08         0.68473E+05         0.00000E+00
    0.68473E+05        -0.19291E+07         0.00000E+00
    0.00000E+00         0.00000E+00        -0.18378E+08
 
   -0.18194E+08         0.79768E+05         0.00000E+00
    0.79768E+05        -0.19311E+07         0.00000E+00
    0.00000E+00         0.00000E+00        -0.18343E+08
 
   -0.18168E+08         0.90404E+05         0.00000E+00
    0.90404E+05        -0.19332E+07         0.00000E+00
    0.00000E+00         0.00000E+00        -0.18308E+08
 
   -0.18142E+08         0.10032E+06         0.00000E+00
    0.10032E+06        -0.19354E+07         0.00000E+00
    0.00000E+00         0.00000E+00        -0.18272E+08
 
   -0.18114E+08         0.10951E+06         0.00000E+00
    0.10951E+06        -0.19376E+07         0.00000E+00
    0.00000E+00         0.00000E+00        -0.18236E+08
 
   -0.18085E+08         0.11798E+06         0.00000E+00
    0.11798E+06        -0.19396E+07         0.00000E+00
    0.00000E+00         0.00000E+00        -0.18199E+08
 
   -0.18055E+08         0.12577E+06         0.00000E+00
    0.12577E+06        -0.19415E+07         0.00000E+00
    0.00000E+00         0.00000E+00        -0.18162E+08
 
   -0.18024E+08         0.13294E+06         0.00000E+00
    0.13294E+06        -0.19431E+07         0.00000E+00
    0.00000E+00         0.00000E+00        -0.18124E+08
 
   -0.17991E+08         0.13953E+06         0.00000E+00
    0.13953E+06        -0.19446E+07         0.00000E+00
    0.00000E+00         0.00000E+00        -0.18085E+08
 
   -0.17958E+08         0.14560E+06         0.00000E+00
    0.14560E+06        -0.19460E+07         0.00000E+00
    0.00000E+00         0.00000E+00        -0.18046E+08
 
   -0.17923E+08         0.15121E+06         0.00000E+00
    0.15121E+06        -0.19472E+07         0.00000E+00
    0.00000E+00         0.00000E+00        -0.18007E+08
 
   -0.17888E+08         0.15640E+06         0.00000E+00
    0.15640E+06        -0.19482E+07         0.00000E+00
    0.00000E+00         0.00000E+00        -0.17967E+08
 
   -0.17851E+08         0.16121E+06         0.00000E+00
    0.16121E+06        -0.19491E+07         0.00000E+00
    0.00000E+00         0.00000E+00        -0.17927E+08
 
   -0.17814E+08         0.16570E+06         0.00000E+00
    0.16570E+06        -0.19499E+07         0.00000E+00
    0.00000E+00         0.00000E+00        -0.17886E+08
 
   -0.17776E+08         0.16990E+06         0.00000E+00
    0.16990E+06        -0.19505E+07         0.00000E+00
    0.00000E+00         0.00000E+00        -0.17844E+08
 
   -0.17737E+08         0.17384E+06         0.00000E+00
    0.17384E+06        -0.19511E+07         0.00000E+00
    0.00000E+00         0.00000E+00        -0.17802E+08
 
   -0.17698E+08         0.17755E+06         0.00000E+00
    0.17755E+06        -0.19517E+07         0.00000E+00
    0.00000E+00         0.00000E+00        -0.17760E+08
 
   -0.17657E+08         0.18106E+06         0.00000E+00
    0.18106E+06        -0.19521E+07         0.00000E+00
    0.00000E+00         0.00000E+00        -0.17717E+08
 
   -0.17616E+08         0.18439E+06         0.00000E+00
    0.18439E+06        -0.19525E+07         0.00000E+00
    0.00000E+00         0.00000E+00        -0.17674E+08
 
   -0.17575E+08         0.18756E+06         0.00000E+00
    0.18756E+06        -0.19529E+07         0.00000E+00
    0.00000E+00         0.00000E+00        -0.17631E+08
 
   -0.17532E+08         0.19058E+06         0.00000E+00
    0.19058E+06        -0.19532E+07         0.00000E+00
    0.00000E+00         0.00000E+00        -0.17586E+08
 
   -0.17489E+08         0.19348E+06         0.00000E+00
    0.19348E+06        -0.19535E+07         0.00000E+00
    0.00000E+00         0.00000E+00        -0.17542E+08
 
   -0.17446E+08         0.19626E+06         0.00000E+00
    0.19626E+06        -0.19538E+07         0.00000E+00
    0.00000E+00         0.00000E+00        -0.17497E+08
 
   -0.17402E+08         0.19893E+06         0.00000E+00
    0.19893E+06        -0.19540E+07         0.00000E+00
    0.00000E+00         0.00000E+00        -0.17452E+08
 
   -0.17357E+08         0.20151E+06         0.00000E+00
    0.20151E+06        -0.19542E+07         0.00000E+00
    0.00000E+00         0.00000E+00        -0.17406E+08
 
   -0.17312E+08         0.20400E+06         0.00000E+00
    0.20400E+06        -0.19544E+07         0.00000E+00
    0.00000E+00         0.00000E+00        -0.17359E+08
 
   -0.17266E+08         0.20642E+06         0.00000E+00
    0.20642E+06        -0.19546E+07         0.00000E+00
    0.00000E+00         0.00000E+00        -0.17313E+08
 
   -0.17220E+08         0.20876E+06         0.00000E+00
    0.20876E+06        -0.19548E+07         0.00000E+00
    0.00000E+00         0.00000E+00        -0.17266E+08
 
   -0.17173E+08         0.21103E+06         0.00000E+00
    0.21103E+06        -0.19549E+07         0.00000E+00
    0.00000E+00         0.00000E+00        -0.17218E+08
 
   -0.17126E+08         0.21325E+06         0.00000E+00
    0.21325E+06        -0.19550E+07         0.00000E+00
    0.00000E+00         0.00000E+00        -0.17170E+08
 
   -0.17078E+08         0.21540E+06         0.00000E+00
    0.21540E+06        -0.19552E+07         0.00000E+00
    0.00000E+00         0.00000E+00        -0.17121E+08
 
   -0.17030E+08         0.21750E+06         0.00000E+00
    0.21750E+06        -0.19553E+07         0.00000E+00
    0.00000E+00         0.00000E+00        -0.17073E+08
 
   -0.16981E+08         0.21954E+06         0.00000E+00
    0.21954E+06        -0.19554E+07         0.00000E+00
    0.00000E+00         0.00000E+00        -0.17023E+08
 
   -0.16932E+08         0.22153E+06         0.00000E+00
    0.22153E+06        -0.19556E+07         0.00000E+00
    0.00000E+00         0.00000E+00        -0.16973E+08
 
   -0.16882E+08         0.22347E+06         0.00000E+00
    0.22347E+06        -0.19557E+07         0.00000E+00
    0.00000E+00         0.00000E+00        -0.16923E+08
 
   -0.16832E+08         0.22536E+06         0.00000E+00
    0.22536E+06        -0.19558E+07         0.00000E+00
    0.00000E+00         0.00000E+00        -0.16873E+08
 
   -0.16782E+08         0.22720E+06         0.00000E+00
    0.22720E+06        -0.19559E+07         0.00000E+00
    0.00000E+00         0.00000E+00        -0.16822E+08
 
   -0.16731E+08         0.22899E+06         0.00000E+00
    0.22899E+06        -0.19560E+07         0.00000E+00
    0.00000E+00         0.00000E+00        -0.16770E+08
 
   -0.16680E+08         0.23073E+06         0.00000E+00
    0.23073E+06        -0.19562E+07         0.00000E+00
    0.00000E+00         0.00000E+00        -0.16718E+08
 
   -0.16628E+08         0.23241E+06         0.00000E+00
    0.23241E+06        -0.19563E+07         0.00000E+00
    0.00000E+00         0.00000E+00        -0.16666E+08
 
   -0.16576E+08         0.23404E+06         0.00000E+00
    0.23404E+06        -0.19564E+07         0.00000E+00
    0.00000E+00         0.00000E+00        -0.16613E+08
 
   -0.16524E+08         0.23562E+06         0.00000E+00
    0.23562E+06        -0.19566E+07         0.00000E+00
    0.00000E+00         0.00000E+00        -0.16560E+08
 
   -0.16471E+08         0.23713E+06         0.00000E+00
    0.23713E+06        -0.19567E+07         0.00000E+00
    0.00000E+00         0.00000E+00        -0.16506E+08
 
   -0.16418E+08         0.23857E+06         0.00000E+00
    0.23857E+06        -0.19569E+07         0.00000E+00
    0.00000E+00         0.00000E+00        -0.16452E+08
 
   -0.16364E+08         0.23995E+06         0.00000E+00
    0.23995E+06        -0.19570E+07         0.00000E+00
    0.00000E+00         0.00000E+00        -0.16397E+08
 
   -0.16311E+08         0.24126E+06         0.00000E+00
    0.24126E+06        -0.19572E+07         0.00000E+00
    0.00000E+00         0.00000E+00        -0.16342E+08
 
   -0.16257E+08         0.24248E+06         0.00000E+00
    0.24248E+06        -0.19574E+07         0.00000E+00
    0.00000E+00         0.00000E+00        -0.16287E+08
 
   -0.16202E+08         0.24363E+06         0.00000E+00
    0.24363E+06        -0.19576E+07         0.00000E+00
    0.00000E+00         0.00000E+00        -0.16231E+08
 
   -0.16147E+08         0.24468E+06         0.00000E+00
    0.24468E+06        -0.19578E+07         0.00000E+00
    0.00000E+00         0.00000E+00        -0.16175E+08
 
   -0.16093E+08         0.24563E+06         0.00000E+00
    0.24563E+06        -0.19581E+07         0.00000E+00
    0.00000E+00         0.00000E+00        -0.16118E+08
 
   -0.16037E+08         0.24648E+06         0.00000E+00
    0.24648E+06        -0.19583E+07         0.00000E+00
    0.00000E+00         0.00000E+00        -0.16061E+08
 
   -0.15982E+08         0.24721E+06         0.00000E+00
    0.24721E+06        -0.19586E+07         0.00000E+00
    0.00000E+00         0.00000E+00        -0.16004E+08
 
   -0.15926E+08         0.24782E+06         0.00000E+00
    0.24782E+06        -0.19589E+07         0.00000E+00
    0.00000E+00         0.00000E+00        -0.15946E+08
 
   -0.15871E+08         0.24829E+06         0.00000E+00
    0.24829E+06        -0.19592E+07         0.00000E+00
    0.00000E+00         0.00000E+00        -0.15888E+08
 
   -0.15815E+08         0.24861E+06         0.00000E+00
    0.24861E+06        -0.19596E+07         0.00000E+00
    0.00000E+00         0.00000E+00        -0.15830E+08
 
   -0.15759E+08         0.24878E+06         0.00000E+00
    0.24878E+06        -0.19599E+07         0.00000E+00
    0.00000E+00         0.00000E+00        -0.15771E+08
 
   -0.15702E+08         0.24878E+06         0.00000E+00
    0.24878E+06        -0.19604E+07         0.00000E+00
    0.00000E+00         0.00000E+00        -0.15712E+08
 
   -0.15646E+08         0.24858E+06         0.00000E+00
    0.24858E+06        -0.19608E+07         0.00000E+00
    0.00000E+00         0.00000E+00        -0.15653E+08
 
   -0.15590E+08         0.24818E+06         0.00000E+00
    0.24818E+06        -0.19613E+07         0.00000E+00
    0.00000E+00         0.00000E+00        -0.15593E+08
 
   -0.15534E+08         0.24756E+06         0.00000E+00
    0.24756E+06        -0.19619E+07         0.00000E+00
    0.00000E+00         0.00000E+00        -0.15533E+08
 
   -0.15478E+08         0.24670E+06         0.00000E+00
    0.24670E+06        -0.19624E+07         0.00000E+00
    0.00000E+00         0.00000E+00        -0.15473E+08
 
   -0.15422E+08         0.24557E+06         0.00000E+00
    0.24557E+06        -0.19631E+07         0.00000E+00
    0.00000E+00         0.00000E+00        -0.15413E+08
 
   -0.15366E+08         0.24415E+06         0.00000E+00
    0.24415E+06        -0.19638E+07         0.00000E+00
    0.00000E+00         0.00000E+00        -0.15353E+08
 
   -0.15311E+08         0.24240E+06         0.00000E+00
    0.24240E+06        -0.19646E+07         0.00000E+00
    0.00000E+00         0.00000E+00        -0.15292E+08
 
   -0.15255E+08         0.24031E+06         0.00000E+00
    0.24031E+06        -0.19655E+07         0.00000E+00
    0.00000E+00         0.00000E+00        -0.15231E+08
 
   -0.15201E+08         0.23783E+06         0.00000E+00
    0.23783E+06        -0.19664E+07         0.00000E+00
    0.00000E+00         0.00000E+00        -0.15170E+08
 
   -0.15146E+08         0.23491E+06         0.00000E+00
    0.23491E+06        -0.19675E+07         0.00000E+00
    0.00000E+00         0.00000E+00        -0.15109E+08
 
   -0.15092E+08         0.23153E+06         0.00000E+00
    0.23153E+06        -0.19687E+07         0.00000E+00
    0.00000E+00         0.00000E+00        -0.15048E+08
 
   -0.15039E+08         0.22761E+06         0.00000E+00
    0.22761E+06        -0.19701E+07         0.00000E+00
    0.00000E+00         0.00000E+00        -0.14987E+08
 
   -0.14986E+08         0.22311E+06         0.00000E+00
    0.22311E+06        -0.19716E+07         0.00000E+00
    0.00000E+00         0.00000E+00        -0.14926E+08
 
   -0.14935E+08         0.21797E+06         0.00000E+00
    0.21797E+06        -0.19733E+07         0.00000E+00
    0.00000E+00         0.00000E+00        -0.14865E+08
 
   -0.14884E+08         0.21210E+06         0.00000E+00
    0.21210E+06        -0.19753E+07         0.00000E+00
    0.00000E+00         0.00000E+00        -0.14804E+08
 
   -0.14834E+08         0.20542E+06         0.00000E+00
    0.20542E+06        -0.19775E+07         0.00000E+00
    0.00000E+00         0.00000E+00        -0.14744E+08
 
   -0.14785E+08         0.19787E+06         0.00000E+00
    0.19787E+06        -0.19800E+07         0.00000E+00
    0.00000E+00         0.00000E+00        -0.14683E+08
 
   -0.14737E+08         0.18933E+06         0.00000E+00
    0.18933E+06        -0.19828E+07         0.00000E+00
    0.00000E+00         0.00000E+00        -0.14623E+08
 
   -0.14691E+08         0.17973E+06         0.00000E+00
    0.17973E+06        -0.19858E+07         0.00000E+00
    0.00000E+00         0.00000E+00        -0.14563E+08
 
   -0.14645E+08         0.16897E+06         0.00000E+00
    0.16897E+06        -0.19892E+07         0.00000E+00
    0.00000E+00         0.00000E+00        -0.14503E+08
 
   -0.14602E+08         0.15697E+06         0.00000E+00
    0.15697E+06        -0.19928E+07         0.00000E+00
    0.00000E+00         0.00000E+00        -0.14444E+08
 
   -0.14560E+08         0.14368E+06         0.00000E+00
    0.14368E+06        -0.19967E+07         0.00000E+00
    0.00000E+00         0.00000E+00        -0.14385E+08
 
   -0.14519E+08         0.12906E+06         0.00000E+00
    0.12906E+06        -0.20006E+07         0.00000E+00
    0.00000E+00         0.00000E+00        -0.14327E+08
 
   -0.14480E+08         0.11314E+06         0.00000E+00
    0.11314E+06        -0.20044E+07         0.00000E+00
    0.00000E+00         0.00000E+00        -0.14269E+08
 
   -0.14443E+08         0.96041E+05         0.00000E+00
    0.96041E+05        -0.20078E+07         0.00000E+00
    0.00000E+00         0.00000E+00        -0.14211E+08
 
   -0.14408E+08         0.77992E+05         0.00000E+00
    0.77992E+05        -0.20105E+07         0.00000E+00
    0.00000E+00         0.00000E+00        -0.14154E+08
 
   -0.14375E+08         0.59396E+05         0.00000E+00
    0.59396E+05        -0.20118E+07         0.00000E+00
    0.00000E+00         0.00000E+00        -0.14096E+08
 
   -0.14343E+08         0.40893E+05         0.00000E+00
    0.40893E+05        -0.20111E+07         0.00000E+00
    0.00000E+00         0.00000E+00        -0.14039E+08
 
   -0.14314E+08         0.23422E+05         0.00000E+00
    0.23422E+05        -0.20074E+07         0.00000E+00
    0.00000E+00         0.00000E+00        -0.13981E+08
 
   -0.14288E+08         0.82713E+04         0.00000E+00
    0.82713E+04        -0.19993E+07         0.00000E+00
    0.00000E+00         0.00000E+00        -0.13922E+08
 
   -0.14264E+08        -0.29923E+04         0.00000E+00
   -0.29923E+04        -0.19849E+07         0.00000E+00
    0.00000E+00         0.00000E+00        -0.13863E+08
 
   -0.14244E+08        -0.88747E+04         0.00000E+00
   -0.88747E+04        -0.19618E+07         0.00000E+00
    0.00000E+00         0.00000E+00        -0.13802E+08
 
   -0.14230E+08        -0.87088E+04         0.00000E+00
   -0.87088E+04        -0.19264E+07         0.00000E+00
    0.00000E+00         0.00000E+00        -0.13739E+08
 
   -0.14222E+08        -0.35565E+04         0.00000E+00
   -0.35565E+04        -0.18755E+07         0.00000E+00
    0.00000E+00         0.00000E+00        -0.13673E+08
 
   -0.18344E+08        -0.18688E+04         0.00000E+00
   -0.18688E+04        -0.20048E+07         0.00000E+00
    0.00000E+00         0.00000E+00        -0.18690E+08
 
   -0.18339E+08        -0.43906E+04         0.00000E+00
   -0.43906E+04        -0.19759E+07         0.00000E+00
    0.00000E+00         0.00000E+00        -0.18652E+08
 
   -0.18331E+08        -0.38391E+04         0.00000E+00
   -0.38391E+04        -0.19562E+07         0.00000E+00
    0.00000E+00         0.00000E+00        -0.18616E+08
 
   -0.18319E+08         0.39358E+03         0.00000E+00
    0.39358E+03        -0.19435E+07         0.00000E+00
    0.00000E+00         0.00000E+00        -0.18581E+08
 
   -0.18305E+08         0.78550E+04         0.00000E+00
    0.78550E+04        -0.19358E+07         0.00000E+00
    0.00000E+00         0.00000E+00        -0.18546E+08
 
   -0.18289E+08         0.17622E+05         0.00000E+00
    0.17622E+05        -0.19315E+07         0.00000E+00
    0.00000E+00         0.00000E+00        -0.18512E+08
 
   -0.18272E+08         0.28761E+05         0.00000E+00
    0.28761E+05        -0.19296E+07         0.00000E+00
    0.00000E+00         0.00000E+00        -0.18479E+08
 
   -0.18253E+08         0.40518E+05         0.00000E+00
    0.40518E+05        -0.19292E+07         0.00000E+00
    0.00000E+00         0.00000E+00        -0.18445E+08
 
   -0.18233E+08         0.52349E+05         0.00000E+00
    0.52349E+05        -0.19300E+07         0.00000E+00
    0.00000E+00         0.00000E+00        -0.18411E+08
 
   -0.18211E+08         0.63889E+05         0.00000E+00
    0.63889E+05        -0.19314E+07         0.00000E+00
    0.00000E+00         0.00000E+00        -0.18377E+08
 
   -0.18188E+08         0.74908E+05         0.00000E+00
    0.74908E+05        -0.19332E+07         0.00000E+00
    0.00000E+00         0.00000E+00        -0.18342E+08
 
   -0.18163E+08         0.85275E+05         0.00000E+00
    0.85275E+05        -0.19352E+07         0.00000E+00
    0.00000E+00         0.00000E+00        -0.18307E+08
 
   -0.18137E+08         0.94932E+05         0.00000E+00
    0.94932E+05        -0.19373E+07         0.00000E+00
    0.00000E+00         0.00000E+00        -0.18271E+08
 
   -0.18110E+08         0.10386E+06         0.00000E+00
    0.10386E+06        -0.19393E+07         0.00000E+00
    0.00000E+00         0.00000E+00        -0.18235E+08
 
   -0.18081E+08         0.11209E+06         0.00000E+00
    0.11209E+06        -0.19412E+07         0.00000E+00
    0.00000E+00         0.00000E+00        -0.18198E+08
 
   -0.18051E+08         0.11965E+06         0.00000E+00
    0.11965E+06        -0.19429E+07         0.00000E+00
    0.00000E+00         0.00000E+00        -0.18161E+08
 
   -0.18020E+08         0.12659E+06         0.00000E+00
    0.12659E+06        -0.19445E+07         0.00000E+00
    0.00000E+00         0.00000E+00        -0.18123E+08
 
   -0.17988E+08         0.13296E+06         0.00000E+00
    0.13296E+06        -0.19459E+07         0.00000E+00
    0.00000E+00         0.00000E+00        -0.18085E+08
 
   -0.17955E+08         0.13882E+06         0.00000E+00
    0.13882E+06        -0.19471E+07         0.00000E+00
    0.00000E+00         0.00000E+00        -0.18046E+08
 
   -0.17920E+08         0.14423E+06         0.00000E+00
    0.14423E+06        -0.19482E+07         0.00000E+00
    0.00000E+00         0.00000E+00        -0.18006E+08
 
   -0.17885E+08         0.14923E+06         0.00000E+00
    0.14923E+06        -0.19492E+07         0.00000E+00
    0.00000E+00         0.00000E+00        -0.17966E+08
 
   -0.17849E+08         0.15387E+06         0.00000E+00
    0.15387E+06        -0.19500E+07         0.00000E+00
    0.00000E+00         0.00000E+00        -0.17926E+08
 
   -0.17812E+08         0.15818E+06         0.00000E+00
    0.15818E+06        -0.19507E+07         0.00000E+00
    0.00000E+00         0.00000E+00        -0.17885E+08
 
   -0.17774E+08         0.16222E+06         0.00000E+00
    0.16222E+06        -0.19513E+07         0.00000E+00
    0.00000E+00         0.00000E+00        -0.17844E+08
 
   -0.17735E+08         0.16600E+06         0.00000E+00
    0.16600E+06        -0.19519E+07         0.00000E+00
    0.00000E+00         0.00000E+00        -0.17802E+08
 
   -0.17695E+08         0.16957E+06         0.00000E+00
    0.16957E+06        -0.19524E+07         0.00000E+00
    0.00000E+00         0.00000E+00        -0.17760E+08
 
   -0.17655E+08         0.17293E+06         0.00000E+00
    0.17293E+06        -0.19528E+07         0.00000E+00
    0.00000E+00         0.00000E+00        -0.17717E+08
 
   -0.17614E+08         0.17612E+06         0.00000E+00
    0.17612E+06        -0.19532E+07         0.00000E+00
    0.00000E+00         0.00000E+00        -0.17674E+08
 
   -0.17573E+08         0.17916E+06         0.00000E+00
    0.17916E+06        -0.19535E+07         0.00000E+00
    0.00000E+00         0.00000E+00        -0.17630E+08
 
   -0.17530E+08         0.18206E+06         0.00000E+00
    0.18206E+06        -0.19538E+07         0.00000E+00
    0.00000E+00         0.00000E+00        -0.17586E+08
 
   -0.17487E+08         0.18483E+06         0.00000E+00
    0.18483E+06        -0.19541E+07         0.00000E+00
    0.00000E+00         0.00000E+00        -0.17541E+08
 
   -0.17444E+08         0.18749E+06         0.00000E+00
    0.18749E+06        -0.19543E+07         0.00000E+00
    0.00000E+00         0.00000E+00        -0.17497E+08
 
   -0.17400E+08         0.19005E+06         0.00000E+00
    0.19005E+06        -0.19545E+07         0.00000E+00
    0.00000E+00         0.00000E+00        -0.17451E+08
 
   -0.17355E+08         0.19252E+06         0.00000E+00
    0.19252E+06        -0.19547E+07         0.00000E+00
    0.00000E+00         0.00000E+00        -0.17405E+08
 
   -0.17310E+08         0.19491E+06         0.00000E+00
    0.19491E+06        -0.19549E+07         0.00000E+00
    0.00000E+00         0.00000E+00        -0.17359E+08
 
   -0.17264E+08         0.19722E+06         0.00000E+00
    0.19722E+06        -0.19551E+07         0.00000E+00
    0.00000E+00         0.00000E+00        -0.17312E+08
 
   -0.17218E+08         0.19946E+06         0.00000E+00
    0.19946E+06        -0.19552E+07         0.00000E+00
    0.00000E+00         0.00000E+00        -0.17265E+08
 
   -0.17171E+08         0.20163E+06         0.00000E+00
    0.20163E+06        -0.19553E+07         0.00000E+00
    0.00000E+00         0.00000E+00        -0.17218E+08
 
   -0.17124E+08         0.20375E+06         0.00000E+00
    0.20375E+06        -0.19555E+07         0.00000E+00
    0.00000E+00         0.00000E+00        -0.17170E+08
 
   -0.17076E+08         0.20580E+06         0.00000E+00
    0.20580E+06        -0.19556E+07         0.00000E+00
    0.00000E+00         0.00000E+00        -0.17121E+08
 
   -0.17028E+08         0.20781E+06         0.00000E+00
    0.20781E+06        -0.19557E+07         0.00000E+00
    0.00000E+00         0.00000E+00        -0.17072E+08
 
   -0.16979E+08         0.20976E+06         0.00000E+00
    0.20976E+06        -0.19558E+07         0.00000E+00
    0.00000E+00         0.00000E+00        -0.17023E+08
 
   -0.16930E+08         0.21166E+06         0.00000E+00
    0.21166E+06        -0.19559E+07         0.00000E+00
    0.00000E+00         0.00000E+00        -0.16973E+08
 
   -0.16881E+08         0.21352E+06         0.00000E+00
    0.21352E+06        -0.19561E+07         0.00000E+00
    0.00000E+00         0.00000E+00        -0.16923E+08
 
   -0.16831E+08         0.21532E+06         0.00000E+00
    0.21532E+06        -0.19562E+07         0.00000E+00
    0.00000E+00         0.00000E+00        -0.16872E+08
 
   -0.16780E+08         0.21708E+06         0.00000E+00
    0.21708E+06        -0.19563E+07         0.00000E+00
    0.00000E+00         0.00000E+00        -0.16821E+08
 
   -0.16730E+08         0.21879E+06         0.00000E+00
    0.21879E+06        -0.19564E+07         0.00000E+00
    0.00000E+00         0.00000E+00        -0.16770E+08
 
   -0.16678E+08         0.22044E+06         0.00000E+00
    0.22044E+06        -0.19565E+07         0.00000E+00
    0.00000E+00         0.00000E+00        -0.16718E+08
 
   -0.16627E+08         0.22205E+06         0.00000E+00
    0.22205E+06        -0.19566E+07         0.00000E+00
    0.00000E+00         0.00000E+00        -0.16665E+08
 
   -0.16575E+08         0.22360E+06         0.00000E+00
    0.22360E+06        -0.19567E+07         0.00000E+00
    0.00000E+00         0.00000E+00        -0.16612E+08
 
   -0.16522E+08         0.22510E+06         0.00000E+00
    0.22510E+06        -0.19569E+07         0.00000E+00
    0.00000E+00         0.00000E+00        -0.16559E+08
 
   -0.16470E+08         0.22654E+06         0.00000E+00
    0.22654E+06        -0.19570E+07         0.00000E+00
    0.00000E+00         0.00000E+00        -0.16506E+08
 
   -0.16417E+08         0.22792E+06         0.00000E+00
    0.22792E+06        -0.19571E+07         0.00000E+00
    0.00000E+00         0.00000E+00        -0.16451E+08
 
   -0.16363E+08         0.22923E+06         0.00000E+00
    0.22923E+06        -0.19573E+07         0.00000E+00
    0.00000E+00         0.00000E+00        -0.16397E+08
 
   -0.16309E+08         0.23047E+06         0.00000E+00
    0.23047E+06        -0.19574E+07         0.00000E+00
    0.00000E+00         0.00000E+00        -0.16342E+08
 
   -0.16255E+08         0.23164E+06         0.00000E+00
    0.23164E+06        -0.19576E+07         0.00000E+00
    0.00000E+00         0.00000E+00        -0.16287E+08
 
   -0.16201E+08         0.23272E+06         0.00000E+00
    0.23272E+06        -0.19578E+07         0.00000E+00
    0.00000E+00         0.00000E+00        -0.16231E+08
 
   -0.16146E+08         0.23372E+06         0.00000E+00
    0.23372E+06        -0.19580E+07         0.00000E+00
    0.00000E+00         0.00000E+00        -0.16175E+08
 
   -0.16091E+08         0.23462E+06         0.00000E+00
    0.23462E+06        -0.19582E+07         0.00000E+00
    0.00000E+00         0.00000E+00        -0.16118E+08
 
   -0.16036E+08         0.23542E+06         0.00000E+00
    0.23542E+06        -0.19585E+07         0.00000E+00
    0.00000E+00         0.00000E+00        -0.16061E+08
 
   -0.15981E+08         0.23611E+06         0.00000E+00
    0.23611E+06        -0.19587E+07         0.00000E+00
    0.00000E+00         0.00000E+00        -0.16004E+08
 
   -0.15925E+08         0.23668E+06         0.00000E+00
    0.23668E+06        -0.19590E+07         0.00000E+00
    0.00000E+00         0.00000E+00        -0.15946E+08
 
   -0.15870E+08         0.23712E+06         0.00000E+00
    0.23712E+06        -0.19593E+07         0.00000E+00
    0.00000E+00         0.00000E+00        -0.15888E+08
 
   -0.15814E+08         0.23742E+06         0.00000E+00
    0.23742E+06        -0.19596E+07         0.00000E+00
    0.00000E+00         0.00000E+00        -0.15830E+08
 
   -0.15758E+08         0.23757E+06         0.00000E+00
    0.23757E+06        -0.19600E+07         0.00000E+00
    0.00000E+00         0.00000E+00        -0.15771E+08
 
   -0.15702E+08         0.23755E+06         0.00000E+00
    0.23755E+06        -0.19603E+07         0.00000E+00
    0.00000E+00         0.00000E+00        -0.15712E+08
 
   -0.15646E+08         0.23736E+06         0.00000E+00
    0.23736E+06        -0.19608E+07         0.00000E+00
    0.00000E+00         0.00000E+00        -0.15653E+08
 
   -0.15590E+08         0.23696E+06         0.00000E+00
    0.23696E+06        -0.19612E+07         0.00000E+00
    0.00000E+00         0.00000E+00        -0.15593E+08
 
   -0.15534E+08         0.23635E+06         0.00000E+00
    0.23635E+06        -0.19617E+07         0.00000E+00
    0.00000E+00         0.00000E+00        -0.15533E+08
 
   -0.15478E+08         0.23551E+06         0.00000E+00
    0.23551E+06        -0.19622E+07         0.00000E+00
    0.00000E+00         0.00000E+00        -0.15473E+08
 
   -0.15422E+08         0.23441E+06         0.00000E+00
    0.23441E+06        -0.19628E+07         0.00000E+00
    0.00000E+00         0.00000E+00        -0.15413E+08
 
   -0.15366E+08         0.23303E+06         0.00000E+00
    0.23303E+06        -0.19635E+07         0.00000E+00
    0.00000E+00         0.00000E+00        -0.15352E+08
 
   -0.15311E+08         0.23135E+06         0.00000E+00
    0.23135E+06        -0.19642E+07         0.00000E+00
    0.00000E+00         0.00000E+00        -0.15292E+08
 
   -0.15256E+08         0.22932E+06         0.00000E+00
    0.22932E+06        -0.19650E+07         0.00000E+00
    0.00000E+00         0.00000E+00        -0.15231E+08
 
   -0.15201E+08         0.22692E+06         0.00000E+00
    0.22692E+06        -0.19659E+07         0.00000E+00
    0.00000E+00         0.00000E+00        -0.15170E+08
 
   -0.15147E+08         0.22410E+06         0.00000E+00
    0.22410E+06        -0.19669E+07         0.00000E+00
    0.00000E+00         0.00000E+00        -0.15109E+08
 
   -0.15093E+08         0.22083E+06         0.00000E+00
    0.22083E+06        -0.19680E+07         0.00000E+00
    0.00000E+00         0.00000E+00        -0.15048E+08
 
   -0.15040E+08         0.21705E+06         0.00000E+00
    0.21705E+06        -0.19693E+07         0.00000E+00
    0.00000E+00         0.00000E+00        -0.14987E+08
 
   -0.14988E+08         0.21270E+06         0.00000E+00
    0.21270E+06        -0.19707E+07         0.00000E+00
    0.00000E+00         0.00000E+00        -0.14926E+08
 
   -0.14937E+08         0.20772E+06         0.00000E+00
    0.20772E+06        -0.19723E+07         0.00000E+00
    0.00000E+00         0.00000E+00        -0.14865E+08
 
   -0.14886E+08         0.20204E+06         0.00000E+00
    0.20204E+06        -0.19741E+07         0.00000E+00
    0.00000E+00         0.00000E+00        -0.14805E+08
 
   -0.14836E+08         0.19557E+06         0.00000E+00
    0.19557E+06        -0.19761E+07         0.00000E+00
    0.00000E+00         0.00000E+00        -0.14744E+08
 
   -0.14788E+08         0.18824E+06         0.00000E+00
    0.18824E+06        -0.19784E+07         0.00000E+00
    0.00000E+00         0.00000E+00        -0.14684E+08
 
   -0.14741E+08         0.17996E+06         0.00000E+00
    0.17996E+06        -0.19810E+07         0.00000E+00
    0.00000E+00         0.00000E+00        -0.14623E+08
 
   -0.14695E+08         0.17063E+06         0.00000E+00
    0.17063E+06        -0.19838E+07         0.00000E+00
    0.00000E+00         0.00000E+00        -0.14564E+08
 
   -0.14650E+08         0.16015E+06         0.00000E+00
    0.16015E+06        -0.19869E+07         0.00000E+00
    0.00000E+00         0.00000E+00        -0.14504E+08
 
   -0.14607E+08         0.14846E+06         0.00000E+00
    0.14846E+06        -0.19903E+07         0.00000E+00
    0.00000E+00         0.00000E+00        -0.14445E+08
 
   -0.14566E+08         0.13549E+06         0.00000E+00
    0.13549E+06        -0.19939E+07         0.00000E+00
    0.00000E+00         0.00000E+00        -0.14387E+08
 
   -0.14527E+08         0.12121E+06         0.00000E+00
    0.12121E+06        -0.19976E+07         0.00000E+00
    0.00000E+00         0.00000E+00        -0.14328E+08
 
   -0.14489E+08         0.10566E+06         0.00000E+00
    0.10566E+06        -0.20011E+07         0.00000E+00
    0.00000E+00         0.00000E+00        -0.14271E+08
 
   -0.14453E+08         0.88933E+05         0.00000E+00
    0.88933E+05        -0.20043E+07         0.00000E+00
    0.00000E+00         0.00000E+00        -0.14213E+08
 
   -0.14419E+08         0.71276E+05         0.00000E+00
    0.71276E+05        -0.20068E+07         0.00000E+00
    0.00000E+00         0.00000E+00        -0.14156E+08
 
   -0.14387E+08         0.53089E+05         0.00000E+00
    0.53089E+05        -0.20081E+07         0.00000E+00
    0.00000E+00         0.00000E+00        -0.14099E+08
 
   -0.14358E+08         0.35014E+05         0.00000E+00
    0.35014E+05        -0.20075E+07         0.00000E+00
    0.00000E+00         0.00000E+00        -0.14042E+08
 
   -0.14330E+08         0.17999E+05         0.00000E+00
    0.17999E+05        -0.20041E+07         0.00000E+00
    0.00000E+00         0.00000E+00        -0.13985E+08
 
   -0.14305E+08         0.33550E+04         0.00000E+00
    0.33550E+04        -0.19966E+07         0.00000E+00
    0.00000E+00         0.00000E+00        -0.13927E+08
 
   -0.14283E+08        -0.72951E+04         0.00000E+00
   -0.72951E+04        -0.19833E+07         0.00000E+00
    0.00000E+00         0.00000E+00        -0.13868E+08
 
   -0.14263E+08        -0.12351E+05         0.00000E+00
   -0.12351E+05        -0.19613E+07         0.00000E+00
    0.00000E+00         0.00000E+00        -0.13808E+08
 
   -0.14249E+08        -0.11029E+05         0.00000E+00
   -0.11029E+05        -0.19272E+07         0.00000E+00
    0.00000E+00         0.00000E+00        -0.13745E+08
 
   -0.14241E+08        -0.43800E+04         0.00000E+00
   -0.43800E+04        -0.18771E+07         0.00000E+00
    0.00000E+00         0.00000E+00        -0.13679E+08
 
   -0.18332E+08        -0.23624E+04         0.00000E+00
   -0.23624E+04        -0.20040E+07         0.00000E+00
    0.00000E+00         0.00000E+00        -0.18686E+08
 
   -0.18327E+08        -0.57733E+04         0.00000E+00
   -0.57733E+04        -0.19755E+07         0.00000E+00
    0.00000E+00         0.00000E+00        -0.18649E+08
 
   -0.18319E+08        -0.58944E+04         0.00000E+00
   -0.58944E+04        -0.19566E+07         0.00000E+00
    0.00000E+00         0.00000E+00        -0.18613E+08
 
   -0.18308E+08        -0.21387E+04         0.00000E+00
   -0.21387E+04        -0.19447E+07         0.00000E+00
    0.00000E+00         0.00000E+00        -0.18578E+08
 
   -0.18294E+08         0.49561E+04         0.00000E+00
    0.49561E+04        -0.19376E+07         0.00000E+00
    0.00000E+00         0.00000E+00        -0.18544E+08
 
   -0.18279E+08         0.14400E+05         0.00000E+00
    0.14400E+05        -0.19336E+07         0.00000E+00
    0.00000E+00         0.00000E+00        -0.18510E+08
 
   -0.18263E+08         0.25227E+05         0.00000E+00
    0.25227E+05        -0.19319E+07         0.00000E+00
    0.00000E+00         0.00000E+00        -0.18477E+08
 
   -0.18245E+08         0.36676E+05         0.00000E+00
    0.36676E+05        -0.19316E+07         0.00000E+00
    0.00000E+00         0.00000E+00        -0.18443E+08
 
   -0.18225E+08         0.48204E+05         0.00000E+00
    0.48204E+05        -0.19323E+07         0.00000E+00
    0.00000E+00         0.00000E+00        -0.18409E+08
 
   -0.18204E+08         0.59445E+05         0.00000E+00
    0.59445E+05        -0.19336E+07         0.00000E+00
    0.00000E+00         0.00000E+00        -0.18375E+08
 
   -0.18182E+08         0.70172E+05         0.00000E+00
    0.70172E+05        -0.19353E+07         0.00000E+00
    0.00000E+00         0.00000E+00        -0.18341E+08
 
   -0.18158E+08         0.80256E+05         0.00000E+00
    0.80256E+05        -0.19372E+07         0.00000E+00
    0.00000E+00         0.00000E+00        -0.18306E+08
 
   -0.18132E+08         0.89637E+05         0.00000E+00
    0.89637E+05        -0.19391E+07         0.00000E+00
    0.00000E+00         0.00000E+00        -0.18270E+08
 
   -0.18105E+08         0.98303E+05         0.00000E+00
    0.98303E+05        -0.19410E+07         0.00000E+00
    0.00000E+00         0.00000E+00        -0.18234E+08
 
   -0.18077E+08         0.10627E+06         0.00000E+00
    0.10627E+06        -0.19427E+07         0.00000E+00
    0.00000E+00         0.00000E+00        -0.18197E+08
 
   -0.18047E+08         0.11358E+06         0.00000E+00
    0.11358E+06        -0.19444E+07         0.00000E+00
    0.00000E+00         0.00000E+00        -0.18160E+08
 
   -0.18017E+08         0.12029E+06         0.00000E+00
    0.12029E+06        -0.19458E+07         0.00000E+00
    0.00000E+00         0.00000E+00        -0.18122E+08
 
   -0.17985E+08         0.12644E+06         0.00000E+00
    0.12644E+06        -0.19471E+07         0.00000E+00
    0.00000E+00         0.00000E+00        -0.18084E+08
 
   -0.17952E+08         0.13209E+06         0.00000E+00
    0.13209E+06        -0.19482E+07         0.00000E+00
    0.00000E+00         0.00000E+00        -0.18045E+08
 
   -0.17918E+08         0.13729E+06         0.00000E+00
    0.13729E+06        -0.19492E+07         0.00000E+00
    0.00000E+00         0.00000E+00        -0.18006E+08
 
   -0.17882E+08         0.14209E+06         0.00000E+00
    0.14209E+06        -0.19501E+07         0.00000E+00
    0.00000E+00         0.00000E+00        -0.17966E+08
 
   -0.17846E+08         0.14655E+06         0.00000E+00
    0.14655E+06        -0.19509E+07         0.00000E+00
    0.00000E+00         0.00000E+00        -0.17926E+08
 
   -0.17809E+08         0.15069E+06         0.00000E+00
    0.15069E+06        -0.19515E+07         0.00000E+00
    0.00000E+00         0.00000E+00        -0.17885E+08
 
   -0.17771E+08         0.15456E+06         0.00000E+00
    0.15456E+06        -0.19521E+07         0.00000E+00
    0.00000E+00         0.00000E+00        -0.17843E+08
 
   -0.17733E+08         0.15818E+06         0.00000E+00
    0.15818E+06        -0.19526E+07         0.00000E+00
    0.00000E+00         0.00000E+00        -0.17802E+08
 
   -0.17693E+08         0.16159E+06         0.00000E+00
    0.16159E+06        -0.19531E+07         0.00000E+00
    0.00000E+00         0.00000E+00        -0.17759E+08
 
   -0.17653E+08         0.16481E+06         0.00000E+00
    0.16481E+06        -0.19534E+07         0.00000E+00
    0.00000E+00         0.00000E+00        -0.17717E+08
 
   -0.17612E+08         0.16787E+06         0.00000E+00
    0.16787E+06        -0.19538E+07         0.00000E+00
    0.00000E+00         0.00000E+00        -0.17673E+08
 
   -0.17571E+08         0.17077E+06         0.00000E+00
    0.17077E+06        -0.19541E+07         0.00000E+00
    0.00000E+00         0.00000E+00        -0.17630E+08
 
   -0.17528E+08         0.17354E+06         0.00000E+00
    0.17354E+06        -0.19544E+07         0.00000E+00
    0.00000E+00         0.00000E+00        -0.17586E+08
 
   -0.17485E+08         0.17619E+06         0.00000E+00
    0.17619E+06        -0.19546E+07         0.00000E+00
    0.00000E+00         0.00000E+00        -0.17541E+08
 
   -0.17442E+08         0.17873E+06         0.00000E+00
    0.17873E+06        -0.19548E+07         0.00000E+00
    0.00000E+00         0.00000E+00        -0.17496E+08
 
   -0.17398E+08         0.18118E+06         0.00000E+00
    0.18118E+06        -0.19550E+07         0.00000E+00
    0.00000E+00         0.00000E+00        -0.17451E+08
 
   -0.17353E+08         0.18354E+06         0.00000E+00
    0.18354E+06        -0.19552E+07         0.00000E+00
    0.00000E+00         0.00000E+00        -0.17405E+08
 
   -0.17308E+08         0.18582E+06         0.00000E+00
    0.18582E+06        -0.19553E+07         0.00000E+00
    0.00000E+00         0.00000E+00        -0.17359E+08
 
   -0.17262E+08         0.18802E+06         0.00000E+00
    0.18802E+06        -0.19555E+07         0.00000E+00
    0.00000E+00         0.00000E+00        -0.17312E+08
 
   -0.17216E+08         0.19016E+06         0.00000E+00
    0.19016E+06        -0.19556E+07         0.00000E+00
    0.00000E+00         0.00000E+00        -0.17265E+08
 
   -0.17169E+08         0.19223E+06         0.00000E+00
    0.19223E+06        -0.19558E+07         0.00000E+00
    0.00000E+00         0.00000E+00        -0.17217E+08
 
   -0.17122E+08         0.19425E+06         0.00000E+00
    0.19425E+06        -0.19559E+07         0.00000E+00
    0.00000E+00         0.00000E+00        -0.17169E+08
 
   -0.17075E+08         0.19621E+06         0.00000E+00
    0.19621E+06        -0.19560E+07         0.00000E+00
    0.00000E+00         0.00000E+00        -0.17121E+08
 
   -0.17026E+08         0.19813E+06         0.00000E+00
    0.19813E+06        -0.19561E+07         0.00000E+00
    0.00000E+00         0.00000E+00        -0.17072E+08
 
   -0.16978E+08         0.19999E+06         0.00000E+00
    0.19999E+06        -0.19562E+07         0.00000E+00
    0.00000E+00         0.00000E+00        -0.17023E+08
 
   -0.16929E+08         0.20180E+06         0.00000E+00
    0.20180E+06        -0.19563E+07         0.00000E+00
    0.00000E+00         0.00000E+00        -0.16973E+08
 
   -0.16879E+08         0.20357E+06         0.00000E+00
    0.20357E+06        -0.19564E+07         0.00000E+00
    0.00000E+00         0.00000E+00        -0.16923E+08
 
   -0.16829E+08         0.20528E+06         0.00000E+00
    0.20528E+06        -0.19565E+07         0.00000E+00
    0.00000E+00         0.00000E+00        -0.16872E+08
 
   -0.16779E+08         0.20696E+06         0.00000E+00
    0.20696E+06        -0.19566E+07         0.00000E+00
    0.00000E+00         0.00000E+00        -0.16821E+08
 
   -0.16728E+08         0.20858E+06         0.00000E+00
    0.20858E+06        -0.19567E+07         0.00000E+00
    0.00000E+00         0.00000E+00        -0.16769E+08
 
   -0.16677E+08         0.21016E+06         0.00000E+00
    0.21016E+06        -0.19568E+07         0.00000E+00
    0.00000E+00         0.00000E+00        -0.16717E+08
 
   -0.16625E+08         0.21169E+06         0.00000E+00
    0.21169E+06        -0.19569E+07         0.00000E+00
    0.00000E+00         0.00000E+00        -0.16665E+08
 
   -0.16573E+08         0.21317E+06         0.00000E+00
    0.21317E+06        -0.19570E+07         0.00000E+00
    0.00000E+00         0.00000E+00        -0.16612E+08
 
   -0.16521E+08         0.21459E+06         0.00000E+00
    0.21459E+06        -0.19571E+07         0.00000E+00
    0.00000E+00         0.00000E+00        -0.16559E+08
 
   -0.16468E+08         0.21596E+06         0.00000E+00
    0.21596E+06        -0.19573E+07         0.00000E+00
    0.00000E+00         0.00000E+00        -0.16505E+08
 
   -0.16415E+08         0.21727E+06         0.00000E+00
    0.21727E+06        -0.19574E+07         0.00000E+00
    0.00000E+00         0.00000E+00        -0.16451E+08
 
   -0.16362E+08         0.21852E+06         0.00000E+00
    0.21852E+06        -0.19575E+07         0.00000E+00
    0.00000E+00         0.00000E+00        -0.16397E+08
 
   -0.16308E+08         0.21969E+06         0.00000E+00
    0.21969E+06        -0.19577E+07         0.00000E+00
    0.00000E+00         0.00000E+00        -0.16342E+08
 
   -0.16254E+08         0.22080E+06         0.00000E+00
    0.22080E+06        -0.19578E+07         0.00000E+00
    0.00000E+00         0.00000E+00        -0.16286E+08
 
   -0.16200E+08         0.22183E+06         0.00000E+00
    0.22183E+06        -0.19580E+07         0.00000E+00
    0.00000E+00         0.00000E+00        -0.16230E+08
 
   -0.16145E+08         0.22277E+06         0.00000E+00
    0.22277E+06        -0.19582E+07         0.00000E+00
    0.00000E+00         0.00000E+00        -0.16174E+08
 
   -0.16090E+08         0.22362E+06         0.00000E+00
    0.22362E+06        -0.19584E+07         0.00000E+00
    0.00000E+00         0.00000E+00        -0.16118E+08
 
   -0.16035E+08         0.22438E+06         0.00000E+00
    0.22438E+06        -0.19586E+07         0.00000E+00
    0.00000E+00         0.00000E+00        -0.16061E+08
 
   -0.15980E+08         0.22503E+06         0.00000E+00
    0.22503E+06        -0.19588E+07         0.00000E+00
    0.00000E+00         0.00000E+00        -0.16004E+08
 
   -0.15924E+08         0.22556E+06         0.00000E+00
    0.22556E+06        -0.19591E+07         0.00000E+00
    0.00000E+00         0.00000E+00        -0.15946E+08
 
   -0.15869E+08         0.22597E+06         0.00000E+00
    0.22597E+06        -0.19594E+07         0.00000E+00
    0.00000E+00         0.00000E+00        -0.15888E+08
 
   -0.15813E+08         0.22625E+06         0.00000E+00
    0.22625E+06        -0.19597E+07         0.00000E+00
    0.00000E+00         0.00000E+00        -0.15830E+08
 
   -0.15757E+08         0.22638E+06         0.00000E+00
    0.22638E+06        -0.19600E+07         0.00000E+00
    0.00000E+00         0.00000E+00        -0.15771E+08
 
   -0.15701E+08         0.22635E+06         0.00000E+00
    0.22635E+06        -0.19603E+07         0.00000E+00
    0.00000E+00         0.00000E+00        -0.15712E+08
 
   -0.15645E+08         0.22615E+06         0.00000E+00
    0.22615E+06        -0.19607E+07         0.00000E+00
    0.00000E+00         0.00000E+00        -0.15653E+08
 
   -0.15589E+08         0.22576E+06         0.00000E+00
    0.22576E+06        -0.19611E+07         0.00000E+00
    0.00000E+00         0.00000E+00        -0.15593E+08
 
   -0.15533E+08         0.22517E+06         0.00000E+00
    0.22517E+06        -0.19616E+07         0.00000E+00
    0.00000E+00         0.00000E+00        -0.15533E+08
 
   -0.15478E+08         0.22435E+06         0.00000E+00
    0.22435E+06        -0.19621E+07         0.00000E+00
    0.00000E+00         0.00000E+00        -0.15473E+08
 
   -0.15422E+08         0.22328E+06         0.00000E+00
    0.22328E+06        -0.19626E+07         0.00000E+00
    0.00000E+00         0.00000E+00        -0.15413E+08
 
   -0.15366E+08         0.22195E+06         0.00000E+00
    0.22195E+06        -0.19632E+07         0.00000E+00
    0.00000E+00         0.00000E+00        -0.15352E+08
 
   -0.15311E+08         0.22032E+06         0.00000E+00
    0.22032E+06        -0.19638E+07         0.00000E+00
    0.00000E+00         0.00000E+00        -0.15292E+08
 
   -0.15256E+08         0.21837E+06         0.00000E+00
    0.21837E+06        -0.19646E+07         0.00000E+00
    0.00000E+00         0.00000E+00        -0.15231E+08
 
   -0.15202E+08         0.21605E+06         0.00000E+00
    0.21605E+06        -0.19654E+07         0.00000E+00
    0.00000E+00         0.00000E+00        -0.15170E+08
 
   -0.15148E+08         0.21334E+06         0.00000E+00
    0.21334E+06        -0.19663E+07         0.00000E+00
    0.00000E+00         0.00000E+00        -0.15109E+08
 
   -0.15095E+08         0.21019E+06         0.00000E+00
    0.21019E+06        -0.19673E+07         0.00000E+00
    0.00000E+00         0.00000E+00        -0.15048E+08
 
   -0.15042E+08         0.20654E+06         0.00000E+00
    0.20654E+06        -0.19685E+07         0.00000E+00
    0.00000E+00         0.00000E+00        -0.14987E+08
 
   -0.14990E+08         0.20235E+06         0.00000E+00
    0.20235E+06        -0.19698E+07         0.00000E+00
    0.00000E+00         0.00000E+00        -0.14926E+08
 
   -0.14939E+08         0.19754E+06         0.00000E+00
    0.19754E+06        -0.19712E+07         0.00000E+00
    0.00000E+00         0.00000E+00        -0.14866E+08
 
   -0.14888E+08         0.19205E+06         0.00000E+00
    0.19205E+06        -0.19729E+07         0.00000E+00
    0.00000E+00         0.00000E+00        -0.14805E+08
 
   -0.14839E+08         0.18581E+06         0.00000E+00
    0.18581E+06        -0.19748E+07         0.00000E+00
    0.00000E+00         0.00000E+00        -0.14744E+08
 
   -0.14791E+08         0.17872E+06         0.00000E+00
    0.17872E+06        -0.19769E+07         0.00000E+00
    0.00000E+00         0.00000E+00        -0.14684E+08
 
   -0.14744E+08         0.17069E+06         0.00000E+00
    0.17069E+06        -0.19792E+07         0.00000E+00
    0.00000E+00         0.00000E+00        -0.14624E+08
 
   -0.14699E+08         0.16164E+06         0.00000E+00
    0.16164E+06        -0.19819E+07         0.00000E+00
    0.00000E+00         0.00000E+00        -0.14564E+08
 
   -0.14655E+08         0.15147E+06         0.00000E+00
    0.15147E+06        -0.19848E+07         0.00000E+00
    0.00000E+00         0.00000E+00        -0.14505E+08
 
   -0.14613E+08         0.14011E+06         0.00000E+00
    0.14011E+06        -0.19879E+07         0.00000E+00
    0.00000E+00         0.00000E+00        -0.14446E+08
 
   -0.14573E+08         0.12749E+06         0.00000E+00
    0.12749E+06        -0.19912E+07         0.00000E+00
    0.00000E+00         0.00000E+00        -0.14388E+08
 
   -0.14534E+08         0.11358E+06         0.00000E+00
    0.11358E+06        -0.19946E+07         0.00000E+00
    0.00000E+00         0.00000E+00        -0.14330E+08
 
   -0.14497E+08         0.98405E+05         0.00000E+00
    0.98405E+05        -0.19979E+07         0.00000E+00
    0.00000E+00         0.00000E+00        -0.14272E+08
 
   -0.14463E+08         0.82084E+05         0.00000E+00
    0.82084E+05        -0.20009E+07         0.00000E+00
    0.00000E+00         0.00000E+00        -0.14215E+08
 
   -0.14430E+08         0.64844E+05         0.00000E+00
    0.64844E+05        -0.20033E+07         0.00000E+00
    0.00000E+00         0.00000E+00        -0.14158E+08
 
   -0.14400E+08         0.47086E+05         0.00000E+00
    0.47086E+05        -0.20045E+07         0.00000E+00
    0.00000E+00         0.00000E+00        -0.14102E+08
 
   -0.14372E+08         0.29450E+05         0.00000E+00
    0.29450E+05        -0.20040E+07         0.00000E+00
    0.00000E+00         0.00000E+00        -0.14045E+08
 
   -0.14346E+08         0.12884E+05         0.00000E+00
    0.12884E+05        -0.20009E+07         0.00000E+00
    0.00000E+00         0.00000E+00        -0.13988E+08
 
   -0.14322E+08        -0.12877E+04         0.00000E+00
   -0.12877E+04        -0.19941E+07         0.00000E+00
    0.00000E+00         0.00000E+00        -0.13931E+08
 
   -0.14301E+08        -0.11389E+05         0.00000E+00
   -0.11389E+05        -0.19817E+07         0.00000E+00
    0.00000E+00         0.00000E+00        -0.13873E+08
 
   -0.14283E+08        -0.15704E+05         0.00000E+00
   -0.15704E+05        -0.19610E+07         0.00000E+00
    0.00000E+00         0.00000E+00        -0.13813E+08
 
   -0.14269E+08        -0.13300E+05         0.00000E+00
   -0.13300E+05        -0.19282E+07         0.00000E+00
    0.00000E+00         0.00000E+00        -0.13751E+08
 
   -0.14261E+08        -0.51936E+04         0.00000E+00
   -0.51936E+04        -0.18789E+07         0.00000E+00
    0.00000E+00         0.00000E+00        -0.13686E+08
 
   -0.18320E+08        -0.28514E+04         0.00000E+00
   -0.28514E+04        -0.20030E+07         0.00000E+00
    0.00000E+00         0.00000E+00        -0.18682E+08
 
   -0.18315E+08        -0.71285E+04         0.00000E+00
   -0.71285E+04        -0.19750E+07         0.00000E+00
    0.00000E+00         0.00000E+00        -0.18645E+08
 
   -0.18307E+08        -0.78769E+04         0.00000E+00
   -0.78769E+04        -0.19569E+07         0.00000E+00
    0.00000E+00         0.00000E+00        -0.18609E+08
 
   -0.18296E+08        -0.45478E+04         0.00000E+00
   -0.45478E+04        -0.19458E+07         0.00000E+00
    0.00000E+00         0.00000E+00        -0.18575E+08
 
   -0.18284E+08         0.22172E+04         0.00000E+00
    0.22172E+04        -0.19392E+07         0.00000E+00
    0.00000E+00         0.00000E+00        -0.18541E+08
 
   -0.18270E+08         0.11354E+05         0.00000E+00
    0.11354E+05        -0.19357E+07         0.00000E+00
    0.00000E+00         0.00000E+00        -0.18508E+08
 
   -0.18254E+08         0.21872E+05         0.00000E+00
    0.21872E+05        -0.19341E+07         0.00000E+00
    0.00000E+00         0.00000E+00        -0.18475E+08
 
   -0.18237E+08         0.33006E+05         0.00000E+00
    0.33006E+05        -0.19339E+07         0.00000E+00
    0.00000E+00         0.00000E+00        -0.18441E+08
 
   -0.18218E+08         0.44217E+05         0.00000E+00
    0.44217E+05        -0.19346E+07         0.00000E+00
    0.00000E+00         0.00000E+00        -0.18408E+08
 
   -0.18198E+08         0.55144E+05         0.00000E+00
    0.55144E+05        -0.19358E+07         0.00000E+00
    0.00000E+00         0.00000E+00        -0.18374E+08
 
   -0.18176E+08         0.65563E+05         0.00000E+00
    0.65563E+05        -0.19374E+07         0.00000E+00
    0.00000E+00         0.00000E+00        -0.18340E+08
 
   -0.18152E+08         0.75346E+05         0.00000E+00
    0.75346E+05        -0.19391E+07         0.00000E+00
    0.00000E+00         0.00000E+00        -0.18305E+08
 
   -0.18127E+08         0.84437E+05         0.00000E+00
    0.84437E+05        -0.19409E+07         0.00000E+00
    0.00000E+00         0.00000E+00        -0.18269E+08
 
   -0.18101E+08         0.92823E+05         0.00000E+00
    0.92823E+05        -0.19426E+07         0.00000E+00
    0.00000E+00         0.00000E+00        -0.18233E+08
 
   -0.18073E+08         0.10052E+06         0.00000E+00
    0.10052E+06        -0.19442E+07         0.00000E+00
    0.00000E+00         0.00000E+00        -0.18197E+08
 
   -0.18044E+08         0.10758E+06         0.00000E+00
    0.10758E+06        -0.19457E+07         0.00000E+00
    0.00000E+00         0.00000E+00        -0.18159E+08
 
   -0.18013E+08         0.11404E+06         0.00000E+00
    0.11404E+06        -0.19471E+07         0.00000E+00
    0.00000E+00         0.00000E+00        -0.18122E+08
 
   -0.17982E+08         0.11996E+06         0.00000E+00
    0.11996E+06        -0.19482E+07         0.00000E+00
    0.00000E+00         0.00000E+00        -0.18084E+08
 
   -0.17949E+08         0.12538E+06         0.00000E+00
    0.12538E+06        -0.19493E+07         0.00000E+00
    0.00000E+00         0.00000E+00        -0.18045E+08
 
   -0.17915E+08         0.13038E+06         0.00000E+00
    0.13038E+06        -0.19502E+07         0.00000E+00
    0.00000E+00         0.00000E+00        -0.18005E+08
 
   -0.17880E+08         0.13498E+06         0.00000E+00
    0.13498E+06        -0.19510E+07         0.00000E+00
    0.00000E+00         0.00000E+00        -0.17965E+08
 
   -0.17844E+08         0.13925E+06         0.00000E+00
    0.13925E+06        -0.19517E+07         0.00000E+00
    0.00000E+00         0.00000E+00        -0.17925E+08
 
   -0.17807E+08         0.14321E+06         0.00000E+00
    0.14321E+06        -0.19523E+07         0.00000E+00
    0.00000E+00         0.00000E+00        -0.17884E+08
 
   -0.17769E+08         0.14691E+06         0.00000E+00
    0.14691E+06        -0.19528E+07         0.00000E+00
    0.00000E+00         0.00000E+00        -0.17843E+08
 
   -0.17731E+08         0.15037E+06         0.00000E+00
    0.15037E+06        -0.19533E+07         0.00000E+00
    0.00000E+00         0.00000E+00        -0.17801E+08
 
   -0.17691E+08         0.15363E+06         0.00000E+00
    0.15363E+06        -0.19537E+07         0.00000E+00
    0.00000E+00         0.00000E+00        -0.17759E+08
 
   -0.17651E+08         0.15671E+06         0.00000E+00
    0.15671E+06        -0.19541E+07         0.00000E+00
    0.00000E+00         0.00000E+00        -0.17716E+08
 
   -0.17610E+08         0.15962E+06         0.00000E+00
    0.15962E+06        -0.19544E+07         0.00000E+00
    0.00000E+00         0.00000E+00        -0.17673E+08
 
   -0.17569E+08         0.16239E+06         0.00000E+00
    0.16239E+06        -0.19546E+07         0.00000E+00
    0.00000E+00         0.00000E+00        -0.17629E+08
 
   -0.17526E+08         0.16503E+06         0.00000E+00
    0.16503E+06        -0.19549E+07         0.00000E+00
    0.00000E+00         0.00000E+00        -0.17585E+08
 
   -0.17484E+08         0.16756E+06         0.00000E+00
    0.16756E+06        -0.19551E+07         0.00000E+00
    0.00000E+00         0.00000E+00        -0.17541E+08
 
   -0.17440E+08         0.16998E+06         0.00000E+00
    0.16998E+06        -0.19553E+07         0.00000E+00
    0.00000E+00         0.00000E+00        -0.17496E+08
 
   -0.17396E+08         0.17231E+06         0.00000E+00
    0.17231E+06        -0.19555E+07         0.00000E+00
    0.00000E+00         0.00000E+00        -0.17450E+08
 
   -0.17352E+08         0.17456E+06         0.00000E+00
    0.17456E+06        -0.19556E+07         0.00000E+00
    0.00000E+00         0.00000E+00        -0.17405E+08
 
   -0.17306E+08         0.17673E+06         0.00000E+00
    0.17673E+06        -0.19558E+07         0.00000E+00
    0.00000E+00         0.00000E+00        -0.17358E+08
 
   -0.17261E+08         0.17883E+06         0.00000E+00
    0.17883E+06        -0.19559E+07         0.00000E+00
    0.00000E+00         0.00000E+00        -0.17312E+08
 
   -0.17215E+08         0.18087E+06         0.00000E+00
    0.18087E+06        -0.19560E+07         0.00000E+00
    0.00000E+00         0.00000E+00        -0.17264E+08
 
   -0.17168E+08         0.18284E+06         0.00000E+00
    0.18284E+06        -0.19562E+07         0.00000E+00
    0.00000E+00         0.00000E+00        -0.17217E+08
 
   -0.17121E+08         0.18476E+06         0.00000E+00
    0.18476E+06        -0.19563E+07         0.00000E+00
    0.00000E+00         0.00000E+00        -0.17169E+08
 
   -0.17073E+08         0.18663E+06         0.00000E+00
    0.18663E+06        -0.19564E+07         0.00000E+00
    0.00000E+00         0.00000E+00        -0.17120E+08
 
   -0.17025E+08         0.18845E+06         0.00000E+00
    0.18845E+06        -0.19565E+07         0.00000E+00
    0.00000E+00         0.00000E+00        -0.17071E+08
 
   -0.16976E+08         0.19022E+06         0.00000E+00
    0.19022E+06        -0.19566E+07         0.00000E+00
    0.00000E+00         0.00000E+00        -0.17022E+08
 
   -0.16927E+08         0.19194E+06         0.00000E+00
    0.19194E+06        -0.19567E+07         0.00000E+00
    0.00000E+00         0.00000E+00        -0.16972E+08
 
   -0.16878E+08         0.19362E+06         0.00000E+00
    0.19362E+06        -0.19567E+07         0.00000E+00
    0.00000E+00         0.00000E+00        -0.16922E+08
 
   -0.16828E+08         0.19525E+06         0.00000E+00
    0.19525E+06        -0.19568E+07         0.00000E+00
    0.00000E+00         0.00000E+00        -0.16872E+08
 
   -0.16777E+08         0.19684E+06         0.00000E+00
    0.19684E+06        -0.19569E+07         0.00000E+00
    0.00000E+00         0.00000E+00        -0.16820E+08
 
   -0.16726E+08         0.19839E+06         0.00000E+00
    0.19839E+06        -0.19570E+07         0.00000E+00
    0.00000E+00         0.00000E+00        -0.16769E+08
 
   -0.16675E+08         0.19988E+06         0.00000E+00
    0.19988E+06        -0.19571E+07         0.00000E+00
    0.00000E+00         0.00000E+00        -0.16717E+08
 
   -0.16624E+08         0.20134E+06         0.00000E+00
    0.20134E+06        -0.19572E+07         0.00000E+00
    0.00000E+00         0.00000E+00        -0.16665E+08
 
   -0.16572E+08         0.20274E+06         0.00000E+00
    0.20274E+06        -0.19573E+07         0.00000E+00
    0.00000E+00         0.00000E+00        -0.16612E+08
 
   -0.16519E+08         0.20409E+06         0.00000E+00
    0.20409E+06        -0.19574E+07         0.00000E+00
    0.00000E+00         0.00000E+00        -0.16558E+08
 
   -0.16467E+08         0.20539E+06         0.00000E+00
    0.20539E+06        -0.19575E+07         0.00000E+00
    0.00000E+00         0.00000E+00        -0.16505E+08
 
   -0.16414E+08         0.20663E+06         0.00000E+00
    0.20663E+06        -0.19576E+07         0.00000E+00
    0.00000E+00         0.00000E+00        -0.16451E+08
 
   -0.16360E+08         0.20781E+06         0.00000E+00
    0.20781E+06        -0.19578E+07         0.00000E+00
    0.00000E+00         0.00000E+00        -0.16396E+08
 
   -0.16307E+08         0.20892E+06         0.00000E+00
    0.20892E+06        -0.19579E+07         0.00000E+00
    0.00000E+00         0.00000E+00        -0.16341E+08
 
   -0.16253E+08         0.20997E+06         0.00000E+00
    0.20997E+06        -0.19581E+07         0.00000E+00
    0.00000E+00         0.00000E+00        -0.16286E+08
 
   -0.16198E+08         0.21094E+06         0.00000E+00
    0.21094E+06        -0.19582E+07         0.00000E+00
    0.00000E+00         0.00000E+00        -0.16230E+08
 
   -0.16144E+08         0.21183E+06         0.00000E+00
    0.21183E+06        -0.19584E+07         0.00000E+00
    0.00000E+00         0.00000E+00        -0.16174E+08
 
   -0.16089E+08         0.21264E+06         0.00000E+00
    0.21264E+06        -0.19586E+07         0.00000E+00
    0.00000E+00         0.00000E+00        -0.16117E+08
 
   -0.16034E+08         0.21335E+06         0.00000E+00
    0.21335E+06        -0.19587E+07         0.00000E+00
    0.00000E+00         0.00000E+00        -0.16061E+08
 
   -0.15979E+08         0.21396E+06         0.00000E+00
    0.21396E+06        -0.19590E+07         0.00000E+00
    0.00000E+00         0.00000E+00        -0.16003E+08
 
   -0.15923E+08         0.21446E+06         0.00000E+00
    0.21446E+06        -0.19592E+07         0.00000E+00
    0.00000E+00         0.00000E+00        -0.15946E+08
 
   -0.15868E+08         0.21484E+06         0.00000E+00
    0.21484E+06        -0.19594E+07         0.00000E+00
    0.00000E+00         0.00000E+00        -0.15888E+08
 
   -0.15812E+08         0.21509E+06         0.00000E+00
    0.21509E+06        -0.19597E+07         0.00000E+00
    0.00000E+00         0.00000E+00        -0.15829E+08
 
   -0.15756E+08         0.21521E+06         0.00000E+00
    0.21521E+06        -0.19600E+07         0.00000E+00
    0.00000E+00         0.00000E+00        -0.15771E+08
 
   -0.15701E+08         0.21517E+06         0.00000E+00
    0.21517E+06        -0.19603E+07         0.00000E+00
    0.00000E+00         0.00000E+00        -0.15712E+08
 
   -0.15645E+08         0.21497E+06         0.00000E+00
    0.21497E+06        -0.19606E+07         0.00000E+00
    0.00000E+00         0.00000E+00        -0.15652E+08
 
   -0.15589E+08         0.21458E+06         0.00000E+00
    0.21458E+06        -0.19610E+07         0.00000E+00
    0.00000E+00         0.00000E+00        -0.15593E+08
 
   -0.15533E+08         0.21401E+06         0.00000E+00
    0.21401E+06        -0.19614E+07         0.00000E+00
    0.00000E+00         0.00000E+00        -0.15533E+08
 
   -0.15477E+08         0.21321E+06         0.00000E+00
    0.21321E+06        -0.19619E+07         0.00000E+00
    0.00000E+00         0.00000E+00        -0.15473E+08
 
   -0.15422E+08         0.21219E+06         0.00000E+00
    0.21219E+06        -0.19624E+07         0.00000E+00
    0.00000E+00         0.00000E+00        -0.15413E+08
 
   -0.15367E+08         0.21090E+06         0.00000E+00
    0.21090E+06        -0.19629E+07         0.00000E+00
    0.00000E+00         0.00000E+00        -0.15352E+08
 
   -0.15311E+08         0.20933E+06         0.00000E+00
    0.20933E+06        -0.19635E+07         0.00000E+00
    0.00000E+00         0.00000E+00        -0.15292E+08
 
   -0.15257E+08         0.20745E+06         0.00000E+00
    0.20745E+06        -0.19642E+07         0.00000E+00
    0.00000E+00         0.00000E+00        -0.15231E+08
 
   -0.15203E+08         0.20523E+06         0.00000E+00
    0.20523E+06        -0.19649E+07         0.00000E+00
    0.00000E+00         0.00000E+00        -0.15170E+08
 
   -0.15149E+08         0.20262E+06         0.00000E+00
    0.20262E+06        -0.19657E+07         0.00000E+00
    0.00000E+00         0.00000E+00        -0.15109E+08
 
   -0.15096E+08         0.19959E+06         0.00000E+00
    0.19959E+06        -0.19667E+07         0.00000E+00
    0.00000E+00         0.00000E+00        -0.15048E+08
 
   -0.15043E+08         0.19608E+06         0.00000E+00
    0.19608E+06        -0.19677E+07         0.00000E+00
    0.00000E+00         0.00000E+00        -0.14987E+08
 
   -0.14991E+08         0.19205E+06         0.00000E+00
    0.19205E+06        -0.19689E+07         0.00000E+00
    0.00000E+00         0.00000E+00        -0.14927E+08
 
   -0.14940E+08         0.18743E+06         0.00000E+00
    0.18743E+06        -0.19702E+07         0.00000E+00
    0.00000E+00         0.00000E+00        -0.14866E+08
 
   -0.14891E+08         0.18214E+06         0.00000E+00
    0.18214E+06        -0.19717E+07         0.00000E+00
    0.00000E+00         0.00000E+00        -0.14805E+08
 
   -0.14842E+08         0.17612E+06         0.00000E+00
    0.17612E+06        -0.19734E+07         0.00000E+00
    0.00000E+00         0.00000E+00        -0.14745E+08
 
   -0.14794E+08         0.16928E+06         0.00000E+00
    0.16928E+06        -0.19754E+07         0.00000E+00
    0.00000E+00         0.00000E+00        -0.14685E+08
 
   -0.14748E+08         0.16153E+06         0.00000E+00
    0.16153E+06        -0.19776E+07         0.00000E+00
    0.00000E+00         0.00000E+00        -0.14625E+08
 
   -0.14703E+08         0.15278E+06         0.00000E+00
    0.15278E+06        -0.19800E+07         0.00000E+00
    0.00000E+00         0.00000E+00        -0.14565E+08
 
   -0.14660E+08         0.14293E+06         0.00000E+00
    0.14293E+06        -0.19826E+07         0.00000E+00
    0.00000E+00         0.00000E+00        -0.14506E+08
 
   -0.14618E+08         0.13192E+06         0.00000E+00
    0.13192E+06        -0.19855E+07         0.00000E+00
    0.00000E+00         0.00000E+00        -0.14447E+08
 
   -0.14579E+08         0.11966E+06         0.00000E+00
    0.11966E+06        -0.19886E+07         0.00000E+00
    0.00000E+00         0.00000E+00        -0.14389E+08
 
   -0.14541E+08         0.10615E+06         0.00000E+00
    0.10615E+06        -0.19917E+07         0.00000E+00
    0.00000E+00         0.00000E+00        -0.14331E+08
 
   -0.14506E+08         0.91388E+05         0.00000E+00
    0.91388E+05        -0.19948E+07         0.00000E+00
    0.00000E+00         0.00000E+00        -0.14274E+08
 
   -0.14472E+08         0.75497E+05         0.00000E+00
    0.75497E+05        -0.19976E+07         0.00000E+00
    0.00000E+00         0.00000E+00        -0.14217E+08
 
   -0.14441E+08         0.58700E+05         0.00000E+00
    0.58700E+05        -0.19998E+07         0.00000E+00
    0.00000E+00         0.00000E+00        -0.14160E+08
 
   -0.14412E+08         0.41394E+05         0.00000E+00
    0.41394E+05        -0.20010E+07         0.00000E+00
    0.00000E+00         0.00000E+00        -0.14104E+08
 
   -0.14386E+08         0.24209E+05         0.00000E+00
    0.24209E+05        -0.20006E+07         0.00000E+00
    0.00000E+00         0.00000E+00        -0.14048E+08
 
   -0.14361E+08         0.80861E+04         0.00000E+00
    0.80861E+04        -0.19978E+07         0.00000E+00
    0.00000E+00         0.00000E+00        -0.13992E+08
 
   -0.14339E+08        -0.56450E+04         0.00000E+00
   -0.56450E+04        -0.19916E+07         0.00000E+00
    0.00000E+00         0.00000E+00        -0.13936E+08
 
   -0.14320E+08        -0.15263E+05         0.00000E+00
   -0.15263E+05        -0.19802E+07         0.00000E+00
    0.00000E+00         0.00000E+00        -0.13878E+08
 
   -0.14302E+08        -0.18925E+05         0.00000E+00
   -0.18925E+05        -0.19609E+07         0.00000E+00
    0.00000E+00         0.00000E+00        -0.13819E+08
 
   -0.14289E+08        -0.15520E+05         0.00000E+00
   -0.15520E+05        -0.19295E+07         0.00000E+00
    0.00000E+00         0.00000E+00        -0.13758E+08
 
   -0.14281E+08        -0.59981E+04         0.00000E+00
   -0.59981E+04        -0.18811E+07         0.00000E+00
    0.00000E+00         0.00000E+00        -0.13693E+08
 
   -0.18307E+08        -0.33361E+04         0.00000E+00
   -0.33361E+04        -0.20018E+07         0.00000E+00
    0.00000E+00         0.00000E+00        -0.18678E+08
 
   -0.18303E+08        -0.84548E+04         0.00000E+00
   -0.84548E+04        -0.19744E+07         0.00000E+00
    0.00000E+00         0.00000E+00        -0.18641E+08
 
   -0.18295E+08        -0.97812E+04         0.00000E+00
   -0.97812E+04        -0.19571E+07         0.00000E+00
    0.00000E+00         0.00000E+00        -0.18606E+08
 
   -0.18285E+08        -0.68255E+04         0.00000E+00
   -0.68255E+04        -0.19468E+07         0.00000E+00
    0.00000E+00         0.00000E+00        -0.18571E+08
 
   -0.18273E+08        -0.35366E+03         0.00000E+00
   -0.35366E+03        -0.19408E+07         0.00000E+00
    0.00000E+00         0.00000E+00        -0.18538E+08
 
   -0.18260E+08         0.84932E+04         0.00000E+00
    0.84932E+04        -0.19376E+07         0.00000E+00
    0.00000E+00         0.00000E+00        -0.18505E+08
 
   -0.18245E+08         0.18702E+05         0.00000E+00
    0.18702E+05        -0.19363E+07         0.00000E+00
    0.00000E+00         0.00000E+00        -0.18473E+08
 
   -0.18229E+08         0.29511E+05         0.00000E+00
    0.29511E+05        -0.19361E+07         0.00000E+00
    0.00000E+00         0.00000E+00        -0.18440E+08
 
   -0.18211E+08         0.40390E+05         0.00000E+00
    0.40390E+05        -0.19368E+07         0.00000E+00
    0.00000E+00         0.00000E+00        -0.18406E+08
 
   -0.18192E+08         0.50986E+05         0.00000E+00
    0.50986E+05        -0.19379E+07         0.00000E+00
    0.00000E+00         0.00000E+00        -0.18373E+08
 
   -0.18170E+08         0.61079E+05         0.00000E+00
    0.61079E+05        -0.19394E+07         0.00000E+00
    0.00000E+00         0.00000E+00        -0.18338E+08
 
   -0.18147E+08         0.70546E+05         0.00000E+00
    0.70546E+05        -0.19410E+07         0.00000E+00
    0.00000E+00         0.00000E+00        -0.18304E+08
 
   -0.18123E+08         0.79331E+05         0.00000E+00
    0.79331E+05        -0.19426E+07         0.00000E+00
    0.00000E+00         0.00000E+00        -0.18268E+08
 
   -0.18097E+08         0.87424E+05         0.00000E+00
    0.87424E+05        -0.19442E+07         0.00000E+00
    0.00000E+00         0.00000E+00        -0.18232E+08
 
   -0.18069E+08         0.94846E+05         0.00000E+00
    0.94846E+05        -0.19457E+07         0.00000E+00
    0.00000E+00         0.00000E+00        -0.18196E+08
 
   -0.18040E+08         0.10164E+06         0.00000E+00
    0.10164E+06        -0.19471E+07         0.00000E+00
    0.00000E+00         0.00000E+00        -0.18159E+08
 
   -0.18010E+08         0.10784E+06         0.00000E+00
    0.10784E+06        -0.19483E+07         0.00000E+00
    0.00000E+00         0.00000E+00        -0.18121E+08
 
   -0.17979E+08         0.11352E+06         0.00000E+00
    0.11352E+06        -0.19494E+07         0.00000E+00
    0.00000E+00         0.00000E+00        -0.18083E+08
 
   -0.17946E+08         0.11872E+06         0.00000E+00
    0.11872E+06        -0.19503E+07         0.00000E+00
    0.00000E+00         0.00000E+00        -0.18044E+08
 
   -0.17912E+08         0.12350E+06         0.00000E+00
    0.12350E+06        -0.19511E+07         0.00000E+00
    0.00000E+00         0.00000E+00        -0.18005E+08
 
   -0.17877E+08         0.12790E+06         0.00000E+00
    0.12790E+06        -0.19519E+07         0.00000E+00
    0.00000E+00         0.00000E+00        -0.17965E+08
 
   -0.17841E+08         0.13197E+06         0.00000E+00
    0.13197E+06        -0.19525E+07         0.00000E+00
    0.00000E+00         0.00000E+00        -0.17925E+08
 
   -0.17805E+08         0.13576E+06         0.00000E+00
    0.13576E+06        -0.19531E+07         0.00000E+00
    0.00000E+00         0.00000E+00        -0.17884E+08
 
   -0.17767E+08         0.13928E+06         0.00000E+00
    0.13928E+06        -0.19535E+07         0.00000E+00
    0.00000E+00         0.00000E+00        -0.17842E+08
 
   -0.17729E+08         0.14258E+06         0.00000E+00
    0.14258E+06        -0.19540E+07         0.00000E+00
    0.00000E+00         0.00000E+00        -0.17801E+08
 
   -0.17689E+08         0.14568E+06         0.00000E+00
    0.14568E+06        -0.19543E+07         0.00000E+00
    0.00000E+00         0.00000E+00        -0.17758E+08
 
   -0.17649E+08         0.14861E+06         0.00000E+00
    0.14861E+06        -0.19546E+07         0.00000E+00
    0.00000E+00         0.00000E+00        -0.17716E+08
 
   -0.17608E+08         0.15138E+06         0.00000E+00
    0.15138E+06        -0.19549E+07         0.00000E+00
    0.00000E+00         0.00000E+00        -0.17672E+08
 
   -0.17567E+08         0.15402E+06         0.00000E+00
    0.15402E+06        -0.19552E+07         0.00000E+00
    0.00000E+00         0.00000E+00        -0.17629E+08
 
   -0.17525E+08         0.15653E+06         0.00000E+00
    0.15653E+06        -0.19554E+07         0.00000E+00
    0.00000E+00         0.00000E+00        -0.17585E+08
 
   -0.17482E+08         0.15893E+06         0.00000E+00
    0.15893E+06        -0.19556E+07         0.00000E+00
    0.00000E+00         0.00000E+00        -0.17540E+08
 
   -0.17438E+08         0.16124E+06         0.00000E+00
    0.16124E+06        -0.19558E+07         0.00000E+00
    0.00000E+00         0.00000E+00        -0.17495E+08
 
   -0.17394E+08         0.16345E+06         0.00000E+00
    0.16345E+06        -0.19559E+07         0.00000E+00
    0.00000E+00         0.00000E+00        -0.17450E+08
 
   -0.17350E+08         0.16559E+06         0.00000E+00
    0.16559E+06        -0.19561E+07         0.00000E+00
    0.00000E+00         0.00000E+00        -0.17404E+08
 
   -0.17305E+08         0.16765E+06         0.00000E+00
    0.16765E+06        -0.19562E+07         0.00000E+00
    0.00000E+00         0.00000E+00        -0.17358E+08
 
   -0.17259E+08         0.16964E+06         0.00000E+00
    0.16964E+06        -0.19563E+07         0.00000E+00
    0.00000E+00         0.00000E+00        -0.17311E+08
 
   -0.17213E+08         0.17157E+06         0.00000E+00
    0.17157E+06        -0.19564E+07         0.00000E+00
    0.00000E+00         0.00000E+00        -0.17264E+08
 
   -0.17166E+08         0.17345E+06         0.00000E+00
    0.17345E+06        -0.19565E+07         0.00000E+00
    0.00000E+00         0.00000E+00        -0.17216E+08
 
   -0.17119E+08         0.17527E+06         0.00000E+00
    0.17527E+06        -0.19566E+07         0.00000E+00
    0.00000E+00         0.00000E+00        -0.17168E+08
 
   -0.17071E+08         0.17704E+06         0.00000E+00
    0.17704E+06        -0.19567E+07         0.00000E+00
    0.00000E+00         0.00000E+00        -0.17120E+08
 
   -0.17023E+08         0.17877E+06         0.00000E+00
    0.17877E+06        -0.19568E+07         0.00000E+00
    0.00000E+00         0.00000E+00        -0.17071E+08
 
   -0.16975E+08         0.18045E+06         0.00000E+00
    0.18045E+06        -0.19569E+07         0.00000E+00
    0.00000E+00         0.00000E+00        -0.17022E+08
 
   -0.16926E+08         0.18208E+06         0.00000E+00
    0.18208E+06        -0.19570E+07         0.00000E+00
    0.00000E+00         0.00000E+00        -0.16972E+08
 
   -0.16876E+08         0.18367E+06         0.00000E+00
    0.18367E+06        -0.19571E+07         0.00000E+00
    0.00000E+00         0.00000E+00        -0.16922E+08
 
   -0.16826E+08         0.18522E+06         0.00000E+00
    0.18522E+06        -0.19572E+07         0.00000E+00
    0.00000E+00         0.00000E+00        -0.16871E+08
 
   -0.16776E+08         0.18673E+06         0.00000E+00
    0.18673E+06        -0.19572E+07         0.00000E+00
    0.00000E+00         0.00000E+00        -0.16820E+08
 
   -0.16725E+08         0.18819E+06         0.00000E+00
    0.18819E+06        -0.19573E+07         0.00000E+00
    0.00000E+00         0.00000E+00        -0.16769E+08
 
   -0.16674E+08         0.18961E+06         0.00000E+00
    0.18961E+06        -0.19574E+07         0.00000E+00
    0.00000E+00         0.00000E+00        -0.16717E+08
 
   -0.16622E+08         0.19098E+06         0.00000E+00
    0.19098E+06        -0.19575E+07         0.00000E+00
    0.00000E+00         0.00000E+00        -0.16664E+08
 
   -0.16570E+08         0.19231E+06         0.00000E+00
    0.19231E+06        -0.19576E+07         0.00000E+00
    0.00000E+00         0.00000E+00        -0.16611E+08
 
   -0.16518E+08         0.19359E+06         0.00000E+00
    0.19359E+06        -0.19577E+07         0.00000E+00
    0.00000E+00         0.00000E+00        -0.16558E+08
 
   -0.16465E+08         0.19482E+06         0.00000E+00
    0.19482E+06        -0.19578E+07         0.00000E+00
    0.00000E+00         0.00000E+00        -0.16504E+08
 
   -0.16412E+08         0.19599E+06         0.00000E+00
    0.19599E+06        -0.19579E+07         0.00000E+00
    0.00000E+00         0.00000E+00        -0.16450E+08
 
   -0.16359E+08         0.19711E+06         0.00000E+00
    0.19711E+06        -0.19580E+07         0.00000E+00
    0.00000E+00         0.00000E+00        -0.16396E+08
 
   -0.16305E+08         0.19816E+06         0.00000E+00
    0.19816E+06        -0.19581E+07         0.00000E+00
    0.00000E+00         0.00000E+00        -0.16341E+08
 
   -0.16251E+08         0.19915E+06         0.00000E+00
    0.19915E+06        -0.19582E+07         0.00000E+00
    0.00000E+00         0.00000E+00        -0.16286E+08
 
   -0.16197E+08         0.20006E+06         0.00000E+00
    0.20006E+06        -0.19584E+07         0.00000E+00
    0.00000E+00         0.00000E+00        -0.16230E+08
 
   -0.16143E+08         0.20090E+06         0.00000E+00
    0.20090E+06        -0.19585E+07         0.00000E+00
    0.00000E+00         0.00000E+00        -0.16174E+08
 
   -0.16088E+08         0.20166E+06         0.00000E+00
    0.20166E+06        -0.19587E+07         0.00000E+00
    0.00000E+00         0.00000E+00        -0.16117E+08
 
   -0.16033E+08         0.20233E+06         0.00000E+00
    0.20233E+06        -0.19589E+07         0.00000E+00
    0.00000E+00         0.00000E+00        -0.16060E+08
 
   -0.15978E+08         0.20290E+06         0.00000E+00
    0.20290E+06        -0.19591E+07         0.00000E+00
    0.00000E+00         0.00000E+00        -0.16003E+08
 
   -0.15922E+08         0.20337E+06         0.00000E+00
    0.20337E+06        -0.19593E+07         0.00000E+00
    0.00000E+00         0.00000E+00        -0.15945E+08
 
   -0.15867E+08         0.20372E+06         0.00000E+00
    0.20372E+06        -0.19595E+07         0.00000E+00
    0.00000E+00         0.00000E+00        -0.15887E+08
 
   -0.15811E+08         0.20395E+06         0.00000E+00
    0.20395E+06        -0.19597E+07         0.00000E+00
    0.00000E+00         0.00000E+00        -0.15829E+08
 
   -0.15756E+08         0.20405E+06         0.00000E+00
    0.20405E+06        -0.19600E+07         0.00000E+00
    0.00000E+00         0.00000E+00        -0.15770E+08
 
   -0.15700E+08         0.20401E+06         0.00000E+00
    0.20401E+06        -0.19603E+07         0.00000E+00
    0.00000E+00         0.00000E+00        -0.15711E+08
 
   -0.15644E+08         0.20380E+06         0.00000E+00
    0.20380E+06        -0.19606E+07         0.00000E+00
    0.00000E+00         0.00000E+00        -0.15652E+08
 
   -0.15588E+08         0.20343E+06         0.00000E+00
    0.20343E+06        -0.19609E+07         0.00000E+00
    0.00000E+00         0.00000E+00        -0.15593E+08
 
   -0.15533E+08         0.20287E+06         0.00000E+00
    0.20287E+06        -0.19613E+07         0.00000E+00
    0.00000E+00         0.00000E+00        -0.15533E+08
 
   -0.15477E+08         0.20210E+06         0.00000E+00
    0.20210E+06        -0.19617E+07         0.00000E+00
    0.00000E+00         0.00000E+00        -0.15473E+08
 
   -0.15422E+08         0.20111E+06         0.00000E+00
    0.20111E+06        -0.19621E+07         0.00000E+00
    0.00000E+00         0.00000E+00        -0.15413E+08
 
   -0.15367E+08         0.19988E+06         0.00000E+00
    0.19988E+06        -0.19626E+07         0.00000E+00
    0.00000E+00         0.00000E+00        -0.15352E+08
 
   -0.15312E+08         0.19837E+06         0.00000E+00
    0.19837E+06        -0.19632E+07         0.00000E+00
    0.00000E+00         0.00000E+00        -0.15292E+08
 
   -0.15257E+08         0.19657E+06         0.00000E+00
    0.19657E+06        -0.19638E+07         0.00000E+00
    0.00000E+00         0.00000E+00        -0.15231E+08
 
   -0.15203E+08         0.19444E+06         0.00000E+00
    0.19444E+06        -0.19644E+07         0.00000E+00
    0.00000E+00         0.00000E+00        -0.15170E+08
 
   -0.15149E+08         0.19194E+06         0.00000E+00
    0.19194E+06        -0.19652E+07         0.00000E+00
    0.00000E+00         0.00000E+00        -0.15109E+08
 
   -0.15097E+08         0.18904E+06         0.00000E+00
    0.18904E+06        -0.19660E+07         0.00000E+00
    0.00000E+00         0.00000E+00        -0.15048E+08
 
   -0.15044E+08         0.18568E+06         0.00000E+00
    0.18568E+06        -0.19670E+07         0.00000E+00
    0.00000E+00         0.00000E+00        -0.14988E+08
 
   -0.14993E+08         0.18181E+06         0.00000E+00
    0.18181E+06        -0.19680E+07         0.00000E+00
    0.00000E+00         0.00000E+00        -0.14927E+08
 
   -0.14942E+08         0.17737E+06         0.00000E+00
    0.17737E+06        -0.19692E+07         0.00000E+00
    0.00000E+00         0.00000E+00        -0.14866E+08
 
   -0.14893E+08         0.17230E+06         0.00000E+00
    0.17230E+06        -0.19706E+07         0.00000E+00
    0.00000E+00         0.00000E+00        -0.14805E+08
 
   -0.14844E+08         0.16652E+06         0.00000E+00
    0.16652E+06        -0.19722E+07         0.00000E+00
    0.00000E+00         0.00000E+00        -0.14745E+08
 
   -0.14797E+08         0.15994E+06         0.00000E+00
    0.15994E+06        -0.19740E+07         0.00000E+00
    0.00000E+00         0.00000E+00        -0.14685E+08
 
   -0.14751E+08         0.15247E+06         0.00000E+00
    0.15247E+06        -0.19759E+07         0.00000E+00
    0.00000E+00         0.00000E+00        -0.14625E+08
 
   -0.14707E+08         0.14403E+06         0.00000E+00
    0.14403E+06        -0.19782E+07         0.00000E+00
    0.00000E+00         0.00000E+00        -0.14566E+08
 
   -0.14664E+08         0.13453E+06         0.00000E+00
    0.13453E+06        -0.19806E+07         0.00000E+00
    0.00000E+00         0.00000E+00        -0.14507E+08
 
   -0.14624E+08         0.12388E+06         0.00000E+00
    0.12388E+06        -0.19832E+07         0.00000E+00
    0.00000E+00         0.00000E+00        -0.14448E+08
 
   -0.14585E+08         0.11202E+06         0.00000E+00
    0.11202E+06        -0.19861E+07         0.00000E+00
    0.00000E+00         0.00000E+00        -0.14390E+08
 
   -0.14548E+08         0.98922E+05         0.00000E+00
    0.98922E+05        -0.19889E+07         0.00000E+00
    0.00000E+00         0.00000E+00        -0.14332E+08
 
   -0.14514E+08         0.84605E+05         0.00000E+00
    0.84605E+05        -0.19918E+07         0.00000E+00
    0.00000E+00         0.00000E+00        -0.14275E+08
 
   -0.14482E+08         0.69173E+05         0.00000E+00
    0.69173E+05        -0.19944E+07         0.00000E+00
    0.00000E+00         0.00000E+00        -0.14219E+08
 
   -0.14452E+08         0.52849E+05         0.00000E+00
    0.52849E+05        -0.19964E+07         0.00000E+00
    0.00000E+00         0.00000E+00        -0.14163E+08
 
   -0.14425E+08         0.36018E+05         0.00000E+00
    0.36018E+05        -0.19976E+07         0.00000E+00
    0.00000E+00         0.00000E+00        -0.14107E+08
 
   -0.14400E+08         0.19298E+05         0.00000E+00
    0.19298E+05        -0.19973E+07         0.00000E+00
    0.00000E+00         0.00000E+00        -0.14052E+08
 
   -0.14377E+08         0.36173E+04         0.00000E+00
    0.36173E+04        -0.19948E+07         0.00000E+00
    0.00000E+00         0.00000E+00        -0.13996E+08
 
   -0.14357E+08        -0.97025E+04         0.00000E+00
   -0.97025E+04        -0.19893E+07         0.00000E+00
    0.00000E+00         0.00000E+00        -0.13940E+08
 
   -0.14338E+08        -0.18902E+05         0.00000E+00
   -0.18902E+05        -0.19789E+07         0.00000E+00
    0.00000E+00         0.00000E+00        -0.13883E+08
 
   -0.14322E+08        -0.22005E+05         0.00000E+00
   -0.22005E+05        -0.19609E+07         0.00000E+00
    0.00000E+00         0.00000E+00        -0.13825E+08
 
   -0.14309E+08        -0.17686E+05         0.00000E+00
   -0.17686E+05        -0.19310E+07         0.00000E+00
    0.00000E+00         0.00000E+00        -0.13764E+08
 
   -0.14302E+08        -0.67940E+04         0.00000E+00
   -0.67940E+04        -0.18837E+07         0.00000E+00
    0.00000E+00         0.00000E+00        -0.13699E+08
 
   -0.18295E+08        -0.38167E+04         0.00000E+00
   -0.38167E+04        -0.20004E+07         0.00000E+00
    0.00000E+00         0.00000E+00        -0.18674E+08
 
   -0.18290E+08        -0.97500E+04         0.00000E+00
   -0.97500E+04        -0.19736E+07         0.00000E+00
    0.00000E+00         0.00000E+00        -0.18637E+08
 
   -0.18282E+08        -0.11600E+05         0.00000E+00
   -0.11600E+05        -0.19573E+07         0.00000E+00
    0.00000E+00         0.00000E+00        -0.18602E+08
 
   -0.18273E+08        -0.89612E+04         0.00000E+00
   -0.89612E+04        -0.19478E+07         0.00000E+00
    0.00000E+00         0.00000E+00        -0.18568E+08
 
   -0.18262E+08        -0.27467E+04         0.00000E+00
   -0.27467E+04        -0.19424E+07         0.00000E+00
    0.00000E+00         0.00000E+00        -0.18536E+08
 
   -0.18250E+08         0.58233E+04         0.00000E+00
    0.58233E+04        -0.19396E+07         0.00000E+00
    0.00000E+00         0.00000E+00        -0.18503E+08
 
   -0.18236E+08         0.15721E+05         0.00000E+00
    0.15721E+05        -0.19384E+07         0.00000E+00
    0.00000E+00         0.00000E+00        -0.18471E+08
 
   -0.18221E+08         0.26194E+05         0.00000E+00
    0.26194E+05        -0.19383E+07         0.00000E+00
    0.00000E+00         0.00000E+00        -0.18438E+08
 
   -0.18204E+08         0.36726E+05         0.00000E+00
    0.36726E+05        -0.19389E+07         0.00000E+00
    0.00000E+00         0.00000E+00        -0.18405E+08
 
   -0.18185E+08         0.46973E+05         0.00000E+00
    0.46973E+05        -0.19400E+07         0.00000E+00
    0.00000E+00         0.00000E+00        -0.18371E+08
 
   -0.18165E+08         0.56722E+05         0.00000E+00
    0.56722E+05        -0.19413E+07         0.00000E+00
    0.00000E+00         0.00000E+00        -0.18337E+08
 
   -0.18142E+08         0.65856E+05         0.00000E+00
    0.65856E+05        -0.19428E+07         0.00000E+00
    0.00000E+00         0.00000E+00        -0.18303E+08
 
   -0.18118E+08         0.74319E+05         0.00000E+00
    0.74319E+05        -0.19443E+07         0.00000E+00
    0.00000E+00         0.00000E+00        -0.18268E+08
 
   -0.18093E+08         0.82105E+05         0.00000E+00
    0.82105E+05        -0.19457E+07         0.00000E+00
    0.00000E+00         0.00000E+00        -0.18232E+08
 
   -0.18066E+08         0.89235E+05         0.00000E+00
    0.89235E+05        -0.19471E+07         0.00000E+00
    0.00000E+00         0.00000E+00        -0.18195E+08
 
   -0.18037E+08         0.95747E+05         0.00000E+00
    0.95747E+05        -0.19483E+07         0.00000E+00
    0.00000E+00         0.00000E+00        -0.18158E+08
 
   -0.18007E+08         0.10169E+06         0.00000E+00
    0.10169E+06        -0.19494E+07         0.00000E+00
    0.00000E+00         0.00000E+00        -0.18121E+08
 
   -0.17976E+08         0.10712E+06         0.00000E+00
    0.10712E+06        -0.19504E+07         0.00000E+00
    0.00000E+00         0.00000E+00        -0.18082E+08
 
   -0.17943E+08         0.11209E+06         0.00000E+00
    0.11209E+06        -0.19513E+07         0.00000E+00
    0.00000E+00         0.00000E+00        -0.18044E+08
 
   -0.17910E+08         0.11665E+06         0.00000E+00
    0.11665E+06        -0.19520E+07         0.00000E+00
    0.00000E+00         0.00000E+00        -0.18004E+08
 
   -0.17875E+08         0.12084E+06         0.00000E+00
    0.12084E+06        -0.19527E+07         0.00000E+00
    0.00000E+00         0.00000E+00        -0.17965E+08
 
   -0.17839E+08         0.12472E+06         0.00000E+00
    0.12472E+06        -0.19533E+07         0.00000E+00
    0.00000E+00         0.00000E+00        -0.17924E+08
 
   -0.17802E+08         0.12832E+06         0.00000E+00
    0.12832E+06        -0.19538E+07         0.00000E+00
    0.00000E+00         0.00000E+00        -0.17883E+08
 
   -0.17765E+08         0.13167E+06         0.00000E+00
    0.13167E+06        -0.19542E+07         0.00000E+00
    0.00000E+00         0.00000E+00        -0.17842E+08
 
   -0.17726E+08         0.13480E+06         0.00000E+00
    0.13480E+06        -0.19546E+07         0.00000E+00
    0.00000E+00         0.00000E+00        -0.17800E+08
 
   -0.17687E+08         0.13775E+06         0.00000E+00
    0.13775E+06        -0.19549E+07         0.00000E+00
    0.00000E+00         0.00000E+00        -0.17758E+08
 
   -0.17647E+08         0.14053E+06         0.00000E+00
    0.14053E+06        -0.19552E+07         0.00000E+00
    0.00000E+00         0.00000E+00        -0.17715E+08
 
   -0.17606E+08         0.14316E+06         0.00000E+00
    0.14316E+06        -0.19554E+07         0.00000E+00
    0.00000E+00         0.00000E+00        -0.17672E+08
 
   -0.17565E+08         0.14566E+06         0.00000E+00
    0.14566E+06        -0.19557E+07         0.00000E+00
    0.00000E+00         0.00000E+00        -0.17628E+08
 
   -0.17523E+08         0.14804E+06         0.00000E+00
    0.14804E+06        -0.19559E+07         0.00000E+00
    0.00000E+00         0.00000E+00        -0.17584E+08
 
   -0.17480E+08         0.15031E+06         0.00000E+00
    0.15031E+06        -0.19560E+07         0.00000E+00
    0.00000E+00         0.00000E+00        -0.17540E+08
 
   -0.17437E+08         0.15250E+06         0.00000E+00
    0.15250E+06        -0.19562E+07         0.00000E+00
    0.00000E+00         0.00000E+00        -0.17495E+08
 
   -0.17393E+08         0.15460E+06         0.00000E+00
    0.15460E+06        -0.19563E+07         0.00000E+00
    0.00000E+00         0.00000E+00        -0.17450E+08
 
   -0.17348E+08         0.15662E+06         0.00000E+00
    0.15662E+06        -0.19565E+07         0.00000E+00
    0.00000E+00         0.00000E+00        -0.17404E+08
 
   -0.17303E+08         0.15857E+06         0.00000E+00
    0.15857E+06        -0.19566E+07         0.00000E+00
    0.00000E+00         0.00000E+00        -0.17357E+08
 
   -0.17257E+08         0.16046E+06         0.00000E+00
    0.16046E+06        -0.19567E+07         0.00000E+00
    0.00000E+00         0.00000E+00        -0.17311E+08
 
   -0.17211E+08         0.16229E+06         0.00000E+00
    0.16229E+06        -0.19568E+07         0.00000E+00
    0.00000E+00         0.00000E+00        -0.17264E+08
 
   -0.17165E+08         0.16406E+06         0.00000E+00
    0.16406E+06        -0.19569E+07         0.00000E+00
    0.00000E+00         0.00000E+00        -0.17216E+08
 
   -0.17117E+08         0.16579E+06         0.00000E+00
    0.16579E+06        -0.19570E+07         0.00000E+00
    0.00000E+00         0.00000E+00        -0.17168E+08
 
   -0.17070E+08         0.16746E+06         0.00000E+00
    0.16746E+06        -0.19571E+07         0.00000E+00
    0.00000E+00         0.00000E+00        -0.17120E+08
 
   -0.17022E+08         0.16909E+06         0.00000E+00
    0.16909E+06        -0.19572E+07         0.00000E+00
    0.00000E+00         0.00000E+00        -0.17071E+08
 
   -0.16973E+08         0.17068E+06         0.00000E+00
    0.17068E+06        -0.19572E+07         0.00000E+00
    0.00000E+00         0.00000E+00        -0.17021E+08
 
   -0.16924E+08         0.17223E+06         0.00000E+00
    0.17223E+06        -0.19573E+07         0.00000E+00
    0.00000E+00         0.00000E+00        -0.16972E+08
 
   -0.16874E+08         0.17373E+06         0.00000E+00
    0.17373E+06        -0.19574E+07         0.00000E+00
    0.00000E+00         0.00000E+00        -0.16921E+08
 
   -0.16825E+08         0.17520E+06         0.00000E+00
    0.17520E+06        -0.19574E+07         0.00000E+00
    0.00000E+00         0.00000E+00        -0.16871E+08
 
   -0.16774E+08         0.17662E+06         0.00000E+00
    0.17662E+06        -0.19575E+07         0.00000E+00
    0.00000E+00         0.00000E+00        -0.16820E+08
 
   -0.16723E+08         0.17800E+06         0.00000E+00
    0.17800E+06        -0.19576E+07         0.00000E+00
    0.00000E+00         0.00000E+00        -0.16768E+08
 
   -0.16672E+08         0.17934E+06         0.00000E+00
    0.17934E+06        -0.19577E+07         0.00000E+00
    0.00000E+00         0.00000E+00        -0.16716E+08
 
   -0.16621E+08         0.18064E+06         0.00000E+00
    0.18064E+06        -0.19578E+07         0.00000E+00
    0.00000E+00         0.00000E+00        -0.16664E+08
 
   -0.16569E+08         0.18189E+06         0.00000E+00
    0.18189E+06        -0.19578E+07         0.00000E+00
    0.00000E+00         0.00000E+00        -0.16611E+08
 
   -0.16517E+08         0.18310E+06         0.00000E+00
    0.18310E+06        -0.19579E+07         0.00000E+00
    0.00000E+00         0.00000E+00        -0.16558E+08
 
   -0.16464E+08         0.18425E+06         0.00000E+00
    0.18425E+06        -0.19580E+07         0.00000E+00
    0.00000E+00         0.00000E+00        -0.16504E+08
 
   -0.16411E+08         0.18536E+06         0.00000E+00
    0.18536E+06        -0.19581E+07         0.00000E+00
    0.00000E+00         0.00000E+00        -0.16450E+08
 
   -0.16358E+08         0.18641E+06         0.00000E+00
    0.18641E+06        -0.19582E+07         0.00000E+00
    0.00000E+00         0.00000E+00        -0.16396E+08
 
   -0.16304E+08         0.18740E+06         0.00000E+00
    0.18740E+06        -0.19583E+07         0.00000E+00
    0.00000E+00         0.00000E+00        -0.16341E+08
 
   -0.16250E+08         0.18833E+06         0.00000E+00
    0.18833E+06        -0.19584E+07         0.00000E+00
    0.00000E+00         0.00000E+00        -0.16285E+08
 
   -0.16196E+08         0.18919E+06         0.00000E+00
    0.18919E+06        -0.19586E+07         0.00000E+00
    0.00000E+00         0.00000E+00        -0.16230E+08
 
   -0.16142E+08         0.18998E+06         0.00000E+00
    0.18998E+06        -0.19587E+07         0.00000E+00
    0.00000E+00         0.00000E+00        -0.16173E+08
 
   -0.16087E+08         0.19069E+06         0.00000E+00
    0.19069E+06        -0.19588E+07         0.00000E+00
    0.00000E+00         0.00000E+00        -0.16117E+08
 
   -0.16032E+08         0.19132E+06         0.00000E+00
    0.19132E+06        -0.19590E+07         0.00000E+00
    0.00000E+00         0.00000E+00        -0.16060E+08
 
   -0.15977E+08         0.19185E+06         0.00000E+00
    0.19185E+06        -0.19592E+07         0.00000E+00
    0.00000E+00         0.00000E+00        -0.16003E+08
 
   -0.15921E+08         0.19229E+06         0.00000E+00
    0.19229E+06        -0.19593E+07         0.00000E+00
    0.00000E+00         0.00000E+00        -0.15945E+08
 
   -0.15866E+08         0.19261E+06         0.00000E+00
    0.19261E+06        -0.19595E+07         0.00000E+00
    0.00000E+00         0.00000E+00        -0.15887E+08
 
   -0.15811E+08         0.19283E+06         0.00000E+00
    0.19283E+06        -0.19598E+07         0.00000E+00
    0.00000E+00         0.00000E+00        -0.15829E+08
 
   -0.15755E+08         0.19291E+06         0.00000E+00
    0.19291E+06        -0.19600E+07         0.00000E+00
    0.00000E+00         0.00000E+00        -0.15770E+08
 
   -0.15699E+08         0.19286E+06         0.00000E+00
    0.19286E+06        -0.19603E+07         0.00000E+00
    0.00000E+00         0.00000E+00        -0.15711E+08
 
   -0.15644E+08         0.19266E+06         0.00000E+00
    0.19266E+06        -0.19605E+07         0.00000E+00
    0.00000E+00         0.00000E+00        -0.15652E+08
 
   -0.15588E+08         0.19229E+06         0.00000E+00
    0.19229E+06        -0.19608E+07         0.00000E+00
    0.00000E+00         0.00000E+00        -0.15593E+08
 
   -0.15532E+08         0.19175E+06         0.00000E+00
    0.19175E+06        -0.19612E+07         0.00000E+00
    0.00000E+00         0.00000E+00        -0.15533E+08
 
   -0.15477E+08         0.19102E+06         0.00000E+00
    0.19102E+06        -0.19615E+07         0.00000E+00
    0.00000E+00         0.00000E+00        -0.15473E+08
 
   -0.15422E+08         0.19007E+06         0.00000E+00
    0.19007E+06        -0.19619E+07         0.00000E+00
    0.00000E+00         0.00000E+00        -0.15413E+08
 
   -0.15367E+08         0.18889E+06         0.00000E+00
    0.18889E+06        -0.19624E+07         0.00000E+00
    0.00000E+00         0.00000E+00        -0.15352E+08
 
   -0.15312E+08         0.18745E+06         0.00000E+00
    0.18745E+06        -0.19628E+07         0.00000E+00
    0.00000E+00         0.00000E+00        -0.15292E+08
 
   -0.15257E+08         0.18573E+06         0.00000E+00
    0.18573E+06        -0.19634E+07         0.00000E+00
    0.00000E+00         0.00000E+00        -0.15231E+08
 
   -0.15204E+08         0.18369E+06         0.00000E+00
    0.18369E+06        -0.19640E+07         0.00000E+00
    0.00000E+00         0.00000E+00        -0.15170E+08
 
   -0.15150E+08         0.18130E+06         0.00000E+00
    0.18130E+06        -0.19646E+07         0.00000E+00
    0.00000E+00         0.00000E+00        -0.15109E+08
 
   -0.15097E+08         0.17853E+06         0.00000E+00
    0.17853E+06        -0.19654E+07         0.00000E+00
    0.00000E+00         0.00000E+00        -0.15049E+08
 
   -0.15045E+08         0.17532E+06         0.00000E+00
    0.17532E+06        -0.19663E+07         0.00000E+00
    0.00000E+00         0.00000E+00        -0.14988E+08
 
   -0.14994E+08         0.17163E+06         0.00000E+00
    0.17163E+06        -0.19672E+07         0.00000E+00
    0.00000E+00         0.00000E+00        -0.14927E+08
 
   -0.14944E+08         0.16738E+06         0.00000E+00
    0.16738E+06        -0.19683E+07         0.00000E+00
    0.00000E+00         0.00000E+00        -0.14866E+08
 
   -0.14895E+08         0.16253E+06         0.00000E+00
    0.16253E+06        -0.19696E+07         0.00000E+00
    0.00000E+00         0.00000E+00        -0.14806E+08
 
   -0.14846E+08         0.15699E+06         0.00000E+00
    0.15699E+06        -0.19710E+07         0.00000E+00
    0.00000E+00         0.00000E+00        -0.14745E+08
 
   -0.14800E+08         0.15068E+06         0.00000E+00
    0.15068E+06        -0.19726E+07         0.00000E+00
    0.00000E+00         0.00000E+00        -0.14685E+08
 
   -0.14754E+08         0.14352E+06         0.00000E+00
    0.14352E+06        -0.19744E+07         0.00000E+00
    0.00000E+00         0.00000E+00        -0.14626E+08
 
   -0.14711E+08         0.13541E+06         0.00000E+00
    0.13541E+06        -0.19764E+07         0.00000E+00
    0.00000E+00         0.00000E+00        -0.14566E+08
 
   -0.14669E+08         0.12626E+06         0.00000E+00
    0.12626E+06        -0.19786E+07         0.00000E+00
    0.00000E+00         0.00000E+00        -0.14507E+08
 
   -0.14629E+08         0.11600E+06         0.00000E+00
    0.11600E+06        -0.19810E+07         0.00000E+00
    0.00000E+00         0.00000E+00        -0.14449E+08
 
   -0.14591E+08         0.10456E+06         0.00000E+00
    0.10456E+06        -0.19836E+07         0.00000E+00
    0.00000E+00         0.00000E+00        -0.14391E+08
 
   -0.14555E+08         0.91904E+05         0.00000E+00
    0.91904E+05        -0.19862E+07         0.00000E+00
    0.00000E+00         0.00000E+00        -0.14334E+08
 
   -0.14522E+08         0.78057E+05         0.00000E+00
    0.78057E+05        -0.19888E+07         0.00000E+00
    0.00000E+00         0.00000E+00        -0.14277E+08
 
   -0.14491E+08         0.63115E+05         0.00000E+00
    0.63115E+05        -0.19912E+07         0.00000E+00
    0.00000E+00         0.00000E+00        -0.14221E+08
 
   -0.14462E+08         0.47292E+05         0.00000E+00
    0.47292E+05        -0.19931E+07         0.00000E+00
    0.00000E+00         0.00000E+00        -0.14165E+08
 
   -0.14437E+08         0.30963E+05         0.00000E+00
    0.30963E+05        -0.19942E+07         0.00000E+00
    0.00000E+00         0.00000E+00        -0.14110E+08
 
   -0.14414E+08         0.14727E+05         0.00000E+00
    0.14727E+05        -0.19940E+07         0.00000E+00
    0.00000E+00         0.00000E+00        -0.14055E+08
 
   -0.14393E+08        -0.50992E+03         0.00000E+00
   -0.50992E+03        -0.19919E+07         0.00000E+00
    0.00000E+00         0.00000E+00        -0.14000E+08
 
   -0.14374E+08        -0.13443E+05         0.00000E+00
   -0.13443E+05        -0.19870E+07         0.00000E+00
    0.00000E+00         0.00000E+00        -0.13945E+08
 
   -0.14357E+08        -0.22289E+05         0.00000E+00
   -0.22289E+05        -0.19776E+07         0.00000E+00
    0.00000E+00         0.00000E+00        -0.13889E+08
 
   -0.14342E+08        -0.24932E+05         0.00000E+00
   -0.24932E+05        -0.19611E+07         0.00000E+00
    0.00000E+00         0.00000E+00        -0.13831E+08
 
   -0.14329E+08        -0.19796E+05         0.00000E+00
   -0.19796E+05        -0.19327E+07         0.00000E+00
    0.00000E+00         0.00000E+00        -0.13771E+08
 
   -0.14322E+08        -0.75818E+04         0.00000E+00
   -0.75818E+04        -0.18865E+07         0.00000E+00
    0.00000E+00         0.00000E+00        -0.13706E+08
 
   -0.18282E+08        -0.42932E+04         0.00000E+00
   -0.42932E+04        -0.19988E+07         0.00000E+00
    0.00000E+00         0.00000E+00        -0.18670E+08
 
   -0.18277E+08        -0.11011E+05         0.00000E+00
   -0.11011E+05        -0.19727E+07         0.00000E+00
    0.00000E+00         0.00000E+00        -0.18633E+08
 
   -0.18270E+08        -0.13323E+05         0.00000E+00
   -0.13323E+05        -0.19573E+07         0.00000E+00
    0.00000E+00         0.00000E+00        -0.18598E+08
 
   -0.18261E+08        -0.10942E+05         0.00000E+00
   -0.10942E+05        -0.19487E+07         0.00000E+00
    0.00000E+00         0.00000E+00        -0.18565E+08
 
   -0.18251E+08        -0.49509E+04         0.00000E+00
   -0.49509E+04        -0.19439E+07         0.00000E+00
    0.00000E+00         0.00000E+00        -0.18533E+08
 
   -0.18240E+08         0.33527E+04         0.00000E+00
    0.33527E+04        -0.19414E+07         0.00000E+00
    0.00000E+00         0.00000E+00        -0.18501E+08
 
   -0.18228E+08         0.12934E+05         0.00000E+00
    0.12934E+05        -0.19404E+07         0.00000E+00
    0.00000E+00         0.00000E+00        -0.18469E+08
 
   -0.18213E+08         0.23059E+05         0.00000E+00
    0.23059E+05        -0.19403E+07         0.00000E+00
    0.00000E+00         0.00000E+00        -0.18436E+08
 
   -0.18197E+08         0.33225E+05         0.00000E+00
    0.33225E+05        -0.19409E+07         0.00000E+00
    0.00000E+00         0.00000E+00        -0.18403E+08
 
   -0.18179E+08         0.43104E+05         0.00000E+00
    0.43104E+05        -0.19419E+07         0.00000E+00
    0.00000E+00         0.00000E+00        -0.18370E+08
 
   -0.18159E+08         0.52492E+05         0.00000E+00
    0.52492E+05        -0.19432E+07         0.00000E+00
    0.00000E+00         0.00000E+00        -0.18336E+08
 
   -0.18137E+08         0.61274E+05         0.00000E+00
    0.61274E+05        -0.19445E+07         0.00000E+00
    0.00000E+00         0.00000E+00        -0.18302E+08
 
   -0.18114E+08         0.69400E+05         0.00000E+00
    0.69400E+05        -0.19459E+07         0.00000E+00
    0.00000E+00         0.00000E+00        -0.18267E+08
 
   -0.18089E+08         0.76865E+05         0.00000E+00
    0.76865E+05        -0.19472E+07         0.00000E+00
    0.00000E+00         0.00000E+00        -0.18231E+08
 
   -0.18062E+08         0.83690E+05         0.00000E+00
    0.83690E+05        -0.19484E+07         0.00000E+00
    0.00000E+00         0.00000E+00        -0.18195E+08
 
   -0.18034E+08         0.89914E+05         0.00000E+00
    0.89914E+05        -0.19495E+07         0.00000E+00
    0.00000E+00         0.00000E+00        -0.18158E+08
 
   -0.18004E+08         0.95588E+05         0.00000E+00
    0.95588E+05        -0.19505E+07         0.00000E+00
    0.00000E+00         0.00000E+00        -0.18120E+08
 
   -0.17973E+08         0.10076E+06         0.00000E+00
    0.10076E+06        -0.19514E+07         0.00000E+00
    0.00000E+00         0.00000E+00        -0.18082E+08
 
   -0.17941E+08         0.10549E+06         0.00000E+00
    0.10549E+06        -0.19522E+07         0.00000E+00
    0.00000E+00         0.00000E+00        -0.18043E+08
 
   -0.17907E+08         0.10982E+06         0.00000E+00
    0.10982E+06        -0.19529E+07         0.00000E+00
    0.00000E+00         0.00000E+00        -0.18004E+08
 
   -0.17873E+08         0.11381E+06         0.00000E+00
    0.11381E+06        -0.19535E+07         0.00000E+00
    0.00000E+00         0.00000E+00        -0.17964E+08
 
   -0.17837E+08         0.11749E+06         0.00000E+00
    0.11749E+06        -0.19540E+07         0.00000E+00
    0.00000E+00         0.00000E+00        -0.17924E+08
 
   -0.17800E+08         0.12090E+06         0.00000E+00
    0.12090E+06        -0.19544E+07         0.00000E+00
    0.00000E+00         0.00000E+00        -0.17883E+08
 
   -0.17763E+08         0.12407E+06         0.00000E+00
    0.12407E+06        -0.19548E+07         0.00000E+00
    0.00000E+00         0.00000E+00        -0.17842E+08
 
   -0.17724E+08         0.12704E+06         0.00000E+00
    0.12704E+06        -0.19552E+07         0.00000E+00
    0.00000E+00         0.00000E+00        -0.17800E+08
 
   -0.17685E+08         0.12983E+06         0.00000E+00
    0.12983E+06        -0.19555E+07         0.00000E+00
    0.00000E+00         0.00000E+00        -0.17758E+08
 
   -0.17645E+08         0.13245E+06         0.00000E+00
    0.13245E+06        -0.19557E+07         0.00000E+00
    0.00000E+00         0.00000E+00        -0.17715E+08
 
   -0.17605E+08         0.13494E+06         0.00000E+00
    0.13494E+06        -0.19559E+07         0.00000E+00
    0.00000E+00         0.00000E+00        -0.17672E+08
 
   -0.17563E+08         0.13730E+06         0.00000E+00
    0.13730E+06        -0.19561E+07         0.00000E+00
    0.00000E+00         0.00000E+00        -0.17628E+08
 
   -0.17521E+08         0.13955E+06         0.00000E+00
    0.13955E+06        -0.19563E+07         0.00000E+00
    0.00000E+00         0.00000E+00        -0.17584E+08
 
   -0.17478E+08         0.14170E+06         0.00000E+00
    0.14170E+06        -0.19565E+07         0.00000E+00
    0.00000E+00         0.00000E+00        -0.17539E+08
 
   -0.17435E+08         0.14376E+06         0.00000E+00
    0.14376E+06        -0.19566E+07         0.00000E+00
    0.00000E+00         0.00000E+00        -0.17495E+08
 
   -0.17391E+08         0.14574E+06         0.00000E+00
    0.14574E+06        -0.19567E+07         0.00000E+00
    0.00000E+00         0.00000E+00        -0.17449E+08
 
   -0.17346E+08         0.14765E+06         0.00000E+00
    0.14765E+06        -0.19569E+07         0.00000E+00
    0.00000E+00         0.00000E+00        -0.17403E+08
 
   -0.17301E+08         0.14950E+06         0.00000E+00
    0.14950E+06        -0.19570E+07         0.00000E+00
    0.00000E+00         0.00000E+00        -0.17357E+08
 
   -0.17256E+08         0.15128E+06         0.00000E+00
    0.15128E+06        -0.19571E+07         0.00000E+00
    0.00000E+00         0.00000E+00        -0.17310E+08
 
   -0.17210E+08         0.15300E+06         0.00000E+00
    0.15300E+06        -0.19572E+07         0.00000E+00
    0.00000E+00         0.00000E+00        -0.17263E+08
 
   -0.17163E+08         0.15468E+06         0.00000E+00
    0.15468E+06        -0.19572E+07         0.00000E+00
    0.00000E+00         0.00000E+00        -0.17216E+08
 
   -0.17116E+08         0.15630E+06         0.00000E+00
    0.15630E+06        -0.19573E+07         0.00000E+00
    0.00000E+00         0.00000E+00        -0.17168E+08
 
   -0.17068E+08         0.15789E+06         0.00000E+00
    0.15789E+06        -0.19574E+07         0.00000E+00
    0.00000E+00         0.00000E+00        -0.17119E+08
 
   -0.17020E+08         0.15942E+06         0.00000E+00
    0.15942E+06        -0.19575E+07         0.00000E+00
    0.00000E+00         0.00000E+00        -0.17070E+08
 
   -0.16971E+08         0.16092E+06         0.00000E+00
    0.16092E+06        -0.19575E+07         0.00000E+00
    0.00000E+00         0.00000E+00        -0.17021E+08
 
   -0.16922E+08         0.16238E+06         0.00000E+00
    0.16238E+06        -0.19576E+07         0.00000E+00
    0.00000E+00         0.00000E+00        -0.16971E+08
 
   -0.16873E+08         0.16379E+06         0.00000E+00
    0.16379E+06        -0.19577E+07         0.00000E+00
    0.00000E+00         0.00000E+00        -0.16921E+08
 
   -0.16823E+08         0.16517E+06         0.00000E+00
    0.16517E+06        -0.19577E+07         0.00000E+00
    0.00000E+00         0.00000E+00        -0.16870E+08
 
   -0.16773E+08         0.16651E+06         0.00000E+00
    0.16651E+06        -0.19578E+07         0.00000E+00
    0.00000E+00         0.00000E+00        -0.16819E+08
 
   -0.16722E+08         0.16781E+06         0.00000E+00
    0.16781E+06        -0.19579E+07         0.00000E+00
    0.00000E+00         0.00000E+00        -0.16768E+08
 
   -0.16671E+08         0.16907E+06         0.00000E+00
    0.16907E+06        -0.19579E+07         0.00000E+00
    0.00000E+00         0.00000E+00        -0.16716E+08
 
   -0.16619E+08         0.17029E+06         0.00000E+00
    0.17029E+06        -0.19580E+07         0.00000E+00
    0.00000E+00         0.00000E+00        -0.16663E+08
 
   -0.16567E+08         0.17147E+06         0.00000E+00
    0.17147E+06        -0.19581E+07         0.00000E+00
    0.00000E+00         0.00000E+00        -0.16611E+08
 
   -0.16515E+08         0.17261E+06         0.00000E+00
    0.17261E+06        -0.19581E+07         0.00000E+00
    0.00000E+00         0.00000E+00        -0.16557E+08
 
   -0.16463E+08         0.17370E+06         0.00000E+00
    0.17370E+06        -0.19582E+07         0.00000E+00
    0.00000E+00         0.00000E+00        -0.16504E+08
 
   -0.16410E+08         0.17473E+06         0.00000E+00
    0.17473E+06        -0.19583E+07         0.00000E+00
    0.00000E+00         0.00000E+00        -0.16450E+08
 
   -0.16356E+08         0.17572E+06         0.00000E+00
    0.17572E+06        -0.19584E+07         0.00000E+00
    0.00000E+00         0.00000E+00        -0.16395E+08
 
   -0.16303E+08         0.17665E+06         0.00000E+00
    0.17665E+06        -0.19585E+07         0.00000E+00
    0.00000E+00         0.00000E+00        -0.16340E+08
 
   -0.16249E+08         0.17752E+06         0.00000E+00
    0.17752E+06        -0.19586E+07         0.00000E+00
    0.00000E+00         0.00000E+00        -0.16285E+08
 
   -0.16195E+08         0.17833E+06         0.00000E+00
    0.17833E+06        -0.19587E+07         0.00000E+00
    0.00000E+00         0.00000E+00        -0.16229E+08
 
   -0.16140E+08         0.17907E+06         0.00000E+00
    0.17907E+06        -0.19588E+07         0.00000E+00
    0.00000E+00         0.00000E+00        -0.16173E+08
 
   -0.16086E+08         0.17973E+06         0.00000E+00
    0.17973E+06        -0.19590E+07         0.00000E+00
    0.00000E+00         0.00000E+00        -0.16117E+08
 
   -0.16031E+08         0.18032E+06         0.00000E+00
    0.18032E+06        -0.19591E+07         0.00000E+00
    0.00000E+00         0.00000E+00        -0.16060E+08
 
   -0.15976E+08         0.18082E+06         0.00000E+00
    0.18082E+06        -0.19593E+07         0.00000E+00
    0.00000E+00         0.00000E+00        -0.16002E+08
 
   -0.15921E+08         0.18122E+06         0.00000E+00
    0.18122E+06        -0.19594E+07         0.00000E+00
    0.00000E+00         0.00000E+00        -0.15945E+08
 
   -0.15865E+08         0.18152E+06         0.00000E+00
    0.18152E+06        -0.19596E+07         0.00000E+00
    0.00000E+00         0.00000E+00        -0.15887E+08
 
   -0.15810E+08         0.18171E+06         0.00000E+00
    0.18171E+06        -0.19598E+07         0.00000E+00
    0.00000E+00         0.00000E+00        -0.15829E+08
 
   -0.15754E+08         0.18179E+06         0.00000E+00
    0.18179E+06        -0.19600E+07         0.00000E+00
    0.00000E+00         0.00000E+00        -0.15770E+08
 
   -0.15699E+08         0.18173E+06         0.00000E+00
    0.18173E+06        -0.19602E+07         0.00000E+00
    0.00000E+00         0.00000E+00        -0.15711E+08
 
   -0.15643E+08         0.18153E+06         0.00000E+00
    0.18153E+06        -0.19605E+07         0.00000E+00
    0.00000E+00         0.00000E+00        -0.15652E+08
 
   -0.15587E+08         0.18118E+06         0.00000E+00
    0.18118E+06        -0.19607E+07         0.00000E+00
    0.00000E+00         0.00000E+00        -0.15592E+08
 
   -0.15532E+08         0.18066E+06         0.00000E+00
    0.18066E+06        -0.19610E+07         0.00000E+00
    0.00000E+00         0.00000E+00        -0.15533E+08
 
   -0.15477E+08         0.17995E+06         0.00000E+00
    0.17995E+06        -0.19614E+07         0.00000E+00
    0.00000E+00         0.00000E+00        -0.15473E+08
 
   -0.15421E+08         0.17905E+06         0.00000E+00
    0.17905E+06        -0.19617E+07         0.00000E+00
    0.00000E+00         0.00000E+00        -0.15412E+08
 
   -0.15366E+08         0.17792E+06         0.00000E+00
    0.17792E+06        -0.19621E+07         0.00000E+00
    0.00000E+00         0.00000E+00        -0.15352E+08
 
   -0.15312E+08         0.17655E+06         0.00000E+00
    0.17655E+06        -0.19625E+07         0.00000E+00
    0.00000E+00         0.00000E+00        -0.15292E+08
 
   -0.15258E+08         0.17491E+06         0.00000E+00
    0.17491E+06        -0.19630E+07         0.00000E+00
    0.00000E+00         0.00000E+00        -0.15231E+08
 
   -0.15204E+08         0.17297E+06         0.00000E+00
    0.17297E+06        -0.19635E+07         0.00000E+00
    0.00000E+00         0.00000E+00        -0.15170E+08
 
   -0.15151E+08         0.17071E+06         0.00000E+00
    0.17071E+06        -0.19641E+07         0.00000E+00
    0.00000E+00         0.00000E+00        -0.15109E+08
 
   -0.15098E+08         0.16807E+06         0.00000E+00
    0.16807E+06        -0.19648E+07         0.00000E+00
    0.00000E+00         0.00000E+00        -0.15049E+08
 
   -0.15046E+08         0.16501E+06         0.00000E+00
    0.16501E+06        -0.19656E+07         0.00000E+00
    0.00000E+00         0.00000E+00        -0.14988E+08
 
   -0.14995E+08         0.16149E+06         0.00000E+00
    0.16149E+06        -0.19664E+07         0.00000E+00
    0.00000E+00         0.00000E+00        -0.14927E+08
 
   -0.14945E+08         0.15745E+06         0.00000E+00
    0.15745E+06        -0.19674E+07         0.00000E+00
    0.00000E+00         0.00000E+00        -0.14866E+08
 
   -0.14896E+08         0.15283E+06         0.00000E+00
    0.15283E+06        -0.19686E+07         0.00000E+00
    0.00000E+00         0.00000E+00        -0.14806E+08
 
   -0.14849E+08         0.14754E+06         0.00000E+00
    0.14754E+06        -0.19698E+07         0.00000E+00
    0.00000E+00         0.00000E+00        -0.14746E+08
 
   -0.14802E+08         0.14151E+06         0.00000E+00
    0.14151E+06        -0.19713E+07         0.00000E+00
    0.00000E+00         0.00000E+00        -0.14686E+08
 
   -0.14757E+08         0.13466E+06         0.00000E+00
    0.13466E+06        -0.19729E+07         0.00000E+00
    0.00000E+00         0.00000E+00        -0.14626E+08
 
   -0.14714E+08         0.12690E+06         0.00000E+00
    0.12690E+06        -0.19747E+07         0.00000E+00
    0.00000E+00         0.00000E+00        -0.14567E+08
 
   -0.14673E+08         0.11813E+06         0.00000E+00
    0.11813E+06        -0.19767E+07         0.00000E+00
    0.00000E+00         0.00000E+00        -0.14508E+08
 
   -0.14634E+08         0.10827E+06         0.00000E+00
    0.10827E+06        -0.19789E+07         0.00000E+00
    0.00000E+00         0.00000E+00        -0.14450E+08
 
   -0.14597E+08         0.97274E+05         0.00000E+00
    0.97274E+05        -0.19812E+07         0.00000E+00
    0.00000E+00         0.00000E+00        -0.14392E+08
 
   -0.14562E+08         0.85091E+05         0.00000E+00
    0.85091E+05        -0.19836E+07         0.00000E+00
    0.00000E+00         0.00000E+00        -0.14335E+08
 
   -0.14529E+08         0.71744E+05         0.00000E+00
    0.71744E+05        -0.19860E+07         0.00000E+00
    0.00000E+00         0.00000E+00        -0.14278E+08
 
   -0.14500E+08         0.57323E+05         0.00000E+00
    0.57323E+05        -0.19882E+07         0.00000E+00
    0.00000E+00         0.00000E+00        -0.14222E+08
 
   -0.14473E+08         0.42034E+05         0.00000E+00
    0.42034E+05        -0.19899E+07         0.00000E+00
    0.00000E+00         0.00000E+00        -0.14167E+08
 
   -0.14449E+08         0.26236E+05         0.00000E+00
    0.26236E+05        -0.19910E+07         0.00000E+00
    0.00000E+00         0.00000E+00        -0.14112E+08
 
   -0.14427E+08         0.10506E+05         0.00000E+00
    0.10506E+05        -0.19909E+07         0.00000E+00
    0.00000E+00         0.00000E+00        -0.14058E+08
 
   -0.14408E+08        -0.42814E+04         0.00000E+00
   -0.42814E+04        -0.19891E+07         0.00000E+00
    0.00000E+00         0.00000E+00        -0.14004E+08
 
   -0.14391E+08        -0.16848E+05         0.00000E+00
   -0.16848E+05        -0.19847E+07         0.00000E+00
    0.00000E+00         0.00000E+00        -0.13949E+08
 
   -0.14376E+08        -0.25401E+05         0.00000E+00
   -0.25401E+05        -0.19764E+07         0.00000E+00
    0.00000E+00         0.00000E+00        -0.13894E+08
 
   -0.14362E+08        -0.27689E+05         0.00000E+00
   -0.27689E+05        -0.19614E+07         0.00000E+00
    0.00000E+00         0.00000E+00        -0.13837E+08
 
   -0.14350E+08        -0.21843E+05         0.00000E+00
   -0.21843E+05        -0.19347E+07         0.00000E+00
    0.00000E+00         0.00000E+00        -0.13777E+08
 
   -0.14343E+08        -0.83615E+04         0.00000E+00
   -0.83615E+04        -0.18896E+07         0.00000E+00
    0.00000E+00         0.00000E+00        -0.13714E+08
 
   -0.18269E+08        -0.47657E+04         0.00000E+00
   -0.47657E+04        -0.19970E+07         0.00000E+00
    0.00000E+00         0.00000E+00        -0.18665E+08
 
   -0.18265E+08        -0.12233E+05         0.00000E+00
   -0.12233E+05        -0.19717E+07         0.00000E+00
    0.00000E+00         0.00000E+00        -0.18629E+08
 
   -0.18258E+08        -0.14938E+05         0.00000E+00
   -0.14938E+05        -0.19573E+07         0.00000E+00
    0.00000E+00         0.00000E+00        -0.18594E+08
 
   -0.18250E+08        -0.12754E+05         0.00000E+00
   -0.12754E+05        -0.19495E+07         0.00000E+00
    0.00000E+00         0.00000E+00        -0.18562E+08
 
   -0.18241E+08        -0.69536E+04         0.00000E+00
   -0.69536E+04        -0.19453E+07         0.00000E+00
    0.00000E+00         0.00000E+00        -0.18530E+08
 
   -0.18231E+08         0.10902E+04         0.00000E+00
    0.10902E+04        -0.19432E+07         0.00000E+00
    0.00000E+00         0.00000E+00        -0.18498E+08
 
   -0.18219E+08         0.10348E+05         0.00000E+00
    0.10348E+05        -0.19423E+07         0.00000E+00
    0.00000E+00         0.00000E+00        -0.18467E+08
 
   -0.18206E+08         0.20108E+05         0.00000E+00
    0.20108E+05        -0.19423E+07         0.00000E+00
    0.00000E+00         0.00000E+00        -0.18435E+08
 
   -0.18190E+08         0.29891E+05         0.00000E+00
    0.29891E+05        -0.19429E+07         0.00000E+00
    0.00000E+00         0.00000E+00        -0.18402E+08
 
   -0.18173E+08         0.39382E+05         0.00000E+00
    0.39382E+05        -0.19438E+07         0.00000E+00
    0.00000E+00         0.00000E+00        -0.18369E+08
 
   -0.18154E+08         0.48388E+05         0.00000E+00
    0.48388E+05        -0.19450E+07         0.00000E+00
    0.00000E+00         0.00000E+00        -0.18335E+08
 
   -0.18133E+08         0.56800E+05         0.00000E+00
    0.56800E+05        -0.19462E+07         0.00000E+00
    0.00000E+00         0.00000E+00        -0.18301E+08
 
   -0.18110E+08         0.64573E+05         0.00000E+00
    0.64573E+05        -0.19474E+07         0.00000E+00
    0.00000E+00         0.00000E+00        -0.18266E+08
 
   -0.18085E+08         0.71702E+05         0.00000E+00
    0.71702E+05        -0.19486E+07         0.00000E+00
    0.00000E+00         0.00000E+00        -0.18230E+08
 
   -0.18059E+08         0.78210E+05         0.00000E+00
    0.78210E+05        -0.19497E+07         0.00000E+00
    0.00000E+00         0.00000E+00        -0.18194E+08
 
   -0.18031E+08         0.84137E+05         0.00000E+00
    0.84137E+05        -0.19507E+07         0.00000E+00
    0.00000E+00         0.00000E+00        -0.18157E+08
 
   -0.18001E+08         0.89530E+05         0.00000E+00
    0.89530E+05        -0.19516E+07         0.00000E+00
    0.00000E+00         0.00000E+00        -0.18119E+08
 
   -0.17970E+08         0.94442E+05         0.00000E+00
    0.94442E+05        -0.19524E+07         0.00000E+00
    0.00000E+00         0.00000E+00        -0.18081E+08
 
   -0.17938E+08         0.98925E+05         0.00000E+00
    0.98925E+05        -0.19531E+07         0.00000E+00
    0.00000E+00         0.00000E+00        -0.18043E+08
 
   -0.17905E+08         0.10303E+06         0.00000E+00
    0.10303E+06        -0.19537E+07         0.00000E+00
    0.00000E+00         0.00000E+00        -0.18003E+08
 
   -0.17870E+08         0.10680E+06         0.00000E+00
    0.10680E+06        -0.19542E+07         0.00000E+00
    0.00000E+00         0.00000E+00        -0.17964E+08
 
   -0.17835E+08         0.11027E+06         0.00000E+00
    0.11027E+06        -0.19547E+07         0.00000E+00
    0.00000E+00         0.00000E+00        -0.17923E+08
 
   -0.17798E+08         0.11349E+06         0.00000E+00
    0.11349E+06        -0.19551E+07         0.00000E+00
    0.00000E+00         0.00000E+00        -0.17882E+08
 
   -0.17761E+08         0.11649E+06         0.00000E+00
    0.11649E+06        -0.19554E+07         0.00000E+00
    0.00000E+00         0.00000E+00        -0.17841E+08
 
   -0.17723E+08         0.11929E+06         0.00000E+00
    0.11929E+06        -0.19557E+07         0.00000E+00
    0.00000E+00         0.00000E+00        -0.17799E+08
 
   -0.17683E+08         0.12191E+06         0.00000E+00
    0.12191E+06        -0.19560E+07         0.00000E+00
    0.00000E+00         0.00000E+00        -0.17757E+08
 
   -0.17643E+08         0.12439E+06         0.00000E+00
    0.12439E+06        -0.19562E+07         0.00000E+00
    0.00000E+00         0.00000E+00        -0.17714E+08
 
   -0.17603E+08         0.12673E+06         0.00000E+00
    0.12673E+06        -0.19564E+07         0.00000E+00
    0.00000E+00         0.00000E+00        -0.17671E+08
 
   -0.17561E+08         0.12895E+06         0.00000E+00
    0.12895E+06        -0.19566E+07         0.00000E+00
    0.00000E+00         0.00000E+00        -0.17628E+08
 
   -0.17519E+08         0.13107E+06         0.00000E+00
    0.13107E+06        -0.19567E+07         0.00000E+00
    0.00000E+00         0.00000E+00        -0.17584E+08
 
   -0.17477E+08         0.13309E+06         0.00000E+00
    0.13309E+06        -0.19569E+07         0.00000E+00
    0.00000E+00         0.00000E+00        -0.17539E+08
 
   -0.17433E+08         0.13503E+06         0.00000E+00
    0.13503E+06        -0.19570E+07         0.00000E+00
    0.00000E+00         0.00000E+00        -0.17494E+08
 
   -0.17389E+08         0.13690E+06         0.00000E+00
    0.13690E+06        -0.19571E+07         0.00000E+00
    0.00000E+00         0.00000E+00        -0.17449E+08
 
   -0.17345E+08         0.13869E+06         0.00000E+00
    0.13869E+06        -0.19572E+07         0.00000E+00
    0.00000E+00         0.00000E+00        -0.17403E+08
 
   -0.17300E+08         0.14043E+06         0.00000E+00
    0.14043E+06        -0.19573E+07         0.00000E+00
    0.00000E+00         0.00000E+00        -0.17357E+08
 
   -0.17254E+08         0.14210E+06         0.00000E+00
    0.14210E+06        -0.19574E+07         0.00000E+00
    0.00000E+00         0.00000E+00        -0.17310E+08
 
   -0.17208E+08         0.14372E+06         0.00000E+00
    0.14372E+06        -0.19575E+07         0.00000E+00
    0.00000E+00         0.00000E+00        -0.17263E+08
 
   -0.17161E+08         0.14530E+06         0.00000E+00
    0.14530E+06        -0.19576E+07         0.00000E+00
    0.00000E+00         0.00000E+00        -0.17215E+08
 
   -0.17114E+08         0.14682E+06         0.00000E+00
    0.14682E+06        -0.19576E+07         0.00000E+00
    0.00000E+00         0.00000E+00        -0.17167E+08
 
   -0.17067E+08         0.14831E+06         0.00000E+00
    0.14831E+06        -0.19577E+07         0.00000E+00
    0.00000E+00         0.00000E+00        -0.17119E+08
 
   -0.17018E+08         0.14975E+06         0.00000E+00
    0.14975E+06        -0.19578E+07         0.00000E+00
    0.00000E+00         0.00000E+00        -0.17070E+08
 
   -0.16970E+08         0.15116E+06         0.00000E+00
    0.15116E+06        -0.19578E+07         0.00000E+00
    0.00000E+00         0.00000E+00        -0.17021E+08
 
   -0.16921E+08         0.15253E+06         0.00000E+00
    0.15253E+06        -0.19579E+07         0.00000E+00
    0.00000E+00         0.00000E+00        -0.16971E+08
 
   -0.16871E+08         0.15386E+06         0.00000E+00
    0.15386E+06        -0.19579E+07         0.00000E+00
    0.00000E+00         0.00000E+00        -0.16921E+08
 
   -0.16822E+08         0.15515E+06         0.00000E+00
    0.15515E+06        -0.19580E+07         0.00000E+00
    0.00000E+00         0.00000E+00        -0.16870E+08
 
   -0.16771E+08         0.15641E+06         0.00000E+00
    0.15641E+06        -0.19581E+07         0.00000E+00
    0.00000E+00         0.00000E+00        -0.16819E+08
 
   -0.16721E+08         0.15763E+06         0.00000E+00
    0.15763E+06        -0.19581E+07         0.00000E+00
    0.00000E+00         0.00000E+00        -0.16767E+08
 
   -0.16669E+08         0.15881E+06         0.00000E+00
    0.15881E+06        -0.19582E+07         0.00000E+00
    0.00000E+00         0.00000E+00        -0.16716E+08
 
   -0.16618E+08         0.15996E+06         0.00000E+00
    0.15996E+06        -0.19582E+07         0.00000E+00
    0.00000E+00         0.00000E+00        -0.16663E+08
 
   -0.16566E+08         0.16106E+06         0.00000E+00
    0.16106E+06        -0.19583E+07         0.00000E+00
    0.00000E+00         0.00000E+00        -0.16610E+08
 
   -0.16514E+08         0.16212E+06         0.00000E+00
    0.16212E+06        -0.19584E+07         0.00000E+00
    0.00000E+00         0.00000E+00        -0.16557E+08
 
   -0.16461E+08         0.16314E+06         0.00000E+00
    0.16314E+06        -0.19584E+07         0.00000E+00
    0.00000E+00         0.00000E+00        -0.16503E+08
 
   -0.16408E+08         0.16411E+06         0.00000E+00
    0.16411E+06        -0.19585E+07         0.00000E+00
    0.00000E+00         0.00000E+00        -0.16449E+08
 
   -0.16355E+08         0.16504E+06         0.00000E+00
    0.16504E+06        -0.19586E+07         0.00000E+00
    0.00000E+00         0.00000E+00        -0.16395E+08
 
   -0.16301E+08         0.16591E+06         0.00000E+00
    0.16591E+06        -0.19587E+07         0.00000E+00
    0.00000E+00         0.00000E+00        -0.16340E+08
 
   -0.16248E+08         0.16672E+06         0.00000E+00
    0.16672E+06        -0.19588E+07         0.00000E+00
    0.00000E+00         0.00000E+00        -0.16285E+08
 
   -0.16194E+08         0.16748E+06         0.00000E+00
    0.16748E+06        -0.19589E+07         0.00000E+00
    0.00000E+00         0.00000E+00        -0.16229E+08
 
   -0.16139E+08         0.16817E+06         0.00000E+00
    0.16817E+06        -0.19590E+07         0.00000E+00
    0.00000E+00         0.00000E+00        -0.16173E+08
 
   -0.16085E+08         0.16879E+06         0.00000E+00
    0.16879E+06        -0.19591E+07         0.00000E+00
    0.00000E+00         0.00000E+00        -0.16116E+08
 
   -0.16030E+08         0.16933E+06         0.00000E+00
    0.16933E+06        -0.19592E+07         0.00000E+00
    0.00000E+00         0.00000E+00        -0.16059E+08
 
   -0.15975E+08         0.16979E+06         0.00000E+00
    0.16979E+06        -0.19593E+07         0.00000E+00
    0.00000E+00         0.00000E+00        -0.16002E+08
 
   -0.15920E+08         0.17017E+06         0.00000E+00
    0.17017E+06        -0.19595E+07         0.00000E+00
    0.00000E+00         0.00000E+00        -0.15945E+08
 
   -0.15864E+08         0.17044E+06         0.00000E+00
    0.17044E+06        -0.19596E+07         0.00000E+00
    0.00000E+00         0.00000E+00        -0.15887E+08
 
   -0.15809E+08         0.17062E+06         0.00000E+00
    0.17062E+06        -0.19598E+07         0.00000E+00
    0.00000E+00         0.00000E+00        -0.15828E+08
 
   -0.15753E+08         0.17068E+06         0.00000E+00
    0.17068E+06        -0.19600E+07         0.00000E+00
    0.00000E+00         0.00000E+00        -0.15770E+08
 
   -0.15698E+08         0.17062E+06         0.00000E+00
    0.17062E+06        -0.19602E+07         0.00000E+00
    0.00000E+00         0.00000E+00        -0.15711E+08
 
   -0.15642E+08         0.17042E+06         0.00000E+00
    0.17042E+06        -0.19604E+07         0.00000E+00
    0.00000E+00         0.00000E+00        -0.15652E+08
 
   -0.15587E+08         0.17008E+06         0.00000E+00
    0.17008E+06        -0.19607E+07         0.00000E+00
    0.00000E+00         0.00000E+00        -0.15592E+08
 
   -0.15531E+08         0.16958E+06         0.00000E+00
    0.16958E+06        -0.19609E+07         0.00000E+00
    0.00000E+00         0.00000E+00        -0.15532E+08
 
   -0.15476E+08         0.16891E+06         0.00000E+00
    0.16891E+06        -0.19612E+07         0.00000E+00
    0.00000E+00         0.00000E+00        -0.15473E+08
 
   -0.15421E+08         0.16805E+06         0.00000E+00
    0.16805E+06        -0.19615E+07         0.00000E+00
    0.00000E+00         0.00000E+00        -0.15412E+08
 
   -0.15366E+08         0.16698E+06         0.00000E+00
    0.16698E+06        -0.19619E+07         0.00000E+00
    0.00000E+00         0.00000E+00        -0.15352E+08
 
   -0.15312E+08         0.16568E+06         0.00000E+00
    0.16568E+06        -0.19622E+07         0.00000E+00
    0.00000E+00         0.00000E+00        -0.15292E+08
 
   -0.15258E+08         0.16413E+06         0.00000E+00
    0.16413E+06        -0.19627E+07         0.00000E+00
    0.00000E+00         0.00000E+00        -0.15231E+08
 
   -0.15204E+08         0.16229E+06         0.00000E+00
    0.16229E+06        -0.19631E+07         0.00000E+00
    0.00000E+00         0.00000E+00        -0.15170E+08
 
   -0.15151E+08         0.16014E+06         0.00000E+00
    0.16014E+06        -0.19637E+07         0.00000E+00
    0.00000E+00         0.00000E+00        -0.15109E+08
 
   -0.15099E+08         0.15764E+06         0.00000E+00
    0.15764E+06        -0.19643E+07         0.00000E+00
    0.00000E+00         0.00000E+00        -0.15049E+08
 
   -0.15047E+08         0.15475E+06         0.00000E+00
    0.15475E+06        -0.19649E+07         0.00000E+00
    0.00000E+00         0.00000E+00        -0.14988E+08
 
   -0.14997E+08         0.15141E+06         0.00000E+00
    0.15141E+06        -0.19657E+07         0.00000E+00
    0.00000E+00         0.00000E+00        -0.14927E+08
 
   -0.14947E+08         0.14758E+06         0.00000E+00
    0.14758E+06        -0.19666E+07         0.00000E+00
    0.00000E+00         0.00000E+00        -0.14867E+08
 
   -0.14898E+08         0.14319E+06         0.00000E+00
    0.14319E+06        -0.19676E+07         0.00000E+00
    0.00000E+00         0.00000E+00        -0.14806E+08
 
   -0.14851E+08         0.13816E+06         0.00000E+00
    0.13816E+06        -0.19687E+07         0.00000E+00
    0.00000E+00         0.00000E+00        -0.14746E+08
 
   -0.14805E+08         0.13243E+06         0.00000E+00
    0.13243E+06        -0.19700E+07         0.00000E+00
    0.00000E+00         0.00000E+00        -0.14686E+08
 
   -0.14760E+08         0.12590E+06         0.00000E+00
    0.12590E+06        -0.19715E+07         0.00000E+00
    0.00000E+00         0.00000E+00        -0.14627E+08
 
   -0.14718E+08         0.11850E+06         0.00000E+00
    0.11850E+06        -0.19731E+07         0.00000E+00
    0.00000E+00         0.00000E+00        -0.14567E+08
 
   -0.14677E+08         0.11012E+06         0.00000E+00
    0.11012E+06        -0.19749E+07         0.00000E+00
    0.00000E+00         0.00000E+00        -0.14509E+08
 
   -0.14638E+08         0.10070E+06         0.00000E+00
    0.10070E+06        -0.19769E+07         0.00000E+00
    0.00000E+00         0.00000E+00        -0.14450E+08
 
   -0.14602E+08         0.90165E+05         0.00000E+00
    0.90165E+05        -0.19790E+07         0.00000E+00
    0.00000E+00         0.00000E+00        -0.14393E+08
 
   -0.14568E+08         0.78483E+05         0.00000E+00
    0.78483E+05        -0.19811E+07         0.00000E+00
    0.00000E+00         0.00000E+00        -0.14336E+08
 
   -0.14537E+08         0.65665E+05         0.00000E+00
    0.65665E+05        -0.19833E+07         0.00000E+00
    0.00000E+00         0.00000E+00        -0.14280E+08
 
   -0.14509E+08         0.51800E+05         0.00000E+00
    0.51800E+05        -0.19853E+07         0.00000E+00
    0.00000E+00         0.00000E+00        -0.14224E+08
 
   -0.14483E+08         0.37077E+05         0.00000E+00
    0.37077E+05        -0.19869E+07         0.00000E+00
    0.00000E+00         0.00000E+00        -0.14169E+08
 
   -0.14461E+08         0.21841E+05         0.00000E+00
    0.21841E+05        -0.19878E+07         0.00000E+00
    0.00000E+00         0.00000E+00        -0.14115E+08
 
   -0.14441E+08         0.66423E+04         0.00000E+00
    0.66423E+04        -0.19878E+07         0.00000E+00
    0.00000E+00         0.00000E+00        -0.14061E+08
 
   -0.14424E+08        -0.76819E+04         0.00000E+00
   -0.76819E+04        -0.19863E+07         0.00000E+00
    0.00000E+00         0.00000E+00        -0.14007E+08
 
   -0.14409E+08        -0.19895E+05         0.00000E+00
   -0.19895E+05        -0.19826E+07         0.00000E+00
    0.00000E+00         0.00000E+00        -0.13954E+08
 
   -0.14395E+08        -0.28212E+05         0.00000E+00
   -0.28212E+05        -0.19753E+07         0.00000E+00
    0.00000E+00         0.00000E+00        -0.13899E+08
 
   -0.14382E+08        -0.30254E+05         0.00000E+00
   -0.30254E+05        -0.19617E+07         0.00000E+00
    0.00000E+00         0.00000E+00        -0.13843E+08
 
   -0.14371E+08        -0.23819E+05         0.00000E+00
   -0.23819E+05        -0.19368E+07         0.00000E+00
    0.00000E+00         0.00000E+00        -0.13784E+08
 
   -0.14365E+08        -0.91329E+04         0.00000E+00
   -0.91329E+04        -0.18930E+07         0.00000E+00
    0.00000E+00         0.00000E+00        -0.13721E+08
 
   -0.18256E+08        -0.52338E+04         0.00000E+00
   -0.52338E+04        -0.19950E+07         0.00000E+00
    0.00000E+00         0.00000E+00        -0.18661E+08
 
   -0.18252E+08        -0.13409E+05         0.00000E+00
   -0.13409E+05        -0.19706E+07         0.00000E+00
    0.00000E+00         0.00000E+00        -0.18624E+08
 
   -0.18245E+08        -0.16431E+05         0.00000E+00
   -0.16431E+05        -0.19573E+07         0.00000E+00
    0.00000E+00         0.00000E+00        -0.18591E+08
 
   -0.18238E+08        -0.14378E+05         0.00000E+00
   -0.14378E+05        -0.19504E+07         0.00000E+00
    0.00000E+00         0.00000E+00        -0.18559E+08
 
   -0.18230E+08        -0.87409E+04         0.00000E+00
   -0.87409E+04        -0.19468E+07         0.00000E+00
    0.00000E+00         0.00000E+00        -0.18527E+08
 
   -0.18221E+08        -0.95487E+03         0.00000E+00
   -0.95487E+03        -0.19449E+07         0.00000E+00
    0.00000E+00         0.00000E+00        -0.18496E+08
 
   -0.18210E+08         0.79672E+04         0.00000E+00
    0.79672E+04        -0.19442E+07         0.00000E+00
    0.00000E+00         0.00000E+00        -0.18465E+08
 
   -0.18198E+08         0.17345E+05         0.00000E+00
    0.17345E+05        -0.19443E+07         0.00000E+00
    0.00000E+00         0.00000E+00        -0.18433E+08
 
   -0.18184E+08         0.26724E+05         0.00000E+00
    0.26724E+05        -0.19448E+07         0.00000E+00
    0.00000E+00         0.00000E+00        -0.18401E+08
 
   -0.18167E+08         0.35806E+05         0.00000E+00
    0.35806E+05        -0.19457E+07         0.00000E+00
    0.00000E+00         0.00000E+00        -0.18368E+08
 
   -0.18149E+08         0.44410E+05         0.00000E+00
    0.44410E+05        -0.19467E+07         0.00000E+00
    0.00000E+00         0.00000E+00        -0.18334E+08
 
   -0.18128E+08         0.52434E+05         0.00000E+00
    0.52434E+05        -0.19478E+07         0.00000E+00
    0.00000E+00         0.00000E+00        -0.18300E+08
 
   -0.18106E+08         0.59837E+05         0.00000E+00
    0.59837E+05        -0.19489E+07         0.00000E+00
    0.00000E+00         0.00000E+00        -0.18265E+08
 
   -0.18081E+08         0.66616E+05         0.00000E+00
    0.66616E+05        -0.19499E+07         0.00000E+00
    0.00000E+00         0.00000E+00        -0.18230E+08
 
   -0.18055E+08         0.72794E+05         0.00000E+00
    0.72794E+05        -0.19509E+07         0.00000E+00
    0.00000E+00         0.00000E+00        -0.18193E+08
 
   -0.18027E+08         0.78412E+05         0.00000E+00
    0.78412E+05        -0.19518E+07         0.00000E+00
    0.00000E+00         0.00000E+00        -0.18156E+08
 
   -0.17998E+08         0.83517E+05         0.00000E+00
    0.83517E+05        -0.19526E+07         0.00000E+00
    0.00000E+00         0.00000E+00        -0.18119E+08
 
   -0.17968E+08         0.88159E+05         0.00000E+00
    0.88159E+05        -0.19533E+07         0.00000E+00
    0.00000E+00         0.00000E+00        -0.18081E+08
 
   -0.17936E+08         0.92391E+05         0.00000E+00
    0.92391E+05        -0.19539E+07         0.00000E+00
    0.00000E+00         0.00000E+00        -0.18042E+08
 
   -0.17902E+08         0.96259E+05         0.00000E+00
    0.96259E+05        -0.19545E+07         0.00000E+00
    0.00000E+00         0.00000E+00        -0.18003E+08
 
   -0.17868E+08         0.99808E+05         0.00000E+00
    0.99808E+05        -0.19549E+07         0.00000E+00
    0.00000E+00         0.00000E+00        -0.17963E+08
 
   -0.17833E+08         0.10308E+06         0.00000E+00
    0.10308E+06        -0.19553E+07         0.00000E+00
    0.00000E+00         0.00000E+00        -0.17923E+08
 
   -0.17796E+08         0.10610E+06         0.00000E+00
    0.10610E+06        -0.19557E+07         0.00000E+00
    0.00000E+00         0.00000E+00        -0.17882E+08
 
   -0.17759E+08         0.10892E+06         0.00000E+00
    0.10892E+06        -0.19560E+07         0.00000E+00
    0.00000E+00         0.00000E+00        -0.17841E+08
 
   -0.17721E+08         0.11154E+06         0.00000E+00
    0.11154E+06        -0.19563E+07         0.00000E+00
    0.00000E+00         0.00000E+00        -0.17799E+08
 
   -0.17682E+08         0.11401E+06         0.00000E+00
    0.11401E+06        -0.19565E+07         0.00000E+00
    0.00000E+00         0.00000E+00        -0.17757E+08
 
   -0.17642E+08         0.11633E+06         0.00000E+00
    0.11633E+06        -0.19567E+07         0.00000E+00
    0.00000E+00         0.00000E+00        -0.17714E+08
 
   -0.17601E+08         0.11853E+06         0.00000E+00
    0.11853E+06        -0.19569E+07         0.00000E+00
    0.00000E+00         0.00000E+00        -0.17671E+08
 
   -0.17560E+08         0.12061E+06         0.00000E+00
    0.12061E+06        -0.19570E+07         0.00000E+00
    0.00000E+00         0.00000E+00        -0.17627E+08
 
   -0.17518E+08         0.12260E+06         0.00000E+00
    0.12260E+06        -0.19571E+07         0.00000E+00
    0.00000E+00         0.00000E+00        -0.17583E+08
 
   -0.17475E+08         0.12449E+06         0.00000E+00
    0.12449E+06        -0.19573E+07         0.00000E+00
    0.00000E+00         0.00000E+00        -0.17539E+08
 
   -0.17432E+08         0.12631E+06         0.00000E+00
    0.12631E+06        -0.19574E+07         0.00000E+00
    0.00000E+00         0.00000E+00        -0.17494E+08
 
   -0.17388E+08         0.12805E+06         0.00000E+00
    0.12805E+06        -0.19575E+07         0.00000E+00
    0.00000E+00         0.00000E+00        -0.17448E+08
 
   -0.17343E+08         0.12974E+06         0.00000E+00
    0.12974E+06        -0.19576E+07         0.00000E+00
    0.00000E+00         0.00000E+00        -0.17403E+08
 
   -0.17298E+08         0.13136E+06         0.00000E+00
    0.13136E+06        -0.19576E+07         0.00000E+00
    0.00000E+00         0.00000E+00        -0.17356E+08
 
   -0.17253E+08         0.13293E+06         0.00000E+00
    0.13293E+06        -0.19577E+07         0.00000E+00
    0.00000E+00         0.00000E+00        -0.17310E+08
 
   -0.17206E+08         0.13444E+06         0.00000E+00
    0.13444E+06        -0.19578E+07         0.00000E+00
    0.00000E+00         0.00000E+00        -0.17262E+08
 
   -0.17160E+08         0.13592E+06         0.00000E+00
    0.13592E+06        -0.19579E+07         0.00000E+00
    0.00000E+00         0.00000E+00        -0.17215E+08
 
   -0.17113E+08         0.13735E+06         0.00000E+00
    0.13735E+06        -0.19579E+07         0.00000E+00
    0.00000E+00         0.00000E+00        -0.17167E+08
 
   -0.17065E+08         0.13874E+06         0.00000E+00
    0.13874E+06        -0.19580E+07         0.00000E+00
    0.00000E+00         0.00000E+00        -0.17118E+08
 
   -0.17017E+08         0.14009E+06         0.00000E+00
    0.14009E+06        -0.19580E+07         0.00000E+00
    0.00000E+00         0.00000E+00        -0.17070E+08
 
   -0.16968E+08         0.14140E+06         0.00000E+00
    0.14140E+06        -0.19581E+07         0.00000E+00
    0.00000E+00         0.00000E+00        -0.17020E+08
 
   -0.16919E+08         0.14268E+06         0.00000E+00
    0.14268E+06        -0.19581E+07         0.00000E+00
    0.00000E+00         0.00000E+00        -0.16970E+08
 
   -0.16870E+08         0.14392E+06         0.00000E+00
    0.14392E+06        -0.19582E+07         0.00000E+00
    0.00000E+00         0.00000E+00        -0.16920E+08
 
   -0.16820E+08         0.14513E+06         0.00000E+00
    0.14513E+06        -0.19582E+07         0.00000E+00
    0.00000E+00         0.00000E+00        -0.16870E+08
 
   -0.16770E+08         0.14631E+06         0.00000E+00
    0.14631E+06        -0.19583E+07         0.00000E+00
    0.00000E+00         0.00000E+00        -0.16819E+08
 
   -0.16719E+08         0.14745E+06         0.00000E+00
    0.14745E+06        -0.19583E+07         0.00000E+00
    0.00000E+00         0.00000E+00        -0.16767E+08
 
   -0.16668E+08         0.14855E+06         0.00000E+00
    0.14855E+06        -0.19584E+07         0.00000E+00
    0.00000E+00         0.00000E+00        -0.16715E+08
 
   -0.16616E+08         0.14962E+06         0.00000E+00
    0.14962E+06        -0.19584E+07         0.00000E+00
    0.00000E+00         0.00000E+00        -0.16663E+08
 
   -0.16565E+08         0.15065E+06         0.00000E+00
    0.15065E+06        -0.19585E+07         0.00000E+00
    0.00000E+00         0.00000E+00        -0.16610E+08
 
   -0.16512E+08         0.15164E+06         0.00000E+00
    0.15164E+06        -0.19586E+07         0.00000E+00
    0.00000E+00         0.00000E+00        -0.16557E+08
 
   -0.16460E+08         0.15259E+06         0.00000E+00
    0.15259E+06        -0.19586E+07         0.00000E+00
    0.00000E+00         0.00000E+00        -0.16503E+08
 
   -0.16407E+08         0.15350E+06         0.00000E+00
    0.15350E+06        -0.19587E+07         0.00000E+00
    0.00000E+00         0.00000E+00        -0.16449E+08
 
   -0.16354E+08         0.15436E+06         0.00000E+00
    0.15436E+06        -0.19588E+07         0.00000E+00
    0.00000E+00         0.00000E+00        -0.16394E+08
 
   -0.16300E+08         0.15517E+06         0.00000E+00
    0.15517E+06        -0.19588E+07         0.00000E+00
    0.00000E+00         0.00000E+00        -0.16340E+08
 
   -0.16246E+08         0.15593E+06         0.00000E+00
    0.15593E+06        -0.19589E+07         0.00000E+00
    0.00000E+00         0.00000E+00        -0.16284E+08
 
   -0.16192E+08         0.15663E+06         0.00000E+00
    0.15663E+06        -0.19590E+07         0.00000E+00
    0.00000E+00         0.00000E+00        -0.16229E+08
 
   -0.16138E+08         0.15727E+06         0.00000E+00
    0.15727E+06        -0.19591E+07         0.00000E+00
    0.00000E+00         0.00000E+00        -0.16172E+08
 
   -0.16083E+08         0.15785E+06         0.00000E+00
    0.15785E+06        -0.19592E+07         0.00000E+00
    0.00000E+00         0.00000E+00        -0.16116E+08
 
   -0.16029E+08         0.15835E+06         0.00000E+00
    0.15835E+06        -0.19593E+07         0.00000E+00
    0.00000E+00         0.00000E+00        -0.16059E+08
 
   -0.15974E+08         0.15878E+06         0.00000E+00
    0.15878E+06        -0.19594E+07         0.00000E+00
    0.00000E+00         0.00000E+00        -0.16002E+08
 
   -0.15919E+08         0.15912E+06         0.00000E+00
    0.15912E+06        -0.19596E+07         0.00000E+00
    0.00000E+00         0.00000E+00        -0.15944E+08
 
   -0.15863E+08         0.15938E+06         0.00000E+00
    0.15938E+06        -0.19597E+07         0.00000E+00
    0.00000E+00         0.00000E+00        -0.15886E+08
 
   -0.15808E+08         0.15953E+06         0.00000E+00
    0.15953E+06        -0.19598E+07         0.00000E+00
    0.00000E+00         0.00000E+00        -0.15828E+08
 
   -0.15753E+08         0.15958E+06         0.00000E+00
    0.15958E+06        -0.19600E+07         0.00000E+00
    0.00000E+00         0.00000E+00        -0.15769E+08
 
   -0.15697E+08         0.15952E+06         0.00000E+00
    0.15952E+06        -0.19602E+07         0.00000E+00
    0.00000E+00         0.00000E+00        -0.15711E+08
 
   -0.15642E+08         0.15933E+06         0.00000E+00
    0.15933E+06        -0.19604E+07         0.00000E+00
    0.00000E+00         0.00000E+00        -0.15651E+08
 
   -0.15586E+08         0.15900E+06         0.00000E+00
    0.15900E+06        -0.19606E+07         0.00000E+00
    0.00000E+00         0.00000E+00        -0.15592E+08
 
   -0.15531E+08         0.15853E+06         0.00000E+00
    0.15853E+06        -0.19608E+07         0.00000E+00
    0.00000E+00         0.00000E+00        -0.15532E+08
 
   -0.15476E+08         0.15789E+06         0.00000E+00
    0.15789E+06        -0.19611E+07         0.00000E+00
    0.00000E+00         0.00000E+00        -0.15472E+08
 
   -0.15421E+08         0.15708E+06         0.00000E+00
    0.15708E+06        -0.19613E+07         0.00000E+00
    0.00000E+00         0.00000E+00        -0.15412E+08
 
   -0.15366E+08         0.15607E+06         0.00000E+00
    0.15607E+06        -0.19616E+07         0.00000E+00
    0.00000E+00         0.00000E+00        -0.15352E+08
 
   -0.15312E+08         0.15484E+06         0.00000E+00
    0.15484E+06        -0.19620E+07         0.00000E+00
    0.00000E+00         0.00000E+00        -0.15291E+08
 
   -0.15258E+08         0.15338E+06         0.00000E+00
    0.15338E+06        -0.19623E+07         0.00000E+00
    0.00000E+00         0.00000E+00        -0.15231E+08
 
   -0.15205E+08         0.15164E+06         0.00000E+00
    0.15164E+06        -0.19628E+07         0.00000E+00
    0.00000E+00         0.00000E+00        -0.15170E+08
 
   -0.15152E+08         0.14962E+06         0.00000E+00
    0.14962E+06        -0.19632E+07         0.00000E+00
    0.00000E+00         0.00000E+00        -0.15109E+08
 
   -0.15100E+08         0.14726E+06         0.00000E+00
    0.14726E+06        -0.19637E+07         0.00000E+00
    0.00000E+00         0.00000E+00        -0.15049E+08
 
   -0.15048E+08         0.14453E+06         0.00000E+00
    0.14453E+06        -0.19643E+07         0.00000E+00
    0.00000E+00         0.00000E+00        -0.14988E+08
 
   -0.14998E+08         0.14138E+06         0.00000E+00
    0.14138E+06        -0.19650E+07         0.00000E+00
    0.00000E+00         0.00000E+00        -0.14927E+08
 
   -0.14948E+08         0.13776E+06         0.00000E+00
    0.13776E+06        -0.19658E+07         0.00000E+00
    0.00000E+00         0.00000E+00        -0.14867E+08
 
   -0.14900E+08         0.13361E+06         0.00000E+00
    0.13361E+06        -0.19667E+07         0.00000E+00
    0.00000E+00         0.00000E+00        -0.14806E+08
 
   -0.14853E+08         0.12886E+06         0.00000E+00
    0.12886E+06        -0.19677E+07         0.00000E+00
    0.00000E+00         0.00000E+00        -0.14746E+08
 
   -0.14807E+08         0.12343E+06         0.00000E+00
    0.12343E+06        -0.19688E+07         0.00000E+00
    0.00000E+00         0.00000E+00        -0.14686E+08
 
   -0.14763E+08         0.11724E+06         0.00000E+00
    0.11724E+06        -0.19701E+07         0.00000E+00
    0.00000E+00         0.00000E+00        -0.14627E+08
 
   -0.14721E+08         0.11021E+06         0.00000E+00
    0.11021E+06        -0.19716E+07         0.00000E+00
    0.00000E+00         0.00000E+00        -0.14568E+08
 
   -0.14681E+08         0.10224E+06         0.00000E+00
    0.10224E+06        -0.19732E+07         0.00000E+00
    0.00000E+00         0.00000E+00        -0.14509E+08
 
   -0.14643E+08         0.93275E+05         0.00000E+00
    0.93275E+05        -0.19749E+07         0.00000E+00
    0.00000E+00         0.00000E+00        -0.14451E+08
 
   -0.14607E+08         0.83231E+05         0.00000E+00
    0.83231E+05        -0.19768E+07         0.00000E+00
    0.00000E+00         0.00000E+00        -0.14394E+08
 
   -0.14574E+08         0.72077E+05         0.00000E+00
    0.72077E+05        -0.19787E+07         0.00000E+00
    0.00000E+00         0.00000E+00        -0.14337E+08
 
   -0.14544E+08         0.59822E+05         0.00000E+00
    0.59822E+05        -0.19807E+07         0.00000E+00
    0.00000E+00         0.00000E+00        -0.14281E+08
 
   -0.14517E+08         0.46545E+05         0.00000E+00
    0.46545E+05        -0.19824E+07         0.00000E+00
    0.00000E+00         0.00000E+00        -0.14226E+08
 
   -0.14493E+08         0.32426E+05         0.00000E+00
    0.32426E+05        -0.19839E+07         0.00000E+00
    0.00000E+00         0.00000E+00        -0.14171E+08
 
   -0.14472E+08         0.17787E+05         0.00000E+00
    0.17787E+05        -0.19848E+07         0.00000E+00
    0.00000E+00         0.00000E+00        -0.14117E+08
 
   -0.14454E+08         0.31481E+04         0.00000E+00
    0.31481E+04        -0.19849E+07         0.00000E+00
    0.00000E+00         0.00000E+00        -0.14064E+08
 
   -0.14439E+08        -0.10695E+05         0.00000E+00
   -0.10695E+05        -0.19836E+07         0.00000E+00
    0.00000E+00         0.00000E+00        -0.14011E+08
 
   -0.14426E+08        -0.22560E+05         0.00000E+00
   -0.22560E+05        -0.19805E+07         0.00000E+00
    0.00000E+00         0.00000E+00        -0.13958E+08
 
   -0.14414E+08        -0.30691E+05         0.00000E+00
   -0.30691E+05        -0.19741E+07         0.00000E+00
    0.00000E+00         0.00000E+00        -0.13905E+08
 
   -0.14403E+08        -0.32600E+05         0.00000E+00
   -0.32600E+05        -0.19621E+07         0.00000E+00
    0.00000E+00         0.00000E+00        -0.13850E+08
 
   -0.14393E+08        -0.25714E+05         0.00000E+00
   -0.25714E+05        -0.19391E+07         0.00000E+00
    0.00000E+00         0.00000E+00        -0.13792E+08
 
   -0.14386E+08        -0.98957E+04         0.00000E+00
   -0.98957E+04        -0.18968E+07         0.00000E+00
    0.00000E+00         0.00000E+00        -0.13729E+08
 
   -0.18242E+08        -0.56972E+04         0.00000E+00
   -0.56972E+04        -0.19929E+07         0.00000E+00
    0.00000E+00         0.00000E+00        -0.18656E+08
 
   -0.18238E+08        -0.14532E+05         0.00000E+00
   -0.14532E+05        -0.19694E+07         0.00000E+00
    0.00000E+00         0.00000E+00        -0.18620E+08
 
   -0.18232E+08        -0.17781E+05         0.00000E+00
   -0.17781E+05        -0.19572E+07         0.00000E+00
    0.00000E+00         0.00000E+00        -0.18587E+08
 
   -0.18226E+08        -0.15795E+05         0.00000E+00
   -0.15795E+05        -0.19512E+07         0.00000E+00
    0.00000E+00         0.00000E+00        -0.18555E+08
 
   -0.18219E+08        -0.10298E+05         0.00000E+00
   -0.10298E+05        -0.19481E+07         0.00000E+00
    0.00000E+00         0.00000E+00        -0.18524E+08
 
   -0.18211E+08        -0.27728E+04         0.00000E+00
   -0.27728E+04        -0.19466E+07         0.00000E+00
    0.00000E+00         0.00000E+00        -0.18494E+08
 
   -0.18202E+08         0.57987E+04         0.00000E+00
    0.57987E+04        -0.19461E+07         0.00000E+00
    0.00000E+00         0.00000E+00        -0.18463E+08
 
   -0.18191E+08         0.14774E+05         0.00000E+00
    0.14774E+05        -0.19461E+07         0.00000E+00
    0.00000E+00         0.00000E+00        -0.18431E+08
 
   -0.18177E+08         0.23726E+05         0.00000E+00
    0.23726E+05        -0.19466E+07         0.00000E+00
    0.00000E+00         0.00000E+00        -0.18399E+08
 
   -0.18162E+08         0.32377E+05         0.00000E+00
    0.32377E+05        -0.19474E+07         0.00000E+00
    0.00000E+00         0.00000E+00        -0.18367E+08
 
   -0.18144E+08         0.40557E+05         0.00000E+00
    0.40557E+05        -0.19483E+07         0.00000E+00
    0.00000E+00         0.00000E+00        -0.18333E+08
 
   -0.18124E+08         0.48175E+05         0.00000E+00
    0.48175E+05        -0.19493E+07         0.00000E+00
    0.00000E+00         0.00000E+00        -0.18299E+08
 
   -0.18102E+08         0.55190E+05         0.00000E+00
    0.55190E+05        -0.19502E+07         0.00000E+00
    0.00000E+00         0.00000E+00        -0.18264E+08
 
   -0.18078E+08         0.61604E+05         0.00000E+00
    0.61604E+05        -0.19512E+07         0.00000E+00
    0.00000E+00         0.00000E+00        -0.18229E+08
 
   -0.18052E+08         0.67440E+05         0.00000E+00
    0.67440E+05        -0.19521E+07         0.00000E+00
    0.00000E+00         0.00000E+00        -0.18193E+08
 
   -0.18025E+08         0.72739E+05         0.00000E+00
    0.72739E+05        -0.19528E+07         0.00000E+00
    0.00000E+00         0.00000E+00        -0.18156E+08
 
   -0.17996E+08         0.77546E+05         0.00000E+00
    0.77546E+05        -0.19535E+07         0.00000E+00
    0.00000E+00         0.00000E+00        -0.18118E+08
 
   -0.17965E+08         0.81912E+05         0.00000E+00
    0.81912E+05        -0.19542E+07         0.00000E+00
    0.00000E+00         0.00000E+00        -0.18080E+08
 
   -0.17933E+08         0.85885E+05         0.00000E+00
    0.85885E+05        -0.19547E+07         0.00000E+00
    0.00000E+00         0.00000E+00        -0.18042E+08
 
   -0.17900E+08         0.89513E+05         0.00000E+00
    0.89513E+05        -0.19552E+07         0.00000E+00
    0.00000E+00         0.00000E+00        -0.18002E+08
 
   -0.17866E+08         0.92839E+05         0.00000E+00
    0.92839E+05        -0.19556E+07         0.00000E+00
    0.00000E+00         0.00000E+00        -0.17963E+08
 
   -0.17831E+08         0.95900E+05         0.00000E+00
    0.95900E+05        -0.19559E+07         0.00000E+00
    0.00000E+00         0.00000E+00        -0.17922E+08
 
   -0.17794E+08         0.98730E+05         0.00000E+00
    0.98730E+05        -0.19563E+07         0.00000E+00
    0.00000E+00         0.00000E+00        -0.17882E+08
 
   -0.17757E+08         0.10136E+06         0.00000E+00
    0.10136E+06        -0.19565E+07         0.00000E+00
    0.00000E+00         0.00000E+00        -0.17840E+08
 
   -0.17719E+08         0.10381E+06         0.00000E+00
    0.10381E+06        -0.19567E+07         0.00000E+00
    0.00000E+00         0.00000E+00        -0.17799E+08
 
   -0.17680E+08         0.10612E+06         0.00000E+00
    0.10612E+06        -0.19569E+07         0.00000E+00
    0.00000E+00         0.00000E+00        -0.17756E+08
 
   -0.17640E+08         0.10828E+06         0.00000E+00
    0.10828E+06        -0.19571E+07         0.00000E+00
    0.00000E+00         0.00000E+00        -0.17714E+08
 
   -0.17599E+08         0.11033E+06         0.00000E+00
    0.11033E+06        -0.19573E+07         0.00000E+00
    0.00000E+00         0.00000E+00        -0.17671E+08
 
   -0.17558E+08         0.11227E+06         0.00000E+00
    0.11227E+06        -0.19574E+07         0.00000E+00
    0.00000E+00         0.00000E+00        -0.17627E+08
 
   -0.17516E+08         0.11413E+06         0.00000E+00
    0.11413E+06        -0.19575E+07         0.00000E+00
    0.00000E+00         0.00000E+00        -0.17583E+08
 
   -0.17473E+08         0.11589E+06         0.00000E+00
    0.11589E+06        -0.19576E+07         0.00000E+00
    0.00000E+00         0.00000E+00        -0.17538E+08
 
   -0.17430E+08         0.11759E+06         0.00000E+00
    0.11759E+06        -0.19577E+07         0.00000E+00
    0.00000E+00         0.00000E+00        -0.17493E+08
 
   -0.17386E+08         0.11921E+06         0.00000E+00
    0.11921E+06        -0.19578E+07         0.00000E+00
    0.00000E+00         0.00000E+00        -0.17448E+08
 
   -0.17342E+08         0.12078E+06         0.00000E+00
    0.12078E+06        -0.19579E+07         0.00000E+00
    0.00000E+00         0.00000E+00        -0.17402E+08
 
   -0.17297E+08         0.12229E+06         0.00000E+00
    0.12229E+06        -0.19580E+07         0.00000E+00
    0.00000E+00         0.00000E+00        -0.17356E+08
 
   -0.17251E+08         0.12375E+06         0.00000E+00
    0.12375E+06        -0.19580E+07         0.00000E+00
    0.00000E+00         0.00000E+00        -0.17309E+08
 
   -0.17205E+08         0.12517E+06         0.00000E+00
    0.12517E+06        -0.19581E+07         0.00000E+00
    0.00000E+00         0.00000E+00        -0.17262E+08
 
   -0.17158E+08         0.12654E+06         0.00000E+00
    0.12654E+06        -0.19581E+07         0.00000E+00
    0.00000E+00         0.00000E+00        -0.17215E+08
 
   -0.17111E+08         0.12787E+06         0.00000E+00
    0.12787E+06        -0.19582E+07         0.00000E+00
    0.00000E+00         0.00000E+00        -0.17167E+08
 
   -0.17064E+08         0.12916E+06         0.00000E+00
    0.12916E+06        -0.19582E+07         0.00000E+00
    0.00000E+00         0.00000E+00        -0.17118E+08
 
   -0.17015E+08         0.13042E+06         0.00000E+00
    0.13042E+06        -0.19583E+07         0.00000E+00
    0.00000E+00         0.00000E+00        -0.17069E+08
 
   -0.16967E+08         0.13164E+06         0.00000E+00
    0.13164E+06        -0.19583E+07         0.00000E+00
    0.00000E+00         0.00000E+00        -0.17020E+08
 
   -0.16918E+08         0.13283E+06         0.00000E+00
    0.13283E+06        -0.19584E+07         0.00000E+00
    0.00000E+00         0.00000E+00        -0.16970E+08
 
   -0.16868E+08         0.13399E+06         0.00000E+00
    0.13399E+06        -0.19584E+07         0.00000E+00
    0.00000E+00         0.00000E+00        -0.16920E+08
 
   -0.16819E+08         0.13511E+06         0.00000E+00
    0.13511E+06        -0.19585E+07         0.00000E+00
    0.00000E+00         0.00000E+00        -0.16869E+08
 
   -0.16768E+08         0.13621E+06         0.00000E+00
    0.13621E+06        -0.19585E+07         0.00000E+00
    0.00000E+00         0.00000E+00        -0.16818E+08
 
   -0.16718E+08         0.13727E+06         0.00000E+00
    0.13727E+06        -0.19586E+07         0.00000E+00
    0.00000E+00         0.00000E+00        -0.16767E+08
 
   -0.16667E+08         0.13829E+06         0.00000E+00
    0.13829E+06        -0.19586E+07         0.00000E+00
    0.00000E+00         0.00000E+00        -0.16715E+08
 
   -0.16615E+08         0.13929E+06         0.00000E+00
    0.13929E+06        -0.19587E+07         0.00000E+00
    0.00000E+00         0.00000E+00        -0.16662E+08
 
   -0.16563E+08         0.14024E+06         0.00000E+00
    0.14024E+06        -0.19587E+07         0.00000E+00
    0.00000E+00         0.00000E+00        -0.16610E+08
 
   -0.16511E+08         0.14117E+06         0.00000E+00
    0.14117E+06        -0.19588E+07         0.00000E+00
    0.00000E+00         0.00000E+00        -0.16556E+08
 
   -0.16458E+08         0.14205E+06         0.00000E+00
    0.14205E+06        -0.19588E+07         0.00000E+00
    0.00000E+00         0.00000E+00        -0.16503E+08
 
   -0.16406E+08         0.14289E+06         0.00000E+00
    0.14289E+06        -0.19589E+07         0.00000E+00
    0.00000E+00         0.00000E+00        -0.16449E+08
 
   -0.16352E+08         0.14369E+06         0.00000E+00
    0.14369E+06        -0.19589E+07         0.00000E+00
    0.00000E+00         0.00000E+00        -0.16394E+08
 
   -0.16299E+08         0.14444E+06         0.00000E+00
    0.14444E+06        -0.19590E+07         0.00000E+00
    0.00000E+00         0.00000E+00        -0.16339E+08
 
   -0.16245E+08         0.14514E+06         0.00000E+00
    0.14514E+06        -0.19591E+07         0.00000E+00
    0.00000E+00         0.00000E+00        -0.16284E+08
 
   -0.16191E+08         0.14579E+06         0.00000E+00
    0.14579E+06        -0.19591E+07         0.00000E+00
    0.00000E+00         0.00000E+00        -0.16228E+08
 
   -0.16137E+08         0.14639E+06         0.00000E+00
    0.14639E+06        -0.19592E+07         0.00000E+00
    0.00000E+00         0.00000E+00        -0.16172E+08
 
   -0.16082E+08         0.14692E+06         0.00000E+00
    0.14692E+06        -0.19593E+07         0.00000E+00
    0.00000E+00         0.00000E+00        -0.16116E+08
 
   -0.16028E+08         0.14738E+06         0.00000E+00
    0.14738E+06        -0.19594E+07         0.00000E+00
    0.00000E+00         0.00000E+00        -0.16059E+08
 
   -0.15973E+08         0.14777E+06         0.00000E+00
    0.14777E+06        -0.19595E+07         0.00000E+00
    0.00000E+00         0.00000E+00        -0.16002E+08
 
   -0.15918E+08         0.14809E+06         0.00000E+00
    0.14809E+06        -0.19596E+07         0.00000E+00
    0.00000E+00         0.00000E+00        -0.15944E+08
 
   -0.15862E+08         0.14832E+06         0.00000E+00
    0.14832E+06        -0.19597E+07         0.00000E+00
    0.00000E+00         0.00000E+00        -0.15886E+08
 
   -0.15807E+08         0.14846E+06         0.00000E+00
    0.14846E+06        -0.19599E+07         0.00000E+00
    0.00000E+00         0.00000E+00        -0.15828E+08
 
   -0.15752E+08         0.14850E+06         0.00000E+00
    0.14850E+06        -0.19600E+07         0.00000E+00
    0.00000E+00         0.00000E+00        -0.15769E+08
 
   -0.15696E+08         0.14844E+06         0.00000E+00
    0.14844E+06        -0.19602E+07         0.00000E+00
    0.00000E+00         0.00000E+00        -0.15710E+08
 
   -0.15641E+08         0.14825E+06         0.00000E+00
    0.14825E+06        -0.19603E+07         0.00000E+00
    0.00000E+00         0.00000E+00        -0.15651E+08
 
   -0.15586E+08         0.14794E+06         0.00000E+00
    0.14794E+06        -0.19605E+07         0.00000E+00
    0.00000E+00         0.00000E+00        -0.15592E+08
 
   -0.15530E+08         0.14750E+06         0.00000E+00
    0.14750E+06        -0.19607E+07         0.00000E+00
    0.00000E+00         0.00000E+00        -0.15532E+08
 
   -0.15475E+08         0.14690E+06         0.00000E+00
    0.14690E+06        -0.19609E+07         0.00000E+00
    0.00000E+00         0.00000E+00        -0.15472E+08
 
   -0.15421E+08         0.14613E+06         0.00000E+00
    0.14613E+06        -0.19612E+07         0.00000E+00
    0.00000E+00         0.00000E+00        -0.15412E+08
 
   -0.15366E+08         0.14518E+06         0.00000E+00
    0.14518E+06        -0.19614E+07         0.00000E+00
    0.00000E+00         0.00000E+00        -0.15352E+08
 
   -0.15312E+08         0.14403E+06         0.00000E+00
    0.14403E+06        -0.19617E+07         0.00000E+00
    0.00000E+00         0.00000E+00        -0.15291E+08
 
   -0.15258E+08         0.14265E+06         0.00000E+00
    0.14265E+06        -0.19620E+07         0.00000E+00
    0.00000E+00         0.00000E+00        -0.15231E+08
 
   -0.15205E+08         0.14103E+06         0.00000E+00
    0.14103E+06        -0.19624E+07         0.00000E+00
    0.00000E+00         0.00000E+00        -0.15170E+08
 
   -0.15152E+08         0.13913E+06         0.00000E+00
    0.13913E+06        -0.19628E+07         0.00000E+00
    0.00000E+00         0.00000E+00        -0.15109E+08
 
   -0.15100E+08         0.13691E+06         0.00000E+00
    0.13691E+06        -0.19633E+07         0.00000E+00
    0.00000E+00         0.00000E+00        -0.15049E+08
 
   -0.15049E+08         0.13435E+06         0.00000E+00
    0.13435E+06        -0.19638E+07         0.00000E+00
    0.00000E+00         0.00000E+00        -0.14988E+08
 
   -0.14999E+08         0.13140E+06         0.00000E+00
    0.13140E+06        -0.19644E+07         0.00000E+00
    0.00000E+00         0.00000E+00        -0.14927E+08
 
   -0.14949E+08         0.12800E+06         0.00000E+00
    0.12800E+06        -0.19650E+07         0.00000E+00
    0.00000E+00         0.00000E+00        -0.14867E+08
 
   -0.14901E+08         0.12409E+06         0.00000E+00
    0.12409E+06        -0.19658E+07         0.00000E+00
    0.00000E+00         0.00000E+00        -0.14807E+08
 
   -0.14854E+08         0.11962E+06         0.00000E+00
    0.11962E+06        -0.19667E+07         0.00000E+00
    0.00000E+00         0.00000E+00        -0.14747E+08
 
   -0.14809E+08         0.11450E+06         0.00000E+00
    0.11450E+06        -0.19677E+07         0.00000E+00
    0.00000E+00         0.00000E+00        -0.14687E+08
 
   -0.14766E+08         0.10866E+06         0.00000E+00
    0.10866E+06        -0.19688E+07         0.00000E+00
    0.00000E+00         0.00000E+00        -0.14627E+08
 
   -0.14724E+08         0.10202E+06         0.00000E+00
    0.10202E+06        -0.19701E+07         0.00000E+00
    0.00000E+00         0.00000E+00        -0.14568E+08
 
   -0.14684E+08         0.94493E+05         0.00000E+00
    0.94493E+05        -0.19715E+07         0.00000E+00
    0.00000E+00         0.00000E+00        -0.14510E+08
 
   -0.14647E+08         0.85996E+05         0.00000E+00
    0.85996E+05        -0.19731E+07         0.00000E+00
    0.00000E+00         0.00000E+00        -0.14452E+08
 
   -0.14612E+08         0.76469E+05         0.00000E+00
    0.76469E+05        -0.19747E+07         0.00000E+00
    0.00000E+00         0.00000E+00        -0.14395E+08
 
   -0.14580E+08         0.65872E+05         0.00000E+00
    0.65872E+05        -0.19764E+07         0.00000E+00
    0.00000E+00         0.00000E+00        -0.14338E+08
 
   -0.14551E+08         0.54212E+05         0.00000E+00
    0.54212E+05        -0.19782E+07         0.00000E+00
    0.00000E+00         0.00000E+00        -0.14283E+08
 
   -0.14526E+08         0.41560E+05         0.00000E+00
    0.41560E+05        -0.19798E+07         0.00000E+00
    0.00000E+00         0.00000E+00        -0.14228E+08
 
   -0.14503E+08         0.28081E+05         0.00000E+00
    0.28081E+05        -0.19811E+07         0.00000E+00
    0.00000E+00         0.00000E+00        -0.14173E+08
 
   -0.14484E+08         0.14077E+05         0.00000E+00
    0.14077E+05        -0.19819E+07         0.00000E+00
    0.00000E+00         0.00000E+00        -0.14120E+08
 
   -0.14468E+08         0.33252E+02         0.00000E+00
    0.33252E+02        -0.19821E+07         0.00000E+00
    0.00000E+00         0.00000E+00        -0.14067E+08
 
   -0.14454E+08        -0.13304E+05         0.00000E+00
   -0.13304E+05        -0.19811E+07         0.00000E+00
    0.00000E+00         0.00000E+00        -0.14015E+08
 
   -0.14443E+08        -0.24817E+05         0.00000E+00
   -0.24817E+05        -0.19784E+07         0.00000E+00
    0.00000E+00         0.00000E+00        -0.13963E+08
 
   -0.14434E+08        -0.32804E+05         0.00000E+00
   -0.32804E+05        -0.19730E+07         0.00000E+00
    0.00000E+00         0.00000E+00        -0.13910E+08
 
   -0.14424E+08        -0.34696E+05         0.00000E+00
   -0.34696E+05        -0.19626E+07         0.00000E+00
    0.00000E+00         0.00000E+00        -0.13856E+08
 
   -0.14415E+08        -0.27511E+05         0.00000E+00
   -0.27511E+05        -0.19416E+07         0.00000E+00
    0.00000E+00         0.00000E+00        -0.13799E+08
 
   -0.14409E+08        -0.10649E+05         0.00000E+00
   -0.10649E+05        -0.19008E+07         0.00000E+00
    0.00000E+00         0.00000E+00        -0.13737E+08
 
   -0.18228E+08        -0.61551E+04         0.00000E+00
   -0.61551E+04        -0.19906E+07         0.00000E+00
    0.00000E+00         0.00000E+00        -0.18651E+08
 
   -0.18225E+08        -0.15590E+05         0.00000E+00
   -0.15590E+05        -0.19681E+07         0.00000E+00
    0.00000E+00         0.00000E+00        -0.18616E+08
 
   -0.18219E+08        -0.18966E+05         0.00000E+00
   -0.18966E+05        -0.19572E+07         0.00000E+00
    0.00000E+00         0.00000E+00        -0.18583E+08
 
   -0.18214E+08        -0.16981E+05         0.00000E+00
   -0.16981E+05        -0.19520E+07         0.00000E+00
    0.00000E+00         0.00000E+00        -0.18552E+08
 
   -0.18209E+08        -0.11607E+05         0.00000E+00
   -0.11607E+05        -0.19495E+07         0.00000E+00
    0.00000E+00         0.00000E+00        -0.18522E+08
 
   -0.18202E+08        -0.43533E+04         0.00000E+00
   -0.43533E+04        -0.19482E+07         0.00000E+00
    0.00000E+00         0.00000E+00        -0.18491E+08
 
   -0.18194E+08         0.38480E+04         0.00000E+00
    0.38480E+04        -0.19478E+07         0.00000E+00
    0.00000E+00         0.00000E+00        -0.18461E+08
 
   -0.18183E+08         0.12397E+05         0.00000E+00
    0.12397E+05        -0.19479E+07         0.00000E+00
    0.00000E+00         0.00000E+00        -0.18430E+08
 
   -0.18171E+08         0.20898E+05         0.00000E+00
    0.20898E+05        -0.19484E+07         0.00000E+00
    0.00000E+00         0.00000E+00        -0.18398E+08
 
   -0.18156E+08         0.29094E+05         0.00000E+00
    0.29094E+05        -0.19490E+07         0.00000E+00
    0.00000E+00         0.00000E+00        -0.18365E+08
 
   -0.18139E+08         0.36830E+05         0.00000E+00
    0.36830E+05        -0.19498E+07         0.00000E+00
    0.00000E+00         0.00000E+00        -0.18332E+08
 
   -0.18119E+08         0.44020E+05         0.00000E+00
    0.44020E+05        -0.19507E+07         0.00000E+00
    0.00000E+00         0.00000E+00        -0.18298E+08
 
   -0.18098E+08         0.50631E+05         0.00000E+00
    0.50631E+05        -0.19516E+07         0.00000E+00
    0.00000E+00         0.00000E+00        -0.18264E+08
 
   -0.18074E+08         0.56665E+05         0.00000E+00
    0.56665E+05        -0.19524E+07         0.00000E+00
    0.00000E+00         0.00000E+00        -0.18228E+08
 
   -0.18049E+08         0.62147E+05         0.00000E+00
    0.62147E+05        -0.19531E+07         0.00000E+00
    0.00000E+00         0.00000E+00        -0.18192E+08
 
   -0.18022E+08         0.67115E+05         0.00000E+00
    0.67115E+05        -0.19538E+07         0.00000E+00
    0.00000E+00         0.00000E+00        -0.18155E+08
 
   -0.17993E+08         0.71616E+05         0.00000E+00
    0.71616E+05        -0.19544E+07         0.00000E+00
    0.00000E+00         0.00000E+00        -0.18118E+08
 
   -0.17963E+08         0.75698E+05         0.00000E+00
    0.75698E+05        -0.19550E+07         0.00000E+00
    0.00000E+00         0.00000E+00        -0.18080E+08
 
   -0.17931E+08         0.79408E+05         0.00000E+00
    0.79408E+05        -0.19554E+07         0.00000E+00
    0.00000E+00         0.00000E+00        -0.18041E+08
 
   -0.17898E+08         0.82791E+05         0.00000E+00
    0.82791E+05        -0.19559E+07         0.00000E+00
    0.00000E+00         0.00000E+00        -0.18002E+08
 
   -0.17864E+08         0.85889E+05         0.00000E+00
    0.85889E+05        -0.19562E+07         0.00000E+00
    0.00000E+00         0.00000E+00        -0.17962E+08
 
   -0.17829E+08         0.88738E+05         0.00000E+00
    0.88738E+05        -0.19565E+07         0.00000E+00
    0.00000E+00         0.00000E+00        -0.17922E+08
 
   -0.17792E+08         0.91370E+05         0.00000E+00
    0.91370E+05        -0.19568E+07         0.00000E+00
    0.00000E+00         0.00000E+00        -0.17881E+08
 
   -0.17755E+08         0.93813E+05         0.00000E+00
    0.93813E+05        -0.19570E+07         0.00000E+00
    0.00000E+00         0.00000E+00        -0.17840E+08
 
   -0.17717E+08         0.96093E+05         0.00000E+00
    0.96093E+05        -0.19572E+07         0.00000E+00
    0.00000E+00         0.00000E+00        -0.17798E+08
 
   -0.17678E+08         0.98229E+05         0.00000E+00
    0.98229E+05        -0.19574E+07         0.00000E+00
    0.00000E+00         0.00000E+00        -0.17756E+08
 
   -0.17638E+08         0.10024E+06         0.00000E+00
    0.10024E+06        -0.19575E+07         0.00000E+00
    0.00000E+00         0.00000E+00        -0.17713E+08
 
   -0.17598E+08         0.10214E+06         0.00000E+00
    0.10214E+06        -0.19577E+07         0.00000E+00
    0.00000E+00         0.00000E+00        -0.17670E+08
 
   -0.17556E+08         0.10394E+06         0.00000E+00
    0.10394E+06        -0.19578E+07         0.00000E+00
    0.00000E+00         0.00000E+00        -0.17627E+08
 
   -0.17514E+08         0.10566E+06         0.00000E+00
    0.10566E+06        -0.19579E+07         0.00000E+00
    0.00000E+00         0.00000E+00        -0.17582E+08
 
   -0.17472E+08         0.10730E+06         0.00000E+00
    0.10730E+06        -0.19580E+07         0.00000E+00
    0.00000E+00         0.00000E+00        -0.17538E+08
 
   -0.17428E+08         0.10887E+06         0.00000E+00
    0.10887E+06        -0.19580E+07         0.00000E+00
    0.00000E+00         0.00000E+00        -0.17493E+08
 
   -0.17385E+08         0.11038E+06         0.00000E+00
    0.11038E+06        -0.19581E+07         0.00000E+00
    0.00000E+00         0.00000E+00        -0.17448E+08
 
   -0.17340E+08         0.11183E+06         0.00000E+00
    0.11183E+06        -0.19582E+07         0.00000E+00
    0.00000E+00         0.00000E+00        -0.17402E+08
 
   -0.17295E+08         0.11323E+06         0.00000E+00
    0.11323E+06        -0.19582E+07         0.00000E+00
    0.00000E+00         0.00000E+00        -0.17356E+08
 
   -0.17250E+08         0.11458E+06         0.00000E+00
    0.11458E+06        -0.19583E+07         0.00000E+00
    0.00000E+00         0.00000E+00        -0.17309E+08
 
   -0.17203E+08         0.11589E+06         0.00000E+00
    0.11589E+06        -0.19584E+07         0.00000E+00
    0.00000E+00         0.00000E+00        -0.17262E+08
 
   -0.17157E+08         0.11716E+06         0.00000E+00
    0.11716E+06        -0.19584E+07         0.00000E+00
    0.00000E+00         0.00000E+00        -0.17214E+08
 
   -0.17110E+08         0.11840E+06         0.00000E+00
    0.11840E+06        -0.19584E+07         0.00000E+00
    0.00000E+00         0.00000E+00        -0.17166E+08
 
   -0.17062E+08         0.11959E+06         0.00000E+00
    0.11959E+06        -0.19585E+07         0.00000E+00
    0.00000E+00         0.00000E+00        -0.17118E+08
 
   -0.17014E+08         0.12076E+06         0.00000E+00
    0.12076E+06        -0.19585E+07         0.00000E+00
    0.00000E+00         0.00000E+00        -0.17069E+08
 
   -0.16965E+08         0.12189E+06         0.00000E+00
    0.12189E+06        -0.19586E+07         0.00000E+00
    0.00000E+00         0.00000E+00        -0.17020E+08
 
   -0.16916E+08         0.12299E+06         0.00000E+00
    0.12299E+06        -0.19586E+07         0.00000E+00
    0.00000E+00         0.00000E+00        -0.16970E+08
 
   -0.16867E+08         0.12406E+06         0.00000E+00
    0.12406E+06        -0.19586E+07         0.00000E+00
    0.00000E+00         0.00000E+00        -0.16920E+08
 
   -0.16817E+08         0.12510E+06         0.00000E+00
    0.12510E+06        -0.19587E+07         0.00000E+00
    0.00000E+00         0.00000E+00        -0.16869E+08
 
   -0.16767E+08         0.12611E+06         0.00000E+00
    0.12611E+06        -0.19587E+07         0.00000E+00
    0.00000E+00         0.00000E+00        -0.16818E+08
 
   -0.16716E+08         0.12709E+06         0.00000E+00
    0.12709E+06        -0.19588E+07         0.00000E+00
    0.00000E+00         0.00000E+00        -0.16766E+08
 
   -0.16665E+08         0.12804E+06         0.00000E+00
    0.12804E+06        -0.19588E+07         0.00000E+00
    0.00000E+00         0.00000E+00        -0.16714E+08
 
   -0.16614E+08         0.12896E+06         0.00000E+00
    0.12896E+06        -0.19588E+07         0.00000E+00
    0.00000E+00         0.00000E+00        -0.16662E+08
 
   -0.16562E+08         0.12984E+06         0.00000E+00
    0.12984E+06        -0.19589E+07         0.00000E+00
    0.00000E+00         0.00000E+00        -0.16609E+08
 
   -0.16510E+08         0.13069E+06         0.00000E+00
    0.13069E+06        -0.19589E+07         0.00000E+00
    0.00000E+00         0.00000E+00        -0.16556E+08
 
   -0.16457E+08         0.13151E+06         0.00000E+00
    0.13151E+06        -0.19590E+07         0.00000E+00
    0.00000E+00         0.00000E+00        -0.16502E+08
 
   -0.16404E+08         0.13228E+06         0.00000E+00
    0.13228E+06        -0.19590E+07         0.00000E+00
    0.00000E+00         0.00000E+00        -0.16448E+08
 
   -0.16351E+08         0.13302E+06         0.00000E+00
    0.13302E+06        -0.19591E+07         0.00000E+00
    0.00000E+00         0.00000E+00        -0.16394E+08
 
   -0.16298E+08         0.13371E+06         0.00000E+00
    0.13371E+06        -0.19591E+07         0.00000E+00
    0.00000E+00         0.00000E+00        -0.16339E+08
 
   -0.16244E+08         0.13436E+06         0.00000E+00
    0.13436E+06        -0.19592E+07         0.00000E+00
    0.00000E+00         0.00000E+00        -0.16284E+08
 
   -0.16190E+08         0.13496E+06         0.00000E+00
    0.13496E+06        -0.19593E+07         0.00000E+00
    0.00000E+00         0.00000E+00        -0.16228E+08
 
   -0.16136E+08         0.13551E+06         0.00000E+00
    0.13551E+06        -0.19593E+07         0.00000E+00
    0.00000E+00         0.00000E+00        -0.16172E+08
 
   -0.16081E+08         0.13599E+06         0.00000E+00
    0.13599E+06        -0.19594E+07         0.00000E+00
    0.00000E+00         0.00000E+00        -0.16115E+08
 
   -0.16026E+08         0.13642E+06         0.00000E+00
    0.13642E+06        -0.19595E+07         0.00000E+00
    0.00000E+00         0.00000E+00        -0.16058E+08
 
   -0.15972E+08         0.13678E+06         0.00000E+00
    0.13678E+06        -0.19596E+07         0.00000E+00
    0.00000E+00         0.00000E+00        -0.16001E+08
 
   -0.15917E+08         0.13707E+06         0.00000E+00
    0.13707E+06        -0.19597E+07         0.00000E+00
    0.00000E+00         0.00000E+00        -0.15944E+08
 
   -0.15861E+08         0.13728E+06         0.00000E+00
    0.13728E+06        -0.19598E+07         0.00000E+00
    0.00000E+00         0.00000E+00        -0.15886E+08
 
   -0.15806E+08         0.13740E+06         0.00000E+00
    0.13740E+06        -0.19599E+07         0.00000E+00
    0.00000E+00         0.00000E+00        -0.15828E+08
 
   -0.15751E+08         0.13744E+06         0.00000E+00
    0.13744E+06        -0.19600E+07         0.00000E+00
    0.00000E+00         0.00000E+00        -0.15769E+08
 
   -0.15696E+08         0.13737E+06         0.00000E+00
    0.13737E+06        -0.19601E+07         0.00000E+00
    0.00000E+00         0.00000E+00        -0.15710E+08
 
   -0.15640E+08         0.13719E+06         0.00000E+00
    0.13719E+06        -0.19603E+07         0.00000E+00
    0.00000E+00         0.00000E+00        -0.15651E+08
 
   -0.15585E+08         0.13690E+06         0.00000E+00
    0.13690E+06        -0.19604E+07         0.00000E+00
    0.00000E+00         0.00000E+00        -0.15592E+08
 
   -0.15530E+08         0.13648E+06         0.00000E+00
    0.13648E+06        -0.19606E+07         0.00000E+00
    0.00000E+00         0.00000E+00        -0.15532E+08
 
   -0.15475E+08         0.13592E+06         0.00000E+00
    0.13592E+06        -0.19608E+07         0.00000E+00
    0.00000E+00         0.00000E+00        -0.15472E+08
 
   -0.15420E+08         0.13520E+06         0.00000E+00
    0.13520E+06        -0.19610E+07         0.00000E+00
    0.00000E+00         0.00000E+00        -0.15412E+08
 
   -0.15366E+08         0.13431E+06         0.00000E+00
    0.13431E+06        -0.19612E+07         0.00000E+00
    0.00000E+00         0.00000E+00        -0.15352E+08
 
   -0.15312E+08         0.13324E+06         0.00000E+00
    0.13324E+06        -0.19615E+07         0.00000E+00
    0.00000E+00         0.00000E+00        -0.15291E+08
 
   -0.15258E+08         0.13195E+06         0.00000E+00
    0.13195E+06        -0.19617E+07         0.00000E+00
    0.00000E+00         0.00000E+00        -0.15231E+08
 
   -0.15205E+08         0.13044E+06         0.00000E+00
    0.13044E+06        -0.19620E+07         0.00000E+00
    0.00000E+00         0.00000E+00        -0.15170E+08
 
   -0.15152E+08         0.12867E+06         0.00000E+00
    0.12867E+06        -0.19624E+07         0.00000E+00
    0.00000E+00         0.00000E+00        -0.15109E+08
 
   -0.15101E+08         0.12660E+06         0.00000E+00
    0.12660E+06        -0.19628E+07         0.00000E+00
    0.00000E+00         0.00000E+00        -0.15049E+08
 
   -0.15050E+08         0.12421E+06         0.00000E+00
    0.12421E+06        -0.19632E+07         0.00000E+00
    0.00000E+00         0.00000E+00        -0.14988E+08
 
   -0.14999E+08         0.12146E+06         0.00000E+00
    0.12146E+06        -0.19638E+07         0.00000E+00
    0.00000E+00         0.00000E+00        -0.14927E+08
 
   -0.14950E+08         0.11828E+06         0.00000E+00
    0.11828E+06        -0.19643E+07         0.00000E+00
    0.00000E+00         0.00000E+00        -0.14867E+08
 
   -0.14903E+08         0.11463E+06         0.00000E+00
    0.11463E+06        -0.19650E+07         0.00000E+00
    0.00000E+00         0.00000E+00        -0.14807E+08
 
   -0.14856E+08         0.11044E+06         0.00000E+00
    0.11044E+06        -0.19658E+07         0.00000E+00
    0.00000E+00         0.00000E+00        -0.14747E+08
 
   -0.14811E+08         0.10565E+06         0.00000E+00
    0.10565E+06        -0.19666E+07         0.00000E+00
    0.00000E+00         0.00000E+00        -0.14687E+08
 
   -0.14768E+08         0.10018E+06         0.00000E+00
    0.10018E+06        -0.19676E+07         0.00000E+00
    0.00000E+00         0.00000E+00        -0.14628E+08
 
   -0.14727E+08         0.93943E+05         0.00000E+00
    0.93943E+05        -0.19687E+07         0.00000E+00
    0.00000E+00         0.00000E+00        -0.14569E+08
 
   -0.14688E+08         0.86863E+05         0.00000E+00
    0.86863E+05        -0.19700E+07         0.00000E+00
    0.00000E+00         0.00000E+00        -0.14510E+08
 
   -0.14651E+08         0.78861E+05         0.00000E+00
    0.78861E+05        -0.19713E+07         0.00000E+00
    0.00000E+00         0.00000E+00        -0.14453E+08
 
   -0.14617E+08         0.69876E+05         0.00000E+00
    0.69876E+05        -0.19728E+07         0.00000E+00
    0.00000E+00         0.00000E+00        -0.14396E+08
 
   -0.14586E+08         0.59867E+05         0.00000E+00
    0.59867E+05        -0.19743E+07         0.00000E+00
    0.00000E+00         0.00000E+00        -0.14339E+08
 
   -0.14558E+08         0.48835E+05         0.00000E+00
    0.48835E+05        -0.19758E+07         0.00000E+00
    0.00000E+00         0.00000E+00        -0.14284E+08
 
   -0.14534E+08         0.36844E+05         0.00000E+00
    0.36844E+05        -0.19772E+07         0.00000E+00
    0.00000E+00         0.00000E+00        -0.14229E+08
 
   -0.14513E+08         0.24046E+05         0.00000E+00
    0.24046E+05        -0.19784E+07         0.00000E+00
    0.00000E+00         0.00000E+00        -0.14175E+08
 
   -0.14495E+08         0.10717E+05         0.00000E+00
    0.10717E+05        -0.19792E+07         0.00000E+00
    0.00000E+00         0.00000E+00        -0.14123E+08
 
   -0.14481E+08        -0.26917E+04         0.00000E+00
   -0.26917E+04        -0.19793E+07         0.00000E+00
    0.00000E+00         0.00000E+00        -0.14070E+08
 
   -0.14470E+08        -0.15491E+05         0.00000E+00
   -0.15491E+05        -0.19786E+07         0.00000E+00
    0.00000E+00         0.00000E+00        -0.14019E+08
 
   -0.14461E+08        -0.26636E+05         0.00000E+00
   -0.26636E+05        -0.19764E+07         0.00000E+00
    0.00000E+00         0.00000E+00        -0.13967E+08
 
   -0.14453E+08        -0.34509E+05         0.00000E+00
   -0.34509E+05        -0.19719E+07         0.00000E+00
    0.00000E+00         0.00000E+00        -0.13916E+08
 
   -0.14446E+08        -0.36498E+05         0.00000E+00
   -0.36498E+05        -0.19630E+07         0.00000E+00
    0.00000E+00         0.00000E+00        -0.13863E+08
 
   -0.14438E+08        -0.29193E+05         0.00000E+00
   -0.29193E+05        -0.19441E+07         0.00000E+00
    0.00000E+00         0.00000E+00        -0.13806E+08
 
   -0.14432E+08        -0.11392E+05         0.00000E+00
   -0.11392E+05        -0.19051E+07         0.00000E+00
    0.00000E+00         0.00000E+00        -0.13745E+08
 
   -0.18214E+08        -0.66067E+04         0.00000E+00
   -0.66067E+04        -0.19881E+07         0.00000E+00
    0.00000E+00         0.00000E+00        -0.18646E+08
 
   -0.18211E+08        -0.16567E+05         0.00000E+00
   -0.16567E+05        -0.19667E+07         0.00000E+00
    0.00000E+00         0.00000E+00        -0.18611E+08
 
   -0.18206E+08        -0.19957E+05         0.00000E+00
   -0.19957E+05        -0.19571E+07         0.00000E+00
    0.00000E+00         0.00000E+00        -0.18579E+08
 
   -0.18202E+08        -0.17910E+05         0.00000E+00
   -0.17910E+05        -0.19528E+07         0.00000E+00
    0.00000E+00         0.00000E+00        -0.18549E+08
 
   -0.18198E+08        -0.12653E+05         0.00000E+00
   -0.12653E+05        -0.19508E+07         0.00000E+00
    0.00000E+00         0.00000E+00        -0.18519E+08
 
   -0.18193E+08        -0.56862E+04         0.00000E+00
   -0.56862E+04        -0.19498E+07         0.00000E+00
    0.00000E+00         0.00000E+00        -0.18489E+08
 
   -0.18186E+08         0.21211E+04         0.00000E+00
    0.21211E+04        -0.19494E+07         0.00000E+00
    0.00000E+00         0.00000E+00        -0.18459E+08
 
   -0.18176E+08         0.10217E+05         0.00000E+00
    0.10217E+05        -0.19496E+07         0.00000E+00
    0.00000E+00         0.00000E+00        -0.18428E+08
 
   -0.18165E+08         0.18241E+05         0.00000E+00
    0.18241E+05        -0.19500E+07         0.00000E+00
    0.00000E+00         0.00000E+00        -0.18397E+08
 
   -0.18151E+08         0.25958E+05         0.00000E+00
    0.25958E+05        -0.19506E+07         0.00000E+00
    0.00000E+00         0.00000E+00        -0.18364E+08
 
   -0.18134E+08         0.33226E+05         0.00000E+00
    0.33226E+05        -0.19513E+07         0.00000E+00
    0.00000E+00         0.00000E+00        -0.18331E+08
 
   -0.18115E+08         0.39969E+05         0.00000E+00
    0.39969E+05        -0.19520E+07         0.00000E+00
    0.00000E+00         0.00000E+00        -0.18297E+08
 
   -0.18094E+08         0.46158E+05         0.00000E+00
    0.46158E+05        -0.19528E+07         0.00000E+00
    0.00000E+00         0.00000E+00        -0.18263E+08
 
   -0.18071E+08         0.51796E+05         0.00000E+00
    0.51796E+05        -0.19535E+07         0.00000E+00
    0.00000E+00         0.00000E+00        -0.18228E+08
 
   -0.18046E+08         0.56911E+05         0.00000E+00
    0.56911E+05        -0.19541E+07         0.00000E+00
    0.00000E+00         0.00000E+00        -0.18191E+08
 
   -0.18019E+08         0.61539E+05         0.00000E+00
    0.61539E+05        -0.19547E+07         0.00000E+00
    0.00000E+00         0.00000E+00        -0.18155E+08
 
   -0.17990E+08         0.65725E+05         0.00000E+00
    0.65725E+05        -0.19553E+07         0.00000E+00
    0.00000E+00         0.00000E+00        -0.18117E+08
 
   -0.17960E+08         0.69515E+05         0.00000E+00
    0.69515E+05        -0.19557E+07         0.00000E+00
    0.00000E+00         0.00000E+00        -0.18079E+08
 
   -0.17929E+08         0.72956E+05         0.00000E+00
    0.72956E+05        -0.19561E+07         0.00000E+00
    0.00000E+00         0.00000E+00        -0.18041E+08
 
   -0.17896E+08         0.76090E+05         0.00000E+00
    0.76090E+05        -0.19565E+07         0.00000E+00
    0.00000E+00         0.00000E+00        -0.18002E+08
 
   -0.17862E+08         0.78957E+05         0.00000E+00
    0.78957E+05        -0.19568E+07         0.00000E+00
    0.00000E+00         0.00000E+00        -0.17962E+08
 
   -0.17827E+08         0.81590E+05         0.00000E+00
    0.81590E+05        -0.19570E+07         0.00000E+00
    0.00000E+00         0.00000E+00        -0.17922E+08
 
   -0.17791E+08         0.84022E+05         0.00000E+00
    0.84022E+05        -0.19573E+07         0.00000E+00
    0.00000E+00         0.00000E+00        -0.17881E+08
 
   -0.17753E+08         0.86277E+05         0.00000E+00
    0.86277E+05        -0.19575E+07         0.00000E+00
    0.00000E+00         0.00000E+00        -0.17840E+08
 
   -0.17715E+08         0.88381E+05         0.00000E+00
    0.88381E+05        -0.19576E+07         0.00000E+00
    0.00000E+00         0.00000E+00        -0.17798E+08
 
   -0.17676E+08         0.90351E+05         0.00000E+00
    0.90351E+05        -0.19578E+07         0.00000E+00
    0.00000E+00         0.00000E+00        -0.17756E+08
 
   -0.17637E+08         0.92205E+05         0.00000E+00
    0.92205E+05        -0.19579E+07         0.00000E+00
    0.00000E+00         0.00000E+00        -0.17713E+08
 
   -0.17596E+08         0.93956E+05         0.00000E+00
    0.93956E+05        -0.19580E+07         0.00000E+00
    0.00000E+00         0.00000E+00        -0.17670E+08
 
   -0.17555E+08         0.95617E+05         0.00000E+00
    0.95617E+05        -0.19581E+07         0.00000E+00
    0.00000E+00         0.00000E+00        -0.17626E+08
 
   -0.17513E+08         0.97199E+05         0.00000E+00
    0.97199E+05        -0.19582E+07         0.00000E+00
    0.00000E+00         0.00000E+00        -0.17582E+08
 
   -0.17470E+08         0.98709E+05         0.00000E+00
    0.98709E+05        -0.19583E+07         0.00000E+00
    0.00000E+00         0.00000E+00        -0.17538E+08
 
   -0.17427E+08         0.10015E+06         0.00000E+00
    0.10015E+06        -0.19583E+07         0.00000E+00
    0.00000E+00         0.00000E+00        -0.17493E+08
 
   -0.17383E+08         0.10154E+06         0.00000E+00
    0.10154E+06        -0.19584E+07         0.00000E+00
    0.00000E+00         0.00000E+00        -0.17447E+08
 
   -0.17339E+08         0.10288E+06         0.00000E+00
    0.10288E+06        -0.19585E+07         0.00000E+00
    0.00000E+00         0.00000E+00        -0.17401E+08
 
   -0.17294E+08         0.10417E+06         0.00000E+00
    0.10417E+06        -0.19585E+07         0.00000E+00
    0.00000E+00         0.00000E+00        -0.17355E+08
 
   -0.17248E+08         0.10541E+06         0.00000E+00
    0.10541E+06        -0.19586E+07         0.00000E+00
    0.00000E+00         0.00000E+00        -0.17309E+08
 
   -0.17202E+08         0.10662E+06         0.00000E+00
    0.10662E+06        -0.19586E+07         0.00000E+00
    0.00000E+00         0.00000E+00        -0.17261E+08
 
   -0.17155E+08         0.10779E+06         0.00000E+00
    0.10779E+06        -0.19586E+07         0.00000E+00
    0.00000E+00         0.00000E+00        -0.17214E+08
 
   -0.17108E+08         0.10892E+06         0.00000E+00
    0.10892E+06        -0.19587E+07         0.00000E+00
    0.00000E+00         0.00000E+00        -0.17166E+08
 
   -0.17061E+08         0.11002E+06         0.00000E+00
    0.11002E+06        -0.19587E+07         0.00000E+00
    0.00000E+00         0.00000E+00        -0.17117E+08
 
   -0.17012E+08         0.11109E+06         0.00000E+00
    0.11109E+06        -0.19587E+07         0.00000E+00
    0.00000E+00         0.00000E+00        -0.17068E+08
 
   -0.16964E+08         0.11214E+06         0.00000E+00
    0.11214E+06        -0.19588E+07         0.00000E+00
    0.00000E+00         0.00000E+00        -0.17019E+08
 
   -0.16915E+08         0.11315E+06         0.00000E+00
    0.11315E+06        -0.19588E+07         0.00000E+00
    0.00000E+00         0.00000E+00        -0.16969E+08
 
   -0.16866E+08         0.11413E+06         0.00000E+00
    0.11413E+06        -0.19588E+07         0.00000E+00
    0.00000E+00         0.00000E+00        -0.16919E+08
 
   -0.16816E+08         0.11509E+06         0.00000E+00
    0.11509E+06        -0.19589E+07         0.00000E+00
    0.00000E+00         0.00000E+00        -0.16869E+08
 
   -0.16765E+08         0.11602E+06         0.00000E+00
    0.11602E+06        -0.19589E+07         0.00000E+00
    0.00000E+00         0.00000E+00        -0.16817E+08
 
   -0.16715E+08         0.11692E+06         0.00000E+00
    0.11692E+06        -0.19589E+07         0.00000E+00
    0.00000E+00         0.00000E+00        -0.16766E+08
 
   -0.16664E+08         0.11779E+06         0.00000E+00
    0.11779E+06        -0.19590E+07         0.00000E+00
    0.00000E+00         0.00000E+00        -0.16714E+08
 
   -0.16612E+08         0.11863E+06         0.00000E+00
    0.11863E+06        -0.19590E+07         0.00000E+00
    0.00000E+00         0.00000E+00        -0.16662E+08
 
   -0.16560E+08         0.11944E+06         0.00000E+00
    0.11944E+06        -0.19590E+07         0.00000E+00
    0.00000E+00         0.00000E+00        -0.16609E+08
 
   -0.16508E+08         0.12022E+06         0.00000E+00
    0.12022E+06        -0.19591E+07         0.00000E+00
    0.00000E+00         0.00000E+00        -0.16556E+08
 
   -0.16456E+08         0.12097E+06         0.00000E+00
    0.12097E+06        -0.19591E+07         0.00000E+00
    0.00000E+00         0.00000E+00        -0.16502E+08
 
   -0.16403E+08         0.12168E+06         0.00000E+00
    0.12168E+06        -0.19592E+07         0.00000E+00
    0.00000E+00         0.00000E+00        -0.16448E+08
 
   -0.16350E+08         0.12236E+06         0.00000E+00
    0.12236E+06        -0.19592E+07         0.00000E+00
    0.00000E+00         0.00000E+00        -0.16393E+08
 
   -0.16296E+08         0.12299E+06         0.00000E+00
    0.12299E+06        -0.19593E+07         0.00000E+00
    0.00000E+00         0.00000E+00        -0.16339E+08
 
   -0.16243E+08         0.12359E+06         0.00000E+00
    0.12359E+06        -0.19593E+07         0.00000E+00
    0.00000E+00         0.00000E+00        -0.16283E+08
 
   -0.16189E+08         0.12413E+06         0.00000E+00
    0.12413E+06        -0.19594E+07         0.00000E+00
    0.00000E+00         0.00000E+00        -0.16228E+08
 
   -0.16134E+08         0.12463E+06         0.00000E+00
    0.12463E+06        -0.19594E+07         0.00000E+00
    0.00000E+00         0.00000E+00        -0.16171E+08
 
   -0.16080E+08         0.12508E+06         0.00000E+00
    0.12508E+06        -0.19595E+07         0.00000E+00
    0.00000E+00         0.00000E+00        -0.16115E+08
 
   -0.16025E+08         0.12547E+06         0.00000E+00
    0.12547E+06        -0.19596E+07         0.00000E+00
    0.00000E+00         0.00000E+00        -0.16058E+08
 
   -0.15970E+08         0.12579E+06         0.00000E+00
    0.12579E+06        -0.19596E+07         0.00000E+00
    0.00000E+00         0.00000E+00        -0.16001E+08
 
   -0.15915E+08         0.12606E+06         0.00000E+00
    0.12606E+06        -0.19597E+07         0.00000E+00
    0.00000E+00         0.00000E+00        -0.15943E+08
 
   -0.15860E+08         0.12624E+06         0.00000E+00
    0.12624E+06        -0.19598E+07         0.00000E+00
    0.00000E+00         0.00000E+00        -0.15886E+08
 
   -0.15805E+08         0.12635E+06         0.00000E+00
    0.12635E+06        -0.19599E+07         0.00000E+00
    0.00000E+00         0.00000E+00        -0.15827E+08
 
   -0.15750E+08         0.12638E+06         0.00000E+00
    0.12638E+06        -0.19600E+07         0.00000E+00
    0.00000E+00         0.00000E+00        -0.15769E+08
 
   -0.15695E+08         0.12632E+06         0.00000E+00
    0.12632E+06        -0.19601E+07         0.00000E+00
    0.00000E+00         0.00000E+00        -0.15710E+08
 
   -0.15640E+08         0.12615E+06         0.00000E+00
    0.12615E+06        -0.19602E+07         0.00000E+00
    0.00000E+00         0.00000E+00        -0.15651E+08
 
   -0.15584E+08         0.12587E+06         0.00000E+00
    0.12587E+06        -0.19604E+07         0.00000E+00
    0.00000E+00         0.00000E+00        -0.15591E+08
 
   -0.15529E+08         0.12548E+06         0.00000E+00
    0.12548E+06        -0.19605E+07         0.00000E+00
    0.00000E+00         0.00000E+00        -0.15532E+08
 
   -0.15475E+08         0.12496E+06         0.00000E+00
    0.12496E+06        -0.19607E+07         0.00000E+00
    0.00000E+00         0.00000E+00        -0.15472E+08
 
   -0.15420E+08         0.12429E+06         0.00000E+00
    0.12429E+06        -0.19608E+07         0.00000E+00
    0.00000E+00         0.00000E+00        -0.15412E+08
 
   -0.15366E+08         0.12347E+06         0.00000E+00
    0.12347E+06        -0.19610E+07         0.00000E+00
    0.00000E+00         0.00000E+00        -0.15352E+08
 
   -0.15312E+08         0.12247E+06         0.00000E+00
    0.12247E+06        -0.19612E+07         0.00000E+00
    0.00000E+00         0.00000E+00        -0.15291E+08
 
   -0.15258E+08         0.12128E+06         0.00000E+00
    0.12128E+06        -0.19615E+07         0.00000E+00
    0.00000E+00         0.00000E+00        -0.15231E+08
 
   -0.15205E+08         0.11988E+06         0.00000E+00
    0.11988E+06        -0.19617E+07         0.00000E+00
    0.00000E+00         0.00000E+00        -0.15170E+08
 
   -0.15153E+08         0.11824E+06         0.00000E+00
    0.11824E+06        -0.19620E+07         0.00000E+00
    0.00000E+00         0.00000E+00        -0.15109E+08
 
   -0.15101E+08         0.11633E+06         0.00000E+00
    0.11633E+06        -0.19624E+07         0.00000E+00
    0.00000E+00         0.00000E+00        -0.15049E+08
 
   -0.15050E+08         0.11411E+06         0.00000E+00
    0.11411E+06        -0.19627E+07         0.00000E+00
    0.00000E+00         0.00000E+00        -0.14988E+08
 
   -0.15000E+08         0.11156E+06         0.00000E+00
    0.11156E+06        -0.19632E+07         0.00000E+00
    0.00000E+00         0.00000E+00        -0.14928E+08
 
   -0.14951E+08         0.10861E+06         0.00000E+00
    0.10861E+06        -0.19637E+07         0.00000E+00
    0.00000E+00         0.00000E+00        -0.14867E+08
 
   -0.14904E+08         0.10522E+06         0.00000E+00
    0.10522E+06        -0.19643E+07         0.00000E+00
    0.00000E+00         0.00000E+00        -0.14807E+08
 
   -0.14858E+08         0.10134E+06         0.00000E+00
    0.10134E+06        -0.19649E+07         0.00000E+00
    0.00000E+00         0.00000E+00        -0.14747E+08
 
   -0.14813E+08         0.96878E+05         0.00000E+00
    0.96878E+05        -0.19656E+07         0.00000E+00
    0.00000E+00         0.00000E+00        -0.14687E+08
 
   -0.14770E+08         0.91780E+05         0.00000E+00
    0.91780E+05        -0.19665E+07         0.00000E+00
    0.00000E+00         0.00000E+00        -0.14628E+08
 
   -0.14730E+08         0.85964E+05         0.00000E+00
    0.85964E+05        -0.19674E+07         0.00000E+00
    0.00000E+00         0.00000E+00        -0.14569E+08
 
   -0.14691E+08         0.79351E+05         0.00000E+00
    0.79351E+05        -0.19685E+07         0.00000E+00
    0.00000E+00         0.00000E+00        -0.14511E+08
 
   -0.14655E+08         0.71867E+05         0.00000E+00
    0.71867E+05        -0.19697E+07         0.00000E+00
    0.00000E+00         0.00000E+00        -0.14453E+08
 
   -0.14622E+08         0.63449E+05         0.00000E+00
    0.63449E+05        -0.19709E+07         0.00000E+00
    0.00000E+00         0.00000E+00        -0.14396E+08
 
   -0.14592E+08         0.54057E+05         0.00000E+00
    0.54057E+05        -0.19722E+07         0.00000E+00
    0.00000E+00         0.00000E+00        -0.14340E+08
 
   -0.14565E+08         0.43688E+05         0.00000E+00
    0.43688E+05        -0.19735E+07         0.00000E+00
    0.00000E+00         0.00000E+00        -0.14285E+08
 
   -0.14542E+08         0.32398E+05         0.00000E+00
    0.32398E+05        -0.19748E+07         0.00000E+00
    0.00000E+00         0.00000E+00        -0.14231E+08
 
   -0.14522E+08         0.20322E+05         0.00000E+00
    0.20322E+05        -0.19758E+07         0.00000E+00
    0.00000E+00         0.00000E+00        -0.14178E+08
 
   -0.14506E+08         0.77142E+04         0.00000E+00
    0.77142E+04        -0.19765E+07         0.00000E+00
    0.00000E+00         0.00000E+00        -0.14125E+08
 
   -0.14494E+08        -0.50163E+04         0.00000E+00
   -0.50163E+04        -0.19767E+07         0.00000E+00
    0.00000E+00         0.00000E+00        -0.14074E+08
 
   -0.14485E+08        -0.17237E+05         0.00000E+00
   -0.17237E+05        -0.19762E+07         0.00000E+00
    0.00000E+00         0.00000E+00        -0.14023E+08
 
   -0.14478E+08        -0.27988E+05         0.00000E+00
   -0.27988E+05        -0.19744E+07         0.00000E+00
    0.00000E+00         0.00000E+00        -0.13972E+08
 
   -0.14473E+08        -0.35761E+05         0.00000E+00
   -0.35761E+05        -0.19708E+07         0.00000E+00
    0.00000E+00         0.00000E+00        -0.13921E+08
 
   -0.14467E+08        -0.37958E+05         0.00000E+00
   -0.37958E+05        -0.19634E+07         0.00000E+00
    0.00000E+00         0.00000E+00        -0.13869E+08
 
   -0.14461E+08        -0.30732E+05         0.00000E+00
   -0.30732E+05        -0.19467E+07         0.00000E+00
    0.00000E+00         0.00000E+00        -0.13814E+08
 
   -0.14455E+08        -0.12122E+05         0.00000E+00
   -0.12122E+05        -0.19097E+07         0.00000E+00
    0.00000E+00         0.00000E+00        -0.13753E+08
 
   -0.18199E+08        -0.70506E+04         0.00000E+00
   -0.70506E+04        -0.19854E+07         0.00000E+00
    0.00000E+00         0.00000E+00        -0.18641E+08
 
   -0.18196E+08        -0.17444E+05         0.00000E+00
   -0.17444E+05        -0.19653E+07         0.00000E+00
    0.00000E+00         0.00000E+00        -0.18606E+08
 
   -0.18193E+08        -0.20716E+05         0.00000E+00
   -0.20716E+05        -0.19571E+07         0.00000E+00
    0.00000E+00         0.00000E+00        -0.18575E+08
 
   -0.18190E+08        -0.18551E+05         0.00000E+00
   -0.18551E+05        -0.19537E+07         0.00000E+00
    0.00000E+00         0.00000E+00        -0.18545E+08
 
   -0.18187E+08        -0.13417E+05         0.00000E+00
   -0.13417E+05        -0.19520E+07         0.00000E+00
    0.00000E+00         0.00000E+00        -0.18516E+08
 
   -0.18183E+08        -0.67611E+04         0.00000E+00
   -0.67611E+04        -0.19512E+07         0.00000E+00
    0.00000E+00         0.00000E+00        -0.18487E+08
 
   -0.18178E+08         0.62373E+03         0.00000E+00
    0.62373E+03        -0.19510E+07         0.00000E+00
    0.00000E+00         0.00000E+00        -0.18457E+08
 
   -0.18170E+08         0.82381E+04         0.00000E+00
    0.82381E+04        -0.19511E+07         0.00000E+00
    0.00000E+00         0.00000E+00        -0.18426E+08
 
   -0.18159E+08         0.15756E+05         0.00000E+00
    0.15756E+05        -0.19515E+07         0.00000E+00
    0.00000E+00         0.00000E+00        -0.18395E+08
 
   -0.18146E+08         0.22967E+05         0.00000E+00
    0.22967E+05        -0.19520E+07         0.00000E+00
    0.00000E+00         0.00000E+00        -0.18363E+08
 
   -0.18130E+08         0.29744E+05         0.00000E+00
    0.29744E+05        -0.19526E+07         0.00000E+00
    0.00000E+00         0.00000E+00        -0.18330E+08
 
   -0.18111E+08         0.36019E+05         0.00000E+00
    0.36019E+05        -0.19533E+07         0.00000E+00
    0.00000E+00         0.00000E+00        -0.18297E+08
 
   -0.18091E+08         0.41768E+05         0.00000E+00
    0.41768E+05        -0.19539E+07         0.00000E+00
    0.00000E+00         0.00000E+00        -0.18262E+08
 
   -0.18068E+08         0.46997E+05         0.00000E+00
    0.46997E+05        -0.19545E+07         0.00000E+00
    0.00000E+00         0.00000E+00        -0.18227E+08
 
   -0.18043E+08         0.51731E+05         0.00000E+00
    0.51731E+05        -0.19551E+07         0.00000E+00
    0.00000E+00         0.00000E+00        -0.18191E+08
 
   -0.18016E+08         0.56008E+05         0.00000E+00
    0.56008E+05        -0.19556E+07         0.00000E+00
    0.00000E+00         0.00000E+00        -0.18154E+08
 
   -0.17988E+08         0.59870E+05         0.00000E+00
    0.59870E+05        -0.19560E+07         0.00000E+00
    0.00000E+00         0.00000E+00        -0.18117E+08
 
   -0.17958E+08         0.63363E+05         0.00000E+00
    0.63363E+05        -0.19564E+07         0.00000E+00
    0.00000E+00         0.00000E+00        -0.18079E+08
 
   -0.17927E+08         0.66529E+05         0.00000E+00
    0.66529E+05        -0.19568E+07         0.00000E+00
    0.00000E+00         0.00000E+00        -0.18040E+08
 
   -0.17894E+08         0.69409E+05         0.00000E+00
    0.69409E+05        -0.19571E+07         0.00000E+00
    0.00000E+00         0.00000E+00        -0.18001E+08
 
   -0.17860E+08         0.72041E+05         0.00000E+00
    0.72041E+05        -0.19573E+07         0.00000E+00
    0.00000E+00         0.00000E+00        -0.17961E+08
 
   -0.17825E+08         0.74456E+05         0.00000E+00
    0.74456E+05        -0.19575E+07         0.00000E+00
    0.00000E+00         0.00000E+00        -0.17921E+08
 
   -0.17789E+08         0.76685E+05         0.00000E+00
    0.76685E+05        -0.19577E+07         0.00000E+00
    0.00000E+00         0.00000E+00        -0.17880E+08
 
   -0.17752E+08         0.78751E+05         0.00000E+00
    0.78751E+05        -0.19579E+07         0.00000E+00
    0.00000E+00         0.00000E+00        -0.17839E+08
 
   -0.17714E+08         0.80676E+05         0.00000E+00
    0.80676E+05        -0.19580E+07         0.00000E+00
    0.00000E+00         0.00000E+00        -0.17797E+08
 
   -0.17675E+08         0.82479E+05         0.00000E+00
    0.82479E+05        -0.19581E+07         0.00000E+00
    0.00000E+00         0.00000E+00        -0.17755E+08
 
   -0.17635E+08         0.84175E+05         0.00000E+00
    0.84175E+05        -0.19582E+07         0.00000E+00
    0.00000E+00         0.00000E+00        -0.17713E+08
 
   -0.17594E+08         0.85776E+05         0.00000E+00
    0.85776E+05        -0.19583E+07         0.00000E+00
    0.00000E+00         0.00000E+00        -0.17669E+08
 
   -0.17553E+08         0.87295E+05         0.00000E+00
    0.87295E+05        -0.19584E+07         0.00000E+00
    0.00000E+00         0.00000E+00        -0.17626E+08
 
   -0.17511E+08         0.88741E+05         0.00000E+00
    0.88741E+05        -0.19585E+07         0.00000E+00
    0.00000E+00         0.00000E+00        -0.17582E+08
 
   -0.17469E+08         0.90121E+05         0.00000E+00
    0.90121E+05        -0.19586E+07         0.00000E+00
    0.00000E+00         0.00000E+00        -0.17537E+08
 
   -0.17425E+08         0.91442E+05         0.00000E+00
    0.91442E+05        -0.19586E+07         0.00000E+00
    0.00000E+00         0.00000E+00        -0.17492E+08
 
   -0.17382E+08         0.92711E+05         0.00000E+00
    0.92711E+05        -0.19587E+07         0.00000E+00
    0.00000E+00         0.00000E+00        -0.17447E+08
 
   -0.17337E+08         0.93932E+05         0.00000E+00
    0.93932E+05        -0.19587E+07         0.00000E+00
    0.00000E+00         0.00000E+00        -0.17401E+08
 
   -0.17292E+08         0.95110E+05         0.00000E+00
    0.95110E+05        -0.19587E+07         0.00000E+00
    0.00000E+00         0.00000E+00        -0.17355E+08
 
   -0.17247E+08         0.96248E+05         0.00000E+00
    0.96248E+05        -0.19588E+07         0.00000E+00
    0.00000E+00         0.00000E+00        -0.17308E+08
 
   -0.17200E+08         0.97349E+05         0.00000E+00
    0.97349E+05        -0.19588E+07         0.00000E+00
    0.00000E+00         0.00000E+00        -0.17261E+08
 
   -0.17154E+08         0.98416E+05         0.00000E+00
    0.98416E+05        -0.19589E+07         0.00000E+00
    0.00000E+00         0.00000E+00        -0.17213E+08
 
   -0.17107E+08         0.99451E+05         0.00000E+00
    0.99451E+05        -0.19589E+07         0.00000E+00
    0.00000E+00         0.00000E+00        -0.17165E+08
 
   -0.17059E+08         0.10046E+06         0.00000E+00
    0.10046E+06        -0.19589E+07         0.00000E+00
    0.00000E+00         0.00000E+00        -0.17117E+08
 
   -0.17011E+08         0.10143E+06         0.00000E+00
    0.10143E+06        -0.19590E+07         0.00000E+00
    0.00000E+00         0.00000E+00        -0.17068E+08
 
   -0.16963E+08         0.10238E+06         0.00000E+00
    0.10238E+06        -0.19590E+07         0.00000E+00
    0.00000E+00         0.00000E+00        -0.17019E+08
 
   -0.16914E+08         0.10331E+06         0.00000E+00
    0.10331E+06        -0.19590E+07         0.00000E+00
    0.00000E+00         0.00000E+00        -0.16969E+08
 
   -0.16864E+08         0.10420E+06         0.00000E+00
    0.10420E+06        -0.19590E+07         0.00000E+00
    0.00000E+00         0.00000E+00        -0.16919E+08
 
   -0.16814E+08         0.10508E+06         0.00000E+00
    0.10508E+06        -0.19591E+07         0.00000E+00
    0.00000E+00         0.00000E+00        -0.16868E+08
 
   -0.16764E+08         0.10592E+06         0.00000E+00
    0.10592E+06        -0.19591E+07         0.00000E+00
    0.00000E+00         0.00000E+00        -0.16817E+08
 
   -0.16713E+08         0.10674E+06         0.00000E+00
    0.10674E+06        -0.19591E+07         0.00000E+00
    0.00000E+00         0.00000E+00        -0.16766E+08
 
   -0.16662E+08         0.10754E+06         0.00000E+00
    0.10754E+06        -0.19591E+07         0.00000E+00
    0.00000E+00         0.00000E+00        -0.16714E+08
 
   -0.16611E+08         0.10831E+06         0.00000E+00
    0.10831E+06        -0.19592E+07         0.00000E+00
    0.00000E+00         0.00000E+00        -0.16661E+08
 
   -0.16559E+08         0.10905E+06         0.00000E+00
    0.10905E+06        -0.19592E+07         0.00000E+00
    0.00000E+00         0.00000E+00        -0.16609E+08
 
   -0.16507E+08         0.10976E+06         0.00000E+00
    0.10976E+06        -0.19592E+07         0.00000E+00
    0.00000E+00         0.00000E+00        -0.16555E+08
 
   -0.16454E+08         0.11044E+06         0.00000E+00
    0.11044E+06        -0.19593E+07         0.00000E+00
    0.00000E+00         0.00000E+00        -0.16502E+08
 
   -0.16402E+08         0.11109E+06         0.00000E+00
    0.11109E+06        -0.19593E+07         0.00000E+00
    0.00000E+00         0.00000E+00        -0.16448E+08
 
   -0.16348E+08         0.11170E+06         0.00000E+00
    0.11170E+06        -0.19593E+07         0.00000E+00
    0.00000E+00         0.00000E+00        -0.16393E+08
 
   -0.16295E+08         0.11228E+06         0.00000E+00
    0.11228E+06        -0.19594E+07         0.00000E+00
    0.00000E+00         0.00000E+00        -0.16338E+08
 
   -0.16241E+08         0.11282E+06         0.00000E+00
    0.11282E+06        -0.19594E+07         0.00000E+00
    0.00000E+00         0.00000E+00        -0.16283E+08
 
   -0.16187E+08         0.11331E+06         0.00000E+00
    0.11331E+06        -0.19595E+07         0.00000E+00
    0.00000E+00         0.00000E+00        -0.16227E+08
 
   -0.16133E+08         0.11377E+06         0.00000E+00
    0.11377E+06        -0.19595E+07         0.00000E+00
    0.00000E+00         0.00000E+00        -0.16171E+08
 
   -0.16079E+08         0.11417E+06         0.00000E+00
    0.11417E+06        -0.19596E+07         0.00000E+00
    0.00000E+00         0.00000E+00        -0.16115E+08
 
   -0.16024E+08         0.11452E+06         0.00000E+00
    0.11452E+06        -0.19596E+07         0.00000E+00
    0.00000E+00         0.00000E+00        -0.16058E+08
 
   -0.15969E+08         0.11482E+06         0.00000E+00
    0.11482E+06        -0.19597E+07         0.00000E+00
    0.00000E+00         0.00000E+00        -0.16001E+08
 
   -0.15914E+08         0.11505E+06         0.00000E+00
    0.11505E+06        -0.19598E+07         0.00000E+00
    0.00000E+00         0.00000E+00        -0.15943E+08
 
   -0.15859E+08         0.11522E+06         0.00000E+00
    0.11522E+06        -0.19598E+07         0.00000E+00
    0.00000E+00         0.00000E+00        -0.15885E+08
 
   -0.15804E+08         0.11532E+06         0.00000E+00
    0.11532E+06        -0.19599E+07         0.00000E+00
    0.00000E+00         0.00000E+00        -0.15827E+08
 
   -0.15749E+08         0.11534E+06         0.00000E+00
    0.11534E+06        -0.19600E+07         0.00000E+00
    0.00000E+00         0.00000E+00        -0.15768E+08
 
   -0.15694E+08         0.11528E+06         0.00000E+00
    0.11528E+06        -0.19601E+07         0.00000E+00
    0.00000E+00         0.00000E+00        -0.15710E+08
 
   -0.15639E+08         0.11512E+06         0.00000E+00
    0.11512E+06        -0.19602E+07         0.00000E+00
    0.00000E+00         0.00000E+00        -0.15651E+08
 
   -0.15584E+08         0.11486E+06         0.00000E+00
    0.11486E+06        -0.19603E+07         0.00000E+00
    0.00000E+00         0.00000E+00        -0.15591E+08
 
   -0.15529E+08         0.11450E+06         0.00000E+00
    0.11450E+06        -0.19604E+07         0.00000E+00
    0.00000E+00         0.00000E+00        -0.15532E+08
 
   -0.15474E+08         0.11402E+06         0.00000E+00
    0.11402E+06        -0.19605E+07         0.00000E+00
    0.00000E+00         0.00000E+00        -0.15472E+08
 
   -0.15420E+08         0.11340E+06         0.00000E+00
    0.11340E+06        -0.19607E+07         0.00000E+00
    0.00000E+00         0.00000E+00        -0.15412E+08
 
   -0.15365E+08         0.11265E+06         0.00000E+00
    0.11265E+06        -0.19608E+07         0.00000E+00
    0.00000E+00         0.00000E+00        -0.15351E+08
 
   -0.15311E+08         0.11173E+06         0.00000E+00
    0.11173E+06        -0.19610E+07         0.00000E+00
    0.00000E+00         0.00000E+00        -0.15291E+08
 
   -0.15258E+08         0.11064E+06         0.00000E+00
    0.11064E+06        -0.19612E+07         0.00000E+00
    0.00000E+00         0.00000E+00        -0.15231E+08
 
   -0.15205E+08         0.10935E+06         0.00000E+00
    0.10935E+06        -0.19614E+07         0.00000E+00
    0.00000E+00         0.00000E+00        -0.15170E+08
 
   -0.15153E+08         0.10784E+06         0.00000E+00
    0.10784E+06        -0.19617E+07         0.00000E+00
    0.00000E+00         0.00000E+00        -0.15109E+08
 
   -0.15101E+08         0.10609E+06         0.00000E+00
    0.10609E+06        -0.19620E+07         0.00000E+00
    0.00000E+00         0.00000E+00        -0.15049E+08
 
   -0.15051E+08         0.10405E+06         0.00000E+00
    0.10405E+06        -0.19623E+07         0.00000E+00
    0.00000E+00         0.00000E+00        -0.14988E+08
 
   -0.15001E+08         0.10170E+06         0.00000E+00
    0.10170E+06        -0.19627E+07         0.00000E+00
    0.00000E+00         0.00000E+00        -0.14928E+08
 
   -0.14952E+08         0.98989E+05         0.00000E+00
    0.98989E+05        -0.19631E+07         0.00000E+00
    0.00000E+00         0.00000E+00        -0.14867E+08
 
   -0.14905E+08         0.95870E+05         0.00000E+00
    0.95870E+05        -0.19636E+07         0.00000E+00
    0.00000E+00         0.00000E+00        -0.14807E+08
 
   -0.14859E+08         0.92285E+05         0.00000E+00
    0.92285E+05        -0.19641E+07         0.00000E+00
    0.00000E+00         0.00000E+00        -0.14747E+08
 
   -0.14815E+08         0.88172E+05         0.00000E+00
    0.88172E+05        -0.19647E+07         0.00000E+00
    0.00000E+00         0.00000E+00        -0.14688E+08
 
   -0.14772E+08         0.83462E+05         0.00000E+00
    0.83462E+05        -0.19654E+07         0.00000E+00
    0.00000E+00         0.00000E+00        -0.14628E+08
 
   -0.14732E+08         0.78081E+05         0.00000E+00
    0.78081E+05        -0.19663E+07         0.00000E+00
    0.00000E+00         0.00000E+00        -0.14570E+08
 
   -0.14694E+08         0.71954E+05         0.00000E+00
    0.71954E+05        -0.19672E+07         0.00000E+00
    0.00000E+00         0.00000E+00        -0.14511E+08
 
   -0.14659E+08         0.65009E+05         0.00000E+00
    0.65009E+05        -0.19681E+07         0.00000E+00
    0.00000E+00         0.00000E+00        -0.14454E+08
 
   -0.14626E+08         0.57185E+05         0.00000E+00
    0.57185E+05        -0.19692E+07         0.00000E+00
    0.00000E+00         0.00000E+00        -0.14397E+08
 
   -0.14597E+08         0.48441E+05         0.00000E+00
    0.48441E+05        -0.19703E+07         0.00000E+00
    0.00000E+00         0.00000E+00        -0.14341E+08
 
   -0.14571E+08         0.38771E+05         0.00000E+00
    0.38771E+05        -0.19714E+07         0.00000E+00
    0.00000E+00         0.00000E+00        -0.14286E+08
 
   -0.14549E+08         0.28220E+05         0.00000E+00
    0.28220E+05        -0.19725E+07         0.00000E+00
    0.00000E+00         0.00000E+00        -0.14232E+08
 
   -0.14531E+08         0.16912E+05         0.00000E+00
    0.16912E+05        -0.19734E+07         0.00000E+00
    0.00000E+00         0.00000E+00        -0.14179E+08
 
   -0.14517E+08         0.50720E+04         0.00000E+00
    0.50720E+04        -0.19741E+07         0.00000E+00
    0.00000E+00         0.00000E+00        -0.14128E+08
 
   -0.14506E+08        -0.69302E+04         0.00000E+00
   -0.69302E+04        -0.19743E+07         0.00000E+00
    0.00000E+00         0.00000E+00        -0.14077E+08
 
   -0.14499E+08        -0.18525E+05         0.00000E+00
   -0.18525E+05        -0.19739E+07         0.00000E+00
    0.00000E+00         0.00000E+00        -0.14026E+08
 
   -0.14495E+08        -0.28843E+05         0.00000E+00
   -0.28843E+05        -0.19725E+07         0.00000E+00
    0.00000E+00         0.00000E+00        -0.13977E+08
 
   -0.14493E+08        -0.36508E+05         0.00000E+00
   -0.36508E+05        -0.19696E+07         0.00000E+00
    0.00000E+00         0.00000E+00        -0.13927E+08
 
   -0.14490E+08        -0.39014E+05         0.00000E+00
   -0.39014E+05        -0.19637E+07         0.00000E+00
    0.00000E+00         0.00000E+00        -0.13876E+08
 
   -0.14485E+08        -0.32093E+05         0.00000E+00
   -0.32093E+05        -0.19494E+07         0.00000E+00
    0.00000E+00         0.00000E+00        -0.13822E+08
 
   -0.14480E+08        -0.12838E+05         0.00000E+00
   -0.12838E+05        -0.19146E+07         0.00000E+00
    0.00000E+00         0.00000E+00        -0.13762E+08
 
   -0.18184E+08        -0.74847E+04         0.00000E+00
   -0.74847E+04        -0.19826E+07         0.00000E+00
    0.00000E+00         0.00000E+00        -0.18636E+08
 
   -0.18181E+08        -0.18193E+05         0.00000E+00
   -0.18193E+05        -0.19640E+07         0.00000E+00
    0.00000E+00         0.00000E+00        -0.18601E+08
 
   -0.18179E+08        -0.21202E+05         0.00000E+00
   -0.21202E+05        -0.19571E+07         0.00000E+00
    0.00000E+00         0.00000E+00        -0.18571E+08
 
   -0.18178E+08        -0.18875E+05         0.00000E+00
   -0.18875E+05        -0.19545E+07         0.00000E+00
    0.00000E+00         0.00000E+00        -0.18542E+08
 
   -0.18177E+08        -0.13881E+05         0.00000E+00
   -0.13881E+05        -0.19532E+07         0.00000E+00
    0.00000E+00         0.00000E+00        -0.18513E+08
 
   -0.18174E+08        -0.75675E+04         0.00000E+00
   -0.75675E+04        -0.19526E+07         0.00000E+00
    0.00000E+00         0.00000E+00        -0.18484E+08
 
   -0.18170E+08        -0.63847E+03         0.00000E+00
   -0.63847E+03        -0.19525E+07         0.00000E+00
    0.00000E+00         0.00000E+00        -0.18455E+08
 
   -0.18163E+08         0.64614E+04         0.00000E+00
    0.64614E+04        -0.19526E+07         0.00000E+00
    0.00000E+00         0.00000E+00        -0.18425E+08
 
   -0.18153E+08         0.13444E+05         0.00000E+00
    0.13444E+05        -0.19529E+07         0.00000E+00
    0.00000E+00         0.00000E+00        -0.18394E+08
 
   -0.18141E+08         0.20122E+05         0.00000E+00
    0.20122E+05        -0.19534E+07         0.00000E+00
    0.00000E+00         0.00000E+00        -0.18362E+08
 
   -0.18125E+08         0.26383E+05         0.00000E+00
    0.26383E+05        -0.19539E+07         0.00000E+00
    0.00000E+00         0.00000E+00        -0.18329E+08
 
   -0.18108E+08         0.32169E+05         0.00000E+00
    0.32169E+05        -0.19544E+07         0.00000E+00
    0.00000E+00         0.00000E+00        -0.18296E+08
 
   -0.18087E+08         0.37460E+05         0.00000E+00
    0.37460E+05        -0.19550E+07         0.00000E+00
    0.00000E+00         0.00000E+00        -0.18261E+08
 
   -0.18065E+08         0.42263E+05         0.00000E+00
    0.42263E+05        -0.19555E+07         0.00000E+00
    0.00000E+00         0.00000E+00        -0.18226E+08
 
   -0.18040E+08         0.46604E+05         0.00000E+00
    0.46604E+05        -0.19559E+07         0.00000E+00
    0.00000E+00         0.00000E+00        -0.18190E+08
 
   -0.18014E+08         0.50520E+05         0.00000E+00
    0.50520E+05        -0.19564E+07         0.00000E+00
    0.00000E+00         0.00000E+00        -0.18154E+08
 
   -0.17986E+08         0.54050E+05         0.00000E+00
    0.54050E+05        -0.19567E+07         0.00000E+00
    0.00000E+00         0.00000E+00        -0.18116E+08
 
   -0.17956E+08         0.57238E+05         0.00000E+00
    0.57238E+05        -0.19571E+07         0.00000E+00
    0.00000E+00         0.00000E+00        -0.18078E+08
 
   -0.17925E+08         0.60124E+05         0.00000E+00
    0.60124E+05        -0.19573E+07         0.00000E+00
    0.00000E+00         0.00000E+00        -0.18040E+08
 
   -0.17892E+08         0.62746E+05         0.00000E+00
    0.62746E+05        -0.19576E+07         0.00000E+00
    0.00000E+00         0.00000E+00        -0.18001E+08
 
   -0.17858E+08         0.65139E+05         0.00000E+00
    0.65139E+05        -0.19578E+07         0.00000E+00
    0.00000E+00         0.00000E+00        -0.17961E+08
 
   -0.17823E+08         0.67334E+05         0.00000E+00
    0.67334E+05        -0.19580E+07         0.00000E+00
    0.00000E+00         0.00000E+00        -0.17921E+08
 
   -0.17787E+08         0.69357E+05         0.00000E+00
    0.69357E+05        -0.19581E+07         0.00000E+00
    0.00000E+00         0.00000E+00        -0.17880E+08
 
   -0.17750E+08         0.71232E+05         0.00000E+00
    0.71232E+05        -0.19583E+07         0.00000E+00
    0.00000E+00         0.00000E+00        -0.17839E+08
 
   -0.17712E+08         0.72978E+05         0.00000E+00
    0.72978E+05        -0.19584E+07         0.00000E+00
    0.00000E+00         0.00000E+00        -0.17797E+08
 
   -0.17673E+08         0.74613E+05         0.00000E+00
    0.74613E+05        -0.19585E+07         0.00000E+00
    0.00000E+00         0.00000E+00        -0.17755E+08
 
   -0.17633E+08         0.76150E+05         0.00000E+00
    0.76150E+05        -0.19586E+07         0.00000E+00
    0.00000E+00         0.00000E+00        -0.17712E+08
 
   -0.17593E+08         0.77601E+05         0.00000E+00
    0.77601E+05        -0.19586E+07         0.00000E+00
    0.00000E+00         0.00000E+00        -0.17669E+08
 
   -0.17552E+08         0.78977E+05         0.00000E+00
    0.78977E+05        -0.19587E+07         0.00000E+00
    0.00000E+00         0.00000E+00        -0.17625E+08
 
   -0.17510E+08         0.80286E+05         0.00000E+00
    0.80286E+05        -0.19588E+07         0.00000E+00
    0.00000E+00         0.00000E+00        -0.17581E+08
 
   -0.17467E+08         0.81536E+05         0.00000E+00
    0.81536E+05        -0.19588E+07         0.00000E+00
    0.00000E+00         0.00000E+00        -0.17537E+08
 
   -0.17424E+08         0.82732E+05         0.00000E+00
    0.82732E+05        -0.19589E+07         0.00000E+00
    0.00000E+00         0.00000E+00        -0.17492E+08
 
   -0.17380E+08         0.83881E+05         0.00000E+00
    0.83881E+05        -0.19589E+07         0.00000E+00
    0.00000E+00         0.00000E+00        -0.17447E+08
 
   -0.17336E+08         0.84986E+05         0.00000E+00
    0.84986E+05        -0.19589E+07         0.00000E+00
    0.00000E+00         0.00000E+00        -0.17401E+08
 
   -0.17291E+08         0.86052E+05         0.00000E+00
    0.86052E+05        -0.19590E+07         0.00000E+00
    0.00000E+00         0.00000E+00        -0.17354E+08
 
   -0.17245E+08         0.87082E+05         0.00000E+00
    0.87082E+05        -0.19590E+07         0.00000E+00
    0.00000E+00         0.00000E+00        -0.17308E+08
 
   -0.17199E+08         0.88079E+05         0.00000E+00
    0.88079E+05        -0.19590E+07         0.00000E+00
    0.00000E+00         0.00000E+00        -0.17261E+08
 
   -0.17152E+08         0.89044E+05         0.00000E+00
    0.89044E+05        -0.19591E+07         0.00000E+00
    0.00000E+00         0.00000E+00        -0.17213E+08
 
   -0.17105E+08         0.89981E+05         0.00000E+00
    0.89981E+05        -0.19591E+07         0.00000E+00
    0.00000E+00         0.00000E+00        -0.17165E+08
 
   -0.17058E+08         0.90890E+05         0.00000E+00
    0.90890E+05        -0.19591E+07         0.00000E+00
    0.00000E+00         0.00000E+00        -0.17117E+08
 
   -0.17010E+08         0.91774E+05         0.00000E+00
    0.91774E+05        -0.19591E+07         0.00000E+00
    0.00000E+00         0.00000E+00        -0.17068E+08
 
   -0.16961E+08         0.92632E+05         0.00000E+00
    0.92632E+05        -0.19592E+07         0.00000E+00
    0.00000E+00         0.00000E+00        -0.17018E+08
 
   -0.16912E+08         0.93467E+05         0.00000E+00
    0.93467E+05        -0.19592E+07         0.00000E+00
    0.00000E+00         0.00000E+00        -0.16969E+08
 
   -0.16863E+08         0.94278E+05         0.00000E+00
    0.94278E+05        -0.19592E+07         0.00000E+00
    0.00000E+00         0.00000E+00        -0.16918E+08
 
   -0.16813E+08         0.95066E+05         0.00000E+00
    0.95066E+05        -0.19592E+07         0.00000E+00
    0.00000E+00         0.00000E+00        -0.16868E+08
 
   -0.16763E+08         0.95831E+05         0.00000E+00
    0.95831E+05        -0.19592E+07         0.00000E+00
    0.00000E+00         0.00000E+00        -0.16817E+08
 
   -0.16712E+08         0.96572E+05         0.00000E+00
    0.96572E+05        -0.19593E+07         0.00000E+00
    0.00000E+00         0.00000E+00        -0.16765E+08
 
   -0.16661E+08         0.97290E+05         0.00000E+00
    0.97290E+05        -0.19593E+07         0.00000E+00
    0.00000E+00         0.00000E+00        -0.16713E+08
 
   -0.16610E+08         0.97984E+05         0.00000E+00
    0.97984E+05        -0.19593E+07         0.00000E+00
    0.00000E+00         0.00000E+00        -0.16661E+08
 
   -0.16558E+08         0.98652E+05         0.00000E+00
    0.98652E+05        -0.19593E+07         0.00000E+00
    0.00000E+00         0.00000E+00        -0.16608E+08
 
   -0.16506E+08         0.99293E+05         0.00000E+00
    0.99293E+05        -0.19594E+07         0.00000E+00
    0.00000E+00         0.00000E+00        -0.16555E+08
 
   -0.16453E+08         0.99908E+05         0.00000E+00
    0.99908E+05        -0.19594E+07         0.00000E+00
    0.00000E+00         0.00000E+00        -0.16501E+08
 
   -0.16400E+08         0.10049E+06         0.00000E+00
    0.10049E+06        -0.19594E+07         0.00000E+00
    0.00000E+00         0.00000E+00        -0.16447E+08
 
   -0.16347E+08         0.10105E+06         0.00000E+00
    0.10105E+06        -0.19594E+07         0.00000E+00
    0.00000E+00         0.00000E+00        -0.16393E+08
 
   -0.16294E+08         0.10157E+06         0.00000E+00
    0.10157E+06        -0.19595E+07         0.00000E+00
    0.00000E+00         0.00000E+00        -0.16338E+08
 
   -0.16240E+08         0.10205E+06         0.00000E+00
    0.10205E+06        -0.19595E+07         0.00000E+00
    0.00000E+00         0.00000E+00        -0.16283E+08
 
   -0.16186E+08         0.10250E+06         0.00000E+00
    0.10250E+06        -0.19596E+07         0.00000E+00
    0.00000E+00         0.00000E+00        -0.16227E+08
 
   -0.16132E+08         0.10291E+06         0.00000E+00
    0.10291E+06        -0.19596E+07         0.00000E+00
    0.00000E+00         0.00000E+00        -0.16171E+08
 
   -0.16078E+08         0.10327E+06         0.00000E+00
    0.10327E+06        -0.19596E+07         0.00000E+00
    0.00000E+00         0.00000E+00        -0.16114E+08
 
   -0.16023E+08         0.10359E+06         0.00000E+00
    0.10359E+06        -0.19597E+07         0.00000E+00
    0.00000E+00         0.00000E+00        -0.16058E+08
 
   -0.15968E+08         0.10385E+06         0.00000E+00
    0.10385E+06        -0.19597E+07         0.00000E+00
    0.00000E+00         0.00000E+00        -0.16000E+08
 
   -0.15913E+08         0.10406E+06         0.00000E+00
    0.10406E+06        -0.19598E+07         0.00000E+00
    0.00000E+00         0.00000E+00        -0.15943E+08
 
   -0.15858E+08         0.10421E+06         0.00000E+00
    0.10421E+06        -0.19599E+07         0.00000E+00
    0.00000E+00         0.00000E+00        -0.15885E+08
 
   -0.15803E+08         0.10429E+06         0.00000E+00
    0.10429E+06        -0.19599E+07         0.00000E+00
    0.00000E+00         0.00000E+00        -0.15827E+08
 
   -0.15748E+08         0.10431E+06         0.00000E+00
    0.10431E+06        -0.19600E+07         0.00000E+00
    0.00000E+00         0.00000E+00        -0.15768E+08
 
   -0.15693E+08         0.10425E+06         0.00000E+00
    0.10425E+06        -0.19601E+07         0.00000E+00
    0.00000E+00         0.00000E+00        -0.15709E+08
 
   -0.15638E+08         0.10410E+06         0.00000E+00
    0.10410E+06        -0.19601E+07         0.00000E+00
    0.00000E+00         0.00000E+00        -0.15650E+08
 
   -0.15583E+08         0.10387E+06         0.00000E+00
    0.10387E+06        -0.19602E+07         0.00000E+00
    0.00000E+00         0.00000E+00        -0.15591E+08
 
   -0.15528E+08         0.10353E+06         0.00000E+00
    0.10353E+06        -0.19603E+07         0.00000E+00
    0.00000E+00         0.00000E+00        -0.15531E+08
 
   -0.15474E+08         0.10309E+06         0.00000E+00
    0.10309E+06        -0.19604E+07         0.00000E+00
    0.00000E+00         0.00000E+00        -0.15471E+08
 
   -0.15419E+08         0.10253E+06         0.00000E+00
    0.10253E+06        -0.19606E+07         0.00000E+00
    0.00000E+00         0.00000E+00        -0.15411E+08
 
   -0.15365E+08         0.10184E+06         0.00000E+00
    0.10184E+06        -0.19607E+07         0.00000E+00
    0.00000E+00         0.00000E+00        -0.15351E+08
 
   -0.15311E+08         0.10101E+06         0.00000E+00
    0.10101E+06        -0.19608E+07         0.00000E+00
    0.00000E+00         0.00000E+00        -0.15291E+08
 
   -0.15258E+08         0.10002E+06         0.00000E+00
    0.10002E+06        -0.19610E+07         0.00000E+00
    0.00000E+00         0.00000E+00        -0.15230E+08
 
   -0.15205E+08         0.98843E+05         0.00000E+00
    0.98843E+05        -0.19612E+07         0.00000E+00
    0.00000E+00         0.00000E+00        -0.15170E+08
 
   -0.15153E+08         0.97470E+05         0.00000E+00
    0.97470E+05        -0.19614E+07         0.00000E+00
    0.00000E+00         0.00000E+00        -0.15109E+08
 
   -0.15102E+08         0.95873E+05         0.00000E+00
    0.95873E+05        -0.19616E+07         0.00000E+00
    0.00000E+00         0.00000E+00        -0.15049E+08
 
   -0.15051E+08         0.94021E+05         0.00000E+00
    0.94021E+05        -0.19619E+07         0.00000E+00
    0.00000E+00         0.00000E+00        -0.14988E+08
 
   -0.15001E+08         0.91879E+05         0.00000E+00
    0.91879E+05        -0.19622E+07         0.00000E+00
    0.00000E+00         0.00000E+00        -0.14928E+08
 
   -0.14953E+08         0.89409E+05         0.00000E+00
    0.89409E+05        -0.19625E+07         0.00000E+00
    0.00000E+00         0.00000E+00        -0.14867E+08
 
   -0.14906E+08         0.86564E+05         0.00000E+00
    0.86564E+05        -0.19629E+07         0.00000E+00
    0.00000E+00         0.00000E+00        -0.14807E+08
 
   -0.14860E+08         0.83292E+05         0.00000E+00
    0.83292E+05        -0.19634E+07         0.00000E+00
    0.00000E+00         0.00000E+00        -0.14747E+08
 
   -0.14816E+08         0.79532E+05         0.00000E+00
    0.79532E+05        -0.19639E+07         0.00000E+00
    0.00000E+00         0.00000E+00        -0.14688E+08
 
   -0.14774E+08         0.75222E+05         0.00000E+00
    0.75222E+05        -0.19645E+07         0.00000E+00
    0.00000E+00         0.00000E+00        -0.14629E+08
 
   -0.14734E+08         0.70290E+05         0.00000E+00
    0.70290E+05        -0.19652E+07         0.00000E+00
    0.00000E+00         0.00000E+00        -0.14570E+08
 
   -0.14697E+08         0.64667E+05         0.00000E+00
    0.64667E+05        -0.19659E+07         0.00000E+00
    0.00000E+00         0.00000E+00        -0.14512E+08
 
   -0.14662E+08         0.58283E+05         0.00000E+00
    0.58283E+05        -0.19667E+07         0.00000E+00
    0.00000E+00         0.00000E+00        -0.14455E+08
 
   -0.14630E+08         0.51079E+05         0.00000E+00
    0.51079E+05        -0.19676E+07         0.00000E+00
    0.00000E+00         0.00000E+00        -0.14398E+08
 
   -0.14602E+08         0.43014E+05         0.00000E+00
    0.43014E+05        -0.19685E+07         0.00000E+00
    0.00000E+00         0.00000E+00        -0.14342E+08
 
   -0.14577E+08         0.34079E+05         0.00000E+00
    0.34079E+05        -0.19695E+07         0.00000E+00
    0.00000E+00         0.00000E+00        -0.14288E+08
 
   -0.14556E+08         0.24310E+05         0.00000E+00
    0.24310E+05        -0.19704E+07         0.00000E+00
    0.00000E+00         0.00000E+00        -0.14234E+08
 
   -0.14540E+08         0.13816E+05         0.00000E+00
    0.13816E+05        -0.19712E+07         0.00000E+00
    0.00000E+00         0.00000E+00        -0.14181E+08
 
   -0.14527E+08         0.27952E+04         0.00000E+00
    0.27952E+04        -0.19717E+07         0.00000E+00
    0.00000E+00         0.00000E+00        -0.14130E+08
 
   -0.14519E+08        -0.84235E+04         0.00000E+00
   -0.84235E+04        -0.19720E+07         0.00000E+00
    0.00000E+00         0.00000E+00        -0.14080E+08
 
   -0.14514E+08        -0.19336E+05         0.00000E+00
   -0.19336E+05        -0.19717E+07         0.00000E+00
    0.00000E+00         0.00000E+00        -0.14030E+08
 
   -0.14513E+08        -0.29168E+05         0.00000E+00
   -0.29168E+05        -0.19707E+07         0.00000E+00
    0.00000E+00         0.00000E+00        -0.13981E+08
 
   -0.14513E+08        -0.36696E+05         0.00000E+00
   -0.36696E+05        -0.19685E+07         0.00000E+00
    0.00000E+00         0.00000E+00        -0.13933E+08
 
   -0.14513E+08        -0.39589E+05         0.00000E+00
   -0.39589E+05        -0.19638E+07         0.00000E+00
    0.00000E+00         0.00000E+00        -0.13883E+08
 
   -0.14510E+08        -0.33229E+05         0.00000E+00
   -0.33229E+05        -0.19520E+07         0.00000E+00
    0.00000E+00         0.00000E+00        -0.13830E+08
 
   -0.14506E+08        -0.13536E+05         0.00000E+00
   -0.13536E+05        -0.19197E+07         0.00000E+00
    0.00000E+00         0.00000E+00        -0.13771E+08
 
   -0.18168E+08        -0.79064E+04         0.00000E+00
   -0.79064E+04        -0.19797E+07         0.00000E+00
    0.00000E+00         0.00000E+00        -0.18630E+08
 
   -0.18166E+08        -0.18776E+05         0.00000E+00
   -0.18776E+05        -0.19626E+07         0.00000E+00
    0.00000E+00         0.00000E+00        -0.18596E+08
 
   -0.18165E+08        -0.21362E+05         0.00000E+00
   -0.21362E+05        -0.19572E+07         0.00000E+00
    0.00000E+00         0.00000E+00        -0.18567E+08
 
   -0.18166E+08        -0.18847E+05         0.00000E+00
   -0.18847E+05        -0.19553E+07         0.00000E+00
    0.00000E+00         0.00000E+00        -0.18538E+08
 
   -0.18166E+08        -0.14028E+05         0.00000E+00
   -0.14028E+05        -0.19543E+07         0.00000E+00
    0.00000E+00         0.00000E+00        -0.18510E+08
 
   -0.18165E+08        -0.80954E+04         0.00000E+00
   -0.80954E+04        -0.19539E+07         0.00000E+00
    0.00000E+00         0.00000E+00        -0.18482E+08
 
   -0.18162E+08        -0.16604E+04         0.00000E+00
   -0.16604E+04        -0.19539E+07         0.00000E+00
    0.00000E+00         0.00000E+00        -0.18453E+08
 
   -0.18156E+08         0.48893E+04         0.00000E+00
    0.48893E+04        -0.19540E+07         0.00000E+00
    0.00000E+00         0.00000E+00        -0.18423E+08
 
   -0.18148E+08         0.11304E+05         0.00000E+00
    0.11304E+05        -0.19543E+07         0.00000E+00
    0.00000E+00         0.00000E+00        -0.18393E+08
 
   -0.18136E+08         0.17420E+05         0.00000E+00
    0.17420E+05        -0.19546E+07         0.00000E+00
    0.00000E+00         0.00000E+00        -0.18361E+08
 
   -0.18121E+08         0.23141E+05         0.00000E+00
    0.23141E+05        -0.19551E+07         0.00000E+00
    0.00000E+00         0.00000E+00        -0.18329E+08
 
   -0.18104E+08         0.28416E+05         0.00000E+00
    0.28416E+05        -0.19555E+07         0.00000E+00
    0.00000E+00         0.00000E+00        -0.18295E+08
 
   -0.18084E+08         0.33230E+05         0.00000E+00
    0.33230E+05        -0.19559E+07         0.00000E+00
    0.00000E+00         0.00000E+00        -0.18261E+08
 
   -0.18062E+08         0.37593E+05         0.00000E+00
    0.37593E+05        -0.19563E+07         0.00000E+00
    0.00000E+00         0.00000E+00        -0.18226E+08
 
   -0.18038E+08         0.41529E+05         0.00000E+00
    0.41529E+05        -0.19567E+07         0.00000E+00
    0.00000E+00         0.00000E+00        -0.18190E+08
 
   -0.18012E+08         0.45072E+05         0.00000E+00
    0.45072E+05        -0.19571E+07         0.00000E+00
    0.00000E+00         0.00000E+00        -0.18153E+08
 
   -0.17984E+08         0.48263E+05         0.00000E+00
    0.48263E+05        -0.19574E+07         0.00000E+00
    0.00000E+00         0.00000E+00        -0.18116E+08
 
   -0.17954E+08         0.51139E+05         0.00000E+00
    0.51139E+05        -0.19576E+07         0.00000E+00
    0.00000E+00         0.00000E+00        -0.18078E+08
 
   -0.17923E+08         0.53740E+05         0.00000E+00
    0.53740E+05        -0.19579E+07         0.00000E+00
    0.00000E+00         0.00000E+00        -0.18040E+08
 
   -0.17890E+08         0.56100E+05         0.00000E+00
    0.56100E+05        -0.19581E+07         0.00000E+00
    0.00000E+00         0.00000E+00        -0.18000E+08
 
   -0.17857E+08         0.58251E+05         0.00000E+00
    0.58251E+05        -0.19582E+07         0.00000E+00
    0.00000E+00         0.00000E+00        -0.17961E+08
 
   -0.17822E+08         0.60223E+05         0.00000E+00
    0.60223E+05        -0.19584E+07         0.00000E+00
    0.00000E+00         0.00000E+00        -0.17920E+08
 
   -0.17786E+08         0.62039E+05         0.00000E+00
    0.62039E+05        -0.19585E+07         0.00000E+00
    0.00000E+00         0.00000E+00        -0.17880E+08
 
   -0.17748E+08         0.63721E+05         0.00000E+00
    0.63721E+05        -0.19586E+07         0.00000E+00
    0.00000E+00         0.00000E+00        -0.17838E+08
 
   -0.17710E+08         0.65287E+05         0.00000E+00
    0.65287E+05        -0.19587E+07         0.00000E+00
    0.00000E+00         0.00000E+00        -0.17797E+08
 
   -0.17672E+08         0.66752E+05         0.00000E+00
    0.66752E+05        -0.19588E+07         0.00000E+00
    0.00000E+00         0.00000E+00        -0.17754E+08
 
   -0.17632E+08         0.68129E+05         0.00000E+00
    0.68129E+05        -0.19588E+07         0.00000E+00
    0.00000E+00         0.00000E+00        -0.17712E+08
 
   -0.17591E+08         0.69429E+05         0.00000E+00
    0.69429E+05        -0.19589E+07         0.00000E+00
    0.00000E+00         0.00000E+00        -0.17669E+08
 
   -0.17550E+08         0.70661E+05         0.00000E+00
    0.70661E+05        -0.19590E+07         0.00000E+00
    0.00000E+00         0.00000E+00        -0.17625E+08
 
   -0.17508E+08         0.71833E+05         0.00000E+00
    0.71833E+05        -0.19590E+07         0.00000E+00
    0.00000E+00         0.00000E+00        -0.17581E+08
 
   -0.17466E+08         0.72952E+05         0.00000E+00
    0.72952E+05        -0.19590E+07         0.00000E+00
    0.00000E+00         0.00000E+00        -0.17536E+08
 
   -0.17422E+08         0.74024E+05         0.00000E+00
    0.74024E+05        -0.19591E+07         0.00000E+00
    0.00000E+00         0.00000E+00        -0.17492E+08
 
   -0.17379E+08         0.75052E+05         0.00000E+00
    0.75052E+05        -0.19591E+07         0.00000E+00
    0.00000E+00         0.00000E+00        -0.17446E+08
 
   -0.17334E+08         0.76042E+05         0.00000E+00
    0.76042E+05        -0.19591E+07         0.00000E+00
    0.00000E+00         0.00000E+00        -0.17400E+08
 
   -0.17289E+08         0.76996E+05         0.00000E+00
    0.76996E+05        -0.19592E+07         0.00000E+00
    0.00000E+00         0.00000E+00        -0.17354E+08
 
   -0.17244E+08         0.77917E+05         0.00000E+00
    0.77917E+05        -0.19592E+07         0.00000E+00
    0.00000E+00         0.00000E+00        -0.17307E+08
 
   -0.17198E+08         0.78809E+05         0.00000E+00
    0.78809E+05        -0.19592E+07         0.00000E+00
    0.00000E+00         0.00000E+00        -0.17260E+08
 
   -0.17151E+08         0.79673E+05         0.00000E+00
    0.79673E+05        -0.19592E+07         0.00000E+00
    0.00000E+00         0.00000E+00        -0.17213E+08
 
   -0.17104E+08         0.80510E+05         0.00000E+00
    0.80510E+05        -0.19593E+07         0.00000E+00
    0.00000E+00         0.00000E+00        -0.17165E+08
 
   -0.17056E+08         0.81324E+05         0.00000E+00
    0.81324E+05        -0.19593E+07         0.00000E+00
    0.00000E+00         0.00000E+00        -0.17116E+08
 
   -0.17008E+08         0.82114E+05         0.00000E+00
    0.82114E+05        -0.19593E+07         0.00000E+00
    0.00000E+00         0.00000E+00        -0.17067E+08
 
   -0.16960E+08         0.82882E+05         0.00000E+00
    0.82882E+05        -0.19593E+07         0.00000E+00
    0.00000E+00         0.00000E+00        -0.17018E+08
 
   -0.16911E+08         0.83628E+05         0.00000E+00
    0.83628E+05        -0.19593E+07         0.00000E+00
    0.00000E+00         0.00000E+00        -0.16968E+08
 
   -0.16861E+08         0.84353E+05         0.00000E+00
    0.84353E+05        -0.19594E+07         0.00000E+00
    0.00000E+00         0.00000E+00        -0.16918E+08
 
   -0.16811E+08         0.85057E+05         0.00000E+00
    0.85057E+05        -0.19594E+07         0.00000E+00
    0.00000E+00         0.00000E+00        -0.16867E+08
 
   -0.16761E+08         0.85741E+05         0.00000E+00
    0.85741E+05        -0.19594E+07         0.00000E+00
    0.00000E+00         0.00000E+00        -0.16816E+08
 
   -0.16711E+08         0.86403E+05         0.00000E+00
    0.86403E+05        -0.19594E+07         0.00000E+00
    0.00000E+00         0.00000E+00        -0.16765E+08
 
   -0.16660E+08         0.87044E+05         0.00000E+00
    0.87044E+05        -0.19594E+07         0.00000E+00
    0.00000E+00         0.00000E+00        -0.16713E+08
 
   -0.16608E+08         0.87664E+05         0.00000E+00
    0.87664E+05        -0.19594E+07         0.00000E+00
    0.00000E+00         0.00000E+00        -0.16661E+08
 
   -0.16556E+08         0.88260E+05         0.00000E+00
    0.88260E+05        -0.19595E+07         0.00000E+00
    0.00000E+00         0.00000E+00        -0.16608E+08
 
   -0.16504E+08         0.88833E+05         0.00000E+00
    0.88833E+05        -0.19595E+07         0.00000E+00
    0.00000E+00         0.00000E+00        -0.16555E+08
 
   -0.16452E+08         0.89381E+05         0.00000E+00
    0.89381E+05        -0.19595E+07         0.00000E+00
    0.00000E+00         0.00000E+00        -0.16501E+08
 
   -0.16399E+08         0.89903E+05         0.00000E+00
    0.89903E+05        -0.19595E+07         0.00000E+00
    0.00000E+00         0.00000E+00        -0.16447E+08
 
   -0.16346E+08         0.90397E+05         0.00000E+00
    0.90397E+05        -0.19596E+07         0.00000E+00
    0.00000E+00         0.00000E+00        -0.16392E+08
 
   -0.16293E+08         0.90861E+05         0.00000E+00
    0.90861E+05        -0.19596E+07         0.00000E+00
    0.00000E+00         0.00000E+00        -0.16338E+08
 
   -0.16239E+08         0.91294E+05         0.00000E+00
    0.91294E+05        -0.19596E+07         0.00000E+00
    0.00000E+00         0.00000E+00        -0.16282E+08
 
   -0.16185E+08         0.91692E+05         0.00000E+00
    0.91692E+05        -0.19596E+07         0.00000E+00
    0.00000E+00         0.00000E+00        -0.16227E+08
 
   -0.16131E+08         0.92054E+05         0.00000E+00
    0.92054E+05        -0.19597E+07         0.00000E+00
    0.00000E+00         0.00000E+00        -0.16170E+08
 
   -0.16076E+08         0.92377E+05         0.00000E+00
    0.92377E+05        -0.19597E+07         0.00000E+00
    0.00000E+00         0.00000E+00        -0.16114E+08
 
   -0.16022E+08         0.92657E+05         0.00000E+00
    0.92657E+05        -0.19597E+07         0.00000E+00
    0.00000E+00         0.00000E+00        -0.16057E+08
 
   -0.15967E+08         0.92891E+05         0.00000E+00
    0.92891E+05        -0.19598E+07         0.00000E+00
    0.00000E+00         0.00000E+00        -0.16000E+08
 
   -0.15912E+08         0.93076E+05         0.00000E+00
    0.93076E+05        -0.19598E+07         0.00000E+00
    0.00000E+00         0.00000E+00        -0.15943E+08
 
   -0.15857E+08         0.93207E+05         0.00000E+00
    0.93207E+05        -0.19599E+07         0.00000E+00
    0.00000E+00         0.00000E+00        -0.15885E+08
 
   -0.15802E+08         0.93280E+05         0.00000E+00
    0.93280E+05        -0.19599E+07         0.00000E+00
    0.00000E+00         0.00000E+00        -0.15826E+08
 
   -0.15747E+08         0.93290E+05         0.00000E+00
    0.93290E+05        -0.19600E+07         0.00000E+00
    0.00000E+00         0.00000E+00        -0.15768E+08
 
   -0.15692E+08         0.93232E+05         0.00000E+00
    0.93232E+05        -0.19600E+07         0.00000E+00
    0.00000E+00         0.00000E+00        -0.15709E+08
 
   -0.15637E+08         0.93099E+05         0.00000E+00
    0.93099E+05        -0.19601E+07         0.00000E+00
    0.00000E+00         0.00000E+00        -0.15650E+08
 
   -0.15582E+08         0.92886E+05         0.00000E+00
    0.92886E+05        -0.19602E+07         0.00000E+00
    0.00000E+00         0.00000E+00        -0.15591E+08
 
   -0.15528E+08         0.92584E+05         0.00000E+00
    0.92584E+05        -0.19603E+07         0.00000E+00
    0.00000E+00         0.00000E+00        -0.15531E+08
 
   -0.15473E+08         0.92186E+05         0.00000E+00
    0.92186E+05        -0.19603E+07         0.00000E+00
    0.00000E+00         0.00000E+00        -0.15471E+08
 
   -0.15419E+08         0.91681E+05         0.00000E+00
    0.91681E+05        -0.19604E+07         0.00000E+00
    0.00000E+00         0.00000E+00        -0.15411E+08
 
   -0.15365E+08         0.91060E+05         0.00000E+00
    0.91060E+05        -0.19605E+07         0.00000E+00
    0.00000E+00         0.00000E+00        -0.15351E+08
 
   -0.15311E+08         0.90309E+05         0.00000E+00
    0.90309E+05        -0.19607E+07         0.00000E+00
    0.00000E+00         0.00000E+00        -0.15291E+08
 
   -0.15258E+08         0.89415E+05         0.00000E+00
    0.89415E+05        -0.19608E+07         0.00000E+00
    0.00000E+00         0.00000E+00        -0.15230E+08
 
   -0.15205E+08         0.88360E+05         0.00000E+00
    0.88360E+05        -0.19609E+07         0.00000E+00
    0.00000E+00         0.00000E+00        -0.15170E+08
 
   -0.15153E+08         0.87126E+05         0.00000E+00
    0.87126E+05        -0.19611E+07         0.00000E+00
    0.00000E+00         0.00000E+00        -0.15109E+08
 
   -0.15102E+08         0.85689E+05         0.00000E+00
    0.85689E+05        -0.19613E+07         0.00000E+00
    0.00000E+00         0.00000E+00        -0.15049E+08
 
   -0.15051E+08         0.84022E+05         0.00000E+00
    0.84022E+05        -0.19615E+07         0.00000E+00
    0.00000E+00         0.00000E+00        -0.14988E+08
 
   -0.15002E+08         0.82095E+05         0.00000E+00
    0.82095E+05        -0.19617E+07         0.00000E+00
    0.00000E+00         0.00000E+00        -0.14928E+08
 
   -0.14954E+08         0.79870E+05         0.00000E+00
    0.79870E+05        -0.19620E+07         0.00000E+00
    0.00000E+00         0.00000E+00        -0.14867E+08
 
   -0.14907E+08         0.77305E+05         0.00000E+00
    0.77305E+05        -0.19623E+07         0.00000E+00
    0.00000E+00         0.00000E+00        -0.14807E+08
 
   -0.14861E+08         0.74351E+05         0.00000E+00
    0.74351E+05        -0.19627E+07         0.00000E+00
    0.00000E+00         0.00000E+00        -0.14747E+08
 
   -0.14818E+08         0.70955E+05         0.00000E+00
    0.70955E+05        -0.19631E+07         0.00000E+00
    0.00000E+00         0.00000E+00        -0.14688E+08
 
   -0.14776E+08         0.67056E+05         0.00000E+00
    0.67056E+05        -0.19636E+07         0.00000E+00
    0.00000E+00         0.00000E+00        -0.14629E+08
 
   -0.14737E+08         0.62588E+05         0.00000E+00
    0.62588E+05        -0.19641E+07         0.00000E+00
    0.00000E+00         0.00000E+00        -0.14570E+08
 
   -0.14700E+08         0.57486E+05         0.00000E+00
    0.57486E+05        -0.19648E+07         0.00000E+00
    0.00000E+00         0.00000E+00        -0.14512E+08
 
   -0.14665E+08         0.51685E+05         0.00000E+00
    0.51685E+05        -0.19654E+07         0.00000E+00
    0.00000E+00         0.00000E+00        -0.14455E+08
 
   -0.14634E+08         0.45127E+05         0.00000E+00
    0.45127E+05        -0.19662E+07         0.00000E+00
    0.00000E+00         0.00000E+00        -0.14399E+08
 
   -0.14607E+08         0.37773E+05         0.00000E+00
    0.37773E+05        -0.19669E+07         0.00000E+00
    0.00000E+00         0.00000E+00        -0.14343E+08
 
   -0.14583E+08         0.29609E+05         0.00000E+00
    0.29609E+05        -0.19677E+07         0.00000E+00
    0.00000E+00         0.00000E+00        -0.14289E+08
 
   -0.14563E+08         0.20666E+05         0.00000E+00
    0.20666E+05        -0.19684E+07         0.00000E+00
    0.00000E+00         0.00000E+00        -0.14235E+08
 
   -0.14548E+08         0.11034E+05         0.00000E+00
    0.11034E+05        -0.19691E+07         0.00000E+00
    0.00000E+00         0.00000E+00        -0.14183E+08
 
   -0.14537E+08         0.88758E+03         0.00000E+00
    0.88758E+03        -0.19696E+07         0.00000E+00
    0.00000E+00         0.00000E+00        -0.14132E+08
 
   -0.14531E+08        -0.94871E+04         0.00000E+00
   -0.94871E+04        -0.19698E+07         0.00000E+00
    0.00000E+00         0.00000E+00        -0.14083E+08
 
   -0.14528E+08        -0.19653E+05         0.00000E+00
   -0.19653E+05        -0.19696E+07         0.00000E+00
    0.00000E+00         0.00000E+00        -0.14034E+08
 
   -0.14530E+08        -0.28933E+05         0.00000E+00
   -0.28933E+05        -0.19689E+07         0.00000E+00
    0.00000E+00         0.00000E+00        -0.13986E+08
 
   -0.14533E+08        -0.36268E+05         0.00000E+00
   -0.36268E+05        -0.19673E+07         0.00000E+00
    0.00000E+00         0.00000E+00        -0.13938E+08
 
   -0.14536E+08        -0.39593E+05         0.00000E+00
   -0.39593E+05        -0.19639E+07         0.00000E+00
    0.00000E+00         0.00000E+00        -0.13890E+08
 
   -0.14536E+08        -0.34073E+05         0.00000E+00
   -0.34073E+05        -0.19545E+07         0.00000E+00
    0.00000E+00         0.00000E+00        -0.13839E+08
 
   -0.14532E+08        -0.14210E+05         0.00000E+00
   -0.14210E+05        -0.19251E+07         0.00000E+00
    0.00000E+00         0.00000E+00        -0.13781E+08
 
   -0.18151E+08        -0.83115E+04         0.00000E+00
   -0.83115E+04        -0.19765E+07         0.00000E+00
    0.00000E+00         0.00000E+00        -0.18624E+08
 
   -0.18150E+08        -0.19140E+05         0.00000E+00
   -0.19140E+05        -0.19614E+07         0.00000E+00
    0.00000E+00         0.00000E+00        -0.18591E+08
 
   -0.18151E+08        -0.21134E+05         0.00000E+00
   -0.21134E+05        -0.19574E+07         0.00000E+00
    0.00000E+00         0.00000E+00        -0.18562E+08
 
   -0.18153E+08        -0.18435E+05         0.00000E+00
   -0.18435E+05        -0.19561E+07         0.00000E+00
    0.00000E+00         0.00000E+00        -0.18535E+08
 
   -0.18156E+08        -0.13841E+05         0.00000E+00
   -0.13841E+05        -0.19554E+07         0.00000E+00
    0.00000E+00         0.00000E+00        -0.18508E+08
 
   -0.18157E+08        -0.83350E+04         0.00000E+00
   -0.83350E+04        -0.19551E+07         0.00000E+00
    0.00000E+00         0.00000E+00        -0.18480E+08
 
   -0.18155E+08        -0.24372E+04         0.00000E+00
   -0.24372E+04        -0.19551E+07         0.00000E+00
    0.00000E+00         0.00000E+00        -0.18451E+08
 
   -0.18150E+08         0.35236E+04         0.00000E+00
    0.35236E+04        -0.19552E+07         0.00000E+00
    0.00000E+00         0.00000E+00        -0.18422E+08
 
   -0.18142E+08         0.93360E+04         0.00000E+00
    0.93360E+04        -0.19555E+07         0.00000E+00
    0.00000E+00         0.00000E+00        -0.18391E+08
 
   -0.18131E+08         0.14861E+05         0.00000E+00
    0.14861E+05        -0.19558E+07         0.00000E+00
    0.00000E+00         0.00000E+00        -0.18360E+08
 
   -0.18117E+08         0.20015E+05         0.00000E+00
    0.20015E+05        -0.19561E+07         0.00000E+00
    0.00000E+00         0.00000E+00        -0.18328E+08
 
   -0.18101E+08         0.24758E+05         0.00000E+00
    0.24758E+05        -0.19565E+07         0.00000E+00
    0.00000E+00         0.00000E+00        -0.18294E+08
 
   -0.18081E+08         0.29077E+05         0.00000E+00
    0.29077E+05        -0.19568E+07         0.00000E+00
    0.00000E+00         0.00000E+00        -0.18260E+08
 
   -0.18060E+08         0.32983E+05         0.00000E+00
    0.32983E+05        -0.19571E+07         0.00000E+00
    0.00000E+00         0.00000E+00        -0.18225E+08
 
   -0.18036E+08         0.36501E+05         0.00000E+00
    0.36501E+05        -0.19574E+07         0.00000E+00
    0.00000E+00         0.00000E+00        -0.18189E+08
 
   -0.18010E+08         0.39663E+05         0.00000E+00
    0.39663E+05        -0.19577E+07         0.00000E+00
    0.00000E+00         0.00000E+00        -0.18153E+08
 
   -0.17982E+08         0.42505E+05         0.00000E+00
    0.42505E+05        -0.19579E+07         0.00000E+00
    0.00000E+00         0.00000E+00        -0.18116E+08
 
   -0.17952E+08         0.45064E+05         0.00000E+00
    0.45064E+05        -0.19581E+07         0.00000E+00
    0.00000E+00         0.00000E+00        -0.18078E+08
 
   -0.17921E+08         0.47374E+05         0.00000E+00
    0.47374E+05        -0.19583E+07         0.00000E+00
    0.00000E+00         0.00000E+00        -0.18039E+08
 
   -0.17889E+08         0.49468E+05         0.00000E+00
    0.49468E+05        -0.19585E+07         0.00000E+00
    0.00000E+00         0.00000E+00        -0.18000E+08
 
   -0.17855E+08         0.51375E+05         0.00000E+00
    0.51375E+05        -0.19586E+07         0.00000E+00
    0.00000E+00         0.00000E+00        -0.17960E+08
 
   -0.17820E+08         0.53121E+05         0.00000E+00
    0.53121E+05        -0.19587E+07         0.00000E+00
    0.00000E+00         0.00000E+00        -0.17920E+08
 
   -0.17784E+08         0.54728E+05         0.00000E+00
    0.54728E+05        -0.19588E+07         0.00000E+00
    0.00000E+00         0.00000E+00        -0.17879E+08
 
   -0.17747E+08         0.56216E+05         0.00000E+00
    0.56216E+05        -0.19589E+07         0.00000E+00
    0.00000E+00         0.00000E+00        -0.17838E+08
 
   -0.17709E+08         0.57600E+05         0.00000E+00
    0.57600E+05        -0.19590E+07         0.00000E+00
    0.00000E+00         0.00000E+00        -0.17796E+08
 
   -0.17670E+08         0.58894E+05         0.00000E+00
    0.58894E+05        -0.19590E+07         0.00000E+00
    0.00000E+00         0.00000E+00        -0.17754E+08
 
   -0.17630E+08         0.60111E+05         0.00000E+00
    0.60111E+05        -0.19591E+07         0.00000E+00
    0.00000E+00         0.00000E+00        -0.17711E+08
 
   -0.17590E+08         0.61259E+05         0.00000E+00
    0.61259E+05        -0.19591E+07         0.00000E+00
    0.00000E+00         0.00000E+00        -0.17668E+08
 
   -0.17549E+08         0.62347E+05         0.00000E+00
    0.62347E+05        -0.19592E+07         0.00000E+00
    0.00000E+00         0.00000E+00        -0.17625E+08
 
   -0.17507E+08         0.63383E+05         0.00000E+00
    0.63383E+05        -0.19592E+07         0.00000E+00
    0.00000E+00         0.00000E+00        -0.17581E+08
 
   -0.17464E+08         0.64371E+05         0.00000E+00
    0.64371E+05        -0.19592E+07         0.00000E+00
    0.00000E+00         0.00000E+00        -0.17536E+08
 
   -0.17421E+08         0.65316E+05         0.00000E+00
    0.65316E+05        -0.19593E+07         0.00000E+00
    0.00000E+00         0.00000E+00        -0.17491E+08
 
   -0.17377E+08         0.66224E+05         0.00000E+00
    0.66224E+05        -0.19593E+07         0.00000E+00
    0.00000E+00         0.00000E+00        -0.17446E+08
 
   -0.17333E+08         0.67097E+05         0.00000E+00
    0.67097E+05        -0.19593E+07         0.00000E+00
    0.00000E+00         0.00000E+00        -0.17400E+08
 
   -0.17288E+08         0.67939E+05         0.00000E+00
    0.67939E+05        -0.19593E+07         0.00000E+00
    0.00000E+00         0.00000E+00        -0.17354E+08
 
   -0.17242E+08         0.68753E+05         0.00000E+00
    0.68753E+05        -0.19594E+07         0.00000E+00
    0.00000E+00         0.00000E+00        -0.17307E+08
 
   -0.17196E+08         0.69539E+05         0.00000E+00
    0.69539E+05        -0.19594E+07         0.00000E+00
    0.00000E+00         0.00000E+00        -0.17260E+08
 
   -0.17150E+08         0.70302E+05         0.00000E+00
    0.70302E+05        -0.19594E+07         0.00000E+00
    0.00000E+00         0.00000E+00        -0.17212E+08
 
   -0.17102E+08         0.71041E+05         0.00000E+00
    0.71041E+05        -0.19594E+07         0.00000E+00
    0.00000E+00         0.00000E+00        -0.17164E+08
 
   -0.17055E+08         0.71758E+05         0.00000E+00
    0.71758E+05        -0.19594E+07         0.00000E+00
    0.00000E+00         0.00000E+00        -0.17116E+08
 
   -0.17007E+08         0.72455E+05         0.00000E+00
    0.72455E+05        -0.19594E+07         0.00000E+00
    0.00000E+00         0.00000E+00        -0.17067E+08
 
   -0.16958E+08         0.73132E+05         0.00000E+00
    0.73132E+05        -0.19595E+07         0.00000E+00
    0.00000E+00         0.00000E+00        -0.17018E+08
 
   -0.16909E+08         0.73790E+05         0.00000E+00
    0.73790E+05        -0.19595E+07         0.00000E+00
    0.00000E+00         0.00000E+00        -0.16968E+08
 
   -0.16860E+08         0.74429E+05         0.00000E+00
    0.74429E+05        -0.19595E+07         0.00000E+00
    0.00000E+00         0.00000E+00        -0.16918E+08
 
   -0.16810E+08         0.75050E+05         0.00000E+00
    0.75050E+05        -0.19595E+07         0.00000E+00
    0.00000E+00         0.00000E+00        -0.16867E+08
 
   -0.16760E+08         0.75652E+05         0.00000E+00
    0.75652E+05        -0.19595E+07         0.00000E+00
    0.00000E+00         0.00000E+00        -0.16816E+08
 
   -0.16709E+08         0.76236E+05         0.00000E+00
    0.76236E+05        -0.19595E+07         0.00000E+00
    0.00000E+00         0.00000E+00        -0.16764E+08
 
   -0.16658E+08         0.76800E+05         0.00000E+00
    0.76800E+05        -0.19595E+07         0.00000E+00
    0.00000E+00         0.00000E+00        -0.16713E+08
 
   -0.16607E+08         0.77346E+05         0.00000E+00
    0.77346E+05        -0.19596E+07         0.00000E+00
    0.00000E+00         0.00000E+00        -0.16660E+08
 
   -0.16555E+08         0.77871E+05         0.00000E+00
    0.77871E+05        -0.19596E+07         0.00000E+00
    0.00000E+00         0.00000E+00        -0.16607E+08
 
   -0.16503E+08         0.78375E+05         0.00000E+00
    0.78375E+05        -0.19596E+07         0.00000E+00
    0.00000E+00         0.00000E+00        -0.16554E+08
 
   -0.16450E+08         0.78858E+05         0.00000E+00
    0.78858E+05        -0.19596E+07         0.00000E+00
    0.00000E+00         0.00000E+00        -0.16501E+08
 
   -0.16398E+08         0.79317E+05         0.00000E+00
    0.79317E+05        -0.19596E+07         0.00000E+00
    0.00000E+00         0.00000E+00        -0.16447E+08
 
   -0.16345E+08         0.79751E+05         0.00000E+00
    0.79751E+05        -0.19596E+07         0.00000E+00
    0.00000E+00         0.00000E+00        -0.16392E+08
 
   -0.16291E+08         0.80159E+05         0.00000E+00
    0.80159E+05        -0.19597E+07         0.00000E+00
    0.00000E+00         0.00000E+00        -0.16337E+08
 
   -0.16238E+08         0.80539E+05         0.00000E+00
    0.80539E+05        -0.19597E+07         0.00000E+00
    0.00000E+00         0.00000E+00        -0.16282E+08
 
   -0.16184E+08         0.80889E+05         0.00000E+00
    0.80889E+05        -0.19597E+07         0.00000E+00
    0.00000E+00         0.00000E+00        -0.16226E+08
 
   -0.16130E+08         0.81207E+05         0.00000E+00
    0.81207E+05        -0.19597E+07         0.00000E+00
    0.00000E+00         0.00000E+00        -0.16170E+08
 
   -0.16075E+08         0.81489E+05         0.00000E+00
    0.81489E+05        -0.19598E+07         0.00000E+00
    0.00000E+00         0.00000E+00        -0.16114E+08
 
   -0.16021E+08         0.81735E+05         0.00000E+00
    0.81735E+05        -0.19598E+07         0.00000E+00
    0.00000E+00         0.00000E+00        -0.16057E+08
 
   -0.15966E+08         0.81939E+05         0.00000E+00
    0.81939E+05        -0.19598E+07         0.00000E+00
    0.00000E+00         0.00000E+00        -0.16000E+08
 
   -0.15911E+08         0.82100E+05         0.00000E+00
    0.82100E+05        -0.19599E+07         0.00000E+00
    0.00000E+00         0.00000E+00        -0.15942E+08
 
   -0.15856E+08         0.82213E+05         0.00000E+00
    0.82213E+05        -0.19599E+07         0.00000E+00
    0.00000E+00         0.00000E+00        -0.15884E+08
 
   -0.15801E+08         0.82275E+05         0.00000E+00
    0.82275E+05        -0.19599E+07         0.00000E+00
    0.00000E+00         0.00000E+00        -0.15826E+08
 
   -0.15746E+08         0.82282E+05         0.00000E+00
    0.82282E+05        -0.19600E+07         0.00000E+00
    0.00000E+00         0.00000E+00        -0.15768E+08
 
   -0.15691E+08         0.82228E+05         0.00000E+00
    0.82228E+05        -0.19600E+07         0.00000E+00
    0.00000E+00         0.00000E+00        -0.15709E+08
 
   -0.15636E+08         0.82108E+05         0.00000E+00
    0.82108E+05        -0.19601E+07         0.00000E+00
    0.00000E+00         0.00000E+00        -0.15650E+08
 
   -0.15582E+08         0.81917E+05         0.00000E+00
    0.81917E+05        -0.19601E+07         0.00000E+00
    0.00000E+00         0.00000E+00        -0.15590E+08
 
   -0.15527E+08         0.81648E+05         0.00000E+00
    0.81648E+05        -0.19602E+07         0.00000E+00
    0.00000E+00         0.00000E+00        -0.15531E+08
 
   -0.15472E+08         0.81293E+05         0.00000E+00
    0.81293E+05        -0.19603E+07         0.00000E+00
    0.00000E+00         0.00000E+00        -0.15471E+08
 
   -0.15418E+08         0.80845E+05         0.00000E+00
    0.80845E+05        -0.19603E+07         0.00000E+00
    0.00000E+00         0.00000E+00        -0.15411E+08
 
   -0.15364E+08         0.80293E+05         0.00000E+00
    0.80293E+05        -0.19604E+07         0.00000E+00
    0.00000E+00         0.00000E+00        -0.15351E+08
 
   -0.15310E+08         0.79627E+05         0.00000E+00
    0.79627E+05        -0.19605E+07         0.00000E+00
    0.00000E+00         0.00000E+00        -0.15291E+08
 
   -0.15257E+08         0.78834E+05         0.00000E+00
    0.78834E+05        -0.19606E+07         0.00000E+00
    0.00000E+00         0.00000E+00        -0.15230E+08
 
   -0.15205E+08         0.77900E+05         0.00000E+00
    0.77900E+05        -0.19607E+07         0.00000E+00
    0.00000E+00         0.00000E+00        -0.15170E+08
 
   -0.15153E+08         0.76805E+05         0.00000E+00
    0.76805E+05        -0.19608E+07         0.00000E+00
    0.00000E+00         0.00000E+00        -0.15109E+08
 
   -0.15102E+08         0.75531E+05         0.00000E+00
    0.75531E+05        -0.19610E+07         0.00000E+00
    0.00000E+00         0.00000E+00        -0.15049E+08
 
   -0.15052E+08         0.74053E+05         0.00000E+00
    0.74053E+05        -0.19612E+07         0.00000E+00
    0.00000E+00         0.00000E+00        -0.14988E+08
 
   -0.15002E+08         0.72343E+05         0.00000E+00
    0.72343E+05        -0.19613E+07         0.00000E+00
    0.00000E+00         0.00000E+00        -0.14928E+08
 
   -0.14954E+08         0.70367E+05         0.00000E+00
    0.70367E+05        -0.19616E+07         0.00000E+00
    0.00000E+00         0.00000E+00        -0.14867E+08
 
   -0.14907E+08         0.68088E+05         0.00000E+00
    0.68088E+05        -0.19618E+07         0.00000E+00
    0.00000E+00         0.00000E+00        -0.14807E+08
 
   -0.14862E+08         0.65461E+05         0.00000E+00
    0.65461E+05        -0.19621E+07         0.00000E+00
    0.00000E+00         0.00000E+00        -0.14747E+08
 
   -0.14819E+08         0.62437E+05         0.00000E+00
    0.62437E+05        -0.19624E+07         0.00000E+00
    0.00000E+00         0.00000E+00        -0.14688E+08
 
   -0.14778E+08         0.58960E+05         0.00000E+00
    0.58960E+05        -0.19628E+07         0.00000E+00
    0.00000E+00         0.00000E+00        -0.14629E+08
 
   -0.14738E+08         0.54970E+05         0.00000E+00
    0.54970E+05        -0.19632E+07         0.00000E+00
    0.00000E+00         0.00000E+00        -0.14571E+08
 
   -0.14702E+08         0.50407E+05         0.00000E+00
    0.50407E+05        -0.19637E+07         0.00000E+00
    0.00000E+00         0.00000E+00        -0.14513E+08
 
   -0.14668E+08         0.45210E+05         0.00000E+00
    0.45210E+05        -0.19643E+07         0.00000E+00
    0.00000E+00         0.00000E+00        -0.14456E+08
 
   -0.14638E+08         0.39325E+05         0.00000E+00
    0.39325E+05        -0.19648E+07         0.00000E+00
    0.00000E+00         0.00000E+00        -0.14399E+08
 
   -0.14611E+08         0.32713E+05         0.00000E+00
    0.32713E+05        -0.19654E+07         0.00000E+00
    0.00000E+00         0.00000E+00        -0.14344E+08
 
   -0.14588E+08         0.25359E+05         0.00000E+00
    0.25359E+05        -0.19661E+07         0.00000E+00
    0.00000E+00         0.00000E+00        -0.14290E+08
 
   -0.14570E+08         0.17285E+05         0.00000E+00
    0.17285E+05        -0.19667E+07         0.00000E+00
    0.00000E+00         0.00000E+00        -0.14237E+08
 
   -0.14556E+08         0.85664E+04         0.00000E+00
    0.85664E+04        -0.19672E+07         0.00000E+00
    0.00000E+00         0.00000E+00        -0.14185E+08
 
   -0.14547E+08        -0.64764E+03         0.00000E+00
   -0.64764E+03        -0.19676E+07         0.00000E+00
    0.00000E+00         0.00000E+00        -0.14135E+08
 
   -0.14542E+08        -0.10113E+05         0.00000E+00
   -0.10113E+05        -0.19678E+07         0.00000E+00
    0.00000E+00         0.00000E+00        -0.14085E+08
 
   -0.14543E+08        -0.19458E+05         0.00000E+00
   -0.19458E+05        -0.19677E+07         0.00000E+00
    0.00000E+00         0.00000E+00        -0.14037E+08
 
   -0.14547E+08        -0.28109E+05         0.00000E+00
   -0.28109E+05        -0.19672E+07         0.00000E+00
    0.00000E+00         0.00000E+00        -0.13990E+08
 
   -0.14553E+08        -0.35164E+05         0.00000E+00
   -0.35164E+05        -0.19661E+07         0.00000E+00
    0.00000E+00         0.00000E+00        -0.13944E+08
 
   -0.14560E+08        -0.38919E+05         0.00000E+00
   -0.38919E+05        -0.19637E+07         0.00000E+00
    0.00000E+00         0.00000E+00        -0.13897E+08
 
   -0.14562E+08        -0.34535E+05         0.00000E+00
   -0.34535E+05        -0.19569E+07         0.00000E+00
    0.00000E+00         0.00000E+00        -0.13848E+08
 
   -0.14560E+08        -0.14854E+05         0.00000E+00
   -0.14854E+05        -0.19306E+07         0.00000E+00
    0.00000E+00         0.00000E+00        -0.13791E+08
 
   -0.18134E+08        -0.86934E+04         0.00000E+00
   -0.86934E+04        -0.19733E+07         0.00000E+00
    0.00000E+00         0.00000E+00        -0.18618E+08
 
   -0.18133E+08        -0.19213E+05         0.00000E+00
   -0.19213E+05        -0.19603E+07         0.00000E+00
    0.00000E+00         0.00000E+00        -0.18586E+08
 
   -0.18136E+08        -0.20444E+05         0.00000E+00
   -0.20444E+05        -0.19578E+07         0.00000E+00
    0.00000E+00         0.00000E+00        -0.18558E+08
 
   -0.18141E+08        -0.17605E+05         0.00000E+00
   -0.17605E+05        -0.19569E+07         0.00000E+00
    0.00000E+00         0.00000E+00        -0.18532E+08
 
   -0.18146E+08        -0.13303E+05         0.00000E+00
   -0.13303E+05        -0.19564E+07         0.00000E+00
    0.00000E+00         0.00000E+00        -0.18505E+08
 
   -0.18148E+08        -0.82770E+04         0.00000E+00
   -0.82770E+04        -0.19563E+07         0.00000E+00
    0.00000E+00         0.00000E+00        -0.18478E+08
 
   -0.18148E+08        -0.29651E+04         0.00000E+00
   -0.29651E+04        -0.19562E+07         0.00000E+00
    0.00000E+00         0.00000E+00        -0.18449E+08
 
   -0.18144E+08         0.23654E+04         0.00000E+00
    0.23654E+04        -0.19564E+07         0.00000E+00
    0.00000E+00         0.00000E+00        -0.18420E+08
 
   -0.18137E+08         0.75398E+04         0.00000E+00
    0.75398E+04        -0.19565E+07         0.00000E+00
    0.00000E+00         0.00000E+00        -0.18390E+08
 
   -0.18127E+08         0.12442E+05         0.00000E+00
    0.12442E+05        -0.19568E+07         0.00000E+00
    0.00000E+00         0.00000E+00        -0.18359E+08
 
   -0.18114E+08         0.17003E+05         0.00000E+00
    0.17003E+05        -0.19570E+07         0.00000E+00
    0.00000E+00         0.00000E+00        -0.18327E+08
 
   -0.18098E+08         0.21190E+05         0.00000E+00
    0.21190E+05        -0.19573E+07         0.00000E+00
    0.00000E+00         0.00000E+00        -0.18294E+08
 
   -0.18079E+08         0.24996E+05         0.00000E+00
    0.24996E+05        -0.19576E+07         0.00000E+00
    0.00000E+00         0.00000E+00        -0.18260E+08
 
   -0.18057E+08         0.28431E+05         0.00000E+00
    0.28431E+05        -0.19578E+07         0.00000E+00
    0.00000E+00         0.00000E+00        -0.18225E+08
 
   -0.18033E+08         0.31518E+05         0.00000E+00
    0.31518E+05        -0.19581E+07         0.00000E+00
    0.00000E+00         0.00000E+00        -0.18189E+08
 
   -0.18008E+08         0.34289E+05         0.00000E+00
    0.34289E+05        -0.19583E+07         0.00000E+00
    0.00000E+00         0.00000E+00        -0.18152E+08
 
   -0.17980E+08         0.36775E+05         0.00000E+00
    0.36775E+05        -0.19584E+07         0.00000E+00
    0.00000E+00         0.00000E+00        -0.18115E+08
 
   -0.17950E+08         0.39010E+05         0.00000E+00
    0.39010E+05        -0.19586E+07         0.00000E+00
    0.00000E+00         0.00000E+00        -0.18077E+08
 
   -0.17920E+08         0.41025E+05         0.00000E+00
    0.41025E+05        -0.19587E+07         0.00000E+00
    0.00000E+00         0.00000E+00        -0.18039E+08
 
   -0.17887E+08         0.42849E+05         0.00000E+00
    0.42849E+05        -0.19589E+07         0.00000E+00
    0.00000E+00         0.00000E+00        -0.18000E+08
 
   -0.17853E+08         0.44509E+05         0.00000E+00
    0.44509E+05        -0.19590E+07         0.00000E+00
    0.00000E+00         0.00000E+00        -0.17960E+08
 
   -0.17819E+08         0.46027E+05         0.00000E+00
    0.46027E+05        -0.19590E+07         0.00000E+00
    0.00000E+00         0.00000E+00        -0.17920E+08
 
   -0.17783E+08         0.47423E+05         0.00000E+00
    0.47423E+05        -0.19591E+07         0.00000E+00
    0.00000E+00         0.00000E+00        -0.17879E+08
 
   -0.17746E+08         0.48715E+05         0.00000E+00
    0.48715E+05        -0.19592E+07         0.00000E+00
    0.00000E+00         0.00000E+00        -0.17838E+08
 
   -0.17708E+08         0.49917E+05         0.00000E+00
    0.49917E+05        -0.19592E+07         0.00000E+00
    0.00000E+00         0.00000E+00        -0.17796E+08
 
   -0.17669E+08         0.51040E+05         0.00000E+00
    0.51040E+05        -0.19593E+07         0.00000E+00
    0.00000E+00         0.00000E+00        -0.17754E+08
 
   -0.17629E+08         0.52096E+05         0.00000E+00
    0.52096E+05        -0.19593E+07         0.00000E+00
    0.00000E+00         0.00000E+00        -0.17711E+08
 
   -0.17589E+08         0.53092E+05         0.00000E+00
    0.53092E+05        -0.19593E+07         0.00000E+00
    0.00000E+00         0.00000E+00        -0.17668E+08
 
   -0.17547E+08         0.54035E+05         0.00000E+00
    0.54035E+05        -0.19594E+07         0.00000E+00
    0.00000E+00         0.00000E+00        -0.17624E+08
 
   -0.17506E+08         0.54933E+05         0.00000E+00
    0.54933E+05        -0.19594E+07         0.00000E+00
    0.00000E+00         0.00000E+00        -0.17580E+08
 
   -0.17463E+08         0.55790E+05         0.00000E+00
    0.55790E+05        -0.19594E+07         0.00000E+00
    0.00000E+00         0.00000E+00        -0.17536E+08
 
   -0.17420E+08         0.56610E+05         0.00000E+00
    0.56610E+05        -0.19594E+07         0.00000E+00
    0.00000E+00         0.00000E+00        -0.17491E+08
 
   -0.17376E+08         0.57397E+05         0.00000E+00
    0.57397E+05        -0.19595E+07         0.00000E+00
    0.00000E+00         0.00000E+00        -0.17445E+08
 
   -0.17331E+08         0.58154E+05         0.00000E+00
    0.58154E+05        -0.19595E+07         0.00000E+00
    0.00000E+00         0.00000E+00        -0.17400E+08
 
   -0.17286E+08         0.58884E+05         0.00000E+00
    0.58884E+05        -0.19595E+07         0.00000E+00
    0.00000E+00         0.00000E+00        -0.17353E+08
 
   -0.17241E+08         0.59588E+05         0.00000E+00
    0.59588E+05        -0.19595E+07         0.00000E+00
    0.00000E+00         0.00000E+00        -0.17307E+08
 
   -0.17195E+08         0.60270E+05         0.00000E+00
    0.60270E+05        -0.19595E+07         0.00000E+00
    0.00000E+00         0.00000E+00        -0.17260E+08
 
   -0.17148E+08         0.60931E+05         0.00000E+00
    0.60931E+05        -0.19595E+07         0.00000E+00
    0.00000E+00         0.00000E+00        -0.17212E+08
 
   -0.17101E+08         0.61571E+05         0.00000E+00
    0.61571E+05        -0.19596E+07         0.00000E+00
    0.00000E+00         0.00000E+00        -0.17164E+08
 
   -0.17054E+08         0.62193E+05         0.00000E+00
    0.62193E+05        -0.19596E+07         0.00000E+00
    0.00000E+00         0.00000E+00        -0.17115E+08
 
   -0.17005E+08         0.62796E+05         0.00000E+00
    0.62796E+05        -0.19596E+07         0.00000E+00
    0.00000E+00         0.00000E+00        -0.17067E+08
 
   -0.16957E+08         0.63382E+05         0.00000E+00
    0.63382E+05        -0.19596E+07         0.00000E+00
    0.00000E+00         0.00000E+00        -0.17017E+08
 
   -0.16908E+08         0.63952E+05         0.00000E+00
    0.63952E+05        -0.19596E+07         0.00000E+00
    0.00000E+00         0.00000E+00        -0.16968E+08
 
   -0.16859E+08         0.64506E+05         0.00000E+00
    0.64506E+05        -0.19596E+07         0.00000E+00
    0.00000E+00         0.00000E+00        -0.16917E+08
 
   -0.16809E+08         0.65043E+05         0.00000E+00
    0.65043E+05        -0.19596E+07         0.00000E+00
    0.00000E+00         0.00000E+00        -0.16867E+08
 
   -0.16759E+08         0.65564E+05         0.00000E+00
    0.65564E+05        -0.19596E+07         0.00000E+00
    0.00000E+00         0.00000E+00        -0.16816E+08
 
   -0.16708E+08         0.66069E+05         0.00000E+00
    0.66069E+05        -0.19596E+07         0.00000E+00
    0.00000E+00         0.00000E+00        -0.16764E+08
 
   -0.16657E+08         0.66558E+05         0.00000E+00
    0.66558E+05        -0.19596E+07         0.00000E+00
    0.00000E+00         0.00000E+00        -0.16712E+08
 
   -0.16605E+08         0.67030E+05         0.00000E+00
    0.67030E+05        -0.19597E+07         0.00000E+00
    0.00000E+00         0.00000E+00        -0.16660E+08
 
   -0.16554E+08         0.67484E+05         0.00000E+00
    0.67484E+05        -0.19597E+07         0.00000E+00
    0.00000E+00         0.00000E+00        -0.16607E+08
 
   -0.16502E+08         0.67920E+05         0.00000E+00
    0.67920E+05        -0.19597E+07         0.00000E+00
    0.00000E+00         0.00000E+00        -0.16554E+08
 
   -0.16449E+08         0.68337E+05         0.00000E+00
    0.68337E+05        -0.19597E+07         0.00000E+00
    0.00000E+00         0.00000E+00        -0.16500E+08
 
   -0.16396E+08         0.68733E+05         0.00000E+00
    0.68733E+05        -0.19597E+07         0.00000E+00
    0.00000E+00         0.00000E+00        -0.16446E+08
 
   -0.16343E+08         0.69109E+05         0.00000E+00
    0.69109E+05        -0.19597E+07         0.00000E+00
    0.00000E+00         0.00000E+00        -0.16392E+08
 
   -0.16290E+08         0.69461E+05         0.00000E+00
    0.69461E+05        -0.19597E+07         0.00000E+00
    0.00000E+00         0.00000E+00        -0.16337E+08
 
   -0.16236E+08         0.69789E+05         0.00000E+00
    0.69789E+05        -0.19598E+07         0.00000E+00
    0.00000E+00         0.00000E+00        -0.16282E+08
 
   -0.16183E+08         0.70091E+05         0.00000E+00
    0.70091E+05        -0.19598E+07         0.00000E+00
    0.00000E+00         0.00000E+00        -0.16226E+08
 
   -0.16128E+08         0.70364E+05         0.00000E+00
    0.70364E+05        -0.19598E+07         0.00000E+00
    0.00000E+00         0.00000E+00        -0.16170E+08
 
   -0.16074E+08         0.70608E+05         0.00000E+00
    0.70608E+05        -0.19598E+07         0.00000E+00
    0.00000E+00         0.00000E+00        -0.16113E+08
 
   -0.16020E+08         0.70819E+05         0.00000E+00
    0.70819E+05        -0.19598E+07         0.00000E+00
    0.00000E+00         0.00000E+00        -0.16057E+08
 
   -0.15965E+08         0.70994E+05         0.00000E+00
    0.70994E+05        -0.19599E+07         0.00000E+00
    0.00000E+00         0.00000E+00        -0.15999E+08
 
   -0.15910E+08         0.71132E+05         0.00000E+00
    0.71132E+05        -0.19599E+07         0.00000E+00
    0.00000E+00         0.00000E+00        -0.15942E+08
 
   -0.15855E+08         0.71228E+05         0.00000E+00
    0.71228E+05        -0.19599E+07         0.00000E+00
    0.00000E+00         0.00000E+00        -0.15884E+08
 
   -0.15800E+08         0.71280E+05         0.00000E+00
    0.71280E+05        -0.19599E+07         0.00000E+00
    0.00000E+00         0.00000E+00        -0.15826E+08
 
   -0.15746E+08         0.71284E+05         0.00000E+00
    0.71284E+05        -0.19600E+07         0.00000E+00
    0.00000E+00         0.00000E+00        -0.15767E+08
 
   -0.15691E+08         0.71235E+05         0.00000E+00
    0.71235E+05        -0.19600E+07         0.00000E+00
    0.00000E+00         0.00000E+00        -0.15709E+08
 
   -0.15636E+08         0.71129E+05         0.00000E+00
    0.71129E+05        -0.19600E+07         0.00000E+00
    0.00000E+00         0.00000E+00        -0.15650E+08
 
   -0.15581E+08         0.70961E+05         0.00000E+00
    0.70961E+05        -0.19601E+07         0.00000E+00
    0.00000E+00         0.00000E+00        -0.15590E+08
 
   -0.15526E+08         0.70725E+05         0.00000E+00
    0.70725E+05        -0.19601E+07         0.00000E+00
    0.00000E+00         0.00000E+00        -0.15531E+08
 
   -0.15472E+08         0.70415E+05         0.00000E+00
    0.70415E+05        -0.19602E+07         0.00000E+00
    0.00000E+00         0.00000E+00        -0.15471E+08
 
   -0.15417E+08         0.70024E+05         0.00000E+00
    0.70024E+05        -0.19602E+07         0.00000E+00
    0.00000E+00         0.00000E+00        -0.15411E+08
 
   -0.15364E+08         0.69544E+05         0.00000E+00
    0.69544E+05        -0.19603E+07         0.00000E+00
    0.00000E+00         0.00000E+00        -0.15351E+08
 
   -0.15310E+08         0.68964E+05         0.00000E+00
    0.68964E+05        -0.19604E+07         0.00000E+00
    0.00000E+00         0.00000E+00        -0.15290E+08
 
   -0.15257E+08         0.68273E+05         0.00000E+00
    0.68273E+05        -0.19604E+07         0.00000E+00
    0.00000E+00         0.00000E+00        -0.15230E+08
 
   -0.15205E+08         0.67460E+05         0.00000E+00
    0.67460E+05        -0.19605E+07         0.00000E+00
    0.00000E+00         0.00000E+00        -0.15170E+08
 
   -0.15153E+08         0.66507E+05         0.00000E+00
    0.66507E+05        -0.19606E+07         0.00000E+00
    0.00000E+00         0.00000E+00        -0.15109E+08
 
   -0.15102E+08         0.65398E+05         0.00000E+00
    0.65398E+05        -0.19607E+07         0.00000E+00
    0.00000E+00         0.00000E+00        -0.15048E+08
 
   -0.15052E+08         0.64112E+05         0.00000E+00
    0.64112E+05        -0.19609E+07         0.00000E+00
    0.00000E+00         0.00000E+00        -0.14988E+08
 
   -0.15003E+08         0.62622E+05         0.00000E+00
    0.62622E+05        -0.19610E+07         0.00000E+00
    0.00000E+00         0.00000E+00        -0.14928E+08
 
   -0.14955E+08         0.60900E+05         0.00000E+00
    0.60900E+05        -0.19612E+07         0.00000E+00
    0.00000E+00         0.00000E+00        -0.14867E+08
 
   -0.14908E+08         0.58911E+05         0.00000E+00
    0.58911E+05        -0.19614E+07         0.00000E+00
    0.00000E+00         0.00000E+00        -0.14807E+08
 
   -0.14863E+08         0.56617E+05         0.00000E+00
    0.56617E+05        -0.19616E+07         0.00000E+00
    0.00000E+00         0.00000E+00        -0.14748E+08
 
   -0.14820E+08         0.53973E+05         0.00000E+00
    0.53973E+05        -0.19618E+07         0.00000E+00
    0.00000E+00         0.00000E+00        -0.14688E+08
 
   -0.14779E+08         0.50929E+05         0.00000E+00
    0.50929E+05        -0.19621E+07         0.00000E+00
    0.00000E+00         0.00000E+00        -0.14629E+08
 
   -0.14740E+08         0.47431E+05         0.00000E+00
    0.47431E+05        -0.19624E+07         0.00000E+00
    0.00000E+00         0.00000E+00        -0.14571E+08
 
   -0.14704E+08         0.43424E+05         0.00000E+00
    0.43424E+05        -0.19628E+07         0.00000E+00
    0.00000E+00         0.00000E+00        -0.14513E+08
 
   -0.14671E+08         0.38853E+05         0.00000E+00
    0.38853E+05        -0.19632E+07         0.00000E+00
    0.00000E+00         0.00000E+00        -0.14456E+08
 
   -0.14641E+08         0.33667E+05         0.00000E+00
    0.33667E+05        -0.19637E+07         0.00000E+00
    0.00000E+00         0.00000E+00        -0.14400E+08
 
   -0.14615E+08         0.27829E+05         0.00000E+00
    0.27829E+05        -0.19641E+07         0.00000E+00
    0.00000E+00         0.00000E+00        -0.14345E+08
 
   -0.14593E+08         0.21323E+05         0.00000E+00
    0.21323E+05        -0.19646E+07         0.00000E+00
    0.00000E+00         0.00000E+00        -0.14291E+08
 
   -0.14576E+08         0.14163E+05         0.00000E+00
    0.14163E+05        -0.19651E+07         0.00000E+00
    0.00000E+00         0.00000E+00        -0.14238E+08
 
   -0.14563E+08         0.64120E+04         0.00000E+00
    0.64120E+04        -0.19655E+07         0.00000E+00
    0.00000E+00         0.00000E+00        -0.14187E+08
 
   -0.14556E+08        -0.18081E+04         0.00000E+00
   -0.18081E+04        -0.19658E+07         0.00000E+00
    0.00000E+00         0.00000E+00        -0.14137E+08
 
   -0.14554E+08        -0.10292E+05         0.00000E+00
   -0.10292E+05        -0.19660E+07         0.00000E+00
    0.00000E+00         0.00000E+00        -0.14088E+08
 
   -0.14556E+08        -0.18734E+05         0.00000E+00
   -0.18734E+05        -0.19660E+07         0.00000E+00
    0.00000E+00         0.00000E+00        -0.14041E+08
 
   -0.14563E+08        -0.26667E+05         0.00000E+00
   -0.26667E+05        -0.19657E+07         0.00000E+00
    0.00000E+00         0.00000E+00        -0.13995E+08
 
   -0.14573E+08        -0.33329E+05         0.00000E+00
   -0.33329E+05        -0.19649E+07         0.00000E+00
    0.00000E+00         0.00000E+00        -0.13950E+08
 
   -0.14584E+08        -0.37440E+05         0.00000E+00
   -0.37440E+05        -0.19633E+07         0.00000E+00
    0.00000E+00         0.00000E+00        -0.13904E+08
 
   -0.14591E+08        -0.34489E+05         0.00000E+00
   -0.34489E+05        -0.19589E+07         0.00000E+00
    0.00000E+00         0.00000E+00        -0.13857E+08
 
   -0.14590E+08        -0.15457E+05         0.00000E+00
   -0.15457E+05        -0.19364E+07         0.00000E+00
    0.00000E+00         0.00000E+00        -0.13802E+08
 
   -0.18115E+08        -0.90409E+04         0.00000E+00
   -0.90409E+04        -0.19700E+07         0.00000E+00
    0.00000E+00         0.00000E+00        -0.18611E+08
 
   -0.18116E+08        -0.18890E+05         0.00000E+00
   -0.18890E+05        -0.19594E+07         0.00000E+00
    0.00000E+00         0.00000E+00        -0.18580E+08
 
   -0.18121E+08        -0.19213E+05         0.00000E+00
   -0.19213E+05        -0.19582E+07         0.00000E+00
    0.00000E+00         0.00000E+00        -0.18554E+08
 
   -0.18129E+08        -0.16331E+05         0.00000E+00
   -0.16331E+05        -0.19576E+07         0.00000E+00
    0.00000E+00         0.00000E+00        -0.18528E+08
 
   -0.18136E+08        -0.12398E+05         0.00000E+00
   -0.12398E+05        -0.19573E+07         0.00000E+00
    0.00000E+00         0.00000E+00        -0.18502E+08
 
   -0.18140E+08        -0.79129E+04         0.00000E+00
   -0.79129E+04        -0.19572E+07         0.00000E+00
    0.00000E+00         0.00000E+00        -0.18475E+08
 
   -0.18141E+08        -0.32407E+04         0.00000E+00
   -0.32407E+04        -0.19573E+07         0.00000E+00
    0.00000E+00         0.00000E+00        -0.18448E+08
 
   -0.18138E+08         0.14154E+04         0.00000E+00
    0.14154E+04        -0.19573E+07         0.00000E+00
    0.00000E+00         0.00000E+00        -0.18419E+08
 
   -0.18132E+08         0.59137E+04         0.00000E+00
    0.59137E+04        -0.19575E+07         0.00000E+00
    0.00000E+00         0.00000E+00        -0.18389E+08
 
   -0.18123E+08         0.10161E+05         0.00000E+00
    0.10161E+05        -0.19577E+07         0.00000E+00
    0.00000E+00         0.00000E+00        -0.18358E+08
 
   -0.18110E+08         0.14102E+05         0.00000E+00
    0.14102E+05        -0.19579E+07         0.00000E+00
    0.00000E+00         0.00000E+00        -0.18326E+08
 
   -0.18095E+08         0.17711E+05         0.00000E+00
    0.17711E+05        -0.19581E+07         0.00000E+00
    0.00000E+00         0.00000E+00        -0.18293E+08
 
   -0.18076E+08         0.20984E+05         0.00000E+00
    0.20984E+05        -0.19583E+07         0.00000E+00
    0.00000E+00         0.00000E+00        -0.18259E+08
 
   -0.18055E+08         0.23932E+05         0.00000E+00
    0.23932E+05        -0.19584E+07         0.00000E+00
    0.00000E+00         0.00000E+00        -0.18224E+08
 
   -0.18031E+08         0.26578E+05         0.00000E+00
    0.26578E+05        -0.19586E+07         0.00000E+00
    0.00000E+00         0.00000E+00        -0.18188E+08
 
   -0.18006E+08         0.28947E+05         0.00000E+00
    0.28947E+05        -0.19587E+07         0.00000E+00
    0.00000E+00         0.00000E+00        -0.18152E+08
 
   -0.17978E+08         0.31069E+05         0.00000E+00
    0.31069E+05        -0.19589E+07         0.00000E+00
    0.00000E+00         0.00000E+00        -0.18115E+08
 
   -0.17949E+08         0.32974E+05         0.00000E+00
    0.32974E+05        -0.19590E+07         0.00000E+00
    0.00000E+00         0.00000E+00        -0.18077E+08
 
   -0.17918E+08         0.34690E+05         0.00000E+00
    0.34690E+05        -0.19591E+07         0.00000E+00
    0.00000E+00         0.00000E+00        -0.18038E+08
 
   -0.17886E+08         0.36241E+05         0.00000E+00
    0.36241E+05        -0.19592E+07         0.00000E+00
    0.00000E+00         0.00000E+00        -0.17999E+08
 
   -0.17852E+08         0.37651E+05         0.00000E+00
    0.37651E+05        -0.19592E+07         0.00000E+00
    0.00000E+00         0.00000E+00        -0.17960E+08
 
   -0.17817E+08         0.38939E+05         0.00000E+00
    0.38939E+05        -0.19593E+07         0.00000E+00
    0.00000E+00         0.00000E+00        -0.17919E+08
 
   -0.17781E+08         0.40124E+05         0.00000E+00
    0.40124E+05        -0.19594E+07         0.00000E+00
    0.00000E+00         0.00000E+00        -0.17879E+08
 
   -0.17744E+08         0.41219E+05         0.00000E+00
    0.41219E+05        -0.19594E+07         0.00000E+00
    0.00000E+00         0.00000E+00        -0.17837E+08
 
   -0.17706E+08         0.42237E+05         0.00000E+00
    0.42237E+05        -0.19594E+07         0.00000E+00
    0.00000E+00         0.00000E+00        -0.17796E+08
 
   -0.17667E+08         0.43188E+05         0.00000E+00
    0.43188E+05        -0.19595E+07         0.00000E+00
    0.00000E+00         0.00000E+00        -0.17753E+08
 
   -0.17628E+08         0.44082E+05         0.00000E+00
    0.44082E+05        -0.19595E+07         0.00000E+00
    0.00000E+00         0.00000E+00        -0.17711E+08
 
   -0.17587E+08         0.44925E+05         0.00000E+00
    0.44925E+05        -0.19595E+07         0.00000E+00
    0.00000E+00         0.00000E+00        -0.17668E+08
 
   -0.17546E+08         0.45724E+05         0.00000E+00
    0.45724E+05        -0.19595E+07         0.00000E+00
    0.00000E+00         0.00000E+00        -0.17624E+08
 
   -0.17504E+08         0.46484E+05         0.00000E+00
    0.46484E+05        -0.19596E+07         0.00000E+00
    0.00000E+00         0.00000E+00        -0.17580E+08
 
   -0.17462E+08         0.47209E+05         0.00000E+00
    0.47209E+05        -0.19596E+07         0.00000E+00
    0.00000E+00         0.00000E+00        -0.17535E+08
 
   -0.17418E+08         0.47903E+05         0.00000E+00
    0.47903E+05        -0.19596E+07         0.00000E+00
    0.00000E+00         0.00000E+00        -0.17490E+08
 
   -0.17375E+08         0.48569E+05         0.00000E+00
    0.48569E+05        -0.19596E+07         0.00000E+00
    0.00000E+00         0.00000E+00        -0.17445E+08
 
   -0.17330E+08         0.49210E+05         0.00000E+00
    0.49210E+05        -0.19596E+07         0.00000E+00
    0.00000E+00         0.00000E+00        -0.17399E+08
 
   -0.17285E+08         0.49828E+05         0.00000E+00
    0.49828E+05        -0.19596E+07         0.00000E+00
    0.00000E+00         0.00000E+00        -0.17353E+08
 
   -0.17240E+08         0.50424E+05         0.00000E+00
    0.50424E+05        -0.19596E+07         0.00000E+00
    0.00000E+00         0.00000E+00        -0.17306E+08
 
   -0.17193E+08         0.51001E+05         0.00000E+00
    0.51001E+05        -0.19597E+07         0.00000E+00
    0.00000E+00         0.00000E+00        -0.17259E+08
 
   -0.17147E+08         0.51560E+05         0.00000E+00
    0.51560E+05        -0.19597E+07         0.00000E+00
    0.00000E+00         0.00000E+00        -0.17212E+08
 
   -0.17100E+08         0.52101E+05         0.00000E+00
    0.52101E+05        -0.19597E+07         0.00000E+00
    0.00000E+00         0.00000E+00        -0.17164E+08
 
   -0.17052E+08         0.52627E+05         0.00000E+00
    0.52627E+05        -0.19597E+07         0.00000E+00
    0.00000E+00         0.00000E+00        -0.17115E+08
 
   -0.17004E+08         0.53137E+05         0.00000E+00
    0.53137E+05        -0.19597E+07         0.00000E+00
    0.00000E+00         0.00000E+00        -0.17066E+08
 
   -0.16956E+08         0.53633E+05         0.00000E+00
    0.53633E+05        -0.19597E+07         0.00000E+00
    0.00000E+00         0.00000E+00        -0.17017E+08
 
   -0.16907E+08         0.54115E+05         0.00000E+00
    0.54115E+05        -0.19597E+07         0.00000E+00
    0.00000E+00         0.00000E+00        -0.16967E+08
 
   -0.16857E+08         0.54582E+05         0.00000E+00
    0.54582E+05        -0.19597E+07         0.00000E+00
    0.00000E+00         0.00000E+00        -0.16917E+08
 
   -0.16807E+08         0.55036E+05         0.00000E+00
    0.55036E+05        -0.19597E+07         0.00000E+00
    0.00000E+00         0.00000E+00        -0.16866E+08
 
   -0.16757E+08         0.55477E+05         0.00000E+00
    0.55477E+05        -0.19597E+07         0.00000E+00
    0.00000E+00         0.00000E+00        -0.16815E+08
 
   -0.16707E+08         0.55904E+05         0.00000E+00
    0.55904E+05        -0.19597E+07         0.00000E+00
    0.00000E+00         0.00000E+00        -0.16764E+08
 
   -0.16656E+08         0.56316E+05         0.00000E+00
    0.56316E+05        -0.19597E+07         0.00000E+00
    0.00000E+00         0.00000E+00        -0.16712E+08
 
   -0.16604E+08         0.56715E+05         0.00000E+00
    0.56715E+05        -0.19597E+07         0.00000E+00
    0.00000E+00         0.00000E+00        -0.16659E+08
 
   -0.16552E+08         0.57098E+05         0.00000E+00
    0.57098E+05        -0.19597E+07         0.00000E+00
    0.00000E+00         0.00000E+00        -0.16607E+08
 
   -0.16500E+08         0.57466E+05         0.00000E+00
    0.57466E+05        -0.19598E+07         0.00000E+00
    0.00000E+00         0.00000E+00        -0.16553E+08
 
   -0.16448E+08         0.57818E+05         0.00000E+00
    0.57818E+05        -0.19598E+07         0.00000E+00
    0.00000E+00         0.00000E+00        -0.16500E+08
 
   -0.16395E+08         0.58153E+05         0.00000E+00
    0.58153E+05        -0.19598E+07         0.00000E+00
    0.00000E+00         0.00000E+00        -0.16446E+08
 
   -0.16342E+08         0.58469E+05         0.00000E+00
    0.58469E+05        -0.19598E+07         0.00000E+00
    0.00000E+00         0.00000E+00        -0.16391E+08
 
   -0.16289E+08         0.58766E+05         0.00000E+00
    0.58766E+05        -0.19598E+07         0.00000E+00
    0.00000E+00         0.00000E+00        -0.16336E+08
 
   -0.16235E+08         0.59043E+05         0.00000E+00
    0.59043E+05        -0.19598E+07         0.00000E+00
    0.00000E+00         0.00000E+00        -0.16281E+08
 
   -0.16181E+08         0.59297E+05         0.00000E+00
    0.59297E+05        -0.19598E+07         0.00000E+00
    0.00000E+00         0.00000E+00        -0.16226E+08
 
   -0.16127E+08         0.59527E+05         0.00000E+00
    0.59527E+05        -0.19598E+07         0.00000E+00
    0.00000E+00         0.00000E+00        -0.16169E+08
 
   -0.16073E+08         0.59732E+05         0.00000E+00
    0.59732E+05        -0.19599E+07         0.00000E+00
    0.00000E+00         0.00000E+00        -0.16113E+08
 
   -0.16019E+08         0.59909E+05         0.00000E+00
    0.59909E+05        -0.19599E+07         0.00000E+00
    0.00000E+00         0.00000E+00        -0.16056E+08
 
   -0.15964E+08         0.60056E+05         0.00000E+00
    0.60056E+05        -0.19599E+07         0.00000E+00
    0.00000E+00         0.00000E+00        -0.15999E+08
 
   -0.15909E+08         0.60171E+05         0.00000E+00
    0.60171E+05        -0.19599E+07         0.00000E+00
    0.00000E+00         0.00000E+00        -0.15942E+08
 
   -0.15854E+08         0.60251E+05         0.00000E+00
    0.60251E+05        -0.19599E+07         0.00000E+00
    0.00000E+00         0.00000E+00        -0.15884E+08
 
   -0.15799E+08         0.60293E+05         0.00000E+00
    0.60293E+05        -0.19599E+07         0.00000E+00
    0.00000E+00         0.00000E+00        -0.15826E+08
 
   -0.15745E+08         0.60295E+05         0.00000E+00
    0.60295E+05        -0.19600E+07         0.00000E+00
    0.00000E+00         0.00000E+00        -0.15767E+08
 
   -0.15690E+08         0.60252E+05         0.00000E+00
    0.60252E+05        -0.19600E+07         0.00000E+00
    0.00000E+00         0.00000E+00        -0.15708E+08
 
   -0.15635E+08         0.60160E+05         0.00000E+00
    0.60160E+05        -0.19600E+07         0.00000E+00
    0.00000E+00         0.00000E+00        -0.15649E+08
 
   -0.15580E+08         0.60016E+05         0.00000E+00
    0.60016E+05        -0.19601E+07         0.00000E+00
    0.00000E+00         0.00000E+00        -0.15590E+08
 
   -0.15525E+08         0.59815E+05         0.00000E+00
    0.59815E+05        -0.19601E+07         0.00000E+00
    0.00000E+00         0.00000E+00        -0.15530E+08
 
   -0.15471E+08         0.59551E+05         0.00000E+00
    0.59551E+05        -0.19601E+07         0.00000E+00
    0.00000E+00         0.00000E+00        -0.15471E+08
 
   -0.15417E+08         0.59218E+05         0.00000E+00
    0.59218E+05        -0.19602E+07         0.00000E+00
    0.00000E+00         0.00000E+00        -0.15411E+08
 
   -0.15363E+08         0.58809E+05         0.00000E+00
    0.58809E+05        -0.19602E+07         0.00000E+00
    0.00000E+00         0.00000E+00        -0.15351E+08
 
   -0.15310E+08         0.58316E+05         0.00000E+00
    0.58316E+05        -0.19603E+07         0.00000E+00
    0.00000E+00         0.00000E+00        -0.15290E+08
 
   -0.15257E+08         0.57730E+05         0.00000E+00
    0.57730E+05        -0.19603E+07         0.00000E+00
    0.00000E+00         0.00000E+00        -0.15230E+08
 
   -0.15204E+08         0.57039E+05         0.00000E+00
    0.57039E+05        -0.19604E+07         0.00000E+00
    0.00000E+00         0.00000E+00        -0.15169E+08
 
   -0.15153E+08         0.56230E+05         0.00000E+00
    0.56230E+05        -0.19604E+07         0.00000E+00
    0.00000E+00         0.00000E+00        -0.15109E+08
 
   -0.15102E+08         0.55288E+05         0.00000E+00
    0.55288E+05        -0.19605E+07         0.00000E+00
    0.00000E+00         0.00000E+00        -0.15048E+08
 
   -0.15052E+08         0.54195E+05         0.00000E+00
    0.54195E+05        -0.19606E+07         0.00000E+00
    0.00000E+00         0.00000E+00        -0.14988E+08
 
   -0.15003E+08         0.52928E+05         0.00000E+00
    0.52928E+05        -0.19607E+07         0.00000E+00
    0.00000E+00         0.00000E+00        -0.14928E+08
 
   -0.14955E+08         0.51464E+05         0.00000E+00
    0.51464E+05        -0.19608E+07         0.00000E+00
    0.00000E+00         0.00000E+00        -0.14867E+08
 
   -0.14909E+08         0.49771E+05         0.00000E+00
    0.49771E+05        -0.19610E+07         0.00000E+00
    0.00000E+00         0.00000E+00        -0.14807E+08
 
   -0.14864E+08         0.47816E+05         0.00000E+00
    0.47816E+05        -0.19611E+07         0.00000E+00
    0.00000E+00         0.00000E+00        -0.14748E+08
 
   -0.14821E+08         0.45560E+05         0.00000E+00
    0.45560E+05        -0.19613E+07         0.00000E+00
    0.00000E+00         0.00000E+00        -0.14688E+08
 
   -0.14780E+08         0.42959E+05         0.00000E+00
    0.42959E+05        -0.19615E+07         0.00000E+00
    0.00000E+00         0.00000E+00        -0.14629E+08
 
   -0.14742E+08         0.39966E+05         0.00000E+00
    0.39966E+05        -0.19617E+07         0.00000E+00
    0.00000E+00         0.00000E+00        -0.14571E+08
 
   -0.14706E+08         0.36532E+05         0.00000E+00
    0.36532E+05        -0.19620E+07         0.00000E+00
    0.00000E+00         0.00000E+00        -0.14513E+08
 
   -0.14673E+08         0.32607E+05         0.00000E+00
    0.32607E+05        -0.19623E+07         0.00000E+00
    0.00000E+00         0.00000E+00        -0.14457E+08
 
   -0.14644E+08         0.28147E+05         0.00000E+00
    0.28147E+05        -0.19626E+07         0.00000E+00
    0.00000E+00         0.00000E+00        -0.14401E+08
 
   -0.14619E+08         0.23116E+05         0.00000E+00
    0.23116E+05        -0.19630E+07         0.00000E+00
    0.00000E+00         0.00000E+00        -0.14346E+08
 
   -0.14598E+08         0.17496E+05         0.00000E+00
    0.17496E+05        -0.19633E+07         0.00000E+00
    0.00000E+00         0.00000E+00        -0.14292E+08
 
   -0.14582E+08         0.11298E+05         0.00000E+00
    0.11298E+05        -0.19637E+07         0.00000E+00
    0.00000E+00         0.00000E+00        -0.14240E+08
 
   -0.14571E+08         0.45688E+04         0.00000E+00
    0.45688E+04        -0.19640E+07         0.00000E+00
    0.00000E+00         0.00000E+00        -0.14189E+08
 
   -0.14565E+08        -0.25924E+04         0.00000E+00
   -0.25924E+04        -0.19642E+07         0.00000E+00
    0.00000E+00         0.00000E+00        -0.14139E+08
 
   -0.14565E+08        -0.10021E+05         0.00000E+00
   -0.10021E+05        -0.19644E+07         0.00000E+00
    0.00000E+00         0.00000E+00        -0.14091E+08
 
   -0.14570E+08        -0.17468E+05         0.00000E+00
   -0.17468E+05        -0.19644E+07         0.00000E+00
    0.00000E+00         0.00000E+00        -0.14045E+08
 
   -0.14580E+08        -0.24578E+05         0.00000E+00
   -0.24578E+05        -0.19642E+07         0.00000E+00
    0.00000E+00         0.00000E+00        -0.14000E+08
 
   -0.14594E+08        -0.30716E+05         0.00000E+00
   -0.30716E+05        -0.19638E+07         0.00000E+00
    0.00000E+00         0.00000E+00        -0.13955E+08
 
   -0.14609E+08        -0.35016E+05         0.00000E+00
   -0.35016E+05        -0.19628E+07         0.00000E+00
    0.00000E+00         0.00000E+00        -0.13912E+08
 
   -0.14620E+08        -0.33752E+05         0.00000E+00
   -0.33752E+05        -0.19606E+07         0.00000E+00
    0.00000E+00         0.00000E+00        -0.13866E+08
 
   -0.14622E+08        -0.15998E+05         0.00000E+00
   -0.15998E+05        -0.19423E+07         0.00000E+00
    0.00000E+00         0.00000E+00        -0.13813E+08
 
   -0.18095E+08        -0.93330E+04         0.00000E+00
   -0.93330E+04        -0.19666E+07         0.00000E+00
    0.00000E+00         0.00000E+00        -0.18604E+08
 
   -0.18098E+08        -0.18022E+05         0.00000E+00
   -0.18022E+05        -0.19589E+07         0.00000E+00
    0.00000E+00         0.00000E+00        -0.18575E+08
 
   -0.18107E+08        -0.17357E+05         0.00000E+00
   -0.17357E+05        -0.19587E+07         0.00000E+00
    0.00000E+00         0.00000E+00        -0.18550E+08
 
   -0.18117E+08        -0.14593E+05         0.00000E+00
   -0.14593E+05        -0.19583E+07         0.00000E+00
    0.00000E+00         0.00000E+00        -0.18525E+08
 
   -0.18126E+08        -0.11111E+05         0.00000E+00
   -0.11111E+05        -0.19581E+07         0.00000E+00
    0.00000E+00         0.00000E+00        -0.18499E+08
 
   -0.18132E+08        -0.72359E+04         0.00000E+00
   -0.72359E+04        -0.19581E+07         0.00000E+00
    0.00000E+00         0.00000E+00        -0.18473E+08
 
   -0.18134E+08        -0.32614E+04         0.00000E+00
   -0.32614E+04        -0.19581E+07         0.00000E+00
    0.00000E+00         0.00000E+00        -0.18446E+08
 
   -0.18133E+08         0.67368E+03         0.00000E+00
    0.67368E+03        -0.19582E+07         0.00000E+00
    0.00000E+00         0.00000E+00        -0.18417E+08
 
   -0.18128E+08         0.44560E+04         0.00000E+00
    0.44560E+04        -0.19583E+07         0.00000E+00
    0.00000E+00         0.00000E+00        -0.18388E+08
 
   -0.18119E+08         0.80151E+04         0.00000E+00
    0.80151E+04        -0.19584E+07         0.00000E+00
    0.00000E+00         0.00000E+00        -0.18357E+08
 
   -0.18107E+08         0.11308E+05         0.00000E+00
    0.11308E+05        -0.19586E+07         0.00000E+00
    0.00000E+00         0.00000E+00        -0.18325E+08
 
   -0.18092E+08         0.14316E+05         0.00000E+00
    0.14316E+05        -0.19587E+07         0.00000E+00
    0.00000E+00         0.00000E+00        -0.18292E+08
 
   -0.18074E+08         0.17038E+05         0.00000E+00
    0.17038E+05        -0.19588E+07         0.00000E+00
    0.00000E+00         0.00000E+00        -0.18258E+08
 
   -0.18053E+08         0.19485E+05         0.00000E+00
    0.19485E+05        -0.19589E+07         0.00000E+00
    0.00000E+00         0.00000E+00        -0.18224E+08
 
   -0.18029E+08         0.21676E+05         0.00000E+00
    0.21676E+05        -0.19591E+07         0.00000E+00
    0.00000E+00         0.00000E+00        -0.18188E+08
 
   -0.18004E+08         0.23634E+05         0.00000E+00
    0.23634E+05        -0.19592E+07         0.00000E+00
    0.00000E+00         0.00000E+00        -0.18152E+08
 
   -0.17977E+08         0.25386E+05         0.00000E+00
    0.25386E+05        -0.19592E+07         0.00000E+00
    0.00000E+00         0.00000E+00        -0.18114E+08
 
   -0.17947E+08         0.26955E+05         0.00000E+00
    0.26955E+05        -0.19593E+07         0.00000E+00
    0.00000E+00         0.00000E+00        -0.18077E+08
 
   -0.17917E+08         0.28367E+05         0.00000E+00
    0.28367E+05        -0.19594E+07         0.00000E+00
    0.00000E+00         0.00000E+00        -0.18038E+08
 
   -0.17884E+08         0.29642E+05         0.00000E+00
    0.29642E+05        -0.19594E+07         0.00000E+00
    0.00000E+00         0.00000E+00        -0.17999E+08
 
   -0.17851E+08         0.30799E+05         0.00000E+00
    0.30799E+05        -0.19595E+07         0.00000E+00
    0.00000E+00         0.00000E+00        -0.17959E+08
 
   -0.17816E+08         0.31856E+05         0.00000E+00
    0.31856E+05        -0.19595E+07         0.00000E+00
    0.00000E+00         0.00000E+00        -0.17919E+08
 
   -0.17780E+08         0.32827E+05         0.00000E+00
    0.32827E+05        -0.19596E+07         0.00000E+00
    0.00000E+00         0.00000E+00        -0.17878E+08
 
   -0.17743E+08         0.33725E+05         0.00000E+00
    0.33725E+05        -0.19596E+07         0.00000E+00
    0.00000E+00         0.00000E+00        -0.17837E+08
 
   -0.17705E+08         0.34559E+05         0.00000E+00
    0.34559E+05        -0.19596E+07         0.00000E+00
    0.00000E+00         0.00000E+00        -0.17795E+08
 
   -0.17666E+08         0.35338E+05         0.00000E+00
    0.35338E+05        -0.19596E+07         0.00000E+00
    0.00000E+00         0.00000E+00        -0.17753E+08
 
   -0.17626E+08         0.36069E+05         0.00000E+00
    0.36069E+05        -0.19597E+07         0.00000E+00
    0.00000E+00         0.00000E+00        -0.17710E+08
 
   -0.17586E+08         0.36760E+05         0.00000E+00
    0.36760E+05        -0.19597E+07         0.00000E+00
    0.00000E+00         0.00000E+00        -0.17667E+08
 
   -0.17545E+08         0.37414E+05         0.00000E+00
    0.37414E+05        -0.19597E+07         0.00000E+00
    0.00000E+00         0.00000E+00        -0.17624E+08
 
   -0.17503E+08         0.38036E+05         0.00000E+00
    0.38036E+05        -0.19597E+07         0.00000E+00
    0.00000E+00         0.00000E+00        -0.17580E+08
 
   -0.17460E+08         0.38629E+05         0.00000E+00
    0.38629E+05        -0.19597E+07         0.00000E+00
    0.00000E+00         0.00000E+00        -0.17535E+08
 
   -0.17417E+08         0.39197E+05         0.00000E+00
    0.39197E+05        -0.19597E+07         0.00000E+00
    0.00000E+00         0.00000E+00        -0.17490E+08
 
   -0.17373E+08         0.39742E+05         0.00000E+00
    0.39742E+05        -0.19597E+07         0.00000E+00
    0.00000E+00         0.00000E+00        -0.17445E+08
 
   -0.17329E+08         0.40266E+05         0.00000E+00
    0.40266E+05        -0.19597E+07         0.00000E+00
    0.00000E+00         0.00000E+00        -0.17399E+08
 
   -0.17284E+08         0.40771E+05         0.00000E+00
    0.40771E+05        -0.19597E+07         0.00000E+00
    0.00000E+00         0.00000E+00        -0.17353E+08
 
   -0.17238E+08         0.41259E+05         0.00000E+00
    0.41259E+05        -0.19597E+07         0.00000E+00
    0.00000E+00         0.00000E+00        -0.17306E+08
 
   -0.17192E+08         0.41731E+05         0.00000E+00
    0.41731E+05        -0.19598E+07         0.00000E+00
    0.00000E+00         0.00000E+00        -0.17259E+08
 
   -0.17146E+08         0.42188E+05         0.00000E+00
    0.42188E+05        -0.19598E+07         0.00000E+00
    0.00000E+00         0.00000E+00        -0.17211E+08
 
   -0.17098E+08         0.42631E+05         0.00000E+00
    0.42631E+05        -0.19598E+07         0.00000E+00
    0.00000E+00         0.00000E+00        -0.17163E+08
 
   -0.17051E+08         0.43061E+05         0.00000E+00
    0.43061E+05        -0.19598E+07         0.00000E+00
    0.00000E+00         0.00000E+00        -0.17115E+08
 
   -0.17003E+08         0.43478E+05         0.00000E+00
    0.43478E+05        -0.19598E+07         0.00000E+00
    0.00000E+00         0.00000E+00        -0.17066E+08
 
   -0.16954E+08         0.43883E+05         0.00000E+00
    0.43883E+05        -0.19598E+07         0.00000E+00
    0.00000E+00         0.00000E+00        -0.17017E+08
 
   -0.16905E+08         0.44277E+05         0.00000E+00
    0.44277E+05        -0.19598E+07         0.00000E+00
    0.00000E+00         0.00000E+00        -0.16967E+08
 
   -0.16856E+08         0.44659E+05         0.00000E+00
    0.44659E+05        -0.19598E+07         0.00000E+00
    0.00000E+00         0.00000E+00        -0.16917E+08
 
   -0.16806E+08         0.45030E+05         0.00000E+00
    0.45030E+05        -0.19598E+07         0.00000E+00
    0.00000E+00         0.00000E+00        -0.16866E+08
 
   -0.16756E+08         0.45390E+05         0.00000E+00
    0.45390E+05        -0.19598E+07         0.00000E+00
    0.00000E+00         0.00000E+00        -0.16815E+08
 
   -0.16705E+08         0.45739E+05         0.00000E+00
    0.45739E+05        -0.19598E+07         0.00000E+00
    0.00000E+00         0.00000E+00        -0.16763E+08
 
   -0.16654E+08         0.46076E+05         0.00000E+00
    0.46076E+05        -0.19598E+07         0.00000E+00
    0.00000E+00         0.00000E+00        -0.16711E+08
 
   -0.16603E+08         0.46401E+05         0.00000E+00
    0.46401E+05        -0.19598E+07         0.00000E+00
    0.00000E+00         0.00000E+00        -0.16659E+08
 
   -0.16551E+08         0.46714E+05         0.00000E+00
    0.46714E+05        -0.19598E+07         0.00000E+00
    0.00000E+00         0.00000E+00        -0.16606E+08
 
   -0.16499E+08         0.47015E+05         0.00000E+00
    0.47015E+05        -0.19598E+07         0.00000E+00
    0.00000E+00         0.00000E+00        -0.16553E+08
 
   -0.16447E+08         0.47302E+05         0.00000E+00
    0.47302E+05        -0.19598E+07         0.00000E+00
    0.00000E+00         0.00000E+00        -0.16499E+08
 
   -0.16394E+08         0.47575E+05         0.00000E+00
    0.47575E+05        -0.19598E+07         0.00000E+00
    0.00000E+00         0.00000E+00        -0.16445E+08
 
   -0.16341E+08         0.47833E+05         0.00000E+00
    0.47833E+05        -0.19598E+07         0.00000E+00
    0.00000E+00         0.00000E+00        -0.16391E+08
 
   -0.16287E+08         0.48075E+05         0.00000E+00
    0.48075E+05        -0.19599E+07         0.00000E+00
    0.00000E+00         0.00000E+00        -0.16336E+08
 
   -0.16234E+08         0.48301E+05         0.00000E+00
    0.48301E+05        -0.19599E+07         0.00000E+00
    0.00000E+00         0.00000E+00        -0.16281E+08
 
   -0.16180E+08         0.48508E+05         0.00000E+00
    0.48508E+05        -0.19599E+07         0.00000E+00
    0.00000E+00         0.00000E+00        -0.16225E+08
 
   -0.16126E+08         0.48695E+05         0.00000E+00
    0.48695E+05        -0.19599E+07         0.00000E+00
    0.00000E+00         0.00000E+00        -0.16169E+08
 
   -0.16072E+08         0.48861E+05         0.00000E+00
    0.48861E+05        -0.19599E+07         0.00000E+00
    0.00000E+00         0.00000E+00        -0.16113E+08
 
   -0.16017E+08         0.49005E+05         0.00000E+00
    0.49005E+05        -0.19599E+07         0.00000E+00
    0.00000E+00         0.00000E+00        -0.16056E+08
 
   -0.15963E+08         0.49124E+05         0.00000E+00
    0.49124E+05        -0.19599E+07         0.00000E+00
    0.00000E+00         0.00000E+00        -0.15999E+08
 
   -0.15908E+08         0.49217E+05         0.00000E+00
    0.49217E+05        -0.19599E+07         0.00000E+00
    0.00000E+00         0.00000E+00        -0.15941E+08
 
   -0.15853E+08         0.49281E+05         0.00000E+00
    0.49281E+05        -0.19599E+07         0.00000E+00
    0.00000E+00         0.00000E+00        -0.15883E+08
 
   -0.15798E+08         0.49315E+05         0.00000E+00
    0.49315E+05        -0.19599E+07         0.00000E+00
    0.00000E+00         0.00000E+00        -0.15825E+08
 
   -0.15744E+08         0.49314E+05         0.00000E+00
    0.49314E+05        -0.19600E+07         0.00000E+00
    0.00000E+00         0.00000E+00        -0.15767E+08
 
   -0.15689E+08         0.49278E+05         0.00000E+00
    0.49278E+05        -0.19600E+07         0.00000E+00
    0.00000E+00         0.00000E+00        -0.15708E+08
 
   -0.15634E+08         0.49202E+05         0.00000E+00
    0.49202E+05        -0.19600E+07         0.00000E+00
    0.00000E+00         0.00000E+00        -0.15649E+08
 
   -0.15579E+08         0.49083E+05         0.00000E+00
    0.49083E+05        -0.19600E+07         0.00000E+00
    0.00000E+00         0.00000E+00        -0.15590E+08
 
   -0.15525E+08         0.48917E+05         0.00000E+00
    0.48917E+05        -0.19600E+07         0.00000E+00
    0.00000E+00         0.00000E+00        -0.15530E+08
 
   -0.15470E+08         0.48699E+05         0.00000E+00
    0.48699E+05        -0.19601E+07         0.00000E+00
    0.00000E+00         0.00000E+00        -0.15470E+08
 
   -0.15416E+08         0.48425E+05         0.00000E+00
    0.48425E+05        -0.19601E+07         0.00000E+00
    0.00000E+00         0.00000E+00        -0.15410E+08
 
   -0.15362E+08         0.48089E+05         0.00000E+00
    0.48089E+05        -0.19601E+07         0.00000E+00
    0.00000E+00         0.00000E+00        -0.15350E+08
 
   -0.15309E+08         0.47684E+05         0.00000E+00
    0.47684E+05        -0.19602E+07         0.00000E+00
    0.00000E+00         0.00000E+00        -0.15290E+08
 
   -0.15256E+08         0.47203E+05         0.00000E+00
    0.47203E+05        -0.19602E+07         0.00000E+00
    0.00000E+00         0.00000E+00        -0.15230E+08
 
   -0.15204E+08         0.46636E+05         0.00000E+00
    0.46636E+05        -0.19602E+07         0.00000E+00
    0.00000E+00         0.00000E+00        -0.15169E+08
 
   -0.15152E+08         0.45972E+05         0.00000E+00
    0.45972E+05        -0.19603E+07         0.00000E+00
    0.00000E+00         0.00000E+00        -0.15109E+08
 
   -0.15101E+08         0.45199E+05         0.00000E+00
    0.45199E+05        -0.19603E+07         0.00000E+00
    0.00000E+00         0.00000E+00        -0.15048E+08
 
   -0.15052E+08         0.44301E+05         0.00000E+00
    0.44301E+05        -0.19604E+07         0.00000E+00
    0.00000E+00         0.00000E+00        -0.14988E+08
 
   -0.15003E+08         0.43260E+05         0.00000E+00
    0.43260E+05        -0.19605E+07         0.00000E+00
    0.00000E+00         0.00000E+00        -0.14927E+08
 
   -0.14955E+08         0.42056E+05         0.00000E+00
    0.42056E+05        -0.19605E+07         0.00000E+00
    0.00000E+00         0.00000E+00        -0.14867E+08
 
   -0.14909E+08         0.40663E+05         0.00000E+00
    0.40663E+05        -0.19606E+07         0.00000E+00
    0.00000E+00         0.00000E+00        -0.14807E+08
 
   -0.14864E+08         0.39053E+05         0.00000E+00
    0.39053E+05        -0.19607E+07         0.00000E+00
    0.00000E+00         0.00000E+00        -0.14748E+08
 
   -0.14821E+08         0.37192E+05         0.00000E+00
    0.37192E+05        -0.19609E+07         0.00000E+00
    0.00000E+00         0.00000E+00        -0.14688E+08
 
   -0.14781E+08         0.35045E+05         0.00000E+00
    0.35045E+05        -0.19610E+07         0.00000E+00
    0.00000E+00         0.00000E+00        -0.14630E+08
 
   -0.14743E+08         0.32570E+05         0.00000E+00
    0.32570E+05        -0.19612E+07         0.00000E+00
    0.00000E+00         0.00000E+00        -0.14571E+08
 
   -0.14707E+08         0.29725E+05         0.00000E+00
    0.29725E+05        -0.19613E+07         0.00000E+00
    0.00000E+00         0.00000E+00        -0.14514E+08
 
   -0.14675E+08         0.26467E+05         0.00000E+00
    0.26467E+05        -0.19615E+07         0.00000E+00
    0.00000E+00         0.00000E+00        -0.14457E+08
 
   -0.14647E+08         0.22759E+05         0.00000E+00
    0.22759E+05        -0.19618E+07         0.00000E+00
    0.00000E+00         0.00000E+00        -0.14401E+08
 
   -0.14622E+08         0.18566E+05         0.00000E+00
    0.18566E+05        -0.19620E+07         0.00000E+00
    0.00000E+00         0.00000E+00        -0.14346E+08
 
   -0.14602E+08         0.13873E+05         0.00000E+00
    0.13873E+05        -0.19622E+07         0.00000E+00
    0.00000E+00         0.00000E+00        -0.14293E+08
 
   -0.14587E+08         0.86841E+04         0.00000E+00
    0.86841E+04        -0.19625E+07         0.00000E+00
    0.00000E+00         0.00000E+00        -0.14241E+08
 
   -0.14577E+08         0.30341E+04         0.00000E+00
    0.30341E+04        -0.19627E+07         0.00000E+00
    0.00000E+00         0.00000E+00        -0.14190E+08
 
   -0.14573E+08        -0.29999E+04         0.00000E+00
   -0.29999E+04        -0.19629E+07         0.00000E+00
    0.00000E+00         0.00000E+00        -0.14141E+08
 
   -0.14575E+08        -0.92928E+04         0.00000E+00
   -0.92928E+04        -0.19630E+07         0.00000E+00
    0.00000E+00         0.00000E+00        -0.14094E+08
 
   -0.14583E+08        -0.15646E+05         0.00000E+00
   -0.15646E+05        -0.19630E+07         0.00000E+00
    0.00000E+00         0.00000E+00        -0.14048E+08
 
   -0.14596E+08        -0.21814E+05         0.00000E+00
   -0.21814E+05        -0.19629E+07         0.00000E+00
    0.00000E+00         0.00000E+00        -0.14004E+08
 
   -0.14613E+08        -0.27288E+05         0.00000E+00
   -0.27288E+05        -0.19627E+07         0.00000E+00
    0.00000E+00         0.00000E+00        -0.13961E+08
 
   -0.14634E+08        -0.31502E+05         0.00000E+00
   -0.31502E+05        -0.19620E+07         0.00000E+00
    0.00000E+00         0.00000E+00        -0.13919E+08
 
   -0.14651E+08        -0.32067E+05         0.00000E+00
   -0.32067E+05        -0.19617E+07         0.00000E+00
    0.00000E+00         0.00000E+00        -0.13876E+08
 
   -0.14656E+08        -0.16442E+05         0.00000E+00
   -0.16442E+05        -0.19483E+07         0.00000E+00
    0.00000E+00         0.00000E+00        -0.13825E+08
 
   -0.18073E+08        -0.95261E+04         0.00000E+00
   -0.95261E+04        -0.19632E+07         0.00000E+00
    0.00000E+00         0.00000E+00        -0.18596E+08
 
   -0.18079E+08        -0.16390E+05         0.00000E+00
   -0.16390E+05        -0.19587E+07         0.00000E+00
    0.00000E+00         0.00000E+00        -0.18569E+08
 
   -0.18092E+08        -0.14805E+05         0.00000E+00
   -0.14805E+05        -0.19592E+07         0.00000E+00
    0.00000E+00         0.00000E+00        -0.18545E+08
 
   -0.18105E+08        -0.12375E+05         0.00000E+00
   -0.12375E+05        -0.19589E+07         0.00000E+00
    0.00000E+00         0.00000E+00        -0.18521E+08
 
   -0.18116E+08        -0.94222E+04         0.00000E+00
   -0.94222E+04        -0.19589E+07         0.00000E+00
    0.00000E+00         0.00000E+00        -0.18497E+08
 
   -0.18124E+08        -0.62418E+04         0.00000E+00
   -0.62418E+04        -0.19588E+07         0.00000E+00
    0.00000E+00         0.00000E+00        -0.18471E+08
 
   -0.18128E+08        -0.30247E+04         0.00000E+00
   -0.30247E+04        -0.19589E+07         0.00000E+00
    0.00000E+00         0.00000E+00        -0.18444E+08
 
   -0.18128E+08         0.13955E+03         0.00000E+00
    0.13955E+03        -0.19589E+07         0.00000E+00
    0.00000E+00         0.00000E+00        -0.18416E+08
 
   -0.18124E+08         0.31643E+04         0.00000E+00
    0.31643E+04        -0.19590E+07         0.00000E+00
    0.00000E+00         0.00000E+00        -0.18387E+08
 
   -0.18116E+08         0.60011E+04         0.00000E+00
    0.60011E+04        -0.19590E+07         0.00000E+00
    0.00000E+00         0.00000E+00        -0.18356E+08
 
   -0.18104E+08         0.86176E+04         0.00000E+00
    0.86176E+04        -0.19591E+07         0.00000E+00
    0.00000E+00         0.00000E+00        -0.18325E+08
 
   -0.18089E+08         0.11002E+05         0.00000E+00
    0.11002E+05        -0.19592E+07         0.00000E+00
    0.00000E+00         0.00000E+00        -0.18292E+08
 
   -0.18071E+08         0.13153E+05         0.00000E+00
    0.13153E+05        -0.19593E+07         0.00000E+00
    0.00000E+00         0.00000E+00        -0.18258E+08
 
   -0.18051E+08         0.15083E+05         0.00000E+00
    0.15083E+05        -0.19594E+07         0.00000E+00
    0.00000E+00         0.00000E+00        -0.18223E+08
 
   -0.18028E+08         0.16808E+05         0.00000E+00
    0.16808E+05        -0.19594E+07         0.00000E+00
    0.00000E+00         0.00000E+00        -0.18188E+08
 
   -0.18002E+08         0.18347E+05         0.00000E+00
    0.18347E+05        -0.19595E+07         0.00000E+00
    0.00000E+00         0.00000E+00        -0.18151E+08
 
   -0.17975E+08         0.19721E+05         0.00000E+00
    0.19721E+05        -0.19595E+07         0.00000E+00
    0.00000E+00         0.00000E+00        -0.18114E+08
 
   -0.17946E+08         0.20950E+05         0.00000E+00
    0.20950E+05        -0.19596E+07         0.00000E+00
    0.00000E+00         0.00000E+00        -0.18076E+08
 
   -0.17915E+08         0.22054E+05         0.00000E+00
    0.22054E+05        -0.19596E+07         0.00000E+00
    0.00000E+00         0.00000E+00        -0.18038E+08
 
   -0.17883E+08         0.23050E+05         0.00000E+00
    0.23050E+05        -0.19597E+07         0.00000E+00
    0.00000E+00         0.00000E+00        -0.17999E+08
 
   -0.17849E+08         0.23953E+05         0.00000E+00
    0.23953E+05        -0.19597E+07         0.00000E+00
    0.00000E+00         0.00000E+00        -0.17959E+08
 
   -0.17814E+08         0.24777E+05         0.00000E+00
    0.24777E+05        -0.19597E+07         0.00000E+00
    0.00000E+00         0.00000E+00        -0.17919E+08
 
   -0.17779E+08         0.25534E+05         0.00000E+00
    0.25534E+05        -0.19597E+07         0.00000E+00
    0.00000E+00         0.00000E+00        -0.17878E+08
 
   -0.17742E+08         0.26232E+05         0.00000E+00
    0.26232E+05        -0.19597E+07         0.00000E+00
    0.00000E+00         0.00000E+00        -0.17837E+08
 
   -0.17704E+08         0.26881E+05         0.00000E+00
    0.26881E+05        -0.19598E+07         0.00000E+00
    0.00000E+00         0.00000E+00        -0.17795E+08
 
   -0.17665E+08         0.27488E+05         0.00000E+00
    0.27488E+05        -0.19598E+07         0.00000E+00
    0.00000E+00         0.00000E+00        -0.17753E+08
 
   -0.17625E+08         0.28057E+05         0.00000E+00
    0.28057E+05        -0.19598E+07         0.00000E+00
    0.00000E+00         0.00000E+00        -0.17710E+08
 
   -0.17585E+08         0.28594E+05         0.00000E+00
    0.28594E+05        -0.19598E+07         0.00000E+00
    0.00000E+00         0.00000E+00        -0.17667E+08
 
   -0.17544E+08         0.29103E+05         0.00000E+00
    0.29103E+05        -0.19598E+07         0.00000E+00
    0.00000E+00         0.00000E+00        -0.17623E+08
 
   -0.17502E+08         0.29586E+05         0.00000E+00
    0.29586E+05        -0.19598E+07         0.00000E+00
    0.00000E+00         0.00000E+00        -0.17579E+08
 
   -0.17459E+08         0.30048E+05         0.00000E+00
    0.30048E+05        -0.19598E+07         0.00000E+00
    0.00000E+00         0.00000E+00        -0.17535E+08
 
   -0.17416E+08         0.30490E+05         0.00000E+00
    0.30490E+05        -0.19598E+07         0.00000E+00
    0.00000E+00         0.00000E+00        -0.17490E+08
 
   -0.17372E+08         0.30913E+05         0.00000E+00
    0.30913E+05        -0.19598E+07         0.00000E+00
    0.00000E+00         0.00000E+00        -0.17444E+08
 
   -0.17328E+08         0.31321E+05         0.00000E+00
    0.31321E+05        -0.19598E+07         0.00000E+00
    0.00000E+00         0.00000E+00        -0.17399E+08
 
   -0.17283E+08         0.31714E+05         0.00000E+00
    0.31714E+05        -0.19598E+07         0.00000E+00
    0.00000E+00         0.00000E+00        -0.17352E+08
 
   -0.17237E+08         0.32093E+05         0.00000E+00
    0.32093E+05        -0.19598E+07         0.00000E+00
    0.00000E+00         0.00000E+00        -0.17306E+08
 
   -0.17191E+08         0.32460E+05         0.00000E+00
    0.32460E+05        -0.19598E+07         0.00000E+00
    0.00000E+00         0.00000E+00        -0.17258E+08
 
   -0.17144E+08         0.32815E+05         0.00000E+00
    0.32815E+05        -0.19598E+07         0.00000E+00
    0.00000E+00         0.00000E+00        -0.17211E+08
 
   -0.17097E+08         0.33160E+05         0.00000E+00
    0.33160E+05        -0.19598E+07         0.00000E+00
    0.00000E+00         0.00000E+00        -0.17163E+08
 
   -0.17050E+08         0.33494E+05         0.00000E+00
    0.33494E+05        -0.19598E+07         0.00000E+00
    0.00000E+00         0.00000E+00        -0.17114E+08
 
   -0.17001E+08         0.33818E+05         0.00000E+00
    0.33818E+05        -0.19598E+07         0.00000E+00
    0.00000E+00         0.00000E+00        -0.17065E+08
 
   -0.16953E+08         0.34133E+05         0.00000E+00
    0.34133E+05        -0.19599E+07         0.00000E+00
    0.00000E+00         0.00000E+00        -0.17016E+08
 
   -0.16904E+08         0.34439E+05         0.00000E+00
    0.34439E+05        -0.19599E+07         0.00000E+00
    0.00000E+00         0.00000E+00        -0.16966E+08
 
   -0.16855E+08         0.34736E+05         0.00000E+00
    0.34736E+05        -0.19599E+07         0.00000E+00
    0.00000E+00         0.00000E+00        -0.16916E+08
 
   -0.16805E+08         0.35024E+05         0.00000E+00
    0.35024E+05        -0.19599E+07         0.00000E+00
    0.00000E+00         0.00000E+00        -0.16866E+08
 
   -0.16755E+08         0.35304E+05         0.00000E+00
    0.35304E+05        -0.19599E+07         0.00000E+00
    0.00000E+00         0.00000E+00        -0.16814E+08
 
   -0.16704E+08         0.35575E+05         0.00000E+00
    0.35575E+05        -0.19599E+07         0.00000E+00
    0.00000E+00         0.00000E+00        -0.16763E+08
 
   -0.16653E+08         0.35836E+05         0.00000E+00
    0.35836E+05        -0.19599E+07         0.00000E+00
    0.00000E+00         0.00000E+00        -0.16711E+08
 
   -0.16602E+08         0.36089E+05         0.00000E+00
    0.36089E+05        -0.19599E+07         0.00000E+00
    0.00000E+00         0.00000E+00        -0.16659E+08
 
   -0.16550E+08         0.36332E+05         0.00000E+00
    0.36332E+05        -0.19599E+07         0.00000E+00
    0.00000E+00         0.00000E+00        -0.16606E+08
 
   -0.16498E+08         0.36565E+05         0.00000E+00
    0.36565E+05        -0.19599E+07         0.00000E+00
    0.00000E+00         0.00000E+00        -0.16553E+08
 
   -0.16445E+08         0.36788E+05         0.00000E+00
    0.36788E+05        -0.19599E+07         0.00000E+00
    0.00000E+00         0.00000E+00        -0.16499E+08
 
   -0.16393E+08         0.36999E+05         0.00000E+00
    0.36999E+05        -0.19599E+07         0.00000E+00
    0.00000E+00         0.00000E+00        -0.16445E+08
 
   -0.16340E+08         0.37200E+05         0.00000E+00
    0.37200E+05        -0.19599E+07         0.00000E+00
    0.00000E+00         0.00000E+00        -0.16391E+08
 
   -0.16286E+08         0.37387E+05         0.00000E+00
    0.37387E+05        -0.19599E+07         0.00000E+00
    0.00000E+00         0.00000E+00        -0.16336E+08
 
   -0.16233E+08         0.37562E+05         0.00000E+00
    0.37562E+05        -0.19599E+07         0.00000E+00
    0.00000E+00         0.00000E+00        -0.16280E+08
 
   -0.16179E+08         0.37722E+05         0.00000E+00
    0.37722E+05        -0.19599E+07         0.00000E+00
    0.00000E+00         0.00000E+00        -0.16225E+08
 
   -0.16125E+08         0.37867E+05         0.00000E+00
    0.37867E+05        -0.19599E+07         0.00000E+00
    0.00000E+00         0.00000E+00        -0.16169E+08
 
   -0.16071E+08         0.37996E+05         0.00000E+00
    0.37996E+05        -0.19599E+07         0.00000E+00
    0.00000E+00         0.00000E+00        -0.16112E+08
 
   -0.16016E+08         0.38107E+05         0.00000E+00
    0.38107E+05        -0.19599E+07         0.00000E+00
    0.00000E+00         0.00000E+00        -0.16056E+08
 
   -0.15962E+08         0.38198E+05         0.00000E+00
    0.38198E+05        -0.19599E+07         0.00000E+00
    0.00000E+00         0.00000E+00        -0.15998E+08
 
   -0.15907E+08         0.38270E+05         0.00000E+00
    0.38270E+05        -0.19599E+07         0.00000E+00
    0.00000E+00         0.00000E+00        -0.15941E+08
 
   -0.15852E+08         0.38319E+05         0.00000E+00
    0.38319E+05        -0.19599E+07         0.00000E+00
    0.00000E+00         0.00000E+00        -0.15883E+08
 
   -0.15797E+08         0.38344E+05         0.00000E+00
    0.38344E+05        -0.19600E+07         0.00000E+00
    0.00000E+00         0.00000E+00        -0.15825E+08
 
   -0.15743E+08         0.38343E+05         0.00000E+00
    0.38343E+05        -0.19600E+07         0.00000E+00
    0.00000E+00         0.00000E+00        -0.15767E+08
 
   -0.15688E+08         0.38313E+05         0.00000E+00
    0.38313E+05        -0.19600E+07         0.00000E+00
    0.00000E+00         0.00000E+00        -0.15708E+08
 
   -0.15633E+08         0.38253E+05         0.00000E+00
    0.38253E+05        -0.19600E+07         0.00000E+00
    0.00000E+00         0.00000E+00        -0.15649E+08
 
   -0.15578E+08         0.38159E+05         0.00000E+00
    0.38159E+05        -0.19600E+07         0.00000E+00
    0.00000E+00         0.00000E+00        -0.15589E+08
 
   -0.15524E+08         0.38029E+05         0.00000E+00
    0.38029E+05        -0.19600E+07         0.00000E+00
    0.00000E+00         0.00000E+00        -0.15530E+08
 
   -0.15470E+08         0.37859E+05         0.00000E+00
    0.37859E+05        -0.19600E+07         0.00000E+00
    0.00000E+00         0.00000E+00        -0.15470E+08
 
   -0.15416E+08         0.37645E+05         0.00000E+00
    0.37645E+05        -0.19600E+07         0.00000E+00
    0.00000E+00         0.00000E+00        -0.15410E+08
 
   -0.15362E+08         0.37382E+05         0.00000E+00
    0.37382E+05        -0.19601E+07         0.00000E+00
    0.00000E+00         0.00000E+00        -0.15350E+08
 
   -0.15309E+08         0.37066E+05         0.00000E+00
    0.37066E+05        -0.19601E+07         0.00000E+00
    0.00000E+00         0.00000E+00        -0.15290E+08
 
   -0.15256E+08         0.36691E+05         0.00000E+00
    0.36691E+05        -0.19601E+07         0.00000E+00
    0.00000E+00         0.00000E+00        -0.15230E+08
 
   -0.15204E+08         0.36248E+05         0.00000E+00
    0.36248E+05        -0.19601E+07         0.00000E+00
    0.00000E+00         0.00000E+00        -0.15169E+08
 
   -0.15152E+08         0.35731E+05         0.00000E+00
    0.35731E+05        -0.19602E+07         0.00000E+00
    0.00000E+00         0.00000E+00        -0.15109E+08
 
   -0.15101E+08         0.35128E+05         0.00000E+00
    0.35128E+05        -0.19602E+07         0.00000E+00
    0.00000E+00         0.00000E+00        -0.15048E+08
 
   -0.15051E+08         0.34427E+05         0.00000E+00
    0.34427E+05        -0.19602E+07         0.00000E+00
    0.00000E+00         0.00000E+00        -0.14988E+08
 
   -0.15003E+08         0.33615E+05         0.00000E+00
    0.33615E+05        -0.19603E+07         0.00000E+00
    0.00000E+00         0.00000E+00        -0.14927E+08
 
   -0.14955E+08         0.32674E+05         0.00000E+00
    0.32674E+05        -0.19603E+07         0.00000E+00
    0.00000E+00         0.00000E+00        -0.14867E+08
 
   -0.14909E+08         0.31585E+05         0.00000E+00
    0.31585E+05        -0.19604E+07         0.00000E+00
    0.00000E+00         0.00000E+00        -0.14807E+08
 
   -0.14865E+08         0.30325E+05         0.00000E+00
    0.30325E+05        -0.19604E+07         0.00000E+00
    0.00000E+00         0.00000E+00        -0.14748E+08
 
   -0.14822E+08         0.28867E+05         0.00000E+00
    0.28867E+05        -0.19605E+07         0.00000E+00
    0.00000E+00         0.00000E+00        -0.14688E+08
 
   -0.14782E+08         0.27182E+05         0.00000E+00
    0.27182E+05        -0.19606E+07         0.00000E+00
    0.00000E+00         0.00000E+00        -0.14630E+08
 
   -0.14744E+08         0.25236E+05         0.00000E+00
    0.25236E+05        -0.19607E+07         0.00000E+00
    0.00000E+00         0.00000E+00        -0.14571E+08
 
   -0.14709E+08         0.22996E+05         0.00000E+00
    0.22996E+05        -0.19608E+07         0.00000E+00
    0.00000E+00         0.00000E+00        -0.14514E+08
 
   -0.14677E+08         0.20427E+05         0.00000E+00
    0.20427E+05        -0.19609E+07         0.00000E+00
    0.00000E+00         0.00000E+00        -0.14457E+08
 
   -0.14649E+08         0.17495E+05         0.00000E+00
    0.17495E+05        -0.19610E+07         0.00000E+00
    0.00000E+00         0.00000E+00        -0.14402E+08
 
   -0.14625E+08         0.14174E+05         0.00000E+00
    0.14174E+05        -0.19612E+07         0.00000E+00
    0.00000E+00         0.00000E+00        -0.14347E+08
 
   -0.14606E+08         0.10447E+05         0.00000E+00
    0.10447E+05        -0.19613E+07         0.00000E+00
    0.00000E+00         0.00000E+00        -0.14294E+08
 
   -0.14592E+08         0.63164E+04         0.00000E+00
    0.63164E+04        -0.19615E+07         0.00000E+00
    0.00000E+00         0.00000E+00        -0.14242E+08
 
   -0.14584E+08         0.18040E+04         0.00000E+00
    0.18040E+04        -0.19616E+07         0.00000E+00
    0.00000E+00         0.00000E+00        -0.14192E+08
 
   -0.14581E+08        -0.30315E+04         0.00000E+00
   -0.30315E+04        -0.19617E+07         0.00000E+00
    0.00000E+00         0.00000E+00        -0.14143E+08
 
   -0.14585E+08        -0.81039E+04         0.00000E+00
   -0.81039E+04        -0.19618E+07         0.00000E+00
    0.00000E+00         0.00000E+00        -0.14097E+08
 
   -0.14595E+08        -0.13260E+05         0.00000E+00
   -0.13260E+05        -0.19619E+07         0.00000E+00
    0.00000E+00         0.00000E+00        -0.14052E+08
 
   -0.14612E+08        -0.18344E+05         0.00000E+00
   -0.18344E+05        -0.19618E+07         0.00000E+00
    0.00000E+00         0.00000E+00        -0.14008E+08
 
   -0.14633E+08        -0.23021E+05         0.00000E+00
   -0.23021E+05        -0.19618E+07         0.00000E+00
    0.00000E+00         0.00000E+00        -0.13967E+08
 
   -0.14658E+08        -0.26778E+05         0.00000E+00
   -0.26778E+05        -0.19613E+07         0.00000E+00
    0.00000E+00         0.00000E+00        -0.13926E+08
 
   -0.14683E+08        -0.29057E+05         0.00000E+00
   -0.29057E+05        -0.19621E+07         0.00000E+00
    0.00000E+00         0.00000E+00        -0.13885E+08
 
   -0.14694E+08        -0.16712E+05         0.00000E+00
   -0.16712E+05        -0.19543E+07         0.00000E+00
    0.00000E+00         0.00000E+00        -0.13838E+08
 
   -0.18049E+08        -0.95243E+04         0.00000E+00
   -0.95243E+04        -0.19599E+07         0.00000E+00
    0.00000E+00         0.00000E+00        -0.18588E+08
 
   -0.18059E+08        -0.13681E+05         0.00000E+00
   -0.13681E+05        -0.19591E+07         0.00000E+00
    0.00000E+00         0.00000E+00        -0.18563E+08
 
   -0.18077E+08        -0.11530E+05         0.00000E+00
   -0.11530E+05        -0.19596E+07         0.00000E+00
    0.00000E+00         0.00000E+00        -0.18541E+08
 
   -0.18094E+08        -0.96621E+04         0.00000E+00
   -0.96621E+04        -0.19593E+07         0.00000E+00
    0.00000E+00         0.00000E+00        -0.18518E+08
 
   -0.18107E+08        -0.73154E+04         0.00000E+00
   -0.73154E+04        -0.19594E+07         0.00000E+00
    0.00000E+00         0.00000E+00        -0.18494E+08
 
   -0.18117E+08        -0.49302E+04         0.00000E+00
   -0.49302E+04        -0.19594E+07         0.00000E+00
    0.00000E+00         0.00000E+00        -0.18469E+08
 
   -0.18122E+08        -0.25280E+04         0.00000E+00
   -0.25280E+04        -0.19594E+07         0.00000E+00
    0.00000E+00         0.00000E+00        -0.18443E+08
 
   -0.18123E+08        -0.18920E+03         0.00000E+00
   -0.18920E+03        -0.19594E+07         0.00000E+00
    0.00000E+00         0.00000E+00        -0.18415E+08
 
   -0.18120E+08         0.20361E+04         0.00000E+00
    0.20361E+04        -0.19595E+07         0.00000E+00
    0.00000E+00         0.00000E+00        -0.18386E+08
 
   -0.18112E+08         0.41150E+04         0.00000E+00
    0.41150E+04        -0.19595E+07         0.00000E+00
    0.00000E+00         0.00000E+00        -0.18355E+08
 
   -0.18101E+08         0.60261E+04         0.00000E+00
    0.60261E+04        -0.19596E+07         0.00000E+00
    0.00000E+00         0.00000E+00        -0.18324E+08
 
   -0.18087E+08         0.77625E+04         0.00000E+00
    0.77625E+04        -0.19596E+07         0.00000E+00
    0.00000E+00         0.00000E+00        -0.18291E+08
 
   -0.18070E+08         0.93258E+04         0.00000E+00
    0.93258E+04        -0.19596E+07         0.00000E+00
    0.00000E+00         0.00000E+00        -0.18258E+08
 
   -0.18049E+08         0.10725E+05         0.00000E+00
    0.10725E+05        -0.19597E+07         0.00000E+00
    0.00000E+00         0.00000E+00        -0.18223E+08
 
   -0.18026E+08         0.11972E+05         0.00000E+00
    0.11972E+05        -0.19597E+07         0.00000E+00
    0.00000E+00         0.00000E+00        -0.18187E+08
 
   -0.18001E+08         0.13082E+05         0.00000E+00
    0.13082E+05        -0.19597E+07         0.00000E+00
    0.00000E+00         0.00000E+00        -0.18151E+08
 
   -0.17974E+08         0.14072E+05         0.00000E+00
    0.14072E+05        -0.19598E+07         0.00000E+00
    0.00000E+00         0.00000E+00        -0.18114E+08
 
   -0.17945E+08         0.14956E+05         0.00000E+00
    0.14956E+05        -0.19598E+07         0.00000E+00
    0.00000E+00         0.00000E+00        -0.18076E+08
 
   -0.17914E+08         0.15748E+05         0.00000E+00
    0.15748E+05        -0.19598E+07         0.00000E+00
    0.00000E+00         0.00000E+00        -0.18037E+08
 
   -0.17882E+08         0.16462E+05         0.00000E+00
    0.16462E+05        -0.19598E+07         0.00000E+00
    0.00000E+00         0.00000E+00        -0.17998E+08
 
   -0.17848E+08         0.17110E+05         0.00000E+00
    0.17110E+05        -0.19598E+07         0.00000E+00
    0.00000E+00         0.00000E+00        -0.17959E+08
 
   -0.17813E+08         0.17699E+05         0.00000E+00
    0.17699E+05        -0.19598E+07         0.00000E+00
    0.00000E+00         0.00000E+00        -0.17918E+08
 
   -0.17777E+08         0.18240E+05         0.00000E+00
    0.18240E+05        -0.19599E+07         0.00000E+00
    0.00000E+00         0.00000E+00        -0.17878E+08
 
   -0.17740E+08         0.18740E+05         0.00000E+00
    0.18740E+05        -0.19599E+07         0.00000E+00
    0.00000E+00         0.00000E+00        -0.17836E+08
 
   -0.17702E+08         0.19204E+05         0.00000E+00
    0.19204E+05        -0.19599E+07         0.00000E+00
    0.00000E+00         0.00000E+00        -0.17795E+08
 
   -0.17664E+08         0.19637E+05         0.00000E+00
    0.19637E+05        -0.19599E+07         0.00000E+00
    0.00000E+00         0.00000E+00        -0.17752E+08
 
   -0.17624E+08         0.20044E+05         0.00000E+00
    0.20044E+05        -0.19599E+07         0.00000E+00
    0.00000E+00         0.00000E+00        -0.17710E+08
 
   -0.17584E+08         0.20427E+05         0.00000E+00
    0.20427E+05        -0.19599E+07         0.00000E+00
    0.00000E+00         0.00000E+00        -0.17667E+08
 
   -0.17542E+08         0.20791E+05         0.00000E+00
    0.20791E+05        -0.19599E+07         0.00000E+00
    0.00000E+00         0.00000E+00        -0.17623E+08
 
   -0.17500E+08         0.21136E+05         0.00000E+00
    0.21136E+05        -0.19599E+07         0.00000E+00
    0.00000E+00         0.00000E+00        -0.17579E+08
 
   -0.17458E+08         0.21466E+05         0.00000E+00
    0.21466E+05        -0.19599E+07         0.00000E+00
    0.00000E+00         0.00000E+00        -0.17534E+08
 
   -0.17415E+08         0.21781E+05         0.00000E+00
    0.21781E+05        -0.19599E+07         0.00000E+00
    0.00000E+00         0.00000E+00        -0.17489E+08
 
   -0.17371E+08         0.22084E+05         0.00000E+00
    0.22084E+05        -0.19599E+07         0.00000E+00
    0.00000E+00         0.00000E+00        -0.17444E+08
 
   -0.17326E+08         0.22375E+05         0.00000E+00
    0.22375E+05        -0.19599E+07         0.00000E+00
    0.00000E+00         0.00000E+00        -0.17398E+08
 
   -0.17281E+08         0.22655E+05         0.00000E+00
    0.22655E+05        -0.19599E+07         0.00000E+00
    0.00000E+00         0.00000E+00        -0.17352E+08
 
   -0.17236E+08         0.22926E+05         0.00000E+00
    0.22926E+05        -0.19599E+07         0.00000E+00
    0.00000E+00         0.00000E+00        -0.17305E+08
 
   -0.17190E+08         0.23188E+05         0.00000E+00
    0.23188E+05        -0.19599E+07         0.00000E+00
    0.00000E+00         0.00000E+00        -0.17258E+08
 
   -0.17143E+08         0.23442E+05         0.00000E+00
    0.23442E+05        -0.19599E+07         0.00000E+00
    0.00000E+00         0.00000E+00        -0.17210E+08
 
   -0.17096E+08         0.23688E+05         0.00000E+00
    0.23688E+05        -0.19599E+07         0.00000E+00
    0.00000E+00         0.00000E+00        -0.17162E+08
 
   -0.17048E+08         0.23926E+05         0.00000E+00
    0.23926E+05        -0.19599E+07         0.00000E+00
    0.00000E+00         0.00000E+00        -0.17114E+08
 
   -0.17000E+08         0.24158E+05         0.00000E+00
    0.24158E+05        -0.19599E+07         0.00000E+00
    0.00000E+00         0.00000E+00        -0.17065E+08
 
   -0.16952E+08         0.24382E+05         0.00000E+00
    0.24382E+05        -0.19599E+07         0.00000E+00
    0.00000E+00         0.00000E+00        -0.17016E+08
 
   -0.16903E+08         0.24601E+05         0.00000E+00
    0.24601E+05        -0.19599E+07         0.00000E+00
    0.00000E+00         0.00000E+00        -0.16966E+08
 
   -0.16853E+08         0.24813E+05         0.00000E+00
    0.24813E+05        -0.19599E+07         0.00000E+00
    0.00000E+00         0.00000E+00        -0.16916E+08
 
   -0.16803E+08         0.25018E+05         0.00000E+00
    0.25018E+05        -0.19599E+07         0.00000E+00
    0.00000E+00         0.00000E+00        -0.16865E+08
 
   -0.16753E+08         0.25218E+05         0.00000E+00
    0.25218E+05        -0.19599E+07         0.00000E+00
    0.00000E+00         0.00000E+00        -0.16814E+08
 
   -0.16703E+08         0.25411E+05         0.00000E+00
    0.25411E+05        -0.19599E+07         0.00000E+00
    0.00000E+00         0.00000E+00        -0.16763E+08
 
   -0.16652E+08         0.25597E+05         0.00000E+00
    0.25597E+05        -0.19599E+07         0.00000E+00
    0.00000E+00         0.00000E+00        -0.16711E+08
 
   -0.16600E+08         0.25777E+05         0.00000E+00
    0.25777E+05        -0.19599E+07         0.00000E+00
    0.00000E+00         0.00000E+00        -0.16658E+08
 
   -0.16548E+08         0.25950E+05         0.00000E+00
    0.25950E+05        -0.19599E+07         0.00000E+00
    0.00000E+00         0.00000E+00        -0.16606E+08
 
   -0.16496E+08         0.26116E+05         0.00000E+00
    0.26116E+05        -0.19599E+07         0.00000E+00
    0.00000E+00         0.00000E+00        -0.16552E+08
 
   -0.16444E+08         0.26275E+05         0.00000E+00
    0.26275E+05        -0.19599E+07         0.00000E+00
    0.00000E+00         0.00000E+00        -0.16499E+08
 
   -0.16391E+08         0.26426E+05         0.00000E+00
    0.26426E+05        -0.19599E+07         0.00000E+00
    0.00000E+00         0.00000E+00        -0.16445E+08
 
   -0.16338E+08         0.26568E+05         0.00000E+00
    0.26568E+05        -0.19599E+07         0.00000E+00
    0.00000E+00         0.00000E+00        -0.16390E+08
 
   -0.16285E+08         0.26702E+05         0.00000E+00
    0.26702E+05        -0.19599E+07         0.00000E+00
    0.00000E+00         0.00000E+00        -0.16335E+08
 
   -0.16231E+08         0.26826E+05         0.00000E+00
    0.26826E+05        -0.19599E+07         0.00000E+00
    0.00000E+00         0.00000E+00        -0.16280E+08
 
   -0.16178E+08         0.26940E+05         0.00000E+00
    0.26940E+05        -0.19599E+07         0.00000E+00
    0.00000E+00         0.00000E+00        -0.16224E+08
 
   -0.16124E+08         0.27043E+05         0.00000E+00
    0.27043E+05        -0.19599E+07         0.00000E+00
    0.00000E+00         0.00000E+00        -0.16168E+08
 
   -0.16069E+08         0.27134E+05         0.00000E+00
    0.27134E+05        -0.19599E+07         0.00000E+00
    0.00000E+00         0.00000E+00        -0.16112E+08
 
   -0.16015E+08         0.27213E+05         0.00000E+00
    0.27213E+05        -0.19599E+07         0.00000E+00
    0.00000E+00         0.00000E+00        -0.16055E+08
 
   -0.15961E+08         0.27278E+05         0.00000E+00
    0.27278E+05        -0.19599E+07         0.00000E+00
    0.00000E+00         0.00000E+00        -0.15998E+08
 
   -0.15906E+08         0.27328E+05         0.00000E+00
    0.27328E+05        -0.19599E+07         0.00000E+00
    0.00000E+00         0.00000E+00        -0.15941E+08
 
   -0.15851E+08         0.27363E+05         0.00000E+00
    0.27363E+05        -0.19599E+07         0.00000E+00
    0.00000E+00         0.00000E+00        -0.15883E+08
 
   -0.15796E+08         0.27380E+05         0.00000E+00
    0.27380E+05        -0.19600E+07         0.00000E+00
    0.00000E+00         0.00000E+00        -0.15825E+08
 
   -0.15742E+08         0.27378E+05         0.00000E+00
    0.27378E+05        -0.19600E+07         0.00000E+00
    0.00000E+00         0.00000E+00        -0.15766E+08
 
   -0.15687E+08         0.27356E+05         0.00000E+00
    0.27356E+05        -0.19600E+07         0.00000E+00
    0.00000E+00         0.00000E+00        -0.15707E+08
 
   -0.15632E+08         0.27313E+05         0.00000E+00
    0.27313E+05        -0.19600E+07         0.00000E+00
    0.00000E+00         0.00000E+00        -0.15648E+08
 
   -0.15577E+08         0.27245E+05         0.00000E+00
    0.27245E+05        -0.19600E+07         0.00000E+00
    0.00000E+00         0.00000E+00        -0.15589E+08
 
   -0.15523E+08         0.27151E+05         0.00000E+00
    0.27151E+05        -0.19600E+07         0.00000E+00
    0.00000E+00         0.00000E+00        -0.15530E+08
 
   -0.15469E+08         0.27029E+05         0.00000E+00
    0.27029E+05        -0.19600E+07         0.00000E+00
    0.00000E+00         0.00000E+00        -0.15470E+08
 
   -0.15415E+08         0.26876E+05         0.00000E+00
    0.26876E+05        -0.19600E+07         0.00000E+00
    0.00000E+00         0.00000E+00        -0.15410E+08
 
   -0.15361E+08         0.26687E+05         0.00000E+00
    0.26687E+05        -0.19600E+07         0.00000E+00
    0.00000E+00         0.00000E+00        -0.15350E+08
 
   -0.15308E+08         0.26461E+05         0.00000E+00
    0.26461E+05        -0.19600E+07         0.00000E+00
    0.00000E+00         0.00000E+00        -0.15290E+08
 
   -0.15255E+08         0.26192E+05         0.00000E+00
    0.26192E+05        -0.19600E+07         0.00000E+00
    0.00000E+00         0.00000E+00        -0.15229E+08
 
   -0.15203E+08         0.25875E+05         0.00000E+00
    0.25875E+05        -0.19600E+07         0.00000E+00
    0.00000E+00         0.00000E+00        -0.15169E+08
 
   -0.15152E+08         0.25505E+05         0.00000E+00
    0.25505E+05        -0.19601E+07         0.00000E+00
    0.00000E+00         0.00000E+00        -0.15108E+08
 
   -0.15101E+08         0.25073E+05         0.00000E+00
    0.25073E+05        -0.19601E+07         0.00000E+00
    0.00000E+00         0.00000E+00        -0.15048E+08
 
   -0.15051E+08         0.24571E+05         0.00000E+00
    0.24571E+05        -0.19601E+07         0.00000E+00
    0.00000E+00         0.00000E+00        -0.14988E+08
 
   -0.15002E+08         0.23989E+05         0.00000E+00
    0.23989E+05        -0.19601E+07         0.00000E+00
    0.00000E+00         0.00000E+00        -0.14927E+08
 
   -0.14955E+08         0.23315E+05         0.00000E+00
    0.23315E+05        -0.19601E+07         0.00000E+00
    0.00000E+00         0.00000E+00        -0.14867E+08
 
   -0.14909E+08         0.22533E+05         0.00000E+00
    0.22533E+05        -0.19602E+07         0.00000E+00
    0.00000E+00         0.00000E+00        -0.14807E+08
 
   -0.14865E+08         0.21628E+05         0.00000E+00
    0.21628E+05        -0.19602E+07         0.00000E+00
    0.00000E+00         0.00000E+00        -0.14748E+08
 
   -0.14822E+08         0.20579E+05         0.00000E+00
    0.20579E+05        -0.19602E+07         0.00000E+00
    0.00000E+00         0.00000E+00        -0.14688E+08
 
   -0.14782E+08         0.19364E+05         0.00000E+00
    0.19364E+05        -0.19603E+07         0.00000E+00
    0.00000E+00         0.00000E+00        -0.14630E+08
 
   -0.14744E+08         0.17960E+05         0.00000E+00
    0.17960E+05        -0.19603E+07         0.00000E+00
    0.00000E+00         0.00000E+00        -0.14572E+08
 
   -0.14710E+08         0.16340E+05         0.00000E+00
    0.16340E+05        -0.19604E+07         0.00000E+00
    0.00000E+00         0.00000E+00        -0.14514E+08
 
   -0.14678E+08         0.14478E+05         0.00000E+00
    0.14478E+05        -0.19604E+07         0.00000E+00
    0.00000E+00         0.00000E+00        -0.14458E+08
 
   -0.14651E+08         0.12349E+05         0.00000E+00
    0.12349E+05        -0.19605E+07         0.00000E+00
    0.00000E+00         0.00000E+00        -0.14402E+08
 
   -0.14628E+08         0.99315E+04         0.00000E+00
    0.99315E+04        -0.19606E+07         0.00000E+00
    0.00000E+00         0.00000E+00        -0.14348E+08
 
   -0.14609E+08         0.72116E+04         0.00000E+00
    0.72116E+04        -0.19607E+07         0.00000E+00
    0.00000E+00         0.00000E+00        -0.14295E+08
 
   -0.14596E+08         0.41881E+04         0.00000E+00
    0.41881E+04        -0.19607E+07         0.00000E+00
    0.00000E+00         0.00000E+00        -0.14243E+08
 
   -0.14589E+08         0.87453E+03         0.00000E+00
    0.87453E+03        -0.19608E+07         0.00000E+00
    0.00000E+00         0.00000E+00        -0.14193E+08
 
   -0.14589E+08        -0.26907E+04         0.00000E+00
   -0.26907E+04        -0.19609E+07         0.00000E+00
    0.00000E+00         0.00000E+00        -0.14145E+08
 
   -0.14595E+08        -0.64486E+04         0.00000E+00
   -0.64486E+04        -0.19609E+07         0.00000E+00
    0.00000E+00         0.00000E+00        -0.14099E+08
 
   -0.14608E+08        -0.10311E+05         0.00000E+00
   -0.10311E+05        -0.19610E+07         0.00000E+00
    0.00000E+00         0.00000E+00        -0.14055E+08
 
   -0.14627E+08        -0.14136E+05         0.00000E+00
   -0.14136E+05        -0.19609E+07         0.00000E+00
    0.00000E+00         0.00000E+00        -0.14013E+08
 
   -0.14653E+08        -0.17885E+05         0.00000E+00
   -0.17885E+05        -0.19611E+07         0.00000E+00
    0.00000E+00         0.00000E+00        -0.13972E+08
 
   -0.14683E+08        -0.20795E+05         0.00000E+00
   -0.20795E+05        -0.19606E+07         0.00000E+00
    0.00000E+00         0.00000E+00        -0.13933E+08
 
   -0.14716E+08        -0.24179E+05         0.00000E+00
   -0.24179E+05        -0.19614E+07         0.00000E+00
    0.00000E+00         0.00000E+00        -0.13895E+08
 
   -0.14735E+08        -0.16643E+05         0.00000E+00
   -0.16643E+05        -0.19602E+07         0.00000E+00
    0.00000E+00         0.00000E+00        -0.13852E+08
 
   -0.18021E+08        -0.91022E+04         0.00000E+00
   -0.91022E+04        -0.19568E+07         0.00000E+00
    0.00000E+00         0.00000E+00        -0.18579E+08
 
   -0.18040E+08        -0.94548E+04         0.00000E+00
   -0.94548E+04        -0.19603E+07         0.00000E+00
    0.00000E+00         0.00000E+00        -0.18558E+08
 
   -0.18063E+08        -0.76117E+04         0.00000E+00
   -0.76117E+04        -0.19597E+07         0.00000E+00
    0.00000E+00         0.00000E+00        -0.18537E+08
 
   -0.18082E+08        -0.64021E+04         0.00000E+00
   -0.64021E+04        -0.19598E+07         0.00000E+00
    0.00000E+00         0.00000E+00        -0.18515E+08
 
   -0.18098E+08        -0.47889E+04         0.00000E+00
   -0.47889E+04        -0.19598E+07         0.00000E+00
    0.00000E+00         0.00000E+00        -0.18492E+08
 
   -0.18109E+08        -0.32985E+04         0.00000E+00
   -0.32985E+04        -0.19598E+07         0.00000E+00
    0.00000E+00         0.00000E+00        -0.18467E+08
 
   -0.18116E+08        -0.17695E+04         0.00000E+00
   -0.17695E+04        -0.19598E+07         0.00000E+00
    0.00000E+00         0.00000E+00        -0.18441E+08
 
   -0.18118E+08        -0.31598E+03         0.00000E+00
   -0.31598E+03        -0.19598E+07         0.00000E+00
    0.00000E+00         0.00000E+00        -0.18414E+08
 
   -0.18116E+08         0.10686E+04         0.00000E+00
    0.10686E+04        -0.19598E+07         0.00000E+00
    0.00000E+00         0.00000E+00        -0.18385E+08
 
   -0.18109E+08         0.23520E+04         0.00000E+00
    0.23520E+04        -0.19598E+07         0.00000E+00
    0.00000E+00         0.00000E+00        -0.18355E+08
 
   -0.18099E+08         0.35291E+04         0.00000E+00
    0.35291E+04        -0.19599E+07         0.00000E+00
    0.00000E+00         0.00000E+00        -0.18323E+08
 
   -0.18085E+08         0.45943E+04         0.00000E+00
    0.45943E+04        -0.19599E+07         0.00000E+00
    0.00000E+00         0.00000E+00        -0.18291E+08
 
   -0.18068E+08         0.55507E+04         0.00000E+00
    0.55507E+04        -0.19599E+07         0.00000E+00
    0.00000E+00         0.00000E+00        -0.18257E+08
 
   -0.18048E+08         0.64038E+04         0.00000E+00
    0.64038E+04        -0.19599E+07         0.00000E+00
    0.00000E+00         0.00000E+00        -0.18222E+08
 
   -0.18025E+08         0.71626E+04         0.00000E+00
    0.71626E+04        -0.19599E+07         0.00000E+00
    0.00000E+00         0.00000E+00        -0.18187E+08
 
   -0.18000E+08         0.78365E+04         0.00000E+00
    0.78365E+04        -0.19599E+07         0.00000E+00
    0.00000E+00         0.00000E+00        -0.18151E+08
 
   -0.17973E+08         0.84357E+04         0.00000E+00
    0.84357E+04        -0.19599E+07         0.00000E+00
    0.00000E+00         0.00000E+00        -0.18113E+08
 
   -0.17944E+08         0.89698E+04         0.00000E+00
    0.89698E+04        -0.19599E+07         0.00000E+00
    0.00000E+00         0.00000E+00        -0.18076E+08
 
   -0.17913E+08         0.94479E+04         0.00000E+00
    0.94479E+04        -0.19599E+07         0.00000E+00
    0.00000E+00         0.00000E+00        -0.18037E+08
 
   -0.17881E+08         0.98781E+04         0.00000E+00
    0.98781E+04        -0.19599E+07         0.00000E+00
    0.00000E+00         0.00000E+00        -0.17998E+08
 
   -0.17847E+08         0.10267E+05         0.00000E+00
    0.10267E+05        -0.19599E+07         0.00000E+00
    0.00000E+00         0.00000E+00        -0.17958E+08
 
   -0.17812E+08         0.10622E+05         0.00000E+00
    0.10622E+05        -0.19599E+07         0.00000E+00
    0.00000E+00         0.00000E+00        -0.17918E+08
 
   -0.17776E+08         0.10947E+05         0.00000E+00
    0.10947E+05        -0.19599E+07         0.00000E+00
    0.00000E+00         0.00000E+00        -0.17877E+08
 
   -0.17739E+08         0.11247E+05         0.00000E+00
    0.11247E+05        -0.19599E+07         0.00000E+00
    0.00000E+00         0.00000E+00        -0.17836E+08
 
   -0.17701E+08         0.11525E+05         0.00000E+00
    0.11525E+05        -0.19599E+07         0.00000E+00
    0.00000E+00         0.00000E+00        -0.17794E+08
 
   -0.17663E+08         0.11785E+05         0.00000E+00
    0.11785E+05        -0.19599E+07         0.00000E+00
    0.00000E+00         0.00000E+00        -0.17752E+08
 
   -0.17623E+08         0.12029E+05         0.00000E+00
    0.12029E+05        -0.19599E+07         0.00000E+00
    0.00000E+00         0.00000E+00        -0.17709E+08
 
   -0.17582E+08         0.12259E+05         0.00000E+00
    0.12259E+05        -0.19599E+07         0.00000E+00
    0.00000E+00         0.00000E+00        -0.17666E+08
 
   -0.17541E+08         0.12477E+05         0.00000E+00
    0.12477E+05        -0.19599E+07         0.00000E+00
    0.00000E+00         0.00000E+00        -0.17623E+08
 
   -0.17499E+08         0.12684E+05         0.00000E+00
    0.12684E+05        -0.19599E+07         0.00000E+00
    0.00000E+00         0.00000E+00        -0.17579E+08
 
   -0.17457E+08         0.12882E+05         0.00000E+00
    0.12882E+05        -0.19599E+07         0.00000E+00
    0.00000E+00         0.00000E+00        -0.17534E+08
 
   -0.17413E+08         0.13071E+05         0.00000E+00
    0.13071E+05        -0.19599E+07         0.00000E+00
    0.00000E+00         0.00000E+00        -0.17489E+08
 
   -0.17370E+08         0.13253E+05         0.00000E+00
    0.13253E+05        -0.19599E+07         0.00000E+00
    0.00000E+00         0.00000E+00        -0.17444E+08
 
   -0.17325E+08         0.13427E+05         0.00000E+00
    0.13427E+05        -0.19599E+07         0.00000E+00
    0.00000E+00         0.00000E+00        -0.17398E+08
 
   -0.17280E+08         0.13595E+05         0.00000E+00
    0.13595E+05        -0.19599E+07         0.00000E+00
    0.00000E+00         0.00000E+00        -0.17352E+08
 
   -0.17234E+08         0.13758E+05         0.00000E+00
    0.13758E+05        -0.19599E+07         0.00000E+00
    0.00000E+00         0.00000E+00        -0.17305E+08
 
   -0.17188E+08         0.13915E+05         0.00000E+00
    0.13915E+05        -0.19599E+07         0.00000E+00
    0.00000E+00         0.00000E+00        -0.17258E+08
 
   -0.17142E+08         0.14067E+05         0.00000E+00
    0.14067E+05        -0.19599E+07         0.00000E+00
    0.00000E+00         0.00000E+00        -0.17210E+08
 
   -0.17095E+08         0.14214E+05         0.00000E+00
    0.14214E+05        -0.19599E+07         0.00000E+00
    0.00000E+00         0.00000E+00        -0.17162E+08
 
   -0.17047E+08         0.14357E+05         0.00000E+00
    0.14357E+05        -0.19599E+07         0.00000E+00
    0.00000E+00         0.00000E+00        -0.17114E+08
 
   -0.16999E+08         0.14496E+05         0.00000E+00
    0.14496E+05        -0.19599E+07         0.00000E+00
    0.00000E+00         0.00000E+00        -0.17065E+08
 
   -0.16950E+08         0.14631E+05         0.00000E+00
    0.14631E+05        -0.19599E+07         0.00000E+00
    0.00000E+00         0.00000E+00        -0.17015E+08
 
   -0.16901E+08         0.14762E+05         0.00000E+00
    0.14762E+05        -0.19599E+07         0.00000E+00
    0.00000E+00         0.00000E+00        -0.16966E+08
 
   -0.16852E+08         0.14888E+05         0.00000E+00
    0.14888E+05        -0.19599E+07         0.00000E+00
    0.00000E+00         0.00000E+00        -0.16915E+08
 
   -0.16802E+08         0.15012E+05         0.00000E+00
    0.15012E+05        -0.19599E+07         0.00000E+00
    0.00000E+00         0.00000E+00        -0.16865E+08
 
   -0.16752E+08         0.15131E+05         0.00000E+00
    0.15131E+05        -0.19599E+07         0.00000E+00
    0.00000E+00         0.00000E+00        -0.16814E+08
 
   -0.16701E+08         0.15247E+05         0.00000E+00
    0.15247E+05        -0.19599E+07         0.00000E+00
    0.00000E+00         0.00000E+00        -0.16762E+08
 
   -0.16650E+08         0.15358E+05         0.00000E+00
    0.15358E+05        -0.19599E+07         0.00000E+00
    0.00000E+00         0.00000E+00        -0.16710E+08
 
   -0.16599E+08         0.15466E+05         0.00000E+00
    0.15466E+05        -0.19599E+07         0.00000E+00
    0.00000E+00         0.00000E+00        -0.16658E+08
 
   -0.16547E+08         0.15570E+05         0.00000E+00
    0.15570E+05        -0.19599E+07         0.00000E+00
    0.00000E+00         0.00000E+00        -0.16605E+08
 
   -0.16495E+08         0.15669E+05         0.00000E+00
    0.15669E+05        -0.19599E+07         0.00000E+00
    0.00000E+00         0.00000E+00        -0.16552E+08
 
   -0.16443E+08         0.15764E+05         0.00000E+00
    0.15764E+05        -0.19599E+07         0.00000E+00
    0.00000E+00         0.00000E+00        -0.16498E+08
 
   -0.16390E+08         0.15854E+05         0.00000E+00
    0.15854E+05        -0.19599E+07         0.00000E+00
    0.00000E+00         0.00000E+00        -0.16444E+08
 
   -0.16337E+08         0.15939E+05         0.00000E+00
    0.15939E+05        -0.19599E+07         0.00000E+00
    0.00000E+00         0.00000E+00        -0.16390E+08
 
   -0.16284E+08         0.16019E+05         0.00000E+00
    0.16019E+05        -0.19599E+07         0.00000E+00
    0.00000E+00         0.00000E+00        -0.16335E+08
 
   -0.16230E+08         0.16093E+05         0.00000E+00
    0.16093E+05        -0.19599E+07         0.00000E+00
    0.00000E+00         0.00000E+00        -0.16280E+08
 
   -0.16176E+08         0.16161E+05         0.00000E+00
    0.16161E+05        -0.19599E+07         0.00000E+00
    0.00000E+00         0.00000E+00        -0.16224E+08
 
   -0.16122E+08         0.16223E+05         0.00000E+00
    0.16223E+05        -0.19599E+07         0.00000E+00
    0.00000E+00         0.00000E+00        -0.16168E+08
 
   -0.16068E+08         0.16277E+05         0.00000E+00
    0.16277E+05        -0.19599E+07         0.00000E+00
    0.00000E+00         0.00000E+00        -0.16112E+08
 
   -0.16014E+08         0.16324E+05         0.00000E+00
    0.16324E+05        -0.19599E+07         0.00000E+00
    0.00000E+00         0.00000E+00        -0.16055E+08
 
   -0.15959E+08         0.16362E+05         0.00000E+00
    0.16362E+05        -0.19599E+07         0.00000E+00
    0.00000E+00         0.00000E+00        -0.15998E+08
 
   -0.15905E+08         0.16392E+05         0.00000E+00
    0.16392E+05        -0.19600E+07         0.00000E+00
    0.00000E+00         0.00000E+00        -0.15940E+08
 
   -0.15850E+08         0.16412E+05         0.00000E+00
    0.16412E+05        -0.19600E+07         0.00000E+00
    0.00000E+00         0.00000E+00        -0.15882E+08
 
   -0.15795E+08         0.16422E+05         0.00000E+00
    0.16422E+05        -0.19600E+07         0.00000E+00
    0.00000E+00         0.00000E+00        -0.15824E+08
 
   -0.15741E+08         0.16421E+05         0.00000E+00
    0.16421E+05        -0.19600E+07         0.00000E+00
    0.00000E+00         0.00000E+00        -0.15766E+08
 
   -0.15686E+08         0.16407E+05         0.00000E+00
    0.16407E+05        -0.19600E+07         0.00000E+00
    0.00000E+00         0.00000E+00        -0.15707E+08
 
   -0.15631E+08         0.16381E+05         0.00000E+00
    0.16381E+05        -0.19600E+07         0.00000E+00
    0.00000E+00         0.00000E+00        -0.15648E+08
 
   -0.15577E+08         0.16340E+05         0.00000E+00
    0.16340E+05        -0.19600E+07         0.00000E+00
    0.00000E+00         0.00000E+00        -0.15589E+08
 
   -0.15522E+08         0.16283E+05         0.00000E+00
    0.16283E+05        -0.19600E+07         0.00000E+00
    0.00000E+00         0.00000E+00        -0.15529E+08
 
   -0.15468E+08         0.16209E+05         0.00000E+00
    0.16209E+05        -0.19600E+07         0.00000E+00
    0.00000E+00         0.00000E+00        -0.15470E+08
 
   -0.15414E+08         0.16117E+05         0.00000E+00
    0.16117E+05        -0.19600E+07         0.00000E+00
    0.00000E+00         0.00000E+00        -0.15410E+08
 
   -0.15360E+08         0.16003E+05         0.00000E+00
    0.16003E+05        -0.19600E+07         0.00000E+00
    0.00000E+00         0.00000E+00        -0.15350E+08
 
   -0.15307E+08         0.15867E+05         0.00000E+00
    0.15867E+05        -0.19600E+07         0.00000E+00
    0.00000E+00         0.00000E+00        -0.15289E+08
 
   -0.15255E+08         0.15705E+05         0.00000E+00
    0.15705E+05        -0.19600E+07         0.00000E+00
    0.00000E+00         0.00000E+00        -0.15229E+08
 
   -0.15202E+08         0.15515E+05         0.00000E+00
    0.15515E+05        -0.19600E+07         0.00000E+00
    0.00000E+00         0.00000E+00        -0.15169E+08
 
   -0.15151E+08         0.15292E+05         0.00000E+00
    0.15292E+05        -0.19600E+07         0.00000E+00
    0.00000E+00         0.00000E+00        -0.15108E+08
 
   -0.15100E+08         0.15033E+05         0.00000E+00
    0.15033E+05        -0.19600E+07         0.00000E+00
    0.00000E+00         0.00000E+00        -0.15048E+08
 
   -0.15051E+08         0.14731E+05         0.00000E+00
    0.14731E+05        -0.19600E+07         0.00000E+00
    0.00000E+00         0.00000E+00        -0.14987E+08
 
   -0.15002E+08         0.14381E+05         0.00000E+00
    0.14381E+05        -0.19600E+07         0.00000E+00
    0.00000E+00         0.00000E+00        -0.14927E+08
 
   -0.14955E+08         0.13974E+05         0.00000E+00
    0.13974E+05        -0.19600E+07         0.00000E+00
    0.00000E+00         0.00000E+00        -0.14867E+08
 
   -0.14909E+08         0.13503E+05         0.00000E+00
    0.13503E+05        -0.19600E+07         0.00000E+00
    0.00000E+00         0.00000E+00        -0.14807E+08
 
   -0.14865E+08         0.12957E+05         0.00000E+00
    0.12957E+05        -0.19600E+07         0.00000E+00
    0.00000E+00         0.00000E+00        -0.14748E+08
 
   -0.14822E+08         0.12323E+05         0.00000E+00
    0.12323E+05        -0.19600E+07         0.00000E+00
    0.00000E+00         0.00000E+00        -0.14688E+08
 
   -0.14782E+08         0.11587E+05         0.00000E+00
    0.11587E+05        -0.19601E+07         0.00000E+00
    0.00000E+00         0.00000E+00        -0.14630E+08
 
   -0.14745E+08         0.10735E+05         0.00000E+00
    0.10735E+05        -0.19601E+07         0.00000E+00
    0.00000E+00         0.00000E+00        -0.14572E+08
 
   -0.14711E+08         0.97496E+04         0.00000E+00
    0.97496E+04        -0.19601E+07         0.00000E+00
    0.00000E+00         0.00000E+00        -0.14514E+08
 
   -0.14680E+08         0.86142E+04         0.00000E+00
    0.86142E+04        -0.19601E+07         0.00000E+00
    0.00000E+00         0.00000E+00        -0.14458E+08
 
   -0.14652E+08         0.73126E+04         0.00000E+00
    0.73126E+04        -0.19601E+07         0.00000E+00
    0.00000E+00         0.00000E+00        -0.14402E+08
 
   -0.14630E+08         0.58303E+04         0.00000E+00
    0.58303E+04        -0.19602E+07         0.00000E+00
    0.00000E+00         0.00000E+00        -0.14348E+08
 
   -0.14612E+08         0.41580E+04         0.00000E+00
    0.41580E+04        -0.19602E+07         0.00000E+00
    0.00000E+00         0.00000E+00        -0.14295E+08
 
   -0.14600E+08         0.22914E+04         0.00000E+00
    0.22914E+04        -0.19602E+07         0.00000E+00
    0.00000E+00         0.00000E+00        -0.14244E+08
 
   -0.14595E+08         0.24114E+03         0.00000E+00
    0.24114E+03        -0.19602E+07         0.00000E+00
    0.00000E+00         0.00000E+00        -0.14195E+08
 
   -0.14596E+08        -0.19829E+04         0.00000E+00
   -0.19829E+04        -0.19603E+07         0.00000E+00
    0.00000E+00         0.00000E+00        -0.14147E+08
 
   -0.14604E+08        -0.43239E+04         0.00000E+00
   -0.43239E+04        -0.19603E+07         0.00000E+00
    0.00000E+00         0.00000E+00        -0.14102E+08
 
   -0.14619E+08        -0.67918E+04         0.00000E+00
   -0.67918E+04        -0.19603E+07         0.00000E+00
    0.00000E+00         0.00000E+00        -0.14058E+08
 
   -0.14642E+08        -0.91882E+04         0.00000E+00
   -0.91882E+04        -0.19603E+07         0.00000E+00
    0.00000E+00         0.00000E+00        -0.14017E+08
 
   -0.14672E+08        -0.11790E+05         0.00000E+00
   -0.11790E+05        -0.19604E+07         0.00000E+00
    0.00000E+00         0.00000E+00        -0.13978E+08
 
   -0.14708E+08        -0.13687E+05         0.00000E+00
   -0.13687E+05        -0.19605E+07         0.00000E+00
    0.00000E+00         0.00000E+00        -0.13941E+08
 
   -0.14749E+08        -0.16670E+05         0.00000E+00
   -0.16670E+05        -0.19595E+07         0.00000E+00
    0.00000E+00         0.00000E+00        -0.13905E+08
 
   -0.14781E+08        -0.15845E+05         0.00000E+00
   -0.15845E+05        -0.19656E+07         0.00000E+00
    0.00000E+00         0.00000E+00        -0.13868E+08
 
   -0.17990E+08        -0.77009E+04         0.00000E+00
   -0.77009E+04        -0.19541E+07         0.00000E+00
    0.00000E+00         0.00000E+00        -0.18569E+08
 
   -0.18021E+08        -0.31353E+04         0.00000E+00
   -0.31353E+04        -0.19622E+07         0.00000E+00
    0.00000E+00         0.00000E+00        -0.18553E+08
 
   -0.18048E+08        -0.33420E+04         0.00000E+00
   -0.33420E+04        -0.19591E+07         0.00000E+00
    0.00000E+00         0.00000E+00        -0.18532E+08
 
   -0.18071E+08        -0.24162E+04         0.00000E+00
   -0.24162E+04        -0.19604E+07         0.00000E+00
    0.00000E+00         0.00000E+00        -0.18512E+08
 
   -0.18089E+08        -0.19164E+04         0.00000E+00
   -0.19164E+04        -0.19599E+07         0.00000E+00
    0.00000E+00         0.00000E+00        -0.18489E+08
 
   -0.18103E+08        -0.13087E+04         0.00000E+00
   -0.13087E+04        -0.19601E+07         0.00000E+00
    0.00000E+00         0.00000E+00        -0.18465E+08
 
   -0.18111E+08        -0.76678E+03         0.00000E+00
   -0.76678E+03        -0.19600E+07         0.00000E+00
    0.00000E+00         0.00000E+00        -0.18439E+08
 
   -0.18114E+08        -0.23643E+03         0.00000E+00
   -0.23643E+03        -0.19600E+07         0.00000E+00
    0.00000E+00         0.00000E+00        -0.18412E+08
 
   -0.18113E+08         0.25434E+03         0.00000E+00
    0.25434E+03        -0.19600E+07         0.00000E+00
    0.00000E+00         0.00000E+00        -0.18384E+08
 
   -0.18107E+08         0.70860E+03         0.00000E+00
    0.70860E+03        -0.19600E+07         0.00000E+00
    0.00000E+00         0.00000E+00        -0.18354E+08
 
   -0.18097E+08         0.11209E+04         0.00000E+00
    0.11209E+04        -0.19600E+07         0.00000E+00
    0.00000E+00         0.00000E+00        -0.18323E+08
 
   -0.18083E+08         0.14919E+04         0.00000E+00
    0.14919E+04        -0.19600E+07         0.00000E+00
    0.00000E+00         0.00000E+00        -0.18290E+08
 
   -0.18066E+08         0.18228E+04         0.00000E+00
    0.18228E+04        -0.19600E+07         0.00000E+00
    0.00000E+00         0.00000E+00        -0.18257E+08
 
   -0.18046E+08         0.21163E+04         0.00000E+00
    0.21163E+04        -0.19600E+07         0.00000E+00
    0.00000E+00         0.00000E+00        -0.18222E+08
 
   -0.18024E+08         0.23760E+04         0.00000E+00
    0.23760E+04        -0.19600E+07         0.00000E+00
    0.00000E+00         0.00000E+00        -0.18187E+08
 
   -0.17999E+08         0.26055E+04         0.00000E+00
    0.26055E+04        -0.19600E+07         0.00000E+00
    0.00000E+00         0.00000E+00        -0.18150E+08
 
   -0.17972E+08         0.28086E+04         0.00000E+00
    0.28086E+04        -0.19600E+07         0.00000E+00
    0.00000E+00         0.00000E+00        -0.18113E+08
 
   -0.17942E+08         0.29890E+04         0.00000E+00
    0.29890E+04        -0.19600E+07         0.00000E+00
    0.00000E+00         0.00000E+00        -0.18075E+08
 
   -0.17912E+08         0.31499E+04         0.00000E+00
    0.31499E+04        -0.19600E+07         0.00000E+00
    0.00000E+00         0.00000E+00        -0.18037E+08
 
   -0.17880E+08         0.32942E+04         0.00000E+00
    0.32942E+04        -0.19600E+07         0.00000E+00
    0.00000E+00         0.00000E+00        -0.17998E+08
 
   -0.17846E+08         0.34245E+04         0.00000E+00
    0.34245E+04        -0.19600E+07         0.00000E+00
    0.00000E+00         0.00000E+00        -0.17958E+08
 
   -0.17811E+08         0.35430E+04         0.00000E+00
    0.35430E+04        -0.19600E+07         0.00000E+00
    0.00000E+00         0.00000E+00        -0.17918E+08
 
   -0.17775E+08         0.36515E+04         0.00000E+00
    0.36515E+04        -0.19600E+07         0.00000E+00
    0.00000E+00         0.00000E+00        -0.17877E+08
 
   -0.17738E+08         0.37514E+04         0.00000E+00
    0.37514E+04        -0.19600E+07         0.00000E+00
    0.00000E+00         0.00000E+00        -0.17836E+08
 
   -0.17700E+08         0.38442E+04         0.00000E+00
    0.38442E+04        -0.19600E+07         0.00000E+00
    0.00000E+00         0.00000E+00        -0.17794E+08
 
   -0.17661E+08         0.39307E+04         0.00000E+00
    0.39307E+04        -0.19600E+07         0.00000E+00
    0.00000E+00         0.00000E+00        -0.17752E+08
 
   -0.17622E+08         0.40119E+04         0.00000E+00
    0.40119E+04        -0.19600E+07         0.00000E+00
    0.00000E+00         0.00000E+00        -0.17709E+08
 
   -0.17581E+08         0.40885E+04         0.00000E+00
    0.40885E+04        -0.19600E+07         0.00000E+00
    0.00000E+00         0.00000E+00        -0.17666E+08
 
   -0.17540E+08         0.41611E+04         0.00000E+00
    0.41611E+04        -0.19600E+07         0.00000E+00
    0.00000E+00         0.00000E+00        -0.17622E+08
 
   -0.17498E+08         0.42300E+04         0.00000E+00
    0.42300E+04        -0.19600E+07         0.00000E+00
    0.00000E+00         0.00000E+00        -0.17578E+08
 
   -0.17455E+08         0.42959E+04         0.00000E+00
    0.42959E+04        -0.19600E+07         0.00000E+00
    0.00000E+00         0.00000E+00        -0.17534E+08
 
   -0.17412E+08         0.43589E+04         0.00000E+00
    0.43589E+04        -0.19600E+07         0.00000E+00
    0.00000E+00         0.00000E+00        -0.17489E+08
 
   -0.17368E+08         0.44193E+04         0.00000E+00
    0.44193E+04        -0.19600E+07         0.00000E+00
    0.00000E+00         0.00000E+00        -0.17443E+08
 
   -0.17324E+08         0.44774E+04         0.00000E+00
    0.44774E+04        -0.19600E+07         0.00000E+00
    0.00000E+00         0.00000E+00        -0.17398E+08
 
   -0.17279E+08         0.45334E+04         0.00000E+00
    0.45334E+04        -0.19600E+07         0.00000E+00
    0.00000E+00         0.00000E+00        -0.17351E+08
 
   -0.17233E+08         0.45875E+04         0.00000E+00
    0.45875E+04        -0.19600E+07         0.00000E+00
    0.00000E+00         0.00000E+00        -0.17305E+08
 
   -0.17187E+08         0.46398E+04         0.00000E+00
    0.46398E+04        -0.19600E+07         0.00000E+00
    0.00000E+00         0.00000E+00        -0.17257E+08
 
   -0.17141E+08         0.46904E+04         0.00000E+00
    0.46904E+04        -0.19600E+07         0.00000E+00
    0.00000E+00         0.00000E+00        -0.17210E+08
 
   -0.17093E+08         0.47394E+04         0.00000E+00
    0.47394E+04        -0.19600E+07         0.00000E+00
    0.00000E+00         0.00000E+00        -0.17162E+08
 
   -0.17046E+08         0.47870E+04         0.00000E+00
    0.47870E+04        -0.19600E+07         0.00000E+00
    0.00000E+00         0.00000E+00        -0.17113E+08
 
   -0.16998E+08         0.48331E+04         0.00000E+00
    0.48331E+04        -0.19600E+07         0.00000E+00
    0.00000E+00         0.00000E+00        -0.17064E+08
 
   -0.16949E+08         0.48779E+04         0.00000E+00
    0.48779E+04        -0.19600E+07         0.00000E+00
    0.00000E+00         0.00000E+00        -0.17015E+08
 
   -0.16900E+08         0.49214E+04         0.00000E+00
    0.49214E+04        -0.19600E+07         0.00000E+00
    0.00000E+00         0.00000E+00        -0.16965E+08
 
   -0.16851E+08         0.49636E+04         0.00000E+00
    0.49636E+04        -0.19600E+07         0.00000E+00
    0.00000E+00         0.00000E+00        -0.16915E+08
 
   -0.16801E+08         0.50045E+04         0.00000E+00
    0.50045E+04        -0.19600E+07         0.00000E+00
    0.00000E+00         0.00000E+00        -0.16864E+08
 
   -0.16751E+08         0.50441E+04         0.00000E+00
    0.50441E+04        -0.19600E+07         0.00000E+00
    0.00000E+00         0.00000E+00        -0.16813E+08
 
   -0.16700E+08         0.50825E+04         0.00000E+00
    0.50825E+04        -0.19600E+07         0.00000E+00
    0.00000E+00         0.00000E+00        -0.16762E+08
 
   -0.16649E+08         0.51196E+04         0.00000E+00
    0.51196E+04        -0.19600E+07         0.00000E+00
    0.00000E+00         0.00000E+00        -0.16710E+08
 
   -0.16598E+08         0.51553E+04         0.00000E+00
    0.51553E+04        -0.19600E+07         0.00000E+00
    0.00000E+00         0.00000E+00        -0.16658E+08
 
   -0.16546E+08         0.51897E+04         0.00000E+00
    0.51897E+04        -0.19600E+07         0.00000E+00
    0.00000E+00         0.00000E+00        -0.16605E+08
 
   -0.16494E+08         0.52226E+04         0.00000E+00
    0.52226E+04        -0.19600E+07         0.00000E+00
    0.00000E+00         0.00000E+00        -0.16552E+08
 
   -0.16441E+08         0.52541E+04         0.00000E+00
    0.52541E+04        -0.19600E+07         0.00000E+00
    0.00000E+00         0.00000E+00        -0.16498E+08
 
   -0.16389E+08         0.52839E+04         0.00000E+00
    0.52839E+04        -0.19600E+07         0.00000E+00
    0.00000E+00         0.00000E+00        -0.16444E+08
 
   -0.16336E+08         0.53121E+04         0.00000E+00
    0.53121E+04        -0.19600E+07         0.00000E+00
    0.00000E+00         0.00000E+00        -0.16389E+08
 
   -0.16283E+08         0.53385E+04         0.00000E+00
    0.53385E+04        -0.19600E+07         0.00000E+00
    0.00000E+00         0.00000E+00        -0.16335E+08
 
   -0.16229E+08         0.53630E+04         0.00000E+00
    0.53630E+04        -0.19600E+07         0.00000E+00
    0.00000E+00         0.00000E+00        -0.16279E+08
 
   -0.16175E+08         0.53854E+04         0.00000E+00
    0.53854E+04        -0.19600E+07         0.00000E+00
    0.00000E+00         0.00000E+00        -0.16224E+08
 
   -0.16121E+08         0.54056E+04         0.00000E+00
    0.54056E+04        -0.19600E+07         0.00000E+00
    0.00000E+00         0.00000E+00        -0.16168E+08
 
   -0.16067E+08         0.54235E+04         0.00000E+00
    0.54235E+04        -0.19600E+07         0.00000E+00
    0.00000E+00         0.00000E+00        -0.16111E+08
 
   -0.16013E+08         0.54388E+04         0.00000E+00
    0.54388E+04        -0.19600E+07         0.00000E+00
    0.00000E+00         0.00000E+00        -0.16055E+08
 
   -0.15958E+08         0.54514E+04         0.00000E+00
    0.54514E+04        -0.19600E+07         0.00000E+00
    0.00000E+00         0.00000E+00        -0.15997E+08
 
   -0.15904E+08         0.54611E+04         0.00000E+00
    0.54611E+04        -0.19600E+07         0.00000E+00
    0.00000E+00         0.00000E+00        -0.15940E+08
 
   -0.15849E+08         0.54675E+04         0.00000E+00
    0.54675E+04        -0.19600E+07         0.00000E+00
    0.00000E+00         0.00000E+00        -0.15882E+08
 
   -0.15794E+08         0.54705E+04         0.00000E+00
    0.54705E+04        -0.19600E+07         0.00000E+00
    0.00000E+00         0.00000E+00        -0.15824E+08
 
   -0.15740E+08         0.54698E+04         0.00000E+00
    0.54698E+04        -0.19600E+07         0.00000E+00
    0.00000E+00         0.00000E+00        -0.15766E+08
 
   -0.15685E+08         0.54650E+04         0.00000E+00
    0.54650E+04        -0.19600E+07         0.00000E+00
    0.00000E+00         0.00000E+00        -0.15707E+08
 
   -0.15630E+08         0.54558E+04         0.00000E+00
    0.54558E+04        -0.19600E+07         0.00000E+00
    0.00000E+00         0.00000E+00        -0.15648E+08
 
   -0.15576E+08         0.54418E+04         0.00000E+00
    0.54418E+04        -0.19600E+07         0.00000E+00
    0.00000E+00         0.00000E+00        -0.15589E+08
 
   -0.15521E+08         0.54227E+04         0.00000E+00
    0.54227E+04        -0.19600E+07         0.00000E+00
    0.00000E+00         0.00000E+00        -0.15529E+08
 
   -0.15467E+08         0.53979E+04         0.00000E+00
    0.53979E+04        -0.19600E+07         0.00000E+00
    0.00000E+00         0.00000E+00        -0.15469E+08
 
   -0.15413E+08         0.53668E+04         0.00000E+00
    0.53668E+04        -0.19600E+07         0.00000E+00
    0.00000E+00         0.00000E+00        -0.15409E+08
 
   -0.15360E+08         0.53289E+04         0.00000E+00
    0.53289E+04        -0.19600E+07         0.00000E+00
    0.00000E+00         0.00000E+00        -0.15349E+08
 
   -0.15306E+08         0.52833E+04         0.00000E+00
    0.52833E+04        -0.19600E+07         0.00000E+00
    0.00000E+00         0.00000E+00        -0.15289E+08
 
   -0.15254E+08         0.52292E+04         0.00000E+00
    0.52292E+04        -0.19600E+07         0.00000E+00
    0.00000E+00         0.00000E+00        -0.15229E+08
 
   -0.15202E+08         0.51656E+04         0.00000E+00
    0.51656E+04        -0.19600E+07         0.00000E+00
    0.00000E+00         0.00000E+00        -0.15169E+08
 
   -0.15150E+08         0.50912E+04         0.00000E+00
    0.50912E+04        -0.19600E+07         0.00000E+00
    0.00000E+00         0.00000E+00        -0.15108E+08
 
   -0.15100E+08         0.50044E+04         0.00000E+00
    0.50044E+04        -0.19600E+07         0.00000E+00
    0.00000E+00         0.00000E+00        -0.15048E+08
 
   -0.15050E+08         0.49035E+04         0.00000E+00
    0.49035E+04        -0.19600E+07         0.00000E+00
    0.00000E+00         0.00000E+00        -0.14987E+08
 
   -0.15002E+08         0.47863E+04         0.00000E+00
    0.47863E+04        -0.19600E+07         0.00000E+00
    0.00000E+00         0.00000E+00        -0.14927E+08
 
   -0.14954E+08         0.46501E+04         0.00000E+00
    0.46501E+04        -0.19600E+07         0.00000E+00
    0.00000E+00         0.00000E+00        -0.14867E+08
 
   -0.14909E+08         0.44919E+04         0.00000E+00
    0.44919E+04        -0.19600E+07         0.00000E+00
    0.00000E+00         0.00000E+00        -0.14807E+08
 
   -0.14865E+08         0.43078E+04         0.00000E+00
    0.43078E+04        -0.19600E+07         0.00000E+00
    0.00000E+00         0.00000E+00        -0.14748E+08
 
   -0.14822E+08         0.40935E+04         0.00000E+00
    0.40935E+04        -0.19600E+07         0.00000E+00
    0.00000E+00         0.00000E+00        -0.14688E+08
 
   -0.14782E+08         0.38441E+04         0.00000E+00
    0.38441E+04        -0.19600E+07         0.00000E+00
    0.00000E+00         0.00000E+00        -0.14630E+08
 
   -0.14745E+08         0.35540E+04         0.00000E+00
    0.35540E+04        -0.19600E+07         0.00000E+00
    0.00000E+00         0.00000E+00        -0.14572E+08
 
   -0.14711E+08         0.32170E+04         0.00000E+00
    0.32170E+04        -0.19600E+07         0.00000E+00
    0.00000E+00         0.00000E+00        -0.14514E+08
 
   -0.14680E+08         0.28268E+04         0.00000E+00
    0.28268E+04        -0.19600E+07         0.00000E+00
    0.00000E+00         0.00000E+00        -0.14458E+08
 
   -0.14654E+08         0.23770E+04         0.00000E+00
    0.23770E+04        -0.19599E+07         0.00000E+00
    0.00000E+00         0.00000E+00        -0.14403E+08
 
   -0.14632E+08         0.18619E+04         0.00000E+00
    0.18619E+04        -0.19599E+07         0.00000E+00
    0.00000E+00         0.00000E+00        -0.14349E+08
 
   -0.14615E+08         0.12769E+04         0.00000E+00
    0.12769E+04        -0.19599E+07         0.00000E+00
    0.00000E+00         0.00000E+00        -0.14296E+08
 
   -0.14604E+08         0.62035E+03         0.00000E+00
    0.62035E+03        -0.19599E+07         0.00000E+00
    0.00000E+00         0.00000E+00        -0.14245E+08
 
   -0.14599E+08        -0.10868E+03         0.00000E+00
   -0.10868E+03        -0.19600E+07         0.00000E+00
    0.00000E+00         0.00000E+00        -0.14196E+08
 
   -0.14602E+08        -0.90033E+03         0.00000E+00
   -0.90033E+03        -0.19599E+07         0.00000E+00
    0.00000E+00         0.00000E+00        -0.14149E+08
 
   -0.14612E+08        -0.17595E+04         0.00000E+00
   -0.17595E+04        -0.19600E+07         0.00000E+00
    0.00000E+00         0.00000E+00        -0.14104E+08
 
   -0.14630E+08        -0.26373E+04         0.00000E+00
   -0.26373E+04        -0.19598E+07         0.00000E+00
    0.00000E+00         0.00000E+00        -0.14061E+08
 
   -0.14656E+08        -0.36270E+04         0.00000E+00
   -0.36270E+04        -0.19602E+07         0.00000E+00
    0.00000E+00         0.00000E+00        -0.14021E+08
 
   -0.14690E+08        -0.44278E+04         0.00000E+00
   -0.44278E+04        -0.19593E+07         0.00000E+00
    0.00000E+00         0.00000E+00        -0.13983E+08
 
   -0.14732E+08        -0.59618E+04         0.00000E+00
   -0.59618E+04        -0.19616E+07         0.00000E+00
    0.00000E+00         0.00000E+00        -0.13948E+08
 
   -0.14780E+08        -0.55346E+04         0.00000E+00
   -0.55346E+04        -0.19561E+07         0.00000E+00
    0.00000E+00         0.00000E+00        -0.13913E+08
 
   -0.14835E+08        -0.13352E+05         0.00000E+00
   -0.13352E+05        -0.19702E+07         0.00000E+00
    0.00000E+00         0.00000E+00        -0.13885E+08
 
SCALARS stresss double 
LOOKUP_TABLE default
  -13165763.0205477     
  -13124472.4037181     
  -13087565.6576367     
  -13053429.1164473     
  -13022377.6155068     
  -12993644.5070960     
  -12966842.4411551     
  -12941444.9008628     
  -12917049.5134738     
  -12893290.6144319     
  -12869882.6481582     
  -12846597.3354072     
  -12823263.4270081     
  -12799754.3785335     
  -12775981.0201859     
  -12751882.9803829     
  -12727422.1241532     
  -12702576.7457004     
  -12677337.0271731     
  -12651701.3909753     
  -12625673.7186936     
  -12599261.2469143     
  -12572473.0314835     
  -12545318.8543695     
  -12517808.4779166     
  -12489951.1613487     
  -12461755.3725884     
  -12433228.6409110     
  -12404377.5083911     
  -12375207.5478015     
  -12345723.4229046     
  -12315928.9735647     
  -12285827.3132580     
  -12255420.9304837     
  -12224711.7885365     
  -12193701.4202606     
  -12162391.0159550     
  -12130781.5036601     
  -12098873.6217683     
  -12066667.9843397     
  -12034165.1397629     
  -12001365.6235216     
  -11968270.0058642     
  -11934878.9351563     
  -11901193.1776456     
  -11867213.6543027     
  -11832941.4753341     
  -11798377.9728970     
  -11763524.7324894     
  -11728383.6234417     
  -11692956.8289065     
  -11657246.8757208     
  -11621256.6645131     
  -11584989.5004412     
  -11548449.1249711     
  -11511639.7491565     
  -11474566.0889383     
  -11437233.4030642     
  -11399647.5343285     
  -11361814.9549383     
  -11323742.8169431     
  -11285439.0087830     
  -11246912.2191354     
  -11208172.0093228     
  -11169228.8955823     
  -11130094.4424316     
  -11090781.3681541     
  -11051303.6629817     
  -11011676.7197873     
  -10971917.4758741     
  -10932044.5626032     
  -10892078.4569332     
  -10852041.6252108     
  -10811958.6444465     
  -10771856.2795443     
  -10731763.4860741     
  -10691711.2970038     
  -10651732.5375550     
  -10611861.2956584     
  -10572132.0541085     
  -10532578.3691427     
  -10493230.9489232     
  -10454114.9682694     
  -10415246.4033870     
  -10376627.2009048     
  -10338238.9554592     
  -10300035.0524187     
  -10261930.6348324     
  -10223791.2852313     
  -10185418.2463182     
  -10146535.8289415     
  -10106770.2132512     
  -10065649.1908251     
  -10022562.8678080     
  -9976839.00903811     
  -9927592.02226922     
  -9874178.83585013     
  -9815302.03895966     
  -9751537.56195983     
  -9680126.31814995     
  -13157902.7602049     
  -13120298.9602003     
  -13083899.5353002     
  -13050597.7630743     
  -13019838.5209834     
  -12991396.7461264     
  -12964747.9279156     
  -12939480.9142592     
  -12915178.3125314     
  -12891502.8353333     
  -12868169.4937846     
  -12844957.0228369     
  -12821694.6500175     
  -12798256.9415053     
  -12774554.2596004     
  -12750525.7994393     
  -12726132.7071110     
  -12701352.6549138     
  -12676175.2632996     
  -12650598.5351930     
  -12624626.0601931     
  -12598264.9128542     
  -12571524.0970583     
  -12544413.4360743     
  -12516942.8065451     
  -12489121.6372089     
  -12460958.6044215     
  -12432461.4712583     
  -12403637.0278174     
  -12374491.1004135     
  -12345028.6052663     
  -12315253.6288396     
  -12285169.5220801     
  -12254778.9997698     
  -12224084.2391819     
  -12193086.9744385     
  -12161788.5845430     
  -12130190.1741712     
  -12098292.6470368     
  -12066096.7721254     
  -12033603.2433656     
  -12000812.7334488     
  -11967725.9425645     
  -11934343.6428058     
  -11900666.7189643     
  -11866696.2063735     
  -11832433.3263946     
  -11797879.5200796     
  -11763036.4804912     
  -11727906.1841133     
  -11692490.9217580     
  -11656793.3293540     
  -11620816.4190000     
  -11584563.6106786     
  -11548038.7650535     
  -11511246.2178196     
  -11474190.8161350     
  -11436877.9577441     
  -11399313.6334947     
  -11361504.4740620     
  -11323457.8018053     
  -11285181.6888061     
  -11246685.0222383     
  -11207977.5782964     
  -11169070.1059180     
  -11129974.4214526     
  -11090703.5151742     
  -11051271.6700582     
  -11011694.5924243     
  -10971989.5527642     
  -10932175.5331702     
  -10892273.3750431     
  -10852305.9169579     
  -10812298.1074236     
  -10772277.0704379     
  -10732272.0929663     
  -10692314.4921841     
  -10652437.3067070     
  -10612674.7387174     
  -10573061.2552763     
  -10533630.2318347     
  -10494412.0017265     
  -10455431.1366753     
  -10416702.7860819     
  -10378227.8209866     
  -10339986.6540455     
  -10301931.3190794     
  -10263976.1006941     
  -10225985.6622080     
  -10187763.0573914     
  -10149033.3093351     
  -10109434.6178607     
  -10068495.6291914     
  -10025655.4075063     
  -9980215.55658817     
  -9931489.87798472     
  -9878597.67340371     
  -9821178.21028795     
  -9758301.51121196     
  -9693275.48771273     
  -13150784.8903803     
  -13115659.1799791     
  -13080280.8570888     
  -13047580.4349165     
  -13017241.8599278     
  -12989058.5818359     
  -12962604.0712751     
  -12937472.8922650     
  -12913281.3322994     
  -12889697.9935518     
  -12866448.7596828     
  -12843315.0656482     
  -12820129.0413712     
  -12796765.7517575     
  -12773135.8270503     
  -12749178.0994730     
  -12724853.3066173     
  -12700138.6387960     
  -12675023.3157379     
  -12649505.0229172     
  -12623587.1450483     
  -12597276.6542180     
  -12570582.5468711     
  -12543514.7172914     
  -12516083.1762367     
  -12488297.5337828     
  -12460166.6810255     
  -12431698.6171418     
  -12402900.3799011     
  -12373778.0470798     
  -12344336.7842621     
  -12314580.9208974     
  -12284514.0416129     
  -12254139.0837289     
  -12223458.4349390     
  -12192474.0273441     
  -12161187.4256479     
  -12129599.9084539     
  -12097712.5423738     
  -12065526.2491548     
  -12033041.8663299     
  -12000260.2020621     
  -11967182.0849115     
  -11933808.4092661     
  -11900140.1771396     
  -11866178.5369926     
  -11831924.8201699     
  -11797380.5754928     
  -11762547.6024901     
  -11727427.9837116     
  -11692024.1165364     
  -11656338.7448720     
  -11620374.9911374     
  -11584136.3889363     
  -11547626.9168535     
  -11510851.0338541     
  -11473813.7168231     
  -11436520.5008635     
  -11398977.5230590     
  -11361191.5705163     
  -11323170.1336086     
  -11284921.4654554     
  -11246454.6487673     
  -11207779.6712422     
  -11168907.5106953     
  -11129850.2309899     
  -11090621.0895588     
  -11051234.6567861     
  -11011706.9466607     
  -10972055.5567790     
  -10932299.8138160     
  -10892460.9177922     
  -10852562.0746135     
  -10812628.6011665     
  -10772687.9804381     
  -10732769.8353011     
  -10692905.7785993     
  -10653129.0833585     
  -10613474.1008552     
  -10573975.3343566     
  -10534666.0560356     
  -10495576.3278162     
  -10456730.2692228     
  -10418142.3793186     
  -10379812.7316494     
  -10341720.7980587     
  -10303817.7963754     
  -10266017.2720543     
  -10228184.2388797     
  -10190122.4980734     
  -10151561.9756979     
  -10112145.4182210     
  -10071420.1486953     
  -10028835.2675141     
  -9983750.47027428     
  -9935489.21484077     
  -9883340.03147563     
  -9826973.78827724     
  -9765873.56180453     
  -9705140.97175732     
  -13144185.6913396     
  -13110834.0444418     
  -13076578.8600826     
  -13044460.6691490     
  -13014555.0143898     
  -12986651.3292166     
  -12960404.0005091     
  -12935426.0662845     
  -12911357.2427791     
  -12887877.3300898     
  -12864720.1930045     
  -12841671.7555315     
  -12818566.5753336     
  -12795280.9171770     
  -12771725.7820509     
  -12747839.9877849     
  -12723584.0359961     
  -12698934.8333874     
  -12673881.3302576     
  -12648421.0093265     
  -12622557.1316694     
  -12596296.6297324     
  -12569648.5363977     
  -12542622.8479301     
  -12515229.7293785     
  -12487478.9846679     
  -12459379.7263629     
  -12430940.1924622     
  -12402167.6683498     
  -12373068.4814220     
  -12343648.0437002     
  -12313910.9241207     
  -12283860.9372707     
  -12253501.2393026     
  -12222834.4247818     
  -12191862.6204819     
  -12160587.5737802     
  -12129010.7344700     
  -12097133.3296016     
  -12064956.4314789     
  -12032481.0192643     
  -11999708.0348130     
  -11966638.4334451     
  -11933273.2303701     
  -11899613.5434631     
  -11865660.6330381     
  -11831415.9392155     
  -11796881.1174237     
  -11762058.0725231     
  -11726948.9920060     
  -11691556.3786896     
  -11655883.0833103     
  -11619932.3374193     
  -11583707.7869981     
  -11547213.5272342     
  -11510454.1389473     
  -11473434.7272125     
  -11436160.9628037     
  -11398639.1271699     
  -11360876.1617579     
  -11322879.7226005     
  -11284658.2411929     
  -11246220.9927626     
  -11207578.1730864     
  -11168740.9849819     
  -11129721.7354669     
  -11090533.9442747     
  -11051192.4638605     
  -11011713.6101352     
  -10972115.3017904     
  -10932417.2040684     
  -10892640.8699970     
  -10852809.8682121     
  -10812949.8812805     
  -10773088.7515955     
  -10733256.4431818     
  -10693484.8767503     
  -10653807.5819518     
  -10614259.0946244     
  -10574874.0083491     
  -10535685.5683983     
  -10496723.6743443     
  -10458012.1342640     
  -10419564.9952544     
  -10381381.7600895     
  -10343441.3020948     
  -10305694.3200052     
  -10268054.2206957     
  -10230386.5427522     
  -10192497.0431833     
  -10154119.7233725     
  -10114904.9640401     
  -10074413.7523420     
  -10032114.3989404     
  -9987406.94112195     
  -9939646.55728468     
  -9888261.46813461     
  -9832915.16274182     
  -9773767.69315709     
  -9716110.12264216     
  -13137969.5552159     
  -13105948.5433987     
  -13072772.5832918     
  -13041255.9952355     
  -13011781.1370882     
  -12984177.6344428     
  -12958150.3579406     
  -12933341.0737094     
  -12909407.1034539     
  -12886041.0688692     
  -12862984.1557969     
  -12840027.1986908     
  -12817007.4032774     
  -12793802.5327478     
  -12770324.2451477     
  -12746511.5843360     
  -12722325.0328502     
  -12697741.3846411     
  -12672749.4622995     
  -12647346.6540623     
  -12621536.1814004     
  -12595324.9989055     
  -12568722.2208950     
  -12541737.9768073     
  -12514382.6068315     
  -12486666.1216641     
  -12458597.8625135     
  -12430186.3092456     
  -12401438.9950800     
  -12372362.4953924     
  -12342962.4658636     
  -12313243.7115179     
  -12283210.2732445     
  -12252865.5223515     
  -12222212.2567364     
  -12191252.7945294     
  -12159989.0627330     
  -12128422.6795626     
  -12096555.0300110     
  -12064387.3346970     
  -12031920.7123955     
  -11999156.2368358     
  -11966094.9884460     
  -11932738.1017461     
  -11899086.8090726     
  -11865142.4812824     
  -11830906.6660273     
  -11796381.1241446     
  -11761567.8646572     
  -11726469.1788406     
  -11691087.6737861     
  -11655426.3058720     
  -11619488.4145570     
  -11583277.7569175     
  -11546798.5433841     
  -11510055.4751732     
  -11473053.7839670     
  -11435799.2744746     
  -11398298.3705879     
  -11360558.1659486     
  -11322586.4798393     
  -11284391.9194110     
  -11245983.9493316     
  -11207372.9699767     
  -11168570.4052409     
  -11129588.8008964     
  -11090441.9340923     
  -11051144.9340113     
  -11011714.4127639     
  -10972168.6041920     
  -10932527.5062079     
  -10892813.0194174     
  -10853049.0708558     
  -10813261.7064314     
  -10773479.1288509     
  -10733731.6491076     
  -10694051.5087601     
  -10654472.5170147     
  -10615029.4309090     
  -10575756.9888405     
  -10536688.4875019     
  -10497853.7713686     
  -10459276.4826419     
  -10420970.4036984     
  -10382934.7112977     
  -10345147.9749165     
  -10307560.7478650     
  -10270086.7119718     
  -10232592.4225079     
  -10194886.1040884     
  -10156706.2084122     
  -10117711.4717682     
  -10077475.3939527     
  -10035488.2946988     
  -9991180.46583252     
  -9943956.53859212     
  -9893331.75920082     
  -9839038.73359869     
  -9781767.80462526     
  -9726417.81188887     
  -13132046.7427148     
  -13101059.7389322     
  -13068872.6103109     
  -13037970.5941273     
  -13008927.5514564     
  -12981639.0945098     
  -12955845.8356666     
  -12931218.8619832     
  -12907431.8529247     
  -12884189.6675750     
  -12861240.9998407     
  -12838381.6193933     
  -12815451.7038225     
  -12792330.7520102     
  -12768931.3629795     
  -12745193.0383368     
  -12721076.4511772     
  -12696558.4523305     
  -12671627.8753185     
  -12646282.1222208     
  -12620524.4582429     
  -12594361.9223231     
  -12567803.7553949     
  -12540860.2517511     
  -12513541.9479533     
  -12485859.0748083     
  -12457821.2096815     
  -12429437.0776467     
  -12400714.4602094     
  -12371660.1792619     
  -12342280.1314940     
  -12312579.3547055     
  -12282562.1124816     
  -12252231.9876358     
  -12221591.9778616     
  -12190644.5893189     
  -12159391.9255649     
  -12127835.7704393     
  -12095977.6643474     
  -12063818.9739425     
  -12031360.9555575     
  -11998604.8129372     
  -11965551.7499285     
  -11932203.0188109     
  -11898559.9649466     
  -11864624.0683881     
  -11830396.9830389     
  -11795880.5739127     
  -11761076.9529900     
  -11725988.5141367     
  -11690617.9675183     
  -11654968.3739336     
  -11619043.1794857     
  -11582846.2510256     
  -11546381.9128280     
  -11509654.9850048     
  -11472670.8242183     
  -11435435.3673296     
  -11397955.1787021     
  -11360237.5019749     
  -11322290.3172163     
  -11284122.4044576     
  -11245743.4146756     
  -11207163.9493109     
  -11168395.6493616     
  -11129451.2949128     
  -11090344.9156176     
  -11051091.9120345     
  -11011709.1867691     
  -10972215.2829237     
  -10932630.5252841     
  -10892977.1567659     
  -10853279.4587036     
  -10813563.8383264     
  -10773858.8599681     
  -10734195.1879286     
  -10694605.3981870     
  -10655123.6031646     
  -10615784.8184065     
  -10576623.9824765     
  -10537674.5221281     
  -10498966.3347127     
  -10460523.0409212     
  -10422358.3457458     
  -10384471.3393480     
  -10346840.5798998     
  -10309416.8363978     
  -10272114.4641081     
  -10234801.5227655     
  -10197289.1104129     
  -10159320.6832151     
  -10120563.3682705     
  -10080603.4925608     
  -10038952.3638395     
  -9995068.35913520     
  -9948406.57865629     
  -9898543.78047911     
  -9845326.32170785     
  -9789775.33285993     
  -9736219.52964985     
  -13126353.7631542     
  -13096193.0514513     
  -13064895.8286357     
  -13034607.8604872     
  -13006000.3350054     
  -12979038.1972030     
  -12953492.6016251     
  -12929060.7441613     
  -12905432.3727255     
  -12882323.7308354     
  -12859491.1259248     
  -12836735.3179293     
  -12813899.7056577     
  -12790865.7728745     
  -12767547.3153865     
  -12743884.5241829     
  -12719838.4634492     
  -12695386.2090556     
  -12670516.7414279     
  -12645227.5841856     
  -12619522.1290900     
  -12593407.5616638     
  -12566893.2948047     
  -12539989.8196340     
  -12512707.8906394     
  -12485057.9723905     
  -12457049.8862057     
  -12428692.6059471     
  -12399994.1620492     
  -12370961.6216064     
  -12341601.1197746     
  -12311917.9238885     
  -12281916.5166660     
  -12251600.6887947     
  -12220973.6342289     
  -12190038.0438185     
  -12158796.1945826     
  -12127250.0331572     
  -12095401.2527964     
  -12063251.3638716     
  -12030801.7581805     
  -11998053.7675881     
  -11965008.7176316     
  -11931667.9767639     
  -11898033.0018998     
  -11864105.3809051     
  -11829886.8726204     
  -11795379.4449689     
  -11760585.3116508     
  -11725506.9678946     
  -11690147.2257067     
  -11654509.2490488     
  -11618596.5893708     
  -11582413.2219398     
  -11545963.5834359     
  -11509252.6113251     
  -11472285.7855790     
  -11435069.1733818     
  -11397609.4775486     
  -11359914.0894680     
  -11321991.1474774     
  -11283849.6016602     
  -11245499.2861160     
  -11206950.9997657     
  -11168216.5966889     
  -11129309.0868030     
  -11090242.7473238     
  -11051033.2448227     
  -11011697.7667080     
  -10972255.1594964     
  -10932726.0691351     
  -10893133.0757160     
  -10853500.8109695     
  -10813856.0416914     
  -10774227.6955012     
  -10734646.7967670     
  -10695146.2699600     
  -10655760.5549277     
  -10616524.9635920     
  -10577474.6905478     
  -10538643.3715437     
  -10500061.0648446     
  -10461751.5131023     
  -10423728.5301727     
  -10385991.3544241     
  -10348518.8227276     
  -10311262.2651324     
  -10274137.1087037     
  -10237013.3568123     
  -10199705.4074586     
  -10161962.1467320     
  -10123459.1803621     
  -10083795.8362355     
  -10042502.9245166     
  -9999066.39697199     
  -9952986.25618845     
  -9903891.77098549     
  -9851748.84292347     
  -9797746.46362079     
  -9745625.33688778     
  -13120843.3655882     
  -13091358.3236745     
  -13060857.7202451     
  -13031172.3644037     
  -13003004.2665125     
  -12976377.8901654     
  -12951092.6477222     
  -12926868.1614514     
  -12903409.6071739     
  -12880443.9425004     
  -12857735.0111168     
  -12835088.6553084     
  -12812351.6920978     
  -12789407.8346829     
  -12766172.3158568     
  -12742586.2410417     
  -12718611.2606123     
  -12694224.8402835     
  -12669416.2414331     
  -12644183.2157206     
  -12618529.3637852     
  -12592462.0797715     
  -12565990.9939524     
  -12539126.8264133     
  -12511880.5713462     
  -12484262.9409676     
  -12456284.0085626     
  -12427953.0005507     
  -12399278.1970938     
  -12370266.9092930     
  -12340925.5083136     
  -12311259.4878424     
  -12281273.5461995     
  -12250971.6783276     
  -12220357.2709045     
  -12189433.1961153     
  -12158201.9013242     
  -12126665.4931075     
  -12094825.8149703     
  -12062684.5186500     
  -12030243.1292804     
  -11997503.1049131     
  -11964465.8910123     
  -11931132.9705807     
  -11897505.9105779     
  -11863586.4052663     
  -11829376.3170754     
  -11794877.7155374     
  -11760092.9148005     
  -11725024.5101956     
  -11689675.4143025     
  -11654048.8929545     
  -11618148.6016145     
  -11581978.6225710     
  -11545543.5034331     
  -11508848.2974386     
  -11471898.6061556     
  -11434700.6252184     
  -11397261.1938269     
  -11359587.8488226     
  -11321688.8842449     
  -11283573.4173488     
  -11245251.4621199     
  -11206734.0113236     
  -11168033.1280532     
  -11129162.0475367     
  -11090135.2895823     
  -11050968.7813957     
  -11011679.9895018     
  -10972288.0580175     
  -10932813.9484069     
  -10893280.5729151     
  -10853712.9099241     
  -10814138.0842599     
  -10774585.3887640     
  -10735086.2149709     
  -10695673.8503028     
  -10656383.0866530     
  -10617249.5705871     
  -10578308.8088829     
  -10539594.7253317     
  -10501137.6468098     
  -10462961.5805421     
  -10425080.6334295     
  -10387494.4235273     
  -10350182.3506092     
  -10313096.6417595     
  -10276154.1828365     
  -10239227.3330705     
  -10202134.2089982     
  -10164629.4616176     
  -10126397.3273901     
  -10087049.9929095     
  -10046136.6015256     
  -10003169.5620568     
  -9957687.39985774     
  -9909367.93845525     
  -9858279.64727776     
  -9805664.33530460     
  -9754717.18632056     
  -13115478.9849658     
  -13086557.4134782     
  -13056770.4800221     
  -13027669.4287089     
  -12999943.3947741     
  -12973661.1818434     
  -12948647.9674894     
  -12924642.5963506     
  -12901364.5860725     
  -12878551.0538601     
  -12855973.2069813     
  -12833442.0523551     
  -12810807.9989055     
  -12787957.2182100     
  -12764806.6106648     
  -12741298.4128732     
  -12717395.0518615     
  -12693074.5443912     
  -12668326.5648219     
  -12643149.1980245     
  -12617546.3351595     
  -12591525.6407000     
  -12565097.0076202     
  -12538271.4171563     
  -12511060.1251067     
  -12483474.1053699     
  -12455523.6913652     
  -12427218.3659769     
  -12398566.6600089     
  -12369576.1274642     
  -12340253.3731267     
  -12310604.1138944     
  -12280633.2601819     
  -12250345.0075752     
  -12219742.9319305     
  -12188830.0833971     
  -12157609.0765437     
  -12126082.1750006     
  -12094251.3698943     
  -12062118.4519418     
  -12029685.0774479     
  -11996952.8286828     
  -11963923.2692375     
  -11930597.9950067     
  -11896978.6814533     
  -11863067.1277852     
  -11828865.2986396     
  -11794375.3638246     
  -11759599.7366329     
  -11724541.1112041     
  -11689202.4993915     
  -11653587.2675748     
  -11617699.1738617     
  -11581542.4061321     
  -11545121.6214091     
  -11508441.9870822     
  -11471509.2245618     
  -11434329.6560157     
  -11396910.2549169     
  -11359258.7012159     
  -11321383.4420380     
  -11283293.7588796     
  -11244999.8423251     
  -11206512.8753003     
  -11167845.1257981     
  -11129010.0497960     
  -11090022.4046925     
  -11050898.3729309     
  -11011655.6944642     
  -10972313.8052172     
  -10932893.9765761     
  -10893419.4479995     
  -10853915.5409016     
  -10814409.7367689     
  -10774931.6958123     
  -10735513.1840811     
  -10696187.8666827     
  -10656990.9124472     
  -10617958.3410747     
  -10579126.0277737     
  -10540528.2632888     
  -10502195.7502408     
  -10464152.9018723     
  -10426414.3000218     
  -10388980.1704303     
  -10351830.7537621     
  -10314919.5021181     
  -10278165.1328189     
  -10241442.7566462     
  -10204574.6003384     
  -10167321.3745874     
  -10129376.0819128     
  -10090363.4606189     
  -10049850.0188190     
  -10007372.7342545     
  -9962503.10398697     
  -9914963.19057424     
  -9864897.77421494     
  -9813525.90075174     
  -9763558.53411449     
  -13110231.4313498     
  -13081787.9893193     
  -13052643.0041488     
  -13024104.4604521     
  -12996821.3955839     
  -12970890.9763109     
  -12946160.5895367     
  -12922385.5608323     
  -12899298.4153106     
  -12876645.8846400     
  -12854206.3340121     
  -12831795.9895858     
  -12809269.0123126     
  -12786514.2452591     
  -12763450.4782499     
  -12740021.2882103     
  -12716190.0644748     
  -12691935.5326035     
  -12667247.9097454     
  -12642125.7177372     
  -12616573.2190520     
  -12590598.4097331     
  -12564211.4905630     
  -12537423.7360533     
  -12510246.6855366     
  -12482691.5887014     
  -12454769.0473578     
  -12426488.8048509     
  -12397859.6436182     
  -12368889.3595222     
  -12339584.7886186     
  -12309951.8679042     
  -12279995.7163926     
  -12249720.7267005     
  -12219130.6603073     
  -12188228.7419360     
  -12157017.7501944     
  -12125500.1028517     
  -12093677.9359940     
  -12061553.1768976     
  -12029127.6108391     
  -11996402.9423041     
  -11963380.8511766     
  -11930063.0445518     
  -11896451.3048200     
  -11862547.5346518     
  -11828353.7994784     
  -11793872.3680190     
  -11759105.7513749     
  -11724056.7411696     
  -11688728.4471970     
  -11653124.3350258     
  -11617248.2640065     
  -11581104.5261445     
  -11544697.8863272     
  -11508033.6244362     
  -11471117.5799305     
  -11433956.1995532     
  -11396556.5888950     
  -11358926.5686254     
  -11321074.7362926     
  -11283010.5346564     
  -11244744.3275639     
  -11206287.4843698     
  -11167652.4738083     
  -11128852.9680044     
  -11089903.9569121     
  -11050821.8727926     
  -11011624.7233306     
  -10972332.2304758     
  -10932965.9699733     
  -10893549.5036142     
  -10854108.4923124     
  -10814670.7729624     
  -10775266.3754376     
  -10735927.4478136     
  -10696688.0477813     
  -10657583.7461355     
  -10618650.9742565     
  -10579926.0319336     
  -10541443.6554070     
  -10503235.0293804     
  -10465325.1130975     
  -10427729.1427872     
  -10390448.1760482     
  -10353463.5664746     
  -10316730.3108833     
  -10280169.3176062     
  -10243658.8295235     
  -10207025.5479299     
  -10170036.5146635     
  -10132393.5859185     
  -10093733.6878842     
  -10053639.7415465     
  -10011670.9762775     
  -9967427.11072138     
  -9920668.29157617     
  -9871587.97230239     
  -9821335.36005876     
  -9772200.06995855     
  -13105076.7955382     
  -13077045.5140410     
  -13048481.3963822     
  -13020482.4848799     
  -12993641.7117656     
  -12968070.0345611     
  -12943632.5620972     
  -12920098.6006143     
  -12897212.2660017     
  -12874729.3228078     
  -12852435.0779268     
  -12830151.0059495     
  -12807735.1677126     
  -12785079.2778779     
  -12762104.2287120     
  -12738755.1398163     
  -12714996.5436288     
  -12690808.0288763     
  -12666180.4829650     
  -12641112.9669132     
  -12615610.1943026     
  -12589680.5533844     
  -12563334.5975107     
  -12536583.9264176     
  -12509440.3848319     
  -12481915.5123337     
  -12454020.1874060     
  -12425764.4178898     
  -12397157.2388874     
  -12368206.6871111     
  -12338919.8275655     
  -12309302.8142456     
  -12279360.9712716     
  -12249098.8846707     
  -12218520.4979756     
  -12187629.2070716     
  -12156427.9514143     
  -12124919.2999670     
  -12093105.5310825     
  -12060988.7061430     
  -12028570.7371648     
  -11995853.4488122     
  -11962838.6353949     
  -11929528.1134839     
  -11895923.7707894     
  -11862027.6119299     
  -11827841.8016852     
  -11793368.7062900     
  -11758610.9332872     
  -11723571.3704281     
  -11688253.2240834     
  -11652660.0576203     
  -11616795.8301977     
  -11580664.9364467     
  -11544272.2475330     
  -11507623.1541345     
  -11470723.6119261     
  -11433580.1902278     
  -11396200.1245496     
  -11358591.3738467     
  -11320762.6833817     
  -11282723.6541523     
  -11244484.8198866     
  -11206057.7325905     
  -11167455.0575362     
  -11128690.6783550     
  -11089779.8124858     
  -11050739.1365620     
  -11011586.9202873     
  -10972343.1658513     
  -10933029.7478089     
  -10893670.5454345     
  -10854291.5556598     
  -10814920.9696035     
  -10775589.1891719     
  -10736328.7520569     
  -10697174.1234872     
  -10658161.3012499     
  -10619327.1668444     
  -10580708.5005008     
  -10542340.5619096     
  -10504255.1231645     
  -10466477.8277869     
  -10429024.7432050     
  -10391897.9790191     
  -10355080.2679671     
  -10318528.4629077     
  -10282166.0110427     
  -10245874.6527219     
  -10209485.9057518     
  -10172773.3934734     
  -10135447.8695775     
  -10097158.0662648     
  -10057502.3027199     
  -10016059.6005562     
  -9972453.56760191     
  -9926474.66843976     
  -9878339.82296605     
  -9829100.72818730     
  -9780683.34209339     
  -13099995.0579654     
  -13072324.3158580     
  -13044289.5401952     
  -13016807.8986382     
  -12990407.5778504     
  -12965200.9797357     
  -12941065.9326436     
  -12917783.2974014     
  -12895107.3678048     
  -12872802.3223679     
  -12850660.1872954     
  -12828507.6971067     
  -12806206.9485476     
  -12783652.7174845     
  -12760768.2032742     
  -12737500.2642988     
  -12713814.7521605     
  -12689692.2697423     
  -12665124.4997600     
  -12640111.1429659     
  -12614657.4427197     
  -12588772.2393782     
  -12562466.4831547     
  -12535752.1306748     
  -12508641.3537577     
  -12481145.9958929     
  -12453277.2204825     
  -12425045.3038873     
  -12396459.5349074     
  -12367528.1900992     
  -12338258.5610956     
  -12308657.0157876     
  -12278729.0799007     
  -12248479.5292393     
  -12217912.4857998     
  -12187031.5131953     
  -12155839.7085105     
  -12124339.7889297     
  -12092534.1723478     
  -12060425.0517681     
  -12028014.4636816     
  -11995304.3508622     
  -11962296.6201462     
  -11928993.1958237     
  -11895396.0692862     
  -11861507.3455538     
  -11827329.2872796     
  -11792864.3567875     
  -11758115.2566651     
  -11723084.9694046     
  -11687776.7965587     
  -11652194.3978721     
  -11616341.8308446     
  -11580223.5912005     
  -11543844.6547632     
  -11507210.5212750     
  -11470327.2607566     
  -11433201.5630671     
  -11395840.7913967     
  -11358253.0405106     
  -11320447.2006332     
  -11282433.0279308     
  -11244221.2225845     
  -11205823.5154291     
  -11167252.7640287     
  -11128523.0588377     
  -11089649.8396740     
  -11050650.0220661     
  -11011542.1320010     
  -10972346.4461088     
  -10933085.1322008     
  -10893782.3821915     
  -10854464.5255638     
  -10815160.1064933     
  -10775899.9013040     
  -10736716.8448860     
  -10697645.8249085     
  -10658723.2910461     
  -10619986.6130882     
  -10581473.1070864     
  -10543218.6333391     
  -10505255.6553731     
  -10467610.6373317     
  -10430300.6517958     
  -10393329.0763596     
  -10356680.2833077     
  -10320313.2847178     
  -10284154.4037672     
  -10248089.2292515     
  -10211954.4193855     
  -10175530.4090307     
  -10138536.8627497     
  -10100633.9264191     
  -10061434.2384088     
  -10020534.1600947     
  -9977576.98475381     
  -9932374.83777993     
  -9885146.75035804     
  -9836831.98209548     
  -9789043.16524156     
  -13094969.1267221     
  -13067618.1776120     
  -13040069.5999196     
  -13013084.3761456     
  -12987122.0017757     
  -12962286.3100192     
  -12938462.7344101     
  -12915441.2675616     
  -12892985.0051897     
  -12870865.9005148     
  -12848882.4716234     
  -12826866.7137181     
  -12804684.8851831     
  -12782235.0039922     
  -12759442.7736860     
  -12736256.9816878     
  -12712644.9702808     
  -12688588.5041169     
  -12664080.1837973     
  -12639120.4485814     
  -12613715.1490216     
  -12587873.6366082     
  -12561607.3021175     
  -12534928.4903386     
  -12507849.7216270     
  -12480383.1572403     
  -12452540.2536475     
  -12424331.5596941     
  -12395766.6188739     
  -12366853.9465586     
  -12337601.0586700     
  -12308014.5338751     
  -12278100.0959853     
  -12247862.7069280     
  -12217306.6635509     
  -12186435.6937341     
  -12155253.0489455     
  -12123761.5915873     
  -12091963.8763415     
  -12059862.2253167     
  -12027458.7971821     
  -11994755.6507212     
  -11961754.8033659     
  -11928458.2853390     
  -11894868.1900433     
  -11860986.7213250     
  -11826816.2382054     
  -11792359.2976413     
  -11757618.6958386     
  -11722597.5086143     
  -11687299.1312783     
  -11651727.3185005     
  -11615886.2246232     
  -11579780.4448987     
  -11543415.0581542     
  -11506795.6714294     
  -11469928.4671849     
  -11432820.2537424     
  -11395478.5196947     
  -11357911.4930999     
  -11320128.2063495     
  -11282138.5676656     
  -11243953.4402117     
  -11205584.7297846     
  -11167045.4819518     
  -11128349.9892667     
  -11089513.9087814     
  -11050554.3894073     
  -11011490.2076486     
  -10972341.9087498     
  -10933131.9482037     
  -10893884.8257017     
  -10854627.1997884     
  -10815387.9664989     
  -10776198.2789070     
  -10737091.4765916     
  -10698102.8844073     
  -10659269.4285468     
  -10620629.0048365     
  -10582219.5198667     
  -10544077.5106974     
  -10506236.2348447     
  -10468723.1112699     
  -10431556.3886063     
  -10394740.9241821     
  -10358262.9844279     
  -10322084.0360094     
  -10286133.6051389     
  -10250301.4670477     
  -10214429.7293002     
  -10178305.8506201     
  -10141658.4013991     
  -10104158.5403352     
  -10065432.1109880     
  -10025090.4260705     
  -9982792.26645338     
  -9938362.56773028     
  -9892005.15415187     
  -9844540.04143841     
  -9797309.28587813     
  -13089984.1493930     
  -13062920.6619501     
  -13035822.4230740     
  -13009314.8673384     
  -12983787.7404547     
  -12959328.4084159     
  -12935824.9799407     
  -12913074.1592959     
  -12890846.5150591     
  -12868921.1349801     
  -12847102.7995438     
  -12825228.7598605     
  -12803169.5537513     
  -12780826.6149325     
  -12758128.3415818     
  -12735025.6349730     
  -12711487.4952419     
  -12687496.9930637     
  -12663047.7669657     
  -12638141.0916020     
  -12612783.5007536     
  -12586984.9150778     
  -12560757.2089085     
  -12534113.1459753     
  -12507065.6162716     
  -12479627.1124467     
  -12451809.3920255     
  -12423623.2801956     
  -12395078.5760671     
  -12366184.0327453     
  -12336947.3880624     
  -12307375.4283096     
  -12277474.0718359     
  -12247248.4630098     
  -12216703.0698903     
  -12185841.7811358     
  -12154667.9993226     
  -12123184.7290380     
  -12091394.6589667     
  -12059300.2377756     
  -12026903.7439861     
  -11994207.3502602     
  -11961213.1826651     
  -11927923.3755393     
  -11894340.1225984     
  -11860465.7249098     
  -11826302.6363286     
  -11791853.5069602     
  -11757121.2251736     
  -11722108.9586650     
  -11686820.1950475     
  -11651258.7824343     
  -11615428.9704812     
  -11579335.4523717     
  -11542983.4082502     
  -11506378.5506534     
  -11469527.1725399     
  -11432436.1985820     
  -11395113.2404590     
  -11357566.6569652     
  -11319805.6198247     
  -11281840.1861610     
  -11243681.3786062     
  -11205341.2740114     
  -11166833.1016158     
  -11128171.3513063     
  -11089371.8921840     
  -11050452.1009919     
  -11011430.9989465     
  -10972329.3940433     
  -10933170.0238410     
  -10893977.6908986     
  -10854779.3792753     
  -10815604.3355886     
  -10776484.0918768     
  -10737452.3997245     
  -10698545.0356534     
  -10659799.4266129     
  -10621254.0316329     
  -10582947.4017182     
  -10544916.8256374     
  -10507196.4557531     
  -10469814.7976791     
  -10432791.4437706     
  -10396132.9384793     
  -10359827.6912176     
  -10323839.9111469     
  -10288102.6452162     
  -10252510.1816842     
  -10216910.3739465     
  -10181097.9033477     
  -10144810.2316576     
  -10107729.1261680     
  -10069492.5202299     
  -10029724.3708353     
  -9988094.75331208     
  -9944432.88175213     
  -9898913.71337795     
  -9852236.20620867     
  -9805507.57360000     
  -13085027.0061890     
  -13058225.2872891     
  -13031547.8513195     
  -13005501.6440568     
  -12980407.2840311     
  -12956329.5487594     
  -12933154.6593158     
  -12910683.6499906     
  -12888693.2849581     
  -12866969.1618164     
  -12845322.0970820     
  -12823594.5915541     
  -12801661.5749855     
  -12779428.0645628     
  -12756825.3378003     
  -12733806.5895994     
  -12710342.6409641     
  -12686418.0095219     
  -12662027.4891762     
  -12637173.2848799     
  -12611862.6881807     
  -12586106.2458202     
  -12559916.3578626     
  -12533306.2371567     
  -12506289.1640037     
  -12478877.9757603     
  -12451084.7387773     
  -12422920.5582870     
  -12394395.4898278     
  -12365518.5230772     
  -12336297.6153393     
  -12306739.7573303     
  -12276851.0583497     
  -12246636.8414914     
  -12216101.7423534     
  -12185249.8068538     
  -12154084.5853725     
  -12122609.2216192     
  -12090826.5354669     
  -12058739.0995654     
  -12026349.3099317     
  -11993659.4509466     
  -11960671.7553236     
  -11927388.4596706     
  -11893811.8562898     
  -11859944.3418358     
  -11825788.4634361     
  -11791346.9628318     
  -11756622.8190719     
  -11721619.2902583     
  -11686339.9548246     
  -11650788.7528161     
  -11614970.0276436     
  -11578888.5687942     
  -11542549.6560113     
  -11505959.1054955     
  -11469123.3187277     
  -11432049.3345834     
  -11394744.8854753     
  -11357218.4583407     
  -11319479.3613619     
  -11281537.7973698     
  -11243404.9449113     
  -11205093.0479416     
  -11166615.5149992     
  -11127987.0284968     
  -11089223.6643566     
  -11050343.0215588     
  -11011364.3601814     
  -10972308.7450576     
  -10933199.1901381     
  -10894060.7958690     
  -10854920.8681831     
  -10815809.0028747     
  -10776757.1129823     
  -10737799.3691556     
  -10698972.0137001     
  -10660312.9980405     
  -10621861.3808463     
  -10583656.4103939     
  -10545736.2007058     
  -10508135.8979408     
  -10470885.2236380     
  -10434005.2781432     
  -10397504.4959822     
  -10361373.6726832     
  -10325580.0406850     
  -10290060.4767461     
  -10254714.0988907     
  -10219394.7927230     
  -10183904.6519302     
  -10147990.0128712     
  -10111342.8527596     
  -10073612.1063046     
  -10034432.1574425     
  -9993480.24944660     
  -9950581.97830638     
  -9905872.84840557     
  -9859931.85256046     
  -9813660.89871296     
  -13080085.9268171     
  -13053525.6174787     
  -13027244.9564608     
  -13001646.3687492     
  -12976982.8525762     
  -12953291.9000704     
  -12930453.7411286     
  -12908271.4445423     
  -12886526.7516597     
  -12865011.1736090     
  -12843541.3460310     
  -12821965.0153734     
  -12800161.6130677     
  -12778039.9029545     
  -12755534.2216724     
  -12732600.2329221     
  -12709210.7376217     
  -12685351.8379937     
  -12661019.5981287     
  -12636217.2461024     
  -12610952.9041561     
  -12585237.8007990     
  -12559084.9030646     
  -12532507.9024009     
  -12505520.4895688     
  -12478135.8595678     
  -12450366.3950672     
  -12422223.4848447     
  -12393717.4415326     
  -12364857.4901114     
  -12335651.8048383     
  -12306107.5775942     
  -12276231.1049929     
  -12246027.8850966     
  -12215502.7173348     
  -12184659.8013333     
  -12153502.8319398     
  -12122035.0888946     
  -12090259.5204154     
  -12058178.8205301     
  -12025795.5003668     
  -11993111.9538374     
  -11960130.5182836     
  -11926853.5307108     
  -11893283.3802519     
  -11859422.5574895     
  -11825273.7012336     
  -11790839.6433218     
  -11756123.4519721     
  -11721128.4741915     
  -11685858.3777234     
  -11650317.1930064     
  -11614509.3556180     
  -11578439.7496918     
  -11542113.7528217     
  -11505537.2830067     
  -11468716.8482421     
  -11431659.5994251     
  -11394373.3873142     
  -11356866.8243594     
  -11319149.3522901     
  -11281231.3164123     
  -11243124.0475947     
  -11204839.9529067     
  -11166392.6157718     
  -11127796.9062794     
  -11089069.1018998     
  -11050227.0182082     
  -11011290.1482411     
  -10972279.8076930     
  -10933219.2811580     
  -10894133.9618918     
  -10855051.4739309     
  -10816001.7606651     
  -10777017.1179260     
  -10738132.1421513     
  -10699383.5550788     
  -10660809.8556848     
  -10622450.7378339     
  -10584346.1987414     
  -10546535.2496361     
  -10509054.1273134     
  -10471933.8957524     
  -10435197.3239999     
  -10398854.9350862     
  -10362900.1481604     
  -10327303.4929223     
  -10292005.9771336     
  -10256911.8569242     
  -10221881.3287485     
  -10186724.0837448     
  -10151195.3199946     
  -10114996.8424774     
  -10077787.5480234     
  -10039210.1320386     
  -9998945.02812924     
  -9956807.11193688     
  -9912884.31265327     
  -9867638.27795319     
  -9821789.79564974     
  -13075150.1939113     
  -13048815.3006925     
  -13022912.2179489     
  -12997750.1703921     
  -12973516.4042897     
  -12950217.5313762     
  -12927724.1751528     
  -12905839.2748586     
  -12884348.4001406     
  -12863048.4180464     
  -12841761.5824716     
  -12820340.8871227     
  -12798670.3744891     
  -12776662.7150644     
  -12754255.4802771     
  -12731406.9736216     
  -12708092.1311892     
  -12684298.7741956     
  -12660024.3490442     
  -12635273.1975887     
  -12610054.3439668     
  -12584379.7527904     
  -12558262.9982585     
  -12531718.2791016     
  -12504759.7160901     
  -12477400.8743497     
  -12449654.4600261     
  -12421532.1486953     
  -12393044.5105666     
  -12364201.0045200     
  -12335010.0191469     
  -12305478.9441568     
  -12275614.2597825     
  -12245421.6352497     
  -12214906.0300722     
  -12184071.7939964     
  -12152922.7629704     
  -12121462.3496431     
  -12089693.6277044     
  -12057619.4099279     
  -12025242.3201408     
  -11992564.8595711     
  -11959589.4681446     
  -11926318.5813638     
  -11892754.6834124     
  -11858900.3571135     
  -11824758.3313443     
  -11790331.5264731     
  -11755623.0983499     
  -11720636.4813593     
  -11685375.4310169     
  -11649844.0665875     
  -11614046.9141996     
  -11577988.9509474     
  -11541675.6504966     
  -11505113.0307492     
  -11468307.7041749     
  -11431266.9314786     
  -11393998.6793436     
  -11356511.6830674     
  -11318815.5149802     
  -11280920.6595939     
  -11242838.5964683     
  -11204581.8917583     
  -11166164.2993180     
  -11127600.8720204     
  -11088908.0835658     
  -11050103.9604299     
  -11011208.2226440     
  -10972242.4307153     
  -10933230.1340389     
  -10894197.0134805     
  -10855171.0072476     
  -10816182.4045218     
  -10777263.8854160     
  -10738450.4784625     
  -10699779.3979145     
  -10661289.7126089     
  -10623021.7861371     
  -10585016.4149615     
  -10547313.5776894     
  -10509950.6962887     
  -10472960.3007460     
  -10436366.9858078     
  -10400183.5568446     
  -10364406.2885805     
  -10329009.2754854     
  -10293937.9503816     
  -10259102.0088256     
  -10224368.2313815     
  -10189554.0912548     
  -10154423.6453082     
  -10118688.1720179     
  -10082015.5581597     
  -10044054.8154626     
  -10004485.8175490     
  -9963106.46188812     
  -9919950.88554438     
  -9875366.63413847     
  -9829912.97655818     
  -13070209.9082142     
  -13044088.0781025     
  -13018547.6557899     
  -12993813.7195591     
  -12970009.6527373     
  -12947108.4183657     
  -12924967.8962568     
  -12903388.9004747     
  -12882159.7629998     
  -12861082.1967950     
  -12839983.8954457     
  -12818723.1105743     
  -12797188.6069288     
  -12775297.1197872     
  -12752989.6276667     
  -12730227.2410814     
  -12706987.1829496     
  -12683259.1246731     
  -12659042.0043666     
  -12634341.3660584     
  -12609167.2051553     
  -12583532.2752459     
  -12557450.7967420     
  -12530937.5034468     
  -12504006.9650042     
  -12476673.1286295     
  -12448949.0307102     
  -12420846.6365811     
  -12392376.7742946     
  -12363549.1350653     
  -12334372.3190806     
  -12304853.9104523     
  -12275000.5692682     
  -12244818.1320593     
  -12214311.7146319     
  -12183485.8132292     
  -12152344.4014991     
  -12120891.0218472     
  -12089128.8705352     
  -12057060.8764224     
  -12024689.7735969     
  -11992018.1683615     
  -11959048.6011562     
  -11925783.6040558     
  -11892225.7544875     
  -11858377.7258034     
  -11824242.3353071     
  -11789822.5903056     
  -11755121.7327189     
  -11720143.2827552     
  -11684891.0821388     
  -11649369.3373670     
  -11613582.6634762     
  -11577536.1288071     
  -11541235.3012900     
  -11504686.2968049     
  -11467895.8302257     
  -11430871.2698197     
  -11393620.6957413     
  -11356152.9634383     
  -11318477.7728605     
  -11280605.7444222     
  -11242548.5027068     
  -11204318.7688885     
  -11165930.4627577     
  -11127398.8150351     
  -11088740.4902843     
  -11049973.7201315     
  -11011118.4455714     
  -10972196.4657906     
  -10933231.5890330     
  -10894249.7784291     
  -10855279.2822264     
  -10816350.7333267     
  -10777497.1972479     
  -10738754.1404302     
  -10700159.2820598     
  -10661752.2822593     
  -10623574.2077096     
  -10585666.7029059     
  -10548070.7820437     
  -10510825.1443022     
  -10473963.9061132     
  -10437513.6410605     
  -10401489.6260266     
  -10365891.2177894     
  -10330696.3369409     
  -10295855.1290009     
  -10261283.0245666     
  -10226853.6584721     
  -10192392.4739052     
  -10157672.3993677     
  -10122413.8712772     
  -10086292.8766129     
  -10048962.8916744     
  -10010099.7709458     
  -9969479.00221932     
  -9927076.14264162     
  -9883127.91242088     
  -9838047.73800115     
  -13065255.7984532     
  -13039337.7744467     
  -13014148.9298644     
  -12989837.2987586     
  -12966464.0905556     
  -12943966.4525319     
  -12922186.8294493     
  -12900922.1101543     
  -12879962.4203495     
  -12859113.8646455     
  -12838209.4257806     
  -12817112.6362642     
  -12795717.0981460     
  -12773943.7689930     
  -12751737.2040607     
  -12729061.4847298     
  -12705896.2689641     
  -12682233.2063801     
  -12658072.8334311     
  -12633421.9823737     
  -12608291.6873198     
  -12582695.5421380     
  -12556648.4512469     
  -12530165.7103259     
  -12503262.3559894     
  -12475952.7289169     
  -12448250.2020557     
  -12420167.0331236     
  -12391714.3080304     
  -12362901.9485740     
  -12333738.7636603     
  -12304232.5282738     
  -12274390.0785152     
  -12244217.4143022     
  -12213719.8038943     
  -12182901.8863682     
  -12151767.7696375     
  -12120321.1226824     
  -12088565.2614082     
  -12056503.2280736     
  -12024137.8645641     
  -11991471.8799909     
  -11958507.9132139     
  -11925248.5909299     
  -11891696.5819792     
  -11857854.6485059     
  -11823725.6945747     
  -11789312.8128156     
  -11754619.3296306     
  -11719648.8494733     
  -11684405.2986868     
  -11648892.9693820     
  -11613116.5638330     
  -11577081.2398864     
  -11540792.6579020     
  -11504257.0297840     
  -11467481.1707115     
  -11430472.5542389     
  -11393239.3715077     
  -11355790.5953866     
  -11318136.0504319     
  -11280286.4896229     
  -11242253.6788653     
  -11204050.4902493     
  -11165691.0049681     
  -11127190.6266108     
  -11088566.2051877     
  -11049836.1716659     
  -11011020.6818981     
  -10972141.7675207     
  -10933223.4895485     
  -10894292.0878604     
  -10855376.1163838     
  -10816506.5493556     
  -10777716.8383986     
  -10739042.8931036     
  -10700522.9492490     
  -10662197.2786645     
  -10624107.6831769     
  -10586296.7024148     
  -10548806.4522295     
  -10511676.9983672     
  -10474944.1608318     
  -10438636.6411773     
  -10402772.3722375     
  -10367354.0139180     
  -10332363.5684323     
  -10297756.1758955     
  -10263453.2930948     
  -10229335.6783528     
  -10195236.9395497     
  -10160938.9111349     
  -10126170.9205201     
  -10090616.2616193     
  -10053931.1918855     
  -10015784.4255663     
  -9975924.38012097     
  -9934264.28391782     
  -9890932.96024064     
  -9846210.29028999     
  -13060279.0638554     
  -13034558.2777081     
  -13009713.4141219     
  -12985820.8665821     
  -12962881.0174816     
  -12940793.4529462     
  -12919382.8960496     
  -12898440.7243421     
  -12877758.0001725     
  -12857144.8289062     
  -12836439.3650493     
  -12815510.4603437     
  -12794256.6748814     
  -12772603.3465504     
  -12750498.7750115     
  -12727910.1733443     
  -12704819.7795060     
  -12681221.3462230     
  -12657117.1121027     
  -12632515.2812545     
  -12607427.9918910     
  -12581869.7277871     
  -12555856.1138049     
  -12529403.0332256     
  -12502526.0068846     
  -12475239.7796445     
  -12447558.0668290     
  -12419493.4207834     
  -12391057.1850044     
  -12362259.5099098     
  -12333109.4100892     
  -12303614.8477532     
  -12273782.8310863     
  -12243619.5194079     
  -12213130.3295400     
  -12182320.0396878     
  -12151192.8885625     
  -12119752.6685065     
  -12088002.8121133     
  -12055946.4723298     
  -12023586.5963499     
  -11990925.9938037     
  -11957967.3998525     
  -11924713.5338420     
  -11891167.1541711     
  -11857331.1100159     
  -11823208.3905131     
  -11788802.1719754     
  -11754115.8636756     
  -11719153.1527095     
  -11683918.0484254     
  -11648414.9269025     
  -11612648.5759576     
  -11576624.2411759     
  -11540347.6734852     
  -11503825.1788330     
  -11467063.6705762     
  -11430070.7252525     
  -11392854.6424772     
  -11355424.5097807     
  -11317790.2732820     
  -11279962.8151564     
  -11241954.0388968     
  -11203776.9633714     
  -11165445.8266042     
  -11126976.2000295     
  -11088385.1136362     
  -11049691.1918593     
  -11010914.7992234     
  -10972078.1934793     
  -10933205.6821913     
  -10894323.7762786     
  -10855461.3307239     
  -10816649.6583582     
  -10777922.5971280     
  -10739316.5043732     
  -10700870.1432697     
  -10662624.4166595     
  -10624621.8921265     
  -10586906.0496911     
  -10549520.1706113     
  -10512505.7736874     
  -10475900.4961369     
  -10439735.3124663     
  -10404030.9910991     
  -10368793.7108018     
  -10334009.8053436     
  -10299639.6862256     
  -10265611.1242790     
  -10231812.2715878     
  -10198085.1054447     
  -10164220.4272998     
  -10129956.2460745     
  -10094982.4790148     
  -10058956.6741391     
  -10021537.6541480     
  -9982442.80495733     
  -9941520.00551167     
  -9898792.51659218     
  -9854416.03031686     
  -13055271.2405508     
  -13029743.5122194     
  -13005238.2520985     
  -12981764.1155533     
  -12959261.5711180     
  -12937591.1805189     
  -12916558.0209928     
  -12895946.5983583     
  -12875548.1791162     
  -12855176.5490267     
  -12834674.9546557     
  -12813917.6234844     
  -12792808.2017703     
  -12771276.5673307     
  -12749274.9305381     
  -12726773.7943221     
  -12703758.1184574     
  -12680223.8805720     
  -12656175.1223841     
  -12631621.5009675     
  -12606576.3218891     
  -12581055.0066709     
  -12555073.9356007     
  -12528649.6041166     
  -12501798.0336017     
  -12474534.3830997     
  -12446872.7155735     
  -12418825.8798181     
  -12390405.4763298     
  -12361621.8819457     
  -12332484.3137295     
  -12303000.9173417     
  -12273178.8690249     
  -12243024.4834431     
  -12212543.3220352     
  -12181740.2983877     
  -12150619.7785050     
  -12119185.6748496     
  -12087441.5337214     
  -12055390.6160189     
  -12023035.9717331     
  -11990380.5087000     
  -11957427.0562417     
  -11924178.4243565     
  -11890637.4591255     
  -11856807.0949740     
  -11822690.4043987     
  -11788290.6457323     
  -11753611.3094834     
  -11718656.1637634     
  -11683429.2992874     
  -11647935.1744346     
  -11612178.6608440     
  -11576165.0900471     
  -11539900.3016520     
  -11503390.6936425     
  -11466643.2753994     
  -11429665.7241125     
  -11392466.4453296     
  -11355054.6384554     
  -11317440.3680989     
  -11279634.6422319     
  -11241649.4981684     
  -11203498.0973823     
  -11165194.8301182     
  -11126755.4305892     
  -11088197.1032415     
  -11049538.6600384     
  -11010800.6679033     
  -10972005.6042491     
  -10933178.0168108     
  -10894344.6816233     
  -10855534.7498071     
  -10816779.8696465     
  -10778114.2650925     
  -10739574.7451169     
  -10701200.6101535     
  -10663033.4121327     
  -10625116.5134281     
  -10587494.3777130     
  -10550211.5129133     
  -10513310.9743224     
  -10476832.3263508     
  -10440808.9571489     
  -10405264.6454917     
  -10370209.2994532     
  -10335633.8289879     
  -10301504.1892552     
  -10267754.7507632     
  -10234281.3325071     
  -10200934.4988448     
  -10167514.1108445     
  -10133766.7147408     
  -10099388.2895378     
  -10064036.3985942     
  -10027357.6116766     
  -9989034.94822153     
  -9948848.40380863     
  -9906717.25880923     
  -9862679.77303458     
  -13050224.0853254     
  -13024887.4077651     
  -13000720.3986747     
  -12977666.5242921     
  -12955606.7593674     
  -12934361.3544555     
  -12913714.1412385     
  -12893441.6262433     
  -12873334.6836799     
  -12853210.5364302     
  -12832917.4850293     
  -12812335.2098253     
  -12791372.5802584     
  -12769964.1761975     
  -12748066.2842320     
  -12725652.8529155     
  -12702711.7026720     
  -12679241.1547377     
  -12655247.1519938     
  -12630740.8829908     
  -12605736.8816577     
  -12580251.5532181     
  -12554302.0668110     
  -12527905.5533291     
  -12501078.5500294     
  -12473836.6393512     
  -12446194.2365521     
  -12418164.4882373     
  -12389759.2509664     
  -12360989.1255355     
  -12331863.5280792     
  -12302390.7837895     
  -12272578.2328372     
  -12242432.3410969     
  -12211958.8106199     
  -12181162.6865811     
  -12150048.4587392     
  -12118620.1564047     
  -12086881.4365752     
  -12054835.6653415     
  -12022485.9929573     
  -11989835.4231300     
  -11956886.8771801     
  -11923643.2537420     
  -11890107.4846801     
  -11856282.5878646     
  -11822171.7174184     
  -11787778.2120087     
  -11753105.6417233     
  -11718157.8540391     
  -11682939.0193775     
  -11647453.6767243     
  -11611706.7797975     
  -11575703.7442573     
  -11539450.4964805     
  -11502953.5244548     
  -11466219.9314048     
  -11429257.4928161     
  -11392074.7176011     
  -11354680.9142244     
  -11317086.2626847     
  -11279301.8933227     
  -11241339.9734774     
  -11203213.8030233     
  -11164937.9197785     
  -11126528.2156249     
  -11088002.0638906     
  -11049378.4580577     
  -11010678.1610815     
  -10971923.8634592     
  -10933140.3465450     
  -10894354.6453276     
  -10855596.2018231     
  -10816896.9961882     
  -10778291.6374677     
  -10739817.3893598     
  -10701514.0983842     
  -10663423.9822962     
  -10625591.2255833     
  -10588061.3166821     
  -10550880.0487897     
  -10514092.0939033     
  -10477739.0497718     
  -10441856.8544440     
  -10406472.4668544     
  -10371599.7295822     
  -10337234.3683265     
  -10303348.1501875     
  -10269882.3297398     
  -10236740.6705486     
  -10203782.5572349     
  -10170817.0389266     
  -10137599.1270737     
  -10103830.4342223     
  -10069167.4990135     
  -10033242.6792667     
  -9995701.85333922     
  -9956254.90334085     
  -9914717.85627495     
  -9871015.95289944     
  -13045129.4716917     
  -13019983.8661742     
  -12996156.6518568     
  -12973527.4049794     
  -12951917.4938884     
  -12931105.6705784     
  -12910853.2152088     
  -12890927.7451715     
  -12871119.2917427     
  -12851248.3545300     
  -12831168.2949134     
  -12810764.3459617     
  -12789950.7475212     
  -12768666.9469757     
  -12746873.4723319     
  -12724547.8714316     
  -12701680.9613009     
  -12678273.5224167     
  -12654333.4939156     
  -12629873.6716519     
  -12604909.8765794     
  -12579459.5415846     
  -12553540.6564307     
  -12527171.0094188     
  -12500367.6679307     
  -12473146.6461688     
  -12445522.7156859     
  -12417509.3217551     
  -12389118.5756841     
  -12360361.2994837     
  -12331247.1047471     
  -12301784.4921260     
  -12271980.9614764     
  -12241843.1256658     
  -12211376.8232935     
  -12180587.2272836     
  -12149478.9475725     
  -12118056.1270177     
  -12086322.5302811     
  -12054281.6258629     
  -12021936.6617238     
  -11989290.7350879     
  -11956346.8570916     
  -11923108.0129674     
  -11889577.2184446     
  -11855757.5730130     
  -11821652.3106667     
  -11787264.8487015     
  -11752598.8351044     
  -11717658.1950471     
  -11682447.1769734     
  -11646970.3987607     
  -11611232.8944382     
  -11575240.1619554     
  -11538998.2125211     
  -11502513.6220710     
  -11465793.5854693     
  -11428845.9741153     
  -11391679.3976943     
  -11354303.2708910     
  -11316727.8859676     
  -11278964.4921799     
  -11241025.3830664     
  -11202923.9926662     
  -11164675.0016886     
  -11126294.4545298     
  -11087799.8877693     
  -11049210.4703257     
  -11010547.1547213     
  -10971832.8378243     
  -10933092.5278686     
  -10894353.5123779     
  -10855645.5186682     
  -10817000.8547077     
  -10778454.5130789     
  -10740044.2144461     
  -10701810.3591221     
  -10663795.8459788     
  -10626045.7071031     
  -10588606.4945070     
  -10551525.3424362     
  -10514848.6163987     
  -10478620.0496185     
  -10442878.2617139     
  -10407653.5565450     
  -10372963.9111690     
  -10338810.1017178     
  -10305169.9719964     
  -10271991.9446566     
  -10239188.0114350     
  -10206626.6282392     
  -10174126.2001685     
  -10141450.2096808     
  -10108305.6180085     
  -10074347.1510257     
  -10039191.4062785     
  -10002444.8536149     
  -9963745.20195431     
  -9922805.02846820     
  -9879438.80399093     
  -13039979.2942550     
  -13015026.7262445     
  -12991543.6775577     
  -12969345.9472805     
  -12948194.6242534     
  -12927825.8211919     
  -12907977.2331398     
  -12888406.9403477     
  -12868903.8343786     
  -12849291.6189057     
  -12829428.7707321     
  -12809206.1999604     
  -12788543.6753805     
  -12767385.6814000     
  -12745697.1527679     
  -12723459.3883989     
  -12700666.3350857     
  -12677321.3451029     
  -12653434.4459194     
  -12629020.1137439     
  -12604095.5127697     
  -12578679.1454131     
  -12552789.8520867     
  -12526446.0990231     
  -12499665.4968319     
  -12472464.4989401     
  -12444858.2364901     
  -12416860.4537412     
  -12388483.5150241     
  -12359738.4605155     
  -12330635.0934296     
  -12301182.0856401     
  -12271387.0923249     
  -12241256.8690402     
  -12210797.3868035     
  -12180013.9424012     
  -12148911.2623353     
  -12117493.5996792     
  -12085764.8237009     
  -12053728.5025057     
  -12021387.9791857     
  -11988746.4421068     
  -11955806.9900195     
  -11922572.6926981     
  -11889046.6477980     
  -11855232.0345838     
  -11821132.1651460     
  -11786750.5336814     
  -11752090.8643767     
  -11717157.1584056     
  -11681953.7405289     
  -11646485.3057788     
  -11610756.9667061     
  -11574774.3016865     
  -11538543.4048026     
  -11502070.9378578     
  -11465364.1851295     
  -11428431.1115257     
  -11391280.4248886     
  -11353921.6432597     
  -11316365.1680147     
  -11278622.3638449     
  -11240705.6466371     
  -11202628.5803292     
  -11164405.9838035     
  -11126054.0487735     
  -11087590.4693838     
  -11049034.5838313     
  -11010407.5276369     
  -10971732.3971820     
  -10933034.4206416     
  -10894341.1313769     
  -10855682.5360274     
  -10817091.2657930     
  -10778602.6945425     
  -10740255.0012239     
  -10702089.1464464     
  -10664148.7239402     
  -10626479.6369141     
  -10589129.5373218     
  -10552146.9532452     
  -10515580.0169292     
  -10479474.6950289     
  -10443872.4156674     
  -10408806.9872592     
  -10374300.7160883     
  -10340359.6587019     
  -10306967.9972583     
  -10274081.6068695     
  -10241620.9982128     
  -10209463.9692554     
  -10177438.4914497     
  -10145316.6066818     
  -10112810.4917750     
  -10079572.5377197     
  -10045202.4512286     
  -10009265.4963134     
  -9971325.22809976     
  -9930989.60590034     
  -9887962.52576666     
  -13034765.3780306     
  -13010009.7274237     
  -12986878.0297876     
  -12965121.2599666     
  -12944438.9727216     
  -12924523.5161969     
  -12905088.2281968     
  -12885881.2503012     
  -12866690.1979018     
  -12847341.9976052     
  -12827700.3460191     
  -12807661.9803964     
  -12787152.3692145     
  -12766121.2080405     
  -12744538.0041739     
  -12722387.9576977     
  -12699668.2756164     
  -12676384.9914699     
  -12652550.3100540     
  -12628180.4581162     
  -12603293.9967524     
  -12577910.5375791     
  -12552049.7998399     
  -12525730.9467091     
  -12498972.1439070     
  -12471790.2905812     
  -12444200.8800063     
  -12416217.9551681     
  -12387854.1312591     
  -12359120.6632464     
  -12330027.5418857     
  -12300583.6058599     
  -12270796.6611785     
  -12240673.6016897     
  -12210220.5266326     
  -12179442.8527207     
  -12148345.4193719     
  -12116932.5865158     
  -12085208.3249449     
  -12053176.2995437     
  -12020839.9459414     
  -11988202.5412529     
  -11955267.2696228     
  -11922037.2832921     
  -11888515.7598856     
  -11854705.9565785     
  -11820611.2617636     
  -11786235.2447921     
  -11751581.7043305     
  -11716654.7158410     
  -11681458.6786758     
  -11645998.3632628     
  -11610278.9588641     
  -11574306.1223972     
  -11538086.0288374     
  -11501625.4237550     
  -11464931.6785910     
  -11428012.8493355     
  -11390877.7393495     
  -11353535.9671466     
  -11315998.0400426     
  -11278275.4346625     
  -11240380.6853646     
  -11202327.4816916     
  -11164130.7759473     
  -11125806.9019224     
  -11087373.7055833     
  -11048850.6881699     
  -11010259.1615249     
  -10971622.4145332     
  -10932965.8881589     
  -10894317.3546081     
  -10855707.0934582     
  -10817168.0540074     
  -10778735.9884138     
  -10740449.5342410     
  -10702350.2176120     
  -10664482.3392061     
  -10626892.6947900     
  -10589630.0700370     
  -10552744.4364991     
  -10516285.7626300     
  -10480302.3421139     
  -10444838.5336230     
  -10409931.8045078     
  -10375608.9797876     
  -10341881.6218233     
  -10308740.5099965     
  -10276149.2572594     
  -10244037.1921830     
  -10212291.7468654     
  -10180750.7142975     
  -10149194.8704781     
  -10117341.6330453     
  -10084840.8130772     
  -10051274.5216393     
  -10016165.4707337     
  -9979001.10607031     
  -9939282.59320051     
  -9896601.44024907     
  -13029479.3897744     
  -13004926.4724348     
  -12982156.1683055     
  -12960852.4115058     
  -12940651.3697009     
  -12921200.5051908     
  -12902188.2881840     
  -12883352.7724824     
  -12864480.3260846     
  -12845401.2115441     
  -12825984.5008906     
  -12806132.9353998     
  -12785777.8668554     
  -12764874.3812029     
  -12743396.7248683     
  -12721334.1476572     
  -12698687.2445554     
  -12675464.8367197     
  -12651681.3921131     
  -12627354.9552430     
  -12602505.5351158     
  -12577153.8899202     
  -12551320.6439752     
  -12525025.6748110     
  -12498287.7138528     
  -12471124.1114426     
  -12443550.7247317     
  -12415581.8945587     
  -12387230.4843529     
  -12358507.9601496     
  -12329424.4959124     
  -12299989.0925338     
  -12270209.7022308     
  -12240093.3526499     
  -12209646.2669881     
  -12178873.9778991     
  -12147781.4340315     
  -12116373.0987822     
  -12084653.0413636     
  -12052625.0205950     
  -12020292.5620297     
  -11987659.0291211     
  -11954727.6891715     
  -11921501.7747965     
  -11887984.5416156     
  -11854179.3228335     
  -11820089.5813320     
  -11785718.9598512     
  -11751071.3297981     
  -11716150.8391905     
  -11680961.9602257     
  -11645509.5369493     
  -11609798.8335026     
  -11573835.5834397     
  -11537626.0406275     
  -11501177.0322809     
  -11464496.0147344     
  -11427591.1326128     
  -11390471.2821376     
  -11353146.1793885     
  -11315626.4344288     
  -11277923.6322926     
  -11240050.4219105     
  -11202020.6141085     
  -11163849.2898286     
  -11125552.9196565     
  -11087149.4955804     
  -11048658.6755682     
  -11010101.9409951     
  -10971502.7660809     
  -10932886.7972021     
  -10894282.0381025     
  -10855719.0344805     
  -10817231.0480078     
  -10778854.2053441     
  -10740627.6019525     
  -10702593.3333226     
  -10664796.4174234     
  -10627284.5618109     
  -10590107.7169237     
  -10553317.3441057     
  -10516965.3135603     
  -10481102.3350644     
  -10445775.8148296     
  -10411027.0281557     
  -10376887.5030203     
  -10343374.5284969     
  -10310485.7375424     
  -10278192.7678286     
  -10246434.0737524     
  -10215107.0360764     
  -10184059.5709763     
  -10153081.4519975     
  -10121895.5256654     
  -10090149.0637017     
  -10057406.3127008     
  -10023146.5380733     
  -9986779.12564362     
  -9947695.23403077     
  -9905370.14571848     
  -13024112.7486145     
  -12999770.3888986     
  -12977374.4755840     
  -12956538.4709220     
  -12936832.6900698     
  -12917858.6003110     
  -12899279.5676583     
  -12880823.6690607     
  -12862276.2224904     
  -12843471.0349678     
  -12824282.7615442     
  -12804620.3517037     
  -12784421.2374705     
  -12763646.0797996     
  -12742274.0317994     
  -12720298.5401156     
  -12697723.7128284     
  -12674561.2619025     
  -12650828.0010746     
  -12626543.8567694     
  -12601730.3341509     
  -12576409.3729517     
  -12550602.5267806     
  -12524330.4032612     
  -12497612.3087615     
  -12470466.0492126     
  -12442907.8465448     
  -12414952.3379300     
  -12386612.6319182     
  -12357900.4015254     
  -12328825.9993201     
  -12299398.5836107     
  -12269626.2480561     
  -12239516.1495099     
  -12209074.6307896     
  -12178307.3364542     
  -12147219.3206588     
  -12115815.1468531     
  -12084098.9795421     
  -12052074.6686162     
  -12019745.8269233     
  -11987115.9018297     
  -11954188.2415427     
  -11920966.1569441     
  -11887452.9796576     
  -11853652.1170181     
  -11819567.1045666     
  -11785201.6566483     
  -11750559.7156527     
  -11715645.5004017     
  -11680463.5541724     
  -11645018.7928293     
  -11609316.5535423     
  -11573362.6445767     
  -11537163.3966698     
  -11500725.7165390     
  -11464057.1431229     
  -11427165.9072140     
  -11390060.9952172     
  -11352752.2178537     
  -11315250.2847219     
  -11277566.8857214     
  -11239714.7804339     
  -11201707.8966238     
  -11163561.4390556     
  -11125292.0097874     
  -11086917.7409719     
  -11048458.4409092     
  -11009935.7536017     
  -10971373.3312698     
  -10932797.0180903     
  -10894235.0417080     
  -10855718.2066674     
  -10817280.0806677     
  -10778957.1602447     
  -10740788.9969385     
  -10702818.2580174     
  -10665090.6872356     
  -10627654.9208459     
  -10590562.1022293     
  -10553865.2253699     
  -10517618.1236583     
  -10481874.0073113     
  -10446683.4418451     
  -10412091.6540192     
  -10378135.0536375     
  -10344836.8729217     
  -10312201.8524264     
  -10280209.9432947     
  -10248809.0432371     
  -10217906.8194508     
  -10187361.6603748     
  -10156972.6905848     
  -10126468.5387796     
  -10095494.2692578     
  -10063596.4444474     
  -10030210.4608373     
  -9994665.71291847     
  -9956239.07774304     
  -9914283.67161989     
  -13018656.5333013     
  -12994534.6899539     
  -12972529.2748912     
  -12952178.5502456     
  -12932983.8905761     
  -12914499.6995815     
  -12896364.3002480     
  -12878296.1728221     
  -12860079.9528629     
  -12841553.2959432     
  -12822596.6997661     
  -12803125.5536809     
  -12783083.5804193     
  -12762437.2061901     
  -12741170.6594568     
  -12719281.7294460     
  -12696778.1597799     
  -12673674.6532051     
  -12649990.4485135     
  -12625747.4150356     
  -12600968.5994725     
  -12575677.1555684     
  -12549895.5883154     
  -12523645.2494120     
  -12496946.0279838     
  -12469816.1888139     
  -12442272.3186300     
  -12414329.3487363     
  -12386000.6291737     
  -12357298.0354681     
  -12328232.0939084     
  -12298812.1152208     
  -12269046.3295961     
  -12238942.0183989     
  -12208505.6396598     
  -12177742.9457552     
  -12146659.0925876     
  -12115258.7402167     
  -12083546.1452924     
  -12051525.2458958     
  -12019199.7395241     
  -11986573.1550162     
  -11953648.9192166     
  -11920430.4191502     
  -11886921.0604390     
  -11853124.3226330     
  -11819043.8120853     
  -11784683.3129454     
  -11750046.8368100     
  -11715138.6715350     
  -11679963.4296934     
  -11644526.0971519     
  -11608832.0822382     
  -11572887.2659857     
  -11536698.0539610     
  -11500271.4302237     
  -11463615.0140087     
  -11426737.1197913     
  -11389646.8214646     
  -11352354.0214497     
  -11314869.5256507     
  -11277205.1252716     
  -11239373.6866042     
  -11201389.2499829     
  -11163267.1391504     
  -11125024.0822742     
  -11086678.3457578     
  -11048249.8817556     
  -11009760.4898734     
  -10971233.9928256     
  -10932696.4247327     
  -10894176.2291585     
  -10855704.4617403     
  -10817314.9892041     
  -10779044.6724576     
  -10740933.5161323     
  -10703024.7601724     
  -10665364.8806747     
  -10628003.4570602     
  -10590992.8508232     
  -10554387.6278055     
  -10518243.6417416     
  -10482616.6827370     
  -10447560.5819740     
  -10413124.6555252     
  -10379350.3684384     
  -10346267.1080476     
  -10313886.9743072     
  -10282198.5226995     
  -10251159.4216510     
  -10220687.9861831     
  -10190653.4737932     
  -10160864.8037198     
  -10131056.9054470     
  -10100873.2620389     
  -10069843.3970709     
  -10037358.9294963     
  -10002667.3992310     
  -9964926.04777540     
  -9923357.63931760     
  -13013101.3832735     
  -12989212.3339003     
  -12967616.8513800     
  -12947771.8499324     
  -12929106.0485235     
  -12911125.8105073     
  -12893444.8109698     
  -12875772.5930586     
  -12857893.6475132     
  -12839649.8768455     
  -12820927.9324277     
  -12801649.9023619     
  -12781766.0240826     
  -12761248.6849868     
  -12740087.3587454     
  -12718284.3215448     
  -12695851.0722969     
  -12672805.4012106     
  -12649169.0479893     
  -12624965.8825800     
  -12600220.5356214     
  -12574957.4047327     
  -12549199.9661686     
  -12522970.3278511     
  -12496288.9679898     
  -12469174.6123001     
  -12441644.2113986     
  -12413712.9878111     
  -12385394.5289014     
  -12356700.9078340     
  -12327642.8194411     
  -12298229.7216570     
  -12268469.9761437     
  -12238370.9839751     
  -12207939.3139136     
  -12177180.8220142     
  -12146100.7621318     
  -12114703.8874672     
  -12082994.5436484     
  -12050976.7540496     
  -12018654.2981589     
  -11986030.7838329     
  -11953109.7142726     
  -11919894.5505098     
  -11886388.7701429     
  -11852595.9230077     
  -11818519.6844066     
  -11784163.9064763     
  -11749532.6682279     
  -11714630.3247639     
  -11679461.5561519     
  -11644031.4164256     
  -11608345.3831830     
  -11572409.4082624     
  -11536229.9700025     
  -11499814.1276261     
  -11463169.5783393     
  -11426304.7177990     
  -11389228.7046755     
  -11351951.5301321     
  -11314484.0931342     
  -11276838.2826124     
  -11239027.0676110     
  -11201064.5966447     
  -11162966.3075624     
  -11124749.0492397     
  -11086431.2163606     
  -11048032.8983739     
  -11009576.0433435     
  -10971084.6367950     
  -10932584.8946820     
  -10894105.4681462     
  -10855677.6556658     
  -10817335.6153096     
  -10779116.5659334     
  -10741060.9610571     
  -10703212.6126138     
  -10665618.7335728     
  -10628329.8584462     
  -10591399.5888721     
  -10554884.0979805     
  -10518841.3125515     
  -10483329.6769385     
  -10448406.3887609     
  -10414124.9854324     
  -10380532.1550852     
  -10347663.6476011     
  -10315539.1719493     
  -10284156.1810525     
  -10253482.4515101     
  -10223447.3311805     
  -10193931.3907315     
  -10164753.8767442     
  -10135656.7012578     
  -10106282.6861013     
  -10076145.4440065     
  -10044593.4840205     
  -10010790.7848764     
  -9973768.51174764     
  -9932608.43354982     
  -13007437.3904396     
  -12983795.9829948     
  -12962633.4783159     
  -12943317.7086752     
  -12925200.4018966     
  -12907739.0736237     
  -12890523.5283329     
  -12873255.3213445     
  -12855719.5036446     
  -12837762.7148079     
  -12819278.1209513     
  -12800194.7944197     
  -12780469.7246550     
  -12760081.4618222     
  -12739024.8958209     
  -12717306.9327842     
  -12694942.9438979     
  -12671953.9001268     
  -12648364.1144083     
  -12624199.5116219     
  -12599486.3456530     
  -12574250.2851498     
  -12548515.7952074     
  -12522305.7502083     
  -12495641.2222229     
  -12468541.3987445     
  -12441023.5924075     
  -12413103.3133069     
  -12384794.3814018     
  -12356109.0622091     
  -12327058.2136225     
  -12297651.4353564     
  -12267897.2153286     
  -12237803.0694137     
  -12207375.6725487     
  -12176620.9802781     
  -12145544.3405787     
  -12114150.5962990     
  -12082444.1788591     
  -12050429.1940151     
  -12018109.5005735     
  -11985488.7829423     
  -11952570.6183864     
  -11919358.5397937     
  -11885856.0947058     
  -11852066.9012997     
  -11817994.7019495     
  -11783643.4149461     
  -11749017.1849066     
  -11714120.4323765     
  -11678957.9030988     
  -11643534.7174225     
  -11607856.4203100     
  -11571929.0324257     
  -11535759.1028048     
  -11499353.7636387     
  -11462720.7877638     
  -11425868.6495007     
  -11388806.5895723     
  -11351544.6849125     
  -11314093.9242889     
  -11276466.2907686     
  -11238674.8521743     
  -11200733.8607924     
  -11162658.8636806     
  -11124466.8249840     
  -11086176.2616424     
  -11047807.3937559     
  -11009382.3105788     
  -10970925.1525841     
  -10932462.3091866     
  -10894022.6303940     
  -10855637.6487550     
  -10817341.8052874     
  -10779172.6694143     
  -10741171.1380724     
  -10703381.5928447     
  -10665851.9859889     
  -10628633.8163752     
  -10591781.9445439     
  -10555354.1824009     
  -10519410.5778400     
  -10484012.2985420     
  -10449220.0035439     
  -10415091.5776162     
  -10381679.0940822     
  -10349024.8681746     
  -10317156.4652602     
  -10286080.5310251     
  -10255775.2976857     
  -10226181.5542070     
  -10197191.6747802     
  -10168635.8527784     
  -10140263.8233125     
  -10111718.9564715     
  -10082500.5825253     
  -10051915.4278145     
  -10019042.4939568     
  -9982779.35303394     
  -9942053.38995215     
  -13001653.9780712     
  -12978277.9617345     
  -12957575.4509674     
  -12938815.6591007     
  -12921268.3909576     
  -12904341.7856523     
  -12887602.9960225     
  -12870746.8371027     
  -12853559.7875570     
  -12835893.8020996     
  -12817648.9707300     
  -12798761.6611148     
  -12779195.8648983     
  -12758936.5020761     
  -12737984.0508847     
  -12716350.1889268     
  -12694054.2737882     
  -12671120.5469876     
  -12647575.9633626     
  -12623448.5535241     
  -12598766.2307076     
  -12573555.9589323     
  -12547843.2073170     
  -12521651.6249573     
  -12495002.8809503     
  -12467916.6241308     
  -12440410.5262779     
  -12412500.3806350     
  -12384200.2344504     
  -12355522.5398762     
  -12326478.3120729     
  -12297077.2868825     
  -12267328.0731050     
  -12237238.2963962     
  -12206814.7332369     
  -12176063.4344213     
  -12144989.8381827     
  -12113598.8735005     
  -12081895.0543839     
  -12049882.5660466     
  -12017565.3439291     
  -11984947.1465139     
  -11952031.6228255     
  -11918822.3754467     
  -11885323.0198154     
  -11851537.2404921     
  -11817468.8450314     
  -11783121.8160308     
  -11748500.3618895     
  -11713608.9667755     
  -11678452.4402736     
  -11643035.9671787     
  -11607365.1578961     
  -11571446.0999205     
  -11535285.4108924     
  -11498890.2937613     
  -11462268.5946376     
  -11425428.8639756     
  -11388380.4218110     
  -11351133.4278651     
  -11313698.9574380     
  -11276089.0841292     
  -11238316.9705537     
  -11200396.9683437     
  -11162344.7288451     
  -11124177.3259987     
  -11085913.3929216     
  -11047573.2736410     
  -11009179.1912084     
  -10970755.4329974     
  -10932328.5532440     
  -10893927.5917284     
  -10855584.3057646     
  -10817333.4101902     
  -10779212.8166227     
  -10741263.8586273     
  -10703531.4833825     
  -10666064.3826524     
  -10628915.0261707     
  -10592139.5487381     
  -10555797.4284262     
  -10519950.8774997     
  -10484663.8505669     
  -10450000.5570645     
  -10416023.3489174     
  -10382789.8408252     
  -10350349.1113876     
  -10318736.8273974     
  -10287969.1247161     
  -10258035.0483378     
  -10228887.2591472     
  -10200430.4697168     
  -10172506.5229995     
  -10144873.9699212     
  -10117178.2190276     
  -10088906.4617800     
  -10059325.7314765     
  -10027429.1159827     
  -9991972.04323711     
  -9951711.00488047     
  -12995739.7624553     
  -12972650.2153099     
  -12952439.1312937     
  -12934265.4908874     
  -12917311.7011472     
  -12900936.4218455     
  -12884685.8839727     
  -12868249.7128617     
  -12851416.8366734     
  -12834045.1864035     
  -12816042.2304821     
  -12797351.9671865     
  -12777945.6528454     
  -12757814.7895566     
  -12736965.6169382     
  -12715414.7240012     
  -12693185.5658817     
  -12670305.7408235     
  -12646804.9104428     
  -12622713.2582364     
  -12598060.3895677     
  -12572874.5852513     
  -12547182.3311319     
  -12521008.0572116     
  -12494374.0311090     
  -12467300.3612369     
  -12439805.0746095     
  -12411904.2424041     
  -12383612.1332524     
  -12354941.3797827     
  -12325903.1483053     
  -12296507.3049077     
  -12266762.5737365     
  -12236676.6850998     
  -12206256.5123157     
  -12175508.1971381     
  -12144437.2641585     
  -12113048.7249486     
  -12081347.1728883     
  -12049336.8697109     
  -12017021.8247984     
  -11984405.8682206     
  -11951492.7184472     
  -11918286.0455842     
  -11884789.5309077     
  -11851006.9233925     
  -11816942.0938683     
  -11782599.0873775     
  -11747982.1742632     
  -11713095.9004809     
  -11677945.1376068     
  -11642535.1329982     
  -11606871.5605650     
  -11570960.5726215     
  -11534808.8533073     
  -11498423.6741050     
  -11461812.9520290     
  -11424985.3111238     
  -11387950.1479875     
  -11350717.7021345     
  -11313299.1321170     
  -11275706.5984546     
  -11237953.3545561     
  -11200053.8469600     
  -11162023.8263580     
  -11123880.4709797     
  -11085642.5239898     
  -11047330.4465359     
  -11008966.5879511     
  -10970575.3742752     
  -10932183.5156535     
  -10893820.2321533     
  -10855517.4959987     
  -10817310.2859612     
  -10779236.8464540     
  -10741338.9395218     
  -10703662.0721064     
  -10666255.6734197     
  -10629173.1877019     
  -10592472.0358430     
  -10556213.3852201     
  -10520461.6507343     
  -10485283.6318395     
  -10450747.1711368     
  -10416919.2010569     
  -10383863.0277219     
  -10351634.6861226     
  -10320278.1869558     
  -10289819.4555060     
  -10260258.7159576     
  -10231560.9534418     
  -10203643.7959079     
  -10176361.5174482     
  -10149482.6213561     
  -10122656.3117742     
  -10095360.3085834     
  -10066824.9237221     
  -10035957.1288155     
  -10001360.7143873     
  -9961601.17507004     
  -12989682.3918649     
  -12966904.2694816     
  -12947221.0074080     
  -12929667.3228348     
  -12913332.3068302     
  -12897525.6570329     
  -12881774.9986566     
  -12865766.6191139     
  -12849293.0613263     
  -12832218.9709638     
  -12814459.6915238     
  -12795967.2096820     
  -12776720.3204525     
  -12756717.3251336     
  -12735970.3984911     
  -12714501.1791392     
  -12692337.3277884     
  -12669509.8818048     
  -12646051.2705300     
  -12621993.8737205     
  -12597369.0181992     
  -12572206.3199782     
  -12546533.2917589     
  -12520375.1485126     
  -12493754.7561479     
  -12466692.6795189     
  -12439207.2958964     
  -12411314.9483580     
  -12383030.1203989     
  -12354365.6185088     
  -12325332.7537030     
  -12295941.5161963     
  -12266200.7397854     
  -12236118.2541882     
  -12205701.0247808     
  -12174955.2799364     
  -12143886.6266764     
  -12112500.1556039     
  -12080800.5362373     
  -12048792.1038830     
  -12016478.9391613     
  -11983864.9412345     
  -11950953.8956950     
  -11917749.5379903     
  -11884255.6131664     
  -11850475.9326312     
  -11816414.4285725     
  -11782075.2066031     
  -11747462.5971571     
  -11712581.2061289     
  -11677435.9652210     
  -11642032.1824537     
  -11606375.5932897     
  -11570472.4128368     
  -11534329.3896133     
  -11497953.8613965     
  -11461353.8137229     
  -11424537.9416717     
  -11387515.7156431     
  -11350297.4519411     
  -11312894.3890820     
  -11275318.7708845     
  -11237583.9375443     
  -11199704.4260549     
  -11161696.0814924     
  -11123576.1808385     
  -11085363.5711247     
  -11047078.8237346     
  -11008744.4066419     
  -10970384.8761316     
  -10932027.0890689     
  -10893700.4359240     
  -10855437.0934137     
  -10817272.2935784     
  -10779244.6031749     
  -10741396.2031743     
  -10703773.1526156     
  -10666425.6137467     
  -10629408.0059949     
  -10592779.0445172     
  -10556601.6047323     
  -10520942.3372698     
  -10485870.9384575     
  -10451458.9603739     
  -10417778.0226180     
  -10384897.2663877     
  -10352879.8708450     
  -10321778.4302465     
  -10291628.9600183     
  -10262443.2385500     
  -10234199.0477444     
  -10206827.5471186     
  -10180196.2965192     
  -10154085.0219462     
  -10128148.7283549     
  -10101858.8517178     
  -10074412.9668252     
  -10044632.7960661     
  -10010960.2286968     
  -9971745.47653562     
  -12983468.3558701     
  -12961031.1940482     
  -12941917.7729688     
  -12925021.6852850     
  -12909332.5150131     
  -12894112.3848306     
  -12878873.2924752     
  -12863300.3286853     
  -12847190.9462526     
  -12830417.3145796     
  -12812903.1869436     
  -12794608.9167133     
  -12775521.1221915     
  -12755645.1253208     
  -12734999.2102257     
  -12713610.2013737     
  -12691510.0697680     
  -12668733.3703560     
  -12645315.3570633     
  -12621290.6453574     
  -12596692.3092806     
  -12571551.3153158     
  -12545896.2104938     
  -12519752.9966164     
  -12493145.1358673     
  -12466093.6449926     
  -12438617.2454402     
  -12410732.5453143     
  -12382454.2358217     
  -12353795.2902364     
  -12324767.1574956     
  -12295379.9455891     
  -12265642.5920991     
  -12235563.0208028     
  -12205148.2842779     
  -12174404.6931324     
  -12143337.9328564     
  -12111953.1695060     
  -12080255.1454933     
  -12048248.2667420     
  -12015936.6824017     
  -11983324.3582244     
  -11950415.1445954     
  -11917212.8401146     
  -11883721.2515197     
  -11849944.2506599     
  -11815885.8291529     
  -11781550.1512946     
  -11746941.6057448     
  -11712064.8564740     
  -11676924.8934322     
  -11641527.0833897     
  -11605877.2213951     
  -11569981.5833108     
  -11533846.9798999     
  -11497480.8129836     
  -11460891.1342266     
  -11424086.7071778     
  -11387077.0732704     
  -11349872.6225872     
  -11312484.6703144     
  -11274925.5399431     
  -11237208.6544435     
  -11199348.6368015     
  -11161361.4215013     
  -11123264.3787121     
  -11085076.4531051     
  -11046818.3193362     
  -11008512.5562573     
  -10970183.8417899     
  -10931859.1700497     
  -10893568.0916204     
  -10855342.9767206     
  -10817219.2991996     
  -10779235.9366234     
  -10741435.4778944     
  -10703864.5245949     
  -10666573.9651718     
  -10629619.1918628     
  -10593060.2184950     
  -10556961.6427104     
  -10521392.3786048     
  -10486425.0653002     
  -10452135.0339743     
  -10418598.6910968     
  -10385891.1499210     
  -10354082.9160116     
  -10323235.4036754     
  -10293395.0202033     
  -10264585.4809834     
  -10236797.8558422     
  -10209977.4878264     
  -10184006.1432935     
  -10158676.1637272     
  -10133650.5847290     
  -10108398.2462796     
  -10082089.1141450     
  -10053462.0300418     
  -10020786.2421350     
  -9982167.49479093     
  -12977082.7558118     
  -12955021.5735299     
  -12936526.4332402     
  -12920329.6139508     
  -12905315.0075960     
  -12890699.7344824     
  -12875983.8721744     
  -12860853.7205105     
  -12845113.0517420     
  -12828642.4314240     
  -12811374.5906603     
  -12793278.6461306     
  -12774349.3335782     
  -12754599.2208006     
  -12734052.8756118     
  -12712742.4423937     
  -12690704.3036501     
  -12667976.6062438     
  -12644597.4812863     
  -12620603.8153372     
  -12596030.4517184     
  -12570909.7194206     
  -12545271.2045309     
  -12519141.6952726     
  -12492545.2462553     
  -12465503.3201130     
  -12438034.9752630     
  -12410157.0771009     
  -12381884.5167501     
  -12353230.4267166     
  -12324206.3867391     
  -12294822.6159867     
  -12265088.1498010     
  -12235011.0005534     
  -12204598.3030982     
  -12173856.4458446     
  -12142791.1887639     
  -12111407.7697692     
  -12079711.0009115     
  -12047705.3557684     
  -12015395.0493041     
  -11982784.1113528     
  -11949876.4547567     
  -11916675.9390709     
  -11883186.4306389     
  -11849411.8597503     
  -11815356.2755133     
  -11781023.8990085     
  -11746419.1752436     
  -11711546.8243893     
  -11676411.8927514     
  -11641019.8039232     
  -11605376.4105606     
  -11569488.0472270     
  -11533361.5847850     
  -11497004.4868373     
  -11460424.8687731     
  -11423631.5600368     
  -11386634.1703179     
  -11349443.1604622     
  -11312069.9190266     
  -11274526.8455459     
  -11236827.4417462     
  -11198986.4121389     
  -11161019.7756256     
  -11122944.9899736     
  -11084781.0912221     
  -11046548.8502623     
  -11008270.9489402     
  -10969972.1780177     
  -10931679.6591116     
  -10893423.0922206     
  -10855235.0294904     
  -10817151.1743089     
  -10779210.7024117     
  -10741456.5981609     
  -10703935.9941894     
  -10666700.4958114     
  -10629806.4625501     
  -10593315.2074137     
  -10557293.0597437     
  -10521811.2192987     
  -10486945.3075897     
  -10452774.4975655     
  -10419380.0750236     
  -10386843.2552592     
  -10355242.0465740     
  -10324646.9162339     
  -10295114.9655642     
  -10266682.2365375     
  -10239353.5948745     
  -10213089.2511269     
  -10187786.1568912     
  -10163250.7717628     
  -10139156.5899336     
  -10114974.0005414     
  -10089851.7479230     
  -10062450.2085866     
  -10030855.2555520     
  -9992893.22225799     
  -12970509.0241136     
  -12948865.4910497     
  -12931044.4466699     
  -12915592.7554191     
  -12901282.8800134     
  -12887291.0849108     
  -12873110.0062801     
  -12858429.7826931     
  -12843062.0144070     
  -12826896.5906729     
  -12809875.8163518     
  -12791977.9841100     
  -12773206.2496285     
  -12753580.6548916     
  -12733132.2254749     
  -12711898.5572597     
  -12689920.5417192     
  -12667239.9876352     
  -12643897.9514711     
  -12619933.6220326     
  -12595383.6301506     
  -12570281.6760157     
  -12544658.3866666     
  -12518541.3340020     
  -12491955.1593217     
  -12464921.7636536     
  -12437460.5340205     
  -12409588.5844954     
  -12381320.9976665     
  -12352671.0572417     
  -12323650.4662936     
  -12294269.5483365     
  -12264537.4302784     
  -12234462.2075119     
  -12204051.0921708     
  -12173310.5459892     
  -12142246.3994054     
  -12110863.9585792     
  -12079168.1019360     
  -12047163.3677400     
  -12014854.0340506     
  -11982244.1922729     
  -11949337.8153648     
  -11916138.8216342     
  -11882651.1349368     
  -11848878.7419929     
  -11814825.7474522     
  -11780496.4272705     
  -11745895.2809145     
  -11711027.0828670     
  -11675896.9338853     
  -11640510.3124469     
  -11604873.1268218     
  -11568991.7682111     
  -11532873.1654190     
  -11496524.8415570     
  -11459954.9733258     
  -11423172.4534839     
  -11386186.9571947     
  -11349009.0130468     
  -11311650.0796679     
  -11274122.6290037     
  -11236440.2375192     
  -11198617.6867779     
  -11160671.0750997     
  -11122617.9422390     
  -11084477.4092906     
  -11046270.3362719     
  -11008019.5000219     
  -10969749.7951606     
  -10931488.4607768     
  -10893265.3351724     
  -10855113.1402574     
  -10817067.7958639     
  -10779168.7621329     
  -10741459.4049036     
  -10703987.3743843     
  -10666804.9808653     
  -10629969.5423947     
  -10593543.6676624     
  -10557595.4223333     
  -10522198.3082977     
  -10487430.9624979     
  -10453376.4551077     
  -10420121.0361550     
  -10387752.1456209     
  -10356355.4645835     
  -10326010.7421099     
  -10296786.0755326     
  -10268730.2286757     
  -10241862.3858798     
  -10216158.3372932     
  -10191531.2470561     
  -10167803.2911519     
  -10144661.0216542     
  -10121580.9090380     
  -10097698.1968668     
  -10071601.9305103     
  -10041184.6430146     
  -10003951.5441833     
  -12963728.5755265     
  -12942552.5352416     
  -12925469.9135964     
  -12910813.4830971     
  -12897239.6732860     
  -12883890.0758718     
  -12870255.1315734     
  -12856031.6146856     
  -12841040.5475618     
  -12825182.1159229     
  -12808408.8162315     
  -12790708.5436427     
  -12772093.1832402     
  -12752590.4819531     
  -12732238.0965088     
  -12711079.2030762     
  -12689159.2955658     
  -12666523.9101304     
  -12643217.0721225     
  -12619280.2993586     
  -12594752.0244398     
  -12569667.3239969     
  -12544057.8649985     
  -12517951.9978699     
  -12491374.9429312     
  -12464349.0305845     
  -12436893.9669142     
  -12409027.1051624     
  -12380763.7102648     
  -12352117.2086138     
  -12323099.4188043     
  -12293720.7616187     
  -12263990.4491743     
  -12233916.6542055     
  -12203506.6610588     
  -12172767.0002765     
  -12141703.5687261     
  -12110321.7371897     
  -12078626.4471976     
  -12046622.2987293     
  -12014313.6302181     
  -11981704.5921258     
  -11948799.2151820     
  -11915601.4742392     
  -11882115.3485657     
  -11848344.8792954     
  -11814294.2246611     
  -11779967.7135751     
  -11745369.8980626     
  -11710505.6050197     
  -11675379.9877380     
  -11639998.5776293     
  -11604367.3365736     
  -11568492.7103334     
  -11532381.6834871     
  -11496041.8363728     
  -11459481.4045819     
  -11422709.3415988     
  -11385735.3852746     
  -11348570.1289182     
  -11311225.0979266     
  -11273712.8330276     
  -11236046.9814061     
  -11198242.3972059     
  -11160315.2531579     
  -11122283.1653752     
  -11084165.3336594     
  -11045982.6999763     
  -11007758.1280432     
  -10969516.6071746     
  -10931285.4836213     
  -10893094.7224651     
  -10854977.2026225     
  -10816969.0464437     
  -10779109.9835663     
  -10741443.7457883     
  -10704018.4853914     
  -10666887.2031317     
  -10630108.1635004     
  -10593745.2632498     
  -10557868.3039894     
  -10522553.1002962     
  -10487881.3307998     
  -10453940.0108563     
  -10420820.4317398     
  -10388616.3730354     
  -10357421.3519032     
  -10327324.6234319     
  -10298405.5820097     
  -10270726.1130755     
  -10244320.2547014     
  -10219180.1130033     
  -10195236.1302545     
  -10172327.8756961     
  -10150157.7067950     
  -10128212.9970242     
  -10105624.5356568     
  -10080920.6895306     
  -10051792.6403752     
  -10015374.8423020     
  -12956720.3666103     
  -12936071.8463519     
  -12919801.8271742     
  -12905995.0195953     
  -12893189.3957077     
  -12880500.6166823     
  -12867422.8585304     
  -12853662.4284034     
  -12839051.4412512     
  -12823501.3843670     
  -12806975.5796678     
  -12789471.9629265     
  -12771011.4634877     
  -12751629.7657254     
  -12731371.3297397     
  -12710285.0376208     
  -12688421.0749046     
  -12665828.7657690     
  -12642555.1431622     
  -12618644.0761139     
  -12594135.8091544     
  -12569066.7970313     
  -12543469.7426194     
  -12517373.7672571     
  -12490804.6606344     
  -12463785.1719501     
  -12436335.3156054     
  -12408472.6735939     
  -12380212.6834079     
  -12351568.9051184     
  -12322553.2646823     
  -12293176.2728329     
  -12263447.2203790     
  -12233374.3516099     
  -12202965.0179547     
  -12172225.8142072     
  -12141162.6996052     
  -12109781.1059196     
  -12078086.0345112     
  -12046082.1441015     
  -12013773.8307764     
  -11981165.3015394     
  -11948260.6425448     
  -11915063.8829784     
  -11881579.0554165     
  -11847810.2533818     
  -11813761.6867249     
  -11779437.7353855     
  -11744843.0020375     
  -11709982.3640799     
  -11674861.0254124     
  -11639484.5684176     
  -11603859.0065713     
  -11567990.8381114     
  -11531887.1012125     
  -11495555.4311494     
  -11459004.1199756     
  -11422242.1793093     
  -11385279.4068992     
  -11348126.4577524     
  -11310794.9207356     
  -11273297.4017317     
  -11235647.6146323     
  -11197860.4816901     
  -11159952.2450380     
  -11121940.5915051     
  -11083844.7932176     
  -11045685.8668512     
  -11007486.7547746     
  -10969272.5316554     
  -10931070.6403210     
  -10892911.1606974     
  -10854827.1153550     
  -10816854.8143944     
  -10779034.2408848     
  -10741409.4755036     
  -10704029.1550394     
  -10666946.9535288     
  -10630222.0664245     
  -10593919.6666902     
  -10558111.2863546     
  -10522875.0571332     
  -10488295.7185746     
  -10454464.2713829     
  -10421477.1168588     
  -10389434.4809649     
  -10358437.8730303     
  -10328586.2731551     
  -10299970.6720759     
  -10272666.4799306     
  -10246723.1333114     
  -10222149.8111725     
  -10198895.3276138     
  -10176818.3783383     
  -10155640.0062255     
  -10134863.4828268     
  -10113625.3732894     
  -10090408.4406300     
  -10062698.2661104     
  -10027199.7572250     
  -12949460.3294793     
  -12929412.2284386     
  -12914040.4057206     
  -12901141.5566720     
  -12889136.5300177     
  -12877126.8939459     
  -12864616.9753595     
  -12851325.5481165     
  -12837097.5620165     
  -12821856.8256691     
  -12805578.1316440     
  -12788269.9036512     
  -12769962.4338281     
  -12750699.5776041     
  -12730532.7689304     
  -12709516.7179293     
  -12687706.3863563     
  -12665154.9420098     
  -12641912.4590924     
  -12618025.1753126     
  -12593535.1530416     
  -12568480.2231491     
  -12542894.1173082     
  -12516806.7176295     
  -12490244.3714988     
  -12463230.2347476     
  -12435784.6181285     
  -12407925.3210487     
  -12379667.9430871     
  -12351026.1684957     
  -12322012.0220863     
  -12292636.0969874     
  -12262907.7560217     
  -12232835.3091456     
  -12202426.1696772     
  -12171686.9920699     
  -12140623.7938553     
  -12109242.0641509     
  -12077546.8608724     
  -12045542.8985114     
  -12013234.6280853     
  -11980626.3106248     
  -11947722.0853614     
  -11914526.0336004     
  -11881042.2391164     
  -11847274.8457914     
  -11813228.1131201     
  -11778906.4701329     
  -11744314.5682327     
  -11709457.3334019     
  -11674340.0182101     
  -11638968.2540384     
  -11603348.1039331     
  -11567486.1165118     
  -11531389.3813593     
  -11495065.5863885     
  -11458523.0776819     
  -11421770.9223943     
  -11384818.9753822     
  -11347677.9503283     
  -11310359.4962742     
  -11272876.2806365     
  -11235242.0800065     
  -11197471.8802806     
  -11159581.9879847     
  -11121590.1550118     
  -11083515.7194035     
  -11045379.7652469     
  -11007205.3052333     
  -10969017.4898676     
  -10930843.8476967     
  -10892714.5611465     
  -10854662.7824929     
  -10816724.9939758     
  -10778941.4148625     
  -10741356.4560492     
  -10704019.2191686     
  -10666984.0316244     
  -10630311.0008745     
  -10594066.5599065     
  -10558323.9603520     
  -10523163.6492225     
  -10488673.4389505     
  -10454948.3476557     
  -10422089.9468414     
  -10390205.0070231     
  -10359403.1780333     
  -10329793.3781072     
  -10301478.4908844     
  -10274547.8565252     
  -10249066.8616537     
  -10225062.5312346     
  -10202503.1649660     
  -10181268.3440239     
  -10161100.8012544     
  -10141524.7652651     
  -10121693.6455927     
  -10100065.0256259     
  -10073921.1279398     
  -10039468.1683035     
  -12941920.6298570     
  -12922562.3730433     
  -12908187.5297905     
  -12896258.3555866     
  -12885086.0228513     
  -12873773.3808876     
  -12861841.4495452     
  -12849024.4091958     
  -12835181.8524965     
  -12820250.9204338     
  -12804218.5310961     
  -12787104.0491575     
  -12768947.4502133     
  -12749800.9948449     
  -12729723.2589285     
  -12708774.8988379     
  -12687015.7321970     
  -12664502.8206852     
  -12641289.3081428     
  -12617423.8135003     
  -12592950.2184923     
  -12567907.7243323     
  -12542331.0812179     
  -12516250.9193052     
  -12489694.1299397     
  -12462684.2618060     
  -12435241.9088060     
  -12407385.0754948     
  -12379129.5123835     
  -12350489.0179161     
  -12321475.7069075     
  -12292100.2470893     
  -12262372.0664653     
  -12232299.5346728     
  -12201890.1216669     
  -12171150.5369382     
  -12140086.8522190     
  -12108704.6103273     
  -12077008.9224573     
  -12045004.5559023     
  -12012696.0138935     
  -11980087.6089756     
  -11947183.5311109     
  -11913987.9115083     
  -11880504.8830282     
  -11846738.6378772     
  -11812693.4832146     
  -11778373.8952165     
  -11743784.5720863     
  -11708930.4864610     
  -11673816.9376327     
  -11638449.6039986     
  -11602834.5961413     
  -11566978.5109527     
  -11530888.4872339     
  -11494572.2632315     
  -11458038.2366182     
  -11421295.5274870     
  -11384354.0450107     
  -11347224.5585300     
  -11309918.7739706     
  -11272449.4166706     
  -11234830.3219234     
  -11197076.5348120     
  -11159204.4212514     
  -11121231.7925422     
  -11083178.0462083     
  -11045064.3263986     
  -11006913.7076991     
  -10968751.4067698     
  -10930605.0267551     
  -10892504.8398321     
  -10854484.1134405     
  -10816579.4855039     
  -10778831.3930796     
  -10741284.5570245     
  -10703988.5220263     
  -10666998.2461693     
  -10630374.7264146     
  -10594185.6351472     
  -10558505.9273536     
  -10523418.3570141     
  -10489013.8138940     
  -10455391.3571803     
  -10422657.7797544     
  -10390926.4857947     
  -10360315.4056059     
  -10330943.6021921     
  -10302926.1447704     
  -10276366.7100194     
  -10251347.1901782     
  -10227913.2397054     
  -10206053.7748679     
  -10185671.0068609     
  -10166532.4772981     
  -10148188.4416834     
  -10129820.4415557     
  -10109887.4176408     
  -10085481.0367749     
  -10052228.4773546     
  -12934068.6738763     
  -12915511.2724984     
  -12902247.3093519     
  -12891351.7971728     
  -12881043.2574068     
  -12870444.8518065     
  -12859100.4246085     
  -12846762.5564188     
  -12833307.3307935     
  -12818686.1981855     
  -12802898.8691952     
  -12785976.1024253     
  -12767967.8791189     
  -12748935.0986959     
  -12728943.6439529     
  -12708060.2314832     
  -12686349.6090707     
  -12663872.7769301     
  -12640685.9713983     
  -12616840.2000588     
  -12592381.1609962     
  -12567349.4160964     
  -12541780.7205602     
  -12515706.4372235     
  -12489153.9855514     
  -12462147.2916657     
  -12434707.2181657     
  -12406851.9615525     
  -12378597.4114303     
  -12349957.4699562     
  -12320944.3327533     
  -12291568.7341343     
  -12261840.1603002     
  -12231767.0344891     
  -12201356.8779876     
  -12170616.4506709     
  -12139551.8743689     
  -12108168.7419518     
  -12076472.2146204     
  -12044467.1095043     
  -12012157.9793358     
  -11979549.1856657     
  -11946644.9668402     
  -11913449.5017574     
  -11879966.9702488     
  -11846201.6108060     
  -11812157.7762669     
  -11777839.9880025     
  -11743252.9890809     
  -11708401.7968550     
  -11673291.7553834     
  -11637928.5880880     
  -11602318.4510441     
  -11566467.9873055     
  -11530384.3826880     
  -11494075.4234617     
  -11457549.5564477     
  -11420815.9520767     
  -11383884.5710489     
  -11346766.2353486     
  -11309472.7045038     
  -11272016.7581722     
  -11234412.2863636     
  -11196674.3889040     
  -11158819.4861016     
  -11120865.4430079     
  -11082831.7101800     
  -11044739.4844326     
  -11006611.8937279     
  -10968474.2110395     
  -10930354.1027287     
  -10892281.9175785     
  -10854291.0230640     
  -10816418.1954930     
  -10778704.0701268     
  -10741193.6559162     
  -10703936.9166643     
  -10666989.4156352     
  -10630413.0131798     
  -10594276.5959180     
  -10558656.8003713     
  -10523638.6724873     
  -10489316.1760416     
  -10455792.4261997     
  -10423179.4789691     
  -10391597.4517581     
  -10361172.6862507     
  -10332034.5897373     
  -10304310.7046544     
  -10278119.4503272     
  -10253559.7832297     
  -10230696.7711460     
  -10209541.0993758     
  -10190019.2955415     
  -10171926.8987000     
  -10154845.3549770     
  -10137994.9165261     
  -10119868.7405915     
  -10097397.2928742     
  -10065537.3269076     
  -12925865.7455546     
  -12908248.9610728     
  -12896226.8006500     
  -12886429.3300611     
  -12877014.0212238     
  -12867146.4038355     
  -12856398.2084332     
  -12844543.6437856     
  -12831477.0889493     
  -12817165.2349514     
  -12801621.2676191     
  -12784887.7838287     
  -12767025.0955246     
  -12748102.9724297     
  -12728194.7658276     
  -12707373.3617522     
  -12685708.5066709     
  -12663265.1780907     
  -12640102.7219112     
  -12616274.5365025     
  -12591828.1285936     
  -12566805.4070698     
  -12541243.1152921     
  -12515173.3307118     
  -12488623.9829400     
  -12461619.3584612     
  -12434180.5728590     
  -12406326.0004395     
  -12378071.6573772     
  -12349431.5385754     
  -12320417.9109353     
  -12291041.5671005     
  -12261312.0443407     
  -12231237.8133272     
  -12200826.4413219     
  -12170084.7339096     
  -12139018.8589061     
  -12107634.4555874     
  -12075936.7318927     
  -12043930.5518321     
  -12011620.5149331     
  -11979011.0292476     
  -11946106.3791649     
  -11912910.7890562     
  -11879428.4836086     
  -11845663.7455559     
  -11811620.9714256     
  -11777304.7258249     
  -11742719.7947432     
  -11707871.2383037     
  -11672764.4433667     
  -11637405.1763791     
  -11601799.6368573     
  -11565954.5118965     
  -11529877.0321201     
  -11493575.0295068     
  -11457056.9975814     
  -11420332.1545115     
  -11383410.5097392     
  -11346302.9348844     
  -11309021.2398054     
  -11271578.2548896     
  -11233987.9208949     
  -11196265.3879612     
  -11158427.1258078     
  -11120491.0475858     
  -11082476.6504248     
  -11044405.1763719     
  -11006299.7981627     
  -10968185.8350933     
  -10930091.0051118     
  -10892045.7200747     
  -10854083.4317833     
  -10816241.0367934     
  -10778559.3478059     
  -10741083.6383837     
  -10703864.2653364     
  -10666957.3687551     
  -10630425.6425962     
  -10594339.1579234     
  -10558776.2052665     
  -10523824.1006736     
  -10489579.8705729     
  -10456150.6919545     
  -10423653.9158075     
  -10392216.4423024     
  -10361973.1456304     
  -10333063.9689247     
  -10305629.2098489     
  -10279802.4330131     
  -10255700.2231095     
  -10233407.8306661     
  -10212958.8902033     
  -10194305.8533313     
  -10177275.3708925     
  -10161485.6490447     
  -10146204.3814072     
  -10129997.0297998     
  -10109687.4052904     
  -10079461.9571293     
  -12917265.0833404     
  -12900767.8363993     
  -12890136.8630711     
  -12881499.2370825     
  -12873004.5049231     
  -12863883.4800527     
  -12853739.2499552     
  -12842371.4393201     
  -12829694.2886299     
  -12815690.6512210     
  -12800387.8765972     
  -12783840.8286646     
  -12766120.4808755     
  -12747305.6992502     
  -12727477.4621786     
  -12706714.9286795     
  -12685092.9063884     
  -12662680.3826040     
  -12639539.8237962     
  -12615727.0157607     
  -12591291.2613181     
  -12566275.7985735     
  -12540718.3387980     
  -12514651.6532548     
  -12488104.1615570     
  -12461100.4918042     
  -12433661.9955812     
  -12405807.2099187     
  -12377552.2643568     
  -12348911.2350968     
  -12319896.4504558     
  -12290518.7529409     
  -12260787.7236225     
  -12230711.8743538     
  -12200298.8129730     
  -12169555.3860798     
  -12138487.8033612     
  -12107101.7468552     
  -12075402.4679830     
  -12043394.8746862     
  -12011083.6105904     
  -11978473.1277521     
  -11945567.7542651     
  -11912371.7577623     
  -11878889.4056686     
  -11845125.0229168     
  -11811083.0477286     
  -11776768.0859840     
  -11742184.9646446     
  -11707338.7846499     
  -11672234.9736898     
  -11636879.3392285     
  -11601278.1221647     
  -11565438.0515086     
  -11529366.4004774     
  -11493071.0444403     
  -11456560.5211792     
  -11419844.0939995     
  -11382931.8183033     
  -11345834.6123469     
  -11308564.3330582     
  -11271133.8579817     
  -11233557.1746705     
  -11195849.4791715     
  -11158027.2856505     
  -11120108.5497164     
  -11082112.8086079     
  -11044061.3421389     
  -11005977.3591426     
  -10967886.2151046     
  -10929815.6676937     
  -10891796.1779287     
  -10853861.2656602     
  -10816047.9287258     
  -10778397.1353287     
  -10740954.3985425     
  -10703770.4398928     
  -10666901.9450634     
  -10630412.4081054     
  -10594373.0500197     
  -10558863.7819746     
  -10523974.1612057     
  -10489804.2571261     
  -10456465.3049938     
  -10424079.9722851     
  -10392782.0008055     
  -10362714.9081411     
  -10334029.3552556     
  -10306878.6722535     
  -10281411.9625772     
  -10257764.0134931     
  -10236041.0012427     
  -10216300.7002599     
  -10198523.0781704     
  -10182568.6002094     
  -10168098.7707084     
  -10154434.7061046     
  -10140253.7504391     
  -10122364.8081884     
  -10094083.5327201     
  -12908209.0706872     
  -12893065.0408443     
  -12883993.0516388     
  -12876570.1138890     
  -12869021.4124255     
  -12860661.8631275     
  -12851128.1093180     
  -12840249.8376026     
  -12827962.1508367     
  -12814265.1122890     
  -12799200.8717492     
  -12782836.9848443     
  -12765255.4208976     
  -12746544.3600834     
  -12726792.5646029     
  -12706085.5627737     
  -12684503.2799439     
  -12662118.7388512     
  -12638997.5313152     
  -12615197.8214544     
  -12590770.6906388     
  -12565760.6841934     
  -12540206.4575759     
  -12514141.4522645     
  -12487594.5555374     
  -12460590.7166699     
  -12433151.5049951     
  -12405295.6042481     
  -12377039.2434530     
  -12348396.5681876     
  -12319379.9579993     
  -12290000.2965794     
  -12260267.2013999     
  -12230189.2191695     
  -12199773.9928650     
  -12169028.4053921     
  -12137958.7041936     
  -12106570.6104362     
  -12074869.4157756     
  -12042860.0691503     
  -12010547.2555963     
  -11977935.4686864     
  -11945029.0778870     
  -11911832.3918829     
  -11878349.7187219     
  -11844585.4234889     
  -11810543.9841022     
  -11776230.0457472     
  -11741648.4744002     
  -11706804.4098590     
  -11671703.3186622     
  -11636351.0472778     
  -11600753.8759205     
  -11564918.5733823     
  -11528852.4532575     
  -11492563.4319833     
  -11456060.0891522     
  -11419351.7306110     
  -11382448.4549450     
  -11345361.2240569     
  -11308101.9386984     
  -11270683.5200153     
  -11233119.9984281     
  -11195426.6115040     
  -11157619.9129140     
  -11119717.8951012     
  -11081740.1289511     
  -11043707.9245567     
  -11005644.5181084     
  -10967575.2910206     
  -10929528.0285888     
  -10891533.2267207     
  -10853624.4564827     
  -10815838.7972107     
  -10778217.3495085     
  -10740805.8392436     
  -10703655.3221739     
  -10666822.9954370     
  -10630373.1158918     
  -10594378.0151744     
  -10558919.1857498     
  -10524088.3898878     
  -10489988.7117652     
  -10456735.4315194     
  -10424456.5439775     
  -10393292.6797634     
  -10363396.1006806     
  -10334928.3552635     
  -10308056.0802717     
  -10282944.2978264     
  -10259746.5787185     
  -10238590.7613648     
  -10219559.8618142     
  -10202663.1740614     
  -10187796.7046154     
  -10174673.2789052     
  -10162671.2204101     
  -10150612.2541646     
  -10135434.7448126     
  -10109502.0017603     
  -12898624.9597701     
  -12885146.8579306     
  -12877816.1669615     
  -12871649.9796872     
  -12865072.3267124     
  -12857487.5521018     
  -12848569.4571402     
  -12838182.8710021     
  -12826283.9392572     
  -12812891.3333802     
  -12798062.4477448     
  -12781878.0119310     
  -12764431.3026593     
  -12745820.0315316     
  -12726140.8966990     
  -12705485.8843089     
  -12683940.0879894     
  -12661580.5839820     
  -12638476.0879546     
  -12614687.1271600     
  -12590266.5388991     
  -12565260.1493581     
  -12539707.5309240     
  -12513642.7688545     
  -12487095.1935378     
  -12460090.0532885     
  -12432649.1156585     
  -12404791.1941339     
  -12376532.6026736     
  -12347887.5438437     
  -12318868.4379241     
  -12289486.2009079     
  -12259750.4791467     
  -12229669.8478100     
  -12199251.9795437     
  -12168503.7888419     
  -12137431.5567933     
  -12106041.0400708     
  -12074337.5673322     
  -12042326.1255915     
  -12010011.4386218     
  -11977398.0390331     
  -11944490.3353402     
  -11911292.6750738     
  -11877809.4047910     
  -11844044.9276818     
  -11810003.7593612     
  -11775690.5823471     
  -11741110.2996704     
  -11706268.0880198     
  -11671169.4507982     
  -11635820.2714546     
  -11600226.8674495     
  -11564396.0452178     
  -11528335.1565094     
  -11492052.1565061     
  -11455555.6641643     
  -11418855.0252781     
  -11381960.3788485     
  -11344882.7274453     
  -11307634.0124138     
  -11270227.1949670     
  -11232676.3444871     
  -11194996.7357055     
  -11157204.9568840     
  -11119319.0316979     
  -11081358.5582287     
  -11043344.8693473     
  -11005301.2198070     
  -10967253.0065724     
  -10929228.0302616     
  -10891256.8070492     
  -10853372.9418432     
  -10815613.5748934     
  -10778019.9149497     
  -10740637.8723464     
  -10703518.8043983     
  -10666720.3826315     
  -10630307.5856125     
  -10594353.8114276     
  -10558942.0884273     
  -10524166.3402790     
  -10490132.6289964     
  -10456960.2557812     
  -10424782.5429409     
  -10393747.0441562     
  -10364014.8561393     
  -10335758.5715367     
  -10309158.4003941     
  -10284395.6627366     
  -10261643.2548098     
  -10241051.5136719     
  -10222729.4669025     
  -10206718.1521309     
  -10192949.4264269     
  -10181196.2121157     
  -10170900.2508276     
  -10161036.8276146     
  -10148886.6679453     
  -10125843.4908193     
  -12888418.0252100     
  -12877037.1316734     
  -12871631.3147810     
  -12866745.2066754     
  -12861166.4906369     
  -12854366.3469008     
  -12846068.2122631     
  -12836174.6673290     
  -12824662.9574340     
  -12811572.0839271     
  -12796974.8091307     
  -12780965.6825343     
  -12763649.5098619     
  -12745133.7846785     
  -12725523.2715499     
  -12704916.5018033     
  -12683403.7785780     
  -12661066.2427584     
  -12637975.7254737     
  -12614195.0956724     
  -12589778.9187531     
  -12564774.2709118     
  -12539221.6106301     
  -12513155.6376147     
  -12486606.0985815     
  -12459598.5170366     
  -12432154.8379532     
  -12404293.9866863     
  -12376032.3469232     
  -12347384.1653757     
  -12318361.8922555     
  -12288976.4667844     
  -12259237.5565573     
  -12229153.7587492     
  -12198732.7701807     
  -12167981.5322139     
  -12136906.3554827     
  -12105513.0285600     
  -12073806.9138911     
  -12041793.0336613     
  -12009476.1477211     
  -11976860.8252512     
  -11943951.5114976     
  -11910752.5906383     
  -11877268.4456275     
  -11843503.5157143     
  -11809462.3522078     
  -11775149.6729828     
  -11740570.4161588     
  -11705729.7933444     
  -11670633.3428146     
  -11635286.9829728     
  -11599697.0664474     
  -11563870.4351748     
  -11527814.4768344     
  -11491537.1830285     
  -11455047.2096317     
  -11418353.9397974     
  -11381467.5501802     
  -11344399.0810532     
  -11307160.5111425     
  -11269764.8382171     
  -11232226.1667451     
  -11194559.8042958     
  -11156782.3688407     
  -11118911.9097152     
  -11080968.0457630     
  -11042972.1251281     
  -11004947.4122911     
  -10966919.3092848     
  -10928915.6195496     
  -10890966.8645743     
  -10853106.6652141     
  -10815372.2012625     
  -10777804.7642281     
  -10740450.4189867     
  -10703360.7895470     
  -10666593.9818139     
  -10630215.6511264     
  -10594300.2128587     
  -10558932.1796878     
  -10524207.5853248     
  -10490235.4237482     
  -10457138.9827008     
  -10425056.9003179     
  -10394143.6757638     
  -10364569.3154173     
  -10336517.6107931     
  -10310182.5747141     
  -10285762.2622143     
  -10263449.2819619     
  -10243417.5897001     
  -10225802.4403416     
  -10210679.5923099     
  -10198016.8502547     
  -10187651.7382704     
  -10179110.9708725     
  -10171484.3169292     
  -10162679.6857760     
  -10143272.1434779     
  -12877459.9027044     
  -12868794.1950783     
  -12865462.1512121     
  -12861860.6284195     
  -12857315.7673361     
  -12851302.9890241     
  -12843630.0157186     
  -12834229.2116148     
  -12823102.6421749     
  -12810310.1493967     
  -12795940.1771291     
  -12780101.7784995     
  -12762911.4189344     
  -12744486.6841405     
  -12724940.4886096     
  -12704378.0108736     
  -12682894.7853239     
  -12660576.0265458     
  -12637496.6628528     
  -12613721.8783106     
  -12589307.9325781     
  -12564303.1167042     
  -12538748.7406594     
  -12512680.0863949     
  -12486127.2879050     
  -12459116.1183363     
  -12431668.6780187     
  -12403803.9853797     
  -12375538.4779812     
  -12346886.4333977     
  -12317860.3206832     
  -12288471.0930340     
  -12258728.4315482     
  -12228640.9489014     
  -12198216.3605754     
  -12167461.6300836     
  -12136383.0935194     
  -12104986.5677682     
  -12073277.4458694     
  -12041260.7822951     
  -12008941.3703305     
  -11976323.8132730     
  -11943412.5907945     
  -11910212.1215258     
  -11876726.8227113     
  -11842961.1676132     
  -11808919.7412313     
  -11774607.2948188     
  -11740028.7996136     
  -11705189.5001686     
  -11670094.9676331     
  -11634751.1533332     
  -11599164.4429836     
  -11563341.7118743     
  -11527290.3813881     
  -11491018.4772219     
  -11454534.6897259     
  -11417848.4368286     
  -11380969.9300889     
  -11343910.2445315     
  -11306681.3930718     
  -11269296.4065493     
  -11231769.4206736     
  -11194115.7715620     
  -11156352.1020527     
  -11118496.4816038     
  -11080568.5434150     
  -11042589.6434054     
  -11004583.0469168     
  -10966574.1504803     
  -10928590.7476803     
  -10890663.3500554     
  -10852825.5760133     
  -10815114.6227615     
  -10777571.8380655     
  -10740243.4098380     
  -10703181.1917362     
  -10666443.6810980     
  -10630097.1612006     
  -10594217.0105975     
  -10558889.1682497     
  -10524211.7191647     
  -10490296.5331037     
  -10457270.8410315     
  -10425278.5682888     
  -10394481.1785107     
  -10365057.6290157     
  -10337203.0905747     
  -10311125.5274337     
  -10287040.2702478     
  -10265159.8704025     
  -10245683.0882702     
  -10228771.9513327     
  -10214537.8237950     
  -10202990.8881651     
  -10194019.4940549     
  -10187295.2135895     
  -10181914.0741263     
  -10176713.2976547     
  -10162010.2836158     
  -12865567.1809946     
  -12860547.0129971     
  -12859310.6945915     
  -12857006.5575298     
  -12853533.1871655     
  -12848300.7302351     
  -12841261.9069714     
  -12832349.8108879     
  -12821606.8860421     
  -12809108.1479282     
  -12794960.8784146     
  -12779288.0436490     
  -12762218.4165866     
  -12743879.7767838     
  -12724393.3351638     
  -12703870.9910454     
  -12682413.5263414     
  -12660110.2319858     
  -12637039.1053240     
  -12613267.6142037     
  -12588853.6718816     
  -12563846.7451928     
  -12538288.9568383     
  -12512216.1360972     
  -12485658.7728065     
  -12458642.8625597     
  -12431190.6376907     
  -12403321.1900159     
  -12375050.9944813     
  -12346394.3458193     
  -12317363.7205585     
  -12287970.0764506     
  -12258223.1002641     
  -12228131.4136265     
  -12197702.7451604     
  -12166944.0758218     
  -12135861.7630976     
  -12104461.6486235     
  -12072749.1528635     
  -12040729.3597129     
  -12008407.0932686     
  -11975786.9885063     
  -11942873.5572281     
  -11909671.2503326     
  -11876184.5172504     
  -11842417.8632128     
  -11808375.9049070     
  -11774063.4249838     
  -11739485.4258265     
  -11704647.1829510     
  -11669554.2983798     
  -11634212.7543244     
  -11598628.9674992     
  -11562809.8443990     
  -11526762.8378802     
  -11490496.0054089     
  -11454018.0693714     
  -11417338.4798950     
  -11380467.4807034     
  -11343416.1786386     
  -11306196.6176351     
  -11268821.8581465     
  -11231306.0633131     
  -11193664.5935524     
  -11155914.1117680     
  -11118072.7020476     
  -11080160.0055760     
  -11042197.3785657     
  -11004208.0783379     
  -10966217.4852810     
  -10928253.3702837     
  -10890346.2193829     
  -10852529.6296664     
  -10814840.7928968     
  -10777321.0854932     
  -10740016.7853719     
  -10702979.9365705     
  -10666269.3820888     
  -10629951.9801926     
  -10594104.0138429     
  -10558812.7830954     
  -10524178.3587968     
  -10490315.4185773     
  -10457355.0851734     
  -10425446.5255571     
  -10394758.1759040     
  -10365477.9764953     
  -10337812.6088425     
  -10311984.2464792     
  -10288225.6763485     
  -10266770.5172303     
  -10247841.3178699     
  -10231632.3384843     
  -10218280.7557989     
  -10207866.0251173     
  -10200277.0959686     
  -10195435.3407251     
  -10192322.8534041     
  -10190764.9134895     
  -10182375.4290015     
  -12852458.5108882     
  -12852577.8747096     
  -12853094.2904088     
  -12852233.8615050     
  -12849816.0421813     
  -12845368.4226524     
  -12838969.7065835     
  -12830539.8333869     
  -12820179.9542355     
  -12807968.4196625     
  -12794039.4651747     
  -12778526.0866411     
  -12761571.9585719     
  -12743314.0519175     
  -12723882.6055268     
  -12703395.9920011     
  -12681960.4091305     
  -12659669.1363527     
  -12636603.2451782     
  -12612832.4286264     
  -12588416.2172052     
  -12563405.2047925     
  -12537842.2866752     
  -12511763.8004105     
  -12485200.5585339     
  -12458178.7499229     
  -12430720.7144494     
  -12402845.5966890     
  -12374569.8918974     
  -12345907.8978382     
  -12316872.0868968     
  -12287473.4118012     
  -12257721.5570818     
  -12227625.1467369     
  -12197191.9170064     
  -12166428.8615990     
  -12135342.3553536     
  -12103938.2611217     
  -12072222.0236501     
  -12040198.7534204     
  -12007873.3027367     
  -11975250.3358329     
  -11942334.3943573     
  -11909129.9592999     
  -11875641.5101791     
  -11841873.5821545     
  -11807830.8215970     
  -11773518.0405724     
  -11738940.2706333     
  -11704102.8162743     
  -11669011.3083856     
  -11633671.7580225     
  -11598090.6108099     
  -11562274.8022939     
  -11526231.8145749     
  -11489969.7345644     
  -11453497.3142486     
  -11416824.0333846     
  -11379960.1651338     
  -11342916.8452391     
  -11305706.1455089     
  -11268341.1525853     
  -11230836.0532677     
  -11193206.2280681     
  -11155468.3552054     
  -11117640.5279535     
  -11079742.3891548     
  -11041795.2878637     
  -11003822.4644976     
  -10965849.2726038     
  -10927903.4474013     
  -10890015.4336031     
  -10852218.7876663     
  -10814550.6723218     
  -10777052.4640316     
  -10739770.4960488     
  -10702756.9616040     
  -10666071.0001882     
  -10629779.9891703     
  -10593961.0500211     
  -10558702.7763401     
  -10524107.1426719     
  -10490291.5741278     
  -10457390.9867075     
  -10425559.8010983     
  -10394973.2778199     
  -10365828.6352409     
  -10338343.6423370     
  -10312755.9513422     
  -10289314.0779058     
  -10268277.1976167     
  -10249884.9401282     
  -10234377.8319143     
  -10221898.4014583     
  -10212627.0630000     
  -10206429.3625134     
  -10203443.6098647     
  -10202853.7747667     
  -10204346.9021059     
  -10204854.4440759     
  -12837659.9886948     
  -12845526.2259560     
  -12846453.2056419     
  -12847771.8812488     
  -12846058.5751955     
  -12842571.6227107     
  -12836729.4807159     
  -12828818.0769459     
  -12818818.3969994     
  -12806897.1921451     
  -12793176.5927326     
  -12777818.4418736     
  -12760973.0373894     
  -12742790.6998441     
  -12723408.9707226     
  -12702953.5940658     
  -12681535.7987415     
  -12659253.0109226     
  -12636189.2537520     
  -12612416.4356288     
  -12587995.6359529     
  -12562978.5342375     
  -12537408.7487026     
  -12511323.0857819     
  -12484752.6440670     
  -12457723.7754384     
  -12430258.9013504     
  -12402377.1977656     
  -12374095.1625273     
  -12345427.0819423     
  -12316385.4123782     
  -12286981.0918334     
  -12257223.7946182     
  -12227122.1405029     
  -12196683.8678294     
  -12165915.9783908     
  -12134824.8603690     
  -12103416.3943294     
  -12071696.0461907     
  -12039668.9502102     
  -12007339.9843207     
  -11974713.8396088     
  -11941795.0853020     
  -11908588.2303134     
  -11875097.7821584     
  -11841328.3038860     
  -11807284.4695479     
  -11772971.1186422     
  -11738393.3099123     
  -11703556.3748441     
  -11668465.9711856     
  -11633128.1367918     
  -11597549.3441044     
  -11561736.5555669     
  -11525697.2802923     
  -11489439.6323155     
  -11452972.3907915     
  -11416305.0625475     
  -11379447.9474690     
  -11342412.2073023     
  -11305209.9386108     
  -11267854.2508329     
  -11230359.3506972     
  -11192740.6346545     
  -11155014.7915434     
  -11117199.9184371     
  -11079315.6535639     
  -11041383.3314090     
  -11003426.1666146     
  -10965469.4751560     
  -10927540.9434860     
  -10889670.9589429     
  -10851893.0176048     
  -10814244.2289566     
  -10776765.9397720     
  -10739504.5026926     
  -10702512.2163833     
  -10665848.4657301     
  -10629581.0852836     
  -10593787.9685399     
  -10558558.9186810     
  -10523997.7445372     
  -10490224.5030362     
  -10457377.8894067     
  -10425617.3695758     
  -10395125.3057289     
  -10366107.5334872     
  -10338794.4666403     
  -10313436.2591430     
  -10290304.3488038     
  -10269669.1644066     
  -10251819.9498163     
  -10236975.9873052     
  -10225432.2041145     
  -10217160.7815791     
  -10212659.2409892     
  -10210923.7636966     
  -10214128.9252634     
  -10216354.2262364     
  -10230267.1125938     
