# vtk DataFile Version 3.0
vtk output
ASCII
DATASET UNSTRUCTURED_GRID
POINTS      5151 double 
  0.00000000E+00  0.00000000E+00  0.00000000E+00
  1.00000000E+01  0.00000000E+00  0.00000000E+00
  2.00000000E+01  0.00000000E+00  0.00000000E+00
  3.00000000E+01  0.00000000E+00  0.00000000E+00
  4.00000000E+01  0.00000000E+00  0.00000000E+00
  5.00000000E+01  0.00000000E+00  0.00000000E+00
  6.00000000E+01  0.00000000E+00  0.00000000E+00
  7.00000000E+01  0.00000000E+00  0.00000000E+00
  8.00000000E+01  0.00000000E+00  0.00000000E+00
  9.00000000E+01  0.00000000E+00  0.00000000E+00
  1.00000000E+02  0.00000000E+00  0.00000000E+00
  1.10000000E+02  0.00000000E+00  0.00000000E+00
  1.20000000E+02  0.00000000E+00  0.00000000E+00
  1.30000000E+02  0.00000000E+00  0.00000000E+00
  1.40000000E+02  0.00000000E+00  0.00000000E+00
  1.50000000E+02  0.00000000E+00  0.00000000E+00
  1.60000000E+02  0.00000000E+00  0.00000000E+00
  1.70000000E+02  0.00000000E+00  0.00000000E+00
  1.80000000E+02  0.00000000E+00  0.00000000E+00
  1.90000000E+02  0.00000000E+00  0.00000000E+00
  2.00000000E+02  0.00000000E+00  0.00000000E+00
  2.10000000E+02  0.00000000E+00  0.00000000E+00
  2.20000000E+02  0.00000000E+00  0.00000000E+00
  2.30000000E+02  0.00000000E+00  0.00000000E+00
  2.40000000E+02  0.00000000E+00  0.00000000E+00
  2.50000000E+02  0.00000000E+00  0.00000000E+00
  2.60000000E+02  0.00000000E+00  0.00000000E+00
  2.70000000E+02  0.00000000E+00  0.00000000E+00
  2.80000000E+02  0.00000000E+00  0.00000000E+00
  2.90000000E+02  0.00000000E+00  0.00000000E+00
  3.00000000E+02  0.00000000E+00  0.00000000E+00
  3.10000000E+02  0.00000000E+00  0.00000000E+00
  3.20000000E+02  0.00000000E+00  0.00000000E+00
  3.30000000E+02  0.00000000E+00  0.00000000E+00
  3.40000000E+02  0.00000000E+00  0.00000000E+00
  3.50000000E+02  0.00000000E+00  0.00000000E+00
  3.60000000E+02  0.00000000E+00  0.00000000E+00
  3.70000000E+02  0.00000000E+00  0.00000000E+00
  3.80000000E+02  0.00000000E+00  0.00000000E+00
  3.90000000E+02  0.00000000E+00  0.00000000E+00
  4.00000000E+02  0.00000000E+00  0.00000000E+00
  4.10000000E+02  0.00000000E+00  0.00000000E+00
  4.20000000E+02  0.00000000E+00  0.00000000E+00
  4.30000000E+02  0.00000000E+00  0.00000000E+00
  4.40000000E+02  0.00000000E+00  0.00000000E+00
  4.50000000E+02  0.00000000E+00  0.00000000E+00
  4.60000000E+02  0.00000000E+00  0.00000000E+00
  4.70000000E+02  0.00000000E+00  0.00000000E+00
  4.80000000E+02  0.00000000E+00  0.00000000E+00
  4.90000000E+02  0.00000000E+00  0.00000000E+00
  5.00000000E+02  0.00000000E+00  0.00000000E+00
  5.10000000E+02  0.00000000E+00  0.00000000E+00
  5.20000000E+02  0.00000000E+00  0.00000000E+00
  5.30000000E+02  0.00000000E+00  0.00000000E+00
  5.40000000E+02  0.00000000E+00  0.00000000E+00
  5.50000000E+02  0.00000000E+00  0.00000000E+00
  5.60000000E+02  0.00000000E+00  0.00000000E+00
  5.70000000E+02  0.00000000E+00  0.00000000E+00
  5.80000000E+02  0.00000000E+00  0.00000000E+00
  5.90000000E+02  0.00000000E+00  0.00000000E+00
  6.00000000E+02  0.00000000E+00  0.00000000E+00
  6.10000000E+02  0.00000000E+00  0.00000000E+00
  6.20000000E+02  0.00000000E+00  0.00000000E+00
  6.30000000E+02  0.00000000E+00  0.00000000E+00
  6.40000000E+02  0.00000000E+00  0.00000000E+00
  6.50000000E+02  0.00000000E+00  0.00000000E+00
  6.60000000E+02  0.00000000E+00  0.00000000E+00
  6.70000000E+02  0.00000000E+00  0.00000000E+00
  6.80000000E+02  0.00000000E+00  0.00000000E+00
  6.90000000E+02  0.00000000E+00  0.00000000E+00
  7.00000000E+02  0.00000000E+00  0.00000000E+00
  7.10000000E+02  0.00000000E+00  0.00000000E+00
  7.20000000E+02  0.00000000E+00  0.00000000E+00
  7.30000000E+02  0.00000000E+00  0.00000000E+00
  7.40000000E+02  0.00000000E+00  0.00000000E+00
  7.50000000E+02  0.00000000E+00  0.00000000E+00
  7.60000000E+02  0.00000000E+00  0.00000000E+00
  7.70000000E+02  0.00000000E+00  0.00000000E+00
  7.80000000E+02  0.00000000E+00  0.00000000E+00
  7.90000000E+02  0.00000000E+00  0.00000000E+00
  8.00000000E+02  0.00000000E+00  0.00000000E+00
  8.10000000E+02  0.00000000E+00  0.00000000E+00
  8.20000000E+02  0.00000000E+00  0.00000000E+00
  8.30000000E+02  0.00000000E+00  0.00000000E+00
  8.40000000E+02  0.00000000E+00  0.00000000E+00
  8.50000000E+02  0.00000000E+00  0.00000000E+00
  8.60000000E+02  0.00000000E+00  0.00000000E+00
  8.70000000E+02  0.00000000E+00  0.00000000E+00
  8.80000000E+02  0.00000000E+00  0.00000000E+00
  8.90000000E+02  0.00000000E+00  0.00000000E+00
  9.00000000E+02  0.00000000E+00  0.00000000E+00
  9.10000000E+02  0.00000000E+00  0.00000000E+00
  9.20000000E+02  0.00000000E+00  0.00000000E+00
  9.30000000E+02  0.00000000E+00  0.00000000E+00
  9.40000000E+02  0.00000000E+00  0.00000000E+00
  9.50000000E+02  0.00000000E+00  0.00000000E+00
  9.60000000E+02  0.00000000E+00  0.00000000E+00
  9.70000000E+02  0.00000000E+00  0.00000000E+00
  9.80000000E+02  0.00000000E+00  0.00000000E+00
  9.90000000E+02  0.00000000E+00  0.00000000E+00
  1.00000000E+03  0.00000000E+00  0.00000000E+00
  0.00000000E+00  2.00000000E+00  0.00000000E+00
  1.00000000E+01  2.00000000E+00  0.00000000E+00
  2.00000000E+01  2.00000000E+00  0.00000000E+00
  3.00000000E+01  2.00000000E+00  0.00000000E+00
  4.00000000E+01  2.00000000E+00  0.00000000E+00
  5.00000000E+01  2.00000000E+00  0.00000000E+00
  6.00000000E+01  2.00000000E+00  0.00000000E+00
  7.00000000E+01  2.00000000E+00  0.00000000E+00
  8.00000000E+01  2.00000000E+00  0.00000000E+00
  9.00000000E+01  2.00000000E+00  0.00000000E+00
  1.00000000E+02  2.00000000E+00  0.00000000E+00
  1.10000000E+02  2.00000000E+00  0.00000000E+00
  1.20000000E+02  2.00000000E+00  0.00000000E+00
  1.30000000E+02  2.00000000E+00  0.00000000E+00
  1.40000000E+02  2.00000000E+00  0.00000000E+00
  1.50000000E+02  2.00000000E+00  0.00000000E+00
  1.60000000E+02  2.00000000E+00  0.00000000E+00
  1.70000000E+02  2.00000000E+00  0.00000000E+00
  1.80000000E+02  2.00000000E+00  0.00000000E+00
  1.90000000E+02  2.00000000E+00  0.00000000E+00
  2.00000000E+02  2.00000000E+00  0.00000000E+00
  2.10000000E+02  2.00000000E+00  0.00000000E+00
  2.20000000E+02  2.00000000E+00  0.00000000E+00
  2.30000000E+02  2.00000000E+00  0.00000000E+00
  2.40000000E+02  2.00000000E+00  0.00000000E+00
  2.50000000E+02  2.00000000E+00  0.00000000E+00
  2.60000000E+02  2.00000000E+00  0.00000000E+00
  2.70000000E+02  2.00000000E+00  0.00000000E+00
  2.80000000E+02  2.00000000E+00  0.00000000E+00
  2.90000000E+02  2.00000000E+00  0.00000000E+00
  3.00000000E+02  2.00000000E+00  0.00000000E+00
  3.10000000E+02  2.00000000E+00  0.00000000E+00
  3.20000000E+02  2.00000000E+00  0.00000000E+00
  3.30000000E+02  2.00000000E+00  0.00000000E+00
  3.40000000E+02  2.00000000E+00  0.00000000E+00
  3.50000000E+02  2.00000000E+00  0.00000000E+00
  3.60000000E+02  2.00000000E+00  0.00000000E+00
  3.70000000E+02  2.00000000E+00  0.00000000E+00
  3.80000000E+02  2.00000000E+00  0.00000000E+00
  3.90000000E+02  2.00000000E+00  0.00000000E+00
  4.00000000E+02  2.00000000E+00  0.00000000E+00
  4.10000000E+02  2.00000000E+00  0.00000000E+00
  4.20000000E+02  2.00000000E+00  0.00000000E+00
  4.30000000E+02  2.00000000E+00  0.00000000E+00
  4.40000000E+02  2.00000000E+00  0.00000000E+00
  4.50000000E+02  2.00000000E+00  0.00000000E+00
  4.60000000E+02  2.00000000E+00  0.00000000E+00
  4.70000000E+02  2.00000000E+00  0.00000000E+00
  4.80000000E+02  2.00000000E+00  0.00000000E+00
  4.90000000E+02  2.00000000E+00  0.00000000E+00
  5.00000000E+02  2.00000000E+00  0.00000000E+00
  5.10000000E+02  2.00000000E+00  0.00000000E+00
  5.20000000E+02  2.00000000E+00  0.00000000E+00
  5.30000000E+02  2.00000000E+00  0.00000000E+00
  5.40000000E+02  2.00000000E+00  0.00000000E+00
  5.50000000E+02  2.00000000E+00  0.00000000E+00
  5.60000000E+02  2.00000000E+00  0.00000000E+00
  5.70000000E+02  2.00000000E+00  0.00000000E+00
  5.80000000E+02  2.00000000E+00  0.00000000E+00
  5.90000000E+02  2.00000000E+00  0.00000000E+00
  6.00000000E+02  2.00000000E+00  0.00000000E+00
  6.10000000E+02  2.00000000E+00  0.00000000E+00
  6.20000000E+02  2.00000000E+00  0.00000000E+00
  6.30000000E+02  2.00000000E+00  0.00000000E+00
  6.40000000E+02  2.00000000E+00  0.00000000E+00
  6.50000000E+02  2.00000000E+00  0.00000000E+00
  6.60000000E+02  2.00000000E+00  0.00000000E+00
  6.70000000E+02  2.00000000E+00  0.00000000E+00
  6.80000000E+02  2.00000000E+00  0.00000000E+00
  6.90000000E+02  2.00000000E+00  0.00000000E+00
  7.00000000E+02  2.00000000E+00  0.00000000E+00
  7.10000000E+02  2.00000000E+00  0.00000000E+00
  7.20000000E+02  2.00000000E+00  0.00000000E+00
  7.30000000E+02  2.00000000E+00  0.00000000E+00
  7.40000000E+02  2.00000000E+00  0.00000000E+00
  7.50000000E+02  2.00000000E+00  0.00000000E+00
  7.60000000E+02  2.00000000E+00  0.00000000E+00
  7.70000000E+02  2.00000000E+00  0.00000000E+00
  7.80000000E+02  2.00000000E+00  0.00000000E+00
  7.90000000E+02  2.00000000E+00  0.00000000E+00
  8.00000000E+02  2.00000000E+00  0.00000000E+00
  8.10000000E+02  2.00000000E+00  0.00000000E+00
  8.20000000E+02  2.00000000E+00  0.00000000E+00
  8.30000000E+02  2.00000000E+00  0.00000000E+00
  8.40000000E+02  2.00000000E+00  0.00000000E+00
  8.50000000E+02  2.00000000E+00  0.00000000E+00
  8.60000000E+02  2.00000000E+00  0.00000000E+00
  8.70000000E+02  2.00000000E+00  0.00000000E+00
  8.80000000E+02  2.00000000E+00  0.00000000E+00
  8.90000000E+02  2.00000000E+00  0.00000000E+00
  9.00000000E+02  2.00000000E+00  0.00000000E+00
  9.10000000E+02  2.00000000E+00  0.00000000E+00
  9.20000000E+02  2.00000000E+00  0.00000000E+00
  9.30000000E+02  2.00000000E+00  0.00000000E+00
  9.40000000E+02  2.00000000E+00  0.00000000E+00
  9.50000000E+02  2.00000000E+00  0.00000000E+00
  9.60000000E+02  2.00000000E+00  0.00000000E+00
  9.70000000E+02  2.00000000E+00  0.00000000E+00
  9.80000000E+02  2.00000000E+00  0.00000000E+00
  9.90000000E+02  2.00000000E+00  0.00000000E+00
  1.00000000E+03  2.00000000E+00  0.00000000E+00
  0.00000000E+00  4.00000000E+00  0.00000000E+00
  1.00000000E+01  4.00000000E+00  0.00000000E+00
  2.00000000E+01  4.00000000E+00  0.00000000E+00
  3.00000000E+01  4.00000000E+00  0.00000000E+00
  4.00000000E+01  4.00000000E+00  0.00000000E+00
  5.00000000E+01  4.00000000E+00  0.00000000E+00
  6.00000000E+01  4.00000000E+00  0.00000000E+00
  7.00000000E+01  4.00000000E+00  0.00000000E+00
  8.00000000E+01  4.00000000E+00  0.00000000E+00
  9.00000000E+01  4.00000000E+00  0.00000000E+00
  1.00000000E+02  4.00000000E+00  0.00000000E+00
  1.10000000E+02  4.00000000E+00  0.00000000E+00
  1.20000000E+02  4.00000000E+00  0.00000000E+00
  1.30000000E+02  4.00000000E+00  0.00000000E+00
  1.40000000E+02  4.00000000E+00  0.00000000E+00
  1.50000000E+02  4.00000000E+00  0.00000000E+00
  1.60000000E+02  4.00000000E+00  0.00000000E+00
  1.70000000E+02  4.00000000E+00  0.00000000E+00
  1.80000000E+02  4.00000000E+00  0.00000000E+00
  1.90000000E+02  4.00000000E+00  0.00000000E+00
  2.00000000E+02  4.00000000E+00  0.00000000E+00
  2.10000000E+02  4.00000000E+00  0.00000000E+00
  2.20000000E+02  4.00000000E+00  0.00000000E+00
  2.30000000E+02  4.00000000E+00  0.00000000E+00
  2.40000000E+02  4.00000000E+00  0.00000000E+00
  2.50000000E+02  4.00000000E+00  0.00000000E+00
  2.60000000E+02  4.00000000E+00  0.00000000E+00
  2.70000000E+02  4.00000000E+00  0.00000000E+00
  2.80000000E+02  4.00000000E+00  0.00000000E+00
  2.90000000E+02  4.00000000E+00  0.00000000E+00
  3.00000000E+02  4.00000000E+00  0.00000000E+00
  3.10000000E+02  4.00000000E+00  0.00000000E+00
  3.20000000E+02  4.00000000E+00  0.00000000E+00
  3.30000000E+02  4.00000000E+00  0.00000000E+00
  3.40000000E+02  4.00000000E+00  0.00000000E+00
  3.50000000E+02  4.00000000E+00  0.00000000E+00
  3.60000000E+02  4.00000000E+00  0.00000000E+00
  3.70000000E+02  4.00000000E+00  0.00000000E+00
  3.80000000E+02  4.00000000E+00  0.00000000E+00
  3.90000000E+02  4.00000000E+00  0.00000000E+00
  4.00000000E+02  4.00000000E+00  0.00000000E+00
  4.10000000E+02  4.00000000E+00  0.00000000E+00
  4.20000000E+02  4.00000000E+00  0.00000000E+00
  4.30000000E+02  4.00000000E+00  0.00000000E+00
  4.40000000E+02  4.00000000E+00  0.00000000E+00
  4.50000000E+02  4.00000000E+00  0.00000000E+00
  4.60000000E+02  4.00000000E+00  0.00000000E+00
  4.70000000E+02  4.00000000E+00  0.00000000E+00
  4.80000000E+02  4.00000000E+00  0.00000000E+00
  4.90000000E+02  4.00000000E+00  0.00000000E+00
  5.00000000E+02  4.00000000E+00  0.00000000E+00
  5.10000000E+02  4.00000000E+00  0.00000000E+00
  5.20000000E+02  4.00000000E+00  0.00000000E+00
  5.30000000E+02  4.00000000E+00  0.00000000E+00
  5.40000000E+02  4.00000000E+00  0.00000000E+00
  5.50000000E+02  4.00000000E+00  0.00000000E+00
  5.60000000E+02  4.00000000E+00  0.00000000E+00
  5.70000000E+02  4.00000000E+00  0.00000000E+00
  5.80000000E+02  4.00000000E+00  0.00000000E+00
  5.90000000E+02  4.00000000E+00  0.00000000E+00
  6.00000000E+02  4.00000000E+00  0.00000000E+00
  6.10000000E+02  4.00000000E+00  0.00000000E+00
  6.20000000E+02  4.00000000E+00  0.00000000E+00
  6.30000000E+02  4.00000000E+00  0.00000000E+00
  6.40000000E+02  4.00000000E+00  0.00000000E+00
  6.50000000E+02  4.00000000E+00  0.00000000E+00
  6.60000000E+02  4.00000000E+00  0.00000000E+00
  6.70000000E+02  4.00000000E+00  0.00000000E+00
  6.80000000E+02  4.00000000E+00  0.00000000E+00
  6.90000000E+02  4.00000000E+00  0.00000000E+00
  7.00000000E+02  4.00000000E+00  0.00000000E+00
  7.10000000E+02  4.00000000E+00  0.00000000E+00
  7.20000000E+02  4.00000000E+00  0.00000000E+00
  7.30000000E+02  4.00000000E+00  0.00000000E+00
  7.40000000E+02  4.00000000E+00  0.00000000E+00
  7.50000000E+02  4.00000000E+00  0.00000000E+00
  7.60000000E+02  4.00000000E+00  0.00000000E+00
  7.70000000E+02  4.00000000E+00  0.00000000E+00
  7.80000000E+02  4.00000000E+00  0.00000000E+00
  7.90000000E+02  4.00000000E+00  0.00000000E+00
  8.00000000E+02  4.00000000E+00  0.00000000E+00
  8.10000000E+02  4.00000000E+00  0.00000000E+00
  8.20000000E+02  4.00000000E+00  0.00000000E+00
  8.30000000E+02  4.00000000E+00  0.00000000E+00
  8.40000000E+02  4.00000000E+00  0.00000000E+00
  8.50000000E+02  4.00000000E+00  0.00000000E+00
  8.60000000E+02  4.00000000E+00  0.00000000E+00
  8.70000000E+02  4.00000000E+00  0.00000000E+00
  8.80000000E+02  4.00000000E+00  0.00000000E+00
  8.90000000E+02  4.00000000E+00  0.00000000E+00
  9.00000000E+02  4.00000000E+00  0.00000000E+00
  9.10000000E+02  4.00000000E+00  0.00000000E+00
  9.20000000E+02  4.00000000E+00  0.00000000E+00
  9.30000000E+02  4.00000000E+00  0.00000000E+00
  9.40000000E+02  4.00000000E+00  0.00000000E+00
  9.50000000E+02  4.00000000E+00  0.00000000E+00
  9.60000000E+02  4.00000000E+00  0.00000000E+00
  9.70000000E+02  4.00000000E+00  0.00000000E+00
  9.80000000E+02  4.00000000E+00  0.00000000E+00
  9.90000000E+02  4.00000000E+00  0.00000000E+00
  1.00000000E+03  4.00000000E+00  0.00000000E+00
  0.00000000E+00  6.00000000E+00  0.00000000E+00
  1.00000000E+01  6.00000000E+00  0.00000000E+00
  2.00000000E+01  6.00000000E+00  0.00000000E+00
  3.00000000E+01  6.00000000E+00  0.00000000E+00
  4.00000000E+01  6.00000000E+00  0.00000000E+00
  5.00000000E+01  6.00000000E+00  0.00000000E+00
  6.00000000E+01  6.00000000E+00  0.00000000E+00
  7.00000000E+01  6.00000000E+00  0.00000000E+00
  8.00000000E+01  6.00000000E+00  0.00000000E+00
  9.00000000E+01  6.00000000E+00  0.00000000E+00
  1.00000000E+02  6.00000000E+00  0.00000000E+00
  1.10000000E+02  6.00000000E+00  0.00000000E+00
  1.20000000E+02  6.00000000E+00  0.00000000E+00
  1.30000000E+02  6.00000000E+00  0.00000000E+00
  1.40000000E+02  6.00000000E+00  0.00000000E+00
  1.50000000E+02  6.00000000E+00  0.00000000E+00
  1.60000000E+02  6.00000000E+00  0.00000000E+00
  1.70000000E+02  6.00000000E+00  0.00000000E+00
  1.80000000E+02  6.00000000E+00  0.00000000E+00
  1.90000000E+02  6.00000000E+00  0.00000000E+00
  2.00000000E+02  6.00000000E+00  0.00000000E+00
  2.10000000E+02  6.00000000E+00  0.00000000E+00
  2.20000000E+02  6.00000000E+00  0.00000000E+00
  2.30000000E+02  6.00000000E+00  0.00000000E+00
  2.40000000E+02  6.00000000E+00  0.00000000E+00
  2.50000000E+02  6.00000000E+00  0.00000000E+00
  2.60000000E+02  6.00000000E+00  0.00000000E+00
  2.70000000E+02  6.00000000E+00  0.00000000E+00
  2.80000000E+02  6.00000000E+00  0.00000000E+00
  2.90000000E+02  6.00000000E+00  0.00000000E+00
  3.00000000E+02  6.00000000E+00  0.00000000E+00
  3.10000000E+02  6.00000000E+00  0.00000000E+00
  3.20000000E+02  6.00000000E+00  0.00000000E+00
  3.30000000E+02  6.00000000E+00  0.00000000E+00
  3.40000000E+02  6.00000000E+00  0.00000000E+00
  3.50000000E+02  6.00000000E+00  0.00000000E+00
  3.60000000E+02  6.00000000E+00  0.00000000E+00
  3.70000000E+02  6.00000000E+00  0.00000000E+00
  3.80000000E+02  6.00000000E+00  0.00000000E+00
  3.90000000E+02  6.00000000E+00  0.00000000E+00
  4.00000000E+02  6.00000000E+00  0.00000000E+00
  4.10000000E+02  6.00000000E+00  0.00000000E+00
  4.20000000E+02  6.00000000E+00  0.00000000E+00
  4.30000000E+02  6.00000000E+00  0.00000000E+00
  4.40000000E+02  6.00000000E+00  0.00000000E+00
  4.50000000E+02  6.00000000E+00  0.00000000E+00
  4.60000000E+02  6.00000000E+00  0.00000000E+00
  4.70000000E+02  6.00000000E+00  0.00000000E+00
  4.80000000E+02  6.00000000E+00  0.00000000E+00
  4.90000000E+02  6.00000000E+00  0.00000000E+00
  5.00000000E+02  6.00000000E+00  0.00000000E+00
  5.10000000E+02  6.00000000E+00  0.00000000E+00
  5.20000000E+02  6.00000000E+00  0.00000000E+00
  5.30000000E+02  6.00000000E+00  0.00000000E+00
  5.40000000E+02  6.00000000E+00  0.00000000E+00
  5.50000000E+02  6.00000000E+00  0.00000000E+00
  5.60000000E+02  6.00000000E+00  0.00000000E+00
  5.70000000E+02  6.00000000E+00  0.00000000E+00
  5.80000000E+02  6.00000000E+00  0.00000000E+00
  5.90000000E+02  6.00000000E+00  0.00000000E+00
  6.00000000E+02  6.00000000E+00  0.00000000E+00
  6.10000000E+02  6.00000000E+00  0.00000000E+00
  6.20000000E+02  6.00000000E+00  0.00000000E+00
  6.30000000E+02  6.00000000E+00  0.00000000E+00
  6.40000000E+02  6.00000000E+00  0.00000000E+00
  6.50000000E+02  6.00000000E+00  0.00000000E+00
  6.60000000E+02  6.00000000E+00  0.00000000E+00
  6.70000000E+02  6.00000000E+00  0.00000000E+00
  6.80000000E+02  6.00000000E+00  0.00000000E+00
  6.90000000E+02  6.00000000E+00  0.00000000E+00
  7.00000000E+02  6.00000000E+00  0.00000000E+00
  7.10000000E+02  6.00000000E+00  0.00000000E+00
  7.20000000E+02  6.00000000E+00  0.00000000E+00
  7.30000000E+02  6.00000000E+00  0.00000000E+00
  7.40000000E+02  6.00000000E+00  0.00000000E+00
  7.50000000E+02  6.00000000E+00  0.00000000E+00
  7.60000000E+02  6.00000000E+00  0.00000000E+00
  7.70000000E+02  6.00000000E+00  0.00000000E+00
  7.80000000E+02  6.00000000E+00  0.00000000E+00
  7.90000000E+02  6.00000000E+00  0.00000000E+00
  8.00000000E+02  6.00000000E+00  0.00000000E+00
  8.10000000E+02  6.00000000E+00  0.00000000E+00
  8.20000000E+02  6.00000000E+00  0.00000000E+00
  8.30000000E+02  6.00000000E+00  0.00000000E+00
  8.40000000E+02  6.00000000E+00  0.00000000E+00
  8.50000000E+02  6.00000000E+00  0.00000000E+00
  8.60000000E+02  6.00000000E+00  0.00000000E+00
  8.70000000E+02  6.00000000E+00  0.00000000E+00
  8.80000000E+02  6.00000000E+00  0.00000000E+00
  8.90000000E+02  6.00000000E+00  0.00000000E+00
  9.00000000E+02  6.00000000E+00  0.00000000E+00
  9.10000000E+02  6.00000000E+00  0.00000000E+00
  9.20000000E+02  6.00000000E+00  0.00000000E+00
  9.30000000E+02  6.00000000E+00  0.00000000E+00
  9.40000000E+02  6.00000000E+00  0.00000000E+00
  9.50000000E+02  6.00000000E+00  0.00000000E+00
  9.60000000E+02  6.00000000E+00  0.00000000E+00
  9.70000000E+02  6.00000000E+00  0.00000000E+00
  9.80000000E+02  6.00000000E+00  0.00000000E+00
  9.90000000E+02  6.00000000E+00  0.00000000E+00
  1.00000000E+03  6.00000000E+00  0.00000000E+00
  0.00000000E+00  8.00000000E+00  0.00000000E+00
  1.00000000E+01  8.00000000E+00  0.00000000E+00
  2.00000000E+01  8.00000000E+00  0.00000000E+00
  3.00000000E+01  8.00000000E+00  0.00000000E+00
  4.00000000E+01  8.00000000E+00  0.00000000E+00
  5.00000000E+01  8.00000000E+00  0.00000000E+00
  6.00000000E+01  8.00000000E+00  0.00000000E+00
  7.00000000E+01  8.00000000E+00  0.00000000E+00
  8.00000000E+01  8.00000000E+00  0.00000000E+00
  9.00000000E+01  8.00000000E+00  0.00000000E+00
  1.00000000E+02  8.00000000E+00  0.00000000E+00
  1.10000000E+02  8.00000000E+00  0.00000000E+00
  1.20000000E+02  8.00000000E+00  0.00000000E+00
  1.30000000E+02  8.00000000E+00  0.00000000E+00
  1.40000000E+02  8.00000000E+00  0.00000000E+00
  1.50000000E+02  8.00000000E+00  0.00000000E+00
  1.60000000E+02  8.00000000E+00  0.00000000E+00
  1.70000000E+02  8.00000000E+00  0.00000000E+00
  1.80000000E+02  8.00000000E+00  0.00000000E+00
  1.90000000E+02  8.00000000E+00  0.00000000E+00
  2.00000000E+02  8.00000000E+00  0.00000000E+00
  2.10000000E+02  8.00000000E+00  0.00000000E+00
  2.20000000E+02  8.00000000E+00  0.00000000E+00
  2.30000000E+02  8.00000000E+00  0.00000000E+00
  2.40000000E+02  8.00000000E+00  0.00000000E+00
  2.50000000E+02  8.00000000E+00  0.00000000E+00
  2.60000000E+02  8.00000000E+00  0.00000000E+00
  2.70000000E+02  8.00000000E+00  0.00000000E+00
  2.80000000E+02  8.00000000E+00  0.00000000E+00
  2.90000000E+02  8.00000000E+00  0.00000000E+00
  3.00000000E+02  8.00000000E+00  0.00000000E+00
  3.10000000E+02  8.00000000E+00  0.00000000E+00
  3.20000000E+02  8.00000000E+00  0.00000000E+00
  3.30000000E+02  8.00000000E+00  0.00000000E+00
  3.40000000E+02  8.00000000E+00  0.00000000E+00
  3.50000000E+02  8.00000000E+00  0.00000000E+00
  3.60000000E+02  8.00000000E+00  0.00000000E+00
  3.70000000E+02  8.00000000E+00  0.00000000E+00
  3.80000000E+02  8.00000000E+00  0.00000000E+00
  3.90000000E+02  8.00000000E+00  0.00000000E+00
  4.00000000E+02  8.00000000E+00  0.00000000E+00
  4.10000000E+02  8.00000000E+00  0.00000000E+00
  4.20000000E+02  8.00000000E+00  0.00000000E+00
  4.30000000E+02  8.00000000E+00  0.00000000E+00
  4.40000000E+02  8.00000000E+00  0.00000000E+00
  4.50000000E+02  8.00000000E+00  0.00000000E+00
  4.60000000E+02  8.00000000E+00  0.00000000E+00
  4.70000000E+02  8.00000000E+00  0.00000000E+00
  4.80000000E+02  8.00000000E+00  0.00000000E+00
  4.90000000E+02  8.00000000E+00  0.00000000E+00
  5.00000000E+02  8.00000000E+00  0.00000000E+00
  5.10000000E+02  8.00000000E+00  0.00000000E+00
  5.20000000E+02  8.00000000E+00  0.00000000E+00
  5.30000000E+02  8.00000000E+00  0.00000000E+00
  5.40000000E+02  8.00000000E+00  0.00000000E+00
  5.50000000E+02  8.00000000E+00  0.00000000E+00
  5.60000000E+02  8.00000000E+00  0.00000000E+00
  5.70000000E+02  8.00000000E+00  0.00000000E+00
  5.80000000E+02  8.00000000E+00  0.00000000E+00
  5.90000000E+02  8.00000000E+00  0.00000000E+00
  6.00000000E+02  8.00000000E+00  0.00000000E+00
  6.10000000E+02  8.00000000E+00  0.00000000E+00
  6.20000000E+02  8.00000000E+00  0.00000000E+00
  6.30000000E+02  8.00000000E+00  0.00000000E+00
  6.40000000E+02  8.00000000E+00  0.00000000E+00
  6.50000000E+02  8.00000000E+00  0.00000000E+00
  6.60000000E+02  8.00000000E+00  0.00000000E+00
  6.70000000E+02  8.00000000E+00  0.00000000E+00
  6.80000000E+02  8.00000000E+00  0.00000000E+00
  6.90000000E+02  8.00000000E+00  0.00000000E+00
  7.00000000E+02  8.00000000E+00  0.00000000E+00
  7.10000000E+02  8.00000000E+00  0.00000000E+00
  7.20000000E+02  8.00000000E+00  0.00000000E+00
  7.30000000E+02  8.00000000E+00  0.00000000E+00
  7.40000000E+02  8.00000000E+00  0.00000000E+00
  7.50000000E+02  8.00000000E+00  0.00000000E+00
  7.60000000E+02  8.00000000E+00  0.00000000E+00
  7.70000000E+02  8.00000000E+00  0.00000000E+00
  7.80000000E+02  8.00000000E+00  0.00000000E+00
  7.90000000E+02  8.00000000E+00  0.00000000E+00
  8.00000000E+02  8.00000000E+00  0.00000000E+00
  8.10000000E+02  8.00000000E+00  0.00000000E+00
  8.20000000E+02  8.00000000E+00  0.00000000E+00
  8.30000000E+02  8.00000000E+00  0.00000000E+00
  8.40000000E+02  8.00000000E+00  0.00000000E+00
  8.50000000E+02  8.00000000E+00  0.00000000E+00
  8.60000000E+02  8.00000000E+00  0.00000000E+00
  8.70000000E+02  8.00000000E+00  0.00000000E+00
  8.80000000E+02  8.00000000E+00  0.00000000E+00
  8.90000000E+02  8.00000000E+00  0.00000000E+00
  9.00000000E+02  8.00000000E+00  0.00000000E+00
  9.10000000E+02  8.00000000E+00  0.00000000E+00
  9.20000000E+02  8.00000000E+00  0.00000000E+00
  9.30000000E+02  8.00000000E+00  0.00000000E+00
  9.40000000E+02  8.00000000E+00  0.00000000E+00
  9.50000000E+02  8.00000000E+00  0.00000000E+00
  9.60000000E+02  8.00000000E+00  0.00000000E+00
  9.70000000E+02  8.00000000E+00  0.00000000E+00
  9.80000000E+02  8.00000000E+00  0.00000000E+00
  9.90000000E+02  8.00000000E+00  0.00000000E+00
  1.00000000E+03  8.00000000E+00  0.00000000E+00
  0.00000000E+00  1.00000000E+01  0.00000000E+00
  1.00000000E+01  1.00000000E+01  0.00000000E+00
  2.00000000E+01  1.00000000E+01  0.00000000E+00
  3.00000000E+01  1.00000000E+01  0.00000000E+00
  4.00000000E+01  1.00000000E+01  0.00000000E+00
  5.00000000E+01  1.00000000E+01  0.00000000E+00
  6.00000000E+01  1.00000000E+01  0.00000000E+00
  7.00000000E+01  1.00000000E+01  0.00000000E+00
  8.00000000E+01  1.00000000E+01  0.00000000E+00
  9.00000000E+01  1.00000000E+01  0.00000000E+00
  1.00000000E+02  1.00000000E+01  0.00000000E+00
  1.10000000E+02  1.00000000E+01  0.00000000E+00
  1.20000000E+02  1.00000000E+01  0.00000000E+00
  1.30000000E+02  1.00000000E+01  0.00000000E+00
  1.40000000E+02  1.00000000E+01  0.00000000E+00
  1.50000000E+02  1.00000000E+01  0.00000000E+00
  1.60000000E+02  1.00000000E+01  0.00000000E+00
  1.70000000E+02  1.00000000E+01  0.00000000E+00
  1.80000000E+02  1.00000000E+01  0.00000000E+00
  1.90000000E+02  1.00000000E+01  0.00000000E+00
  2.00000000E+02  1.00000000E+01  0.00000000E+00
  2.10000000E+02  1.00000000E+01  0.00000000E+00
  2.20000000E+02  1.00000000E+01  0.00000000E+00
  2.30000000E+02  1.00000000E+01  0.00000000E+00
  2.40000000E+02  1.00000000E+01  0.00000000E+00
  2.50000000E+02  1.00000000E+01  0.00000000E+00
  2.60000000E+02  1.00000000E+01  0.00000000E+00
  2.70000000E+02  1.00000000E+01  0.00000000E+00
  2.80000000E+02  1.00000000E+01  0.00000000E+00
  2.90000000E+02  1.00000000E+01  0.00000000E+00
  3.00000000E+02  1.00000000E+01  0.00000000E+00
  3.10000000E+02  1.00000000E+01  0.00000000E+00
  3.20000000E+02  1.00000000E+01  0.00000000E+00
  3.30000000E+02  1.00000000E+01  0.00000000E+00
  3.40000000E+02  1.00000000E+01  0.00000000E+00
  3.50000000E+02  1.00000000E+01  0.00000000E+00
  3.60000000E+02  1.00000000E+01  0.00000000E+00
  3.70000000E+02  1.00000000E+01  0.00000000E+00
  3.80000000E+02  1.00000000E+01  0.00000000E+00
  3.90000000E+02  1.00000000E+01  0.00000000E+00
  4.00000000E+02  1.00000000E+01  0.00000000E+00
  4.10000000E+02  1.00000000E+01  0.00000000E+00
  4.20000000E+02  1.00000000E+01  0.00000000E+00
  4.30000000E+02  1.00000000E+01  0.00000000E+00
  4.40000000E+02  1.00000000E+01  0.00000000E+00
  4.50000000E+02  1.00000000E+01  0.00000000E+00
  4.60000000E+02  1.00000000E+01  0.00000000E+00
  4.70000000E+02  1.00000000E+01  0.00000000E+00
  4.80000000E+02  1.00000000E+01  0.00000000E+00
  4.90000000E+02  1.00000000E+01  0.00000000E+00
  5.00000000E+02  1.00000000E+01  0.00000000E+00
  5.10000000E+02  1.00000000E+01  0.00000000E+00
  5.20000000E+02  1.00000000E+01  0.00000000E+00
  5.30000000E+02  1.00000000E+01  0.00000000E+00
  5.40000000E+02  1.00000000E+01  0.00000000E+00
  5.50000000E+02  1.00000000E+01  0.00000000E+00
  5.60000000E+02  1.00000000E+01  0.00000000E+00
  5.70000000E+02  1.00000000E+01  0.00000000E+00
  5.80000000E+02  1.00000000E+01  0.00000000E+00
  5.90000000E+02  1.00000000E+01  0.00000000E+00
  6.00000000E+02  1.00000000E+01  0.00000000E+00
  6.10000000E+02  1.00000000E+01  0.00000000E+00
  6.20000000E+02  1.00000000E+01  0.00000000E+00
  6.30000000E+02  1.00000000E+01  0.00000000E+00
  6.40000000E+02  1.00000000E+01  0.00000000E+00
  6.50000000E+02  1.00000000E+01  0.00000000E+00
  6.60000000E+02  1.00000000E+01  0.00000000E+00
  6.70000000E+02  1.00000000E+01  0.00000000E+00
  6.80000000E+02  1.00000000E+01  0.00000000E+00
  6.90000000E+02  1.00000000E+01  0.00000000E+00
  7.00000000E+02  1.00000000E+01  0.00000000E+00
  7.10000000E+02  1.00000000E+01  0.00000000E+00
  7.20000000E+02  1.00000000E+01  0.00000000E+00
  7.30000000E+02  1.00000000E+01  0.00000000E+00
  7.40000000E+02  1.00000000E+01  0.00000000E+00
  7.50000000E+02  1.00000000E+01  0.00000000E+00
  7.60000000E+02  1.00000000E+01  0.00000000E+00
  7.70000000E+02  1.00000000E+01  0.00000000E+00
  7.80000000E+02  1.00000000E+01  0.00000000E+00
  7.90000000E+02  1.00000000E+01  0.00000000E+00
  8.00000000E+02  1.00000000E+01  0.00000000E+00
  8.10000000E+02  1.00000000E+01  0.00000000E+00
  8.20000000E+02  1.00000000E+01  0.00000000E+00
  8.30000000E+02  1.00000000E+01  0.00000000E+00
  8.40000000E+02  1.00000000E+01  0.00000000E+00
  8.50000000E+02  1.00000000E+01  0.00000000E+00
  8.60000000E+02  1.00000000E+01  0.00000000E+00
  8.70000000E+02  1.00000000E+01  0.00000000E+00
  8.80000000E+02  1.00000000E+01  0.00000000E+00
  8.90000000E+02  1.00000000E+01  0.00000000E+00
  9.00000000E+02  1.00000000E+01  0.00000000E+00
  9.10000000E+02  1.00000000E+01  0.00000000E+00
  9.20000000E+02  1.00000000E+01  0.00000000E+00
  9.30000000E+02  1.00000000E+01  0.00000000E+00
  9.40000000E+02  1.00000000E+01  0.00000000E+00
  9.50000000E+02  1.00000000E+01  0.00000000E+00
  9.60000000E+02  1.00000000E+01  0.00000000E+00
  9.70000000E+02  1.00000000E+01  0.00000000E+00
  9.80000000E+02  1.00000000E+01  0.00000000E+00
  9.90000000E+02  1.00000000E+01  0.00000000E+00
  1.00000000E+03  1.00000000E+01  0.00000000E+00
  0.00000000E+00  1.20000000E+01  0.00000000E+00
  1.00000000E+01  1.20000000E+01  0.00000000E+00
  2.00000000E+01  1.20000000E+01  0.00000000E+00
  3.00000000E+01  1.20000000E+01  0.00000000E+00
  4.00000000E+01  1.20000000E+01  0.00000000E+00
  5.00000000E+01  1.20000000E+01  0.00000000E+00
  6.00000000E+01  1.20000000E+01  0.00000000E+00
  7.00000000E+01  1.20000000E+01  0.00000000E+00
  8.00000000E+01  1.20000000E+01  0.00000000E+00
  9.00000000E+01  1.20000000E+01  0.00000000E+00
  1.00000000E+02  1.20000000E+01  0.00000000E+00
  1.10000000E+02  1.20000000E+01  0.00000000E+00
  1.20000000E+02  1.20000000E+01  0.00000000E+00
  1.30000000E+02  1.20000000E+01  0.00000000E+00
  1.40000000E+02  1.20000000E+01  0.00000000E+00
  1.50000000E+02  1.20000000E+01  0.00000000E+00
  1.60000000E+02  1.20000000E+01  0.00000000E+00
  1.70000000E+02  1.20000000E+01  0.00000000E+00
  1.80000000E+02  1.20000000E+01  0.00000000E+00
  1.90000000E+02  1.20000000E+01  0.00000000E+00
  2.00000000E+02  1.20000000E+01  0.00000000E+00
  2.10000000E+02  1.20000000E+01  0.00000000E+00
  2.20000000E+02  1.20000000E+01  0.00000000E+00
  2.30000000E+02  1.20000000E+01  0.00000000E+00
  2.40000000E+02  1.20000000E+01  0.00000000E+00
  2.50000000E+02  1.20000000E+01  0.00000000E+00
  2.60000000E+02  1.20000000E+01  0.00000000E+00
  2.70000000E+02  1.20000000E+01  0.00000000E+00
  2.80000000E+02  1.20000000E+01  0.00000000E+00
  2.90000000E+02  1.20000000E+01  0.00000000E+00
  3.00000000E+02  1.20000000E+01  0.00000000E+00
  3.10000000E+02  1.20000000E+01  0.00000000E+00
  3.20000000E+02  1.20000000E+01  0.00000000E+00
  3.30000000E+02  1.20000000E+01  0.00000000E+00
  3.40000000E+02  1.20000000E+01  0.00000000E+00
  3.50000000E+02  1.20000000E+01  0.00000000E+00
  3.60000000E+02  1.20000000E+01  0.00000000E+00
  3.70000000E+02  1.20000000E+01  0.00000000E+00
  3.80000000E+02  1.20000000E+01  0.00000000E+00
  3.90000000E+02  1.20000000E+01  0.00000000E+00
  4.00000000E+02  1.20000000E+01  0.00000000E+00
  4.10000000E+02  1.20000000E+01  0.00000000E+00
  4.20000000E+02  1.20000000E+01  0.00000000E+00
  4.30000000E+02  1.20000000E+01  0.00000000E+00
  4.40000000E+02  1.20000000E+01  0.00000000E+00
  4.50000000E+02  1.20000000E+01  0.00000000E+00
  4.60000000E+02  1.20000000E+01  0.00000000E+00
  4.70000000E+02  1.20000000E+01  0.00000000E+00
  4.80000000E+02  1.20000000E+01  0.00000000E+00
  4.90000000E+02  1.20000000E+01  0.00000000E+00
  5.00000000E+02  1.20000000E+01  0.00000000E+00
  5.10000000E+02  1.20000000E+01  0.00000000E+00
  5.20000000E+02  1.20000000E+01  0.00000000E+00
  5.30000000E+02  1.20000000E+01  0.00000000E+00
  5.40000000E+02  1.20000000E+01  0.00000000E+00
  5.50000000E+02  1.20000000E+01  0.00000000E+00
  5.60000000E+02  1.20000000E+01  0.00000000E+00
  5.70000000E+02  1.20000000E+01  0.00000000E+00
  5.80000000E+02  1.20000000E+01  0.00000000E+00
  5.90000000E+02  1.20000000E+01  0.00000000E+00
  6.00000000E+02  1.20000000E+01  0.00000000E+00
  6.10000000E+02  1.20000000E+01  0.00000000E+00
  6.20000000E+02  1.20000000E+01  0.00000000E+00
  6.30000000E+02  1.20000000E+01  0.00000000E+00
  6.40000000E+02  1.20000000E+01  0.00000000E+00
  6.50000000E+02  1.20000000E+01  0.00000000E+00
  6.60000000E+02  1.20000000E+01  0.00000000E+00
  6.70000000E+02  1.20000000E+01  0.00000000E+00
  6.80000000E+02  1.20000000E+01  0.00000000E+00
  6.90000000E+02  1.20000000E+01  0.00000000E+00
  7.00000000E+02  1.20000000E+01  0.00000000E+00
  7.10000000E+02  1.20000000E+01  0.00000000E+00
  7.20000000E+02  1.20000000E+01  0.00000000E+00
  7.30000000E+02  1.20000000E+01  0.00000000E+00
  7.40000000E+02  1.20000000E+01  0.00000000E+00
  7.50000000E+02  1.20000000E+01  0.00000000E+00
  7.60000000E+02  1.20000000E+01  0.00000000E+00
  7.70000000E+02  1.20000000E+01  0.00000000E+00
  7.80000000E+02  1.20000000E+01  0.00000000E+00
  7.90000000E+02  1.20000000E+01  0.00000000E+00
  8.00000000E+02  1.20000000E+01  0.00000000E+00
  8.10000000E+02  1.20000000E+01  0.00000000E+00
  8.20000000E+02  1.20000000E+01  0.00000000E+00
  8.30000000E+02  1.20000000E+01  0.00000000E+00
  8.40000000E+02  1.20000000E+01  0.00000000E+00
  8.50000000E+02  1.20000000E+01  0.00000000E+00
  8.60000000E+02  1.20000000E+01  0.00000000E+00
  8.70000000E+02  1.20000000E+01  0.00000000E+00
  8.80000000E+02  1.20000000E+01  0.00000000E+00
  8.90000000E+02  1.20000000E+01  0.00000000E+00
  9.00000000E+02  1.20000000E+01  0.00000000E+00
  9.10000000E+02  1.20000000E+01  0.00000000E+00
  9.20000000E+02  1.20000000E+01  0.00000000E+00
  9.30000000E+02  1.20000000E+01  0.00000000E+00
  9.40000000E+02  1.20000000E+01  0.00000000E+00
  9.50000000E+02  1.20000000E+01  0.00000000E+00
  9.60000000E+02  1.20000000E+01  0.00000000E+00
  9.70000000E+02  1.20000000E+01  0.00000000E+00
  9.80000000E+02  1.20000000E+01  0.00000000E+00
  9.90000000E+02  1.20000000E+01  0.00000000E+00
  1.00000000E+03  1.20000000E+01  0.00000000E+00
  0.00000000E+00  1.40000000E+01  0.00000000E+00
  1.00000000E+01  1.40000000E+01  0.00000000E+00
  2.00000000E+01  1.40000000E+01  0.00000000E+00
  3.00000000E+01  1.40000000E+01  0.00000000E+00
  4.00000000E+01  1.40000000E+01  0.00000000E+00
  5.00000000E+01  1.40000000E+01  0.00000000E+00
  6.00000000E+01  1.40000000E+01  0.00000000E+00
  7.00000000E+01  1.40000000E+01  0.00000000E+00
  8.00000000E+01  1.40000000E+01  0.00000000E+00
  9.00000000E+01  1.40000000E+01  0.00000000E+00
  1.00000000E+02  1.40000000E+01  0.00000000E+00
  1.10000000E+02  1.40000000E+01  0.00000000E+00
  1.20000000E+02  1.40000000E+01  0.00000000E+00
  1.30000000E+02  1.40000000E+01  0.00000000E+00
  1.40000000E+02  1.40000000E+01  0.00000000E+00
  1.50000000E+02  1.40000000E+01  0.00000000E+00
  1.60000000E+02  1.40000000E+01  0.00000000E+00
  1.70000000E+02  1.40000000E+01  0.00000000E+00
  1.80000000E+02  1.40000000E+01  0.00000000E+00
  1.90000000E+02  1.40000000E+01  0.00000000E+00
  2.00000000E+02  1.40000000E+01  0.00000000E+00
  2.10000000E+02  1.40000000E+01  0.00000000E+00
  2.20000000E+02  1.40000000E+01  0.00000000E+00
  2.30000000E+02  1.40000000E+01  0.00000000E+00
  2.40000000E+02  1.40000000E+01  0.00000000E+00
  2.50000000E+02  1.40000000E+01  0.00000000E+00
  2.60000000E+02  1.40000000E+01  0.00000000E+00
  2.70000000E+02  1.40000000E+01  0.00000000E+00
  2.80000000E+02  1.40000000E+01  0.00000000E+00
  2.90000000E+02  1.40000000E+01  0.00000000E+00
  3.00000000E+02  1.40000000E+01  0.00000000E+00
  3.10000000E+02  1.40000000E+01  0.00000000E+00
  3.20000000E+02  1.40000000E+01  0.00000000E+00
  3.30000000E+02  1.40000000E+01  0.00000000E+00
  3.40000000E+02  1.40000000E+01  0.00000000E+00
  3.50000000E+02  1.40000000E+01  0.00000000E+00
  3.60000000E+02  1.40000000E+01  0.00000000E+00
  3.70000000E+02  1.40000000E+01  0.00000000E+00
  3.80000000E+02  1.40000000E+01  0.00000000E+00
  3.90000000E+02  1.40000000E+01  0.00000000E+00
  4.00000000E+02  1.40000000E+01  0.00000000E+00
  4.10000000E+02  1.40000000E+01  0.00000000E+00
  4.20000000E+02  1.40000000E+01  0.00000000E+00
  4.30000000E+02  1.40000000E+01  0.00000000E+00
  4.40000000E+02  1.40000000E+01  0.00000000E+00
  4.50000000E+02  1.40000000E+01  0.00000000E+00
  4.60000000E+02  1.40000000E+01  0.00000000E+00
  4.70000000E+02  1.40000000E+01  0.00000000E+00
  4.80000000E+02  1.40000000E+01  0.00000000E+00
  4.90000000E+02  1.40000000E+01  0.00000000E+00
  5.00000000E+02  1.40000000E+01  0.00000000E+00
  5.10000000E+02  1.40000000E+01  0.00000000E+00
  5.20000000E+02  1.40000000E+01  0.00000000E+00
  5.30000000E+02  1.40000000E+01  0.00000000E+00
  5.40000000E+02  1.40000000E+01  0.00000000E+00
  5.50000000E+02  1.40000000E+01  0.00000000E+00
  5.60000000E+02  1.40000000E+01  0.00000000E+00
  5.70000000E+02  1.40000000E+01  0.00000000E+00
  5.80000000E+02  1.40000000E+01  0.00000000E+00
  5.90000000E+02  1.40000000E+01  0.00000000E+00
  6.00000000E+02  1.40000000E+01  0.00000000E+00
  6.10000000E+02  1.40000000E+01  0.00000000E+00
  6.20000000E+02  1.40000000E+01  0.00000000E+00
  6.30000000E+02  1.40000000E+01  0.00000000E+00
  6.40000000E+02  1.40000000E+01  0.00000000E+00
  6.50000000E+02  1.40000000E+01  0.00000000E+00
  6.60000000E+02  1.40000000E+01  0.00000000E+00
  6.70000000E+02  1.40000000E+01  0.00000000E+00
  6.80000000E+02  1.40000000E+01  0.00000000E+00
  6.90000000E+02  1.40000000E+01  0.00000000E+00
  7.00000000E+02  1.40000000E+01  0.00000000E+00
  7.10000000E+02  1.40000000E+01  0.00000000E+00
  7.20000000E+02  1.40000000E+01  0.00000000E+00
  7.30000000E+02  1.40000000E+01  0.00000000E+00
  7.40000000E+02  1.40000000E+01  0.00000000E+00
  7.50000000E+02  1.40000000E+01  0.00000000E+00
  7.60000000E+02  1.40000000E+01  0.00000000E+00
  7.70000000E+02  1.40000000E+01  0.00000000E+00
  7.80000000E+02  1.40000000E+01  0.00000000E+00
  7.90000000E+02  1.40000000E+01  0.00000000E+00
  8.00000000E+02  1.40000000E+01  0.00000000E+00
  8.10000000E+02  1.40000000E+01  0.00000000E+00
  8.20000000E+02  1.40000000E+01  0.00000000E+00
  8.30000000E+02  1.40000000E+01  0.00000000E+00
  8.40000000E+02  1.40000000E+01  0.00000000E+00
  8.50000000E+02  1.40000000E+01  0.00000000E+00
  8.60000000E+02  1.40000000E+01  0.00000000E+00
  8.70000000E+02  1.40000000E+01  0.00000000E+00
  8.80000000E+02  1.40000000E+01  0.00000000E+00
  8.90000000E+02  1.40000000E+01  0.00000000E+00
  9.00000000E+02  1.40000000E+01  0.00000000E+00
  9.10000000E+02  1.40000000E+01  0.00000000E+00
  9.20000000E+02  1.40000000E+01  0.00000000E+00
  9.30000000E+02  1.40000000E+01  0.00000000E+00
  9.40000000E+02  1.40000000E+01  0.00000000E+00
  9.50000000E+02  1.40000000E+01  0.00000000E+00
  9.60000000E+02  1.40000000E+01  0.00000000E+00
  9.70000000E+02  1.40000000E+01  0.00000000E+00
  9.80000000E+02  1.40000000E+01  0.00000000E+00
  9.90000000E+02  1.40000000E+01  0.00000000E+00
  1.00000000E+03  1.40000000E+01  0.00000000E+00
  0.00000000E+00  1.60000000E+01  0.00000000E+00
  1.00000000E+01  1.60000000E+01  0.00000000E+00
  2.00000000E+01  1.60000000E+01  0.00000000E+00
  3.00000000E+01  1.60000000E+01  0.00000000E+00
  4.00000000E+01  1.60000000E+01  0.00000000E+00
  5.00000000E+01  1.60000000E+01  0.00000000E+00
  6.00000000E+01  1.60000000E+01  0.00000000E+00
  7.00000000E+01  1.60000000E+01  0.00000000E+00
  8.00000000E+01  1.60000000E+01  0.00000000E+00
  9.00000000E+01  1.60000000E+01  0.00000000E+00
  1.00000000E+02  1.60000000E+01  0.00000000E+00
  1.10000000E+02  1.60000000E+01  0.00000000E+00
  1.20000000E+02  1.60000000E+01  0.00000000E+00
  1.30000000E+02  1.60000000E+01  0.00000000E+00
  1.40000000E+02  1.60000000E+01  0.00000000E+00
  1.50000000E+02  1.60000000E+01  0.00000000E+00
  1.60000000E+02  1.60000000E+01  0.00000000E+00
  1.70000000E+02  1.60000000E+01  0.00000000E+00
  1.80000000E+02  1.60000000E+01  0.00000000E+00
  1.90000000E+02  1.60000000E+01  0.00000000E+00
  2.00000000E+02  1.60000000E+01  0.00000000E+00
  2.10000000E+02  1.60000000E+01  0.00000000E+00
  2.20000000E+02  1.60000000E+01  0.00000000E+00
  2.30000000E+02  1.60000000E+01  0.00000000E+00
  2.40000000E+02  1.60000000E+01  0.00000000E+00
  2.50000000E+02  1.60000000E+01  0.00000000E+00
  2.60000000E+02  1.60000000E+01  0.00000000E+00
  2.70000000E+02  1.60000000E+01  0.00000000E+00
  2.80000000E+02  1.60000000E+01  0.00000000E+00
  2.90000000E+02  1.60000000E+01  0.00000000E+00
  3.00000000E+02  1.60000000E+01  0.00000000E+00
  3.10000000E+02  1.60000000E+01  0.00000000E+00
  3.20000000E+02  1.60000000E+01  0.00000000E+00
  3.30000000E+02  1.60000000E+01  0.00000000E+00
  3.40000000E+02  1.60000000E+01  0.00000000E+00
  3.50000000E+02  1.60000000E+01  0.00000000E+00
  3.60000000E+02  1.60000000E+01  0.00000000E+00
  3.70000000E+02  1.60000000E+01  0.00000000E+00
  3.80000000E+02  1.60000000E+01  0.00000000E+00
  3.90000000E+02  1.60000000E+01  0.00000000E+00
  4.00000000E+02  1.60000000E+01  0.00000000E+00
  4.10000000E+02  1.60000000E+01  0.00000000E+00
  4.20000000E+02  1.60000000E+01  0.00000000E+00
  4.30000000E+02  1.60000000E+01  0.00000000E+00
  4.40000000E+02  1.60000000E+01  0.00000000E+00
  4.50000000E+02  1.60000000E+01  0.00000000E+00
  4.60000000E+02  1.60000000E+01  0.00000000E+00
  4.70000000E+02  1.60000000E+01  0.00000000E+00
  4.80000000E+02  1.60000000E+01  0.00000000E+00
  4.90000000E+02  1.60000000E+01  0.00000000E+00
  5.00000000E+02  1.60000000E+01  0.00000000E+00
  5.10000000E+02  1.60000000E+01  0.00000000E+00
  5.20000000E+02  1.60000000E+01  0.00000000E+00
  5.30000000E+02  1.60000000E+01  0.00000000E+00
  5.40000000E+02  1.60000000E+01  0.00000000E+00
  5.50000000E+02  1.60000000E+01  0.00000000E+00
  5.60000000E+02  1.60000000E+01  0.00000000E+00
  5.70000000E+02  1.60000000E+01  0.00000000E+00
  5.80000000E+02  1.60000000E+01  0.00000000E+00
  5.90000000E+02  1.60000000E+01  0.00000000E+00
  6.00000000E+02  1.60000000E+01  0.00000000E+00
  6.10000000E+02  1.60000000E+01  0.00000000E+00
  6.20000000E+02  1.60000000E+01  0.00000000E+00
  6.30000000E+02  1.60000000E+01  0.00000000E+00
  6.40000000E+02  1.60000000E+01  0.00000000E+00
  6.50000000E+02  1.60000000E+01  0.00000000E+00
  6.60000000E+02  1.60000000E+01  0.00000000E+00
  6.70000000E+02  1.60000000E+01  0.00000000E+00
  6.80000000E+02  1.60000000E+01  0.00000000E+00
  6.90000000E+02  1.60000000E+01  0.00000000E+00
  7.00000000E+02  1.60000000E+01  0.00000000E+00
  7.10000000E+02  1.60000000E+01  0.00000000E+00
  7.20000000E+02  1.60000000E+01  0.00000000E+00
  7.30000000E+02  1.60000000E+01  0.00000000E+00
  7.40000000E+02  1.60000000E+01  0.00000000E+00
  7.50000000E+02  1.60000000E+01  0.00000000E+00
  7.60000000E+02  1.60000000E+01  0.00000000E+00
  7.70000000E+02  1.60000000E+01  0.00000000E+00
  7.80000000E+02  1.60000000E+01  0.00000000E+00
  7.90000000E+02  1.60000000E+01  0.00000000E+00
  8.00000000E+02  1.60000000E+01  0.00000000E+00
  8.10000000E+02  1.60000000E+01  0.00000000E+00
  8.20000000E+02  1.60000000E+01  0.00000000E+00
  8.30000000E+02  1.60000000E+01  0.00000000E+00
  8.40000000E+02  1.60000000E+01  0.00000000E+00
  8.50000000E+02  1.60000000E+01  0.00000000E+00
  8.60000000E+02  1.60000000E+01  0.00000000E+00
  8.70000000E+02  1.60000000E+01  0.00000000E+00
  8.80000000E+02  1.60000000E+01  0.00000000E+00
  8.90000000E+02  1.60000000E+01  0.00000000E+00
  9.00000000E+02  1.60000000E+01  0.00000000E+00
  9.10000000E+02  1.60000000E+01  0.00000000E+00
  9.20000000E+02  1.60000000E+01  0.00000000E+00
  9.30000000E+02  1.60000000E+01  0.00000000E+00
  9.40000000E+02  1.60000000E+01  0.00000000E+00
  9.50000000E+02  1.60000000E+01  0.00000000E+00
  9.60000000E+02  1.60000000E+01  0.00000000E+00
  9.70000000E+02  1.60000000E+01  0.00000000E+00
  9.80000000E+02  1.60000000E+01  0.00000000E+00
  9.90000000E+02  1.60000000E+01  0.00000000E+00
  1.00000000E+03  1.60000000E+01  0.00000000E+00
  0.00000000E+00  1.80000000E+01  0.00000000E+00
  1.00000000E+01  1.80000000E+01  0.00000000E+00
  2.00000000E+01  1.80000000E+01  0.00000000E+00
  3.00000000E+01  1.80000000E+01  0.00000000E+00
  4.00000000E+01  1.80000000E+01  0.00000000E+00
  5.00000000E+01  1.80000000E+01  0.00000000E+00
  6.00000000E+01  1.80000000E+01  0.00000000E+00
  7.00000000E+01  1.80000000E+01  0.00000000E+00
  8.00000000E+01  1.80000000E+01  0.00000000E+00
  9.00000000E+01  1.80000000E+01  0.00000000E+00
  1.00000000E+02  1.80000000E+01  0.00000000E+00
  1.10000000E+02  1.80000000E+01  0.00000000E+00
  1.20000000E+02  1.80000000E+01  0.00000000E+00
  1.30000000E+02  1.80000000E+01  0.00000000E+00
  1.40000000E+02  1.80000000E+01  0.00000000E+00
  1.50000000E+02  1.80000000E+01  0.00000000E+00
  1.60000000E+02  1.80000000E+01  0.00000000E+00
  1.70000000E+02  1.80000000E+01  0.00000000E+00
  1.80000000E+02  1.80000000E+01  0.00000000E+00
  1.90000000E+02  1.80000000E+01  0.00000000E+00
  2.00000000E+02  1.80000000E+01  0.00000000E+00
  2.10000000E+02  1.80000000E+01  0.00000000E+00
  2.20000000E+02  1.80000000E+01  0.00000000E+00
  2.30000000E+02  1.80000000E+01  0.00000000E+00
  2.40000000E+02  1.80000000E+01  0.00000000E+00
  2.50000000E+02  1.80000000E+01  0.00000000E+00
  2.60000000E+02  1.80000000E+01  0.00000000E+00
  2.70000000E+02  1.80000000E+01  0.00000000E+00
  2.80000000E+02  1.80000000E+01  0.00000000E+00
  2.90000000E+02  1.80000000E+01  0.00000000E+00
  3.00000000E+02  1.80000000E+01  0.00000000E+00
  3.10000000E+02  1.80000000E+01  0.00000000E+00
  3.20000000E+02  1.80000000E+01  0.00000000E+00
  3.30000000E+02  1.80000000E+01  0.00000000E+00
  3.40000000E+02  1.80000000E+01  0.00000000E+00
  3.50000000E+02  1.80000000E+01  0.00000000E+00
  3.60000000E+02  1.80000000E+01  0.00000000E+00
  3.70000000E+02  1.80000000E+01  0.00000000E+00
  3.80000000E+02  1.80000000E+01  0.00000000E+00
  3.90000000E+02  1.80000000E+01  0.00000000E+00
  4.00000000E+02  1.80000000E+01  0.00000000E+00
  4.10000000E+02  1.80000000E+01  0.00000000E+00
  4.20000000E+02  1.80000000E+01  0.00000000E+00
  4.30000000E+02  1.80000000E+01  0.00000000E+00
  4.40000000E+02  1.80000000E+01  0.00000000E+00
  4.50000000E+02  1.80000000E+01  0.00000000E+00
  4.60000000E+02  1.80000000E+01  0.00000000E+00
  4.70000000E+02  1.80000000E+01  0.00000000E+00
  4.80000000E+02  1.80000000E+01  0.00000000E+00
  4.90000000E+02  1.80000000E+01  0.00000000E+00
  5.00000000E+02  1.80000000E+01  0.00000000E+00
  5.10000000E+02  1.80000000E+01  0.00000000E+00
  5.20000000E+02  1.80000000E+01  0.00000000E+00
  5.30000000E+02  1.80000000E+01  0.00000000E+00
  5.40000000E+02  1.80000000E+01  0.00000000E+00
  5.50000000E+02  1.80000000E+01  0.00000000E+00
  5.60000000E+02  1.80000000E+01  0.00000000E+00
  5.70000000E+02  1.80000000E+01  0.00000000E+00
  5.80000000E+02  1.80000000E+01  0.00000000E+00
  5.90000000E+02  1.80000000E+01  0.00000000E+00
  6.00000000E+02  1.80000000E+01  0.00000000E+00
  6.10000000E+02  1.80000000E+01  0.00000000E+00
  6.20000000E+02  1.80000000E+01  0.00000000E+00
  6.30000000E+02  1.80000000E+01  0.00000000E+00
  6.40000000E+02  1.80000000E+01  0.00000000E+00
  6.50000000E+02  1.80000000E+01  0.00000000E+00
  6.60000000E+02  1.80000000E+01  0.00000000E+00
  6.70000000E+02  1.80000000E+01  0.00000000E+00
  6.80000000E+02  1.80000000E+01  0.00000000E+00
  6.90000000E+02  1.80000000E+01  0.00000000E+00
  7.00000000E+02  1.80000000E+01  0.00000000E+00
  7.10000000E+02  1.80000000E+01  0.00000000E+00
  7.20000000E+02  1.80000000E+01  0.00000000E+00
  7.30000000E+02  1.80000000E+01  0.00000000E+00
  7.40000000E+02  1.80000000E+01  0.00000000E+00
  7.50000000E+02  1.80000000E+01  0.00000000E+00
  7.60000000E+02  1.80000000E+01  0.00000000E+00
  7.70000000E+02  1.80000000E+01  0.00000000E+00
  7.80000000E+02  1.80000000E+01  0.00000000E+00
  7.90000000E+02  1.80000000E+01  0.00000000E+00
  8.00000000E+02  1.80000000E+01  0.00000000E+00
  8.10000000E+02  1.80000000E+01  0.00000000E+00
  8.20000000E+02  1.80000000E+01  0.00000000E+00
  8.30000000E+02  1.80000000E+01  0.00000000E+00
  8.40000000E+02  1.80000000E+01  0.00000000E+00
  8.50000000E+02  1.80000000E+01  0.00000000E+00
  8.60000000E+02  1.80000000E+01  0.00000000E+00
  8.70000000E+02  1.80000000E+01  0.00000000E+00
  8.80000000E+02  1.80000000E+01  0.00000000E+00
  8.90000000E+02  1.80000000E+01  0.00000000E+00
  9.00000000E+02  1.80000000E+01  0.00000000E+00
  9.10000000E+02  1.80000000E+01  0.00000000E+00
  9.20000000E+02  1.80000000E+01  0.00000000E+00
  9.30000000E+02  1.80000000E+01  0.00000000E+00
  9.40000000E+02  1.80000000E+01  0.00000000E+00
  9.50000000E+02  1.80000000E+01  0.00000000E+00
  9.60000000E+02  1.80000000E+01  0.00000000E+00
  9.70000000E+02  1.80000000E+01  0.00000000E+00
  9.80000000E+02  1.80000000E+01  0.00000000E+00
  9.90000000E+02  1.80000000E+01  0.00000000E+00
  1.00000000E+03  1.80000000E+01  0.00000000E+00
  0.00000000E+00  2.00000000E+01  0.00000000E+00
  1.00000000E+01  2.00000000E+01  0.00000000E+00
  2.00000000E+01  2.00000000E+01  0.00000000E+00
  3.00000000E+01  2.00000000E+01  0.00000000E+00
  4.00000000E+01  2.00000000E+01  0.00000000E+00
  5.00000000E+01  2.00000000E+01  0.00000000E+00
  6.00000000E+01  2.00000000E+01  0.00000000E+00
  7.00000000E+01  2.00000000E+01  0.00000000E+00
  8.00000000E+01  2.00000000E+01  0.00000000E+00
  9.00000000E+01  2.00000000E+01  0.00000000E+00
  1.00000000E+02  2.00000000E+01  0.00000000E+00
  1.10000000E+02  2.00000000E+01  0.00000000E+00
  1.20000000E+02  2.00000000E+01  0.00000000E+00
  1.30000000E+02  2.00000000E+01  0.00000000E+00
  1.40000000E+02  2.00000000E+01  0.00000000E+00
  1.50000000E+02  2.00000000E+01  0.00000000E+00
  1.60000000E+02  2.00000000E+01  0.00000000E+00
  1.70000000E+02  2.00000000E+01  0.00000000E+00
  1.80000000E+02  2.00000000E+01  0.00000000E+00
  1.90000000E+02  2.00000000E+01  0.00000000E+00
  2.00000000E+02  2.00000000E+01  0.00000000E+00
  2.10000000E+02  2.00000000E+01  0.00000000E+00
  2.20000000E+02  2.00000000E+01  0.00000000E+00
  2.30000000E+02  2.00000000E+01  0.00000000E+00
  2.40000000E+02  2.00000000E+01  0.00000000E+00
  2.50000000E+02  2.00000000E+01  0.00000000E+00
  2.60000000E+02  2.00000000E+01  0.00000000E+00
  2.70000000E+02  2.00000000E+01  0.00000000E+00
  2.80000000E+02  2.00000000E+01  0.00000000E+00
  2.90000000E+02  2.00000000E+01  0.00000000E+00
  3.00000000E+02  2.00000000E+01  0.00000000E+00
  3.10000000E+02  2.00000000E+01  0.00000000E+00
  3.20000000E+02  2.00000000E+01  0.00000000E+00
  3.30000000E+02  2.00000000E+01  0.00000000E+00
  3.40000000E+02  2.00000000E+01  0.00000000E+00
  3.50000000E+02  2.00000000E+01  0.00000000E+00
  3.60000000E+02  2.00000000E+01  0.00000000E+00
  3.70000000E+02  2.00000000E+01  0.00000000E+00
  3.80000000E+02  2.00000000E+01  0.00000000E+00
  3.90000000E+02  2.00000000E+01  0.00000000E+00
  4.00000000E+02  2.00000000E+01  0.00000000E+00
  4.10000000E+02  2.00000000E+01  0.00000000E+00
  4.20000000E+02  2.00000000E+01  0.00000000E+00
  4.30000000E+02  2.00000000E+01  0.00000000E+00
  4.40000000E+02  2.00000000E+01  0.00000000E+00
  4.50000000E+02  2.00000000E+01  0.00000000E+00
  4.60000000E+02  2.00000000E+01  0.00000000E+00
  4.70000000E+02  2.00000000E+01  0.00000000E+00
  4.80000000E+02  2.00000000E+01  0.00000000E+00
  4.90000000E+02  2.00000000E+01  0.00000000E+00
  5.00000000E+02  2.00000000E+01  0.00000000E+00
  5.10000000E+02  2.00000000E+01  0.00000000E+00
  5.20000000E+02  2.00000000E+01  0.00000000E+00
  5.30000000E+02  2.00000000E+01  0.00000000E+00
  5.40000000E+02  2.00000000E+01  0.00000000E+00
  5.50000000E+02  2.00000000E+01  0.00000000E+00
  5.60000000E+02  2.00000000E+01  0.00000000E+00
  5.70000000E+02  2.00000000E+01  0.00000000E+00
  5.80000000E+02  2.00000000E+01  0.00000000E+00
  5.90000000E+02  2.00000000E+01  0.00000000E+00
  6.00000000E+02  2.00000000E+01  0.00000000E+00
  6.10000000E+02  2.00000000E+01  0.00000000E+00
  6.20000000E+02  2.00000000E+01  0.00000000E+00
  6.30000000E+02  2.00000000E+01  0.00000000E+00
  6.40000000E+02  2.00000000E+01  0.00000000E+00
  6.50000000E+02  2.00000000E+01  0.00000000E+00
  6.60000000E+02  2.00000000E+01  0.00000000E+00
  6.70000000E+02  2.00000000E+01  0.00000000E+00
  6.80000000E+02  2.00000000E+01  0.00000000E+00
  6.90000000E+02  2.00000000E+01  0.00000000E+00
  7.00000000E+02  2.00000000E+01  0.00000000E+00
  7.10000000E+02  2.00000000E+01  0.00000000E+00
  7.20000000E+02  2.00000000E+01  0.00000000E+00
  7.30000000E+02  2.00000000E+01  0.00000000E+00
  7.40000000E+02  2.00000000E+01  0.00000000E+00
  7.50000000E+02  2.00000000E+01  0.00000000E+00
  7.60000000E+02  2.00000000E+01  0.00000000E+00
  7.70000000E+02  2.00000000E+01  0.00000000E+00
  7.80000000E+02  2.00000000E+01  0.00000000E+00
  7.90000000E+02  2.00000000E+01  0.00000000E+00
  8.00000000E+02  2.00000000E+01  0.00000000E+00
  8.10000000E+02  2.00000000E+01  0.00000000E+00
  8.20000000E+02  2.00000000E+01  0.00000000E+00
  8.30000000E+02  2.00000000E+01  0.00000000E+00
  8.40000000E+02  2.00000000E+01  0.00000000E+00
  8.50000000E+02  2.00000000E+01  0.00000000E+00
  8.60000000E+02  2.00000000E+01  0.00000000E+00
  8.70000000E+02  2.00000000E+01  0.00000000E+00
  8.80000000E+02  2.00000000E+01  0.00000000E+00
  8.90000000E+02  2.00000000E+01  0.00000000E+00
  9.00000000E+02  2.00000000E+01  0.00000000E+00
  9.10000000E+02  2.00000000E+01  0.00000000E+00
  9.20000000E+02  2.00000000E+01  0.00000000E+00
  9.30000000E+02  2.00000000E+01  0.00000000E+00
  9.40000000E+02  2.00000000E+01  0.00000000E+00
  9.50000000E+02  2.00000000E+01  0.00000000E+00
  9.60000000E+02  2.00000000E+01  0.00000000E+00
  9.70000000E+02  2.00000000E+01  0.00000000E+00
  9.80000000E+02  2.00000000E+01  0.00000000E+00
  9.90000000E+02  2.00000000E+01  0.00000000E+00
  1.00000000E+03  2.00000000E+01  0.00000000E+00
  0.00000000E+00  2.20000000E+01  0.00000000E+00
  1.00000000E+01  2.20000000E+01  0.00000000E+00
  2.00000000E+01  2.20000000E+01  0.00000000E+00
  3.00000000E+01  2.20000000E+01  0.00000000E+00
  4.00000000E+01  2.20000000E+01  0.00000000E+00
  5.00000000E+01  2.20000000E+01  0.00000000E+00
  6.00000000E+01  2.20000000E+01  0.00000000E+00
  7.00000000E+01  2.20000000E+01  0.00000000E+00
  8.00000000E+01  2.20000000E+01  0.00000000E+00
  9.00000000E+01  2.20000000E+01  0.00000000E+00
  1.00000000E+02  2.20000000E+01  0.00000000E+00
  1.10000000E+02  2.20000000E+01  0.00000000E+00
  1.20000000E+02  2.20000000E+01  0.00000000E+00
  1.30000000E+02  2.20000000E+01  0.00000000E+00
  1.40000000E+02  2.20000000E+01  0.00000000E+00
  1.50000000E+02  2.20000000E+01  0.00000000E+00
  1.60000000E+02  2.20000000E+01  0.00000000E+00
  1.70000000E+02  2.20000000E+01  0.00000000E+00
  1.80000000E+02  2.20000000E+01  0.00000000E+00
  1.90000000E+02  2.20000000E+01  0.00000000E+00
  2.00000000E+02  2.20000000E+01  0.00000000E+00
  2.10000000E+02  2.20000000E+01  0.00000000E+00
  2.20000000E+02  2.20000000E+01  0.00000000E+00
  2.30000000E+02  2.20000000E+01  0.00000000E+00
  2.40000000E+02  2.20000000E+01  0.00000000E+00
  2.50000000E+02  2.20000000E+01  0.00000000E+00
  2.60000000E+02  2.20000000E+01  0.00000000E+00
  2.70000000E+02  2.20000000E+01  0.00000000E+00
  2.80000000E+02  2.20000000E+01  0.00000000E+00
  2.90000000E+02  2.20000000E+01  0.00000000E+00
  3.00000000E+02  2.20000000E+01  0.00000000E+00
  3.10000000E+02  2.20000000E+01  0.00000000E+00
  3.20000000E+02  2.20000000E+01  0.00000000E+00
  3.30000000E+02  2.20000000E+01  0.00000000E+00
  3.40000000E+02  2.20000000E+01  0.00000000E+00
  3.50000000E+02  2.20000000E+01  0.00000000E+00
  3.60000000E+02  2.20000000E+01  0.00000000E+00
  3.70000000E+02  2.20000000E+01  0.00000000E+00
  3.80000000E+02  2.20000000E+01  0.00000000E+00
  3.90000000E+02  2.20000000E+01  0.00000000E+00
  4.00000000E+02  2.20000000E+01  0.00000000E+00
  4.10000000E+02  2.20000000E+01  0.00000000E+00
  4.20000000E+02  2.20000000E+01  0.00000000E+00
  4.30000000E+02  2.20000000E+01  0.00000000E+00
  4.40000000E+02  2.20000000E+01  0.00000000E+00
  4.50000000E+02  2.20000000E+01  0.00000000E+00
  4.60000000E+02  2.20000000E+01  0.00000000E+00
  4.70000000E+02  2.20000000E+01  0.00000000E+00
  4.80000000E+02  2.20000000E+01  0.00000000E+00
  4.90000000E+02  2.20000000E+01  0.00000000E+00
  5.00000000E+02  2.20000000E+01  0.00000000E+00
  5.10000000E+02  2.20000000E+01  0.00000000E+00
  5.20000000E+02  2.20000000E+01  0.00000000E+00
  5.30000000E+02  2.20000000E+01  0.00000000E+00
  5.40000000E+02  2.20000000E+01  0.00000000E+00
  5.50000000E+02  2.20000000E+01  0.00000000E+00
  5.60000000E+02  2.20000000E+01  0.00000000E+00
  5.70000000E+02  2.20000000E+01  0.00000000E+00
  5.80000000E+02  2.20000000E+01  0.00000000E+00
  5.90000000E+02  2.20000000E+01  0.00000000E+00
  6.00000000E+02  2.20000000E+01  0.00000000E+00
  6.10000000E+02  2.20000000E+01  0.00000000E+00
  6.20000000E+02  2.20000000E+01  0.00000000E+00
  6.30000000E+02  2.20000000E+01  0.00000000E+00
  6.40000000E+02  2.20000000E+01  0.00000000E+00
  6.50000000E+02  2.20000000E+01  0.00000000E+00
  6.60000000E+02  2.20000000E+01  0.00000000E+00
  6.70000000E+02  2.20000000E+01  0.00000000E+00
  6.80000000E+02  2.20000000E+01  0.00000000E+00
  6.90000000E+02  2.20000000E+01  0.00000000E+00
  7.00000000E+02  2.20000000E+01  0.00000000E+00
  7.10000000E+02  2.20000000E+01  0.00000000E+00
  7.20000000E+02  2.20000000E+01  0.00000000E+00
  7.30000000E+02  2.20000000E+01  0.00000000E+00
  7.40000000E+02  2.20000000E+01  0.00000000E+00
  7.50000000E+02  2.20000000E+01  0.00000000E+00
  7.60000000E+02  2.20000000E+01  0.00000000E+00
  7.70000000E+02  2.20000000E+01  0.00000000E+00
  7.80000000E+02  2.20000000E+01  0.00000000E+00
  7.90000000E+02  2.20000000E+01  0.00000000E+00
  8.00000000E+02  2.20000000E+01  0.00000000E+00
  8.10000000E+02  2.20000000E+01  0.00000000E+00
  8.20000000E+02  2.20000000E+01  0.00000000E+00
  8.30000000E+02  2.20000000E+01  0.00000000E+00
  8.40000000E+02  2.20000000E+01  0.00000000E+00
  8.50000000E+02  2.20000000E+01  0.00000000E+00
  8.60000000E+02  2.20000000E+01  0.00000000E+00
  8.70000000E+02  2.20000000E+01  0.00000000E+00
  8.80000000E+02  2.20000000E+01  0.00000000E+00
  8.90000000E+02  2.20000000E+01  0.00000000E+00
  9.00000000E+02  2.20000000E+01  0.00000000E+00
  9.10000000E+02  2.20000000E+01  0.00000000E+00
  9.20000000E+02  2.20000000E+01  0.00000000E+00
  9.30000000E+02  2.20000000E+01  0.00000000E+00
  9.40000000E+02  2.20000000E+01  0.00000000E+00
  9.50000000E+02  2.20000000E+01  0.00000000E+00
  9.60000000E+02  2.20000000E+01  0.00000000E+00
  9.70000000E+02  2.20000000E+01  0.00000000E+00
  9.80000000E+02  2.20000000E+01  0.00000000E+00
  9.90000000E+02  2.20000000E+01  0.00000000E+00
  1.00000000E+03  2.20000000E+01  0.00000000E+00
  0.00000000E+00  2.40000000E+01  0.00000000E+00
  1.00000000E+01  2.40000000E+01  0.00000000E+00
  2.00000000E+01  2.40000000E+01  0.00000000E+00
  3.00000000E+01  2.40000000E+01  0.00000000E+00
  4.00000000E+01  2.40000000E+01  0.00000000E+00
  5.00000000E+01  2.40000000E+01  0.00000000E+00
  6.00000000E+01  2.40000000E+01  0.00000000E+00
  7.00000000E+01  2.40000000E+01  0.00000000E+00
  8.00000000E+01  2.40000000E+01  0.00000000E+00
  9.00000000E+01  2.40000000E+01  0.00000000E+00
  1.00000000E+02  2.40000000E+01  0.00000000E+00
  1.10000000E+02  2.40000000E+01  0.00000000E+00
  1.20000000E+02  2.40000000E+01  0.00000000E+00
  1.30000000E+02  2.40000000E+01  0.00000000E+00
  1.40000000E+02  2.40000000E+01  0.00000000E+00
  1.50000000E+02  2.40000000E+01  0.00000000E+00
  1.60000000E+02  2.40000000E+01  0.00000000E+00
  1.70000000E+02  2.40000000E+01  0.00000000E+00
  1.80000000E+02  2.40000000E+01  0.00000000E+00
  1.90000000E+02  2.40000000E+01  0.00000000E+00
  2.00000000E+02  2.40000000E+01  0.00000000E+00
  2.10000000E+02  2.40000000E+01  0.00000000E+00
  2.20000000E+02  2.40000000E+01  0.00000000E+00
  2.30000000E+02  2.40000000E+01  0.00000000E+00
  2.40000000E+02  2.40000000E+01  0.00000000E+00
  2.50000000E+02  2.40000000E+01  0.00000000E+00
  2.60000000E+02  2.40000000E+01  0.00000000E+00
  2.70000000E+02  2.40000000E+01  0.00000000E+00
  2.80000000E+02  2.40000000E+01  0.00000000E+00
  2.90000000E+02  2.40000000E+01  0.00000000E+00
  3.00000000E+02  2.40000000E+01  0.00000000E+00
  3.10000000E+02  2.40000000E+01  0.00000000E+00
  3.20000000E+02  2.40000000E+01  0.00000000E+00
  3.30000000E+02  2.40000000E+01  0.00000000E+00
  3.40000000E+02  2.40000000E+01  0.00000000E+00
  3.50000000E+02  2.40000000E+01  0.00000000E+00
  3.60000000E+02  2.40000000E+01  0.00000000E+00
  3.70000000E+02  2.40000000E+01  0.00000000E+00
  3.80000000E+02  2.40000000E+01  0.00000000E+00
  3.90000000E+02  2.40000000E+01  0.00000000E+00
  4.00000000E+02  2.40000000E+01  0.00000000E+00
  4.10000000E+02  2.40000000E+01  0.00000000E+00
  4.20000000E+02  2.40000000E+01  0.00000000E+00
  4.30000000E+02  2.40000000E+01  0.00000000E+00
  4.40000000E+02  2.40000000E+01  0.00000000E+00
  4.50000000E+02  2.40000000E+01  0.00000000E+00
  4.60000000E+02  2.40000000E+01  0.00000000E+00
  4.70000000E+02  2.40000000E+01  0.00000000E+00
  4.80000000E+02  2.40000000E+01  0.00000000E+00
  4.90000000E+02  2.40000000E+01  0.00000000E+00
  5.00000000E+02  2.40000000E+01  0.00000000E+00
  5.10000000E+02  2.40000000E+01  0.00000000E+00
  5.20000000E+02  2.40000000E+01  0.00000000E+00
  5.30000000E+02  2.40000000E+01  0.00000000E+00
  5.40000000E+02  2.40000000E+01  0.00000000E+00
  5.50000000E+02  2.40000000E+01  0.00000000E+00
  5.60000000E+02  2.40000000E+01  0.00000000E+00
  5.70000000E+02  2.40000000E+01  0.00000000E+00
  5.80000000E+02  2.40000000E+01  0.00000000E+00
  5.90000000E+02  2.40000000E+01  0.00000000E+00
  6.00000000E+02  2.40000000E+01  0.00000000E+00
  6.10000000E+02  2.40000000E+01  0.00000000E+00
  6.20000000E+02  2.40000000E+01  0.00000000E+00
  6.30000000E+02  2.40000000E+01  0.00000000E+00
  6.40000000E+02  2.40000000E+01  0.00000000E+00
  6.50000000E+02  2.40000000E+01  0.00000000E+00
  6.60000000E+02  2.40000000E+01  0.00000000E+00
  6.70000000E+02  2.40000000E+01  0.00000000E+00
  6.80000000E+02  2.40000000E+01  0.00000000E+00
  6.90000000E+02  2.40000000E+01  0.00000000E+00
  7.00000000E+02  2.40000000E+01  0.00000000E+00
  7.10000000E+02  2.40000000E+01  0.00000000E+00
  7.20000000E+02  2.40000000E+01  0.00000000E+00
  7.30000000E+02  2.40000000E+01  0.00000000E+00
  7.40000000E+02  2.40000000E+01  0.00000000E+00
  7.50000000E+02  2.40000000E+01  0.00000000E+00
  7.60000000E+02  2.40000000E+01  0.00000000E+00
  7.70000000E+02  2.40000000E+01  0.00000000E+00
  7.80000000E+02  2.40000000E+01  0.00000000E+00
  7.90000000E+02  2.40000000E+01  0.00000000E+00
  8.00000000E+02  2.40000000E+01  0.00000000E+00
  8.10000000E+02  2.40000000E+01  0.00000000E+00
  8.20000000E+02  2.40000000E+01  0.00000000E+00
  8.30000000E+02  2.40000000E+01  0.00000000E+00
  8.40000000E+02  2.40000000E+01  0.00000000E+00
  8.50000000E+02  2.40000000E+01  0.00000000E+00
  8.60000000E+02  2.40000000E+01  0.00000000E+00
  8.70000000E+02  2.40000000E+01  0.00000000E+00
  8.80000000E+02  2.40000000E+01  0.00000000E+00
  8.90000000E+02  2.40000000E+01  0.00000000E+00
  9.00000000E+02  2.40000000E+01  0.00000000E+00
  9.10000000E+02  2.40000000E+01  0.00000000E+00
  9.20000000E+02  2.40000000E+01  0.00000000E+00
  9.30000000E+02  2.40000000E+01  0.00000000E+00
  9.40000000E+02  2.40000000E+01  0.00000000E+00
  9.50000000E+02  2.40000000E+01  0.00000000E+00
  9.60000000E+02  2.40000000E+01  0.00000000E+00
  9.70000000E+02  2.40000000E+01  0.00000000E+00
  9.80000000E+02  2.40000000E+01  0.00000000E+00
  9.90000000E+02  2.40000000E+01  0.00000000E+00
  1.00000000E+03  2.40000000E+01  0.00000000E+00
  0.00000000E+00  2.60000000E+01  0.00000000E+00
  1.00000000E+01  2.60000000E+01  0.00000000E+00
  2.00000000E+01  2.60000000E+01  0.00000000E+00
  3.00000000E+01  2.60000000E+01  0.00000000E+00
  4.00000000E+01  2.60000000E+01  0.00000000E+00
  5.00000000E+01  2.60000000E+01  0.00000000E+00
  6.00000000E+01  2.60000000E+01  0.00000000E+00
  7.00000000E+01  2.60000000E+01  0.00000000E+00
  8.00000000E+01  2.60000000E+01  0.00000000E+00
  9.00000000E+01  2.60000000E+01  0.00000000E+00
  1.00000000E+02  2.60000000E+01  0.00000000E+00
  1.10000000E+02  2.60000000E+01  0.00000000E+00
  1.20000000E+02  2.60000000E+01  0.00000000E+00
  1.30000000E+02  2.60000000E+01  0.00000000E+00
  1.40000000E+02  2.60000000E+01  0.00000000E+00
  1.50000000E+02  2.60000000E+01  0.00000000E+00
  1.60000000E+02  2.60000000E+01  0.00000000E+00
  1.70000000E+02  2.60000000E+01  0.00000000E+00
  1.80000000E+02  2.60000000E+01  0.00000000E+00
  1.90000000E+02  2.60000000E+01  0.00000000E+00
  2.00000000E+02  2.60000000E+01  0.00000000E+00
  2.10000000E+02  2.60000000E+01  0.00000000E+00
  2.20000000E+02  2.60000000E+01  0.00000000E+00
  2.30000000E+02  2.60000000E+01  0.00000000E+00
  2.40000000E+02  2.60000000E+01  0.00000000E+00
  2.50000000E+02  2.60000000E+01  0.00000000E+00
  2.60000000E+02  2.60000000E+01  0.00000000E+00
  2.70000000E+02  2.60000000E+01  0.00000000E+00
  2.80000000E+02  2.60000000E+01  0.00000000E+00
  2.90000000E+02  2.60000000E+01  0.00000000E+00
  3.00000000E+02  2.60000000E+01  0.00000000E+00
  3.10000000E+02  2.60000000E+01  0.00000000E+00
  3.20000000E+02  2.60000000E+01  0.00000000E+00
  3.30000000E+02  2.60000000E+01  0.00000000E+00
  3.40000000E+02  2.60000000E+01  0.00000000E+00
  3.50000000E+02  2.60000000E+01  0.00000000E+00
  3.60000000E+02  2.60000000E+01  0.00000000E+00
  3.70000000E+02  2.60000000E+01  0.00000000E+00
  3.80000000E+02  2.60000000E+01  0.00000000E+00
  3.90000000E+02  2.60000000E+01  0.00000000E+00
  4.00000000E+02  2.60000000E+01  0.00000000E+00
  4.10000000E+02  2.60000000E+01  0.00000000E+00
  4.20000000E+02  2.60000000E+01  0.00000000E+00
  4.30000000E+02  2.60000000E+01  0.00000000E+00
  4.40000000E+02  2.60000000E+01  0.00000000E+00
  4.50000000E+02  2.60000000E+01  0.00000000E+00
  4.60000000E+02  2.60000000E+01  0.00000000E+00
  4.70000000E+02  2.60000000E+01  0.00000000E+00
  4.80000000E+02  2.60000000E+01  0.00000000E+00
  4.90000000E+02  2.60000000E+01  0.00000000E+00
  5.00000000E+02  2.60000000E+01  0.00000000E+00
  5.10000000E+02  2.60000000E+01  0.00000000E+00
  5.20000000E+02  2.60000000E+01  0.00000000E+00
  5.30000000E+02  2.60000000E+01  0.00000000E+00
  5.40000000E+02  2.60000000E+01  0.00000000E+00
  5.50000000E+02  2.60000000E+01  0.00000000E+00
  5.60000000E+02  2.60000000E+01  0.00000000E+00
  5.70000000E+02  2.60000000E+01  0.00000000E+00
  5.80000000E+02  2.60000000E+01  0.00000000E+00
  5.90000000E+02  2.60000000E+01  0.00000000E+00
  6.00000000E+02  2.60000000E+01  0.00000000E+00
  6.10000000E+02  2.60000000E+01  0.00000000E+00
  6.20000000E+02  2.60000000E+01  0.00000000E+00
  6.30000000E+02  2.60000000E+01  0.00000000E+00
  6.40000000E+02  2.60000000E+01  0.00000000E+00
  6.50000000E+02  2.60000000E+01  0.00000000E+00
  6.60000000E+02  2.60000000E+01  0.00000000E+00
  6.70000000E+02  2.60000000E+01  0.00000000E+00
  6.80000000E+02  2.60000000E+01  0.00000000E+00
  6.90000000E+02  2.60000000E+01  0.00000000E+00
  7.00000000E+02  2.60000000E+01  0.00000000E+00
  7.10000000E+02  2.60000000E+01  0.00000000E+00
  7.20000000E+02  2.60000000E+01  0.00000000E+00
  7.30000000E+02  2.60000000E+01  0.00000000E+00
  7.40000000E+02  2.60000000E+01  0.00000000E+00
  7.50000000E+02  2.60000000E+01  0.00000000E+00
  7.60000000E+02  2.60000000E+01  0.00000000E+00
  7.70000000E+02  2.60000000E+01  0.00000000E+00
  7.80000000E+02  2.60000000E+01  0.00000000E+00
  7.90000000E+02  2.60000000E+01  0.00000000E+00
  8.00000000E+02  2.60000000E+01  0.00000000E+00
  8.10000000E+02  2.60000000E+01  0.00000000E+00
  8.20000000E+02  2.60000000E+01  0.00000000E+00
  8.30000000E+02  2.60000000E+01  0.00000000E+00
  8.40000000E+02  2.60000000E+01  0.00000000E+00
  8.50000000E+02  2.60000000E+01  0.00000000E+00
  8.60000000E+02  2.60000000E+01  0.00000000E+00
  8.70000000E+02  2.60000000E+01  0.00000000E+00
  8.80000000E+02  2.60000000E+01  0.00000000E+00
  8.90000000E+02  2.60000000E+01  0.00000000E+00
  9.00000000E+02  2.60000000E+01  0.00000000E+00
  9.10000000E+02  2.60000000E+01  0.00000000E+00
  9.20000000E+02  2.60000000E+01  0.00000000E+00
  9.30000000E+02  2.60000000E+01  0.00000000E+00
  9.40000000E+02  2.60000000E+01  0.00000000E+00
  9.50000000E+02  2.60000000E+01  0.00000000E+00
  9.60000000E+02  2.60000000E+01  0.00000000E+00
  9.70000000E+02  2.60000000E+01  0.00000000E+00
  9.80000000E+02  2.60000000E+01  0.00000000E+00
  9.90000000E+02  2.60000000E+01  0.00000000E+00
  1.00000000E+03  2.60000000E+01  0.00000000E+00
  0.00000000E+00  2.80000000E+01  0.00000000E+00
  1.00000000E+01  2.80000000E+01  0.00000000E+00
  2.00000000E+01  2.80000000E+01  0.00000000E+00
  3.00000000E+01  2.80000000E+01  0.00000000E+00
  4.00000000E+01  2.80000000E+01  0.00000000E+00
  5.00000000E+01  2.80000000E+01  0.00000000E+00
  6.00000000E+01  2.80000000E+01  0.00000000E+00
  7.00000000E+01  2.80000000E+01  0.00000000E+00
  8.00000000E+01  2.80000000E+01  0.00000000E+00
  9.00000000E+01  2.80000000E+01  0.00000000E+00
  1.00000000E+02  2.80000000E+01  0.00000000E+00
  1.10000000E+02  2.80000000E+01  0.00000000E+00
  1.20000000E+02  2.80000000E+01  0.00000000E+00
  1.30000000E+02  2.80000000E+01  0.00000000E+00
  1.40000000E+02  2.80000000E+01  0.00000000E+00
  1.50000000E+02  2.80000000E+01  0.00000000E+00
  1.60000000E+02  2.80000000E+01  0.00000000E+00
  1.70000000E+02  2.80000000E+01  0.00000000E+00
  1.80000000E+02  2.80000000E+01  0.00000000E+00
  1.90000000E+02  2.80000000E+01  0.00000000E+00
  2.00000000E+02  2.80000000E+01  0.00000000E+00
  2.10000000E+02  2.80000000E+01  0.00000000E+00
  2.20000000E+02  2.80000000E+01  0.00000000E+00
  2.30000000E+02  2.80000000E+01  0.00000000E+00
  2.40000000E+02  2.80000000E+01  0.00000000E+00
  2.50000000E+02  2.80000000E+01  0.00000000E+00
  2.60000000E+02  2.80000000E+01  0.00000000E+00
  2.70000000E+02  2.80000000E+01  0.00000000E+00
  2.80000000E+02  2.80000000E+01  0.00000000E+00
  2.90000000E+02  2.80000000E+01  0.00000000E+00
  3.00000000E+02  2.80000000E+01  0.00000000E+00
  3.10000000E+02  2.80000000E+01  0.00000000E+00
  3.20000000E+02  2.80000000E+01  0.00000000E+00
  3.30000000E+02  2.80000000E+01  0.00000000E+00
  3.40000000E+02  2.80000000E+01  0.00000000E+00
  3.50000000E+02  2.80000000E+01  0.00000000E+00
  3.60000000E+02  2.80000000E+01  0.00000000E+00
  3.70000000E+02  2.80000000E+01  0.00000000E+00
  3.80000000E+02  2.80000000E+01  0.00000000E+00
  3.90000000E+02  2.80000000E+01  0.00000000E+00
  4.00000000E+02  2.80000000E+01  0.00000000E+00
  4.10000000E+02  2.80000000E+01  0.00000000E+00
  4.20000000E+02  2.80000000E+01  0.00000000E+00
  4.30000000E+02  2.80000000E+01  0.00000000E+00
  4.40000000E+02  2.80000000E+01  0.00000000E+00
  4.50000000E+02  2.80000000E+01  0.00000000E+00
  4.60000000E+02  2.80000000E+01  0.00000000E+00
  4.70000000E+02  2.80000000E+01  0.00000000E+00
  4.80000000E+02  2.80000000E+01  0.00000000E+00
  4.90000000E+02  2.80000000E+01  0.00000000E+00
  5.00000000E+02  2.80000000E+01  0.00000000E+00
  5.10000000E+02  2.80000000E+01  0.00000000E+00
  5.20000000E+02  2.80000000E+01  0.00000000E+00
  5.30000000E+02  2.80000000E+01  0.00000000E+00
  5.40000000E+02  2.80000000E+01  0.00000000E+00
  5.50000000E+02  2.80000000E+01  0.00000000E+00
  5.60000000E+02  2.80000000E+01  0.00000000E+00
  5.70000000E+02  2.80000000E+01  0.00000000E+00
  5.80000000E+02  2.80000000E+01  0.00000000E+00
  5.90000000E+02  2.80000000E+01  0.00000000E+00
  6.00000000E+02  2.80000000E+01  0.00000000E+00
  6.10000000E+02  2.80000000E+01  0.00000000E+00
  6.20000000E+02  2.80000000E+01  0.00000000E+00
  6.30000000E+02  2.80000000E+01  0.00000000E+00
  6.40000000E+02  2.80000000E+01  0.00000000E+00
  6.50000000E+02  2.80000000E+01  0.00000000E+00
  6.60000000E+02  2.80000000E+01  0.00000000E+00
  6.70000000E+02  2.80000000E+01  0.00000000E+00
  6.80000000E+02  2.80000000E+01  0.00000000E+00
  6.90000000E+02  2.80000000E+01  0.00000000E+00
  7.00000000E+02  2.80000000E+01  0.00000000E+00
  7.10000000E+02  2.80000000E+01  0.00000000E+00
  7.20000000E+02  2.80000000E+01  0.00000000E+00
  7.30000000E+02  2.80000000E+01  0.00000000E+00
  7.40000000E+02  2.80000000E+01  0.00000000E+00
  7.50000000E+02  2.80000000E+01  0.00000000E+00
  7.60000000E+02  2.80000000E+01  0.00000000E+00
  7.70000000E+02  2.80000000E+01  0.00000000E+00
  7.80000000E+02  2.80000000E+01  0.00000000E+00
  7.90000000E+02  2.80000000E+01  0.00000000E+00
  8.00000000E+02  2.80000000E+01  0.00000000E+00
  8.10000000E+02  2.80000000E+01  0.00000000E+00
  8.20000000E+02  2.80000000E+01  0.00000000E+00
  8.30000000E+02  2.80000000E+01  0.00000000E+00
  8.40000000E+02  2.80000000E+01  0.00000000E+00
  8.50000000E+02  2.80000000E+01  0.00000000E+00
  8.60000000E+02  2.80000000E+01  0.00000000E+00
  8.70000000E+02  2.80000000E+01  0.00000000E+00
  8.80000000E+02  2.80000000E+01  0.00000000E+00
  8.90000000E+02  2.80000000E+01  0.00000000E+00
  9.00000000E+02  2.80000000E+01  0.00000000E+00
  9.10000000E+02  2.80000000E+01  0.00000000E+00
  9.20000000E+02  2.80000000E+01  0.00000000E+00
  9.30000000E+02  2.80000000E+01  0.00000000E+00
  9.40000000E+02  2.80000000E+01  0.00000000E+00
  9.50000000E+02  2.80000000E+01  0.00000000E+00
  9.60000000E+02  2.80000000E+01  0.00000000E+00
  9.70000000E+02  2.80000000E+01  0.00000000E+00
  9.80000000E+02  2.80000000E+01  0.00000000E+00
  9.90000000E+02  2.80000000E+01  0.00000000E+00
  1.00000000E+03  2.80000000E+01  0.00000000E+00
  0.00000000E+00  3.00000000E+01  0.00000000E+00
  1.00000000E+01  3.00000000E+01  0.00000000E+00
  2.00000000E+01  3.00000000E+01  0.00000000E+00
  3.00000000E+01  3.00000000E+01  0.00000000E+00
  4.00000000E+01  3.00000000E+01  0.00000000E+00
  5.00000000E+01  3.00000000E+01  0.00000000E+00
  6.00000000E+01  3.00000000E+01  0.00000000E+00
  7.00000000E+01  3.00000000E+01  0.00000000E+00
  8.00000000E+01  3.00000000E+01  0.00000000E+00
  9.00000000E+01  3.00000000E+01  0.00000000E+00
  1.00000000E+02  3.00000000E+01  0.00000000E+00
  1.10000000E+02  3.00000000E+01  0.00000000E+00
  1.20000000E+02  3.00000000E+01  0.00000000E+00
  1.30000000E+02  3.00000000E+01  0.00000000E+00
  1.40000000E+02  3.00000000E+01  0.00000000E+00
  1.50000000E+02  3.00000000E+01  0.00000000E+00
  1.60000000E+02  3.00000000E+01  0.00000000E+00
  1.70000000E+02  3.00000000E+01  0.00000000E+00
  1.80000000E+02  3.00000000E+01  0.00000000E+00
  1.90000000E+02  3.00000000E+01  0.00000000E+00
  2.00000000E+02  3.00000000E+01  0.00000000E+00
  2.10000000E+02  3.00000000E+01  0.00000000E+00
  2.20000000E+02  3.00000000E+01  0.00000000E+00
  2.30000000E+02  3.00000000E+01  0.00000000E+00
  2.40000000E+02  3.00000000E+01  0.00000000E+00
  2.50000000E+02  3.00000000E+01  0.00000000E+00
  2.60000000E+02  3.00000000E+01  0.00000000E+00
  2.70000000E+02  3.00000000E+01  0.00000000E+00
  2.80000000E+02  3.00000000E+01  0.00000000E+00
  2.90000000E+02  3.00000000E+01  0.00000000E+00
  3.00000000E+02  3.00000000E+01  0.00000000E+00
  3.10000000E+02  3.00000000E+01  0.00000000E+00
  3.20000000E+02  3.00000000E+01  0.00000000E+00
  3.30000000E+02  3.00000000E+01  0.00000000E+00
  3.40000000E+02  3.00000000E+01  0.00000000E+00
  3.50000000E+02  3.00000000E+01  0.00000000E+00
  3.60000000E+02  3.00000000E+01  0.00000000E+00
  3.70000000E+02  3.00000000E+01  0.00000000E+00
  3.80000000E+02  3.00000000E+01  0.00000000E+00
  3.90000000E+02  3.00000000E+01  0.00000000E+00
  4.00000000E+02  3.00000000E+01  0.00000000E+00
  4.10000000E+02  3.00000000E+01  0.00000000E+00
  4.20000000E+02  3.00000000E+01  0.00000000E+00
  4.30000000E+02  3.00000000E+01  0.00000000E+00
  4.40000000E+02  3.00000000E+01  0.00000000E+00
  4.50000000E+02  3.00000000E+01  0.00000000E+00
  4.60000000E+02  3.00000000E+01  0.00000000E+00
  4.70000000E+02  3.00000000E+01  0.00000000E+00
  4.80000000E+02  3.00000000E+01  0.00000000E+00
  4.90000000E+02  3.00000000E+01  0.00000000E+00
  5.00000000E+02  3.00000000E+01  0.00000000E+00
  5.10000000E+02  3.00000000E+01  0.00000000E+00
  5.20000000E+02  3.00000000E+01  0.00000000E+00
  5.30000000E+02  3.00000000E+01  0.00000000E+00
  5.40000000E+02  3.00000000E+01  0.00000000E+00
  5.50000000E+02  3.00000000E+01  0.00000000E+00
  5.60000000E+02  3.00000000E+01  0.00000000E+00
  5.70000000E+02  3.00000000E+01  0.00000000E+00
  5.80000000E+02  3.00000000E+01  0.00000000E+00
  5.90000000E+02  3.00000000E+01  0.00000000E+00
  6.00000000E+02  3.00000000E+01  0.00000000E+00
  6.10000000E+02  3.00000000E+01  0.00000000E+00
  6.20000000E+02  3.00000000E+01  0.00000000E+00
  6.30000000E+02  3.00000000E+01  0.00000000E+00
  6.40000000E+02  3.00000000E+01  0.00000000E+00
  6.50000000E+02  3.00000000E+01  0.00000000E+00
  6.60000000E+02  3.00000000E+01  0.00000000E+00
  6.70000000E+02  3.00000000E+01  0.00000000E+00
  6.80000000E+02  3.00000000E+01  0.00000000E+00
  6.90000000E+02  3.00000000E+01  0.00000000E+00
  7.00000000E+02  3.00000000E+01  0.00000000E+00
  7.10000000E+02  3.00000000E+01  0.00000000E+00
  7.20000000E+02  3.00000000E+01  0.00000000E+00
  7.30000000E+02  3.00000000E+01  0.00000000E+00
  7.40000000E+02  3.00000000E+01  0.00000000E+00
  7.50000000E+02  3.00000000E+01  0.00000000E+00
  7.60000000E+02  3.00000000E+01  0.00000000E+00
  7.70000000E+02  3.00000000E+01  0.00000000E+00
  7.80000000E+02  3.00000000E+01  0.00000000E+00
  7.90000000E+02  3.00000000E+01  0.00000000E+00
  8.00000000E+02  3.00000000E+01  0.00000000E+00
  8.10000000E+02  3.00000000E+01  0.00000000E+00
  8.20000000E+02  3.00000000E+01  0.00000000E+00
  8.30000000E+02  3.00000000E+01  0.00000000E+00
  8.40000000E+02  3.00000000E+01  0.00000000E+00
  8.50000000E+02  3.00000000E+01  0.00000000E+00
  8.60000000E+02  3.00000000E+01  0.00000000E+00
  8.70000000E+02  3.00000000E+01  0.00000000E+00
  8.80000000E+02  3.00000000E+01  0.00000000E+00
  8.90000000E+02  3.00000000E+01  0.00000000E+00
  9.00000000E+02  3.00000000E+01  0.00000000E+00
  9.10000000E+02  3.00000000E+01  0.00000000E+00
  9.20000000E+02  3.00000000E+01  0.00000000E+00
  9.30000000E+02  3.00000000E+01  0.00000000E+00
  9.40000000E+02  3.00000000E+01  0.00000000E+00
  9.50000000E+02  3.00000000E+01  0.00000000E+00
  9.60000000E+02  3.00000000E+01  0.00000000E+00
  9.70000000E+02  3.00000000E+01  0.00000000E+00
  9.80000000E+02  3.00000000E+01  0.00000000E+00
  9.90000000E+02  3.00000000E+01  0.00000000E+00
  1.00000000E+03  3.00000000E+01  0.00000000E+00
  0.00000000E+00  3.20000000E+01  0.00000000E+00
  1.00000000E+01  3.20000000E+01  0.00000000E+00
  2.00000000E+01  3.20000000E+01  0.00000000E+00
  3.00000000E+01  3.20000000E+01  0.00000000E+00
  4.00000000E+01  3.20000000E+01  0.00000000E+00
  5.00000000E+01  3.20000000E+01  0.00000000E+00
  6.00000000E+01  3.20000000E+01  0.00000000E+00
  7.00000000E+01  3.20000000E+01  0.00000000E+00
  8.00000000E+01  3.20000000E+01  0.00000000E+00
  9.00000000E+01  3.20000000E+01  0.00000000E+00
  1.00000000E+02  3.20000000E+01  0.00000000E+00
  1.10000000E+02  3.20000000E+01  0.00000000E+00
  1.20000000E+02  3.20000000E+01  0.00000000E+00
  1.30000000E+02  3.20000000E+01  0.00000000E+00
  1.40000000E+02  3.20000000E+01  0.00000000E+00
  1.50000000E+02  3.20000000E+01  0.00000000E+00
  1.60000000E+02  3.20000000E+01  0.00000000E+00
  1.70000000E+02  3.20000000E+01  0.00000000E+00
  1.80000000E+02  3.20000000E+01  0.00000000E+00
  1.90000000E+02  3.20000000E+01  0.00000000E+00
  2.00000000E+02  3.20000000E+01  0.00000000E+00
  2.10000000E+02  3.20000000E+01  0.00000000E+00
  2.20000000E+02  3.20000000E+01  0.00000000E+00
  2.30000000E+02  3.20000000E+01  0.00000000E+00
  2.40000000E+02  3.20000000E+01  0.00000000E+00
  2.50000000E+02  3.20000000E+01  0.00000000E+00
  2.60000000E+02  3.20000000E+01  0.00000000E+00
  2.70000000E+02  3.20000000E+01  0.00000000E+00
  2.80000000E+02  3.20000000E+01  0.00000000E+00
  2.90000000E+02  3.20000000E+01  0.00000000E+00
  3.00000000E+02  3.20000000E+01  0.00000000E+00
  3.10000000E+02  3.20000000E+01  0.00000000E+00
  3.20000000E+02  3.20000000E+01  0.00000000E+00
  3.30000000E+02  3.20000000E+01  0.00000000E+00
  3.40000000E+02  3.20000000E+01  0.00000000E+00
  3.50000000E+02  3.20000000E+01  0.00000000E+00
  3.60000000E+02  3.20000000E+01  0.00000000E+00
  3.70000000E+02  3.20000000E+01  0.00000000E+00
  3.80000000E+02  3.20000000E+01  0.00000000E+00
  3.90000000E+02  3.20000000E+01  0.00000000E+00
  4.00000000E+02  3.20000000E+01  0.00000000E+00
  4.10000000E+02  3.20000000E+01  0.00000000E+00
  4.20000000E+02  3.20000000E+01  0.00000000E+00
  4.30000000E+02  3.20000000E+01  0.00000000E+00
  4.40000000E+02  3.20000000E+01  0.00000000E+00
  4.50000000E+02  3.20000000E+01  0.00000000E+00
  4.60000000E+02  3.20000000E+01  0.00000000E+00
  4.70000000E+02  3.20000000E+01  0.00000000E+00
  4.80000000E+02  3.20000000E+01  0.00000000E+00
  4.90000000E+02  3.20000000E+01  0.00000000E+00
  5.00000000E+02  3.20000000E+01  0.00000000E+00
  5.10000000E+02  3.20000000E+01  0.00000000E+00
  5.20000000E+02  3.20000000E+01  0.00000000E+00
  5.30000000E+02  3.20000000E+01  0.00000000E+00
  5.40000000E+02  3.20000000E+01  0.00000000E+00
  5.50000000E+02  3.20000000E+01  0.00000000E+00
  5.60000000E+02  3.20000000E+01  0.00000000E+00
  5.70000000E+02  3.20000000E+01  0.00000000E+00
  5.80000000E+02  3.20000000E+01  0.00000000E+00
  5.90000000E+02  3.20000000E+01  0.00000000E+00
  6.00000000E+02  3.20000000E+01  0.00000000E+00
  6.10000000E+02  3.20000000E+01  0.00000000E+00
  6.20000000E+02  3.20000000E+01  0.00000000E+00
  6.30000000E+02  3.20000000E+01  0.00000000E+00
  6.40000000E+02  3.20000000E+01  0.00000000E+00
  6.50000000E+02  3.20000000E+01  0.00000000E+00
  6.60000000E+02  3.20000000E+01  0.00000000E+00
  6.70000000E+02  3.20000000E+01  0.00000000E+00
  6.80000000E+02  3.20000000E+01  0.00000000E+00
  6.90000000E+02  3.20000000E+01  0.00000000E+00
  7.00000000E+02  3.20000000E+01  0.00000000E+00
  7.10000000E+02  3.20000000E+01  0.00000000E+00
  7.20000000E+02  3.20000000E+01  0.00000000E+00
  7.30000000E+02  3.20000000E+01  0.00000000E+00
  7.40000000E+02  3.20000000E+01  0.00000000E+00
  7.50000000E+02  3.20000000E+01  0.00000000E+00
  7.60000000E+02  3.20000000E+01  0.00000000E+00
  7.70000000E+02  3.20000000E+01  0.00000000E+00
  7.80000000E+02  3.20000000E+01  0.00000000E+00
  7.90000000E+02  3.20000000E+01  0.00000000E+00
  8.00000000E+02  3.20000000E+01  0.00000000E+00
  8.10000000E+02  3.20000000E+01  0.00000000E+00
  8.20000000E+02  3.20000000E+01  0.00000000E+00
  8.30000000E+02  3.20000000E+01  0.00000000E+00
  8.40000000E+02  3.20000000E+01  0.00000000E+00
  8.50000000E+02  3.20000000E+01  0.00000000E+00
  8.60000000E+02  3.20000000E+01  0.00000000E+00
  8.70000000E+02  3.20000000E+01  0.00000000E+00
  8.80000000E+02  3.20000000E+01  0.00000000E+00
  8.90000000E+02  3.20000000E+01  0.00000000E+00
  9.00000000E+02  3.20000000E+01  0.00000000E+00
  9.10000000E+02  3.20000000E+01  0.00000000E+00
  9.20000000E+02  3.20000000E+01  0.00000000E+00
  9.30000000E+02  3.20000000E+01  0.00000000E+00
  9.40000000E+02  3.20000000E+01  0.00000000E+00
  9.50000000E+02  3.20000000E+01  0.00000000E+00
  9.60000000E+02  3.20000000E+01  0.00000000E+00
  9.70000000E+02  3.20000000E+01  0.00000000E+00
  9.80000000E+02  3.20000000E+01  0.00000000E+00
  9.90000000E+02  3.20000000E+01  0.00000000E+00
  1.00000000E+03  3.20000000E+01  0.00000000E+00
  0.00000000E+00  3.40000000E+01  0.00000000E+00
  1.00000000E+01  3.40000000E+01  0.00000000E+00
  2.00000000E+01  3.40000000E+01  0.00000000E+00
  3.00000000E+01  3.40000000E+01  0.00000000E+00
  4.00000000E+01  3.40000000E+01  0.00000000E+00
  5.00000000E+01  3.40000000E+01  0.00000000E+00
  6.00000000E+01  3.40000000E+01  0.00000000E+00
  7.00000000E+01  3.40000000E+01  0.00000000E+00
  8.00000000E+01  3.40000000E+01  0.00000000E+00
  9.00000000E+01  3.40000000E+01  0.00000000E+00
  1.00000000E+02  3.40000000E+01  0.00000000E+00
  1.10000000E+02  3.40000000E+01  0.00000000E+00
  1.20000000E+02  3.40000000E+01  0.00000000E+00
  1.30000000E+02  3.40000000E+01  0.00000000E+00
  1.40000000E+02  3.40000000E+01  0.00000000E+00
  1.50000000E+02  3.40000000E+01  0.00000000E+00
  1.60000000E+02  3.40000000E+01  0.00000000E+00
  1.70000000E+02  3.40000000E+01  0.00000000E+00
  1.80000000E+02  3.40000000E+01  0.00000000E+00
  1.90000000E+02  3.40000000E+01  0.00000000E+00
  2.00000000E+02  3.40000000E+01  0.00000000E+00
  2.10000000E+02  3.40000000E+01  0.00000000E+00
  2.20000000E+02  3.40000000E+01  0.00000000E+00
  2.30000000E+02  3.40000000E+01  0.00000000E+00
  2.40000000E+02  3.40000000E+01  0.00000000E+00
  2.50000000E+02  3.40000000E+01  0.00000000E+00
  2.60000000E+02  3.40000000E+01  0.00000000E+00
  2.70000000E+02  3.40000000E+01  0.00000000E+00
  2.80000000E+02  3.40000000E+01  0.00000000E+00
  2.90000000E+02  3.40000000E+01  0.00000000E+00
  3.00000000E+02  3.40000000E+01  0.00000000E+00
  3.10000000E+02  3.40000000E+01  0.00000000E+00
  3.20000000E+02  3.40000000E+01  0.00000000E+00
  3.30000000E+02  3.40000000E+01  0.00000000E+00
  3.40000000E+02  3.40000000E+01  0.00000000E+00
  3.50000000E+02  3.40000000E+01  0.00000000E+00
  3.60000000E+02  3.40000000E+01  0.00000000E+00
  3.70000000E+02  3.40000000E+01  0.00000000E+00
  3.80000000E+02  3.40000000E+01  0.00000000E+00
  3.90000000E+02  3.40000000E+01  0.00000000E+00
  4.00000000E+02  3.40000000E+01  0.00000000E+00
  4.10000000E+02  3.40000000E+01  0.00000000E+00
  4.20000000E+02  3.40000000E+01  0.00000000E+00
  4.30000000E+02  3.40000000E+01  0.00000000E+00
  4.40000000E+02  3.40000000E+01  0.00000000E+00
  4.50000000E+02  3.40000000E+01  0.00000000E+00
  4.60000000E+02  3.40000000E+01  0.00000000E+00
  4.70000000E+02  3.40000000E+01  0.00000000E+00
  4.80000000E+02  3.40000000E+01  0.00000000E+00
  4.90000000E+02  3.40000000E+01  0.00000000E+00
  5.00000000E+02  3.40000000E+01  0.00000000E+00
  5.10000000E+02  3.40000000E+01  0.00000000E+00
  5.20000000E+02  3.40000000E+01  0.00000000E+00
  5.30000000E+02  3.40000000E+01  0.00000000E+00
  5.40000000E+02  3.40000000E+01  0.00000000E+00
  5.50000000E+02  3.40000000E+01  0.00000000E+00
  5.60000000E+02  3.40000000E+01  0.00000000E+00
  5.70000000E+02  3.40000000E+01  0.00000000E+00
  5.80000000E+02  3.40000000E+01  0.00000000E+00
  5.90000000E+02  3.40000000E+01  0.00000000E+00
  6.00000000E+02  3.40000000E+01  0.00000000E+00
  6.10000000E+02  3.40000000E+01  0.00000000E+00
  6.20000000E+02  3.40000000E+01  0.00000000E+00
  6.30000000E+02  3.40000000E+01  0.00000000E+00
  6.40000000E+02  3.40000000E+01  0.00000000E+00
  6.50000000E+02  3.40000000E+01  0.00000000E+00
  6.60000000E+02  3.40000000E+01  0.00000000E+00
  6.70000000E+02  3.40000000E+01  0.00000000E+00
  6.80000000E+02  3.40000000E+01  0.00000000E+00
  6.90000000E+02  3.40000000E+01  0.00000000E+00
  7.00000000E+02  3.40000000E+01  0.00000000E+00
  7.10000000E+02  3.40000000E+01  0.00000000E+00
  7.20000000E+02  3.40000000E+01  0.00000000E+00
  7.30000000E+02  3.40000000E+01  0.00000000E+00
  7.40000000E+02  3.40000000E+01  0.00000000E+00
  7.50000000E+02  3.40000000E+01  0.00000000E+00
  7.60000000E+02  3.40000000E+01  0.00000000E+00
  7.70000000E+02  3.40000000E+01  0.00000000E+00
  7.80000000E+02  3.40000000E+01  0.00000000E+00
  7.90000000E+02  3.40000000E+01  0.00000000E+00
  8.00000000E+02  3.40000000E+01  0.00000000E+00
  8.10000000E+02  3.40000000E+01  0.00000000E+00
  8.20000000E+02  3.40000000E+01  0.00000000E+00
  8.30000000E+02  3.40000000E+01  0.00000000E+00
  8.40000000E+02  3.40000000E+01  0.00000000E+00
  8.50000000E+02  3.40000000E+01  0.00000000E+00
  8.60000000E+02  3.40000000E+01  0.00000000E+00
  8.70000000E+02  3.40000000E+01  0.00000000E+00
  8.80000000E+02  3.40000000E+01  0.00000000E+00
  8.90000000E+02  3.40000000E+01  0.00000000E+00
  9.00000000E+02  3.40000000E+01  0.00000000E+00
  9.10000000E+02  3.40000000E+01  0.00000000E+00
  9.20000000E+02  3.40000000E+01  0.00000000E+00
  9.30000000E+02  3.40000000E+01  0.00000000E+00
  9.40000000E+02  3.40000000E+01  0.00000000E+00
  9.50000000E+02  3.40000000E+01  0.00000000E+00
  9.60000000E+02  3.40000000E+01  0.00000000E+00
  9.70000000E+02  3.40000000E+01  0.00000000E+00
  9.80000000E+02  3.40000000E+01  0.00000000E+00
  9.90000000E+02  3.40000000E+01  0.00000000E+00
  1.00000000E+03  3.40000000E+01  0.00000000E+00
  0.00000000E+00  3.60000000E+01  0.00000000E+00
  1.00000000E+01  3.60000000E+01  0.00000000E+00
  2.00000000E+01  3.60000000E+01  0.00000000E+00
  3.00000000E+01  3.60000000E+01  0.00000000E+00
  4.00000000E+01  3.60000000E+01  0.00000000E+00
  5.00000000E+01  3.60000000E+01  0.00000000E+00
  6.00000000E+01  3.60000000E+01  0.00000000E+00
  7.00000000E+01  3.60000000E+01  0.00000000E+00
  8.00000000E+01  3.60000000E+01  0.00000000E+00
  9.00000000E+01  3.60000000E+01  0.00000000E+00
  1.00000000E+02  3.60000000E+01  0.00000000E+00
  1.10000000E+02  3.60000000E+01  0.00000000E+00
  1.20000000E+02  3.60000000E+01  0.00000000E+00
  1.30000000E+02  3.60000000E+01  0.00000000E+00
  1.40000000E+02  3.60000000E+01  0.00000000E+00
  1.50000000E+02  3.60000000E+01  0.00000000E+00
  1.60000000E+02  3.60000000E+01  0.00000000E+00
  1.70000000E+02  3.60000000E+01  0.00000000E+00
  1.80000000E+02  3.60000000E+01  0.00000000E+00
  1.90000000E+02  3.60000000E+01  0.00000000E+00
  2.00000000E+02  3.60000000E+01  0.00000000E+00
  2.10000000E+02  3.60000000E+01  0.00000000E+00
  2.20000000E+02  3.60000000E+01  0.00000000E+00
  2.30000000E+02  3.60000000E+01  0.00000000E+00
  2.40000000E+02  3.60000000E+01  0.00000000E+00
  2.50000000E+02  3.60000000E+01  0.00000000E+00
  2.60000000E+02  3.60000000E+01  0.00000000E+00
  2.70000000E+02  3.60000000E+01  0.00000000E+00
  2.80000000E+02  3.60000000E+01  0.00000000E+00
  2.90000000E+02  3.60000000E+01  0.00000000E+00
  3.00000000E+02  3.60000000E+01  0.00000000E+00
  3.10000000E+02  3.60000000E+01  0.00000000E+00
  3.20000000E+02  3.60000000E+01  0.00000000E+00
  3.30000000E+02  3.60000000E+01  0.00000000E+00
  3.40000000E+02  3.60000000E+01  0.00000000E+00
  3.50000000E+02  3.60000000E+01  0.00000000E+00
  3.60000000E+02  3.60000000E+01  0.00000000E+00
  3.70000000E+02  3.60000000E+01  0.00000000E+00
  3.80000000E+02  3.60000000E+01  0.00000000E+00
  3.90000000E+02  3.60000000E+01  0.00000000E+00
  4.00000000E+02  3.60000000E+01  0.00000000E+00
  4.10000000E+02  3.60000000E+01  0.00000000E+00
  4.20000000E+02  3.60000000E+01  0.00000000E+00
  4.30000000E+02  3.60000000E+01  0.00000000E+00
  4.40000000E+02  3.60000000E+01  0.00000000E+00
  4.50000000E+02  3.60000000E+01  0.00000000E+00
  4.60000000E+02  3.60000000E+01  0.00000000E+00
  4.70000000E+02  3.60000000E+01  0.00000000E+00
  4.80000000E+02  3.60000000E+01  0.00000000E+00
  4.90000000E+02  3.60000000E+01  0.00000000E+00
  5.00000000E+02  3.60000000E+01  0.00000000E+00
  5.10000000E+02  3.60000000E+01  0.00000000E+00
  5.20000000E+02  3.60000000E+01  0.00000000E+00
  5.30000000E+02  3.60000000E+01  0.00000000E+00
  5.40000000E+02  3.60000000E+01  0.00000000E+00
  5.50000000E+02  3.60000000E+01  0.00000000E+00
  5.60000000E+02  3.60000000E+01  0.00000000E+00
  5.70000000E+02  3.60000000E+01  0.00000000E+00
  5.80000000E+02  3.60000000E+01  0.00000000E+00
  5.90000000E+02  3.60000000E+01  0.00000000E+00
  6.00000000E+02  3.60000000E+01  0.00000000E+00
  6.10000000E+02  3.60000000E+01  0.00000000E+00
  6.20000000E+02  3.60000000E+01  0.00000000E+00
  6.30000000E+02  3.60000000E+01  0.00000000E+00
  6.40000000E+02  3.60000000E+01  0.00000000E+00
  6.50000000E+02  3.60000000E+01  0.00000000E+00
  6.60000000E+02  3.60000000E+01  0.00000000E+00
  6.70000000E+02  3.60000000E+01  0.00000000E+00
  6.80000000E+02  3.60000000E+01  0.00000000E+00
  6.90000000E+02  3.60000000E+01  0.00000000E+00
  7.00000000E+02  3.60000000E+01  0.00000000E+00
  7.10000000E+02  3.60000000E+01  0.00000000E+00
  7.20000000E+02  3.60000000E+01  0.00000000E+00
  7.30000000E+02  3.60000000E+01  0.00000000E+00
  7.40000000E+02  3.60000000E+01  0.00000000E+00
  7.50000000E+02  3.60000000E+01  0.00000000E+00
  7.60000000E+02  3.60000000E+01  0.00000000E+00
  7.70000000E+02  3.60000000E+01  0.00000000E+00
  7.80000000E+02  3.60000000E+01  0.00000000E+00
  7.90000000E+02  3.60000000E+01  0.00000000E+00
  8.00000000E+02  3.60000000E+01  0.00000000E+00
  8.10000000E+02  3.60000000E+01  0.00000000E+00
  8.20000000E+02  3.60000000E+01  0.00000000E+00
  8.30000000E+02  3.60000000E+01  0.00000000E+00
  8.40000000E+02  3.60000000E+01  0.00000000E+00
  8.50000000E+02  3.60000000E+01  0.00000000E+00
  8.60000000E+02  3.60000000E+01  0.00000000E+00
  8.70000000E+02  3.60000000E+01  0.00000000E+00
  8.80000000E+02  3.60000000E+01  0.00000000E+00
  8.90000000E+02  3.60000000E+01  0.00000000E+00
  9.00000000E+02  3.60000000E+01  0.00000000E+00
  9.10000000E+02  3.60000000E+01  0.00000000E+00
  9.20000000E+02  3.60000000E+01  0.00000000E+00
  9.30000000E+02  3.60000000E+01  0.00000000E+00
  9.40000000E+02  3.60000000E+01  0.00000000E+00
  9.50000000E+02  3.60000000E+01  0.00000000E+00
  9.60000000E+02  3.60000000E+01  0.00000000E+00
  9.70000000E+02  3.60000000E+01  0.00000000E+00
  9.80000000E+02  3.60000000E+01  0.00000000E+00
  9.90000000E+02  3.60000000E+01  0.00000000E+00
  1.00000000E+03  3.60000000E+01  0.00000000E+00
  0.00000000E+00  3.80000000E+01  0.00000000E+00
  1.00000000E+01  3.80000000E+01  0.00000000E+00
  2.00000000E+01  3.80000000E+01  0.00000000E+00
  3.00000000E+01  3.80000000E+01  0.00000000E+00
  4.00000000E+01  3.80000000E+01  0.00000000E+00
  5.00000000E+01  3.80000000E+01  0.00000000E+00
  6.00000000E+01  3.80000000E+01  0.00000000E+00
  7.00000000E+01  3.80000000E+01  0.00000000E+00
  8.00000000E+01  3.80000000E+01  0.00000000E+00
  9.00000000E+01  3.80000000E+01  0.00000000E+00
  1.00000000E+02  3.80000000E+01  0.00000000E+00
  1.10000000E+02  3.80000000E+01  0.00000000E+00
  1.20000000E+02  3.80000000E+01  0.00000000E+00
  1.30000000E+02  3.80000000E+01  0.00000000E+00
  1.40000000E+02  3.80000000E+01  0.00000000E+00
  1.50000000E+02  3.80000000E+01  0.00000000E+00
  1.60000000E+02  3.80000000E+01  0.00000000E+00
  1.70000000E+02  3.80000000E+01  0.00000000E+00
  1.80000000E+02  3.80000000E+01  0.00000000E+00
  1.90000000E+02  3.80000000E+01  0.00000000E+00
  2.00000000E+02  3.80000000E+01  0.00000000E+00
  2.10000000E+02  3.80000000E+01  0.00000000E+00
  2.20000000E+02  3.80000000E+01  0.00000000E+00
  2.30000000E+02  3.80000000E+01  0.00000000E+00
  2.40000000E+02  3.80000000E+01  0.00000000E+00
  2.50000000E+02  3.80000000E+01  0.00000000E+00
  2.60000000E+02  3.80000000E+01  0.00000000E+00
  2.70000000E+02  3.80000000E+01  0.00000000E+00
  2.80000000E+02  3.80000000E+01  0.00000000E+00
  2.90000000E+02  3.80000000E+01  0.00000000E+00
  3.00000000E+02  3.80000000E+01  0.00000000E+00
  3.10000000E+02  3.80000000E+01  0.00000000E+00
  3.20000000E+02  3.80000000E+01  0.00000000E+00
  3.30000000E+02  3.80000000E+01  0.00000000E+00
  3.40000000E+02  3.80000000E+01  0.00000000E+00
  3.50000000E+02  3.80000000E+01  0.00000000E+00
  3.60000000E+02  3.80000000E+01  0.00000000E+00
  3.70000000E+02  3.80000000E+01  0.00000000E+00
  3.80000000E+02  3.80000000E+01  0.00000000E+00
  3.90000000E+02  3.80000000E+01  0.00000000E+00
  4.00000000E+02  3.80000000E+01  0.00000000E+00
  4.10000000E+02  3.80000000E+01  0.00000000E+00
  4.20000000E+02  3.80000000E+01  0.00000000E+00
  4.30000000E+02  3.80000000E+01  0.00000000E+00
  4.40000000E+02  3.80000000E+01  0.00000000E+00
  4.50000000E+02  3.80000000E+01  0.00000000E+00
  4.60000000E+02  3.80000000E+01  0.00000000E+00
  4.70000000E+02  3.80000000E+01  0.00000000E+00
  4.80000000E+02  3.80000000E+01  0.00000000E+00
  4.90000000E+02  3.80000000E+01  0.00000000E+00
  5.00000000E+02  3.80000000E+01  0.00000000E+00
  5.10000000E+02  3.80000000E+01  0.00000000E+00
  5.20000000E+02  3.80000000E+01  0.00000000E+00
  5.30000000E+02  3.80000000E+01  0.00000000E+00
  5.40000000E+02  3.80000000E+01  0.00000000E+00
  5.50000000E+02  3.80000000E+01  0.00000000E+00
  5.60000000E+02  3.80000000E+01  0.00000000E+00
  5.70000000E+02  3.80000000E+01  0.00000000E+00
  5.80000000E+02  3.80000000E+01  0.00000000E+00
  5.90000000E+02  3.80000000E+01  0.00000000E+00
  6.00000000E+02  3.80000000E+01  0.00000000E+00
  6.10000000E+02  3.80000000E+01  0.00000000E+00
  6.20000000E+02  3.80000000E+01  0.00000000E+00
  6.30000000E+02  3.80000000E+01  0.00000000E+00
  6.40000000E+02  3.80000000E+01  0.00000000E+00
  6.50000000E+02  3.80000000E+01  0.00000000E+00
  6.60000000E+02  3.80000000E+01  0.00000000E+00
  6.70000000E+02  3.80000000E+01  0.00000000E+00
  6.80000000E+02  3.80000000E+01  0.00000000E+00
  6.90000000E+02  3.80000000E+01  0.00000000E+00
  7.00000000E+02  3.80000000E+01  0.00000000E+00
  7.10000000E+02  3.80000000E+01  0.00000000E+00
  7.20000000E+02  3.80000000E+01  0.00000000E+00
  7.30000000E+02  3.80000000E+01  0.00000000E+00
  7.40000000E+02  3.80000000E+01  0.00000000E+00
  7.50000000E+02  3.80000000E+01  0.00000000E+00
  7.60000000E+02  3.80000000E+01  0.00000000E+00
  7.70000000E+02  3.80000000E+01  0.00000000E+00
  7.80000000E+02  3.80000000E+01  0.00000000E+00
  7.90000000E+02  3.80000000E+01  0.00000000E+00
  8.00000000E+02  3.80000000E+01  0.00000000E+00
  8.10000000E+02  3.80000000E+01  0.00000000E+00
  8.20000000E+02  3.80000000E+01  0.00000000E+00
  8.30000000E+02  3.80000000E+01  0.00000000E+00
  8.40000000E+02  3.80000000E+01  0.00000000E+00
  8.50000000E+02  3.80000000E+01  0.00000000E+00
  8.60000000E+02  3.80000000E+01  0.00000000E+00
  8.70000000E+02  3.80000000E+01  0.00000000E+00
  8.80000000E+02  3.80000000E+01  0.00000000E+00
  8.90000000E+02  3.80000000E+01  0.00000000E+00
  9.00000000E+02  3.80000000E+01  0.00000000E+00
  9.10000000E+02  3.80000000E+01  0.00000000E+00
  9.20000000E+02  3.80000000E+01  0.00000000E+00
  9.30000000E+02  3.80000000E+01  0.00000000E+00
  9.40000000E+02  3.80000000E+01  0.00000000E+00
  9.50000000E+02  3.80000000E+01  0.00000000E+00
  9.60000000E+02  3.80000000E+01  0.00000000E+00
  9.70000000E+02  3.80000000E+01  0.00000000E+00
  9.80000000E+02  3.80000000E+01  0.00000000E+00
  9.90000000E+02  3.80000000E+01  0.00000000E+00
  1.00000000E+03  3.80000000E+01  0.00000000E+00
  0.00000000E+00  4.00000000E+01  0.00000000E+00
  1.00000000E+01  4.00000000E+01  0.00000000E+00
  2.00000000E+01  4.00000000E+01  0.00000000E+00
  3.00000000E+01  4.00000000E+01  0.00000000E+00
  4.00000000E+01  4.00000000E+01  0.00000000E+00
  5.00000000E+01  4.00000000E+01  0.00000000E+00
  6.00000000E+01  4.00000000E+01  0.00000000E+00
  7.00000000E+01  4.00000000E+01  0.00000000E+00
  8.00000000E+01  4.00000000E+01  0.00000000E+00
  9.00000000E+01  4.00000000E+01  0.00000000E+00
  1.00000000E+02  4.00000000E+01  0.00000000E+00
  1.10000000E+02  4.00000000E+01  0.00000000E+00
  1.20000000E+02  4.00000000E+01  0.00000000E+00
  1.30000000E+02  4.00000000E+01  0.00000000E+00
  1.40000000E+02  4.00000000E+01  0.00000000E+00
  1.50000000E+02  4.00000000E+01  0.00000000E+00
  1.60000000E+02  4.00000000E+01  0.00000000E+00
  1.70000000E+02  4.00000000E+01  0.00000000E+00
  1.80000000E+02  4.00000000E+01  0.00000000E+00
  1.90000000E+02  4.00000000E+01  0.00000000E+00
  2.00000000E+02  4.00000000E+01  0.00000000E+00
  2.10000000E+02  4.00000000E+01  0.00000000E+00
  2.20000000E+02  4.00000000E+01  0.00000000E+00
  2.30000000E+02  4.00000000E+01  0.00000000E+00
  2.40000000E+02  4.00000000E+01  0.00000000E+00
  2.50000000E+02  4.00000000E+01  0.00000000E+00
  2.60000000E+02  4.00000000E+01  0.00000000E+00
  2.70000000E+02  4.00000000E+01  0.00000000E+00
  2.80000000E+02  4.00000000E+01  0.00000000E+00
  2.90000000E+02  4.00000000E+01  0.00000000E+00
  3.00000000E+02  4.00000000E+01  0.00000000E+00
  3.10000000E+02  4.00000000E+01  0.00000000E+00
  3.20000000E+02  4.00000000E+01  0.00000000E+00
  3.30000000E+02  4.00000000E+01  0.00000000E+00
  3.40000000E+02  4.00000000E+01  0.00000000E+00
  3.50000000E+02  4.00000000E+01  0.00000000E+00
  3.60000000E+02  4.00000000E+01  0.00000000E+00
  3.70000000E+02  4.00000000E+01  0.00000000E+00
  3.80000000E+02  4.00000000E+01  0.00000000E+00
  3.90000000E+02  4.00000000E+01  0.00000000E+00
  4.00000000E+02  4.00000000E+01  0.00000000E+00
  4.10000000E+02  4.00000000E+01  0.00000000E+00
  4.20000000E+02  4.00000000E+01  0.00000000E+00
  4.30000000E+02  4.00000000E+01  0.00000000E+00
  4.40000000E+02  4.00000000E+01  0.00000000E+00
  4.50000000E+02  4.00000000E+01  0.00000000E+00
  4.60000000E+02  4.00000000E+01  0.00000000E+00
  4.70000000E+02  4.00000000E+01  0.00000000E+00
  4.80000000E+02  4.00000000E+01  0.00000000E+00
  4.90000000E+02  4.00000000E+01  0.00000000E+00
  5.00000000E+02  4.00000000E+01  0.00000000E+00
  5.10000000E+02  4.00000000E+01  0.00000000E+00
  5.20000000E+02  4.00000000E+01  0.00000000E+00
  5.30000000E+02  4.00000000E+01  0.00000000E+00
  5.40000000E+02  4.00000000E+01  0.00000000E+00
  5.50000000E+02  4.00000000E+01  0.00000000E+00
  5.60000000E+02  4.00000000E+01  0.00000000E+00
  5.70000000E+02  4.00000000E+01  0.00000000E+00
  5.80000000E+02  4.00000000E+01  0.00000000E+00
  5.90000000E+02  4.00000000E+01  0.00000000E+00
  6.00000000E+02  4.00000000E+01  0.00000000E+00
  6.10000000E+02  4.00000000E+01  0.00000000E+00
  6.20000000E+02  4.00000000E+01  0.00000000E+00
  6.30000000E+02  4.00000000E+01  0.00000000E+00
  6.40000000E+02  4.00000000E+01  0.00000000E+00
  6.50000000E+02  4.00000000E+01  0.00000000E+00
  6.60000000E+02  4.00000000E+01  0.00000000E+00
  6.70000000E+02  4.00000000E+01  0.00000000E+00
  6.80000000E+02  4.00000000E+01  0.00000000E+00
  6.90000000E+02  4.00000000E+01  0.00000000E+00
  7.00000000E+02  4.00000000E+01  0.00000000E+00
  7.10000000E+02  4.00000000E+01  0.00000000E+00
  7.20000000E+02  4.00000000E+01  0.00000000E+00
  7.30000000E+02  4.00000000E+01  0.00000000E+00
  7.40000000E+02  4.00000000E+01  0.00000000E+00
  7.50000000E+02  4.00000000E+01  0.00000000E+00
  7.60000000E+02  4.00000000E+01  0.00000000E+00
  7.70000000E+02  4.00000000E+01  0.00000000E+00
  7.80000000E+02  4.00000000E+01  0.00000000E+00
  7.90000000E+02  4.00000000E+01  0.00000000E+00
  8.00000000E+02  4.00000000E+01  0.00000000E+00
  8.10000000E+02  4.00000000E+01  0.00000000E+00
  8.20000000E+02  4.00000000E+01  0.00000000E+00
  8.30000000E+02  4.00000000E+01  0.00000000E+00
  8.40000000E+02  4.00000000E+01  0.00000000E+00
  8.50000000E+02  4.00000000E+01  0.00000000E+00
  8.60000000E+02  4.00000000E+01  0.00000000E+00
  8.70000000E+02  4.00000000E+01  0.00000000E+00
  8.80000000E+02  4.00000000E+01  0.00000000E+00
  8.90000000E+02  4.00000000E+01  0.00000000E+00
  9.00000000E+02  4.00000000E+01  0.00000000E+00
  9.10000000E+02  4.00000000E+01  0.00000000E+00
  9.20000000E+02  4.00000000E+01  0.00000000E+00
  9.30000000E+02  4.00000000E+01  0.00000000E+00
  9.40000000E+02  4.00000000E+01  0.00000000E+00
  9.50000000E+02  4.00000000E+01  0.00000000E+00
  9.60000000E+02  4.00000000E+01  0.00000000E+00
  9.70000000E+02  4.00000000E+01  0.00000000E+00
  9.80000000E+02  4.00000000E+01  0.00000000E+00
  9.90000000E+02  4.00000000E+01  0.00000000E+00
  1.00000000E+03  4.00000000E+01  0.00000000E+00
  0.00000000E+00  4.20000000E+01  0.00000000E+00
  1.00000000E+01  4.20000000E+01  0.00000000E+00
  2.00000000E+01  4.20000000E+01  0.00000000E+00
  3.00000000E+01  4.20000000E+01  0.00000000E+00
  4.00000000E+01  4.20000000E+01  0.00000000E+00
  5.00000000E+01  4.20000000E+01  0.00000000E+00
  6.00000000E+01  4.20000000E+01  0.00000000E+00
  7.00000000E+01  4.20000000E+01  0.00000000E+00
  8.00000000E+01  4.20000000E+01  0.00000000E+00
  9.00000000E+01  4.20000000E+01  0.00000000E+00
  1.00000000E+02  4.20000000E+01  0.00000000E+00
  1.10000000E+02  4.20000000E+01  0.00000000E+00
  1.20000000E+02  4.20000000E+01  0.00000000E+00
  1.30000000E+02  4.20000000E+01  0.00000000E+00
  1.40000000E+02  4.20000000E+01  0.00000000E+00
  1.50000000E+02  4.20000000E+01  0.00000000E+00
  1.60000000E+02  4.20000000E+01  0.00000000E+00
  1.70000000E+02  4.20000000E+01  0.00000000E+00
  1.80000000E+02  4.20000000E+01  0.00000000E+00
  1.90000000E+02  4.20000000E+01  0.00000000E+00
  2.00000000E+02  4.20000000E+01  0.00000000E+00
  2.10000000E+02  4.20000000E+01  0.00000000E+00
  2.20000000E+02  4.20000000E+01  0.00000000E+00
  2.30000000E+02  4.20000000E+01  0.00000000E+00
  2.40000000E+02  4.20000000E+01  0.00000000E+00
  2.50000000E+02  4.20000000E+01  0.00000000E+00
  2.60000000E+02  4.20000000E+01  0.00000000E+00
  2.70000000E+02  4.20000000E+01  0.00000000E+00
  2.80000000E+02  4.20000000E+01  0.00000000E+00
  2.90000000E+02  4.20000000E+01  0.00000000E+00
  3.00000000E+02  4.20000000E+01  0.00000000E+00
  3.10000000E+02  4.20000000E+01  0.00000000E+00
  3.20000000E+02  4.20000000E+01  0.00000000E+00
  3.30000000E+02  4.20000000E+01  0.00000000E+00
  3.40000000E+02  4.20000000E+01  0.00000000E+00
  3.50000000E+02  4.20000000E+01  0.00000000E+00
  3.60000000E+02  4.20000000E+01  0.00000000E+00
  3.70000000E+02  4.20000000E+01  0.00000000E+00
  3.80000000E+02  4.20000000E+01  0.00000000E+00
  3.90000000E+02  4.20000000E+01  0.00000000E+00
  4.00000000E+02  4.20000000E+01  0.00000000E+00
  4.10000000E+02  4.20000000E+01  0.00000000E+00
  4.20000000E+02  4.20000000E+01  0.00000000E+00
  4.30000000E+02  4.20000000E+01  0.00000000E+00
  4.40000000E+02  4.20000000E+01  0.00000000E+00
  4.50000000E+02  4.20000000E+01  0.00000000E+00
  4.60000000E+02  4.20000000E+01  0.00000000E+00
  4.70000000E+02  4.20000000E+01  0.00000000E+00
  4.80000000E+02  4.20000000E+01  0.00000000E+00
  4.90000000E+02  4.20000000E+01  0.00000000E+00
  5.00000000E+02  4.20000000E+01  0.00000000E+00
  5.10000000E+02  4.20000000E+01  0.00000000E+00
  5.20000000E+02  4.20000000E+01  0.00000000E+00
  5.30000000E+02  4.20000000E+01  0.00000000E+00
  5.40000000E+02  4.20000000E+01  0.00000000E+00
  5.50000000E+02  4.20000000E+01  0.00000000E+00
  5.60000000E+02  4.20000000E+01  0.00000000E+00
  5.70000000E+02  4.20000000E+01  0.00000000E+00
  5.80000000E+02  4.20000000E+01  0.00000000E+00
  5.90000000E+02  4.20000000E+01  0.00000000E+00
  6.00000000E+02  4.20000000E+01  0.00000000E+00
  6.10000000E+02  4.20000000E+01  0.00000000E+00
  6.20000000E+02  4.20000000E+01  0.00000000E+00
  6.30000000E+02  4.20000000E+01  0.00000000E+00
  6.40000000E+02  4.20000000E+01  0.00000000E+00
  6.50000000E+02  4.20000000E+01  0.00000000E+00
  6.60000000E+02  4.20000000E+01  0.00000000E+00
  6.70000000E+02  4.20000000E+01  0.00000000E+00
  6.80000000E+02  4.20000000E+01  0.00000000E+00
  6.90000000E+02  4.20000000E+01  0.00000000E+00
  7.00000000E+02  4.20000000E+01  0.00000000E+00
  7.10000000E+02  4.20000000E+01  0.00000000E+00
  7.20000000E+02  4.20000000E+01  0.00000000E+00
  7.30000000E+02  4.20000000E+01  0.00000000E+00
  7.40000000E+02  4.20000000E+01  0.00000000E+00
  7.50000000E+02  4.20000000E+01  0.00000000E+00
  7.60000000E+02  4.20000000E+01  0.00000000E+00
  7.70000000E+02  4.20000000E+01  0.00000000E+00
  7.80000000E+02  4.20000000E+01  0.00000000E+00
  7.90000000E+02  4.20000000E+01  0.00000000E+00
  8.00000000E+02  4.20000000E+01  0.00000000E+00
  8.10000000E+02  4.20000000E+01  0.00000000E+00
  8.20000000E+02  4.20000000E+01  0.00000000E+00
  8.30000000E+02  4.20000000E+01  0.00000000E+00
  8.40000000E+02  4.20000000E+01  0.00000000E+00
  8.50000000E+02  4.20000000E+01  0.00000000E+00
  8.60000000E+02  4.20000000E+01  0.00000000E+00
  8.70000000E+02  4.20000000E+01  0.00000000E+00
  8.80000000E+02  4.20000000E+01  0.00000000E+00
  8.90000000E+02  4.20000000E+01  0.00000000E+00
  9.00000000E+02  4.20000000E+01  0.00000000E+00
  9.10000000E+02  4.20000000E+01  0.00000000E+00
  9.20000000E+02  4.20000000E+01  0.00000000E+00
  9.30000000E+02  4.20000000E+01  0.00000000E+00
  9.40000000E+02  4.20000000E+01  0.00000000E+00
  9.50000000E+02  4.20000000E+01  0.00000000E+00
  9.60000000E+02  4.20000000E+01  0.00000000E+00
  9.70000000E+02  4.20000000E+01  0.00000000E+00
  9.80000000E+02  4.20000000E+01  0.00000000E+00
  9.90000000E+02  4.20000000E+01  0.00000000E+00
  1.00000000E+03  4.20000000E+01  0.00000000E+00
  0.00000000E+00  4.40000000E+01  0.00000000E+00
  1.00000000E+01  4.40000000E+01  0.00000000E+00
  2.00000000E+01  4.40000000E+01  0.00000000E+00
  3.00000000E+01  4.40000000E+01  0.00000000E+00
  4.00000000E+01  4.40000000E+01  0.00000000E+00
  5.00000000E+01  4.40000000E+01  0.00000000E+00
  6.00000000E+01  4.40000000E+01  0.00000000E+00
  7.00000000E+01  4.40000000E+01  0.00000000E+00
  8.00000000E+01  4.40000000E+01  0.00000000E+00
  9.00000000E+01  4.40000000E+01  0.00000000E+00
  1.00000000E+02  4.40000000E+01  0.00000000E+00
  1.10000000E+02  4.40000000E+01  0.00000000E+00
  1.20000000E+02  4.40000000E+01  0.00000000E+00
  1.30000000E+02  4.40000000E+01  0.00000000E+00
  1.40000000E+02  4.40000000E+01  0.00000000E+00
  1.50000000E+02  4.40000000E+01  0.00000000E+00
  1.60000000E+02  4.40000000E+01  0.00000000E+00
  1.70000000E+02  4.40000000E+01  0.00000000E+00
  1.80000000E+02  4.40000000E+01  0.00000000E+00
  1.90000000E+02  4.40000000E+01  0.00000000E+00
  2.00000000E+02  4.40000000E+01  0.00000000E+00
  2.10000000E+02  4.40000000E+01  0.00000000E+00
  2.20000000E+02  4.40000000E+01  0.00000000E+00
  2.30000000E+02  4.40000000E+01  0.00000000E+00
  2.40000000E+02  4.40000000E+01  0.00000000E+00
  2.50000000E+02  4.40000000E+01  0.00000000E+00
  2.60000000E+02  4.40000000E+01  0.00000000E+00
  2.70000000E+02  4.40000000E+01  0.00000000E+00
  2.80000000E+02  4.40000000E+01  0.00000000E+00
  2.90000000E+02  4.40000000E+01  0.00000000E+00
  3.00000000E+02  4.40000000E+01  0.00000000E+00
  3.10000000E+02  4.40000000E+01  0.00000000E+00
  3.20000000E+02  4.40000000E+01  0.00000000E+00
  3.30000000E+02  4.40000000E+01  0.00000000E+00
  3.40000000E+02  4.40000000E+01  0.00000000E+00
  3.50000000E+02  4.40000000E+01  0.00000000E+00
  3.60000000E+02  4.40000000E+01  0.00000000E+00
  3.70000000E+02  4.40000000E+01  0.00000000E+00
  3.80000000E+02  4.40000000E+01  0.00000000E+00
  3.90000000E+02  4.40000000E+01  0.00000000E+00
  4.00000000E+02  4.40000000E+01  0.00000000E+00
  4.10000000E+02  4.40000000E+01  0.00000000E+00
  4.20000000E+02  4.40000000E+01  0.00000000E+00
  4.30000000E+02  4.40000000E+01  0.00000000E+00
  4.40000000E+02  4.40000000E+01  0.00000000E+00
  4.50000000E+02  4.40000000E+01  0.00000000E+00
  4.60000000E+02  4.40000000E+01  0.00000000E+00
  4.70000000E+02  4.40000000E+01  0.00000000E+00
  4.80000000E+02  4.40000000E+01  0.00000000E+00
  4.90000000E+02  4.40000000E+01  0.00000000E+00
  5.00000000E+02  4.40000000E+01  0.00000000E+00
  5.10000000E+02  4.40000000E+01  0.00000000E+00
  5.20000000E+02  4.40000000E+01  0.00000000E+00
  5.30000000E+02  4.40000000E+01  0.00000000E+00
  5.40000000E+02  4.40000000E+01  0.00000000E+00
  5.50000000E+02  4.40000000E+01  0.00000000E+00
  5.60000000E+02  4.40000000E+01  0.00000000E+00
  5.70000000E+02  4.40000000E+01  0.00000000E+00
  5.80000000E+02  4.40000000E+01  0.00000000E+00
  5.90000000E+02  4.40000000E+01  0.00000000E+00
  6.00000000E+02  4.40000000E+01  0.00000000E+00
  6.10000000E+02  4.40000000E+01  0.00000000E+00
  6.20000000E+02  4.40000000E+01  0.00000000E+00
  6.30000000E+02  4.40000000E+01  0.00000000E+00
  6.40000000E+02  4.40000000E+01  0.00000000E+00
  6.50000000E+02  4.40000000E+01  0.00000000E+00
  6.60000000E+02  4.40000000E+01  0.00000000E+00
  6.70000000E+02  4.40000000E+01  0.00000000E+00
  6.80000000E+02  4.40000000E+01  0.00000000E+00
  6.90000000E+02  4.40000000E+01  0.00000000E+00
  7.00000000E+02  4.40000000E+01  0.00000000E+00
  7.10000000E+02  4.40000000E+01  0.00000000E+00
  7.20000000E+02  4.40000000E+01  0.00000000E+00
  7.30000000E+02  4.40000000E+01  0.00000000E+00
  7.40000000E+02  4.40000000E+01  0.00000000E+00
  7.50000000E+02  4.40000000E+01  0.00000000E+00
  7.60000000E+02  4.40000000E+01  0.00000000E+00
  7.70000000E+02  4.40000000E+01  0.00000000E+00
  7.80000000E+02  4.40000000E+01  0.00000000E+00
  7.90000000E+02  4.40000000E+01  0.00000000E+00
  8.00000000E+02  4.40000000E+01  0.00000000E+00
  8.10000000E+02  4.40000000E+01  0.00000000E+00
  8.20000000E+02  4.40000000E+01  0.00000000E+00
  8.30000000E+02  4.40000000E+01  0.00000000E+00
  8.40000000E+02  4.40000000E+01  0.00000000E+00
  8.50000000E+02  4.40000000E+01  0.00000000E+00
  8.60000000E+02  4.40000000E+01  0.00000000E+00
  8.70000000E+02  4.40000000E+01  0.00000000E+00
  8.80000000E+02  4.40000000E+01  0.00000000E+00
  8.90000000E+02  4.40000000E+01  0.00000000E+00
  9.00000000E+02  4.40000000E+01  0.00000000E+00
  9.10000000E+02  4.40000000E+01  0.00000000E+00
  9.20000000E+02  4.40000000E+01  0.00000000E+00
  9.30000000E+02  4.40000000E+01  0.00000000E+00
  9.40000000E+02  4.40000000E+01  0.00000000E+00
  9.50000000E+02  4.40000000E+01  0.00000000E+00
  9.60000000E+02  4.40000000E+01  0.00000000E+00
  9.70000000E+02  4.40000000E+01  0.00000000E+00
  9.80000000E+02  4.40000000E+01  0.00000000E+00
  9.90000000E+02  4.40000000E+01  0.00000000E+00
  1.00000000E+03  4.40000000E+01  0.00000000E+00
  0.00000000E+00  4.60000000E+01  0.00000000E+00
  1.00000000E+01  4.60000000E+01  0.00000000E+00
  2.00000000E+01  4.60000000E+01  0.00000000E+00
  3.00000000E+01  4.60000000E+01  0.00000000E+00
  4.00000000E+01  4.60000000E+01  0.00000000E+00
  5.00000000E+01  4.60000000E+01  0.00000000E+00
  6.00000000E+01  4.60000000E+01  0.00000000E+00
  7.00000000E+01  4.60000000E+01  0.00000000E+00
  8.00000000E+01  4.60000000E+01  0.00000000E+00
  9.00000000E+01  4.60000000E+01  0.00000000E+00
  1.00000000E+02  4.60000000E+01  0.00000000E+00
  1.10000000E+02  4.60000000E+01  0.00000000E+00
  1.20000000E+02  4.60000000E+01  0.00000000E+00
  1.30000000E+02  4.60000000E+01  0.00000000E+00
  1.40000000E+02  4.60000000E+01  0.00000000E+00
  1.50000000E+02  4.60000000E+01  0.00000000E+00
  1.60000000E+02  4.60000000E+01  0.00000000E+00
  1.70000000E+02  4.60000000E+01  0.00000000E+00
  1.80000000E+02  4.60000000E+01  0.00000000E+00
  1.90000000E+02  4.60000000E+01  0.00000000E+00
  2.00000000E+02  4.60000000E+01  0.00000000E+00
  2.10000000E+02  4.60000000E+01  0.00000000E+00
  2.20000000E+02  4.60000000E+01  0.00000000E+00
  2.30000000E+02  4.60000000E+01  0.00000000E+00
  2.40000000E+02  4.60000000E+01  0.00000000E+00
  2.50000000E+02  4.60000000E+01  0.00000000E+00
  2.60000000E+02  4.60000000E+01  0.00000000E+00
  2.70000000E+02  4.60000000E+01  0.00000000E+00
  2.80000000E+02  4.60000000E+01  0.00000000E+00
  2.90000000E+02  4.60000000E+01  0.00000000E+00
  3.00000000E+02  4.60000000E+01  0.00000000E+00
  3.10000000E+02  4.60000000E+01  0.00000000E+00
  3.20000000E+02  4.60000000E+01  0.00000000E+00
  3.30000000E+02  4.60000000E+01  0.00000000E+00
  3.40000000E+02  4.60000000E+01  0.00000000E+00
  3.50000000E+02  4.60000000E+01  0.00000000E+00
  3.60000000E+02  4.60000000E+01  0.00000000E+00
  3.70000000E+02  4.60000000E+01  0.00000000E+00
  3.80000000E+02  4.60000000E+01  0.00000000E+00
  3.90000000E+02  4.60000000E+01  0.00000000E+00
  4.00000000E+02  4.60000000E+01  0.00000000E+00
  4.10000000E+02  4.60000000E+01  0.00000000E+00
  4.20000000E+02  4.60000000E+01  0.00000000E+00
  4.30000000E+02  4.60000000E+01  0.00000000E+00
  4.40000000E+02  4.60000000E+01  0.00000000E+00
  4.50000000E+02  4.60000000E+01  0.00000000E+00
  4.60000000E+02  4.60000000E+01  0.00000000E+00
  4.70000000E+02  4.60000000E+01  0.00000000E+00
  4.80000000E+02  4.60000000E+01  0.00000000E+00
  4.90000000E+02  4.60000000E+01  0.00000000E+00
  5.00000000E+02  4.60000000E+01  0.00000000E+00
  5.10000000E+02  4.60000000E+01  0.00000000E+00
  5.20000000E+02  4.60000000E+01  0.00000000E+00
  5.30000000E+02  4.60000000E+01  0.00000000E+00
  5.40000000E+02  4.60000000E+01  0.00000000E+00
  5.50000000E+02  4.60000000E+01  0.00000000E+00
  5.60000000E+02  4.60000000E+01  0.00000000E+00
  5.70000000E+02  4.60000000E+01  0.00000000E+00
  5.80000000E+02  4.60000000E+01  0.00000000E+00
  5.90000000E+02  4.60000000E+01  0.00000000E+00
  6.00000000E+02  4.60000000E+01  0.00000000E+00
  6.10000000E+02  4.60000000E+01  0.00000000E+00
  6.20000000E+02  4.60000000E+01  0.00000000E+00
  6.30000000E+02  4.60000000E+01  0.00000000E+00
  6.40000000E+02  4.60000000E+01  0.00000000E+00
  6.50000000E+02  4.60000000E+01  0.00000000E+00
  6.60000000E+02  4.60000000E+01  0.00000000E+00
  6.70000000E+02  4.60000000E+01  0.00000000E+00
  6.80000000E+02  4.60000000E+01  0.00000000E+00
  6.90000000E+02  4.60000000E+01  0.00000000E+00
  7.00000000E+02  4.60000000E+01  0.00000000E+00
  7.10000000E+02  4.60000000E+01  0.00000000E+00
  7.20000000E+02  4.60000000E+01  0.00000000E+00
  7.30000000E+02  4.60000000E+01  0.00000000E+00
  7.40000000E+02  4.60000000E+01  0.00000000E+00
  7.50000000E+02  4.60000000E+01  0.00000000E+00
  7.60000000E+02  4.60000000E+01  0.00000000E+00
  7.70000000E+02  4.60000000E+01  0.00000000E+00
  7.80000000E+02  4.60000000E+01  0.00000000E+00
  7.90000000E+02  4.60000000E+01  0.00000000E+00
  8.00000000E+02  4.60000000E+01  0.00000000E+00
  8.10000000E+02  4.60000000E+01  0.00000000E+00
  8.20000000E+02  4.60000000E+01  0.00000000E+00
  8.30000000E+02  4.60000000E+01  0.00000000E+00
  8.40000000E+02  4.60000000E+01  0.00000000E+00
  8.50000000E+02  4.60000000E+01  0.00000000E+00
  8.60000000E+02  4.60000000E+01  0.00000000E+00
  8.70000000E+02  4.60000000E+01  0.00000000E+00
  8.80000000E+02  4.60000000E+01  0.00000000E+00
  8.90000000E+02  4.60000000E+01  0.00000000E+00
  9.00000000E+02  4.60000000E+01  0.00000000E+00
  9.10000000E+02  4.60000000E+01  0.00000000E+00
  9.20000000E+02  4.60000000E+01  0.00000000E+00
  9.30000000E+02  4.60000000E+01  0.00000000E+00
  9.40000000E+02  4.60000000E+01  0.00000000E+00
  9.50000000E+02  4.60000000E+01  0.00000000E+00
  9.60000000E+02  4.60000000E+01  0.00000000E+00
  9.70000000E+02  4.60000000E+01  0.00000000E+00
  9.80000000E+02  4.60000000E+01  0.00000000E+00
  9.90000000E+02  4.60000000E+01  0.00000000E+00
  1.00000000E+03  4.60000000E+01  0.00000000E+00
  0.00000000E+00  4.80000000E+01  0.00000000E+00
  1.00000000E+01  4.80000000E+01  0.00000000E+00
  2.00000000E+01  4.80000000E+01  0.00000000E+00
  3.00000000E+01  4.80000000E+01  0.00000000E+00
  4.00000000E+01  4.80000000E+01  0.00000000E+00
  5.00000000E+01  4.80000000E+01  0.00000000E+00
  6.00000000E+01  4.80000000E+01  0.00000000E+00
  7.00000000E+01  4.80000000E+01  0.00000000E+00
  8.00000000E+01  4.80000000E+01  0.00000000E+00
  9.00000000E+01  4.80000000E+01  0.00000000E+00
  1.00000000E+02  4.80000000E+01  0.00000000E+00
  1.10000000E+02  4.80000000E+01  0.00000000E+00
  1.20000000E+02  4.80000000E+01  0.00000000E+00
  1.30000000E+02  4.80000000E+01  0.00000000E+00
  1.40000000E+02  4.80000000E+01  0.00000000E+00
  1.50000000E+02  4.80000000E+01  0.00000000E+00
  1.60000000E+02  4.80000000E+01  0.00000000E+00
  1.70000000E+02  4.80000000E+01  0.00000000E+00
  1.80000000E+02  4.80000000E+01  0.00000000E+00
  1.90000000E+02  4.80000000E+01  0.00000000E+00
  2.00000000E+02  4.80000000E+01  0.00000000E+00
  2.10000000E+02  4.80000000E+01  0.00000000E+00
  2.20000000E+02  4.80000000E+01  0.00000000E+00
  2.30000000E+02  4.80000000E+01  0.00000000E+00
  2.40000000E+02  4.80000000E+01  0.00000000E+00
  2.50000000E+02  4.80000000E+01  0.00000000E+00
  2.60000000E+02  4.80000000E+01  0.00000000E+00
  2.70000000E+02  4.80000000E+01  0.00000000E+00
  2.80000000E+02  4.80000000E+01  0.00000000E+00
  2.90000000E+02  4.80000000E+01  0.00000000E+00
  3.00000000E+02  4.80000000E+01  0.00000000E+00
  3.10000000E+02  4.80000000E+01  0.00000000E+00
  3.20000000E+02  4.80000000E+01  0.00000000E+00
  3.30000000E+02  4.80000000E+01  0.00000000E+00
  3.40000000E+02  4.80000000E+01  0.00000000E+00
  3.50000000E+02  4.80000000E+01  0.00000000E+00
  3.60000000E+02  4.80000000E+01  0.00000000E+00
  3.70000000E+02  4.80000000E+01  0.00000000E+00
  3.80000000E+02  4.80000000E+01  0.00000000E+00
  3.90000000E+02  4.80000000E+01  0.00000000E+00
  4.00000000E+02  4.80000000E+01  0.00000000E+00
  4.10000000E+02  4.80000000E+01  0.00000000E+00
  4.20000000E+02  4.80000000E+01  0.00000000E+00
  4.30000000E+02  4.80000000E+01  0.00000000E+00
  4.40000000E+02  4.80000000E+01  0.00000000E+00
  4.50000000E+02  4.80000000E+01  0.00000000E+00
  4.60000000E+02  4.80000000E+01  0.00000000E+00
  4.70000000E+02  4.80000000E+01  0.00000000E+00
  4.80000000E+02  4.80000000E+01  0.00000000E+00
  4.90000000E+02  4.80000000E+01  0.00000000E+00
  5.00000000E+02  4.80000000E+01  0.00000000E+00
  5.10000000E+02  4.80000000E+01  0.00000000E+00
  5.20000000E+02  4.80000000E+01  0.00000000E+00
  5.30000000E+02  4.80000000E+01  0.00000000E+00
  5.40000000E+02  4.80000000E+01  0.00000000E+00
  5.50000000E+02  4.80000000E+01  0.00000000E+00
  5.60000000E+02  4.80000000E+01  0.00000000E+00
  5.70000000E+02  4.80000000E+01  0.00000000E+00
  5.80000000E+02  4.80000000E+01  0.00000000E+00
  5.90000000E+02  4.80000000E+01  0.00000000E+00
  6.00000000E+02  4.80000000E+01  0.00000000E+00
  6.10000000E+02  4.80000000E+01  0.00000000E+00
  6.20000000E+02  4.80000000E+01  0.00000000E+00
  6.30000000E+02  4.80000000E+01  0.00000000E+00
  6.40000000E+02  4.80000000E+01  0.00000000E+00
  6.50000000E+02  4.80000000E+01  0.00000000E+00
  6.60000000E+02  4.80000000E+01  0.00000000E+00
  6.70000000E+02  4.80000000E+01  0.00000000E+00
  6.80000000E+02  4.80000000E+01  0.00000000E+00
  6.90000000E+02  4.80000000E+01  0.00000000E+00
  7.00000000E+02  4.80000000E+01  0.00000000E+00
  7.10000000E+02  4.80000000E+01  0.00000000E+00
  7.20000000E+02  4.80000000E+01  0.00000000E+00
  7.30000000E+02  4.80000000E+01  0.00000000E+00
  7.40000000E+02  4.80000000E+01  0.00000000E+00
  7.50000000E+02  4.80000000E+01  0.00000000E+00
  7.60000000E+02  4.80000000E+01  0.00000000E+00
  7.70000000E+02  4.80000000E+01  0.00000000E+00
  7.80000000E+02  4.80000000E+01  0.00000000E+00
  7.90000000E+02  4.80000000E+01  0.00000000E+00
  8.00000000E+02  4.80000000E+01  0.00000000E+00
  8.10000000E+02  4.80000000E+01  0.00000000E+00
  8.20000000E+02  4.80000000E+01  0.00000000E+00
  8.30000000E+02  4.80000000E+01  0.00000000E+00
  8.40000000E+02  4.80000000E+01  0.00000000E+00
  8.50000000E+02  4.80000000E+01  0.00000000E+00
  8.60000000E+02  4.80000000E+01  0.00000000E+00
  8.70000000E+02  4.80000000E+01  0.00000000E+00
  8.80000000E+02  4.80000000E+01  0.00000000E+00
  8.90000000E+02  4.80000000E+01  0.00000000E+00
  9.00000000E+02  4.80000000E+01  0.00000000E+00
  9.10000000E+02  4.80000000E+01  0.00000000E+00
  9.20000000E+02  4.80000000E+01  0.00000000E+00
  9.30000000E+02  4.80000000E+01  0.00000000E+00
  9.40000000E+02  4.80000000E+01  0.00000000E+00
  9.50000000E+02  4.80000000E+01  0.00000000E+00
  9.60000000E+02  4.80000000E+01  0.00000000E+00
  9.70000000E+02  4.80000000E+01  0.00000000E+00
  9.80000000E+02  4.80000000E+01  0.00000000E+00
  9.90000000E+02  4.80000000E+01  0.00000000E+00
  1.00000000E+03  4.80000000E+01  0.00000000E+00
  0.00000000E+00  5.00000000E+01  0.00000000E+00
  1.00000000E+01  5.00000000E+01  0.00000000E+00
  2.00000000E+01  5.00000000E+01  0.00000000E+00
  3.00000000E+01  5.00000000E+01  0.00000000E+00
  4.00000000E+01  5.00000000E+01  0.00000000E+00
  5.00000000E+01  5.00000000E+01  0.00000000E+00
  6.00000000E+01  5.00000000E+01  0.00000000E+00
  7.00000000E+01  5.00000000E+01  0.00000000E+00
  8.00000000E+01  5.00000000E+01  0.00000000E+00
  9.00000000E+01  5.00000000E+01  0.00000000E+00
  1.00000000E+02  5.00000000E+01  0.00000000E+00
  1.10000000E+02  5.00000000E+01  0.00000000E+00
  1.20000000E+02  5.00000000E+01  0.00000000E+00
  1.30000000E+02  5.00000000E+01  0.00000000E+00
  1.40000000E+02  5.00000000E+01  0.00000000E+00
  1.50000000E+02  5.00000000E+01  0.00000000E+00
  1.60000000E+02  5.00000000E+01  0.00000000E+00
  1.70000000E+02  5.00000000E+01  0.00000000E+00
  1.80000000E+02  5.00000000E+01  0.00000000E+00
  1.90000000E+02  5.00000000E+01  0.00000000E+00
  2.00000000E+02  5.00000000E+01  0.00000000E+00
  2.10000000E+02  5.00000000E+01  0.00000000E+00
  2.20000000E+02  5.00000000E+01  0.00000000E+00
  2.30000000E+02  5.00000000E+01  0.00000000E+00
  2.40000000E+02  5.00000000E+01  0.00000000E+00
  2.50000000E+02  5.00000000E+01  0.00000000E+00
  2.60000000E+02  5.00000000E+01  0.00000000E+00
  2.70000000E+02  5.00000000E+01  0.00000000E+00
  2.80000000E+02  5.00000000E+01  0.00000000E+00
  2.90000000E+02  5.00000000E+01  0.00000000E+00
  3.00000000E+02  5.00000000E+01  0.00000000E+00
  3.10000000E+02  5.00000000E+01  0.00000000E+00
  3.20000000E+02  5.00000000E+01  0.00000000E+00
  3.30000000E+02  5.00000000E+01  0.00000000E+00
  3.40000000E+02  5.00000000E+01  0.00000000E+00
  3.50000000E+02  5.00000000E+01  0.00000000E+00
  3.60000000E+02  5.00000000E+01  0.00000000E+00
  3.70000000E+02  5.00000000E+01  0.00000000E+00
  3.80000000E+02  5.00000000E+01  0.00000000E+00
  3.90000000E+02  5.00000000E+01  0.00000000E+00
  4.00000000E+02  5.00000000E+01  0.00000000E+00
  4.10000000E+02  5.00000000E+01  0.00000000E+00
  4.20000000E+02  5.00000000E+01  0.00000000E+00
  4.30000000E+02  5.00000000E+01  0.00000000E+00
  4.40000000E+02  5.00000000E+01  0.00000000E+00
  4.50000000E+02  5.00000000E+01  0.00000000E+00
  4.60000000E+02  5.00000000E+01  0.00000000E+00
  4.70000000E+02  5.00000000E+01  0.00000000E+00
  4.80000000E+02  5.00000000E+01  0.00000000E+00
  4.90000000E+02  5.00000000E+01  0.00000000E+00
  5.00000000E+02  5.00000000E+01  0.00000000E+00
  5.10000000E+02  5.00000000E+01  0.00000000E+00
  5.20000000E+02  5.00000000E+01  0.00000000E+00
  5.30000000E+02  5.00000000E+01  0.00000000E+00
  5.40000000E+02  5.00000000E+01  0.00000000E+00
  5.50000000E+02  5.00000000E+01  0.00000000E+00
  5.60000000E+02  5.00000000E+01  0.00000000E+00
  5.70000000E+02  5.00000000E+01  0.00000000E+00
  5.80000000E+02  5.00000000E+01  0.00000000E+00
  5.90000000E+02  5.00000000E+01  0.00000000E+00
  6.00000000E+02  5.00000000E+01  0.00000000E+00
  6.10000000E+02  5.00000000E+01  0.00000000E+00
  6.20000000E+02  5.00000000E+01  0.00000000E+00
  6.30000000E+02  5.00000000E+01  0.00000000E+00
  6.40000000E+02  5.00000000E+01  0.00000000E+00
  6.50000000E+02  5.00000000E+01  0.00000000E+00
  6.60000000E+02  5.00000000E+01  0.00000000E+00
  6.70000000E+02  5.00000000E+01  0.00000000E+00
  6.80000000E+02  5.00000000E+01  0.00000000E+00
  6.90000000E+02  5.00000000E+01  0.00000000E+00
  7.00000000E+02  5.00000000E+01  0.00000000E+00
  7.10000000E+02  5.00000000E+01  0.00000000E+00
  7.20000000E+02  5.00000000E+01  0.00000000E+00
  7.30000000E+02  5.00000000E+01  0.00000000E+00
  7.40000000E+02  5.00000000E+01  0.00000000E+00
  7.50000000E+02  5.00000000E+01  0.00000000E+00
  7.60000000E+02  5.00000000E+01  0.00000000E+00
  7.70000000E+02  5.00000000E+01  0.00000000E+00
  7.80000000E+02  5.00000000E+01  0.00000000E+00
  7.90000000E+02  5.00000000E+01  0.00000000E+00
  8.00000000E+02  5.00000000E+01  0.00000000E+00
  8.10000000E+02  5.00000000E+01  0.00000000E+00
  8.20000000E+02  5.00000000E+01  0.00000000E+00
  8.30000000E+02  5.00000000E+01  0.00000000E+00
  8.40000000E+02  5.00000000E+01  0.00000000E+00
  8.50000000E+02  5.00000000E+01  0.00000000E+00
  8.60000000E+02  5.00000000E+01  0.00000000E+00
  8.70000000E+02  5.00000000E+01  0.00000000E+00
  8.80000000E+02  5.00000000E+01  0.00000000E+00
  8.90000000E+02  5.00000000E+01  0.00000000E+00
  9.00000000E+02  5.00000000E+01  0.00000000E+00
  9.10000000E+02  5.00000000E+01  0.00000000E+00
  9.20000000E+02  5.00000000E+01  0.00000000E+00
  9.30000000E+02  5.00000000E+01  0.00000000E+00
  9.40000000E+02  5.00000000E+01  0.00000000E+00
  9.50000000E+02  5.00000000E+01  0.00000000E+00
  9.60000000E+02  5.00000000E+01  0.00000000E+00
  9.70000000E+02  5.00000000E+01  0.00000000E+00
  9.80000000E+02  5.00000000E+01  0.00000000E+00
  9.90000000E+02  5.00000000E+01  0.00000000E+00
  1.00000000E+03  5.00000000E+01  0.00000000E+00
  0.00000000E+00  5.20000000E+01  0.00000000E+00
  1.00000000E+01  5.20000000E+01  0.00000000E+00
  2.00000000E+01  5.20000000E+01  0.00000000E+00
  3.00000000E+01  5.20000000E+01  0.00000000E+00
  4.00000000E+01  5.20000000E+01  0.00000000E+00
  5.00000000E+01  5.20000000E+01  0.00000000E+00
  6.00000000E+01  5.20000000E+01  0.00000000E+00
  7.00000000E+01  5.20000000E+01  0.00000000E+00
  8.00000000E+01  5.20000000E+01  0.00000000E+00
  9.00000000E+01  5.20000000E+01  0.00000000E+00
  1.00000000E+02  5.20000000E+01  0.00000000E+00
  1.10000000E+02  5.20000000E+01  0.00000000E+00
  1.20000000E+02  5.20000000E+01  0.00000000E+00
  1.30000000E+02  5.20000000E+01  0.00000000E+00
  1.40000000E+02  5.20000000E+01  0.00000000E+00
  1.50000000E+02  5.20000000E+01  0.00000000E+00
  1.60000000E+02  5.20000000E+01  0.00000000E+00
  1.70000000E+02  5.20000000E+01  0.00000000E+00
  1.80000000E+02  5.20000000E+01  0.00000000E+00
  1.90000000E+02  5.20000000E+01  0.00000000E+00
  2.00000000E+02  5.20000000E+01  0.00000000E+00
  2.10000000E+02  5.20000000E+01  0.00000000E+00
  2.20000000E+02  5.20000000E+01  0.00000000E+00
  2.30000000E+02  5.20000000E+01  0.00000000E+00
  2.40000000E+02  5.20000000E+01  0.00000000E+00
  2.50000000E+02  5.20000000E+01  0.00000000E+00
  2.60000000E+02  5.20000000E+01  0.00000000E+00
  2.70000000E+02  5.20000000E+01  0.00000000E+00
  2.80000000E+02  5.20000000E+01  0.00000000E+00
  2.90000000E+02  5.20000000E+01  0.00000000E+00
  3.00000000E+02  5.20000000E+01  0.00000000E+00
  3.10000000E+02  5.20000000E+01  0.00000000E+00
  3.20000000E+02  5.20000000E+01  0.00000000E+00
  3.30000000E+02  5.20000000E+01  0.00000000E+00
  3.40000000E+02  5.20000000E+01  0.00000000E+00
  3.50000000E+02  5.20000000E+01  0.00000000E+00
  3.60000000E+02  5.20000000E+01  0.00000000E+00
  3.70000000E+02  5.20000000E+01  0.00000000E+00
  3.80000000E+02  5.20000000E+01  0.00000000E+00
  3.90000000E+02  5.20000000E+01  0.00000000E+00
  4.00000000E+02  5.20000000E+01  0.00000000E+00
  4.10000000E+02  5.20000000E+01  0.00000000E+00
  4.20000000E+02  5.20000000E+01  0.00000000E+00
  4.30000000E+02  5.20000000E+01  0.00000000E+00
  4.40000000E+02  5.20000000E+01  0.00000000E+00
  4.50000000E+02  5.20000000E+01  0.00000000E+00
  4.60000000E+02  5.20000000E+01  0.00000000E+00
  4.70000000E+02  5.20000000E+01  0.00000000E+00
  4.80000000E+02  5.20000000E+01  0.00000000E+00
  4.90000000E+02  5.20000000E+01  0.00000000E+00
  5.00000000E+02  5.20000000E+01  0.00000000E+00
  5.10000000E+02  5.20000000E+01  0.00000000E+00
  5.20000000E+02  5.20000000E+01  0.00000000E+00
  5.30000000E+02  5.20000000E+01  0.00000000E+00
  5.40000000E+02  5.20000000E+01  0.00000000E+00
  5.50000000E+02  5.20000000E+01  0.00000000E+00
  5.60000000E+02  5.20000000E+01  0.00000000E+00
  5.70000000E+02  5.20000000E+01  0.00000000E+00
  5.80000000E+02  5.20000000E+01  0.00000000E+00
  5.90000000E+02  5.20000000E+01  0.00000000E+00
  6.00000000E+02  5.20000000E+01  0.00000000E+00
  6.10000000E+02  5.20000000E+01  0.00000000E+00
  6.20000000E+02  5.20000000E+01  0.00000000E+00
  6.30000000E+02  5.20000000E+01  0.00000000E+00
  6.40000000E+02  5.20000000E+01  0.00000000E+00
  6.50000000E+02  5.20000000E+01  0.00000000E+00
  6.60000000E+02  5.20000000E+01  0.00000000E+00
  6.70000000E+02  5.20000000E+01  0.00000000E+00
  6.80000000E+02  5.20000000E+01  0.00000000E+00
  6.90000000E+02  5.20000000E+01  0.00000000E+00
  7.00000000E+02  5.20000000E+01  0.00000000E+00
  7.10000000E+02  5.20000000E+01  0.00000000E+00
  7.20000000E+02  5.20000000E+01  0.00000000E+00
  7.30000000E+02  5.20000000E+01  0.00000000E+00
  7.40000000E+02  5.20000000E+01  0.00000000E+00
  7.50000000E+02  5.20000000E+01  0.00000000E+00
  7.60000000E+02  5.20000000E+01  0.00000000E+00
  7.70000000E+02  5.20000000E+01  0.00000000E+00
  7.80000000E+02  5.20000000E+01  0.00000000E+00
  7.90000000E+02  5.20000000E+01  0.00000000E+00
  8.00000000E+02  5.20000000E+01  0.00000000E+00
  8.10000000E+02  5.20000000E+01  0.00000000E+00
  8.20000000E+02  5.20000000E+01  0.00000000E+00
  8.30000000E+02  5.20000000E+01  0.00000000E+00
  8.40000000E+02  5.20000000E+01  0.00000000E+00
  8.50000000E+02  5.20000000E+01  0.00000000E+00
  8.60000000E+02  5.20000000E+01  0.00000000E+00
  8.70000000E+02  5.20000000E+01  0.00000000E+00
  8.80000000E+02  5.20000000E+01  0.00000000E+00
  8.90000000E+02  5.20000000E+01  0.00000000E+00
  9.00000000E+02  5.20000000E+01  0.00000000E+00
  9.10000000E+02  5.20000000E+01  0.00000000E+00
  9.20000000E+02  5.20000000E+01  0.00000000E+00
  9.30000000E+02  5.20000000E+01  0.00000000E+00
  9.40000000E+02  5.20000000E+01  0.00000000E+00
  9.50000000E+02  5.20000000E+01  0.00000000E+00
  9.60000000E+02  5.20000000E+01  0.00000000E+00
  9.70000000E+02  5.20000000E+01  0.00000000E+00
  9.80000000E+02  5.20000000E+01  0.00000000E+00
  9.90000000E+02  5.20000000E+01  0.00000000E+00
  1.00000000E+03  5.20000000E+01  0.00000000E+00
  0.00000000E+00  5.40000000E+01  0.00000000E+00
  1.00000000E+01  5.40000000E+01  0.00000000E+00
  2.00000000E+01  5.40000000E+01  0.00000000E+00
  3.00000000E+01  5.40000000E+01  0.00000000E+00
  4.00000000E+01  5.40000000E+01  0.00000000E+00
  5.00000000E+01  5.40000000E+01  0.00000000E+00
  6.00000000E+01  5.40000000E+01  0.00000000E+00
  7.00000000E+01  5.40000000E+01  0.00000000E+00
  8.00000000E+01  5.40000000E+01  0.00000000E+00
  9.00000000E+01  5.40000000E+01  0.00000000E+00
  1.00000000E+02  5.40000000E+01  0.00000000E+00
  1.10000000E+02  5.40000000E+01  0.00000000E+00
  1.20000000E+02  5.40000000E+01  0.00000000E+00
  1.30000000E+02  5.40000000E+01  0.00000000E+00
  1.40000000E+02  5.40000000E+01  0.00000000E+00
  1.50000000E+02  5.40000000E+01  0.00000000E+00
  1.60000000E+02  5.40000000E+01  0.00000000E+00
  1.70000000E+02  5.40000000E+01  0.00000000E+00
  1.80000000E+02  5.40000000E+01  0.00000000E+00
  1.90000000E+02  5.40000000E+01  0.00000000E+00
  2.00000000E+02  5.40000000E+01  0.00000000E+00
  2.10000000E+02  5.40000000E+01  0.00000000E+00
  2.20000000E+02  5.40000000E+01  0.00000000E+00
  2.30000000E+02  5.40000000E+01  0.00000000E+00
  2.40000000E+02  5.40000000E+01  0.00000000E+00
  2.50000000E+02  5.40000000E+01  0.00000000E+00
  2.60000000E+02  5.40000000E+01  0.00000000E+00
  2.70000000E+02  5.40000000E+01  0.00000000E+00
  2.80000000E+02  5.40000000E+01  0.00000000E+00
  2.90000000E+02  5.40000000E+01  0.00000000E+00
  3.00000000E+02  5.40000000E+01  0.00000000E+00
  3.10000000E+02  5.40000000E+01  0.00000000E+00
  3.20000000E+02  5.40000000E+01  0.00000000E+00
  3.30000000E+02  5.40000000E+01  0.00000000E+00
  3.40000000E+02  5.40000000E+01  0.00000000E+00
  3.50000000E+02  5.40000000E+01  0.00000000E+00
  3.60000000E+02  5.40000000E+01  0.00000000E+00
  3.70000000E+02  5.40000000E+01  0.00000000E+00
  3.80000000E+02  5.40000000E+01  0.00000000E+00
  3.90000000E+02  5.40000000E+01  0.00000000E+00
  4.00000000E+02  5.40000000E+01  0.00000000E+00
  4.10000000E+02  5.40000000E+01  0.00000000E+00
  4.20000000E+02  5.40000000E+01  0.00000000E+00
  4.30000000E+02  5.40000000E+01  0.00000000E+00
  4.40000000E+02  5.40000000E+01  0.00000000E+00
  4.50000000E+02  5.40000000E+01  0.00000000E+00
  4.60000000E+02  5.40000000E+01  0.00000000E+00
  4.70000000E+02  5.40000000E+01  0.00000000E+00
  4.80000000E+02  5.40000000E+01  0.00000000E+00
  4.90000000E+02  5.40000000E+01  0.00000000E+00
  5.00000000E+02  5.40000000E+01  0.00000000E+00
  5.10000000E+02  5.40000000E+01  0.00000000E+00
  5.20000000E+02  5.40000000E+01  0.00000000E+00
  5.30000000E+02  5.40000000E+01  0.00000000E+00
  5.40000000E+02  5.40000000E+01  0.00000000E+00
  5.50000000E+02  5.40000000E+01  0.00000000E+00
  5.60000000E+02  5.40000000E+01  0.00000000E+00
  5.70000000E+02  5.40000000E+01  0.00000000E+00
  5.80000000E+02  5.40000000E+01  0.00000000E+00
  5.90000000E+02  5.40000000E+01  0.00000000E+00
  6.00000000E+02  5.40000000E+01  0.00000000E+00
  6.10000000E+02  5.40000000E+01  0.00000000E+00
  6.20000000E+02  5.40000000E+01  0.00000000E+00
  6.30000000E+02  5.40000000E+01  0.00000000E+00
  6.40000000E+02  5.40000000E+01  0.00000000E+00
  6.50000000E+02  5.40000000E+01  0.00000000E+00
  6.60000000E+02  5.40000000E+01  0.00000000E+00
  6.70000000E+02  5.40000000E+01  0.00000000E+00
  6.80000000E+02  5.40000000E+01  0.00000000E+00
  6.90000000E+02  5.40000000E+01  0.00000000E+00
  7.00000000E+02  5.40000000E+01  0.00000000E+00
  7.10000000E+02  5.40000000E+01  0.00000000E+00
  7.20000000E+02  5.40000000E+01  0.00000000E+00
  7.30000000E+02  5.40000000E+01  0.00000000E+00
  7.40000000E+02  5.40000000E+01  0.00000000E+00
  7.50000000E+02  5.40000000E+01  0.00000000E+00
  7.60000000E+02  5.40000000E+01  0.00000000E+00
  7.70000000E+02  5.40000000E+01  0.00000000E+00
  7.80000000E+02  5.40000000E+01  0.00000000E+00
  7.90000000E+02  5.40000000E+01  0.00000000E+00
  8.00000000E+02  5.40000000E+01  0.00000000E+00
  8.10000000E+02  5.40000000E+01  0.00000000E+00
  8.20000000E+02  5.40000000E+01  0.00000000E+00
  8.30000000E+02  5.40000000E+01  0.00000000E+00
  8.40000000E+02  5.40000000E+01  0.00000000E+00
  8.50000000E+02  5.40000000E+01  0.00000000E+00
  8.60000000E+02  5.40000000E+01  0.00000000E+00
  8.70000000E+02  5.40000000E+01  0.00000000E+00
  8.80000000E+02  5.40000000E+01  0.00000000E+00
  8.90000000E+02  5.40000000E+01  0.00000000E+00
  9.00000000E+02  5.40000000E+01  0.00000000E+00
  9.10000000E+02  5.40000000E+01  0.00000000E+00
  9.20000000E+02  5.40000000E+01  0.00000000E+00
  9.30000000E+02  5.40000000E+01  0.00000000E+00
  9.40000000E+02  5.40000000E+01  0.00000000E+00
  9.50000000E+02  5.40000000E+01  0.00000000E+00
  9.60000000E+02  5.40000000E+01  0.00000000E+00
  9.70000000E+02  5.40000000E+01  0.00000000E+00
  9.80000000E+02  5.40000000E+01  0.00000000E+00
  9.90000000E+02  5.40000000E+01  0.00000000E+00
  1.00000000E+03  5.40000000E+01  0.00000000E+00
  0.00000000E+00  5.60000000E+01  0.00000000E+00
  1.00000000E+01  5.60000000E+01  0.00000000E+00
  2.00000000E+01  5.60000000E+01  0.00000000E+00
  3.00000000E+01  5.60000000E+01  0.00000000E+00
  4.00000000E+01  5.60000000E+01  0.00000000E+00
  5.00000000E+01  5.60000000E+01  0.00000000E+00
  6.00000000E+01  5.60000000E+01  0.00000000E+00
  7.00000000E+01  5.60000000E+01  0.00000000E+00
  8.00000000E+01  5.60000000E+01  0.00000000E+00
  9.00000000E+01  5.60000000E+01  0.00000000E+00
  1.00000000E+02  5.60000000E+01  0.00000000E+00
  1.10000000E+02  5.60000000E+01  0.00000000E+00
  1.20000000E+02  5.60000000E+01  0.00000000E+00
  1.30000000E+02  5.60000000E+01  0.00000000E+00
  1.40000000E+02  5.60000000E+01  0.00000000E+00
  1.50000000E+02  5.60000000E+01  0.00000000E+00
  1.60000000E+02  5.60000000E+01  0.00000000E+00
  1.70000000E+02  5.60000000E+01  0.00000000E+00
  1.80000000E+02  5.60000000E+01  0.00000000E+00
  1.90000000E+02  5.60000000E+01  0.00000000E+00
  2.00000000E+02  5.60000000E+01  0.00000000E+00
  2.10000000E+02  5.60000000E+01  0.00000000E+00
  2.20000000E+02  5.60000000E+01  0.00000000E+00
  2.30000000E+02  5.60000000E+01  0.00000000E+00
  2.40000000E+02  5.60000000E+01  0.00000000E+00
  2.50000000E+02  5.60000000E+01  0.00000000E+00
  2.60000000E+02  5.60000000E+01  0.00000000E+00
  2.70000000E+02  5.60000000E+01  0.00000000E+00
  2.80000000E+02  5.60000000E+01  0.00000000E+00
  2.90000000E+02  5.60000000E+01  0.00000000E+00
  3.00000000E+02  5.60000000E+01  0.00000000E+00
  3.10000000E+02  5.60000000E+01  0.00000000E+00
  3.20000000E+02  5.60000000E+01  0.00000000E+00
  3.30000000E+02  5.60000000E+01  0.00000000E+00
  3.40000000E+02  5.60000000E+01  0.00000000E+00
  3.50000000E+02  5.60000000E+01  0.00000000E+00
  3.60000000E+02  5.60000000E+01  0.00000000E+00
  3.70000000E+02  5.60000000E+01  0.00000000E+00
  3.80000000E+02  5.60000000E+01  0.00000000E+00
  3.90000000E+02  5.60000000E+01  0.00000000E+00
  4.00000000E+02  5.60000000E+01  0.00000000E+00
  4.10000000E+02  5.60000000E+01  0.00000000E+00
  4.20000000E+02  5.60000000E+01  0.00000000E+00
  4.30000000E+02  5.60000000E+01  0.00000000E+00
  4.40000000E+02  5.60000000E+01  0.00000000E+00
  4.50000000E+02  5.60000000E+01  0.00000000E+00
  4.60000000E+02  5.60000000E+01  0.00000000E+00
  4.70000000E+02  5.60000000E+01  0.00000000E+00
  4.80000000E+02  5.60000000E+01  0.00000000E+00
  4.90000000E+02  5.60000000E+01  0.00000000E+00
  5.00000000E+02  5.60000000E+01  0.00000000E+00
  5.10000000E+02  5.60000000E+01  0.00000000E+00
  5.20000000E+02  5.60000000E+01  0.00000000E+00
  5.30000000E+02  5.60000000E+01  0.00000000E+00
  5.40000000E+02  5.60000000E+01  0.00000000E+00
  5.50000000E+02  5.60000000E+01  0.00000000E+00
  5.60000000E+02  5.60000000E+01  0.00000000E+00
  5.70000000E+02  5.60000000E+01  0.00000000E+00
  5.80000000E+02  5.60000000E+01  0.00000000E+00
  5.90000000E+02  5.60000000E+01  0.00000000E+00
  6.00000000E+02  5.60000000E+01  0.00000000E+00
  6.10000000E+02  5.60000000E+01  0.00000000E+00
  6.20000000E+02  5.60000000E+01  0.00000000E+00
  6.30000000E+02  5.60000000E+01  0.00000000E+00
  6.40000000E+02  5.60000000E+01  0.00000000E+00
  6.50000000E+02  5.60000000E+01  0.00000000E+00
  6.60000000E+02  5.60000000E+01  0.00000000E+00
  6.70000000E+02  5.60000000E+01  0.00000000E+00
  6.80000000E+02  5.60000000E+01  0.00000000E+00
  6.90000000E+02  5.60000000E+01  0.00000000E+00
  7.00000000E+02  5.60000000E+01  0.00000000E+00
  7.10000000E+02  5.60000000E+01  0.00000000E+00
  7.20000000E+02  5.60000000E+01  0.00000000E+00
  7.30000000E+02  5.60000000E+01  0.00000000E+00
  7.40000000E+02  5.60000000E+01  0.00000000E+00
  7.50000000E+02  5.60000000E+01  0.00000000E+00
  7.60000000E+02  5.60000000E+01  0.00000000E+00
  7.70000000E+02  5.60000000E+01  0.00000000E+00
  7.80000000E+02  5.60000000E+01  0.00000000E+00
  7.90000000E+02  5.60000000E+01  0.00000000E+00
  8.00000000E+02  5.60000000E+01  0.00000000E+00
  8.10000000E+02  5.60000000E+01  0.00000000E+00
  8.20000000E+02  5.60000000E+01  0.00000000E+00
  8.30000000E+02  5.60000000E+01  0.00000000E+00
  8.40000000E+02  5.60000000E+01  0.00000000E+00
  8.50000000E+02  5.60000000E+01  0.00000000E+00
  8.60000000E+02  5.60000000E+01  0.00000000E+00
  8.70000000E+02  5.60000000E+01  0.00000000E+00
  8.80000000E+02  5.60000000E+01  0.00000000E+00
  8.90000000E+02  5.60000000E+01  0.00000000E+00
  9.00000000E+02  5.60000000E+01  0.00000000E+00
  9.10000000E+02  5.60000000E+01  0.00000000E+00
  9.20000000E+02  5.60000000E+01  0.00000000E+00
  9.30000000E+02  5.60000000E+01  0.00000000E+00
  9.40000000E+02  5.60000000E+01  0.00000000E+00
  9.50000000E+02  5.60000000E+01  0.00000000E+00
  9.60000000E+02  5.60000000E+01  0.00000000E+00
  9.70000000E+02  5.60000000E+01  0.00000000E+00
  9.80000000E+02  5.60000000E+01  0.00000000E+00
  9.90000000E+02  5.60000000E+01  0.00000000E+00
  1.00000000E+03  5.60000000E+01  0.00000000E+00
  0.00000000E+00  5.80000000E+01  0.00000000E+00
  1.00000000E+01  5.80000000E+01  0.00000000E+00
  2.00000000E+01  5.80000000E+01  0.00000000E+00
  3.00000000E+01  5.80000000E+01  0.00000000E+00
  4.00000000E+01  5.80000000E+01  0.00000000E+00
  5.00000000E+01  5.80000000E+01  0.00000000E+00
  6.00000000E+01  5.80000000E+01  0.00000000E+00
  7.00000000E+01  5.80000000E+01  0.00000000E+00
  8.00000000E+01  5.80000000E+01  0.00000000E+00
  9.00000000E+01  5.80000000E+01  0.00000000E+00
  1.00000000E+02  5.80000000E+01  0.00000000E+00
  1.10000000E+02  5.80000000E+01  0.00000000E+00
  1.20000000E+02  5.80000000E+01  0.00000000E+00
  1.30000000E+02  5.80000000E+01  0.00000000E+00
  1.40000000E+02  5.80000000E+01  0.00000000E+00
  1.50000000E+02  5.80000000E+01  0.00000000E+00
  1.60000000E+02  5.80000000E+01  0.00000000E+00
  1.70000000E+02  5.80000000E+01  0.00000000E+00
  1.80000000E+02  5.80000000E+01  0.00000000E+00
  1.90000000E+02  5.80000000E+01  0.00000000E+00
  2.00000000E+02  5.80000000E+01  0.00000000E+00
  2.10000000E+02  5.80000000E+01  0.00000000E+00
  2.20000000E+02  5.80000000E+01  0.00000000E+00
  2.30000000E+02  5.80000000E+01  0.00000000E+00
  2.40000000E+02  5.80000000E+01  0.00000000E+00
  2.50000000E+02  5.80000000E+01  0.00000000E+00
  2.60000000E+02  5.80000000E+01  0.00000000E+00
  2.70000000E+02  5.80000000E+01  0.00000000E+00
  2.80000000E+02  5.80000000E+01  0.00000000E+00
  2.90000000E+02  5.80000000E+01  0.00000000E+00
  3.00000000E+02  5.80000000E+01  0.00000000E+00
  3.10000000E+02  5.80000000E+01  0.00000000E+00
  3.20000000E+02  5.80000000E+01  0.00000000E+00
  3.30000000E+02  5.80000000E+01  0.00000000E+00
  3.40000000E+02  5.80000000E+01  0.00000000E+00
  3.50000000E+02  5.80000000E+01  0.00000000E+00
  3.60000000E+02  5.80000000E+01  0.00000000E+00
  3.70000000E+02  5.80000000E+01  0.00000000E+00
  3.80000000E+02  5.80000000E+01  0.00000000E+00
  3.90000000E+02  5.80000000E+01  0.00000000E+00
  4.00000000E+02  5.80000000E+01  0.00000000E+00
  4.10000000E+02  5.80000000E+01  0.00000000E+00
  4.20000000E+02  5.80000000E+01  0.00000000E+00
  4.30000000E+02  5.80000000E+01  0.00000000E+00
  4.40000000E+02  5.80000000E+01  0.00000000E+00
  4.50000000E+02  5.80000000E+01  0.00000000E+00
  4.60000000E+02  5.80000000E+01  0.00000000E+00
  4.70000000E+02  5.80000000E+01  0.00000000E+00
  4.80000000E+02  5.80000000E+01  0.00000000E+00
  4.90000000E+02  5.80000000E+01  0.00000000E+00
  5.00000000E+02  5.80000000E+01  0.00000000E+00
  5.10000000E+02  5.80000000E+01  0.00000000E+00
  5.20000000E+02  5.80000000E+01  0.00000000E+00
  5.30000000E+02  5.80000000E+01  0.00000000E+00
  5.40000000E+02  5.80000000E+01  0.00000000E+00
  5.50000000E+02  5.80000000E+01  0.00000000E+00
  5.60000000E+02  5.80000000E+01  0.00000000E+00
  5.70000000E+02  5.80000000E+01  0.00000000E+00
  5.80000000E+02  5.80000000E+01  0.00000000E+00
  5.90000000E+02  5.80000000E+01  0.00000000E+00
  6.00000000E+02  5.80000000E+01  0.00000000E+00
  6.10000000E+02  5.80000000E+01  0.00000000E+00
  6.20000000E+02  5.80000000E+01  0.00000000E+00
  6.30000000E+02  5.80000000E+01  0.00000000E+00
  6.40000000E+02  5.80000000E+01  0.00000000E+00
  6.50000000E+02  5.80000000E+01  0.00000000E+00
  6.60000000E+02  5.80000000E+01  0.00000000E+00
  6.70000000E+02  5.80000000E+01  0.00000000E+00
  6.80000000E+02  5.80000000E+01  0.00000000E+00
  6.90000000E+02  5.80000000E+01  0.00000000E+00
  7.00000000E+02  5.80000000E+01  0.00000000E+00
  7.10000000E+02  5.80000000E+01  0.00000000E+00
  7.20000000E+02  5.80000000E+01  0.00000000E+00
  7.30000000E+02  5.80000000E+01  0.00000000E+00
  7.40000000E+02  5.80000000E+01  0.00000000E+00
  7.50000000E+02  5.80000000E+01  0.00000000E+00
  7.60000000E+02  5.80000000E+01  0.00000000E+00
  7.70000000E+02  5.80000000E+01  0.00000000E+00
  7.80000000E+02  5.80000000E+01  0.00000000E+00
  7.90000000E+02  5.80000000E+01  0.00000000E+00
  8.00000000E+02  5.80000000E+01  0.00000000E+00
  8.10000000E+02  5.80000000E+01  0.00000000E+00
  8.20000000E+02  5.80000000E+01  0.00000000E+00
  8.30000000E+02  5.80000000E+01  0.00000000E+00
  8.40000000E+02  5.80000000E+01  0.00000000E+00
  8.50000000E+02  5.80000000E+01  0.00000000E+00
  8.60000000E+02  5.80000000E+01  0.00000000E+00
  8.70000000E+02  5.80000000E+01  0.00000000E+00
  8.80000000E+02  5.80000000E+01  0.00000000E+00
  8.90000000E+02  5.80000000E+01  0.00000000E+00
  9.00000000E+02  5.80000000E+01  0.00000000E+00
  9.10000000E+02  5.80000000E+01  0.00000000E+00
  9.20000000E+02  5.80000000E+01  0.00000000E+00
  9.30000000E+02  5.80000000E+01  0.00000000E+00
  9.40000000E+02  5.80000000E+01  0.00000000E+00
  9.50000000E+02  5.80000000E+01  0.00000000E+00
  9.60000000E+02  5.80000000E+01  0.00000000E+00
  9.70000000E+02  5.80000000E+01  0.00000000E+00
  9.80000000E+02  5.80000000E+01  0.00000000E+00
  9.90000000E+02  5.80000000E+01  0.00000000E+00
  1.00000000E+03  5.80000000E+01  0.00000000E+00
  0.00000000E+00  6.00000000E+01  0.00000000E+00
  1.00000000E+01  6.00000000E+01  0.00000000E+00
  2.00000000E+01  6.00000000E+01  0.00000000E+00
  3.00000000E+01  6.00000000E+01  0.00000000E+00
  4.00000000E+01  6.00000000E+01  0.00000000E+00
  5.00000000E+01  6.00000000E+01  0.00000000E+00
  6.00000000E+01  6.00000000E+01  0.00000000E+00
  7.00000000E+01  6.00000000E+01  0.00000000E+00
  8.00000000E+01  6.00000000E+01  0.00000000E+00
  9.00000000E+01  6.00000000E+01  0.00000000E+00
  1.00000000E+02  6.00000000E+01  0.00000000E+00
  1.10000000E+02  6.00000000E+01  0.00000000E+00
  1.20000000E+02  6.00000000E+01  0.00000000E+00
  1.30000000E+02  6.00000000E+01  0.00000000E+00
  1.40000000E+02  6.00000000E+01  0.00000000E+00
  1.50000000E+02  6.00000000E+01  0.00000000E+00
  1.60000000E+02  6.00000000E+01  0.00000000E+00
  1.70000000E+02  6.00000000E+01  0.00000000E+00
  1.80000000E+02  6.00000000E+01  0.00000000E+00
  1.90000000E+02  6.00000000E+01  0.00000000E+00
  2.00000000E+02  6.00000000E+01  0.00000000E+00
  2.10000000E+02  6.00000000E+01  0.00000000E+00
  2.20000000E+02  6.00000000E+01  0.00000000E+00
  2.30000000E+02  6.00000000E+01  0.00000000E+00
  2.40000000E+02  6.00000000E+01  0.00000000E+00
  2.50000000E+02  6.00000000E+01  0.00000000E+00
  2.60000000E+02  6.00000000E+01  0.00000000E+00
  2.70000000E+02  6.00000000E+01  0.00000000E+00
  2.80000000E+02  6.00000000E+01  0.00000000E+00
  2.90000000E+02  6.00000000E+01  0.00000000E+00
  3.00000000E+02  6.00000000E+01  0.00000000E+00
  3.10000000E+02  6.00000000E+01  0.00000000E+00
  3.20000000E+02  6.00000000E+01  0.00000000E+00
  3.30000000E+02  6.00000000E+01  0.00000000E+00
  3.40000000E+02  6.00000000E+01  0.00000000E+00
  3.50000000E+02  6.00000000E+01  0.00000000E+00
  3.60000000E+02  6.00000000E+01  0.00000000E+00
  3.70000000E+02  6.00000000E+01  0.00000000E+00
  3.80000000E+02  6.00000000E+01  0.00000000E+00
  3.90000000E+02  6.00000000E+01  0.00000000E+00
  4.00000000E+02  6.00000000E+01  0.00000000E+00
  4.10000000E+02  6.00000000E+01  0.00000000E+00
  4.20000000E+02  6.00000000E+01  0.00000000E+00
  4.30000000E+02  6.00000000E+01  0.00000000E+00
  4.40000000E+02  6.00000000E+01  0.00000000E+00
  4.50000000E+02  6.00000000E+01  0.00000000E+00
  4.60000000E+02  6.00000000E+01  0.00000000E+00
  4.70000000E+02  6.00000000E+01  0.00000000E+00
  4.80000000E+02  6.00000000E+01  0.00000000E+00
  4.90000000E+02  6.00000000E+01  0.00000000E+00
  5.00000000E+02  6.00000000E+01  0.00000000E+00
  5.10000000E+02  6.00000000E+01  0.00000000E+00
  5.20000000E+02  6.00000000E+01  0.00000000E+00
  5.30000000E+02  6.00000000E+01  0.00000000E+00
  5.40000000E+02  6.00000000E+01  0.00000000E+00
  5.50000000E+02  6.00000000E+01  0.00000000E+00
  5.60000000E+02  6.00000000E+01  0.00000000E+00
  5.70000000E+02  6.00000000E+01  0.00000000E+00
  5.80000000E+02  6.00000000E+01  0.00000000E+00
  5.90000000E+02  6.00000000E+01  0.00000000E+00
  6.00000000E+02  6.00000000E+01  0.00000000E+00
  6.10000000E+02  6.00000000E+01  0.00000000E+00
  6.20000000E+02  6.00000000E+01  0.00000000E+00
  6.30000000E+02  6.00000000E+01  0.00000000E+00
  6.40000000E+02  6.00000000E+01  0.00000000E+00
  6.50000000E+02  6.00000000E+01  0.00000000E+00
  6.60000000E+02  6.00000000E+01  0.00000000E+00
  6.70000000E+02  6.00000000E+01  0.00000000E+00
  6.80000000E+02  6.00000000E+01  0.00000000E+00
  6.90000000E+02  6.00000000E+01  0.00000000E+00
  7.00000000E+02  6.00000000E+01  0.00000000E+00
  7.10000000E+02  6.00000000E+01  0.00000000E+00
  7.20000000E+02  6.00000000E+01  0.00000000E+00
  7.30000000E+02  6.00000000E+01  0.00000000E+00
  7.40000000E+02  6.00000000E+01  0.00000000E+00
  7.50000000E+02  6.00000000E+01  0.00000000E+00
  7.60000000E+02  6.00000000E+01  0.00000000E+00
  7.70000000E+02  6.00000000E+01  0.00000000E+00
  7.80000000E+02  6.00000000E+01  0.00000000E+00
  7.90000000E+02  6.00000000E+01  0.00000000E+00
  8.00000000E+02  6.00000000E+01  0.00000000E+00
  8.10000000E+02  6.00000000E+01  0.00000000E+00
  8.20000000E+02  6.00000000E+01  0.00000000E+00
  8.30000000E+02  6.00000000E+01  0.00000000E+00
  8.40000000E+02  6.00000000E+01  0.00000000E+00
  8.50000000E+02  6.00000000E+01  0.00000000E+00
  8.60000000E+02  6.00000000E+01  0.00000000E+00
  8.70000000E+02  6.00000000E+01  0.00000000E+00
  8.80000000E+02  6.00000000E+01  0.00000000E+00
  8.90000000E+02  6.00000000E+01  0.00000000E+00
  9.00000000E+02  6.00000000E+01  0.00000000E+00
  9.10000000E+02  6.00000000E+01  0.00000000E+00
  9.20000000E+02  6.00000000E+01  0.00000000E+00
  9.30000000E+02  6.00000000E+01  0.00000000E+00
  9.40000000E+02  6.00000000E+01  0.00000000E+00
  9.50000000E+02  6.00000000E+01  0.00000000E+00
  9.60000000E+02  6.00000000E+01  0.00000000E+00
  9.70000000E+02  6.00000000E+01  0.00000000E+00
  9.80000000E+02  6.00000000E+01  0.00000000E+00
  9.90000000E+02  6.00000000E+01  0.00000000E+00
  1.00000000E+03  6.00000000E+01  0.00000000E+00
  0.00000000E+00  6.20000000E+01  0.00000000E+00
  1.00000000E+01  6.20000000E+01  0.00000000E+00
  2.00000000E+01  6.20000000E+01  0.00000000E+00
  3.00000000E+01  6.20000000E+01  0.00000000E+00
  4.00000000E+01  6.20000000E+01  0.00000000E+00
  5.00000000E+01  6.20000000E+01  0.00000000E+00
  6.00000000E+01  6.20000000E+01  0.00000000E+00
  7.00000000E+01  6.20000000E+01  0.00000000E+00
  8.00000000E+01  6.20000000E+01  0.00000000E+00
  9.00000000E+01  6.20000000E+01  0.00000000E+00
  1.00000000E+02  6.20000000E+01  0.00000000E+00
  1.10000000E+02  6.20000000E+01  0.00000000E+00
  1.20000000E+02  6.20000000E+01  0.00000000E+00
  1.30000000E+02  6.20000000E+01  0.00000000E+00
  1.40000000E+02  6.20000000E+01  0.00000000E+00
  1.50000000E+02  6.20000000E+01  0.00000000E+00
  1.60000000E+02  6.20000000E+01  0.00000000E+00
  1.70000000E+02  6.20000000E+01  0.00000000E+00
  1.80000000E+02  6.20000000E+01  0.00000000E+00
  1.90000000E+02  6.20000000E+01  0.00000000E+00
  2.00000000E+02  6.20000000E+01  0.00000000E+00
  2.10000000E+02  6.20000000E+01  0.00000000E+00
  2.20000000E+02  6.20000000E+01  0.00000000E+00
  2.30000000E+02  6.20000000E+01  0.00000000E+00
  2.40000000E+02  6.20000000E+01  0.00000000E+00
  2.50000000E+02  6.20000000E+01  0.00000000E+00
  2.60000000E+02  6.20000000E+01  0.00000000E+00
  2.70000000E+02  6.20000000E+01  0.00000000E+00
  2.80000000E+02  6.20000000E+01  0.00000000E+00
  2.90000000E+02  6.20000000E+01  0.00000000E+00
  3.00000000E+02  6.20000000E+01  0.00000000E+00
  3.10000000E+02  6.20000000E+01  0.00000000E+00
  3.20000000E+02  6.20000000E+01  0.00000000E+00
  3.30000000E+02  6.20000000E+01  0.00000000E+00
  3.40000000E+02  6.20000000E+01  0.00000000E+00
  3.50000000E+02  6.20000000E+01  0.00000000E+00
  3.60000000E+02  6.20000000E+01  0.00000000E+00
  3.70000000E+02  6.20000000E+01  0.00000000E+00
  3.80000000E+02  6.20000000E+01  0.00000000E+00
  3.90000000E+02  6.20000000E+01  0.00000000E+00
  4.00000000E+02  6.20000000E+01  0.00000000E+00
  4.10000000E+02  6.20000000E+01  0.00000000E+00
  4.20000000E+02  6.20000000E+01  0.00000000E+00
  4.30000000E+02  6.20000000E+01  0.00000000E+00
  4.40000000E+02  6.20000000E+01  0.00000000E+00
  4.50000000E+02  6.20000000E+01  0.00000000E+00
  4.60000000E+02  6.20000000E+01  0.00000000E+00
  4.70000000E+02  6.20000000E+01  0.00000000E+00
  4.80000000E+02  6.20000000E+01  0.00000000E+00
  4.90000000E+02  6.20000000E+01  0.00000000E+00
  5.00000000E+02  6.20000000E+01  0.00000000E+00
  5.10000000E+02  6.20000000E+01  0.00000000E+00
  5.20000000E+02  6.20000000E+01  0.00000000E+00
  5.30000000E+02  6.20000000E+01  0.00000000E+00
  5.40000000E+02  6.20000000E+01  0.00000000E+00
  5.50000000E+02  6.20000000E+01  0.00000000E+00
  5.60000000E+02  6.20000000E+01  0.00000000E+00
  5.70000000E+02  6.20000000E+01  0.00000000E+00
  5.80000000E+02  6.20000000E+01  0.00000000E+00
  5.90000000E+02  6.20000000E+01  0.00000000E+00
  6.00000000E+02  6.20000000E+01  0.00000000E+00
  6.10000000E+02  6.20000000E+01  0.00000000E+00
  6.20000000E+02  6.20000000E+01  0.00000000E+00
  6.30000000E+02  6.20000000E+01  0.00000000E+00
  6.40000000E+02  6.20000000E+01  0.00000000E+00
  6.50000000E+02  6.20000000E+01  0.00000000E+00
  6.60000000E+02  6.20000000E+01  0.00000000E+00
  6.70000000E+02  6.20000000E+01  0.00000000E+00
  6.80000000E+02  6.20000000E+01  0.00000000E+00
  6.90000000E+02  6.20000000E+01  0.00000000E+00
  7.00000000E+02  6.20000000E+01  0.00000000E+00
  7.10000000E+02  6.20000000E+01  0.00000000E+00
  7.20000000E+02  6.20000000E+01  0.00000000E+00
  7.30000000E+02  6.20000000E+01  0.00000000E+00
  7.40000000E+02  6.20000000E+01  0.00000000E+00
  7.50000000E+02  6.20000000E+01  0.00000000E+00
  7.60000000E+02  6.20000000E+01  0.00000000E+00
  7.70000000E+02  6.20000000E+01  0.00000000E+00
  7.80000000E+02  6.20000000E+01  0.00000000E+00
  7.90000000E+02  6.20000000E+01  0.00000000E+00
  8.00000000E+02  6.20000000E+01  0.00000000E+00
  8.10000000E+02  6.20000000E+01  0.00000000E+00
  8.20000000E+02  6.20000000E+01  0.00000000E+00
  8.30000000E+02  6.20000000E+01  0.00000000E+00
  8.40000000E+02  6.20000000E+01  0.00000000E+00
  8.50000000E+02  6.20000000E+01  0.00000000E+00
  8.60000000E+02  6.20000000E+01  0.00000000E+00
  8.70000000E+02  6.20000000E+01  0.00000000E+00
  8.80000000E+02  6.20000000E+01  0.00000000E+00
  8.90000000E+02  6.20000000E+01  0.00000000E+00
  9.00000000E+02  6.20000000E+01  0.00000000E+00
  9.10000000E+02  6.20000000E+01  0.00000000E+00
  9.20000000E+02  6.20000000E+01  0.00000000E+00
  9.30000000E+02  6.20000000E+01  0.00000000E+00
  9.40000000E+02  6.20000000E+01  0.00000000E+00
  9.50000000E+02  6.20000000E+01  0.00000000E+00
  9.60000000E+02  6.20000000E+01  0.00000000E+00
  9.70000000E+02  6.20000000E+01  0.00000000E+00
  9.80000000E+02  6.20000000E+01  0.00000000E+00
  9.90000000E+02  6.20000000E+01  0.00000000E+00
  1.00000000E+03  6.20000000E+01  0.00000000E+00
  0.00000000E+00  6.40000000E+01  0.00000000E+00
  1.00000000E+01  6.40000000E+01  0.00000000E+00
  2.00000000E+01  6.40000000E+01  0.00000000E+00
  3.00000000E+01  6.40000000E+01  0.00000000E+00
  4.00000000E+01  6.40000000E+01  0.00000000E+00
  5.00000000E+01  6.40000000E+01  0.00000000E+00
  6.00000000E+01  6.40000000E+01  0.00000000E+00
  7.00000000E+01  6.40000000E+01  0.00000000E+00
  8.00000000E+01  6.40000000E+01  0.00000000E+00
  9.00000000E+01  6.40000000E+01  0.00000000E+00
  1.00000000E+02  6.40000000E+01  0.00000000E+00
  1.10000000E+02  6.40000000E+01  0.00000000E+00
  1.20000000E+02  6.40000000E+01  0.00000000E+00
  1.30000000E+02  6.40000000E+01  0.00000000E+00
  1.40000000E+02  6.40000000E+01  0.00000000E+00
  1.50000000E+02  6.40000000E+01  0.00000000E+00
  1.60000000E+02  6.40000000E+01  0.00000000E+00
  1.70000000E+02  6.40000000E+01  0.00000000E+00
  1.80000000E+02  6.40000000E+01  0.00000000E+00
  1.90000000E+02  6.40000000E+01  0.00000000E+00
  2.00000000E+02  6.40000000E+01  0.00000000E+00
  2.10000000E+02  6.40000000E+01  0.00000000E+00
  2.20000000E+02  6.40000000E+01  0.00000000E+00
  2.30000000E+02  6.40000000E+01  0.00000000E+00
  2.40000000E+02  6.40000000E+01  0.00000000E+00
  2.50000000E+02  6.40000000E+01  0.00000000E+00
  2.60000000E+02  6.40000000E+01  0.00000000E+00
  2.70000000E+02  6.40000000E+01  0.00000000E+00
  2.80000000E+02  6.40000000E+01  0.00000000E+00
  2.90000000E+02  6.40000000E+01  0.00000000E+00
  3.00000000E+02  6.40000000E+01  0.00000000E+00
  3.10000000E+02  6.40000000E+01  0.00000000E+00
  3.20000000E+02  6.40000000E+01  0.00000000E+00
  3.30000000E+02  6.40000000E+01  0.00000000E+00
  3.40000000E+02  6.40000000E+01  0.00000000E+00
  3.50000000E+02  6.40000000E+01  0.00000000E+00
  3.60000000E+02  6.40000000E+01  0.00000000E+00
  3.70000000E+02  6.40000000E+01  0.00000000E+00
  3.80000000E+02  6.40000000E+01  0.00000000E+00
  3.90000000E+02  6.40000000E+01  0.00000000E+00
  4.00000000E+02  6.40000000E+01  0.00000000E+00
  4.10000000E+02  6.40000000E+01  0.00000000E+00
  4.20000000E+02  6.40000000E+01  0.00000000E+00
  4.30000000E+02  6.40000000E+01  0.00000000E+00
  4.40000000E+02  6.40000000E+01  0.00000000E+00
  4.50000000E+02  6.40000000E+01  0.00000000E+00
  4.60000000E+02  6.40000000E+01  0.00000000E+00
  4.70000000E+02  6.40000000E+01  0.00000000E+00
  4.80000000E+02  6.40000000E+01  0.00000000E+00
  4.90000000E+02  6.40000000E+01  0.00000000E+00
  5.00000000E+02  6.40000000E+01  0.00000000E+00
  5.10000000E+02  6.40000000E+01  0.00000000E+00
  5.20000000E+02  6.40000000E+01  0.00000000E+00
  5.30000000E+02  6.40000000E+01  0.00000000E+00
  5.40000000E+02  6.40000000E+01  0.00000000E+00
  5.50000000E+02  6.40000000E+01  0.00000000E+00
  5.60000000E+02  6.40000000E+01  0.00000000E+00
  5.70000000E+02  6.40000000E+01  0.00000000E+00
  5.80000000E+02  6.40000000E+01  0.00000000E+00
  5.90000000E+02  6.40000000E+01  0.00000000E+00
  6.00000000E+02  6.40000000E+01  0.00000000E+00
  6.10000000E+02  6.40000000E+01  0.00000000E+00
  6.20000000E+02  6.40000000E+01  0.00000000E+00
  6.30000000E+02  6.40000000E+01  0.00000000E+00
  6.40000000E+02  6.40000000E+01  0.00000000E+00
  6.50000000E+02  6.40000000E+01  0.00000000E+00
  6.60000000E+02  6.40000000E+01  0.00000000E+00
  6.70000000E+02  6.40000000E+01  0.00000000E+00
  6.80000000E+02  6.40000000E+01  0.00000000E+00
  6.90000000E+02  6.40000000E+01  0.00000000E+00
  7.00000000E+02  6.40000000E+01  0.00000000E+00
  7.10000000E+02  6.40000000E+01  0.00000000E+00
  7.20000000E+02  6.40000000E+01  0.00000000E+00
  7.30000000E+02  6.40000000E+01  0.00000000E+00
  7.40000000E+02  6.40000000E+01  0.00000000E+00
  7.50000000E+02  6.40000000E+01  0.00000000E+00
  7.60000000E+02  6.40000000E+01  0.00000000E+00
  7.70000000E+02  6.40000000E+01  0.00000000E+00
  7.80000000E+02  6.40000000E+01  0.00000000E+00
  7.90000000E+02  6.40000000E+01  0.00000000E+00
  8.00000000E+02  6.40000000E+01  0.00000000E+00
  8.10000000E+02  6.40000000E+01  0.00000000E+00
  8.20000000E+02  6.40000000E+01  0.00000000E+00
  8.30000000E+02  6.40000000E+01  0.00000000E+00
  8.40000000E+02  6.40000000E+01  0.00000000E+00
  8.50000000E+02  6.40000000E+01  0.00000000E+00
  8.60000000E+02  6.40000000E+01  0.00000000E+00
  8.70000000E+02  6.40000000E+01  0.00000000E+00
  8.80000000E+02  6.40000000E+01  0.00000000E+00
  8.90000000E+02  6.40000000E+01  0.00000000E+00
  9.00000000E+02  6.40000000E+01  0.00000000E+00
  9.10000000E+02  6.40000000E+01  0.00000000E+00
  9.20000000E+02  6.40000000E+01  0.00000000E+00
  9.30000000E+02  6.40000000E+01  0.00000000E+00
  9.40000000E+02  6.40000000E+01  0.00000000E+00
  9.50000000E+02  6.40000000E+01  0.00000000E+00
  9.60000000E+02  6.40000000E+01  0.00000000E+00
  9.70000000E+02  6.40000000E+01  0.00000000E+00
  9.80000000E+02  6.40000000E+01  0.00000000E+00
  9.90000000E+02  6.40000000E+01  0.00000000E+00
  1.00000000E+03  6.40000000E+01  0.00000000E+00
  0.00000000E+00  6.60000000E+01  0.00000000E+00
  1.00000000E+01  6.60000000E+01  0.00000000E+00
  2.00000000E+01  6.60000000E+01  0.00000000E+00
  3.00000000E+01  6.60000000E+01  0.00000000E+00
  4.00000000E+01  6.60000000E+01  0.00000000E+00
  5.00000000E+01  6.60000000E+01  0.00000000E+00
  6.00000000E+01  6.60000000E+01  0.00000000E+00
  7.00000000E+01  6.60000000E+01  0.00000000E+00
  8.00000000E+01  6.60000000E+01  0.00000000E+00
  9.00000000E+01  6.60000000E+01  0.00000000E+00
  1.00000000E+02  6.60000000E+01  0.00000000E+00
  1.10000000E+02  6.60000000E+01  0.00000000E+00
  1.20000000E+02  6.60000000E+01  0.00000000E+00
  1.30000000E+02  6.60000000E+01  0.00000000E+00
  1.40000000E+02  6.60000000E+01  0.00000000E+00
  1.50000000E+02  6.60000000E+01  0.00000000E+00
  1.60000000E+02  6.60000000E+01  0.00000000E+00
  1.70000000E+02  6.60000000E+01  0.00000000E+00
  1.80000000E+02  6.60000000E+01  0.00000000E+00
  1.90000000E+02  6.60000000E+01  0.00000000E+00
  2.00000000E+02  6.60000000E+01  0.00000000E+00
  2.10000000E+02  6.60000000E+01  0.00000000E+00
  2.20000000E+02  6.60000000E+01  0.00000000E+00
  2.30000000E+02  6.60000000E+01  0.00000000E+00
  2.40000000E+02  6.60000000E+01  0.00000000E+00
  2.50000000E+02  6.60000000E+01  0.00000000E+00
  2.60000000E+02  6.60000000E+01  0.00000000E+00
  2.70000000E+02  6.60000000E+01  0.00000000E+00
  2.80000000E+02  6.60000000E+01  0.00000000E+00
  2.90000000E+02  6.60000000E+01  0.00000000E+00
  3.00000000E+02  6.60000000E+01  0.00000000E+00
  3.10000000E+02  6.60000000E+01  0.00000000E+00
  3.20000000E+02  6.60000000E+01  0.00000000E+00
  3.30000000E+02  6.60000000E+01  0.00000000E+00
  3.40000000E+02  6.60000000E+01  0.00000000E+00
  3.50000000E+02  6.60000000E+01  0.00000000E+00
  3.60000000E+02  6.60000000E+01  0.00000000E+00
  3.70000000E+02  6.60000000E+01  0.00000000E+00
  3.80000000E+02  6.60000000E+01  0.00000000E+00
  3.90000000E+02  6.60000000E+01  0.00000000E+00
  4.00000000E+02  6.60000000E+01  0.00000000E+00
  4.10000000E+02  6.60000000E+01  0.00000000E+00
  4.20000000E+02  6.60000000E+01  0.00000000E+00
  4.30000000E+02  6.60000000E+01  0.00000000E+00
  4.40000000E+02  6.60000000E+01  0.00000000E+00
  4.50000000E+02  6.60000000E+01  0.00000000E+00
  4.60000000E+02  6.60000000E+01  0.00000000E+00
  4.70000000E+02  6.60000000E+01  0.00000000E+00
  4.80000000E+02  6.60000000E+01  0.00000000E+00
  4.90000000E+02  6.60000000E+01  0.00000000E+00
  5.00000000E+02  6.60000000E+01  0.00000000E+00
  5.10000000E+02  6.60000000E+01  0.00000000E+00
  5.20000000E+02  6.60000000E+01  0.00000000E+00
  5.30000000E+02  6.60000000E+01  0.00000000E+00
  5.40000000E+02  6.60000000E+01  0.00000000E+00
  5.50000000E+02  6.60000000E+01  0.00000000E+00
  5.60000000E+02  6.60000000E+01  0.00000000E+00
  5.70000000E+02  6.60000000E+01  0.00000000E+00
  5.80000000E+02  6.60000000E+01  0.00000000E+00
  5.90000000E+02  6.60000000E+01  0.00000000E+00
  6.00000000E+02  6.60000000E+01  0.00000000E+00
  6.10000000E+02  6.60000000E+01  0.00000000E+00
  6.20000000E+02  6.60000000E+01  0.00000000E+00
  6.30000000E+02  6.60000000E+01  0.00000000E+00
  6.40000000E+02  6.60000000E+01  0.00000000E+00
  6.50000000E+02  6.60000000E+01  0.00000000E+00
  6.60000000E+02  6.60000000E+01  0.00000000E+00
  6.70000000E+02  6.60000000E+01  0.00000000E+00
  6.80000000E+02  6.60000000E+01  0.00000000E+00
  6.90000000E+02  6.60000000E+01  0.00000000E+00
  7.00000000E+02  6.60000000E+01  0.00000000E+00
  7.10000000E+02  6.60000000E+01  0.00000000E+00
  7.20000000E+02  6.60000000E+01  0.00000000E+00
  7.30000000E+02  6.60000000E+01  0.00000000E+00
  7.40000000E+02  6.60000000E+01  0.00000000E+00
  7.50000000E+02  6.60000000E+01  0.00000000E+00
  7.60000000E+02  6.60000000E+01  0.00000000E+00
  7.70000000E+02  6.60000000E+01  0.00000000E+00
  7.80000000E+02  6.60000000E+01  0.00000000E+00
  7.90000000E+02  6.60000000E+01  0.00000000E+00
  8.00000000E+02  6.60000000E+01  0.00000000E+00
  8.10000000E+02  6.60000000E+01  0.00000000E+00
  8.20000000E+02  6.60000000E+01  0.00000000E+00
  8.30000000E+02  6.60000000E+01  0.00000000E+00
  8.40000000E+02  6.60000000E+01  0.00000000E+00
  8.50000000E+02  6.60000000E+01  0.00000000E+00
  8.60000000E+02  6.60000000E+01  0.00000000E+00
  8.70000000E+02  6.60000000E+01  0.00000000E+00
  8.80000000E+02  6.60000000E+01  0.00000000E+00
  8.90000000E+02  6.60000000E+01  0.00000000E+00
  9.00000000E+02  6.60000000E+01  0.00000000E+00
  9.10000000E+02  6.60000000E+01  0.00000000E+00
  9.20000000E+02  6.60000000E+01  0.00000000E+00
  9.30000000E+02  6.60000000E+01  0.00000000E+00
  9.40000000E+02  6.60000000E+01  0.00000000E+00
  9.50000000E+02  6.60000000E+01  0.00000000E+00
  9.60000000E+02  6.60000000E+01  0.00000000E+00
  9.70000000E+02  6.60000000E+01  0.00000000E+00
  9.80000000E+02  6.60000000E+01  0.00000000E+00
  9.90000000E+02  6.60000000E+01  0.00000000E+00
  1.00000000E+03  6.60000000E+01  0.00000000E+00
  0.00000000E+00  6.80000000E+01  0.00000000E+00
  1.00000000E+01  6.80000000E+01  0.00000000E+00
  2.00000000E+01  6.80000000E+01  0.00000000E+00
  3.00000000E+01  6.80000000E+01  0.00000000E+00
  4.00000000E+01  6.80000000E+01  0.00000000E+00
  5.00000000E+01  6.80000000E+01  0.00000000E+00
  6.00000000E+01  6.80000000E+01  0.00000000E+00
  7.00000000E+01  6.80000000E+01  0.00000000E+00
  8.00000000E+01  6.80000000E+01  0.00000000E+00
  9.00000000E+01  6.80000000E+01  0.00000000E+00
  1.00000000E+02  6.80000000E+01  0.00000000E+00
  1.10000000E+02  6.80000000E+01  0.00000000E+00
  1.20000000E+02  6.80000000E+01  0.00000000E+00
  1.30000000E+02  6.80000000E+01  0.00000000E+00
  1.40000000E+02  6.80000000E+01  0.00000000E+00
  1.50000000E+02  6.80000000E+01  0.00000000E+00
  1.60000000E+02  6.80000000E+01  0.00000000E+00
  1.70000000E+02  6.80000000E+01  0.00000000E+00
  1.80000000E+02  6.80000000E+01  0.00000000E+00
  1.90000000E+02  6.80000000E+01  0.00000000E+00
  2.00000000E+02  6.80000000E+01  0.00000000E+00
  2.10000000E+02  6.80000000E+01  0.00000000E+00
  2.20000000E+02  6.80000000E+01  0.00000000E+00
  2.30000000E+02  6.80000000E+01  0.00000000E+00
  2.40000000E+02  6.80000000E+01  0.00000000E+00
  2.50000000E+02  6.80000000E+01  0.00000000E+00
  2.60000000E+02  6.80000000E+01  0.00000000E+00
  2.70000000E+02  6.80000000E+01  0.00000000E+00
  2.80000000E+02  6.80000000E+01  0.00000000E+00
  2.90000000E+02  6.80000000E+01  0.00000000E+00
  3.00000000E+02  6.80000000E+01  0.00000000E+00
  3.10000000E+02  6.80000000E+01  0.00000000E+00
  3.20000000E+02  6.80000000E+01  0.00000000E+00
  3.30000000E+02  6.80000000E+01  0.00000000E+00
  3.40000000E+02  6.80000000E+01  0.00000000E+00
  3.50000000E+02  6.80000000E+01  0.00000000E+00
  3.60000000E+02  6.80000000E+01  0.00000000E+00
  3.70000000E+02  6.80000000E+01  0.00000000E+00
  3.80000000E+02  6.80000000E+01  0.00000000E+00
  3.90000000E+02  6.80000000E+01  0.00000000E+00
  4.00000000E+02  6.80000000E+01  0.00000000E+00
  4.10000000E+02  6.80000000E+01  0.00000000E+00
  4.20000000E+02  6.80000000E+01  0.00000000E+00
  4.30000000E+02  6.80000000E+01  0.00000000E+00
  4.40000000E+02  6.80000000E+01  0.00000000E+00
  4.50000000E+02  6.80000000E+01  0.00000000E+00
  4.60000000E+02  6.80000000E+01  0.00000000E+00
  4.70000000E+02  6.80000000E+01  0.00000000E+00
  4.80000000E+02  6.80000000E+01  0.00000000E+00
  4.90000000E+02  6.80000000E+01  0.00000000E+00
  5.00000000E+02  6.80000000E+01  0.00000000E+00
  5.10000000E+02  6.80000000E+01  0.00000000E+00
  5.20000000E+02  6.80000000E+01  0.00000000E+00
  5.30000000E+02  6.80000000E+01  0.00000000E+00
  5.40000000E+02  6.80000000E+01  0.00000000E+00
  5.50000000E+02  6.80000000E+01  0.00000000E+00
  5.60000000E+02  6.80000000E+01  0.00000000E+00
  5.70000000E+02  6.80000000E+01  0.00000000E+00
  5.80000000E+02  6.80000000E+01  0.00000000E+00
  5.90000000E+02  6.80000000E+01  0.00000000E+00
  6.00000000E+02  6.80000000E+01  0.00000000E+00
  6.10000000E+02  6.80000000E+01  0.00000000E+00
  6.20000000E+02  6.80000000E+01  0.00000000E+00
  6.30000000E+02  6.80000000E+01  0.00000000E+00
  6.40000000E+02  6.80000000E+01  0.00000000E+00
  6.50000000E+02  6.80000000E+01  0.00000000E+00
  6.60000000E+02  6.80000000E+01  0.00000000E+00
  6.70000000E+02  6.80000000E+01  0.00000000E+00
  6.80000000E+02  6.80000000E+01  0.00000000E+00
  6.90000000E+02  6.80000000E+01  0.00000000E+00
  7.00000000E+02  6.80000000E+01  0.00000000E+00
  7.10000000E+02  6.80000000E+01  0.00000000E+00
  7.20000000E+02  6.80000000E+01  0.00000000E+00
  7.30000000E+02  6.80000000E+01  0.00000000E+00
  7.40000000E+02  6.80000000E+01  0.00000000E+00
  7.50000000E+02  6.80000000E+01  0.00000000E+00
  7.60000000E+02  6.80000000E+01  0.00000000E+00
  7.70000000E+02  6.80000000E+01  0.00000000E+00
  7.80000000E+02  6.80000000E+01  0.00000000E+00
  7.90000000E+02  6.80000000E+01  0.00000000E+00
  8.00000000E+02  6.80000000E+01  0.00000000E+00
  8.10000000E+02  6.80000000E+01  0.00000000E+00
  8.20000000E+02  6.80000000E+01  0.00000000E+00
  8.30000000E+02  6.80000000E+01  0.00000000E+00
  8.40000000E+02  6.80000000E+01  0.00000000E+00
  8.50000000E+02  6.80000000E+01  0.00000000E+00
  8.60000000E+02  6.80000000E+01  0.00000000E+00
  8.70000000E+02  6.80000000E+01  0.00000000E+00
  8.80000000E+02  6.80000000E+01  0.00000000E+00
  8.90000000E+02  6.80000000E+01  0.00000000E+00
  9.00000000E+02  6.80000000E+01  0.00000000E+00
  9.10000000E+02  6.80000000E+01  0.00000000E+00
  9.20000000E+02  6.80000000E+01  0.00000000E+00
  9.30000000E+02  6.80000000E+01  0.00000000E+00
  9.40000000E+02  6.80000000E+01  0.00000000E+00
  9.50000000E+02  6.80000000E+01  0.00000000E+00
  9.60000000E+02  6.80000000E+01  0.00000000E+00
  9.70000000E+02  6.80000000E+01  0.00000000E+00
  9.80000000E+02  6.80000000E+01  0.00000000E+00
  9.90000000E+02  6.80000000E+01  0.00000000E+00
  1.00000000E+03  6.80000000E+01  0.00000000E+00
  0.00000000E+00  7.00000000E+01  0.00000000E+00
  1.00000000E+01  7.00000000E+01  0.00000000E+00
  2.00000000E+01  7.00000000E+01  0.00000000E+00
  3.00000000E+01  7.00000000E+01  0.00000000E+00
  4.00000000E+01  7.00000000E+01  0.00000000E+00
  5.00000000E+01  7.00000000E+01  0.00000000E+00
  6.00000000E+01  7.00000000E+01  0.00000000E+00
  7.00000000E+01  7.00000000E+01  0.00000000E+00
  8.00000000E+01  7.00000000E+01  0.00000000E+00
  9.00000000E+01  7.00000000E+01  0.00000000E+00
  1.00000000E+02  7.00000000E+01  0.00000000E+00
  1.10000000E+02  7.00000000E+01  0.00000000E+00
  1.20000000E+02  7.00000000E+01  0.00000000E+00
  1.30000000E+02  7.00000000E+01  0.00000000E+00
  1.40000000E+02  7.00000000E+01  0.00000000E+00
  1.50000000E+02  7.00000000E+01  0.00000000E+00
  1.60000000E+02  7.00000000E+01  0.00000000E+00
  1.70000000E+02  7.00000000E+01  0.00000000E+00
  1.80000000E+02  7.00000000E+01  0.00000000E+00
  1.90000000E+02  7.00000000E+01  0.00000000E+00
  2.00000000E+02  7.00000000E+01  0.00000000E+00
  2.10000000E+02  7.00000000E+01  0.00000000E+00
  2.20000000E+02  7.00000000E+01  0.00000000E+00
  2.30000000E+02  7.00000000E+01  0.00000000E+00
  2.40000000E+02  7.00000000E+01  0.00000000E+00
  2.50000000E+02  7.00000000E+01  0.00000000E+00
  2.60000000E+02  7.00000000E+01  0.00000000E+00
  2.70000000E+02  7.00000000E+01  0.00000000E+00
  2.80000000E+02  7.00000000E+01  0.00000000E+00
  2.90000000E+02  7.00000000E+01  0.00000000E+00
  3.00000000E+02  7.00000000E+01  0.00000000E+00
  3.10000000E+02  7.00000000E+01  0.00000000E+00
  3.20000000E+02  7.00000000E+01  0.00000000E+00
  3.30000000E+02  7.00000000E+01  0.00000000E+00
  3.40000000E+02  7.00000000E+01  0.00000000E+00
  3.50000000E+02  7.00000000E+01  0.00000000E+00
  3.60000000E+02  7.00000000E+01  0.00000000E+00
  3.70000000E+02  7.00000000E+01  0.00000000E+00
  3.80000000E+02  7.00000000E+01  0.00000000E+00
  3.90000000E+02  7.00000000E+01  0.00000000E+00
  4.00000000E+02  7.00000000E+01  0.00000000E+00
  4.10000000E+02  7.00000000E+01  0.00000000E+00
  4.20000000E+02  7.00000000E+01  0.00000000E+00
  4.30000000E+02  7.00000000E+01  0.00000000E+00
  4.40000000E+02  7.00000000E+01  0.00000000E+00
  4.50000000E+02  7.00000000E+01  0.00000000E+00
  4.60000000E+02  7.00000000E+01  0.00000000E+00
  4.70000000E+02  7.00000000E+01  0.00000000E+00
  4.80000000E+02  7.00000000E+01  0.00000000E+00
  4.90000000E+02  7.00000000E+01  0.00000000E+00
  5.00000000E+02  7.00000000E+01  0.00000000E+00
  5.10000000E+02  7.00000000E+01  0.00000000E+00
  5.20000000E+02  7.00000000E+01  0.00000000E+00
  5.30000000E+02  7.00000000E+01  0.00000000E+00
  5.40000000E+02  7.00000000E+01  0.00000000E+00
  5.50000000E+02  7.00000000E+01  0.00000000E+00
  5.60000000E+02  7.00000000E+01  0.00000000E+00
  5.70000000E+02  7.00000000E+01  0.00000000E+00
  5.80000000E+02  7.00000000E+01  0.00000000E+00
  5.90000000E+02  7.00000000E+01  0.00000000E+00
  6.00000000E+02  7.00000000E+01  0.00000000E+00
  6.10000000E+02  7.00000000E+01  0.00000000E+00
  6.20000000E+02  7.00000000E+01  0.00000000E+00
  6.30000000E+02  7.00000000E+01  0.00000000E+00
  6.40000000E+02  7.00000000E+01  0.00000000E+00
  6.50000000E+02  7.00000000E+01  0.00000000E+00
  6.60000000E+02  7.00000000E+01  0.00000000E+00
  6.70000000E+02  7.00000000E+01  0.00000000E+00
  6.80000000E+02  7.00000000E+01  0.00000000E+00
  6.90000000E+02  7.00000000E+01  0.00000000E+00
  7.00000000E+02  7.00000000E+01  0.00000000E+00
  7.10000000E+02  7.00000000E+01  0.00000000E+00
  7.20000000E+02  7.00000000E+01  0.00000000E+00
  7.30000000E+02  7.00000000E+01  0.00000000E+00
  7.40000000E+02  7.00000000E+01  0.00000000E+00
  7.50000000E+02  7.00000000E+01  0.00000000E+00
  7.60000000E+02  7.00000000E+01  0.00000000E+00
  7.70000000E+02  7.00000000E+01  0.00000000E+00
  7.80000000E+02  7.00000000E+01  0.00000000E+00
  7.90000000E+02  7.00000000E+01  0.00000000E+00
  8.00000000E+02  7.00000000E+01  0.00000000E+00
  8.10000000E+02  7.00000000E+01  0.00000000E+00
  8.20000000E+02  7.00000000E+01  0.00000000E+00
  8.30000000E+02  7.00000000E+01  0.00000000E+00
  8.40000000E+02  7.00000000E+01  0.00000000E+00
  8.50000000E+02  7.00000000E+01  0.00000000E+00
  8.60000000E+02  7.00000000E+01  0.00000000E+00
  8.70000000E+02  7.00000000E+01  0.00000000E+00
  8.80000000E+02  7.00000000E+01  0.00000000E+00
  8.90000000E+02  7.00000000E+01  0.00000000E+00
  9.00000000E+02  7.00000000E+01  0.00000000E+00
  9.10000000E+02  7.00000000E+01  0.00000000E+00
  9.20000000E+02  7.00000000E+01  0.00000000E+00
  9.30000000E+02  7.00000000E+01  0.00000000E+00
  9.40000000E+02  7.00000000E+01  0.00000000E+00
  9.50000000E+02  7.00000000E+01  0.00000000E+00
  9.60000000E+02  7.00000000E+01  0.00000000E+00
  9.70000000E+02  7.00000000E+01  0.00000000E+00
  9.80000000E+02  7.00000000E+01  0.00000000E+00
  9.90000000E+02  7.00000000E+01  0.00000000E+00
  1.00000000E+03  7.00000000E+01  0.00000000E+00
  0.00000000E+00  7.20000000E+01  0.00000000E+00
  1.00000000E+01  7.20000000E+01  0.00000000E+00
  2.00000000E+01  7.20000000E+01  0.00000000E+00
  3.00000000E+01  7.20000000E+01  0.00000000E+00
  4.00000000E+01  7.20000000E+01  0.00000000E+00
  5.00000000E+01  7.20000000E+01  0.00000000E+00
  6.00000000E+01  7.20000000E+01  0.00000000E+00
  7.00000000E+01  7.20000000E+01  0.00000000E+00
  8.00000000E+01  7.20000000E+01  0.00000000E+00
  9.00000000E+01  7.20000000E+01  0.00000000E+00
  1.00000000E+02  7.20000000E+01  0.00000000E+00
  1.10000000E+02  7.20000000E+01  0.00000000E+00
  1.20000000E+02  7.20000000E+01  0.00000000E+00
  1.30000000E+02  7.20000000E+01  0.00000000E+00
  1.40000000E+02  7.20000000E+01  0.00000000E+00
  1.50000000E+02  7.20000000E+01  0.00000000E+00
  1.60000000E+02  7.20000000E+01  0.00000000E+00
  1.70000000E+02  7.20000000E+01  0.00000000E+00
  1.80000000E+02  7.20000000E+01  0.00000000E+00
  1.90000000E+02  7.20000000E+01  0.00000000E+00
  2.00000000E+02  7.20000000E+01  0.00000000E+00
  2.10000000E+02  7.20000000E+01  0.00000000E+00
  2.20000000E+02  7.20000000E+01  0.00000000E+00
  2.30000000E+02  7.20000000E+01  0.00000000E+00
  2.40000000E+02  7.20000000E+01  0.00000000E+00
  2.50000000E+02  7.20000000E+01  0.00000000E+00
  2.60000000E+02  7.20000000E+01  0.00000000E+00
  2.70000000E+02  7.20000000E+01  0.00000000E+00
  2.80000000E+02  7.20000000E+01  0.00000000E+00
  2.90000000E+02  7.20000000E+01  0.00000000E+00
  3.00000000E+02  7.20000000E+01  0.00000000E+00
  3.10000000E+02  7.20000000E+01  0.00000000E+00
  3.20000000E+02  7.20000000E+01  0.00000000E+00
  3.30000000E+02  7.20000000E+01  0.00000000E+00
  3.40000000E+02  7.20000000E+01  0.00000000E+00
  3.50000000E+02  7.20000000E+01  0.00000000E+00
  3.60000000E+02  7.20000000E+01  0.00000000E+00
  3.70000000E+02  7.20000000E+01  0.00000000E+00
  3.80000000E+02  7.20000000E+01  0.00000000E+00
  3.90000000E+02  7.20000000E+01  0.00000000E+00
  4.00000000E+02  7.20000000E+01  0.00000000E+00
  4.10000000E+02  7.20000000E+01  0.00000000E+00
  4.20000000E+02  7.20000000E+01  0.00000000E+00
  4.30000000E+02  7.20000000E+01  0.00000000E+00
  4.40000000E+02  7.20000000E+01  0.00000000E+00
  4.50000000E+02  7.20000000E+01  0.00000000E+00
  4.60000000E+02  7.20000000E+01  0.00000000E+00
  4.70000000E+02  7.20000000E+01  0.00000000E+00
  4.80000000E+02  7.20000000E+01  0.00000000E+00
  4.90000000E+02  7.20000000E+01  0.00000000E+00
  5.00000000E+02  7.20000000E+01  0.00000000E+00
  5.10000000E+02  7.20000000E+01  0.00000000E+00
  5.20000000E+02  7.20000000E+01  0.00000000E+00
  5.30000000E+02  7.20000000E+01  0.00000000E+00
  5.40000000E+02  7.20000000E+01  0.00000000E+00
  5.50000000E+02  7.20000000E+01  0.00000000E+00
  5.60000000E+02  7.20000000E+01  0.00000000E+00
  5.70000000E+02  7.20000000E+01  0.00000000E+00
  5.80000000E+02  7.20000000E+01  0.00000000E+00
  5.90000000E+02  7.20000000E+01  0.00000000E+00
  6.00000000E+02  7.20000000E+01  0.00000000E+00
  6.10000000E+02  7.20000000E+01  0.00000000E+00
  6.20000000E+02  7.20000000E+01  0.00000000E+00
  6.30000000E+02  7.20000000E+01  0.00000000E+00
  6.40000000E+02  7.20000000E+01  0.00000000E+00
  6.50000000E+02  7.20000000E+01  0.00000000E+00
  6.60000000E+02  7.20000000E+01  0.00000000E+00
  6.70000000E+02  7.20000000E+01  0.00000000E+00
  6.80000000E+02  7.20000000E+01  0.00000000E+00
  6.90000000E+02  7.20000000E+01  0.00000000E+00
  7.00000000E+02  7.20000000E+01  0.00000000E+00
  7.10000000E+02  7.20000000E+01  0.00000000E+00
  7.20000000E+02  7.20000000E+01  0.00000000E+00
  7.30000000E+02  7.20000000E+01  0.00000000E+00
  7.40000000E+02  7.20000000E+01  0.00000000E+00
  7.50000000E+02  7.20000000E+01  0.00000000E+00
  7.60000000E+02  7.20000000E+01  0.00000000E+00
  7.70000000E+02  7.20000000E+01  0.00000000E+00
  7.80000000E+02  7.20000000E+01  0.00000000E+00
  7.90000000E+02  7.20000000E+01  0.00000000E+00
  8.00000000E+02  7.20000000E+01  0.00000000E+00
  8.10000000E+02  7.20000000E+01  0.00000000E+00
  8.20000000E+02  7.20000000E+01  0.00000000E+00
  8.30000000E+02  7.20000000E+01  0.00000000E+00
  8.40000000E+02  7.20000000E+01  0.00000000E+00
  8.50000000E+02  7.20000000E+01  0.00000000E+00
  8.60000000E+02  7.20000000E+01  0.00000000E+00
  8.70000000E+02  7.20000000E+01  0.00000000E+00
  8.80000000E+02  7.20000000E+01  0.00000000E+00
  8.90000000E+02  7.20000000E+01  0.00000000E+00
  9.00000000E+02  7.20000000E+01  0.00000000E+00
  9.10000000E+02  7.20000000E+01  0.00000000E+00
  9.20000000E+02  7.20000000E+01  0.00000000E+00
  9.30000000E+02  7.20000000E+01  0.00000000E+00
  9.40000000E+02  7.20000000E+01  0.00000000E+00
  9.50000000E+02  7.20000000E+01  0.00000000E+00
  9.60000000E+02  7.20000000E+01  0.00000000E+00
  9.70000000E+02  7.20000000E+01  0.00000000E+00
  9.80000000E+02  7.20000000E+01  0.00000000E+00
  9.90000000E+02  7.20000000E+01  0.00000000E+00
  1.00000000E+03  7.20000000E+01  0.00000000E+00
  0.00000000E+00  7.40000000E+01  0.00000000E+00
  1.00000000E+01  7.40000000E+01  0.00000000E+00
  2.00000000E+01  7.40000000E+01  0.00000000E+00
  3.00000000E+01  7.40000000E+01  0.00000000E+00
  4.00000000E+01  7.40000000E+01  0.00000000E+00
  5.00000000E+01  7.40000000E+01  0.00000000E+00
  6.00000000E+01  7.40000000E+01  0.00000000E+00
  7.00000000E+01  7.40000000E+01  0.00000000E+00
  8.00000000E+01  7.40000000E+01  0.00000000E+00
  9.00000000E+01  7.40000000E+01  0.00000000E+00
  1.00000000E+02  7.40000000E+01  0.00000000E+00
  1.10000000E+02  7.40000000E+01  0.00000000E+00
  1.20000000E+02  7.40000000E+01  0.00000000E+00
  1.30000000E+02  7.40000000E+01  0.00000000E+00
  1.40000000E+02  7.40000000E+01  0.00000000E+00
  1.50000000E+02  7.40000000E+01  0.00000000E+00
  1.60000000E+02  7.40000000E+01  0.00000000E+00
  1.70000000E+02  7.40000000E+01  0.00000000E+00
  1.80000000E+02  7.40000000E+01  0.00000000E+00
  1.90000000E+02  7.40000000E+01  0.00000000E+00
  2.00000000E+02  7.40000000E+01  0.00000000E+00
  2.10000000E+02  7.40000000E+01  0.00000000E+00
  2.20000000E+02  7.40000000E+01  0.00000000E+00
  2.30000000E+02  7.40000000E+01  0.00000000E+00
  2.40000000E+02  7.40000000E+01  0.00000000E+00
  2.50000000E+02  7.40000000E+01  0.00000000E+00
  2.60000000E+02  7.40000000E+01  0.00000000E+00
  2.70000000E+02  7.40000000E+01  0.00000000E+00
  2.80000000E+02  7.40000000E+01  0.00000000E+00
  2.90000000E+02  7.40000000E+01  0.00000000E+00
  3.00000000E+02  7.40000000E+01  0.00000000E+00
  3.10000000E+02  7.40000000E+01  0.00000000E+00
  3.20000000E+02  7.40000000E+01  0.00000000E+00
  3.30000000E+02  7.40000000E+01  0.00000000E+00
  3.40000000E+02  7.40000000E+01  0.00000000E+00
  3.50000000E+02  7.40000000E+01  0.00000000E+00
  3.60000000E+02  7.40000000E+01  0.00000000E+00
  3.70000000E+02  7.40000000E+01  0.00000000E+00
  3.80000000E+02  7.40000000E+01  0.00000000E+00
  3.90000000E+02  7.40000000E+01  0.00000000E+00
  4.00000000E+02  7.40000000E+01  0.00000000E+00
  4.10000000E+02  7.40000000E+01  0.00000000E+00
  4.20000000E+02  7.40000000E+01  0.00000000E+00
  4.30000000E+02  7.40000000E+01  0.00000000E+00
  4.40000000E+02  7.40000000E+01  0.00000000E+00
  4.50000000E+02  7.40000000E+01  0.00000000E+00
  4.60000000E+02  7.40000000E+01  0.00000000E+00
  4.70000000E+02  7.40000000E+01  0.00000000E+00
  4.80000000E+02  7.40000000E+01  0.00000000E+00
  4.90000000E+02  7.40000000E+01  0.00000000E+00
  5.00000000E+02  7.40000000E+01  0.00000000E+00
  5.10000000E+02  7.40000000E+01  0.00000000E+00
  5.20000000E+02  7.40000000E+01  0.00000000E+00
  5.30000000E+02  7.40000000E+01  0.00000000E+00
  5.40000000E+02  7.40000000E+01  0.00000000E+00
  5.50000000E+02  7.40000000E+01  0.00000000E+00
  5.60000000E+02  7.40000000E+01  0.00000000E+00
  5.70000000E+02  7.40000000E+01  0.00000000E+00
  5.80000000E+02  7.40000000E+01  0.00000000E+00
  5.90000000E+02  7.40000000E+01  0.00000000E+00
  6.00000000E+02  7.40000000E+01  0.00000000E+00
  6.10000000E+02  7.40000000E+01  0.00000000E+00
  6.20000000E+02  7.40000000E+01  0.00000000E+00
  6.30000000E+02  7.40000000E+01  0.00000000E+00
  6.40000000E+02  7.40000000E+01  0.00000000E+00
  6.50000000E+02  7.40000000E+01  0.00000000E+00
  6.60000000E+02  7.40000000E+01  0.00000000E+00
  6.70000000E+02  7.40000000E+01  0.00000000E+00
  6.80000000E+02  7.40000000E+01  0.00000000E+00
  6.90000000E+02  7.40000000E+01  0.00000000E+00
  7.00000000E+02  7.40000000E+01  0.00000000E+00
  7.10000000E+02  7.40000000E+01  0.00000000E+00
  7.20000000E+02  7.40000000E+01  0.00000000E+00
  7.30000000E+02  7.40000000E+01  0.00000000E+00
  7.40000000E+02  7.40000000E+01  0.00000000E+00
  7.50000000E+02  7.40000000E+01  0.00000000E+00
  7.60000000E+02  7.40000000E+01  0.00000000E+00
  7.70000000E+02  7.40000000E+01  0.00000000E+00
  7.80000000E+02  7.40000000E+01  0.00000000E+00
  7.90000000E+02  7.40000000E+01  0.00000000E+00
  8.00000000E+02  7.40000000E+01  0.00000000E+00
  8.10000000E+02  7.40000000E+01  0.00000000E+00
  8.20000000E+02  7.40000000E+01  0.00000000E+00
  8.30000000E+02  7.40000000E+01  0.00000000E+00
  8.40000000E+02  7.40000000E+01  0.00000000E+00
  8.50000000E+02  7.40000000E+01  0.00000000E+00
  8.60000000E+02  7.40000000E+01  0.00000000E+00
  8.70000000E+02  7.40000000E+01  0.00000000E+00
  8.80000000E+02  7.40000000E+01  0.00000000E+00
  8.90000000E+02  7.40000000E+01  0.00000000E+00
  9.00000000E+02  7.40000000E+01  0.00000000E+00
  9.10000000E+02  7.40000000E+01  0.00000000E+00
  9.20000000E+02  7.40000000E+01  0.00000000E+00
  9.30000000E+02  7.40000000E+01  0.00000000E+00
  9.40000000E+02  7.40000000E+01  0.00000000E+00
  9.50000000E+02  7.40000000E+01  0.00000000E+00
  9.60000000E+02  7.40000000E+01  0.00000000E+00
  9.70000000E+02  7.40000000E+01  0.00000000E+00
  9.80000000E+02  7.40000000E+01  0.00000000E+00
  9.90000000E+02  7.40000000E+01  0.00000000E+00
  1.00000000E+03  7.40000000E+01  0.00000000E+00
  0.00000000E+00  7.60000000E+01  0.00000000E+00
  1.00000000E+01  7.60000000E+01  0.00000000E+00
  2.00000000E+01  7.60000000E+01  0.00000000E+00
  3.00000000E+01  7.60000000E+01  0.00000000E+00
  4.00000000E+01  7.60000000E+01  0.00000000E+00
  5.00000000E+01  7.60000000E+01  0.00000000E+00
  6.00000000E+01  7.60000000E+01  0.00000000E+00
  7.00000000E+01  7.60000000E+01  0.00000000E+00
  8.00000000E+01  7.60000000E+01  0.00000000E+00
  9.00000000E+01  7.60000000E+01  0.00000000E+00
  1.00000000E+02  7.60000000E+01  0.00000000E+00
  1.10000000E+02  7.60000000E+01  0.00000000E+00
  1.20000000E+02  7.60000000E+01  0.00000000E+00
  1.30000000E+02  7.60000000E+01  0.00000000E+00
  1.40000000E+02  7.60000000E+01  0.00000000E+00
  1.50000000E+02  7.60000000E+01  0.00000000E+00
  1.60000000E+02  7.60000000E+01  0.00000000E+00
  1.70000000E+02  7.60000000E+01  0.00000000E+00
  1.80000000E+02  7.60000000E+01  0.00000000E+00
  1.90000000E+02  7.60000000E+01  0.00000000E+00
  2.00000000E+02  7.60000000E+01  0.00000000E+00
  2.10000000E+02  7.60000000E+01  0.00000000E+00
  2.20000000E+02  7.60000000E+01  0.00000000E+00
  2.30000000E+02  7.60000000E+01  0.00000000E+00
  2.40000000E+02  7.60000000E+01  0.00000000E+00
  2.50000000E+02  7.60000000E+01  0.00000000E+00
  2.60000000E+02  7.60000000E+01  0.00000000E+00
  2.70000000E+02  7.60000000E+01  0.00000000E+00
  2.80000000E+02  7.60000000E+01  0.00000000E+00
  2.90000000E+02  7.60000000E+01  0.00000000E+00
  3.00000000E+02  7.60000000E+01  0.00000000E+00
  3.10000000E+02  7.60000000E+01  0.00000000E+00
  3.20000000E+02  7.60000000E+01  0.00000000E+00
  3.30000000E+02  7.60000000E+01  0.00000000E+00
  3.40000000E+02  7.60000000E+01  0.00000000E+00
  3.50000000E+02  7.60000000E+01  0.00000000E+00
  3.60000000E+02  7.60000000E+01  0.00000000E+00
  3.70000000E+02  7.60000000E+01  0.00000000E+00
  3.80000000E+02  7.60000000E+01  0.00000000E+00
  3.90000000E+02  7.60000000E+01  0.00000000E+00
  4.00000000E+02  7.60000000E+01  0.00000000E+00
  4.10000000E+02  7.60000000E+01  0.00000000E+00
  4.20000000E+02  7.60000000E+01  0.00000000E+00
  4.30000000E+02  7.60000000E+01  0.00000000E+00
  4.40000000E+02  7.60000000E+01  0.00000000E+00
  4.50000000E+02  7.60000000E+01  0.00000000E+00
  4.60000000E+02  7.60000000E+01  0.00000000E+00
  4.70000000E+02  7.60000000E+01  0.00000000E+00
  4.80000000E+02  7.60000000E+01  0.00000000E+00
  4.90000000E+02  7.60000000E+01  0.00000000E+00
  5.00000000E+02  7.60000000E+01  0.00000000E+00
  5.10000000E+02  7.60000000E+01  0.00000000E+00
  5.20000000E+02  7.60000000E+01  0.00000000E+00
  5.30000000E+02  7.60000000E+01  0.00000000E+00
  5.40000000E+02  7.60000000E+01  0.00000000E+00
  5.50000000E+02  7.60000000E+01  0.00000000E+00
  5.60000000E+02  7.60000000E+01  0.00000000E+00
  5.70000000E+02  7.60000000E+01  0.00000000E+00
  5.80000000E+02  7.60000000E+01  0.00000000E+00
  5.90000000E+02  7.60000000E+01  0.00000000E+00
  6.00000000E+02  7.60000000E+01  0.00000000E+00
  6.10000000E+02  7.60000000E+01  0.00000000E+00
  6.20000000E+02  7.60000000E+01  0.00000000E+00
  6.30000000E+02  7.60000000E+01  0.00000000E+00
  6.40000000E+02  7.60000000E+01  0.00000000E+00
  6.50000000E+02  7.60000000E+01  0.00000000E+00
  6.60000000E+02  7.60000000E+01  0.00000000E+00
  6.70000000E+02  7.60000000E+01  0.00000000E+00
  6.80000000E+02  7.60000000E+01  0.00000000E+00
  6.90000000E+02  7.60000000E+01  0.00000000E+00
  7.00000000E+02  7.60000000E+01  0.00000000E+00
  7.10000000E+02  7.60000000E+01  0.00000000E+00
  7.20000000E+02  7.60000000E+01  0.00000000E+00
  7.30000000E+02  7.60000000E+01  0.00000000E+00
  7.40000000E+02  7.60000000E+01  0.00000000E+00
  7.50000000E+02  7.60000000E+01  0.00000000E+00
  7.60000000E+02  7.60000000E+01  0.00000000E+00
  7.70000000E+02  7.60000000E+01  0.00000000E+00
  7.80000000E+02  7.60000000E+01  0.00000000E+00
  7.90000000E+02  7.60000000E+01  0.00000000E+00
  8.00000000E+02  7.60000000E+01  0.00000000E+00
  8.10000000E+02  7.60000000E+01  0.00000000E+00
  8.20000000E+02  7.60000000E+01  0.00000000E+00
  8.30000000E+02  7.60000000E+01  0.00000000E+00
  8.40000000E+02  7.60000000E+01  0.00000000E+00
  8.50000000E+02  7.60000000E+01  0.00000000E+00
  8.60000000E+02  7.60000000E+01  0.00000000E+00
  8.70000000E+02  7.60000000E+01  0.00000000E+00
  8.80000000E+02  7.60000000E+01  0.00000000E+00
  8.90000000E+02  7.60000000E+01  0.00000000E+00
  9.00000000E+02  7.60000000E+01  0.00000000E+00
  9.10000000E+02  7.60000000E+01  0.00000000E+00
  9.20000000E+02  7.60000000E+01  0.00000000E+00
  9.30000000E+02  7.60000000E+01  0.00000000E+00
  9.40000000E+02  7.60000000E+01  0.00000000E+00
  9.50000000E+02  7.60000000E+01  0.00000000E+00
  9.60000000E+02  7.60000000E+01  0.00000000E+00
  9.70000000E+02  7.60000000E+01  0.00000000E+00
  9.80000000E+02  7.60000000E+01  0.00000000E+00
  9.90000000E+02  7.60000000E+01  0.00000000E+00
  1.00000000E+03  7.60000000E+01  0.00000000E+00
  0.00000000E+00  7.80000000E+01  0.00000000E+00
  1.00000000E+01  7.80000000E+01  0.00000000E+00
  2.00000000E+01  7.80000000E+01  0.00000000E+00
  3.00000000E+01  7.80000000E+01  0.00000000E+00
  4.00000000E+01  7.80000000E+01  0.00000000E+00
  5.00000000E+01  7.80000000E+01  0.00000000E+00
  6.00000000E+01  7.80000000E+01  0.00000000E+00
  7.00000000E+01  7.80000000E+01  0.00000000E+00
  8.00000000E+01  7.80000000E+01  0.00000000E+00
  9.00000000E+01  7.80000000E+01  0.00000000E+00
  1.00000000E+02  7.80000000E+01  0.00000000E+00
  1.10000000E+02  7.80000000E+01  0.00000000E+00
  1.20000000E+02  7.80000000E+01  0.00000000E+00
  1.30000000E+02  7.80000000E+01  0.00000000E+00
  1.40000000E+02  7.80000000E+01  0.00000000E+00
  1.50000000E+02  7.80000000E+01  0.00000000E+00
  1.60000000E+02  7.80000000E+01  0.00000000E+00
  1.70000000E+02  7.80000000E+01  0.00000000E+00
  1.80000000E+02  7.80000000E+01  0.00000000E+00
  1.90000000E+02  7.80000000E+01  0.00000000E+00
  2.00000000E+02  7.80000000E+01  0.00000000E+00
  2.10000000E+02  7.80000000E+01  0.00000000E+00
  2.20000000E+02  7.80000000E+01  0.00000000E+00
  2.30000000E+02  7.80000000E+01  0.00000000E+00
  2.40000000E+02  7.80000000E+01  0.00000000E+00
  2.50000000E+02  7.80000000E+01  0.00000000E+00
  2.60000000E+02  7.80000000E+01  0.00000000E+00
  2.70000000E+02  7.80000000E+01  0.00000000E+00
  2.80000000E+02  7.80000000E+01  0.00000000E+00
  2.90000000E+02  7.80000000E+01  0.00000000E+00
  3.00000000E+02  7.80000000E+01  0.00000000E+00
  3.10000000E+02  7.80000000E+01  0.00000000E+00
  3.20000000E+02  7.80000000E+01  0.00000000E+00
  3.30000000E+02  7.80000000E+01  0.00000000E+00
  3.40000000E+02  7.80000000E+01  0.00000000E+00
  3.50000000E+02  7.80000000E+01  0.00000000E+00
  3.60000000E+02  7.80000000E+01  0.00000000E+00
  3.70000000E+02  7.80000000E+01  0.00000000E+00
  3.80000000E+02  7.80000000E+01  0.00000000E+00
  3.90000000E+02  7.80000000E+01  0.00000000E+00
  4.00000000E+02  7.80000000E+01  0.00000000E+00
  4.10000000E+02  7.80000000E+01  0.00000000E+00
  4.20000000E+02  7.80000000E+01  0.00000000E+00
  4.30000000E+02  7.80000000E+01  0.00000000E+00
  4.40000000E+02  7.80000000E+01  0.00000000E+00
  4.50000000E+02  7.80000000E+01  0.00000000E+00
  4.60000000E+02  7.80000000E+01  0.00000000E+00
  4.70000000E+02  7.80000000E+01  0.00000000E+00
  4.80000000E+02  7.80000000E+01  0.00000000E+00
  4.90000000E+02  7.80000000E+01  0.00000000E+00
  5.00000000E+02  7.80000000E+01  0.00000000E+00
  5.10000000E+02  7.80000000E+01  0.00000000E+00
  5.20000000E+02  7.80000000E+01  0.00000000E+00
  5.30000000E+02  7.80000000E+01  0.00000000E+00
  5.40000000E+02  7.80000000E+01  0.00000000E+00
  5.50000000E+02  7.80000000E+01  0.00000000E+00
  5.60000000E+02  7.80000000E+01  0.00000000E+00
  5.70000000E+02  7.80000000E+01  0.00000000E+00
  5.80000000E+02  7.80000000E+01  0.00000000E+00
  5.90000000E+02  7.80000000E+01  0.00000000E+00
  6.00000000E+02  7.80000000E+01  0.00000000E+00
  6.10000000E+02  7.80000000E+01  0.00000000E+00
  6.20000000E+02  7.80000000E+01  0.00000000E+00
  6.30000000E+02  7.80000000E+01  0.00000000E+00
  6.40000000E+02  7.80000000E+01  0.00000000E+00
  6.50000000E+02  7.80000000E+01  0.00000000E+00
  6.60000000E+02  7.80000000E+01  0.00000000E+00
  6.70000000E+02  7.80000000E+01  0.00000000E+00
  6.80000000E+02  7.80000000E+01  0.00000000E+00
  6.90000000E+02  7.80000000E+01  0.00000000E+00
  7.00000000E+02  7.80000000E+01  0.00000000E+00
  7.10000000E+02  7.80000000E+01  0.00000000E+00
  7.20000000E+02  7.80000000E+01  0.00000000E+00
  7.30000000E+02  7.80000000E+01  0.00000000E+00
  7.40000000E+02  7.80000000E+01  0.00000000E+00
  7.50000000E+02  7.80000000E+01  0.00000000E+00
  7.60000000E+02  7.80000000E+01  0.00000000E+00
  7.70000000E+02  7.80000000E+01  0.00000000E+00
  7.80000000E+02  7.80000000E+01  0.00000000E+00
  7.90000000E+02  7.80000000E+01  0.00000000E+00
  8.00000000E+02  7.80000000E+01  0.00000000E+00
  8.10000000E+02  7.80000000E+01  0.00000000E+00
  8.20000000E+02  7.80000000E+01  0.00000000E+00
  8.30000000E+02  7.80000000E+01  0.00000000E+00
  8.40000000E+02  7.80000000E+01  0.00000000E+00
  8.50000000E+02  7.80000000E+01  0.00000000E+00
  8.60000000E+02  7.80000000E+01  0.00000000E+00
  8.70000000E+02  7.80000000E+01  0.00000000E+00
  8.80000000E+02  7.80000000E+01  0.00000000E+00
  8.90000000E+02  7.80000000E+01  0.00000000E+00
  9.00000000E+02  7.80000000E+01  0.00000000E+00
  9.10000000E+02  7.80000000E+01  0.00000000E+00
  9.20000000E+02  7.80000000E+01  0.00000000E+00
  9.30000000E+02  7.80000000E+01  0.00000000E+00
  9.40000000E+02  7.80000000E+01  0.00000000E+00
  9.50000000E+02  7.80000000E+01  0.00000000E+00
  9.60000000E+02  7.80000000E+01  0.00000000E+00
  9.70000000E+02  7.80000000E+01  0.00000000E+00
  9.80000000E+02  7.80000000E+01  0.00000000E+00
  9.90000000E+02  7.80000000E+01  0.00000000E+00
  1.00000000E+03  7.80000000E+01  0.00000000E+00
  0.00000000E+00  8.00000000E+01  0.00000000E+00
  1.00000000E+01  8.00000000E+01  0.00000000E+00
  2.00000000E+01  8.00000000E+01  0.00000000E+00
  3.00000000E+01  8.00000000E+01  0.00000000E+00
  4.00000000E+01  8.00000000E+01  0.00000000E+00
  5.00000000E+01  8.00000000E+01  0.00000000E+00
  6.00000000E+01  8.00000000E+01  0.00000000E+00
  7.00000000E+01  8.00000000E+01  0.00000000E+00
  8.00000000E+01  8.00000000E+01  0.00000000E+00
  9.00000000E+01  8.00000000E+01  0.00000000E+00
  1.00000000E+02  8.00000000E+01  0.00000000E+00
  1.10000000E+02  8.00000000E+01  0.00000000E+00
  1.20000000E+02  8.00000000E+01  0.00000000E+00
  1.30000000E+02  8.00000000E+01  0.00000000E+00
  1.40000000E+02  8.00000000E+01  0.00000000E+00
  1.50000000E+02  8.00000000E+01  0.00000000E+00
  1.60000000E+02  8.00000000E+01  0.00000000E+00
  1.70000000E+02  8.00000000E+01  0.00000000E+00
  1.80000000E+02  8.00000000E+01  0.00000000E+00
  1.90000000E+02  8.00000000E+01  0.00000000E+00
  2.00000000E+02  8.00000000E+01  0.00000000E+00
  2.10000000E+02  8.00000000E+01  0.00000000E+00
  2.20000000E+02  8.00000000E+01  0.00000000E+00
  2.30000000E+02  8.00000000E+01  0.00000000E+00
  2.40000000E+02  8.00000000E+01  0.00000000E+00
  2.50000000E+02  8.00000000E+01  0.00000000E+00
  2.60000000E+02  8.00000000E+01  0.00000000E+00
  2.70000000E+02  8.00000000E+01  0.00000000E+00
  2.80000000E+02  8.00000000E+01  0.00000000E+00
  2.90000000E+02  8.00000000E+01  0.00000000E+00
  3.00000000E+02  8.00000000E+01  0.00000000E+00
  3.10000000E+02  8.00000000E+01  0.00000000E+00
  3.20000000E+02  8.00000000E+01  0.00000000E+00
  3.30000000E+02  8.00000000E+01  0.00000000E+00
  3.40000000E+02  8.00000000E+01  0.00000000E+00
  3.50000000E+02  8.00000000E+01  0.00000000E+00
  3.60000000E+02  8.00000000E+01  0.00000000E+00
  3.70000000E+02  8.00000000E+01  0.00000000E+00
  3.80000000E+02  8.00000000E+01  0.00000000E+00
  3.90000000E+02  8.00000000E+01  0.00000000E+00
  4.00000000E+02  8.00000000E+01  0.00000000E+00
  4.10000000E+02  8.00000000E+01  0.00000000E+00
  4.20000000E+02  8.00000000E+01  0.00000000E+00
  4.30000000E+02  8.00000000E+01  0.00000000E+00
  4.40000000E+02  8.00000000E+01  0.00000000E+00
  4.50000000E+02  8.00000000E+01  0.00000000E+00
  4.60000000E+02  8.00000000E+01  0.00000000E+00
  4.70000000E+02  8.00000000E+01  0.00000000E+00
  4.80000000E+02  8.00000000E+01  0.00000000E+00
  4.90000000E+02  8.00000000E+01  0.00000000E+00
  5.00000000E+02  8.00000000E+01  0.00000000E+00
  5.10000000E+02  8.00000000E+01  0.00000000E+00
  5.20000000E+02  8.00000000E+01  0.00000000E+00
  5.30000000E+02  8.00000000E+01  0.00000000E+00
  5.40000000E+02  8.00000000E+01  0.00000000E+00
  5.50000000E+02  8.00000000E+01  0.00000000E+00
  5.60000000E+02  8.00000000E+01  0.00000000E+00
  5.70000000E+02  8.00000000E+01  0.00000000E+00
  5.80000000E+02  8.00000000E+01  0.00000000E+00
  5.90000000E+02  8.00000000E+01  0.00000000E+00
  6.00000000E+02  8.00000000E+01  0.00000000E+00
  6.10000000E+02  8.00000000E+01  0.00000000E+00
  6.20000000E+02  8.00000000E+01  0.00000000E+00
  6.30000000E+02  8.00000000E+01  0.00000000E+00
  6.40000000E+02  8.00000000E+01  0.00000000E+00
  6.50000000E+02  8.00000000E+01  0.00000000E+00
  6.60000000E+02  8.00000000E+01  0.00000000E+00
  6.70000000E+02  8.00000000E+01  0.00000000E+00
  6.80000000E+02  8.00000000E+01  0.00000000E+00
  6.90000000E+02  8.00000000E+01  0.00000000E+00
  7.00000000E+02  8.00000000E+01  0.00000000E+00
  7.10000000E+02  8.00000000E+01  0.00000000E+00
  7.20000000E+02  8.00000000E+01  0.00000000E+00
  7.30000000E+02  8.00000000E+01  0.00000000E+00
  7.40000000E+02  8.00000000E+01  0.00000000E+00
  7.50000000E+02  8.00000000E+01  0.00000000E+00
  7.60000000E+02  8.00000000E+01  0.00000000E+00
  7.70000000E+02  8.00000000E+01  0.00000000E+00
  7.80000000E+02  8.00000000E+01  0.00000000E+00
  7.90000000E+02  8.00000000E+01  0.00000000E+00
  8.00000000E+02  8.00000000E+01  0.00000000E+00
  8.10000000E+02  8.00000000E+01  0.00000000E+00
  8.20000000E+02  8.00000000E+01  0.00000000E+00
  8.30000000E+02  8.00000000E+01  0.00000000E+00
  8.40000000E+02  8.00000000E+01  0.00000000E+00
  8.50000000E+02  8.00000000E+01  0.00000000E+00
  8.60000000E+02  8.00000000E+01  0.00000000E+00
  8.70000000E+02  8.00000000E+01  0.00000000E+00
  8.80000000E+02  8.00000000E+01  0.00000000E+00
  8.90000000E+02  8.00000000E+01  0.00000000E+00
  9.00000000E+02  8.00000000E+01  0.00000000E+00
  9.10000000E+02  8.00000000E+01  0.00000000E+00
  9.20000000E+02  8.00000000E+01  0.00000000E+00
  9.30000000E+02  8.00000000E+01  0.00000000E+00
  9.40000000E+02  8.00000000E+01  0.00000000E+00
  9.50000000E+02  8.00000000E+01  0.00000000E+00
  9.60000000E+02  8.00000000E+01  0.00000000E+00
  9.70000000E+02  8.00000000E+01  0.00000000E+00
  9.80000000E+02  8.00000000E+01  0.00000000E+00
  9.90000000E+02  8.00000000E+01  0.00000000E+00
  1.00000000E+03  8.00000000E+01  0.00000000E+00
  0.00000000E+00  8.20000000E+01  0.00000000E+00
  1.00000000E+01  8.20000000E+01  0.00000000E+00
  2.00000000E+01  8.20000000E+01  0.00000000E+00
  3.00000000E+01  8.20000000E+01  0.00000000E+00
  4.00000000E+01  8.20000000E+01  0.00000000E+00
  5.00000000E+01  8.20000000E+01  0.00000000E+00
  6.00000000E+01  8.20000000E+01  0.00000000E+00
  7.00000000E+01  8.20000000E+01  0.00000000E+00
  8.00000000E+01  8.20000000E+01  0.00000000E+00
  9.00000000E+01  8.20000000E+01  0.00000000E+00
  1.00000000E+02  8.20000000E+01  0.00000000E+00
  1.10000000E+02  8.20000000E+01  0.00000000E+00
  1.20000000E+02  8.20000000E+01  0.00000000E+00
  1.30000000E+02  8.20000000E+01  0.00000000E+00
  1.40000000E+02  8.20000000E+01  0.00000000E+00
  1.50000000E+02  8.20000000E+01  0.00000000E+00
  1.60000000E+02  8.20000000E+01  0.00000000E+00
  1.70000000E+02  8.20000000E+01  0.00000000E+00
  1.80000000E+02  8.20000000E+01  0.00000000E+00
  1.90000000E+02  8.20000000E+01  0.00000000E+00
  2.00000000E+02  8.20000000E+01  0.00000000E+00
  2.10000000E+02  8.20000000E+01  0.00000000E+00
  2.20000000E+02  8.20000000E+01  0.00000000E+00
  2.30000000E+02  8.20000000E+01  0.00000000E+00
  2.40000000E+02  8.20000000E+01  0.00000000E+00
  2.50000000E+02  8.20000000E+01  0.00000000E+00
  2.60000000E+02  8.20000000E+01  0.00000000E+00
  2.70000000E+02  8.20000000E+01  0.00000000E+00
  2.80000000E+02  8.20000000E+01  0.00000000E+00
  2.90000000E+02  8.20000000E+01  0.00000000E+00
  3.00000000E+02  8.20000000E+01  0.00000000E+00
  3.10000000E+02  8.20000000E+01  0.00000000E+00
  3.20000000E+02  8.20000000E+01  0.00000000E+00
  3.30000000E+02  8.20000000E+01  0.00000000E+00
  3.40000000E+02  8.20000000E+01  0.00000000E+00
  3.50000000E+02  8.20000000E+01  0.00000000E+00
  3.60000000E+02  8.20000000E+01  0.00000000E+00
  3.70000000E+02  8.20000000E+01  0.00000000E+00
  3.80000000E+02  8.20000000E+01  0.00000000E+00
  3.90000000E+02  8.20000000E+01  0.00000000E+00
  4.00000000E+02  8.20000000E+01  0.00000000E+00
  4.10000000E+02  8.20000000E+01  0.00000000E+00
  4.20000000E+02  8.20000000E+01  0.00000000E+00
  4.30000000E+02  8.20000000E+01  0.00000000E+00
  4.40000000E+02  8.20000000E+01  0.00000000E+00
  4.50000000E+02  8.20000000E+01  0.00000000E+00
  4.60000000E+02  8.20000000E+01  0.00000000E+00
  4.70000000E+02  8.20000000E+01  0.00000000E+00
  4.80000000E+02  8.20000000E+01  0.00000000E+00
  4.90000000E+02  8.20000000E+01  0.00000000E+00
  5.00000000E+02  8.20000000E+01  0.00000000E+00
  5.10000000E+02  8.20000000E+01  0.00000000E+00
  5.20000000E+02  8.20000000E+01  0.00000000E+00
  5.30000000E+02  8.20000000E+01  0.00000000E+00
  5.40000000E+02  8.20000000E+01  0.00000000E+00
  5.50000000E+02  8.20000000E+01  0.00000000E+00
  5.60000000E+02  8.20000000E+01  0.00000000E+00
  5.70000000E+02  8.20000000E+01  0.00000000E+00
  5.80000000E+02  8.20000000E+01  0.00000000E+00
  5.90000000E+02  8.20000000E+01  0.00000000E+00
  6.00000000E+02  8.20000000E+01  0.00000000E+00
  6.10000000E+02  8.20000000E+01  0.00000000E+00
  6.20000000E+02  8.20000000E+01  0.00000000E+00
  6.30000000E+02  8.20000000E+01  0.00000000E+00
  6.40000000E+02  8.20000000E+01  0.00000000E+00
  6.50000000E+02  8.20000000E+01  0.00000000E+00
  6.60000000E+02  8.20000000E+01  0.00000000E+00
  6.70000000E+02  8.20000000E+01  0.00000000E+00
  6.80000000E+02  8.20000000E+01  0.00000000E+00
  6.90000000E+02  8.20000000E+01  0.00000000E+00
  7.00000000E+02  8.20000000E+01  0.00000000E+00
  7.10000000E+02  8.20000000E+01  0.00000000E+00
  7.20000000E+02  8.20000000E+01  0.00000000E+00
  7.30000000E+02  8.20000000E+01  0.00000000E+00
  7.40000000E+02  8.20000000E+01  0.00000000E+00
  7.50000000E+02  8.20000000E+01  0.00000000E+00
  7.60000000E+02  8.20000000E+01  0.00000000E+00
  7.70000000E+02  8.20000000E+01  0.00000000E+00
  7.80000000E+02  8.20000000E+01  0.00000000E+00
  7.90000000E+02  8.20000000E+01  0.00000000E+00
  8.00000000E+02  8.20000000E+01  0.00000000E+00
  8.10000000E+02  8.20000000E+01  0.00000000E+00
  8.20000000E+02  8.20000000E+01  0.00000000E+00
  8.30000000E+02  8.20000000E+01  0.00000000E+00
  8.40000000E+02  8.20000000E+01  0.00000000E+00
  8.50000000E+02  8.20000000E+01  0.00000000E+00
  8.60000000E+02  8.20000000E+01  0.00000000E+00
  8.70000000E+02  8.20000000E+01  0.00000000E+00
  8.80000000E+02  8.20000000E+01  0.00000000E+00
  8.90000000E+02  8.20000000E+01  0.00000000E+00
  9.00000000E+02  8.20000000E+01  0.00000000E+00
  9.10000000E+02  8.20000000E+01  0.00000000E+00
  9.20000000E+02  8.20000000E+01  0.00000000E+00
  9.30000000E+02  8.20000000E+01  0.00000000E+00
  9.40000000E+02  8.20000000E+01  0.00000000E+00
  9.50000000E+02  8.20000000E+01  0.00000000E+00
  9.60000000E+02  8.20000000E+01  0.00000000E+00
  9.70000000E+02  8.20000000E+01  0.00000000E+00
  9.80000000E+02  8.20000000E+01  0.00000000E+00
  9.90000000E+02  8.20000000E+01  0.00000000E+00
  1.00000000E+03  8.20000000E+01  0.00000000E+00
  0.00000000E+00  8.40000000E+01  0.00000000E+00
  1.00000000E+01  8.40000000E+01  0.00000000E+00
  2.00000000E+01  8.40000000E+01  0.00000000E+00
  3.00000000E+01  8.40000000E+01  0.00000000E+00
  4.00000000E+01  8.40000000E+01  0.00000000E+00
  5.00000000E+01  8.40000000E+01  0.00000000E+00
  6.00000000E+01  8.40000000E+01  0.00000000E+00
  7.00000000E+01  8.40000000E+01  0.00000000E+00
  8.00000000E+01  8.40000000E+01  0.00000000E+00
  9.00000000E+01  8.40000000E+01  0.00000000E+00
  1.00000000E+02  8.40000000E+01  0.00000000E+00
  1.10000000E+02  8.40000000E+01  0.00000000E+00
  1.20000000E+02  8.40000000E+01  0.00000000E+00
  1.30000000E+02  8.40000000E+01  0.00000000E+00
  1.40000000E+02  8.40000000E+01  0.00000000E+00
  1.50000000E+02  8.40000000E+01  0.00000000E+00
  1.60000000E+02  8.40000000E+01  0.00000000E+00
  1.70000000E+02  8.40000000E+01  0.00000000E+00
  1.80000000E+02  8.40000000E+01  0.00000000E+00
  1.90000000E+02  8.40000000E+01  0.00000000E+00
  2.00000000E+02  8.40000000E+01  0.00000000E+00
  2.10000000E+02  8.40000000E+01  0.00000000E+00
  2.20000000E+02  8.40000000E+01  0.00000000E+00
  2.30000000E+02  8.40000000E+01  0.00000000E+00
  2.40000000E+02  8.40000000E+01  0.00000000E+00
  2.50000000E+02  8.40000000E+01  0.00000000E+00
  2.60000000E+02  8.40000000E+01  0.00000000E+00
  2.70000000E+02  8.40000000E+01  0.00000000E+00
  2.80000000E+02  8.40000000E+01  0.00000000E+00
  2.90000000E+02  8.40000000E+01  0.00000000E+00
  3.00000000E+02  8.40000000E+01  0.00000000E+00
  3.10000000E+02  8.40000000E+01  0.00000000E+00
  3.20000000E+02  8.40000000E+01  0.00000000E+00
  3.30000000E+02  8.40000000E+01  0.00000000E+00
  3.40000000E+02  8.40000000E+01  0.00000000E+00
  3.50000000E+02  8.40000000E+01  0.00000000E+00
  3.60000000E+02  8.40000000E+01  0.00000000E+00
  3.70000000E+02  8.40000000E+01  0.00000000E+00
  3.80000000E+02  8.40000000E+01  0.00000000E+00
  3.90000000E+02  8.40000000E+01  0.00000000E+00
  4.00000000E+02  8.40000000E+01  0.00000000E+00
  4.10000000E+02  8.40000000E+01  0.00000000E+00
  4.20000000E+02  8.40000000E+01  0.00000000E+00
  4.30000000E+02  8.40000000E+01  0.00000000E+00
  4.40000000E+02  8.40000000E+01  0.00000000E+00
  4.50000000E+02  8.40000000E+01  0.00000000E+00
  4.60000000E+02  8.40000000E+01  0.00000000E+00
  4.70000000E+02  8.40000000E+01  0.00000000E+00
  4.80000000E+02  8.40000000E+01  0.00000000E+00
  4.90000000E+02  8.40000000E+01  0.00000000E+00
  5.00000000E+02  8.40000000E+01  0.00000000E+00
  5.10000000E+02  8.40000000E+01  0.00000000E+00
  5.20000000E+02  8.40000000E+01  0.00000000E+00
  5.30000000E+02  8.40000000E+01  0.00000000E+00
  5.40000000E+02  8.40000000E+01  0.00000000E+00
  5.50000000E+02  8.40000000E+01  0.00000000E+00
  5.60000000E+02  8.40000000E+01  0.00000000E+00
  5.70000000E+02  8.40000000E+01  0.00000000E+00
  5.80000000E+02  8.40000000E+01  0.00000000E+00
  5.90000000E+02  8.40000000E+01  0.00000000E+00
  6.00000000E+02  8.40000000E+01  0.00000000E+00
  6.10000000E+02  8.40000000E+01  0.00000000E+00
  6.20000000E+02  8.40000000E+01  0.00000000E+00
  6.30000000E+02  8.40000000E+01  0.00000000E+00
  6.40000000E+02  8.40000000E+01  0.00000000E+00
  6.50000000E+02  8.40000000E+01  0.00000000E+00
  6.60000000E+02  8.40000000E+01  0.00000000E+00
  6.70000000E+02  8.40000000E+01  0.00000000E+00
  6.80000000E+02  8.40000000E+01  0.00000000E+00
  6.90000000E+02  8.40000000E+01  0.00000000E+00
  7.00000000E+02  8.40000000E+01  0.00000000E+00
  7.10000000E+02  8.40000000E+01  0.00000000E+00
  7.20000000E+02  8.40000000E+01  0.00000000E+00
  7.30000000E+02  8.40000000E+01  0.00000000E+00
  7.40000000E+02  8.40000000E+01  0.00000000E+00
  7.50000000E+02  8.40000000E+01  0.00000000E+00
  7.60000000E+02  8.40000000E+01  0.00000000E+00
  7.70000000E+02  8.40000000E+01  0.00000000E+00
  7.80000000E+02  8.40000000E+01  0.00000000E+00
  7.90000000E+02  8.40000000E+01  0.00000000E+00
  8.00000000E+02  8.40000000E+01  0.00000000E+00
  8.10000000E+02  8.40000000E+01  0.00000000E+00
  8.20000000E+02  8.40000000E+01  0.00000000E+00
  8.30000000E+02  8.40000000E+01  0.00000000E+00
  8.40000000E+02  8.40000000E+01  0.00000000E+00
  8.50000000E+02  8.40000000E+01  0.00000000E+00
  8.60000000E+02  8.40000000E+01  0.00000000E+00
  8.70000000E+02  8.40000000E+01  0.00000000E+00
  8.80000000E+02  8.40000000E+01  0.00000000E+00
  8.90000000E+02  8.40000000E+01  0.00000000E+00
  9.00000000E+02  8.40000000E+01  0.00000000E+00
  9.10000000E+02  8.40000000E+01  0.00000000E+00
  9.20000000E+02  8.40000000E+01  0.00000000E+00
  9.30000000E+02  8.40000000E+01  0.00000000E+00
  9.40000000E+02  8.40000000E+01  0.00000000E+00
  9.50000000E+02  8.40000000E+01  0.00000000E+00
  9.60000000E+02  8.40000000E+01  0.00000000E+00
  9.70000000E+02  8.40000000E+01  0.00000000E+00
  9.80000000E+02  8.40000000E+01  0.00000000E+00
  9.90000000E+02  8.40000000E+01  0.00000000E+00
  1.00000000E+03  8.40000000E+01  0.00000000E+00
  0.00000000E+00  8.60000000E+01  0.00000000E+00
  1.00000000E+01  8.60000000E+01  0.00000000E+00
  2.00000000E+01  8.60000000E+01  0.00000000E+00
  3.00000000E+01  8.60000000E+01  0.00000000E+00
  4.00000000E+01  8.60000000E+01  0.00000000E+00
  5.00000000E+01  8.60000000E+01  0.00000000E+00
  6.00000000E+01  8.60000000E+01  0.00000000E+00
  7.00000000E+01  8.60000000E+01  0.00000000E+00
  8.00000000E+01  8.60000000E+01  0.00000000E+00
  9.00000000E+01  8.60000000E+01  0.00000000E+00
  1.00000000E+02  8.60000000E+01  0.00000000E+00
  1.10000000E+02  8.60000000E+01  0.00000000E+00
  1.20000000E+02  8.60000000E+01  0.00000000E+00
  1.30000000E+02  8.60000000E+01  0.00000000E+00
  1.40000000E+02  8.60000000E+01  0.00000000E+00
  1.50000000E+02  8.60000000E+01  0.00000000E+00
  1.60000000E+02  8.60000000E+01  0.00000000E+00
  1.70000000E+02  8.60000000E+01  0.00000000E+00
  1.80000000E+02  8.60000000E+01  0.00000000E+00
  1.90000000E+02  8.60000000E+01  0.00000000E+00
  2.00000000E+02  8.60000000E+01  0.00000000E+00
  2.10000000E+02  8.60000000E+01  0.00000000E+00
  2.20000000E+02  8.60000000E+01  0.00000000E+00
  2.30000000E+02  8.60000000E+01  0.00000000E+00
  2.40000000E+02  8.60000000E+01  0.00000000E+00
  2.50000000E+02  8.60000000E+01  0.00000000E+00
  2.60000000E+02  8.60000000E+01  0.00000000E+00
  2.70000000E+02  8.60000000E+01  0.00000000E+00
  2.80000000E+02  8.60000000E+01  0.00000000E+00
  2.90000000E+02  8.60000000E+01  0.00000000E+00
  3.00000000E+02  8.60000000E+01  0.00000000E+00
  3.10000000E+02  8.60000000E+01  0.00000000E+00
  3.20000000E+02  8.60000000E+01  0.00000000E+00
  3.30000000E+02  8.60000000E+01  0.00000000E+00
  3.40000000E+02  8.60000000E+01  0.00000000E+00
  3.50000000E+02  8.60000000E+01  0.00000000E+00
  3.60000000E+02  8.60000000E+01  0.00000000E+00
  3.70000000E+02  8.60000000E+01  0.00000000E+00
  3.80000000E+02  8.60000000E+01  0.00000000E+00
  3.90000000E+02  8.60000000E+01  0.00000000E+00
  4.00000000E+02  8.60000000E+01  0.00000000E+00
  4.10000000E+02  8.60000000E+01  0.00000000E+00
  4.20000000E+02  8.60000000E+01  0.00000000E+00
  4.30000000E+02  8.60000000E+01  0.00000000E+00
  4.40000000E+02  8.60000000E+01  0.00000000E+00
  4.50000000E+02  8.60000000E+01  0.00000000E+00
  4.60000000E+02  8.60000000E+01  0.00000000E+00
  4.70000000E+02  8.60000000E+01  0.00000000E+00
  4.80000000E+02  8.60000000E+01  0.00000000E+00
  4.90000000E+02  8.60000000E+01  0.00000000E+00
  5.00000000E+02  8.60000000E+01  0.00000000E+00
  5.10000000E+02  8.60000000E+01  0.00000000E+00
  5.20000000E+02  8.60000000E+01  0.00000000E+00
  5.30000000E+02  8.60000000E+01  0.00000000E+00
  5.40000000E+02  8.60000000E+01  0.00000000E+00
  5.50000000E+02  8.60000000E+01  0.00000000E+00
  5.60000000E+02  8.60000000E+01  0.00000000E+00
  5.70000000E+02  8.60000000E+01  0.00000000E+00
  5.80000000E+02  8.60000000E+01  0.00000000E+00
  5.90000000E+02  8.60000000E+01  0.00000000E+00
  6.00000000E+02  8.60000000E+01  0.00000000E+00
  6.10000000E+02  8.60000000E+01  0.00000000E+00
  6.20000000E+02  8.60000000E+01  0.00000000E+00
  6.30000000E+02  8.60000000E+01  0.00000000E+00
  6.40000000E+02  8.60000000E+01  0.00000000E+00
  6.50000000E+02  8.60000000E+01  0.00000000E+00
  6.60000000E+02  8.60000000E+01  0.00000000E+00
  6.70000000E+02  8.60000000E+01  0.00000000E+00
  6.80000000E+02  8.60000000E+01  0.00000000E+00
  6.90000000E+02  8.60000000E+01  0.00000000E+00
  7.00000000E+02  8.60000000E+01  0.00000000E+00
  7.10000000E+02  8.60000000E+01  0.00000000E+00
  7.20000000E+02  8.60000000E+01  0.00000000E+00
  7.30000000E+02  8.60000000E+01  0.00000000E+00
  7.40000000E+02  8.60000000E+01  0.00000000E+00
  7.50000000E+02  8.60000000E+01  0.00000000E+00
  7.60000000E+02  8.60000000E+01  0.00000000E+00
  7.70000000E+02  8.60000000E+01  0.00000000E+00
  7.80000000E+02  8.60000000E+01  0.00000000E+00
  7.90000000E+02  8.60000000E+01  0.00000000E+00
  8.00000000E+02  8.60000000E+01  0.00000000E+00
  8.10000000E+02  8.60000000E+01  0.00000000E+00
  8.20000000E+02  8.60000000E+01  0.00000000E+00
  8.30000000E+02  8.60000000E+01  0.00000000E+00
  8.40000000E+02  8.60000000E+01  0.00000000E+00
  8.50000000E+02  8.60000000E+01  0.00000000E+00
  8.60000000E+02  8.60000000E+01  0.00000000E+00
  8.70000000E+02  8.60000000E+01  0.00000000E+00
  8.80000000E+02  8.60000000E+01  0.00000000E+00
  8.90000000E+02  8.60000000E+01  0.00000000E+00
  9.00000000E+02  8.60000000E+01  0.00000000E+00
  9.10000000E+02  8.60000000E+01  0.00000000E+00
  9.20000000E+02  8.60000000E+01  0.00000000E+00
  9.30000000E+02  8.60000000E+01  0.00000000E+00
  9.40000000E+02  8.60000000E+01  0.00000000E+00
  9.50000000E+02  8.60000000E+01  0.00000000E+00
  9.60000000E+02  8.60000000E+01  0.00000000E+00
  9.70000000E+02  8.60000000E+01  0.00000000E+00
  9.80000000E+02  8.60000000E+01  0.00000000E+00
  9.90000000E+02  8.60000000E+01  0.00000000E+00
  1.00000000E+03  8.60000000E+01  0.00000000E+00
  0.00000000E+00  8.80000000E+01  0.00000000E+00
  1.00000000E+01  8.80000000E+01  0.00000000E+00
  2.00000000E+01  8.80000000E+01  0.00000000E+00
  3.00000000E+01  8.80000000E+01  0.00000000E+00
  4.00000000E+01  8.80000000E+01  0.00000000E+00
  5.00000000E+01  8.80000000E+01  0.00000000E+00
  6.00000000E+01  8.80000000E+01  0.00000000E+00
  7.00000000E+01  8.80000000E+01  0.00000000E+00
  8.00000000E+01  8.80000000E+01  0.00000000E+00
  9.00000000E+01  8.80000000E+01  0.00000000E+00
  1.00000000E+02  8.80000000E+01  0.00000000E+00
  1.10000000E+02  8.80000000E+01  0.00000000E+00
  1.20000000E+02  8.80000000E+01  0.00000000E+00
  1.30000000E+02  8.80000000E+01  0.00000000E+00
  1.40000000E+02  8.80000000E+01  0.00000000E+00
  1.50000000E+02  8.80000000E+01  0.00000000E+00
  1.60000000E+02  8.80000000E+01  0.00000000E+00
  1.70000000E+02  8.80000000E+01  0.00000000E+00
  1.80000000E+02  8.80000000E+01  0.00000000E+00
  1.90000000E+02  8.80000000E+01  0.00000000E+00
  2.00000000E+02  8.80000000E+01  0.00000000E+00
  2.10000000E+02  8.80000000E+01  0.00000000E+00
  2.20000000E+02  8.80000000E+01  0.00000000E+00
  2.30000000E+02  8.80000000E+01  0.00000000E+00
  2.40000000E+02  8.80000000E+01  0.00000000E+00
  2.50000000E+02  8.80000000E+01  0.00000000E+00
  2.60000000E+02  8.80000000E+01  0.00000000E+00
  2.70000000E+02  8.80000000E+01  0.00000000E+00
  2.80000000E+02  8.80000000E+01  0.00000000E+00
  2.90000000E+02  8.80000000E+01  0.00000000E+00
  3.00000000E+02  8.80000000E+01  0.00000000E+00
  3.10000000E+02  8.80000000E+01  0.00000000E+00
  3.20000000E+02  8.80000000E+01  0.00000000E+00
  3.30000000E+02  8.80000000E+01  0.00000000E+00
  3.40000000E+02  8.80000000E+01  0.00000000E+00
  3.50000000E+02  8.80000000E+01  0.00000000E+00
  3.60000000E+02  8.80000000E+01  0.00000000E+00
  3.70000000E+02  8.80000000E+01  0.00000000E+00
  3.80000000E+02  8.80000000E+01  0.00000000E+00
  3.90000000E+02  8.80000000E+01  0.00000000E+00
  4.00000000E+02  8.80000000E+01  0.00000000E+00
  4.10000000E+02  8.80000000E+01  0.00000000E+00
  4.20000000E+02  8.80000000E+01  0.00000000E+00
  4.30000000E+02  8.80000000E+01  0.00000000E+00
  4.40000000E+02  8.80000000E+01  0.00000000E+00
  4.50000000E+02  8.80000000E+01  0.00000000E+00
  4.60000000E+02  8.80000000E+01  0.00000000E+00
  4.70000000E+02  8.80000000E+01  0.00000000E+00
  4.80000000E+02  8.80000000E+01  0.00000000E+00
  4.90000000E+02  8.80000000E+01  0.00000000E+00
  5.00000000E+02  8.80000000E+01  0.00000000E+00
  5.10000000E+02  8.80000000E+01  0.00000000E+00
  5.20000000E+02  8.80000000E+01  0.00000000E+00
  5.30000000E+02  8.80000000E+01  0.00000000E+00
  5.40000000E+02  8.80000000E+01  0.00000000E+00
  5.50000000E+02  8.80000000E+01  0.00000000E+00
  5.60000000E+02  8.80000000E+01  0.00000000E+00
  5.70000000E+02  8.80000000E+01  0.00000000E+00
  5.80000000E+02  8.80000000E+01  0.00000000E+00
  5.90000000E+02  8.80000000E+01  0.00000000E+00
  6.00000000E+02  8.80000000E+01  0.00000000E+00
  6.10000000E+02  8.80000000E+01  0.00000000E+00
  6.20000000E+02  8.80000000E+01  0.00000000E+00
  6.30000000E+02  8.80000000E+01  0.00000000E+00
  6.40000000E+02  8.80000000E+01  0.00000000E+00
  6.50000000E+02  8.80000000E+01  0.00000000E+00
  6.60000000E+02  8.80000000E+01  0.00000000E+00
  6.70000000E+02  8.80000000E+01  0.00000000E+00
  6.80000000E+02  8.80000000E+01  0.00000000E+00
  6.90000000E+02  8.80000000E+01  0.00000000E+00
  7.00000000E+02  8.80000000E+01  0.00000000E+00
  7.10000000E+02  8.80000000E+01  0.00000000E+00
  7.20000000E+02  8.80000000E+01  0.00000000E+00
  7.30000000E+02  8.80000000E+01  0.00000000E+00
  7.40000000E+02  8.80000000E+01  0.00000000E+00
  7.50000000E+02  8.80000000E+01  0.00000000E+00
  7.60000000E+02  8.80000000E+01  0.00000000E+00
  7.70000000E+02  8.80000000E+01  0.00000000E+00
  7.80000000E+02  8.80000000E+01  0.00000000E+00
  7.90000000E+02  8.80000000E+01  0.00000000E+00
  8.00000000E+02  8.80000000E+01  0.00000000E+00
  8.10000000E+02  8.80000000E+01  0.00000000E+00
  8.20000000E+02  8.80000000E+01  0.00000000E+00
  8.30000000E+02  8.80000000E+01  0.00000000E+00
  8.40000000E+02  8.80000000E+01  0.00000000E+00
  8.50000000E+02  8.80000000E+01  0.00000000E+00
  8.60000000E+02  8.80000000E+01  0.00000000E+00
  8.70000000E+02  8.80000000E+01  0.00000000E+00
  8.80000000E+02  8.80000000E+01  0.00000000E+00
  8.90000000E+02  8.80000000E+01  0.00000000E+00
  9.00000000E+02  8.80000000E+01  0.00000000E+00
  9.10000000E+02  8.80000000E+01  0.00000000E+00
  9.20000000E+02  8.80000000E+01  0.00000000E+00
  9.30000000E+02  8.80000000E+01  0.00000000E+00
  9.40000000E+02  8.80000000E+01  0.00000000E+00
  9.50000000E+02  8.80000000E+01  0.00000000E+00
  9.60000000E+02  8.80000000E+01  0.00000000E+00
  9.70000000E+02  8.80000000E+01  0.00000000E+00
  9.80000000E+02  8.80000000E+01  0.00000000E+00
  9.90000000E+02  8.80000000E+01  0.00000000E+00
  1.00000000E+03  8.80000000E+01  0.00000000E+00
  0.00000000E+00  9.00000000E+01  0.00000000E+00
  1.00000000E+01  9.00000000E+01  0.00000000E+00
  2.00000000E+01  9.00000000E+01  0.00000000E+00
  3.00000000E+01  9.00000000E+01  0.00000000E+00
  4.00000000E+01  9.00000000E+01  0.00000000E+00
  5.00000000E+01  9.00000000E+01  0.00000000E+00
  6.00000000E+01  9.00000000E+01  0.00000000E+00
  7.00000000E+01  9.00000000E+01  0.00000000E+00
  8.00000000E+01  9.00000000E+01  0.00000000E+00
  9.00000000E+01  9.00000000E+01  0.00000000E+00
  1.00000000E+02  9.00000000E+01  0.00000000E+00
  1.10000000E+02  9.00000000E+01  0.00000000E+00
  1.20000000E+02  9.00000000E+01  0.00000000E+00
  1.30000000E+02  9.00000000E+01  0.00000000E+00
  1.40000000E+02  9.00000000E+01  0.00000000E+00
  1.50000000E+02  9.00000000E+01  0.00000000E+00
  1.60000000E+02  9.00000000E+01  0.00000000E+00
  1.70000000E+02  9.00000000E+01  0.00000000E+00
  1.80000000E+02  9.00000000E+01  0.00000000E+00
  1.90000000E+02  9.00000000E+01  0.00000000E+00
  2.00000000E+02  9.00000000E+01  0.00000000E+00
  2.10000000E+02  9.00000000E+01  0.00000000E+00
  2.20000000E+02  9.00000000E+01  0.00000000E+00
  2.30000000E+02  9.00000000E+01  0.00000000E+00
  2.40000000E+02  9.00000000E+01  0.00000000E+00
  2.50000000E+02  9.00000000E+01  0.00000000E+00
  2.60000000E+02  9.00000000E+01  0.00000000E+00
  2.70000000E+02  9.00000000E+01  0.00000000E+00
  2.80000000E+02  9.00000000E+01  0.00000000E+00
  2.90000000E+02  9.00000000E+01  0.00000000E+00
  3.00000000E+02  9.00000000E+01  0.00000000E+00
  3.10000000E+02  9.00000000E+01  0.00000000E+00
  3.20000000E+02  9.00000000E+01  0.00000000E+00
  3.30000000E+02  9.00000000E+01  0.00000000E+00
  3.40000000E+02  9.00000000E+01  0.00000000E+00
  3.50000000E+02  9.00000000E+01  0.00000000E+00
  3.60000000E+02  9.00000000E+01  0.00000000E+00
  3.70000000E+02  9.00000000E+01  0.00000000E+00
  3.80000000E+02  9.00000000E+01  0.00000000E+00
  3.90000000E+02  9.00000000E+01  0.00000000E+00
  4.00000000E+02  9.00000000E+01  0.00000000E+00
  4.10000000E+02  9.00000000E+01  0.00000000E+00
  4.20000000E+02  9.00000000E+01  0.00000000E+00
  4.30000000E+02  9.00000000E+01  0.00000000E+00
  4.40000000E+02  9.00000000E+01  0.00000000E+00
  4.50000000E+02  9.00000000E+01  0.00000000E+00
  4.60000000E+02  9.00000000E+01  0.00000000E+00
  4.70000000E+02  9.00000000E+01  0.00000000E+00
  4.80000000E+02  9.00000000E+01  0.00000000E+00
  4.90000000E+02  9.00000000E+01  0.00000000E+00
  5.00000000E+02  9.00000000E+01  0.00000000E+00
  5.10000000E+02  9.00000000E+01  0.00000000E+00
  5.20000000E+02  9.00000000E+01  0.00000000E+00
  5.30000000E+02  9.00000000E+01  0.00000000E+00
  5.40000000E+02  9.00000000E+01  0.00000000E+00
  5.50000000E+02  9.00000000E+01  0.00000000E+00
  5.60000000E+02  9.00000000E+01  0.00000000E+00
  5.70000000E+02  9.00000000E+01  0.00000000E+00
  5.80000000E+02  9.00000000E+01  0.00000000E+00
  5.90000000E+02  9.00000000E+01  0.00000000E+00
  6.00000000E+02  9.00000000E+01  0.00000000E+00
  6.10000000E+02  9.00000000E+01  0.00000000E+00
  6.20000000E+02  9.00000000E+01  0.00000000E+00
  6.30000000E+02  9.00000000E+01  0.00000000E+00
  6.40000000E+02  9.00000000E+01  0.00000000E+00
  6.50000000E+02  9.00000000E+01  0.00000000E+00
  6.60000000E+02  9.00000000E+01  0.00000000E+00
  6.70000000E+02  9.00000000E+01  0.00000000E+00
  6.80000000E+02  9.00000000E+01  0.00000000E+00
  6.90000000E+02  9.00000000E+01  0.00000000E+00
  7.00000000E+02  9.00000000E+01  0.00000000E+00
  7.10000000E+02  9.00000000E+01  0.00000000E+00
  7.20000000E+02  9.00000000E+01  0.00000000E+00
  7.30000000E+02  9.00000000E+01  0.00000000E+00
  7.40000000E+02  9.00000000E+01  0.00000000E+00
  7.50000000E+02  9.00000000E+01  0.00000000E+00
  7.60000000E+02  9.00000000E+01  0.00000000E+00
  7.70000000E+02  9.00000000E+01  0.00000000E+00
  7.80000000E+02  9.00000000E+01  0.00000000E+00
  7.90000000E+02  9.00000000E+01  0.00000000E+00
  8.00000000E+02  9.00000000E+01  0.00000000E+00
  8.10000000E+02  9.00000000E+01  0.00000000E+00
  8.20000000E+02  9.00000000E+01  0.00000000E+00
  8.30000000E+02  9.00000000E+01  0.00000000E+00
  8.40000000E+02  9.00000000E+01  0.00000000E+00
  8.50000000E+02  9.00000000E+01  0.00000000E+00
  8.60000000E+02  9.00000000E+01  0.00000000E+00
  8.70000000E+02  9.00000000E+01  0.00000000E+00
  8.80000000E+02  9.00000000E+01  0.00000000E+00
  8.90000000E+02  9.00000000E+01  0.00000000E+00
  9.00000000E+02  9.00000000E+01  0.00000000E+00
  9.10000000E+02  9.00000000E+01  0.00000000E+00
  9.20000000E+02  9.00000000E+01  0.00000000E+00
  9.30000000E+02  9.00000000E+01  0.00000000E+00
  9.40000000E+02  9.00000000E+01  0.00000000E+00
  9.50000000E+02  9.00000000E+01  0.00000000E+00
  9.60000000E+02  9.00000000E+01  0.00000000E+00
  9.70000000E+02  9.00000000E+01  0.00000000E+00
  9.80000000E+02  9.00000000E+01  0.00000000E+00
  9.90000000E+02  9.00000000E+01  0.00000000E+00
  1.00000000E+03  9.00000000E+01  0.00000000E+00
  0.00000000E+00  9.20000000E+01  0.00000000E+00
  1.00000000E+01  9.20000000E+01  0.00000000E+00
  2.00000000E+01  9.20000000E+01  0.00000000E+00
  3.00000000E+01  9.20000000E+01  0.00000000E+00
  4.00000000E+01  9.20000000E+01  0.00000000E+00
  5.00000000E+01  9.20000000E+01  0.00000000E+00
  6.00000000E+01  9.20000000E+01  0.00000000E+00
  7.00000000E+01  9.20000000E+01  0.00000000E+00
  8.00000000E+01  9.20000000E+01  0.00000000E+00
  9.00000000E+01  9.20000000E+01  0.00000000E+00
  1.00000000E+02  9.20000000E+01  0.00000000E+00
  1.10000000E+02  9.20000000E+01  0.00000000E+00
  1.20000000E+02  9.20000000E+01  0.00000000E+00
  1.30000000E+02  9.20000000E+01  0.00000000E+00
  1.40000000E+02  9.20000000E+01  0.00000000E+00
  1.50000000E+02  9.20000000E+01  0.00000000E+00
  1.60000000E+02  9.20000000E+01  0.00000000E+00
  1.70000000E+02  9.20000000E+01  0.00000000E+00
  1.80000000E+02  9.20000000E+01  0.00000000E+00
  1.90000000E+02  9.20000000E+01  0.00000000E+00
  2.00000000E+02  9.20000000E+01  0.00000000E+00
  2.10000000E+02  9.20000000E+01  0.00000000E+00
  2.20000000E+02  9.20000000E+01  0.00000000E+00
  2.30000000E+02  9.20000000E+01  0.00000000E+00
  2.40000000E+02  9.20000000E+01  0.00000000E+00
  2.50000000E+02  9.20000000E+01  0.00000000E+00
  2.60000000E+02  9.20000000E+01  0.00000000E+00
  2.70000000E+02  9.20000000E+01  0.00000000E+00
  2.80000000E+02  9.20000000E+01  0.00000000E+00
  2.90000000E+02  9.20000000E+01  0.00000000E+00
  3.00000000E+02  9.20000000E+01  0.00000000E+00
  3.10000000E+02  9.20000000E+01  0.00000000E+00
  3.20000000E+02  9.20000000E+01  0.00000000E+00
  3.30000000E+02  9.20000000E+01  0.00000000E+00
  3.40000000E+02  9.20000000E+01  0.00000000E+00
  3.50000000E+02  9.20000000E+01  0.00000000E+00
  3.60000000E+02  9.20000000E+01  0.00000000E+00
  3.70000000E+02  9.20000000E+01  0.00000000E+00
  3.80000000E+02  9.20000000E+01  0.00000000E+00
  3.90000000E+02  9.20000000E+01  0.00000000E+00
  4.00000000E+02  9.20000000E+01  0.00000000E+00
  4.10000000E+02  9.20000000E+01  0.00000000E+00
  4.20000000E+02  9.20000000E+01  0.00000000E+00
  4.30000000E+02  9.20000000E+01  0.00000000E+00
  4.40000000E+02  9.20000000E+01  0.00000000E+00
  4.50000000E+02  9.20000000E+01  0.00000000E+00
  4.60000000E+02  9.20000000E+01  0.00000000E+00
  4.70000000E+02  9.20000000E+01  0.00000000E+00
  4.80000000E+02  9.20000000E+01  0.00000000E+00
  4.90000000E+02  9.20000000E+01  0.00000000E+00
  5.00000000E+02  9.20000000E+01  0.00000000E+00
  5.10000000E+02  9.20000000E+01  0.00000000E+00
  5.20000000E+02  9.20000000E+01  0.00000000E+00
  5.30000000E+02  9.20000000E+01  0.00000000E+00
  5.40000000E+02  9.20000000E+01  0.00000000E+00
  5.50000000E+02  9.20000000E+01  0.00000000E+00
  5.60000000E+02  9.20000000E+01  0.00000000E+00
  5.70000000E+02  9.20000000E+01  0.00000000E+00
  5.80000000E+02  9.20000000E+01  0.00000000E+00
  5.90000000E+02  9.20000000E+01  0.00000000E+00
  6.00000000E+02  9.20000000E+01  0.00000000E+00
  6.10000000E+02  9.20000000E+01  0.00000000E+00
  6.20000000E+02  9.20000000E+01  0.00000000E+00
  6.30000000E+02  9.20000000E+01  0.00000000E+00
  6.40000000E+02  9.20000000E+01  0.00000000E+00
  6.50000000E+02  9.20000000E+01  0.00000000E+00
  6.60000000E+02  9.20000000E+01  0.00000000E+00
  6.70000000E+02  9.20000000E+01  0.00000000E+00
  6.80000000E+02  9.20000000E+01  0.00000000E+00
  6.90000000E+02  9.20000000E+01  0.00000000E+00
  7.00000000E+02  9.20000000E+01  0.00000000E+00
  7.10000000E+02  9.20000000E+01  0.00000000E+00
  7.20000000E+02  9.20000000E+01  0.00000000E+00
  7.30000000E+02  9.20000000E+01  0.00000000E+00
  7.40000000E+02  9.20000000E+01  0.00000000E+00
  7.50000000E+02  9.20000000E+01  0.00000000E+00
  7.60000000E+02  9.20000000E+01  0.00000000E+00
  7.70000000E+02  9.20000000E+01  0.00000000E+00
  7.80000000E+02  9.20000000E+01  0.00000000E+00
  7.90000000E+02  9.20000000E+01  0.00000000E+00
  8.00000000E+02  9.20000000E+01  0.00000000E+00
  8.10000000E+02  9.20000000E+01  0.00000000E+00
  8.20000000E+02  9.20000000E+01  0.00000000E+00
  8.30000000E+02  9.20000000E+01  0.00000000E+00
  8.40000000E+02  9.20000000E+01  0.00000000E+00
  8.50000000E+02  9.20000000E+01  0.00000000E+00
  8.60000000E+02  9.20000000E+01  0.00000000E+00
  8.70000000E+02  9.20000000E+01  0.00000000E+00
  8.80000000E+02  9.20000000E+01  0.00000000E+00
  8.90000000E+02  9.20000000E+01  0.00000000E+00
  9.00000000E+02  9.20000000E+01  0.00000000E+00
  9.10000000E+02  9.20000000E+01  0.00000000E+00
  9.20000000E+02  9.20000000E+01  0.00000000E+00
  9.30000000E+02  9.20000000E+01  0.00000000E+00
  9.40000000E+02  9.20000000E+01  0.00000000E+00
  9.50000000E+02  9.20000000E+01  0.00000000E+00
  9.60000000E+02  9.20000000E+01  0.00000000E+00
  9.70000000E+02  9.20000000E+01  0.00000000E+00
  9.80000000E+02  9.20000000E+01  0.00000000E+00
  9.90000000E+02  9.20000000E+01  0.00000000E+00
  1.00000000E+03  9.20000000E+01  0.00000000E+00
  0.00000000E+00  9.40000000E+01  0.00000000E+00
  1.00000000E+01  9.40000000E+01  0.00000000E+00
  2.00000000E+01  9.40000000E+01  0.00000000E+00
  3.00000000E+01  9.40000000E+01  0.00000000E+00
  4.00000000E+01  9.40000000E+01  0.00000000E+00
  5.00000000E+01  9.40000000E+01  0.00000000E+00
  6.00000000E+01  9.40000000E+01  0.00000000E+00
  7.00000000E+01  9.40000000E+01  0.00000000E+00
  8.00000000E+01  9.40000000E+01  0.00000000E+00
  9.00000000E+01  9.40000000E+01  0.00000000E+00
  1.00000000E+02  9.40000000E+01  0.00000000E+00
  1.10000000E+02  9.40000000E+01  0.00000000E+00
  1.20000000E+02  9.40000000E+01  0.00000000E+00
  1.30000000E+02  9.40000000E+01  0.00000000E+00
  1.40000000E+02  9.40000000E+01  0.00000000E+00
  1.50000000E+02  9.40000000E+01  0.00000000E+00
  1.60000000E+02  9.40000000E+01  0.00000000E+00
  1.70000000E+02  9.40000000E+01  0.00000000E+00
  1.80000000E+02  9.40000000E+01  0.00000000E+00
  1.90000000E+02  9.40000000E+01  0.00000000E+00
  2.00000000E+02  9.40000000E+01  0.00000000E+00
  2.10000000E+02  9.40000000E+01  0.00000000E+00
  2.20000000E+02  9.40000000E+01  0.00000000E+00
  2.30000000E+02  9.40000000E+01  0.00000000E+00
  2.40000000E+02  9.40000000E+01  0.00000000E+00
  2.50000000E+02  9.40000000E+01  0.00000000E+00
  2.60000000E+02  9.40000000E+01  0.00000000E+00
  2.70000000E+02  9.40000000E+01  0.00000000E+00
  2.80000000E+02  9.40000000E+01  0.00000000E+00
  2.90000000E+02  9.40000000E+01  0.00000000E+00
  3.00000000E+02  9.40000000E+01  0.00000000E+00
  3.10000000E+02  9.40000000E+01  0.00000000E+00
  3.20000000E+02  9.40000000E+01  0.00000000E+00
  3.30000000E+02  9.40000000E+01  0.00000000E+00
  3.40000000E+02  9.40000000E+01  0.00000000E+00
  3.50000000E+02  9.40000000E+01  0.00000000E+00
  3.60000000E+02  9.40000000E+01  0.00000000E+00
  3.70000000E+02  9.40000000E+01  0.00000000E+00
  3.80000000E+02  9.40000000E+01  0.00000000E+00
  3.90000000E+02  9.40000000E+01  0.00000000E+00
  4.00000000E+02  9.40000000E+01  0.00000000E+00
  4.10000000E+02  9.40000000E+01  0.00000000E+00
  4.20000000E+02  9.40000000E+01  0.00000000E+00
  4.30000000E+02  9.40000000E+01  0.00000000E+00
  4.40000000E+02  9.40000000E+01  0.00000000E+00
  4.50000000E+02  9.40000000E+01  0.00000000E+00
  4.60000000E+02  9.40000000E+01  0.00000000E+00
  4.70000000E+02  9.40000000E+01  0.00000000E+00
  4.80000000E+02  9.40000000E+01  0.00000000E+00
  4.90000000E+02  9.40000000E+01  0.00000000E+00
  5.00000000E+02  9.40000000E+01  0.00000000E+00
  5.10000000E+02  9.40000000E+01  0.00000000E+00
  5.20000000E+02  9.40000000E+01  0.00000000E+00
  5.30000000E+02  9.40000000E+01  0.00000000E+00
  5.40000000E+02  9.40000000E+01  0.00000000E+00
  5.50000000E+02  9.40000000E+01  0.00000000E+00
  5.60000000E+02  9.40000000E+01  0.00000000E+00
  5.70000000E+02  9.40000000E+01  0.00000000E+00
  5.80000000E+02  9.40000000E+01  0.00000000E+00
  5.90000000E+02  9.40000000E+01  0.00000000E+00
  6.00000000E+02  9.40000000E+01  0.00000000E+00
  6.10000000E+02  9.40000000E+01  0.00000000E+00
  6.20000000E+02  9.40000000E+01  0.00000000E+00
  6.30000000E+02  9.40000000E+01  0.00000000E+00
  6.40000000E+02  9.40000000E+01  0.00000000E+00
  6.50000000E+02  9.40000000E+01  0.00000000E+00
  6.60000000E+02  9.40000000E+01  0.00000000E+00
  6.70000000E+02  9.40000000E+01  0.00000000E+00
  6.80000000E+02  9.40000000E+01  0.00000000E+00
  6.90000000E+02  9.40000000E+01  0.00000000E+00
  7.00000000E+02  9.40000000E+01  0.00000000E+00
  7.10000000E+02  9.40000000E+01  0.00000000E+00
  7.20000000E+02  9.40000000E+01  0.00000000E+00
  7.30000000E+02  9.40000000E+01  0.00000000E+00
  7.40000000E+02  9.40000000E+01  0.00000000E+00
  7.50000000E+02  9.40000000E+01  0.00000000E+00
  7.60000000E+02  9.40000000E+01  0.00000000E+00
  7.70000000E+02  9.40000000E+01  0.00000000E+00
  7.80000000E+02  9.40000000E+01  0.00000000E+00
  7.90000000E+02  9.40000000E+01  0.00000000E+00
  8.00000000E+02  9.40000000E+01  0.00000000E+00
  8.10000000E+02  9.40000000E+01  0.00000000E+00
  8.20000000E+02  9.40000000E+01  0.00000000E+00
  8.30000000E+02  9.40000000E+01  0.00000000E+00
  8.40000000E+02  9.40000000E+01  0.00000000E+00
  8.50000000E+02  9.40000000E+01  0.00000000E+00
  8.60000000E+02  9.40000000E+01  0.00000000E+00
  8.70000000E+02  9.40000000E+01  0.00000000E+00
  8.80000000E+02  9.40000000E+01  0.00000000E+00
  8.90000000E+02  9.40000000E+01  0.00000000E+00
  9.00000000E+02  9.40000000E+01  0.00000000E+00
  9.10000000E+02  9.40000000E+01  0.00000000E+00
  9.20000000E+02  9.40000000E+01  0.00000000E+00
  9.30000000E+02  9.40000000E+01  0.00000000E+00
  9.40000000E+02  9.40000000E+01  0.00000000E+00
  9.50000000E+02  9.40000000E+01  0.00000000E+00
  9.60000000E+02  9.40000000E+01  0.00000000E+00
  9.70000000E+02  9.40000000E+01  0.00000000E+00
  9.80000000E+02  9.40000000E+01  0.00000000E+00
  9.90000000E+02  9.40000000E+01  0.00000000E+00
  1.00000000E+03  9.40000000E+01  0.00000000E+00
  0.00000000E+00  9.60000000E+01  0.00000000E+00
  1.00000000E+01  9.60000000E+01  0.00000000E+00
  2.00000000E+01  9.60000000E+01  0.00000000E+00
  3.00000000E+01  9.60000000E+01  0.00000000E+00
  4.00000000E+01  9.60000000E+01  0.00000000E+00
  5.00000000E+01  9.60000000E+01  0.00000000E+00
  6.00000000E+01  9.60000000E+01  0.00000000E+00
  7.00000000E+01  9.60000000E+01  0.00000000E+00
  8.00000000E+01  9.60000000E+01  0.00000000E+00
  9.00000000E+01  9.60000000E+01  0.00000000E+00
  1.00000000E+02  9.60000000E+01  0.00000000E+00
  1.10000000E+02  9.60000000E+01  0.00000000E+00
  1.20000000E+02  9.60000000E+01  0.00000000E+00
  1.30000000E+02  9.60000000E+01  0.00000000E+00
  1.40000000E+02  9.60000000E+01  0.00000000E+00
  1.50000000E+02  9.60000000E+01  0.00000000E+00
  1.60000000E+02  9.60000000E+01  0.00000000E+00
  1.70000000E+02  9.60000000E+01  0.00000000E+00
  1.80000000E+02  9.60000000E+01  0.00000000E+00
  1.90000000E+02  9.60000000E+01  0.00000000E+00
  2.00000000E+02  9.60000000E+01  0.00000000E+00
  2.10000000E+02  9.60000000E+01  0.00000000E+00
  2.20000000E+02  9.60000000E+01  0.00000000E+00
  2.30000000E+02  9.60000000E+01  0.00000000E+00
  2.40000000E+02  9.60000000E+01  0.00000000E+00
  2.50000000E+02  9.60000000E+01  0.00000000E+00
  2.60000000E+02  9.60000000E+01  0.00000000E+00
  2.70000000E+02  9.60000000E+01  0.00000000E+00
  2.80000000E+02  9.60000000E+01  0.00000000E+00
  2.90000000E+02  9.60000000E+01  0.00000000E+00
  3.00000000E+02  9.60000000E+01  0.00000000E+00
  3.10000000E+02  9.60000000E+01  0.00000000E+00
  3.20000000E+02  9.60000000E+01  0.00000000E+00
  3.30000000E+02  9.60000000E+01  0.00000000E+00
  3.40000000E+02  9.60000000E+01  0.00000000E+00
  3.50000000E+02  9.60000000E+01  0.00000000E+00
  3.60000000E+02  9.60000000E+01  0.00000000E+00
  3.70000000E+02  9.60000000E+01  0.00000000E+00
  3.80000000E+02  9.60000000E+01  0.00000000E+00
  3.90000000E+02  9.60000000E+01  0.00000000E+00
  4.00000000E+02  9.60000000E+01  0.00000000E+00
  4.10000000E+02  9.60000000E+01  0.00000000E+00
  4.20000000E+02  9.60000000E+01  0.00000000E+00
  4.30000000E+02  9.60000000E+01  0.00000000E+00
  4.40000000E+02  9.60000000E+01  0.00000000E+00
  4.50000000E+02  9.60000000E+01  0.00000000E+00
  4.60000000E+02  9.60000000E+01  0.00000000E+00
  4.70000000E+02  9.60000000E+01  0.00000000E+00
  4.80000000E+02  9.60000000E+01  0.00000000E+00
  4.90000000E+02  9.60000000E+01  0.00000000E+00
  5.00000000E+02  9.60000000E+01  0.00000000E+00
  5.10000000E+02  9.60000000E+01  0.00000000E+00
  5.20000000E+02  9.60000000E+01  0.00000000E+00
  5.30000000E+02  9.60000000E+01  0.00000000E+00
  5.40000000E+02  9.60000000E+01  0.00000000E+00
  5.50000000E+02  9.60000000E+01  0.00000000E+00
  5.60000000E+02  9.60000000E+01  0.00000000E+00
  5.70000000E+02  9.60000000E+01  0.00000000E+00
  5.80000000E+02  9.60000000E+01  0.00000000E+00
  5.90000000E+02  9.60000000E+01  0.00000000E+00
  6.00000000E+02  9.60000000E+01  0.00000000E+00
  6.10000000E+02  9.60000000E+01  0.00000000E+00
  6.20000000E+02  9.60000000E+01  0.00000000E+00
  6.30000000E+02  9.60000000E+01  0.00000000E+00
  6.40000000E+02  9.60000000E+01  0.00000000E+00
  6.50000000E+02  9.60000000E+01  0.00000000E+00
  6.60000000E+02  9.60000000E+01  0.00000000E+00
  6.70000000E+02  9.60000000E+01  0.00000000E+00
  6.80000000E+02  9.60000000E+01  0.00000000E+00
  6.90000000E+02  9.60000000E+01  0.00000000E+00
  7.00000000E+02  9.60000000E+01  0.00000000E+00
  7.10000000E+02  9.60000000E+01  0.00000000E+00
  7.20000000E+02  9.60000000E+01  0.00000000E+00
  7.30000000E+02  9.60000000E+01  0.00000000E+00
  7.40000000E+02  9.60000000E+01  0.00000000E+00
  7.50000000E+02  9.60000000E+01  0.00000000E+00
  7.60000000E+02  9.60000000E+01  0.00000000E+00
  7.70000000E+02  9.60000000E+01  0.00000000E+00
  7.80000000E+02  9.60000000E+01  0.00000000E+00
  7.90000000E+02  9.60000000E+01  0.00000000E+00
  8.00000000E+02  9.60000000E+01  0.00000000E+00
  8.10000000E+02  9.60000000E+01  0.00000000E+00
  8.20000000E+02  9.60000000E+01  0.00000000E+00
  8.30000000E+02  9.60000000E+01  0.00000000E+00
  8.40000000E+02  9.60000000E+01  0.00000000E+00
  8.50000000E+02  9.60000000E+01  0.00000000E+00
  8.60000000E+02  9.60000000E+01  0.00000000E+00
  8.70000000E+02  9.60000000E+01  0.00000000E+00
  8.80000000E+02  9.60000000E+01  0.00000000E+00
  8.90000000E+02  9.60000000E+01  0.00000000E+00
  9.00000000E+02  9.60000000E+01  0.00000000E+00
  9.10000000E+02  9.60000000E+01  0.00000000E+00
  9.20000000E+02  9.60000000E+01  0.00000000E+00
  9.30000000E+02  9.60000000E+01  0.00000000E+00
  9.40000000E+02  9.60000000E+01  0.00000000E+00
  9.50000000E+02  9.60000000E+01  0.00000000E+00
  9.60000000E+02  9.60000000E+01  0.00000000E+00
  9.70000000E+02  9.60000000E+01  0.00000000E+00
  9.80000000E+02  9.60000000E+01  0.00000000E+00
  9.90000000E+02  9.60000000E+01  0.00000000E+00
  1.00000000E+03  9.60000000E+01  0.00000000E+00
  0.00000000E+00  9.80000000E+01  0.00000000E+00
  1.00000000E+01  9.80000000E+01  0.00000000E+00
  2.00000000E+01  9.80000000E+01  0.00000000E+00
  3.00000000E+01  9.80000000E+01  0.00000000E+00
  4.00000000E+01  9.80000000E+01  0.00000000E+00
  5.00000000E+01  9.80000000E+01  0.00000000E+00
  6.00000000E+01  9.80000000E+01  0.00000000E+00
  7.00000000E+01  9.80000000E+01  0.00000000E+00
  8.00000000E+01  9.80000000E+01  0.00000000E+00
  9.00000000E+01  9.80000000E+01  0.00000000E+00
  1.00000000E+02  9.80000000E+01  0.00000000E+00
  1.10000000E+02  9.80000000E+01  0.00000000E+00
  1.20000000E+02  9.80000000E+01  0.00000000E+00
  1.30000000E+02  9.80000000E+01  0.00000000E+00
  1.40000000E+02  9.80000000E+01  0.00000000E+00
  1.50000000E+02  9.80000000E+01  0.00000000E+00
  1.60000000E+02  9.80000000E+01  0.00000000E+00
  1.70000000E+02  9.80000000E+01  0.00000000E+00
  1.80000000E+02  9.80000000E+01  0.00000000E+00
  1.90000000E+02  9.80000000E+01  0.00000000E+00
  2.00000000E+02  9.80000000E+01  0.00000000E+00
  2.10000000E+02  9.80000000E+01  0.00000000E+00
  2.20000000E+02  9.80000000E+01  0.00000000E+00
  2.30000000E+02  9.80000000E+01  0.00000000E+00
  2.40000000E+02  9.80000000E+01  0.00000000E+00
  2.50000000E+02  9.80000000E+01  0.00000000E+00
  2.60000000E+02  9.80000000E+01  0.00000000E+00
  2.70000000E+02  9.80000000E+01  0.00000000E+00
  2.80000000E+02  9.80000000E+01  0.00000000E+00
  2.90000000E+02  9.80000000E+01  0.00000000E+00
  3.00000000E+02  9.80000000E+01  0.00000000E+00
  3.10000000E+02  9.80000000E+01  0.00000000E+00
  3.20000000E+02  9.80000000E+01  0.00000000E+00
  3.30000000E+02  9.80000000E+01  0.00000000E+00
  3.40000000E+02  9.80000000E+01  0.00000000E+00
  3.50000000E+02  9.80000000E+01  0.00000000E+00
  3.60000000E+02  9.80000000E+01  0.00000000E+00
  3.70000000E+02  9.80000000E+01  0.00000000E+00
  3.80000000E+02  9.80000000E+01  0.00000000E+00
  3.90000000E+02  9.80000000E+01  0.00000000E+00
  4.00000000E+02  9.80000000E+01  0.00000000E+00
  4.10000000E+02  9.80000000E+01  0.00000000E+00
  4.20000000E+02  9.80000000E+01  0.00000000E+00
  4.30000000E+02  9.80000000E+01  0.00000000E+00
  4.40000000E+02  9.80000000E+01  0.00000000E+00
  4.50000000E+02  9.80000000E+01  0.00000000E+00
  4.60000000E+02  9.80000000E+01  0.00000000E+00
  4.70000000E+02  9.80000000E+01  0.00000000E+00
  4.80000000E+02  9.80000000E+01  0.00000000E+00
  4.90000000E+02  9.80000000E+01  0.00000000E+00
  5.00000000E+02  9.80000000E+01  0.00000000E+00
  5.10000000E+02  9.80000000E+01  0.00000000E+00
  5.20000000E+02  9.80000000E+01  0.00000000E+00
  5.30000000E+02  9.80000000E+01  0.00000000E+00
  5.40000000E+02  9.80000000E+01  0.00000000E+00
  5.50000000E+02  9.80000000E+01  0.00000000E+00
  5.60000000E+02  9.80000000E+01  0.00000000E+00
  5.70000000E+02  9.80000000E+01  0.00000000E+00
  5.80000000E+02  9.80000000E+01  0.00000000E+00
  5.90000000E+02  9.80000000E+01  0.00000000E+00
  6.00000000E+02  9.80000000E+01  0.00000000E+00
  6.10000000E+02  9.80000000E+01  0.00000000E+00
  6.20000000E+02  9.80000000E+01  0.00000000E+00
  6.30000000E+02  9.80000000E+01  0.00000000E+00
  6.40000000E+02  9.80000000E+01  0.00000000E+00
  6.50000000E+02  9.80000000E+01  0.00000000E+00
  6.60000000E+02  9.80000000E+01  0.00000000E+00
  6.70000000E+02  9.80000000E+01  0.00000000E+00
  6.80000000E+02  9.80000000E+01  0.00000000E+00
  6.90000000E+02  9.80000000E+01  0.00000000E+00
  7.00000000E+02  9.80000000E+01  0.00000000E+00
  7.10000000E+02  9.80000000E+01  0.00000000E+00
  7.20000000E+02  9.80000000E+01  0.00000000E+00
  7.30000000E+02  9.80000000E+01  0.00000000E+00
  7.40000000E+02  9.80000000E+01  0.00000000E+00
  7.50000000E+02  9.80000000E+01  0.00000000E+00
  7.60000000E+02  9.80000000E+01  0.00000000E+00
  7.70000000E+02  9.80000000E+01  0.00000000E+00
  7.80000000E+02  9.80000000E+01  0.00000000E+00
  7.90000000E+02  9.80000000E+01  0.00000000E+00
  8.00000000E+02  9.80000000E+01  0.00000000E+00
  8.10000000E+02  9.80000000E+01  0.00000000E+00
  8.20000000E+02  9.80000000E+01  0.00000000E+00
  8.30000000E+02  9.80000000E+01  0.00000000E+00
  8.40000000E+02  9.80000000E+01  0.00000000E+00
  8.50000000E+02  9.80000000E+01  0.00000000E+00
  8.60000000E+02  9.80000000E+01  0.00000000E+00
  8.70000000E+02  9.80000000E+01  0.00000000E+00
  8.80000000E+02  9.80000000E+01  0.00000000E+00
  8.90000000E+02  9.80000000E+01  0.00000000E+00
  9.00000000E+02  9.80000000E+01  0.00000000E+00
  9.10000000E+02  9.80000000E+01  0.00000000E+00
  9.20000000E+02  9.80000000E+01  0.00000000E+00
  9.30000000E+02  9.80000000E+01  0.00000000E+00
  9.40000000E+02  9.80000000E+01  0.00000000E+00
  9.50000000E+02  9.80000000E+01  0.00000000E+00
  9.60000000E+02  9.80000000E+01  0.00000000E+00
  9.70000000E+02  9.80000000E+01  0.00000000E+00
  9.80000000E+02  9.80000000E+01  0.00000000E+00
  9.90000000E+02  9.80000000E+01  0.00000000E+00
  1.00000000E+03  9.80000000E+01  0.00000000E+00
  0.00000000E+00  1.00000000E+02  0.00000000E+00
  1.00000000E+01  1.00000000E+02  0.00000000E+00
  2.00000000E+01  1.00000000E+02  0.00000000E+00
  3.00000000E+01  1.00000000E+02  0.00000000E+00
  4.00000000E+01  1.00000000E+02  0.00000000E+00
  5.00000000E+01  1.00000000E+02  0.00000000E+00
  6.00000000E+01  1.00000000E+02  0.00000000E+00
  7.00000000E+01  1.00000000E+02  0.00000000E+00
  8.00000000E+01  1.00000000E+02  0.00000000E+00
  9.00000000E+01  1.00000000E+02  0.00000000E+00
  1.00000000E+02  1.00000000E+02  0.00000000E+00
  1.10000000E+02  1.00000000E+02  0.00000000E+00
  1.20000000E+02  1.00000000E+02  0.00000000E+00
  1.30000000E+02  1.00000000E+02  0.00000000E+00
  1.40000000E+02  1.00000000E+02  0.00000000E+00
  1.50000000E+02  1.00000000E+02  0.00000000E+00
  1.60000000E+02  1.00000000E+02  0.00000000E+00
  1.70000000E+02  1.00000000E+02  0.00000000E+00
  1.80000000E+02  1.00000000E+02  0.00000000E+00
  1.90000000E+02  1.00000000E+02  0.00000000E+00
  2.00000000E+02  1.00000000E+02  0.00000000E+00
  2.10000000E+02  1.00000000E+02  0.00000000E+00
  2.20000000E+02  1.00000000E+02  0.00000000E+00
  2.30000000E+02  1.00000000E+02  0.00000000E+00
  2.40000000E+02  1.00000000E+02  0.00000000E+00
  2.50000000E+02  1.00000000E+02  0.00000000E+00
  2.60000000E+02  1.00000000E+02  0.00000000E+00
  2.70000000E+02  1.00000000E+02  0.00000000E+00
  2.80000000E+02  1.00000000E+02  0.00000000E+00
  2.90000000E+02  1.00000000E+02  0.00000000E+00
  3.00000000E+02  1.00000000E+02  0.00000000E+00
  3.10000000E+02  1.00000000E+02  0.00000000E+00
  3.20000000E+02  1.00000000E+02  0.00000000E+00
  3.30000000E+02  1.00000000E+02  0.00000000E+00
  3.40000000E+02  1.00000000E+02  0.00000000E+00
  3.50000000E+02  1.00000000E+02  0.00000000E+00
  3.60000000E+02  1.00000000E+02  0.00000000E+00
  3.70000000E+02  1.00000000E+02  0.00000000E+00
  3.80000000E+02  1.00000000E+02  0.00000000E+00
  3.90000000E+02  1.00000000E+02  0.00000000E+00
  4.00000000E+02  1.00000000E+02  0.00000000E+00
  4.10000000E+02  1.00000000E+02  0.00000000E+00
  4.20000000E+02  1.00000000E+02  0.00000000E+00
  4.30000000E+02  1.00000000E+02  0.00000000E+00
  4.40000000E+02  1.00000000E+02  0.00000000E+00
  4.50000000E+02  1.00000000E+02  0.00000000E+00
  4.60000000E+02  1.00000000E+02  0.00000000E+00
  4.70000000E+02  1.00000000E+02  0.00000000E+00
  4.80000000E+02  1.00000000E+02  0.00000000E+00
  4.90000000E+02  1.00000000E+02  0.00000000E+00
  5.00000000E+02  1.00000000E+02  0.00000000E+00
  5.10000000E+02  1.00000000E+02  0.00000000E+00
  5.20000000E+02  1.00000000E+02  0.00000000E+00
  5.30000000E+02  1.00000000E+02  0.00000000E+00
  5.40000000E+02  1.00000000E+02  0.00000000E+00
  5.50000000E+02  1.00000000E+02  0.00000000E+00
  5.60000000E+02  1.00000000E+02  0.00000000E+00
  5.70000000E+02  1.00000000E+02  0.00000000E+00
  5.80000000E+02  1.00000000E+02  0.00000000E+00
  5.90000000E+02  1.00000000E+02  0.00000000E+00
  6.00000000E+02  1.00000000E+02  0.00000000E+00
  6.10000000E+02  1.00000000E+02  0.00000000E+00
  6.20000000E+02  1.00000000E+02  0.00000000E+00
  6.30000000E+02  1.00000000E+02  0.00000000E+00
  6.40000000E+02  1.00000000E+02  0.00000000E+00
  6.50000000E+02  1.00000000E+02  0.00000000E+00
  6.60000000E+02  1.00000000E+02  0.00000000E+00
  6.70000000E+02  1.00000000E+02  0.00000000E+00
  6.80000000E+02  1.00000000E+02  0.00000000E+00
  6.90000000E+02  1.00000000E+02  0.00000000E+00
  7.00000000E+02  1.00000000E+02  0.00000000E+00
  7.10000000E+02  1.00000000E+02  0.00000000E+00
  7.20000000E+02  1.00000000E+02  0.00000000E+00
  7.30000000E+02  1.00000000E+02  0.00000000E+00
  7.40000000E+02  1.00000000E+02  0.00000000E+00
  7.50000000E+02  1.00000000E+02  0.00000000E+00
  7.60000000E+02  1.00000000E+02  0.00000000E+00
  7.70000000E+02  1.00000000E+02  0.00000000E+00
  7.80000000E+02  1.00000000E+02  0.00000000E+00
  7.90000000E+02  1.00000000E+02  0.00000000E+00
  8.00000000E+02  1.00000000E+02  0.00000000E+00
  8.10000000E+02  1.00000000E+02  0.00000000E+00
  8.20000000E+02  1.00000000E+02  0.00000000E+00
  8.30000000E+02  1.00000000E+02  0.00000000E+00
  8.40000000E+02  1.00000000E+02  0.00000000E+00
  8.50000000E+02  1.00000000E+02  0.00000000E+00
  8.60000000E+02  1.00000000E+02  0.00000000E+00
  8.70000000E+02  1.00000000E+02  0.00000000E+00
  8.80000000E+02  1.00000000E+02  0.00000000E+00
  8.90000000E+02  1.00000000E+02  0.00000000E+00
  9.00000000E+02  1.00000000E+02  0.00000000E+00
  9.10000000E+02  1.00000000E+02  0.00000000E+00
  9.20000000E+02  1.00000000E+02  0.00000000E+00
  9.30000000E+02  1.00000000E+02  0.00000000E+00
  9.40000000E+02  1.00000000E+02  0.00000000E+00
  9.50000000E+02  1.00000000E+02  0.00000000E+00
  9.60000000E+02  1.00000000E+02  0.00000000E+00
  9.70000000E+02  1.00000000E+02  0.00000000E+00
  9.80000000E+02  1.00000000E+02  0.00000000E+00
  9.90000000E+02  1.00000000E+02  0.00000000E+00
  1.00000000E+03  1.00000000E+02  0.00000000E+00
CELLS      5000     25000
         4           0           1         102         101
         4           1           2         103         102
         4           2           3         104         103
         4           3           4         105         104
         4           4           5         106         105
         4           5           6         107         106
         4           6           7         108         107
         4           7           8         109         108
         4           8           9         110         109
         4           9          10         111         110
         4          10          11         112         111
         4          11          12         113         112
         4          12          13         114         113
         4          13          14         115         114
         4          14          15         116         115
         4          15          16         117         116
         4          16          17         118         117
         4          17          18         119         118
         4          18          19         120         119
         4          19          20         121         120
         4          20          21         122         121
         4          21          22         123         122
         4          22          23         124         123
         4          23          24         125         124
         4          24          25         126         125
         4          25          26         127         126
         4          26          27         128         127
         4          27          28         129         128
         4          28          29         130         129
         4          29          30         131         130
         4          30          31         132         131
         4          31          32         133         132
         4          32          33         134         133
         4          33          34         135         134
         4          34          35         136         135
         4          35          36         137         136
         4          36          37         138         137
         4          37          38         139         138
         4          38          39         140         139
         4          39          40         141         140
         4          40          41         142         141
         4          41          42         143         142
         4          42          43         144         143
         4          43          44         145         144
         4          44          45         146         145
         4          45          46         147         146
         4          46          47         148         147
         4          47          48         149         148
         4          48          49         150         149
         4          49          50         151         150
         4          50          51         152         151
         4          51          52         153         152
         4          52          53         154         153
         4          53          54         155         154
         4          54          55         156         155
         4          55          56         157         156
         4          56          57         158         157
         4          57          58         159         158
         4          58          59         160         159
         4          59          60         161         160
         4          60          61         162         161
         4          61          62         163         162
         4          62          63         164         163
         4          63          64         165         164
         4          64          65         166         165
         4          65          66         167         166
         4          66          67         168         167
         4          67          68         169         168
         4          68          69         170         169
         4          69          70         171         170
         4          70          71         172         171
         4          71          72         173         172
         4          72          73         174         173
         4          73          74         175         174
         4          74          75         176         175
         4          75          76         177         176
         4          76          77         178         177
         4          77          78         179         178
         4          78          79         180         179
         4          79          80         181         180
         4          80          81         182         181
         4          81          82         183         182
         4          82          83         184         183
         4          83          84         185         184
         4          84          85         186         185
         4          85          86         187         186
         4          86          87         188         187
         4          87          88         189         188
         4          88          89         190         189
         4          89          90         191         190
         4          90          91         192         191
         4          91          92         193         192
         4          92          93         194         193
         4          93          94         195         194
         4          94          95         196         195
         4          95          96         197         196
         4          96          97         198         197
         4          97          98         199         198
         4          98          99         200         199
         4          99         100         201         200
         4         101         102         203         202
         4         102         103         204         203
         4         103         104         205         204
         4         104         105         206         205
         4         105         106         207         206
         4         106         107         208         207
         4         107         108         209         208
         4         108         109         210         209
         4         109         110         211         210
         4         110         111         212         211
         4         111         112         213         212
         4         112         113         214         213
         4         113         114         215         214
         4         114         115         216         215
         4         115         116         217         216
         4         116         117         218         217
         4         117         118         219         218
         4         118         119         220         219
         4         119         120         221         220
         4         120         121         222         221
         4         121         122         223         222
         4         122         123         224         223
         4         123         124         225         224
         4         124         125         226         225
         4         125         126         227         226
         4         126         127         228         227
         4         127         128         229         228
         4         128         129         230         229
         4         129         130         231         230
         4         130         131         232         231
         4         131         132         233         232
         4         132         133         234         233
         4         133         134         235         234
         4         134         135         236         235
         4         135         136         237         236
         4         136         137         238         237
         4         137         138         239         238
         4         138         139         240         239
         4         139         140         241         240
         4         140         141         242         241
         4         141         142         243         242
         4         142         143         244         243
         4         143         144         245         244
         4         144         145         246         245
         4         145         146         247         246
         4         146         147         248         247
         4         147         148         249         248
         4         148         149         250         249
         4         149         150         251         250
         4         150         151         252         251
         4         151         152         253         252
         4         152         153         254         253
         4         153         154         255         254
         4         154         155         256         255
         4         155         156         257         256
         4         156         157         258         257
         4         157         158         259         258
         4         158         159         260         259
         4         159         160         261         260
         4         160         161         262         261
         4         161         162         263         262
         4         162         163         264         263
         4         163         164         265         264
         4         164         165         266         265
         4         165         166         267         266
         4         166         167         268         267
         4         167         168         269         268
         4         168         169         270         269
         4         169         170         271         270
         4         170         171         272         271
         4         171         172         273         272
         4         172         173         274         273
         4         173         174         275         274
         4         174         175         276         275
         4         175         176         277         276
         4         176         177         278         277
         4         177         178         279         278
         4         178         179         280         279
         4         179         180         281         280
         4         180         181         282         281
         4         181         182         283         282
         4         182         183         284         283
         4         183         184         285         284
         4         184         185         286         285
         4         185         186         287         286
         4         186         187         288         287
         4         187         188         289         288
         4         188         189         290         289
         4         189         190         291         290
         4         190         191         292         291
         4         191         192         293         292
         4         192         193         294         293
         4         193         194         295         294
         4         194         195         296         295
         4         195         196         297         296
         4         196         197         298         297
         4         197         198         299         298
         4         198         199         300         299
         4         199         200         301         300
         4         200         201         302         301
         4         202         203         304         303
         4         203         204         305         304
         4         204         205         306         305
         4         205         206         307         306
         4         206         207         308         307
         4         207         208         309         308
         4         208         209         310         309
         4         209         210         311         310
         4         210         211         312         311
         4         211         212         313         312
         4         212         213         314         313
         4         213         214         315         314
         4         214         215         316         315
         4         215         216         317         316
         4         216         217         318         317
         4         217         218         319         318
         4         218         219         320         319
         4         219         220         321         320
         4         220         221         322         321
         4         221         222         323         322
         4         222         223         324         323
         4         223         224         325         324
         4         224         225         326         325
         4         225         226         327         326
         4         226         227         328         327
         4         227         228         329         328
         4         228         229         330         329
         4         229         230         331         330
         4         230         231         332         331
         4         231         232         333         332
         4         232         233         334         333
         4         233         234         335         334
         4         234         235         336         335
         4         235         236         337         336
         4         236         237         338         337
         4         237         238         339         338
         4         238         239         340         339
         4         239         240         341         340
         4         240         241         342         341
         4         241         242         343         342
         4         242         243         344         343
         4         243         244         345         344
         4         244         245         346         345
         4         245         246         347         346
         4         246         247         348         347
         4         247         248         349         348
         4         248         249         350         349
         4         249         250         351         350
         4         250         251         352         351
         4         251         252         353         352
         4         252         253         354         353
         4         253         254         355         354
         4         254         255         356         355
         4         255         256         357         356
         4         256         257         358         357
         4         257         258         359         358
         4         258         259         360         359
         4         259         260         361         360
         4         260         261         362         361
         4         261         262         363         362
         4         262         263         364         363
         4         263         264         365         364
         4         264         265         366         365
         4         265         266         367         366
         4         266         267         368         367
         4         267         268         369         368
         4         268         269         370         369
         4         269         270         371         370
         4         270         271         372         371
         4         271         272         373         372
         4         272         273         374         373
         4         273         274         375         374
         4         274         275         376         375
         4         275         276         377         376
         4         276         277         378         377
         4         277         278         379         378
         4         278         279         380         379
         4         279         280         381         380
         4         280         281         382         381
         4         281         282         383         382
         4         282         283         384         383
         4         283         284         385         384
         4         284         285         386         385
         4         285         286         387         386
         4         286         287         388         387
         4         287         288         389         388
         4         288         289         390         389
         4         289         290         391         390
         4         290         291         392         391
         4         291         292         393         392
         4         292         293         394         393
         4         293         294         395         394
         4         294         295         396         395
         4         295         296         397         396
         4         296         297         398         397
         4         297         298         399         398
         4         298         299         400         399
         4         299         300         401         400
         4         300         301         402         401
         4         301         302         403         402
         4         303         304         405         404
         4         304         305         406         405
         4         305         306         407         406
         4         306         307         408         407
         4         307         308         409         408
         4         308         309         410         409
         4         309         310         411         410
         4         310         311         412         411
         4         311         312         413         412
         4         312         313         414         413
         4         313         314         415         414
         4         314         315         416         415
         4         315         316         417         416
         4         316         317         418         417
         4         317         318         419         418
         4         318         319         420         419
         4         319         320         421         420
         4         320         321         422         421
         4         321         322         423         422
         4         322         323         424         423
         4         323         324         425         424
         4         324         325         426         425
         4         325         326         427         426
         4         326         327         428         427
         4         327         328         429         428
         4         328         329         430         429
         4         329         330         431         430
         4         330         331         432         431
         4         331         332         433         432
         4         332         333         434         433
         4         333         334         435         434
         4         334         335         436         435
         4         335         336         437         436
         4         336         337         438         437
         4         337         338         439         438
         4         338         339         440         439
         4         339         340         441         440
         4         340         341         442         441
         4         341         342         443         442
         4         342         343         444         443
         4         343         344         445         444
         4         344         345         446         445
         4         345         346         447         446
         4         346         347         448         447
         4         347         348         449         448
         4         348         349         450         449
         4         349         350         451         450
         4         350         351         452         451
         4         351         352         453         452
         4         352         353         454         453
         4         353         354         455         454
         4         354         355         456         455
         4         355         356         457         456
         4         356         357         458         457
         4         357         358         459         458
         4         358         359         460         459
         4         359         360         461         460
         4         360         361         462         461
         4         361         362         463         462
         4         362         363         464         463
         4         363         364         465         464
         4         364         365         466         465
         4         365         366         467         466
         4         366         367         468         467
         4         367         368         469         468
         4         368         369         470         469
         4         369         370         471         470
         4         370         371         472         471
         4         371         372         473         472
         4         372         373         474         473
         4         373         374         475         474
         4         374         375         476         475
         4         375         376         477         476
         4         376         377         478         477
         4         377         378         479         478
         4         378         379         480         479
         4         379         380         481         480
         4         380         381         482         481
         4         381         382         483         482
         4         382         383         484         483
         4         383         384         485         484
         4         384         385         486         485
         4         385         386         487         486
         4         386         387         488         487
         4         387         388         489         488
         4         388         389         490         489
         4         389         390         491         490
         4         390         391         492         491
         4         391         392         493         492
         4         392         393         494         493
         4         393         394         495         494
         4         394         395         496         495
         4         395         396         497         496
         4         396         397         498         497
         4         397         398         499         498
         4         398         399         500         499
         4         399         400         501         500
         4         400         401         502         501
         4         401         402         503         502
         4         402         403         504         503
         4         404         405         506         505
         4         405         406         507         506
         4         406         407         508         507
         4         407         408         509         508
         4         408         409         510         509
         4         409         410         511         510
         4         410         411         512         511
         4         411         412         513         512
         4         412         413         514         513
         4         413         414         515         514
         4         414         415         516         515
         4         415         416         517         516
         4         416         417         518         517
         4         417         418         519         518
         4         418         419         520         519
         4         419         420         521         520
         4         420         421         522         521
         4         421         422         523         522
         4         422         423         524         523
         4         423         424         525         524
         4         424         425         526         525
         4         425         426         527         526
         4         426         427         528         527
         4         427         428         529         528
         4         428         429         530         529
         4         429         430         531         530
         4         430         431         532         531
         4         431         432         533         532
         4         432         433         534         533
         4         433         434         535         534
         4         434         435         536         535
         4         435         436         537         536
         4         436         437         538         537
         4         437         438         539         538
         4         438         439         540         539
         4         439         440         541         540
         4         440         441         542         541
         4         441         442         543         542
         4         442         443         544         543
         4         443         444         545         544
         4         444         445         546         545
         4         445         446         547         546
         4         446         447         548         547
         4         447         448         549         548
         4         448         449         550         549
         4         449         450         551         550
         4         450         451         552         551
         4         451         452         553         552
         4         452         453         554         553
         4         453         454         555         554
         4         454         455         556         555
         4         455         456         557         556
         4         456         457         558         557
         4         457         458         559         558
         4         458         459         560         559
         4         459         460         561         560
         4         460         461         562         561
         4         461         462         563         562
         4         462         463         564         563
         4         463         464         565         564
         4         464         465         566         565
         4         465         466         567         566
         4         466         467         568         567
         4         467         468         569         568
         4         468         469         570         569
         4         469         470         571         570
         4         470         471         572         571
         4         471         472         573         572
         4         472         473         574         573
         4         473         474         575         574
         4         474         475         576         575
         4         475         476         577         576
         4         476         477         578         577
         4         477         478         579         578
         4         478         479         580         579
         4         479         480         581         580
         4         480         481         582         581
         4         481         482         583         582
         4         482         483         584         583
         4         483         484         585         584
         4         484         485         586         585
         4         485         486         587         586
         4         486         487         588         587
         4         487         488         589         588
         4         488         489         590         589
         4         489         490         591         590
         4         490         491         592         591
         4         491         492         593         592
         4         492         493         594         593
         4         493         494         595         594
         4         494         495         596         595
         4         495         496         597         596
         4         496         497         598         597
         4         497         498         599         598
         4         498         499         600         599
         4         499         500         601         600
         4         500         501         602         601
         4         501         502         603         602
         4         502         503         604         603
         4         503         504         605         604
         4         505         506         607         606
         4         506         507         608         607
         4         507         508         609         608
         4         508         509         610         609
         4         509         510         611         610
         4         510         511         612         611
         4         511         512         613         612
         4         512         513         614         613
         4         513         514         615         614
         4         514         515         616         615
         4         515         516         617         616
         4         516         517         618         617
         4         517         518         619         618
         4         518         519         620         619
         4         519         520         621         620
         4         520         521         622         621
         4         521         522         623         622
         4         522         523         624         623
         4         523         524         625         624
         4         524         525         626         625
         4         525         526         627         626
         4         526         527         628         627
         4         527         528         629         628
         4         528         529         630         629
         4         529         530         631         630
         4         530         531         632         631
         4         531         532         633         632
         4         532         533         634         633
         4         533         534         635         634
         4         534         535         636         635
         4         535         536         637         636
         4         536         537         638         637
         4         537         538         639         638
         4         538         539         640         639
         4         539         540         641         640
         4         540         541         642         641
         4         541         542         643         642
         4         542         543         644         643
         4         543         544         645         644
         4         544         545         646         645
         4         545         546         647         646
         4         546         547         648         647
         4         547         548         649         648
         4         548         549         650         649
         4         549         550         651         650
         4         550         551         652         651
         4         551         552         653         652
         4         552         553         654         653
         4         553         554         655         654
         4         554         555         656         655
         4         555         556         657         656
         4         556         557         658         657
         4         557         558         659         658
         4         558         559         660         659
         4         559         560         661         660
         4         560         561         662         661
         4         561         562         663         662
         4         562         563         664         663
         4         563         564         665         664
         4         564         565         666         665
         4         565         566         667         666
         4         566         567         668         667
         4         567         568         669         668
         4         568         569         670         669
         4         569         570         671         670
         4         570         571         672         671
         4         571         572         673         672
         4         572         573         674         673
         4         573         574         675         674
         4         574         575         676         675
         4         575         576         677         676
         4         576         577         678         677
         4         577         578         679         678
         4         578         579         680         679
         4         579         580         681         680
         4         580         581         682         681
         4         581         582         683         682
         4         582         583         684         683
         4         583         584         685         684
         4         584         585         686         685
         4         585         586         687         686
         4         586         587         688         687
         4         587         588         689         688
         4         588         589         690         689
         4         589         590         691         690
         4         590         591         692         691
         4         591         592         693         692
         4         592         593         694         693
         4         593         594         695         694
         4         594         595         696         695
         4         595         596         697         696
         4         596         597         698         697
         4         597         598         699         698
         4         598         599         700         699
         4         599         600         701         700
         4         600         601         702         701
         4         601         602         703         702
         4         602         603         704         703
         4         603         604         705         704
         4         604         605         706         705
         4         606         607         708         707
         4         607         608         709         708
         4         608         609         710         709
         4         609         610         711         710
         4         610         611         712         711
         4         611         612         713         712
         4         612         613         714         713
         4         613         614         715         714
         4         614         615         716         715
         4         615         616         717         716
         4         616         617         718         717
         4         617         618         719         718
         4         618         619         720         719
         4         619         620         721         720
         4         620         621         722         721
         4         621         622         723         722
         4         622         623         724         723
         4         623         624         725         724
         4         624         625         726         725
         4         625         626         727         726
         4         626         627         728         727
         4         627         628         729         728
         4         628         629         730         729
         4         629         630         731         730
         4         630         631         732         731
         4         631         632         733         732
         4         632         633         734         733
         4         633         634         735         734
         4         634         635         736         735
         4         635         636         737         736
         4         636         637         738         737
         4         637         638         739         738
         4         638         639         740         739
         4         639         640         741         740
         4         640         641         742         741
         4         641         642         743         742
         4         642         643         744         743
         4         643         644         745         744
         4         644         645         746         745
         4         645         646         747         746
         4         646         647         748         747
         4         647         648         749         748
         4         648         649         750         749
         4         649         650         751         750
         4         650         651         752         751
         4         651         652         753         752
         4         652         653         754         753
         4         653         654         755         754
         4         654         655         756         755
         4         655         656         757         756
         4         656         657         758         757
         4         657         658         759         758
         4         658         659         760         759
         4         659         660         761         760
         4         660         661         762         761
         4         661         662         763         762
         4         662         663         764         763
         4         663         664         765         764
         4         664         665         766         765
         4         665         666         767         766
         4         666         667         768         767
         4         667         668         769         768
         4         668         669         770         769
         4         669         670         771         770
         4         670         671         772         771
         4         671         672         773         772
         4         672         673         774         773
         4         673         674         775         774
         4         674         675         776         775
         4         675         676         777         776
         4         676         677         778         777
         4         677         678         779         778
         4         678         679         780         779
         4         679         680         781         780
         4         680         681         782         781
         4         681         682         783         782
         4         682         683         784         783
         4         683         684         785         784
         4         684         685         786         785
         4         685         686         787         786
         4         686         687         788         787
         4         687         688         789         788
         4         688         689         790         789
         4         689         690         791         790
         4         690         691         792         791
         4         691         692         793         792
         4         692         693         794         793
         4         693         694         795         794
         4         694         695         796         795
         4         695         696         797         796
         4         696         697         798         797
         4         697         698         799         798
         4         698         699         800         799
         4         699         700         801         800
         4         700         701         802         801
         4         701         702         803         802
         4         702         703         804         803
         4         703         704         805         804
         4         704         705         806         805
         4         705         706         807         806
         4         707         708         809         808
         4         708         709         810         809
         4         709         710         811         810
         4         710         711         812         811
         4         711         712         813         812
         4         712         713         814         813
         4         713         714         815         814
         4         714         715         816         815
         4         715         716         817         816
         4         716         717         818         817
         4         717         718         819         818
         4         718         719         820         819
         4         719         720         821         820
         4         720         721         822         821
         4         721         722         823         822
         4         722         723         824         823
         4         723         724         825         824
         4         724         725         826         825
         4         725         726         827         826
         4         726         727         828         827
         4         727         728         829         828
         4         728         729         830         829
         4         729         730         831         830
         4         730         731         832         831
         4         731         732         833         832
         4         732         733         834         833
         4         733         734         835         834
         4         734         735         836         835
         4         735         736         837         836
         4         736         737         838         837
         4         737         738         839         838
         4         738         739         840         839
         4         739         740         841         840
         4         740         741         842         841
         4         741         742         843         842
         4         742         743         844         843
         4         743         744         845         844
         4         744         745         846         845
         4         745         746         847         846
         4         746         747         848         847
         4         747         748         849         848
         4         748         749         850         849
         4         749         750         851         850
         4         750         751         852         851
         4         751         752         853         852
         4         752         753         854         853
         4         753         754         855         854
         4         754         755         856         855
         4         755         756         857         856
         4         756         757         858         857
         4         757         758         859         858
         4         758         759         860         859
         4         759         760         861         860
         4         760         761         862         861
         4         761         762         863         862
         4         762         763         864         863
         4         763         764         865         864
         4         764         765         866         865
         4         765         766         867         866
         4         766         767         868         867
         4         767         768         869         868
         4         768         769         870         869
         4         769         770         871         870
         4         770         771         872         871
         4         771         772         873         872
         4         772         773         874         873
         4         773         774         875         874
         4         774         775         876         875
         4         775         776         877         876
         4         776         777         878         877
         4         777         778         879         878
         4         778         779         880         879
         4         779         780         881         880
         4         780         781         882         881
         4         781         782         883         882
         4         782         783         884         883
         4         783         784         885         884
         4         784         785         886         885
         4         785         786         887         886
         4         786         787         888         887
         4         787         788         889         888
         4         788         789         890         889
         4         789         790         891         890
         4         790         791         892         891
         4         791         792         893         892
         4         792         793         894         893
         4         793         794         895         894
         4         794         795         896         895
         4         795         796         897         896
         4         796         797         898         897
         4         797         798         899         898
         4         798         799         900         899
         4         799         800         901         900
         4         800         801         902         901
         4         801         802         903         902
         4         802         803         904         903
         4         803         804         905         904
         4         804         805         906         905
         4         805         806         907         906
         4         806         807         908         907
         4         808         809         910         909
         4         809         810         911         910
         4         810         811         912         911
         4         811         812         913         912
         4         812         813         914         913
         4         813         814         915         914
         4         814         815         916         915
         4         815         816         917         916
         4         816         817         918         917
         4         817         818         919         918
         4         818         819         920         919
         4         819         820         921         920
         4         820         821         922         921
         4         821         822         923         922
         4         822         823         924         923
         4         823         824         925         924
         4         824         825         926         925
         4         825         826         927         926
         4         826         827         928         927
         4         827         828         929         928
         4         828         829         930         929
         4         829         830         931         930
         4         830         831         932         931
         4         831         832         933         932
         4         832         833         934         933
         4         833         834         935         934
         4         834         835         936         935
         4         835         836         937         936
         4         836         837         938         937
         4         837         838         939         938
         4         838         839         940         939
         4         839         840         941         940
         4         840         841         942         941
         4         841         842         943         942
         4         842         843         944         943
         4         843         844         945         944
         4         844         845         946         945
         4         845         846         947         946
         4         846         847         948         947
         4         847         848         949         948
         4         848         849         950         949
         4         849         850         951         950
         4         850         851         952         951
         4         851         852         953         952
         4         852         853         954         953
         4         853         854         955         954
         4         854         855         956         955
         4         855         856         957         956
         4         856         857         958         957
         4         857         858         959         958
         4         858         859         960         959
         4         859         860         961         960
         4         860         861         962         961
         4         861         862         963         962
         4         862         863         964         963
         4         863         864         965         964
         4         864         865         966         965
         4         865         866         967         966
         4         866         867         968         967
         4         867         868         969         968
         4         868         869         970         969
         4         869         870         971         970
         4         870         871         972         971
         4         871         872         973         972
         4         872         873         974         973
         4         873         874         975         974
         4         874         875         976         975
         4         875         876         977         976
         4         876         877         978         977
         4         877         878         979         978
         4         878         879         980         979
         4         879         880         981         980
         4         880         881         982         981
         4         881         882         983         982
         4         882         883         984         983
         4         883         884         985         984
         4         884         885         986         985
         4         885         886         987         986
         4         886         887         988         987
         4         887         888         989         988
         4         888         889         990         989
         4         889         890         991         990
         4         890         891         992         991
         4         891         892         993         992
         4         892         893         994         993
         4         893         894         995         994
         4         894         895         996         995
         4         895         896         997         996
         4         896         897         998         997
         4         897         898         999         998
         4         898         899        1000         999
         4         899         900        1001        1000
         4         900         901        1002        1001
         4         901         902        1003        1002
         4         902         903        1004        1003
         4         903         904        1005        1004
         4         904         905        1006        1005
         4         905         906        1007        1006
         4         906         907        1008        1007
         4         907         908        1009        1008
         4         909         910        1011        1010
         4         910         911        1012        1011
         4         911         912        1013        1012
         4         912         913        1014        1013
         4         913         914        1015        1014
         4         914         915        1016        1015
         4         915         916        1017        1016
         4         916         917        1018        1017
         4         917         918        1019        1018
         4         918         919        1020        1019
         4         919         920        1021        1020
         4         920         921        1022        1021
         4         921         922        1023        1022
         4         922         923        1024        1023
         4         923         924        1025        1024
         4         924         925        1026        1025
         4         925         926        1027        1026
         4         926         927        1028        1027
         4         927         928        1029        1028
         4         928         929        1030        1029
         4         929         930        1031        1030
         4         930         931        1032        1031
         4         931         932        1033        1032
         4         932         933        1034        1033
         4         933         934        1035        1034
         4         934         935        1036        1035
         4         935         936        1037        1036
         4         936         937        1038        1037
         4         937         938        1039        1038
         4         938         939        1040        1039
         4         939         940        1041        1040
         4         940         941        1042        1041
         4         941         942        1043        1042
         4         942         943        1044        1043
         4         943         944        1045        1044
         4         944         945        1046        1045
         4         945         946        1047        1046
         4         946         947        1048        1047
         4         947         948        1049        1048
         4         948         949        1050        1049
         4         949         950        1051        1050
         4         950         951        1052        1051
         4         951         952        1053        1052
         4         952         953        1054        1053
         4         953         954        1055        1054
         4         954         955        1056        1055
         4         955         956        1057        1056
         4         956         957        1058        1057
         4         957         958        1059        1058
         4         958         959        1060        1059
         4         959         960        1061        1060
         4         960         961        1062        1061
         4         961         962        1063        1062
         4         962         963        1064        1063
         4         963         964        1065        1064
         4         964         965        1066        1065
         4         965         966        1067        1066
         4         966         967        1068        1067
         4         967         968        1069        1068
         4         968         969        1070        1069
         4         969         970        1071        1070
         4         970         971        1072        1071
         4         971         972        1073        1072
         4         972         973        1074        1073
         4         973         974        1075        1074
         4         974         975        1076        1075
         4         975         976        1077        1076
         4         976         977        1078        1077
         4         977         978        1079        1078
         4         978         979        1080        1079
         4         979         980        1081        1080
         4         980         981        1082        1081
         4         981         982        1083        1082
         4         982         983        1084        1083
         4         983         984        1085        1084
         4         984         985        1086        1085
         4         985         986        1087        1086
         4         986         987        1088        1087
         4         987         988        1089        1088
         4         988         989        1090        1089
         4         989         990        1091        1090
         4         990         991        1092        1091
         4         991         992        1093        1092
         4         992         993        1094        1093
         4         993         994        1095        1094
         4         994         995        1096        1095
         4         995         996        1097        1096
         4         996         997        1098        1097
         4         997         998        1099        1098
         4         998         999        1100        1099
         4         999        1000        1101        1100
         4        1000        1001        1102        1101
         4        1001        1002        1103        1102
         4        1002        1003        1104        1103
         4        1003        1004        1105        1104
         4        1004        1005        1106        1105
         4        1005        1006        1107        1106
         4        1006        1007        1108        1107
         4        1007        1008        1109        1108
         4        1008        1009        1110        1109
         4        1010        1011        1112        1111
         4        1011        1012        1113        1112
         4        1012        1013        1114        1113
         4        1013        1014        1115        1114
         4        1014        1015        1116        1115
         4        1015        1016        1117        1116
         4        1016        1017        1118        1117
         4        1017        1018        1119        1118
         4        1018        1019        1120        1119
         4        1019        1020        1121        1120
         4        1020        1021        1122        1121
         4        1021        1022        1123        1122
         4        1022        1023        1124        1123
         4        1023        1024        1125        1124
         4        1024        1025        1126        1125
         4        1025        1026        1127        1126
         4        1026        1027        1128        1127
         4        1027        1028        1129        1128
         4        1028        1029        1130        1129
         4        1029        1030        1131        1130
         4        1030        1031        1132        1131
         4        1031        1032        1133        1132
         4        1032        1033        1134        1133
         4        1033        1034        1135        1134
         4        1034        1035        1136        1135
         4        1035        1036        1137        1136
         4        1036        1037        1138        1137
         4        1037        1038        1139        1138
         4        1038        1039        1140        1139
         4        1039        1040        1141        1140
         4        1040        1041        1142        1141
         4        1041        1042        1143        1142
         4        1042        1043        1144        1143
         4        1043        1044        1145        1144
         4        1044        1045        1146        1145
         4        1045        1046        1147        1146
         4        1046        1047        1148        1147
         4        1047        1048        1149        1148
         4        1048        1049        1150        1149
         4        1049        1050        1151        1150
         4        1050        1051        1152        1151
         4        1051        1052        1153        1152
         4        1052        1053        1154        1153
         4        1053        1054        1155        1154
         4        1054        1055        1156        1155
         4        1055        1056        1157        1156
         4        1056        1057        1158        1157
         4        1057        1058        1159        1158
         4        1058        1059        1160        1159
         4        1059        1060        1161        1160
         4        1060        1061        1162        1161
         4        1061        1062        1163        1162
         4        1062        1063        1164        1163
         4        1063        1064        1165        1164
         4        1064        1065        1166        1165
         4        1065        1066        1167        1166
         4        1066        1067        1168        1167
         4        1067        1068        1169        1168
         4        1068        1069        1170        1169
         4        1069        1070        1171        1170
         4        1070        1071        1172        1171
         4        1071        1072        1173        1172
         4        1072        1073        1174        1173
         4        1073        1074        1175        1174
         4        1074        1075        1176        1175
         4        1075        1076        1177        1176
         4        1076        1077        1178        1177
         4        1077        1078        1179        1178
         4        1078        1079        1180        1179
         4        1079        1080        1181        1180
         4        1080        1081        1182        1181
         4        1081        1082        1183        1182
         4        1082        1083        1184        1183
         4        1083        1084        1185        1184
         4        1084        1085        1186        1185
         4        1085        1086        1187        1186
         4        1086        1087        1188        1187
         4        1087        1088        1189        1188
         4        1088        1089        1190        1189
         4        1089        1090        1191        1190
         4        1090        1091        1192        1191
         4        1091        1092        1193        1192
         4        1092        1093        1194        1193
         4        1093        1094        1195        1194
         4        1094        1095        1196        1195
         4        1095        1096        1197        1196
         4        1096        1097        1198        1197
         4        1097        1098        1199        1198
         4        1098        1099        1200        1199
         4        1099        1100        1201        1200
         4        1100        1101        1202        1201
         4        1101        1102        1203        1202
         4        1102        1103        1204        1203
         4        1103        1104        1205        1204
         4        1104        1105        1206        1205
         4        1105        1106        1207        1206
         4        1106        1107        1208        1207
         4        1107        1108        1209        1208
         4        1108        1109        1210        1209
         4        1109        1110        1211        1210
         4        1111        1112        1213        1212
         4        1112        1113        1214        1213
         4        1113        1114        1215        1214
         4        1114        1115        1216        1215
         4        1115        1116        1217        1216
         4        1116        1117        1218        1217
         4        1117        1118        1219        1218
         4        1118        1119        1220        1219
         4        1119        1120        1221        1220
         4        1120        1121        1222        1221
         4        1121        1122        1223        1222
         4        1122        1123        1224        1223
         4        1123        1124        1225        1224
         4        1124        1125        1226        1225
         4        1125        1126        1227        1226
         4        1126        1127        1228        1227
         4        1127        1128        1229        1228
         4        1128        1129        1230        1229
         4        1129        1130        1231        1230
         4        1130        1131        1232        1231
         4        1131        1132        1233        1232
         4        1132        1133        1234        1233
         4        1133        1134        1235        1234
         4        1134        1135        1236        1235
         4        1135        1136        1237        1236
         4        1136        1137        1238        1237
         4        1137        1138        1239        1238
         4        1138        1139        1240        1239
         4        1139        1140        1241        1240
         4        1140        1141        1242        1241
         4        1141        1142        1243        1242
         4        1142        1143        1244        1243
         4        1143        1144        1245        1244
         4        1144        1145        1246        1245
         4        1145        1146        1247        1246
         4        1146        1147        1248        1247
         4        1147        1148        1249        1248
         4        1148        1149        1250        1249
         4        1149        1150        1251        1250
         4        1150        1151        1252        1251
         4        1151        1152        1253        1252
         4        1152        1153        1254        1253
         4        1153        1154        1255        1254
         4        1154        1155        1256        1255
         4        1155        1156        1257        1256
         4        1156        1157        1258        1257
         4        1157        1158        1259        1258
         4        1158        1159        1260        1259
         4        1159        1160        1261        1260
         4        1160        1161        1262        1261
         4        1161        1162        1263        1262
         4        1162        1163        1264        1263
         4        1163        1164        1265        1264
         4        1164        1165        1266        1265
         4        1165        1166        1267        1266
         4        1166        1167        1268        1267
         4        1167        1168        1269        1268
         4        1168        1169        1270        1269
         4        1169        1170        1271        1270
         4        1170        1171        1272        1271
         4        1171        1172        1273        1272
         4        1172        1173        1274        1273
         4        1173        1174        1275        1274
         4        1174        1175        1276        1275
         4        1175        1176        1277        1276
         4        1176        1177        1278        1277
         4        1177        1178        1279        1278
         4        1178        1179        1280        1279
         4        1179        1180        1281        1280
         4        1180        1181        1282        1281
         4        1181        1182        1283        1282
         4        1182        1183        1284        1283
         4        1183        1184        1285        1284
         4        1184        1185        1286        1285
         4        1185        1186        1287        1286
         4        1186        1187        1288        1287
         4        1187        1188        1289        1288
         4        1188        1189        1290        1289
         4        1189        1190        1291        1290
         4        1190        1191        1292        1291
         4        1191        1192        1293        1292
         4        1192        1193        1294        1293
         4        1193        1194        1295        1294
         4        1194        1195        1296        1295
         4        1195        1196        1297        1296
         4        1196        1197        1298        1297
         4        1197        1198        1299        1298
         4        1198        1199        1300        1299
         4        1199        1200        1301        1300
         4        1200        1201        1302        1301
         4        1201        1202        1303        1302
         4        1202        1203        1304        1303
         4        1203        1204        1305        1304
         4        1204        1205        1306        1305
         4        1205        1206        1307        1306
         4        1206        1207        1308        1307
         4        1207        1208        1309        1308
         4        1208        1209        1310        1309
         4        1209        1210        1311        1310
         4        1210        1211        1312        1311
         4        1212        1213        1314        1313
         4        1213        1214        1315        1314
         4        1214        1215        1316        1315
         4        1215        1216        1317        1316
         4        1216        1217        1318        1317
         4        1217        1218        1319        1318
         4        1218        1219        1320        1319
         4        1219        1220        1321        1320
         4        1220        1221        1322        1321
         4        1221        1222        1323        1322
         4        1222        1223        1324        1323
         4        1223        1224        1325        1324
         4        1224        1225        1326        1325
         4        1225        1226        1327        1326
         4        1226        1227        1328        1327
         4        1227        1228        1329        1328
         4        1228        1229        1330        1329
         4        1229        1230        1331        1330
         4        1230        1231        1332        1331
         4        1231        1232        1333        1332
         4        1232        1233        1334        1333
         4        1233        1234        1335        1334
         4        1234        1235        1336        1335
         4        1235        1236        1337        1336
         4        1236        1237        1338        1337
         4        1237        1238        1339        1338
         4        1238        1239        1340        1339
         4        1239        1240        1341        1340
         4        1240        1241        1342        1341
         4        1241        1242        1343        1342
         4        1242        1243        1344        1343
         4        1243        1244        1345        1344
         4        1244        1245        1346        1345
         4        1245        1246        1347        1346
         4        1246        1247        1348        1347
         4        1247        1248        1349        1348
         4        1248        1249        1350        1349
         4        1249        1250        1351        1350
         4        1250        1251        1352        1351
         4        1251        1252        1353        1352
         4        1252        1253        1354        1353
         4        1253        1254        1355        1354
         4        1254        1255        1356        1355
         4        1255        1256        1357        1356
         4        1256        1257        1358        1357
         4        1257        1258        1359        1358
         4        1258        1259        1360        1359
         4        1259        1260        1361        1360
         4        1260        1261        1362        1361
         4        1261        1262        1363        1362
         4        1262        1263        1364        1363
         4        1263        1264        1365        1364
         4        1264        1265        1366        1365
         4        1265        1266        1367        1366
         4        1266        1267        1368        1367
         4        1267        1268        1369        1368
         4        1268        1269        1370        1369
         4        1269        1270        1371        1370
         4        1270        1271        1372        1371
         4        1271        1272        1373        1372
         4        1272        1273        1374        1373
         4        1273        1274        1375        1374
         4        1274        1275        1376        1375
         4        1275        1276        1377        1376
         4        1276        1277        1378        1377
         4        1277        1278        1379        1378
         4        1278        1279        1380        1379
         4        1279        1280        1381        1380
         4        1280        1281        1382        1381
         4        1281        1282        1383        1382
         4        1282        1283        1384        1383
         4        1283        1284        1385        1384
         4        1284        1285        1386        1385
         4        1285        1286        1387        1386
         4        1286        1287        1388        1387
         4        1287        1288        1389        1388
         4        1288        1289        1390        1389
         4        1289        1290        1391        1390
         4        1290        1291        1392        1391
         4        1291        1292        1393        1392
         4        1292        1293        1394        1393
         4        1293        1294        1395        1394
         4        1294        1295        1396        1395
         4        1295        1296        1397        1396
         4        1296        1297        1398        1397
         4        1297        1298        1399        1398
         4        1298        1299        1400        1399
         4        1299        1300        1401        1400
         4        1300        1301        1402        1401
         4        1301        1302        1403        1402
         4        1302        1303        1404        1403
         4        1303        1304        1405        1404
         4        1304        1305        1406        1405
         4        1305        1306        1407        1406
         4        1306        1307        1408        1407
         4        1307        1308        1409        1408
         4        1308        1309        1410        1409
         4        1309        1310        1411        1410
         4        1310        1311        1412        1411
         4        1311        1312        1413        1412
         4        1313        1314        1415        1414
         4        1314        1315        1416        1415
         4        1315        1316        1417        1416
         4        1316        1317        1418        1417
         4        1317        1318        1419        1418
         4        1318        1319        1420        1419
         4        1319        1320        1421        1420
         4        1320        1321        1422        1421
         4        1321        1322        1423        1422
         4        1322        1323        1424        1423
         4        1323        1324        1425        1424
         4        1324        1325        1426        1425
         4        1325        1326        1427        1426
         4        1326        1327        1428        1427
         4        1327        1328        1429        1428
         4        1328        1329        1430        1429
         4        1329        1330        1431        1430
         4        1330        1331        1432        1431
         4        1331        1332        1433        1432
         4        1332        1333        1434        1433
         4        1333        1334        1435        1434
         4        1334        1335        1436        1435
         4        1335        1336        1437        1436
         4        1336        1337        1438        1437
         4        1337        1338        1439        1438
         4        1338        1339        1440        1439
         4        1339        1340        1441        1440
         4        1340        1341        1442        1441
         4        1341        1342        1443        1442
         4        1342        1343        1444        1443
         4        1343        1344        1445        1444
         4        1344        1345        1446        1445
         4        1345        1346        1447        1446
         4        1346        1347        1448        1447
         4        1347        1348        1449        1448
         4        1348        1349        1450        1449
         4        1349        1350        1451        1450
         4        1350        1351        1452        1451
         4        1351        1352        1453        1452
         4        1352        1353        1454        1453
         4        1353        1354        1455        1454
         4        1354        1355        1456        1455
         4        1355        1356        1457        1456
         4        1356        1357        1458        1457
         4        1357        1358        1459        1458
         4        1358        1359        1460        1459
         4        1359        1360        1461        1460
         4        1360        1361        1462        1461
         4        1361        1362        1463        1462
         4        1362        1363        1464        1463
         4        1363        1364        1465        1464
         4        1364        1365        1466        1465
         4        1365        1366        1467        1466
         4        1366        1367        1468        1467
         4        1367        1368        1469        1468
         4        1368        1369        1470        1469
         4        1369        1370        1471        1470
         4        1370        1371        1472        1471
         4        1371        1372        1473        1472
         4        1372        1373        1474        1473
         4        1373        1374        1475        1474
         4        1374        1375        1476        1475
         4        1375        1376        1477        1476
         4        1376        1377        1478        1477
         4        1377        1378        1479        1478
         4        1378        1379        1480        1479
         4        1379        1380        1481        1480
         4        1380        1381        1482        1481
         4        1381        1382        1483        1482
         4        1382        1383        1484        1483
         4        1383        1384        1485        1484
         4        1384        1385        1486        1485
         4        1385        1386        1487        1486
         4        1386        1387        1488        1487
         4        1387        1388        1489        1488
         4        1388        1389        1490        1489
         4        1389        1390        1491        1490
         4        1390        1391        1492        1491
         4        1391        1392        1493        1492
         4        1392        1393        1494        1493
         4        1393        1394        1495        1494
         4        1394        1395        1496        1495
         4        1395        1396        1497        1496
         4        1396        1397        1498        1497
         4        1397        1398        1499        1498
         4        1398        1399        1500        1499
         4        1399        1400        1501        1500
         4        1400        1401        1502        1501
         4        1401        1402        1503        1502
         4        1402        1403        1504        1503
         4        1403        1404        1505        1504
         4        1404        1405        1506        1505
         4        1405        1406        1507        1506
         4        1406        1407        1508        1507
         4        1407        1408        1509        1508
         4        1408        1409        1510        1509
         4        1409        1410        1511        1510
         4        1410        1411        1512        1511
         4        1411        1412        1513        1512
         4        1412        1413        1514        1513
         4        1414        1415        1516        1515
         4        1415        1416        1517        1516
         4        1416        1417        1518        1517
         4        1417        1418        1519        1518
         4        1418        1419        1520        1519
         4        1419        1420        1521        1520
         4        1420        1421        1522        1521
         4        1421        1422        1523        1522
         4        1422        1423        1524        1523
         4        1423        1424        1525        1524
         4        1424        1425        1526        1525
         4        1425        1426        1527        1526
         4        1426        1427        1528        1527
         4        1427        1428        1529        1528
         4        1428        1429        1530        1529
         4        1429        1430        1531        1530
         4        1430        1431        1532        1531
         4        1431        1432        1533        1532
         4        1432        1433        1534        1533
         4        1433        1434        1535        1534
         4        1434        1435        1536        1535
         4        1435        1436        1537        1536
         4        1436        1437        1538        1537
         4        1437        1438        1539        1538
         4        1438        1439        1540        1539
         4        1439        1440        1541        1540
         4        1440        1441        1542        1541
         4        1441        1442        1543        1542
         4        1442        1443        1544        1543
         4        1443        1444        1545        1544
         4        1444        1445        1546        1545
         4        1445        1446        1547        1546
         4        1446        1447        1548        1547
         4        1447        1448        1549        1548
         4        1448        1449        1550        1549
         4        1449        1450        1551        1550
         4        1450        1451        1552        1551
         4        1451        1452        1553        1552
         4        1452        1453        1554        1553
         4        1453        1454        1555        1554
         4        1454        1455        1556        1555
         4        1455        1456        1557        1556
         4        1456        1457        1558        1557
         4        1457        1458        1559        1558
         4        1458        1459        1560        1559
         4        1459        1460        1561        1560
         4        1460        1461        1562        1561
         4        1461        1462        1563        1562
         4        1462        1463        1564        1563
         4        1463        1464        1565        1564
         4        1464        1465        1566        1565
         4        1465        1466        1567        1566
         4        1466        1467        1568        1567
         4        1467        1468        1569        1568
         4        1468        1469        1570        1569
         4        1469        1470        1571        1570
         4        1470        1471        1572        1571
         4        1471        1472        1573        1572
         4        1472        1473        1574        1573
         4        1473        1474        1575        1574
         4        1474        1475        1576        1575
         4        1475        1476        1577        1576
         4        1476        1477        1578        1577
         4        1477        1478        1579        1578
         4        1478        1479        1580        1579
         4        1479        1480        1581        1580
         4        1480        1481        1582        1581
         4        1481        1482        1583        1582
         4        1482        1483        1584        1583
         4        1483        1484        1585        1584
         4        1484        1485        1586        1585
         4        1485        1486        1587        1586
         4        1486        1487        1588        1587
         4        1487        1488        1589        1588
         4        1488        1489        1590        1589
         4        1489        1490        1591        1590
         4        1490        1491        1592        1591
         4        1491        1492        1593        1592
         4        1492        1493        1594        1593
         4        1493        1494        1595        1594
         4        1494        1495        1596        1595
         4        1495        1496        1597        1596
         4        1496        1497        1598        1597
         4        1497        1498        1599        1598
         4        1498        1499        1600        1599
         4        1499        1500        1601        1600
         4        1500        1501        1602        1601
         4        1501        1502        1603        1602
         4        1502        1503        1604        1603
         4        1503        1504        1605        1604
         4        1504        1505        1606        1605
         4        1505        1506        1607        1606
         4        1506        1507        1608        1607
         4        1507        1508        1609        1608
         4        1508        1509        1610        1609
         4        1509        1510        1611        1610
         4        1510        1511        1612        1611
         4        1511        1512        1613        1612
         4        1512        1513        1614        1613
         4        1513        1514        1615        1614
         4        1515        1516        1617        1616
         4        1516        1517        1618        1617
         4        1517        1518        1619        1618
         4        1518        1519        1620        1619
         4        1519        1520        1621        1620
         4        1520        1521        1622        1621
         4        1521        1522        1623        1622
         4        1522        1523        1624        1623
         4        1523        1524        1625        1624
         4        1524        1525        1626        1625
         4        1525        1526        1627        1626
         4        1526        1527        1628        1627
         4        1527        1528        1629        1628
         4        1528        1529        1630        1629
         4        1529        1530        1631        1630
         4        1530        1531        1632        1631
         4        1531        1532        1633        1632
         4        1532        1533        1634        1633
         4        1533        1534        1635        1634
         4        1534        1535        1636        1635
         4        1535        1536        1637        1636
         4        1536        1537        1638        1637
         4        1537        1538        1639        1638
         4        1538        1539        1640        1639
         4        1539        1540        1641        1640
         4        1540        1541        1642        1641
         4        1541        1542        1643        1642
         4        1542        1543        1644        1643
         4        1543        1544        1645        1644
         4        1544        1545        1646        1645
         4        1545        1546        1647        1646
         4        1546        1547        1648        1647
         4        1547        1548        1649        1648
         4        1548        1549        1650        1649
         4        1549        1550        1651        1650
         4        1550        1551        1652        1651
         4        1551        1552        1653        1652
         4        1552        1553        1654        1653
         4        1553        1554        1655        1654
         4        1554        1555        1656        1655
         4        1555        1556        1657        1656
         4        1556        1557        1658        1657
         4        1557        1558        1659        1658
         4        1558        1559        1660        1659
         4        1559        1560        1661        1660
         4        1560        1561        1662        1661
         4        1561        1562        1663        1662
         4        1562        1563        1664        1663
         4        1563        1564        1665        1664
         4        1564        1565        1666        1665
         4        1565        1566        1667        1666
         4        1566        1567        1668        1667
         4        1567        1568        1669        1668
         4        1568        1569        1670        1669
         4        1569        1570        1671        1670
         4        1570        1571        1672        1671
         4        1571        1572        1673        1672
         4        1572        1573        1674        1673
         4        1573        1574        1675        1674
         4        1574        1575        1676        1675
         4        1575        1576        1677        1676
         4        1576        1577        1678        1677
         4        1577        1578        1679        1678
         4        1578        1579        1680        1679
         4        1579        1580        1681        1680
         4        1580        1581        1682        1681
         4        1581        1582        1683        1682
         4        1582        1583        1684        1683
         4        1583        1584        1685        1684
         4        1584        1585        1686        1685
         4        1585        1586        1687        1686
         4        1586        1587        1688        1687
         4        1587        1588        1689        1688
         4        1588        1589        1690        1689
         4        1589        1590        1691        1690
         4        1590        1591        1692        1691
         4        1591        1592        1693        1692
         4        1592        1593        1694        1693
         4        1593        1594        1695        1694
         4        1594        1595        1696        1695
         4        1595        1596        1697        1696
         4        1596        1597        1698        1697
         4        1597        1598        1699        1698
         4        1598        1599        1700        1699
         4        1599        1600        1701        1700
         4        1600        1601        1702        1701
         4        1601        1602        1703        1702
         4        1602        1603        1704        1703
         4        1603        1604        1705        1704
         4        1604        1605        1706        1705
         4        1605        1606        1707        1706
         4        1606        1607        1708        1707
         4        1607        1608        1709        1708
         4        1608        1609        1710        1709
         4        1609        1610        1711        1710
         4        1610        1611        1712        1711
         4        1611        1612        1713        1712
         4        1612        1613        1714        1713
         4        1613        1614        1715        1714
         4        1614        1615        1716        1715
         4        1616        1617        1718        1717
         4        1617        1618        1719        1718
         4        1618        1619        1720        1719
         4        1619        1620        1721        1720
         4        1620        1621        1722        1721
         4        1621        1622        1723        1722
         4        1622        1623        1724        1723
         4        1623        1624        1725        1724
         4        1624        1625        1726        1725
         4        1625        1626        1727        1726
         4        1626        1627        1728        1727
         4        1627        1628        1729        1728
         4        1628        1629        1730        1729
         4        1629        1630        1731        1730
         4        1630        1631        1732        1731
         4        1631        1632        1733        1732
         4        1632        1633        1734        1733
         4        1633        1634        1735        1734
         4        1634        1635        1736        1735
         4        1635        1636        1737        1736
         4        1636        1637        1738        1737
         4        1637        1638        1739        1738
         4        1638        1639        1740        1739
         4        1639        1640        1741        1740
         4        1640        1641        1742        1741
         4        1641        1642        1743        1742
         4        1642        1643        1744        1743
         4        1643        1644        1745        1744
         4        1644        1645        1746        1745
         4        1645        1646        1747        1746
         4        1646        1647        1748        1747
         4        1647        1648        1749        1748
         4        1648        1649        1750        1749
         4        1649        1650        1751        1750
         4        1650        1651        1752        1751
         4        1651        1652        1753        1752
         4        1652        1653        1754        1753
         4        1653        1654        1755        1754
         4        1654        1655        1756        1755
         4        1655        1656        1757        1756
         4        1656        1657        1758        1757
         4        1657        1658        1759        1758
         4        1658        1659        1760        1759
         4        1659        1660        1761        1760
         4        1660        1661        1762        1761
         4        1661        1662        1763        1762
         4        1662        1663        1764        1763
         4        1663        1664        1765        1764
         4        1664        1665        1766        1765
         4        1665        1666        1767        1766
         4        1666        1667        1768        1767
         4        1667        1668        1769        1768
         4        1668        1669        1770        1769
         4        1669        1670        1771        1770
         4        1670        1671        1772        1771
         4        1671        1672        1773        1772
         4        1672        1673        1774        1773
         4        1673        1674        1775        1774
         4        1674        1675        1776        1775
         4        1675        1676        1777        1776
         4        1676        1677        1778        1777
         4        1677        1678        1779        1778
         4        1678        1679        1780        1779
         4        1679        1680        1781        1780
         4        1680        1681        1782        1781
         4        1681        1682        1783        1782
         4        1682        1683        1784        1783
         4        1683        1684        1785        1784
         4        1684        1685        1786        1785
         4        1685        1686        1787        1786
         4        1686        1687        1788        1787
         4        1687        1688        1789        1788
         4        1688        1689        1790        1789
         4        1689        1690        1791        1790
         4        1690        1691        1792        1791
         4        1691        1692        1793        1792
         4        1692        1693        1794        1793
         4        1693        1694        1795        1794
         4        1694        1695        1796        1795
         4        1695        1696        1797        1796
         4        1696        1697        1798        1797
         4        1697        1698        1799        1798
         4        1698        1699        1800        1799
         4        1699        1700        1801        1800
         4        1700        1701        1802        1801
         4        1701        1702        1803        1802
         4        1702        1703        1804        1803
         4        1703        1704        1805        1804
         4        1704        1705        1806        1805
         4        1705        1706        1807        1806
         4        1706        1707        1808        1807
         4        1707        1708        1809        1808
         4        1708        1709        1810        1809
         4        1709        1710        1811        1810
         4        1710        1711        1812        1811
         4        1711        1712        1813        1812
         4        1712        1713        1814        1813
         4        1713        1714        1815        1814
         4        1714        1715        1816        1815
         4        1715        1716        1817        1816
         4        1717        1718        1819        1818
         4        1718        1719        1820        1819
         4        1719        1720        1821        1820
         4        1720        1721        1822        1821
         4        1721        1722        1823        1822
         4        1722        1723        1824        1823
         4        1723        1724        1825        1824
         4        1724        1725        1826        1825
         4        1725        1726        1827        1826
         4        1726        1727        1828        1827
         4        1727        1728        1829        1828
         4        1728        1729        1830        1829
         4        1729        1730        1831        1830
         4        1730        1731        1832        1831
         4        1731        1732        1833        1832
         4        1732        1733        1834        1833
         4        1733        1734        1835        1834
         4        1734        1735        1836        1835
         4        1735        1736        1837        1836
         4        1736        1737        1838        1837
         4        1737        1738        1839        1838
         4        1738        1739        1840        1839
         4        1739        1740        1841        1840
         4        1740        1741        1842        1841
         4        1741        1742        1843        1842
         4        1742        1743        1844        1843
         4        1743        1744        1845        1844
         4        1744        1745        1846        1845
         4        1745        1746        1847        1846
         4        1746        1747        1848        1847
         4        1747        1748        1849        1848
         4        1748        1749        1850        1849
         4        1749        1750        1851        1850
         4        1750        1751        1852        1851
         4        1751        1752        1853        1852
         4        1752        1753        1854        1853
         4        1753        1754        1855        1854
         4        1754        1755        1856        1855
         4        1755        1756        1857        1856
         4        1756        1757        1858        1857
         4        1757        1758        1859        1858
         4        1758        1759        1860        1859
         4        1759        1760        1861        1860
         4        1760        1761        1862        1861
         4        1761        1762        1863        1862
         4        1762        1763        1864        1863
         4        1763        1764        1865        1864
         4        1764        1765        1866        1865
         4        1765        1766        1867        1866
         4        1766        1767        1868        1867
         4        1767        1768        1869        1868
         4        1768        1769        1870        1869
         4        1769        1770        1871        1870
         4        1770        1771        1872        1871
         4        1771        1772        1873        1872
         4        1772        1773        1874        1873
         4        1773        1774        1875        1874
         4        1774        1775        1876        1875
         4        1775        1776        1877        1876
         4        1776        1777        1878        1877
         4        1777        1778        1879        1878
         4        1778        1779        1880        1879
         4        1779        1780        1881        1880
         4        1780        1781        1882        1881
         4        1781        1782        1883        1882
         4        1782        1783        1884        1883
         4        1783        1784        1885        1884
         4        1784        1785        1886        1885
         4        1785        1786        1887        1886
         4        1786        1787        1888        1887
         4        1787        1788        1889        1888
         4        1788        1789        1890        1889
         4        1789        1790        1891        1890
         4        1790        1791        1892        1891
         4        1791        1792        1893        1892
         4        1792        1793        1894        1893
         4        1793        1794        1895        1894
         4        1794        1795        1896        1895
         4        1795        1796        1897        1896
         4        1796        1797        1898        1897
         4        1797        1798        1899        1898
         4        1798        1799        1900        1899
         4        1799        1800        1901        1900
         4        1800        1801        1902        1901
         4        1801        1802        1903        1902
         4        1802        1803        1904        1903
         4        1803        1804        1905        1904
         4        1804        1805        1906        1905
         4        1805        1806        1907        1906
         4        1806        1807        1908        1907
         4        1807        1808        1909        1908
         4        1808        1809        1910        1909
         4        1809        1810        1911        1910
         4        1810        1811        1912        1911
         4        1811        1812        1913        1912
         4        1812        1813        1914        1913
         4        1813        1814        1915        1914
         4        1814        1815        1916        1915
         4        1815        1816        1917        1916
         4        1816        1817        1918        1917
         4        1818        1819        1920        1919
         4        1819        1820        1921        1920
         4        1820        1821        1922        1921
         4        1821        1822        1923        1922
         4        1822        1823        1924        1923
         4        1823        1824        1925        1924
         4        1824        1825        1926        1925
         4        1825        1826        1927        1926
         4        1826        1827        1928        1927
         4        1827        1828        1929        1928
         4        1828        1829        1930        1929
         4        1829        1830        1931        1930
         4        1830        1831        1932        1931
         4        1831        1832        1933        1932
         4        1832        1833        1934        1933
         4        1833        1834        1935        1934
         4        1834        1835        1936        1935
         4        1835        1836        1937        1936
         4        1836        1837        1938        1937
         4        1837        1838        1939        1938
         4        1838        1839        1940        1939
         4        1839        1840        1941        1940
         4        1840        1841        1942        1941
         4        1841        1842        1943        1942
         4        1842        1843        1944        1943
         4        1843        1844        1945        1944
         4        1844        1845        1946        1945
         4        1845        1846        1947        1946
         4        1846        1847        1948        1947
         4        1847        1848        1949        1948
         4        1848        1849        1950        1949
         4        1849        1850        1951        1950
         4        1850        1851        1952        1951
         4        1851        1852        1953        1952
         4        1852        1853        1954        1953
         4        1853        1854        1955        1954
         4        1854        1855        1956        1955
         4        1855        1856        1957        1956
         4        1856        1857        1958        1957
         4        1857        1858        1959        1958
         4        1858        1859        1960        1959
         4        1859        1860        1961        1960
         4        1860        1861        1962        1961
         4        1861        1862        1963        1962
         4        1862        1863        1964        1963
         4        1863        1864        1965        1964
         4        1864        1865        1966        1965
         4        1865        1866        1967        1966
         4        1866        1867        1968        1967
         4        1867        1868        1969        1968
         4        1868        1869        1970        1969
         4        1869        1870        1971        1970
         4        1870        1871        1972        1971
         4        1871        1872        1973        1972
         4        1872        1873        1974        1973
         4        1873        1874        1975        1974
         4        1874        1875        1976        1975
         4        1875        1876        1977        1976
         4        1876        1877        1978        1977
         4        1877        1878        1979        1978
         4        1878        1879        1980        1979
         4        1879        1880        1981        1980
         4        1880        1881        1982        1981
         4        1881        1882        1983        1982
         4        1882        1883        1984        1983
         4        1883        1884        1985        1984
         4        1884        1885        1986        1985
         4        1885        1886        1987        1986
         4        1886        1887        1988        1987
         4        1887        1888        1989        1988
         4        1888        1889        1990        1989
         4        1889        1890        1991        1990
         4        1890        1891        1992        1991
         4        1891        1892        1993        1992
         4        1892        1893        1994        1993
         4        1893        1894        1995        1994
         4        1894        1895        1996        1995
         4        1895        1896        1997        1996
         4        1896        1897        1998        1997
         4        1897        1898        1999        1998
         4        1898        1899        2000        1999
         4        1899        1900        2001        2000
         4        1900        1901        2002        2001
         4        1901        1902        2003        2002
         4        1902        1903        2004        2003
         4        1903        1904        2005        2004
         4        1904        1905        2006        2005
         4        1905        1906        2007        2006
         4        1906        1907        2008        2007
         4        1907        1908        2009        2008
         4        1908        1909        2010        2009
         4        1909        1910        2011        2010
         4        1910        1911        2012        2011
         4        1911        1912        2013        2012
         4        1912        1913        2014        2013
         4        1913        1914        2015        2014
         4        1914        1915        2016        2015
         4        1915        1916        2017        2016
         4        1916        1917        2018        2017
         4        1917        1918        2019        2018
         4        1919        1920        2021        2020
         4        1920        1921        2022        2021
         4        1921        1922        2023        2022
         4        1922        1923        2024        2023
         4        1923        1924        2025        2024
         4        1924        1925        2026        2025
         4        1925        1926        2027        2026
         4        1926        1927        2028        2027
         4        1927        1928        2029        2028
         4        1928        1929        2030        2029
         4        1929        1930        2031        2030
         4        1930        1931        2032        2031
         4        1931        1932        2033        2032
         4        1932        1933        2034        2033
         4        1933        1934        2035        2034
         4        1934        1935        2036        2035
         4        1935        1936        2037        2036
         4        1936        1937        2038        2037
         4        1937        1938        2039        2038
         4        1938        1939        2040        2039
         4        1939        1940        2041        2040
         4        1940        1941        2042        2041
         4        1941        1942        2043        2042
         4        1942        1943        2044        2043
         4        1943        1944        2045        2044
         4        1944        1945        2046        2045
         4        1945        1946        2047        2046
         4        1946        1947        2048        2047
         4        1947        1948        2049        2048
         4        1948        1949        2050        2049
         4        1949        1950        2051        2050
         4        1950        1951        2052        2051
         4        1951        1952        2053        2052
         4        1952        1953        2054        2053
         4        1953        1954        2055        2054
         4        1954        1955        2056        2055
         4        1955        1956        2057        2056
         4        1956        1957        2058        2057
         4        1957        1958        2059        2058
         4        1958        1959        2060        2059
         4        1959        1960        2061        2060
         4        1960        1961        2062        2061
         4        1961        1962        2063        2062
         4        1962        1963        2064        2063
         4        1963        1964        2065        2064
         4        1964        1965        2066        2065
         4        1965        1966        2067        2066
         4        1966        1967        2068        2067
         4        1967        1968        2069        2068
         4        1968        1969        2070        2069
         4        1969        1970        2071        2070
         4        1970        1971        2072        2071
         4        1971        1972        2073        2072
         4        1972        1973        2074        2073
         4        1973        1974        2075        2074
         4        1974        1975        2076        2075
         4        1975        1976        2077        2076
         4        1976        1977        2078        2077
         4        1977        1978        2079        2078
         4        1978        1979        2080        2079
         4        1979        1980        2081        2080
         4        1980        1981        2082        2081
         4        1981        1982        2083        2082
         4        1982        1983        2084        2083
         4        1983        1984        2085        2084
         4        1984        1985        2086        2085
         4        1985        1986        2087        2086
         4        1986        1987        2088        2087
         4        1987        1988        2089        2088
         4        1988        1989        2090        2089
         4        1989        1990        2091        2090
         4        1990        1991        2092        2091
         4        1991        1992        2093        2092
         4        1992        1993        2094        2093
         4        1993        1994        2095        2094
         4        1994        1995        2096        2095
         4        1995        1996        2097        2096
         4        1996        1997        2098        2097
         4        1997        1998        2099        2098
         4        1998        1999        2100        2099
         4        1999        2000        2101        2100
         4        2000        2001        2102        2101
         4        2001        2002        2103        2102
         4        2002        2003        2104        2103
         4        2003        2004        2105        2104
         4        2004        2005        2106        2105
         4        2005        2006        2107        2106
         4        2006        2007        2108        2107
         4        2007        2008        2109        2108
         4        2008        2009        2110        2109
         4        2009        2010        2111        2110
         4        2010        2011        2112        2111
         4        2011        2012        2113        2112
         4        2012        2013        2114        2113
         4        2013        2014        2115        2114
         4        2014        2015        2116        2115
         4        2015        2016        2117        2116
         4        2016        2017        2118        2117
         4        2017        2018        2119        2118
         4        2018        2019        2120        2119
         4        2020        2021        2122        2121
         4        2021        2022        2123        2122
         4        2022        2023        2124        2123
         4        2023        2024        2125        2124
         4        2024        2025        2126        2125
         4        2025        2026        2127        2126
         4        2026        2027        2128        2127
         4        2027        2028        2129        2128
         4        2028        2029        2130        2129
         4        2029        2030        2131        2130
         4        2030        2031        2132        2131
         4        2031        2032        2133        2132
         4        2032        2033        2134        2133
         4        2033        2034        2135        2134
         4        2034        2035        2136        2135
         4        2035        2036        2137        2136
         4        2036        2037        2138        2137
         4        2037        2038        2139        2138
         4        2038        2039        2140        2139
         4        2039        2040        2141        2140
         4        2040        2041        2142        2141
         4        2041        2042        2143        2142
         4        2042        2043        2144        2143
         4        2043        2044        2145        2144
         4        2044        2045        2146        2145
         4        2045        2046        2147        2146
         4        2046        2047        2148        2147
         4        2047        2048        2149        2148
         4        2048        2049        2150        2149
         4        2049        2050        2151        2150
         4        2050        2051        2152        2151
         4        2051        2052        2153        2152
         4        2052        2053        2154        2153
         4        2053        2054        2155        2154
         4        2054        2055        2156        2155
         4        2055        2056        2157        2156
         4        2056        2057        2158        2157
         4        2057        2058        2159        2158
         4        2058        2059        2160        2159
         4        2059        2060        2161        2160
         4        2060        2061        2162        2161
         4        2061        2062        2163        2162
         4        2062        2063        2164        2163
         4        2063        2064        2165        2164
         4        2064        2065        2166        2165
         4        2065        2066        2167        2166
         4        2066        2067        2168        2167
         4        2067        2068        2169        2168
         4        2068        2069        2170        2169
         4        2069        2070        2171        2170
         4        2070        2071        2172        2171
         4        2071        2072        2173        2172
         4        2072        2073        2174        2173
         4        2073        2074        2175        2174
         4        2074        2075        2176        2175
         4        2075        2076        2177        2176
         4        2076        2077        2178        2177
         4        2077        2078        2179        2178
         4        2078        2079        2180        2179
         4        2079        2080        2181        2180
         4        2080        2081        2182        2181
         4        2081        2082        2183        2182
         4        2082        2083        2184        2183
         4        2083        2084        2185        2184
         4        2084        2085        2186        2185
         4        2085        2086        2187        2186
         4        2086        2087        2188        2187
         4        2087        2088        2189        2188
         4        2088        2089        2190        2189
         4        2089        2090        2191        2190
         4        2090        2091        2192        2191
         4        2091        2092        2193        2192
         4        2092        2093        2194        2193
         4        2093        2094        2195        2194
         4        2094        2095        2196        2195
         4        2095        2096        2197        2196
         4        2096        2097        2198        2197
         4        2097        2098        2199        2198
         4        2098        2099        2200        2199
         4        2099        2100        2201        2200
         4        2100        2101        2202        2201
         4        2101        2102        2203        2202
         4        2102        2103        2204        2203
         4        2103        2104        2205        2204
         4        2104        2105        2206        2205
         4        2105        2106        2207        2206
         4        2106        2107        2208        2207
         4        2107        2108        2209        2208
         4        2108        2109        2210        2209
         4        2109        2110        2211        2210
         4        2110        2111        2212        2211
         4        2111        2112        2213        2212
         4        2112        2113        2214        2213
         4        2113        2114        2215        2214
         4        2114        2115        2216        2215
         4        2115        2116        2217        2216
         4        2116        2117        2218        2217
         4        2117        2118        2219        2218
         4        2118        2119        2220        2219
         4        2119        2120        2221        2220
         4        2121        2122        2223        2222
         4        2122        2123        2224        2223
         4        2123        2124        2225        2224
         4        2124        2125        2226        2225
         4        2125        2126        2227        2226
         4        2126        2127        2228        2227
         4        2127        2128        2229        2228
         4        2128        2129        2230        2229
         4        2129        2130        2231        2230
         4        2130        2131        2232        2231
         4        2131        2132        2233        2232
         4        2132        2133        2234        2233
         4        2133        2134        2235        2234
         4        2134        2135        2236        2235
         4        2135        2136        2237        2236
         4        2136        2137        2238        2237
         4        2137        2138        2239        2238
         4        2138        2139        2240        2239
         4        2139        2140        2241        2240
         4        2140        2141        2242        2241
         4        2141        2142        2243        2242
         4        2142        2143        2244        2243
         4        2143        2144        2245        2244
         4        2144        2145        2246        2245
         4        2145        2146        2247        2246
         4        2146        2147        2248        2247
         4        2147        2148        2249        2248
         4        2148        2149        2250        2249
         4        2149        2150        2251        2250
         4        2150        2151        2252        2251
         4        2151        2152        2253        2252
         4        2152        2153        2254        2253
         4        2153        2154        2255        2254
         4        2154        2155        2256        2255
         4        2155        2156        2257        2256
         4        2156        2157        2258        2257
         4        2157        2158        2259        2258
         4        2158        2159        2260        2259
         4        2159        2160        2261        2260
         4        2160        2161        2262        2261
         4        2161        2162        2263        2262
         4        2162        2163        2264        2263
         4        2163        2164        2265        2264
         4        2164        2165        2266        2265
         4        2165        2166        2267        2266
         4        2166        2167        2268        2267
         4        2167        2168        2269        2268
         4        2168        2169        2270        2269
         4        2169        2170        2271        2270
         4        2170        2171        2272        2271
         4        2171        2172        2273        2272
         4        2172        2173        2274        2273
         4        2173        2174        2275        2274
         4        2174        2175        2276        2275
         4        2175        2176        2277        2276
         4        2176        2177        2278        2277
         4        2177        2178        2279        2278
         4        2178        2179        2280        2279
         4        2179        2180        2281        2280
         4        2180        2181        2282        2281
         4        2181        2182        2283        2282
         4        2182        2183        2284        2283
         4        2183        2184        2285        2284
         4        2184        2185        2286        2285
         4        2185        2186        2287        2286
         4        2186        2187        2288        2287
         4        2187        2188        2289        2288
         4        2188        2189        2290        2289
         4        2189        2190        2291        2290
         4        2190        2191        2292        2291
         4        2191        2192        2293        2292
         4        2192        2193        2294        2293
         4        2193        2194        2295        2294
         4        2194        2195        2296        2295
         4        2195        2196        2297        2296
         4        2196        2197        2298        2297
         4        2197        2198        2299        2298
         4        2198        2199        2300        2299
         4        2199        2200        2301        2300
         4        2200        2201        2302        2301
         4        2201        2202        2303        2302
         4        2202        2203        2304        2303
         4        2203        2204        2305        2304
         4        2204        2205        2306        2305
         4        2205        2206        2307        2306
         4        2206        2207        2308        2307
         4        2207        2208        2309        2308
         4        2208        2209        2310        2309
         4        2209        2210        2311        2310
         4        2210        2211        2312        2311
         4        2211        2212        2313        2312
         4        2212        2213        2314        2313
         4        2213        2214        2315        2314
         4        2214        2215        2316        2315
         4        2215        2216        2317        2316
         4        2216        2217        2318        2317
         4        2217        2218        2319        2318
         4        2218        2219        2320        2319
         4        2219        2220        2321        2320
         4        2220        2221        2322        2321
         4        2222        2223        2324        2323
         4        2223        2224        2325        2324
         4        2224        2225        2326        2325
         4        2225        2226        2327        2326
         4        2226        2227        2328        2327
         4        2227        2228        2329        2328
         4        2228        2229        2330        2329
         4        2229        2230        2331        2330
         4        2230        2231        2332        2331
         4        2231        2232        2333        2332
         4        2232        2233        2334        2333
         4        2233        2234        2335        2334
         4        2234        2235        2336        2335
         4        2235        2236        2337        2336
         4        2236        2237        2338        2337
         4        2237        2238        2339        2338
         4        2238        2239        2340        2339
         4        2239        2240        2341        2340
         4        2240        2241        2342        2341
         4        2241        2242        2343        2342
         4        2242        2243        2344        2343
         4        2243        2244        2345        2344
         4        2244        2245        2346        2345
         4        2245        2246        2347        2346
         4        2246        2247        2348        2347
         4        2247        2248        2349        2348
         4        2248        2249        2350        2349
         4        2249        2250        2351        2350
         4        2250        2251        2352        2351
         4        2251        2252        2353        2352
         4        2252        2253        2354        2353
         4        2253        2254        2355        2354
         4        2254        2255        2356        2355
         4        2255        2256        2357        2356
         4        2256        2257        2358        2357
         4        2257        2258        2359        2358
         4        2258        2259        2360        2359
         4        2259        2260        2361        2360
         4        2260        2261        2362        2361
         4        2261        2262        2363        2362
         4        2262        2263        2364        2363
         4        2263        2264        2365        2364
         4        2264        2265        2366        2365
         4        2265        2266        2367        2366
         4        2266        2267        2368        2367
         4        2267        2268        2369        2368
         4        2268        2269        2370        2369
         4        2269        2270        2371        2370
         4        2270        2271        2372        2371
         4        2271        2272        2373        2372
         4        2272        2273        2374        2373
         4        2273        2274        2375        2374
         4        2274        2275        2376        2375
         4        2275        2276        2377        2376
         4        2276        2277        2378        2377
         4        2277        2278        2379        2378
         4        2278        2279        2380        2379
         4        2279        2280        2381        2380
         4        2280        2281        2382        2381
         4        2281        2282        2383        2382
         4        2282        2283        2384        2383
         4        2283        2284        2385        2384
         4        2284        2285        2386        2385
         4        2285        2286        2387        2386
         4        2286        2287        2388        2387
         4        2287        2288        2389        2388
         4        2288        2289        2390        2389
         4        2289        2290        2391        2390
         4        2290        2291        2392        2391
         4        2291        2292        2393        2392
         4        2292        2293        2394        2393
         4        2293        2294        2395        2394
         4        2294        2295        2396        2395
         4        2295        2296        2397        2396
         4        2296        2297        2398        2397
         4        2297        2298        2399        2398
         4        2298        2299        2400        2399
         4        2299        2300        2401        2400
         4        2300        2301        2402        2401
         4        2301        2302        2403        2402
         4        2302        2303        2404        2403
         4        2303        2304        2405        2404
         4        2304        2305        2406        2405
         4        2305        2306        2407        2406
         4        2306        2307        2408        2407
         4        2307        2308        2409        2408
         4        2308        2309        2410        2409
         4        2309        2310        2411        2410
         4        2310        2311        2412        2411
         4        2311        2312        2413        2412
         4        2312        2313        2414        2413
         4        2313        2314        2415        2414
         4        2314        2315        2416        2415
         4        2315        2316        2417        2416
         4        2316        2317        2418        2417
         4        2317        2318        2419        2418
         4        2318        2319        2420        2419
         4        2319        2320        2421        2420
         4        2320        2321        2422        2421
         4        2321        2322        2423        2422
         4        2323        2324        2425        2424
         4        2324        2325        2426        2425
         4        2325        2326        2427        2426
         4        2326        2327        2428        2427
         4        2327        2328        2429        2428
         4        2328        2329        2430        2429
         4        2329        2330        2431        2430
         4        2330        2331        2432        2431
         4        2331        2332        2433        2432
         4        2332        2333        2434        2433
         4        2333        2334        2435        2434
         4        2334        2335        2436        2435
         4        2335        2336        2437        2436
         4        2336        2337        2438        2437
         4        2337        2338        2439        2438
         4        2338        2339        2440        2439
         4        2339        2340        2441        2440
         4        2340        2341        2442        2441
         4        2341        2342        2443        2442
         4        2342        2343        2444        2443
         4        2343        2344        2445        2444
         4        2344        2345        2446        2445
         4        2345        2346        2447        2446
         4        2346        2347        2448        2447
         4        2347        2348        2449        2448
         4        2348        2349        2450        2449
         4        2349        2350        2451        2450
         4        2350        2351        2452        2451
         4        2351        2352        2453        2452
         4        2352        2353        2454        2453
         4        2353        2354        2455        2454
         4        2354        2355        2456        2455
         4        2355        2356        2457        2456
         4        2356        2357        2458        2457
         4        2357        2358        2459        2458
         4        2358        2359        2460        2459
         4        2359        2360        2461        2460
         4        2360        2361        2462        2461
         4        2361        2362        2463        2462
         4        2362        2363        2464        2463
         4        2363        2364        2465        2464
         4        2364        2365        2466        2465
         4        2365        2366        2467        2466
         4        2366        2367        2468        2467
         4        2367        2368        2469        2468
         4        2368        2369        2470        2469
         4        2369        2370        2471        2470
         4        2370        2371        2472        2471
         4        2371        2372        2473        2472
         4        2372        2373        2474        2473
         4        2373        2374        2475        2474
         4        2374        2375        2476        2475
         4        2375        2376        2477        2476
         4        2376        2377        2478        2477
         4        2377        2378        2479        2478
         4        2378        2379        2480        2479
         4        2379        2380        2481        2480
         4        2380        2381        2482        2481
         4        2381        2382        2483        2482
         4        2382        2383        2484        2483
         4        2383        2384        2485        2484
         4        2384        2385        2486        2485
         4        2385        2386        2487        2486
         4        2386        2387        2488        2487
         4        2387        2388        2489        2488
         4        2388        2389        2490        2489
         4        2389        2390        2491        2490
         4        2390        2391        2492        2491
         4        2391        2392        2493        2492
         4        2392        2393        2494        2493
         4        2393        2394        2495        2494
         4        2394        2395        2496        2495
         4        2395        2396        2497        2496
         4        2396        2397        2498        2497
         4        2397        2398        2499        2498
         4        2398        2399        2500        2499
         4        2399        2400        2501        2500
         4        2400        2401        2502        2501
         4        2401        2402        2503        2502
         4        2402        2403        2504        2503
         4        2403        2404        2505        2504
         4        2404        2405        2506        2505
         4        2405        2406        2507        2506
         4        2406        2407        2508        2507
         4        2407        2408        2509        2508
         4        2408        2409        2510        2509
         4        2409        2410        2511        2510
         4        2410        2411        2512        2511
         4        2411        2412        2513        2512
         4        2412        2413        2514        2513
         4        2413        2414        2515        2514
         4        2414        2415        2516        2515
         4        2415        2416        2517        2516
         4        2416        2417        2518        2517
         4        2417        2418        2519        2518
         4        2418        2419        2520        2519
         4        2419        2420        2521        2520
         4        2420        2421        2522        2521
         4        2421        2422        2523        2522
         4        2422        2423        2524        2523
         4        2424        2425        2526        2525
         4        2425        2426        2527        2526
         4        2426        2427        2528        2527
         4        2427        2428        2529        2528
         4        2428        2429        2530        2529
         4        2429        2430        2531        2530
         4        2430        2431        2532        2531
         4        2431        2432        2533        2532
         4        2432        2433        2534        2533
         4        2433        2434        2535        2534
         4        2434        2435        2536        2535
         4        2435        2436        2537        2536
         4        2436        2437        2538        2537
         4        2437        2438        2539        2538
         4        2438        2439        2540        2539
         4        2439        2440        2541        2540
         4        2440        2441        2542        2541
         4        2441        2442        2543        2542
         4        2442        2443        2544        2543
         4        2443        2444        2545        2544
         4        2444        2445        2546        2545
         4        2445        2446        2547        2546
         4        2446        2447        2548        2547
         4        2447        2448        2549        2548
         4        2448        2449        2550        2549
         4        2449        2450        2551        2550
         4        2450        2451        2552        2551
         4        2451        2452        2553        2552
         4        2452        2453        2554        2553
         4        2453        2454        2555        2554
         4        2454        2455        2556        2555
         4        2455        2456        2557        2556
         4        2456        2457        2558        2557
         4        2457        2458        2559        2558
         4        2458        2459        2560        2559
         4        2459        2460        2561        2560
         4        2460        2461        2562        2561
         4        2461        2462        2563        2562
         4        2462        2463        2564        2563
         4        2463        2464        2565        2564
         4        2464        2465        2566        2565
         4        2465        2466        2567        2566
         4        2466        2467        2568        2567
         4        2467        2468        2569        2568
         4        2468        2469        2570        2569
         4        2469        2470        2571        2570
         4        2470        2471        2572        2571
         4        2471        2472        2573        2572
         4        2472        2473        2574        2573
         4        2473        2474        2575        2574
         4        2474        2475        2576        2575
         4        2475        2476        2577        2576
         4        2476        2477        2578        2577
         4        2477        2478        2579        2578
         4        2478        2479        2580        2579
         4        2479        2480        2581        2580
         4        2480        2481        2582        2581
         4        2481        2482        2583        2582
         4        2482        2483        2584        2583
         4        2483        2484        2585        2584
         4        2484        2485        2586        2585
         4        2485        2486        2587        2586
         4        2486        2487        2588        2587
         4        2487        2488        2589        2588
         4        2488        2489        2590        2589
         4        2489        2490        2591        2590
         4        2490        2491        2592        2591
         4        2491        2492        2593        2592
         4        2492        2493        2594        2593
         4        2493        2494        2595        2594
         4        2494        2495        2596        2595
         4        2495        2496        2597        2596
         4        2496        2497        2598        2597
         4        2497        2498        2599        2598
         4        2498        2499        2600        2599
         4        2499        2500        2601        2600
         4        2500        2501        2602        2601
         4        2501        2502        2603        2602
         4        2502        2503        2604        2603
         4        2503        2504        2605        2604
         4        2504        2505        2606        2605
         4        2505        2506        2607        2606
         4        2506        2507        2608        2607
         4        2507        2508        2609        2608
         4        2508        2509        2610        2609
         4        2509        2510        2611        2610
         4        2510        2511        2612        2611
         4        2511        2512        2613        2612
         4        2512        2513        2614        2613
         4        2513        2514        2615        2614
         4        2514        2515        2616        2615
         4        2515        2516        2617        2616
         4        2516        2517        2618        2617
         4        2517        2518        2619        2618
         4        2518        2519        2620        2619
         4        2519        2520        2621        2620
         4        2520        2521        2622        2621
         4        2521        2522        2623        2622
         4        2522        2523        2624        2623
         4        2523        2524        2625        2624
         4        2525        2526        2627        2626
         4        2526        2527        2628        2627
         4        2527        2528        2629        2628
         4        2528        2529        2630        2629
         4        2529        2530        2631        2630
         4        2530        2531        2632        2631
         4        2531        2532        2633        2632
         4        2532        2533        2634        2633
         4        2533        2534        2635        2634
         4        2534        2535        2636        2635
         4        2535        2536        2637        2636
         4        2536        2537        2638        2637
         4        2537        2538        2639        2638
         4        2538        2539        2640        2639
         4        2539        2540        2641        2640
         4        2540        2541        2642        2641
         4        2541        2542        2643        2642
         4        2542        2543        2644        2643
         4        2543        2544        2645        2644
         4        2544        2545        2646        2645
         4        2545        2546        2647        2646
         4        2546        2547        2648        2647
         4        2547        2548        2649        2648
         4        2548        2549        2650        2649
         4        2549        2550        2651        2650
         4        2550        2551        2652        2651
         4        2551        2552        2653        2652
         4        2552        2553        2654        2653
         4        2553        2554        2655        2654
         4        2554        2555        2656        2655
         4        2555        2556        2657        2656
         4        2556        2557        2658        2657
         4        2557        2558        2659        2658
         4        2558        2559        2660        2659
         4        2559        2560        2661        2660
         4        2560        2561        2662        2661
         4        2561        2562        2663        2662
         4        2562        2563        2664        2663
         4        2563        2564        2665        2664
         4        2564        2565        2666        2665
         4        2565        2566        2667        2666
         4        2566        2567        2668        2667
         4        2567        2568        2669        2668
         4        2568        2569        2670        2669
         4        2569        2570        2671        2670
         4        2570        2571        2672        2671
         4        2571        2572        2673        2672
         4        2572        2573        2674        2673
         4        2573        2574        2675        2674
         4        2574        2575        2676        2675
         4        2575        2576        2677        2676
         4        2576        2577        2678        2677
         4        2577        2578        2679        2678
         4        2578        2579        2680        2679
         4        2579        2580        2681        2680
         4        2580        2581        2682        2681
         4        2581        2582        2683        2682
         4        2582        2583        2684        2683
         4        2583        2584        2685        2684
         4        2584        2585        2686        2685
         4        2585        2586        2687        2686
         4        2586        2587        2688        2687
         4        2587        2588        2689        2688
         4        2588        2589        2690        2689
         4        2589        2590        2691        2690
         4        2590        2591        2692        2691
         4        2591        2592        2693        2692
         4        2592        2593        2694        2693
         4        2593        2594        2695        2694
         4        2594        2595        2696        2695
         4        2595        2596        2697        2696
         4        2596        2597        2698        2697
         4        2597        2598        2699        2698
         4        2598        2599        2700        2699
         4        2599        2600        2701        2700
         4        2600        2601        2702        2701
         4        2601        2602        2703        2702
         4        2602        2603        2704        2703
         4        2603        2604        2705        2704
         4        2604        2605        2706        2705
         4        2605        2606        2707        2706
         4        2606        2607        2708        2707
         4        2607        2608        2709        2708
         4        2608        2609        2710        2709
         4        2609        2610        2711        2710
         4        2610        2611        2712        2711
         4        2611        2612        2713        2712
         4        2612        2613        2714        2713
         4        2613        2614        2715        2714
         4        2614        2615        2716        2715
         4        2615        2616        2717        2716
         4        2616        2617        2718        2717
         4        2617        2618        2719        2718
         4        2618        2619        2720        2719
         4        2619        2620        2721        2720
         4        2620        2621        2722        2721
         4        2621        2622        2723        2722
         4        2622        2623        2724        2723
         4        2623        2624        2725        2724
         4        2624        2625        2726        2725
         4        2626        2627        2728        2727
         4        2627        2628        2729        2728
         4        2628        2629        2730        2729
         4        2629        2630        2731        2730
         4        2630        2631        2732        2731
         4        2631        2632        2733        2732
         4        2632        2633        2734        2733
         4        2633        2634        2735        2734
         4        2634        2635        2736        2735
         4        2635        2636        2737        2736
         4        2636        2637        2738        2737
         4        2637        2638        2739        2738
         4        2638        2639        2740        2739
         4        2639        2640        2741        2740
         4        2640        2641        2742        2741
         4        2641        2642        2743        2742
         4        2642        2643        2744        2743
         4        2643        2644        2745        2744
         4        2644        2645        2746        2745
         4        2645        2646        2747        2746
         4        2646        2647        2748        2747
         4        2647        2648        2749        2748
         4        2648        2649        2750        2749
         4        2649        2650        2751        2750
         4        2650        2651        2752        2751
         4        2651        2652        2753        2752
         4        2652        2653        2754        2753
         4        2653        2654        2755        2754
         4        2654        2655        2756        2755
         4        2655        2656        2757        2756
         4        2656        2657        2758        2757
         4        2657        2658        2759        2758
         4        2658        2659        2760        2759
         4        2659        2660        2761        2760
         4        2660        2661        2762        2761
         4        2661        2662        2763        2762
         4        2662        2663        2764        2763
         4        2663        2664        2765        2764
         4        2664        2665        2766        2765
         4        2665        2666        2767        2766
         4        2666        2667        2768        2767
         4        2667        2668        2769        2768
         4        2668        2669        2770        2769
         4        2669        2670        2771        2770
         4        2670        2671        2772        2771
         4        2671        2672        2773        2772
         4        2672        2673        2774        2773
         4        2673        2674        2775        2774
         4        2674        2675        2776        2775
         4        2675        2676        2777        2776
         4        2676        2677        2778        2777
         4        2677        2678        2779        2778
         4        2678        2679        2780        2779
         4        2679        2680        2781        2780
         4        2680        2681        2782        2781
         4        2681        2682        2783        2782
         4        2682        2683        2784        2783
         4        2683        2684        2785        2784
         4        2684        2685        2786        2785
         4        2685        2686        2787        2786
         4        2686        2687        2788        2787
         4        2687        2688        2789        2788
         4        2688        2689        2790        2789
         4        2689        2690        2791        2790
         4        2690        2691        2792        2791
         4        2691        2692        2793        2792
         4        2692        2693        2794        2793
         4        2693        2694        2795        2794
         4        2694        2695        2796        2795
         4        2695        2696        2797        2796
         4        2696        2697        2798        2797
         4        2697        2698        2799        2798
         4        2698        2699        2800        2799
         4        2699        2700        2801        2800
         4        2700        2701        2802        2801
         4        2701        2702        2803        2802
         4        2702        2703        2804        2803
         4        2703        2704        2805        2804
         4        2704        2705        2806        2805
         4        2705        2706        2807        2806
         4        2706        2707        2808        2807
         4        2707        2708        2809        2808
         4        2708        2709        2810        2809
         4        2709        2710        2811        2810
         4        2710        2711        2812        2811
         4        2711        2712        2813        2812
         4        2712        2713        2814        2813
         4        2713        2714        2815        2814
         4        2714        2715        2816        2815
         4        2715        2716        2817        2816
         4        2716        2717        2818        2817
         4        2717        2718        2819        2818
         4        2718        2719        2820        2819
         4        2719        2720        2821        2820
         4        2720        2721        2822        2821
         4        2721        2722        2823        2822
         4        2722        2723        2824        2823
         4        2723        2724        2825        2824
         4        2724        2725        2826        2825
         4        2725        2726        2827        2826
         4        2727        2728        2829        2828
         4        2728        2729        2830        2829
         4        2729        2730        2831        2830
         4        2730        2731        2832        2831
         4        2731        2732        2833        2832
         4        2732        2733        2834        2833
         4        2733        2734        2835        2834
         4        2734        2735        2836        2835
         4        2735        2736        2837        2836
         4        2736        2737        2838        2837
         4        2737        2738        2839        2838
         4        2738        2739        2840        2839
         4        2739        2740        2841        2840
         4        2740        2741        2842        2841
         4        2741        2742        2843        2842
         4        2742        2743        2844        2843
         4        2743        2744        2845        2844
         4        2744        2745        2846        2845
         4        2745        2746        2847        2846
         4        2746        2747        2848        2847
         4        2747        2748        2849        2848
         4        2748        2749        2850        2849
         4        2749        2750        2851        2850
         4        2750        2751        2852        2851
         4        2751        2752        2853        2852
         4        2752        2753        2854        2853
         4        2753        2754        2855        2854
         4        2754        2755        2856        2855
         4        2755        2756        2857        2856
         4        2756        2757        2858        2857
         4        2757        2758        2859        2858
         4        2758        2759        2860        2859
         4        2759        2760        2861        2860
         4        2760        2761        2862        2861
         4        2761        2762        2863        2862
         4        2762        2763        2864        2863
         4        2763        2764        2865        2864
         4        2764        2765        2866        2865
         4        2765        2766        2867        2866
         4        2766        2767        2868        2867
         4        2767        2768        2869        2868
         4        2768        2769        2870        2869
         4        2769        2770        2871        2870
         4        2770        2771        2872        2871
         4        2771        2772        2873        2872
         4        2772        2773        2874        2873
         4        2773        2774        2875        2874
         4        2774        2775        2876        2875
         4        2775        2776        2877        2876
         4        2776        2777        2878        2877
         4        2777        2778        2879        2878
         4        2778        2779        2880        2879
         4        2779        2780        2881        2880
         4        2780        2781        2882        2881
         4        2781        2782        2883        2882
         4        2782        2783        2884        2883
         4        2783        2784        2885        2884
         4        2784        2785        2886        2885
         4        2785        2786        2887        2886
         4        2786        2787        2888        2887
         4        2787        2788        2889        2888
         4        2788        2789        2890        2889
         4        2789        2790        2891        2890
         4        2790        2791        2892        2891
         4        2791        2792        2893        2892
         4        2792        2793        2894        2893
         4        2793        2794        2895        2894
         4        2794        2795        2896        2895
         4        2795        2796        2897        2896
         4        2796        2797        2898        2897
         4        2797        2798        2899        2898
         4        2798        2799        2900        2899
         4        2799        2800        2901        2900
         4        2800        2801        2902        2901
         4        2801        2802        2903        2902
         4        2802        2803        2904        2903
         4        2803        2804        2905        2904
         4        2804        2805        2906        2905
         4        2805        2806        2907        2906
         4        2806        2807        2908        2907
         4        2807        2808        2909        2908
         4        2808        2809        2910        2909
         4        2809        2810        2911        2910
         4        2810        2811        2912        2911
         4        2811        2812        2913        2912
         4        2812        2813        2914        2913
         4        2813        2814        2915        2914
         4        2814        2815        2916        2915
         4        2815        2816        2917        2916
         4        2816        2817        2918        2917
         4        2817        2818        2919        2918
         4        2818        2819        2920        2919
         4        2819        2820        2921        2920
         4        2820        2821        2922        2921
         4        2821        2822        2923        2922
         4        2822        2823        2924        2923
         4        2823        2824        2925        2924
         4        2824        2825        2926        2925
         4        2825        2826        2927        2926
         4        2826        2827        2928        2927
         4        2828        2829        2930        2929
         4        2829        2830        2931        2930
         4        2830        2831        2932        2931
         4        2831        2832        2933        2932
         4        2832        2833        2934        2933
         4        2833        2834        2935        2934
         4        2834        2835        2936        2935
         4        2835        2836        2937        2936
         4        2836        2837        2938        2937
         4        2837        2838        2939        2938
         4        2838        2839        2940        2939
         4        2839        2840        2941        2940
         4        2840        2841        2942        2941
         4        2841        2842        2943        2942
         4        2842        2843        2944        2943
         4        2843        2844        2945        2944
         4        2844        2845        2946        2945
         4        2845        2846        2947        2946
         4        2846        2847        2948        2947
         4        2847        2848        2949        2948
         4        2848        2849        2950        2949
         4        2849        2850        2951        2950
         4        2850        2851        2952        2951
         4        2851        2852        2953        2952
         4        2852        2853        2954        2953
         4        2853        2854        2955        2954
         4        2854        2855        2956        2955
         4        2855        2856        2957        2956
         4        2856        2857        2958        2957
         4        2857        2858        2959        2958
         4        2858        2859        2960        2959
         4        2859        2860        2961        2960
         4        2860        2861        2962        2961
         4        2861        2862        2963        2962
         4        2862        2863        2964        2963
         4        2863        2864        2965        2964
         4        2864        2865        2966        2965
         4        2865        2866        2967        2966
         4        2866        2867        2968        2967
         4        2867        2868        2969        2968
         4        2868        2869        2970        2969
         4        2869        2870        2971        2970
         4        2870        2871        2972        2971
         4        2871        2872        2973        2972
         4        2872        2873        2974        2973
         4        2873        2874        2975        2974
         4        2874        2875        2976        2975
         4        2875        2876        2977        2976
         4        2876        2877        2978        2977
         4        2877        2878        2979        2978
         4        2878        2879        2980        2979
         4        2879        2880        2981        2980
         4        2880        2881        2982        2981
         4        2881        2882        2983        2982
         4        2882        2883        2984        2983
         4        2883        2884        2985        2984
         4        2884        2885        2986        2985
         4        2885        2886        2987        2986
         4        2886        2887        2988        2987
         4        2887        2888        2989        2988
         4        2888        2889        2990        2989
         4        2889        2890        2991        2990
         4        2890        2891        2992        2991
         4        2891        2892        2993        2992
         4        2892        2893        2994        2993
         4        2893        2894        2995        2994
         4        2894        2895        2996        2995
         4        2895        2896        2997        2996
         4        2896        2897        2998        2997
         4        2897        2898        2999        2998
         4        2898        2899        3000        2999
         4        2899        2900        3001        3000
         4        2900        2901        3002        3001
         4        2901        2902        3003        3002
         4        2902        2903        3004        3003
         4        2903        2904        3005        3004
         4        2904        2905        3006        3005
         4        2905        2906        3007        3006
         4        2906        2907        3008        3007
         4        2907        2908        3009        3008
         4        2908        2909        3010        3009
         4        2909        2910        3011        3010
         4        2910        2911        3012        3011
         4        2911        2912        3013        3012
         4        2912        2913        3014        3013
         4        2913        2914        3015        3014
         4        2914        2915        3016        3015
         4        2915        2916        3017        3016
         4        2916        2917        3018        3017
         4        2917        2918        3019        3018
         4        2918        2919        3020        3019
         4        2919        2920        3021        3020
         4        2920        2921        3022        3021
         4        2921        2922        3023        3022
         4        2922        2923        3024        3023
         4        2923        2924        3025        3024
         4        2924        2925        3026        3025
         4        2925        2926        3027        3026
         4        2926        2927        3028        3027
         4        2927        2928        3029        3028
         4        2929        2930        3031        3030
         4        2930        2931        3032        3031
         4        2931        2932        3033        3032
         4        2932        2933        3034        3033
         4        2933        2934        3035        3034
         4        2934        2935        3036        3035
         4        2935        2936        3037        3036
         4        2936        2937        3038        3037
         4        2937        2938        3039        3038
         4        2938        2939        3040        3039
         4        2939        2940        3041        3040
         4        2940        2941        3042        3041
         4        2941        2942        3043        3042
         4        2942        2943        3044        3043
         4        2943        2944        3045        3044
         4        2944        2945        3046        3045
         4        2945        2946        3047        3046
         4        2946        2947        3048        3047
         4        2947        2948        3049        3048
         4        2948        2949        3050        3049
         4        2949        2950        3051        3050
         4        2950        2951        3052        3051
         4        2951        2952        3053        3052
         4        2952        2953        3054        3053
         4        2953        2954        3055        3054
         4        2954        2955        3056        3055
         4        2955        2956        3057        3056
         4        2956        2957        3058        3057
         4        2957        2958        3059        3058
         4        2958        2959        3060        3059
         4        2959        2960        3061        3060
         4        2960        2961        3062        3061
         4        2961        2962        3063        3062
         4        2962        2963        3064        3063
         4        2963        2964        3065        3064
         4        2964        2965        3066        3065
         4        2965        2966        3067        3066
         4        2966        2967        3068        3067
         4        2967        2968        3069        3068
         4        2968        2969        3070        3069
         4        2969        2970        3071        3070
         4        2970        2971        3072        3071
         4        2971        2972        3073        3072
         4        2972        2973        3074        3073
         4        2973        2974        3075        3074
         4        2974        2975        3076        3075
         4        2975        2976        3077        3076
         4        2976        2977        3078        3077
         4        2977        2978        3079        3078
         4        2978        2979        3080        3079
         4        2979        2980        3081        3080
         4        2980        2981        3082        3081
         4        2981        2982        3083        3082
         4        2982        2983        3084        3083
         4        2983        2984        3085        3084
         4        2984        2985        3086        3085
         4        2985        2986        3087        3086
         4        2986        2987        3088        3087
         4        2987        2988        3089        3088
         4        2988        2989        3090        3089
         4        2989        2990        3091        3090
         4        2990        2991        3092        3091
         4        2991        2992        3093        3092
         4        2992        2993        3094        3093
         4        2993        2994        3095        3094
         4        2994        2995        3096        3095
         4        2995        2996        3097        3096
         4        2996        2997        3098        3097
         4        2997        2998        3099        3098
         4        2998        2999        3100        3099
         4        2999        3000        3101        3100
         4        3000        3001        3102        3101
         4        3001        3002        3103        3102
         4        3002        3003        3104        3103
         4        3003        3004        3105        3104
         4        3004        3005        3106        3105
         4        3005        3006        3107        3106
         4        3006        3007        3108        3107
         4        3007        3008        3109        3108
         4        3008        3009        3110        3109
         4        3009        3010        3111        3110
         4        3010        3011        3112        3111
         4        3011        3012        3113        3112
         4        3012        3013        3114        3113
         4        3013        3014        3115        3114
         4        3014        3015        3116        3115
         4        3015        3016        3117        3116
         4        3016        3017        3118        3117
         4        3017        3018        3119        3118
         4        3018        3019        3120        3119
         4        3019        3020        3121        3120
         4        3020        3021        3122        3121
         4        3021        3022        3123        3122
         4        3022        3023        3124        3123
         4        3023        3024        3125        3124
         4        3024        3025        3126        3125
         4        3025        3026        3127        3126
         4        3026        3027        3128        3127
         4        3027        3028        3129        3128
         4        3028        3029        3130        3129
         4        3030        3031        3132        3131
         4        3031        3032        3133        3132
         4        3032        3033        3134        3133
         4        3033        3034        3135        3134
         4        3034        3035        3136        3135
         4        3035        3036        3137        3136
         4        3036        3037        3138        3137
         4        3037        3038        3139        3138
         4        3038        3039        3140        3139
         4        3039        3040        3141        3140
         4        3040        3041        3142        3141
         4        3041        3042        3143        3142
         4        3042        3043        3144        3143
         4        3043        3044        3145        3144
         4        3044        3045        3146        3145
         4        3045        3046        3147        3146
         4        3046        3047        3148        3147
         4        3047        3048        3149        3148
         4        3048        3049        3150        3149
         4        3049        3050        3151        3150
         4        3050        3051        3152        3151
         4        3051        3052        3153        3152
         4        3052        3053        3154        3153
         4        3053        3054        3155        3154
         4        3054        3055        3156        3155
         4        3055        3056        3157        3156
         4        3056        3057        3158        3157
         4        3057        3058        3159        3158
         4        3058        3059        3160        3159
         4        3059        3060        3161        3160
         4        3060        3061        3162        3161
         4        3061        3062        3163        3162
         4        3062        3063        3164        3163
         4        3063        3064        3165        3164
         4        3064        3065        3166        3165
         4        3065        3066        3167        3166
         4        3066        3067        3168        3167
         4        3067        3068        3169        3168
         4        3068        3069        3170        3169
         4        3069        3070        3171        3170
         4        3070        3071        3172        3171
         4        3071        3072        3173        3172
         4        3072        3073        3174        3173
         4        3073        3074        3175        3174
         4        3074        3075        3176        3175
         4        3075        3076        3177        3176
         4        3076        3077        3178        3177
         4        3077        3078        3179        3178
         4        3078        3079        3180        3179
         4        3079        3080        3181        3180
         4        3080        3081        3182        3181
         4        3081        3082        3183        3182
         4        3082        3083        3184        3183
         4        3083        3084        3185        3184
         4        3084        3085        3186        3185
         4        3085        3086        3187        3186
         4        3086        3087        3188        3187
         4        3087        3088        3189        3188
         4        3088        3089        3190        3189
         4        3089        3090        3191        3190
         4        3090        3091        3192        3191
         4        3091        3092        3193        3192
         4        3092        3093        3194        3193
         4        3093        3094        3195        3194
         4        3094        3095        3196        3195
         4        3095        3096        3197        3196
         4        3096        3097        3198        3197
         4        3097        3098        3199        3198
         4        3098        3099        3200        3199
         4        3099        3100        3201        3200
         4        3100        3101        3202        3201
         4        3101        3102        3203        3202
         4        3102        3103        3204        3203
         4        3103        3104        3205        3204
         4        3104        3105        3206        3205
         4        3105        3106        3207        3206
         4        3106        3107        3208        3207
         4        3107        3108        3209        3208
         4        3108        3109        3210        3209
         4        3109        3110        3211        3210
         4        3110        3111        3212        3211
         4        3111        3112        3213        3212
         4        3112        3113        3214        3213
         4        3113        3114        3215        3214
         4        3114        3115        3216        3215
         4        3115        3116        3217        3216
         4        3116        3117        3218        3217
         4        3117        3118        3219        3218
         4        3118        3119        3220        3219
         4        3119        3120        3221        3220
         4        3120        3121        3222        3221
         4        3121        3122        3223        3222
         4        3122        3123        3224        3223
         4        3123        3124        3225        3224
         4        3124        3125        3226        3225
         4        3125        3126        3227        3226
         4        3126        3127        3228        3227
         4        3127        3128        3229        3228
         4        3128        3129        3230        3229
         4        3129        3130        3231        3230
         4        3131        3132        3233        3232
         4        3132        3133        3234        3233
         4        3133        3134        3235        3234
         4        3134        3135        3236        3235
         4        3135        3136        3237        3236
         4        3136        3137        3238        3237
         4        3137        3138        3239        3238
         4        3138        3139        3240        3239
         4        3139        3140        3241        3240
         4        3140        3141        3242        3241
         4        3141        3142        3243        3242
         4        3142        3143        3244        3243
         4        3143        3144        3245        3244
         4        3144        3145        3246        3245
         4        3145        3146        3247        3246
         4        3146        3147        3248        3247
         4        3147        3148        3249        3248
         4        3148        3149        3250        3249
         4        3149        3150        3251        3250
         4        3150        3151        3252        3251
         4        3151        3152        3253        3252
         4        3152        3153        3254        3253
         4        3153        3154        3255        3254
         4        3154        3155        3256        3255
         4        3155        3156        3257        3256
         4        3156        3157        3258        3257
         4        3157        3158        3259        3258
         4        3158        3159        3260        3259
         4        3159        3160        3261        3260
         4        3160        3161        3262        3261
         4        3161        3162        3263        3262
         4        3162        3163        3264        3263
         4        3163        3164        3265        3264
         4        3164        3165        3266        3265
         4        3165        3166        3267        3266
         4        3166        3167        3268        3267
         4        3167        3168        3269        3268
         4        3168        3169        3270        3269
         4        3169        3170        3271        3270
         4        3170        3171        3272        3271
         4        3171        3172        3273        3272
         4        3172        3173        3274        3273
         4        3173        3174        3275        3274
         4        3174        3175        3276        3275
         4        3175        3176        3277        3276
         4        3176        3177        3278        3277
         4        3177        3178        3279        3278
         4        3178        3179        3280        3279
         4        3179        3180        3281        3280
         4        3180        3181        3282        3281
         4        3181        3182        3283        3282
         4        3182        3183        3284        3283
         4        3183        3184        3285        3284
         4        3184        3185        3286        3285
         4        3185        3186        3287        3286
         4        3186        3187        3288        3287
         4        3187        3188        3289        3288
         4        3188        3189        3290        3289
         4        3189        3190        3291        3290
         4        3190        3191        3292        3291
         4        3191        3192        3293        3292
         4        3192        3193        3294        3293
         4        3193        3194        3295        3294
         4        3194        3195        3296        3295
         4        3195        3196        3297        3296
         4        3196        3197        3298        3297
         4        3197        3198        3299        3298
         4        3198        3199        3300        3299
         4        3199        3200        3301        3300
         4        3200        3201        3302        3301
         4        3201        3202        3303        3302
         4        3202        3203        3304        3303
         4        3203        3204        3305        3304
         4        3204        3205        3306        3305
         4        3205        3206        3307        3306
         4        3206        3207        3308        3307
         4        3207        3208        3309        3308
         4        3208        3209        3310        3309
         4        3209        3210        3311        3310
         4        3210        3211        3312        3311
         4        3211        3212        3313        3312
         4        3212        3213        3314        3313
         4        3213        3214        3315        3314
         4        3214        3215        3316        3315
         4        3215        3216        3317        3316
         4        3216        3217        3318        3317
         4        3217        3218        3319        3318
         4        3218        3219        3320        3319
         4        3219        3220        3321        3320
         4        3220        3221        3322        3321
         4        3221        3222        3323        3322
         4        3222        3223        3324        3323
         4        3223        3224        3325        3324
         4        3224        3225        3326        3325
         4        3225        3226        3327        3326
         4        3226        3227        3328        3327
         4        3227        3228        3329        3328
         4        3228        3229        3330        3329
         4        3229        3230        3331        3330
         4        3230        3231        3332        3331
         4        3232        3233        3334        3333
         4        3233        3234        3335        3334
         4        3234        3235        3336        3335
         4        3235        3236        3337        3336
         4        3236        3237        3338        3337
         4        3237        3238        3339        3338
         4        3238        3239        3340        3339
         4        3239        3240        3341        3340
         4        3240        3241        3342        3341
         4        3241        3242        3343        3342
         4        3242        3243        3344        3343
         4        3243        3244        3345        3344
         4        3244        3245        3346        3345
         4        3245        3246        3347        3346
         4        3246        3247        3348        3347
         4        3247        3248        3349        3348
         4        3248        3249        3350        3349
         4        3249        3250        3351        3350
         4        3250        3251        3352        3351
         4        3251        3252        3353        3352
         4        3252        3253        3354        3353
         4        3253        3254        3355        3354
         4        3254        3255        3356        3355
         4        3255        3256        3357        3356
         4        3256        3257        3358        3357
         4        3257        3258        3359        3358
         4        3258        3259        3360        3359
         4        3259        3260        3361        3360
         4        3260        3261        3362        3361
         4        3261        3262        3363        3362
         4        3262        3263        3364        3363
         4        3263        3264        3365        3364
         4        3264        3265        3366        3365
         4        3265        3266        3367        3366
         4        3266        3267        3368        3367
         4        3267        3268        3369        3368
         4        3268        3269        3370        3369
         4        3269        3270        3371        3370
         4        3270        3271        3372        3371
         4        3271        3272        3373        3372
         4        3272        3273        3374        3373
         4        3273        3274        3375        3374
         4        3274        3275        3376        3375
         4        3275        3276        3377        3376
         4        3276        3277        3378        3377
         4        3277        3278        3379        3378
         4        3278        3279        3380        3379
         4        3279        3280        3381        3380
         4        3280        3281        3382        3381
         4        3281        3282        3383        3382
         4        3282        3283        3384        3383
         4        3283        3284        3385        3384
         4        3284        3285        3386        3385
         4        3285        3286        3387        3386
         4        3286        3287        3388        3387
         4        3287        3288        3389        3388
         4        3288        3289        3390        3389
         4        3289        3290        3391        3390
         4        3290        3291        3392        3391
         4        3291        3292        3393        3392
         4        3292        3293        3394        3393
         4        3293        3294        3395        3394
         4        3294        3295        3396        3395
         4        3295        3296        3397        3396
         4        3296        3297        3398        3397
         4        3297        3298        3399        3398
         4        3298        3299        3400        3399
         4        3299        3300        3401        3400
         4        3300        3301        3402        3401
         4        3301        3302        3403        3402
         4        3302        3303        3404        3403
         4        3303        3304        3405        3404
         4        3304        3305        3406        3405
         4        3305        3306        3407        3406
         4        3306        3307        3408        3407
         4        3307        3308        3409        3408
         4        3308        3309        3410        3409
         4        3309        3310        3411        3410
         4        3310        3311        3412        3411
         4        3311        3312        3413        3412
         4        3312        3313        3414        3413
         4        3313        3314        3415        3414
         4        3314        3315        3416        3415
         4        3315        3316        3417        3416
         4        3316        3317        3418        3417
         4        3317        3318        3419        3418
         4        3318        3319        3420        3419
         4        3319        3320        3421        3420
         4        3320        3321        3422        3421
         4        3321        3322        3423        3422
         4        3322        3323        3424        3423
         4        3323        3324        3425        3424
         4        3324        3325        3426        3425
         4        3325        3326        3427        3426
         4        3326        3327        3428        3427
         4        3327        3328        3429        3428
         4        3328        3329        3430        3429
         4        3329        3330        3431        3430
         4        3330        3331        3432        3431
         4        3331        3332        3433        3432
         4        3333        3334        3435        3434
         4        3334        3335        3436        3435
         4        3335        3336        3437        3436
         4        3336        3337        3438        3437
         4        3337        3338        3439        3438
         4        3338        3339        3440        3439
         4        3339        3340        3441        3440
         4        3340        3341        3442        3441
         4        3341        3342        3443        3442
         4        3342        3343        3444        3443
         4        3343        3344        3445        3444
         4        3344        3345        3446        3445
         4        3345        3346        3447        3446
         4        3346        3347        3448        3447
         4        3347        3348        3449        3448
         4        3348        3349        3450        3449
         4        3349        3350        3451        3450
         4        3350        3351        3452        3451
         4        3351        3352        3453        3452
         4        3352        3353        3454        3453
         4        3353        3354        3455        3454
         4        3354        3355        3456        3455
         4        3355        3356        3457        3456
         4        3356        3357        3458        3457
         4        3357        3358        3459        3458
         4        3358        3359        3460        3459
         4        3359        3360        3461        3460
         4        3360        3361        3462        3461
         4        3361        3362        3463        3462
         4        3362        3363        3464        3463
         4        3363        3364        3465        3464
         4        3364        3365        3466        3465
         4        3365        3366        3467        3466
         4        3366        3367        3468        3467
         4        3367        3368        3469        3468
         4        3368        3369        3470        3469
         4        3369        3370        3471        3470
         4        3370        3371        3472        3471
         4        3371        3372        3473        3472
         4        3372        3373        3474        3473
         4        3373        3374        3475        3474
         4        3374        3375        3476        3475
         4        3375        3376        3477        3476
         4        3376        3377        3478        3477
         4        3377        3378        3479        3478
         4        3378        3379        3480        3479
         4        3379        3380        3481        3480
         4        3380        3381        3482        3481
         4        3381        3382        3483        3482
         4        3382        3383        3484        3483
         4        3383        3384        3485        3484
         4        3384        3385        3486        3485
         4        3385        3386        3487        3486
         4        3386        3387        3488        3487
         4        3387        3388        3489        3488
         4        3388        3389        3490        3489
         4        3389        3390        3491        3490
         4        3390        3391        3492        3491
         4        3391        3392        3493        3492
         4        3392        3393        3494        3493
         4        3393        3394        3495        3494
         4        3394        3395        3496        3495
         4        3395        3396        3497        3496
         4        3396        3397        3498        3497
         4        3397        3398        3499        3498
         4        3398        3399        3500        3499
         4        3399        3400        3501        3500
         4        3400        3401        3502        3501
         4        3401        3402        3503        3502
         4        3402        3403        3504        3503
         4        3403        3404        3505        3504
         4        3404        3405        3506        3505
         4        3405        3406        3507        3506
         4        3406        3407        3508        3507
         4        3407        3408        3509        3508
         4        3408        3409        3510        3509
         4        3409        3410        3511        3510
         4        3410        3411        3512        3511
         4        3411        3412        3513        3512
         4        3412        3413        3514        3513
         4        3413        3414        3515        3514
         4        3414        3415        3516        3515
         4        3415        3416        3517        3516
         4        3416        3417        3518        3517
         4        3417        3418        3519        3518
         4        3418        3419        3520        3519
         4        3419        3420        3521        3520
         4        3420        3421        3522        3521
         4        3421        3422        3523        3522
         4        3422        3423        3524        3523
         4        3423        3424        3525        3524
         4        3424        3425        3526        3525
         4        3425        3426        3527        3526
         4        3426        3427        3528        3527
         4        3427        3428        3529        3528
         4        3428        3429        3530        3529
         4        3429        3430        3531        3530
         4        3430        3431        3532        3531
         4        3431        3432        3533        3532
         4        3432        3433        3534        3533
         4        3434        3435        3536        3535
         4        3435        3436        3537        3536
         4        3436        3437        3538        3537
         4        3437        3438        3539        3538
         4        3438        3439        3540        3539
         4        3439        3440        3541        3540
         4        3440        3441        3542        3541
         4        3441        3442        3543        3542
         4        3442        3443        3544        3543
         4        3443        3444        3545        3544
         4        3444        3445        3546        3545
         4        3445        3446        3547        3546
         4        3446        3447        3548        3547
         4        3447        3448        3549        3548
         4        3448        3449        3550        3549
         4        3449        3450        3551        3550
         4        3450        3451        3552        3551
         4        3451        3452        3553        3552
         4        3452        3453        3554        3553
         4        3453        3454        3555        3554
         4        3454        3455        3556        3555
         4        3455        3456        3557        3556
         4        3456        3457        3558        3557
         4        3457        3458        3559        3558
         4        3458        3459        3560        3559
         4        3459        3460        3561        3560
         4        3460        3461        3562        3561
         4        3461        3462        3563        3562
         4        3462        3463        3564        3563
         4        3463        3464        3565        3564
         4        3464        3465        3566        3565
         4        3465        3466        3567        3566
         4        3466        3467        3568        3567
         4        3467        3468        3569        3568
         4        3468        3469        3570        3569
         4        3469        3470        3571        3570
         4        3470        3471        3572        3571
         4        3471        3472        3573        3572
         4        3472        3473        3574        3573
         4        3473        3474        3575        3574
         4        3474        3475        3576        3575
         4        3475        3476        3577        3576
         4        3476        3477        3578        3577
         4        3477        3478        3579        3578
         4        3478        3479        3580        3579
         4        3479        3480        3581        3580
         4        3480        3481        3582        3581
         4        3481        3482        3583        3582
         4        3482        3483        3584        3583
         4        3483        3484        3585        3584
         4        3484        3485        3586        3585
         4        3485        3486        3587        3586
         4        3486        3487        3588        3587
         4        3487        3488        3589        3588
         4        3488        3489        3590        3589
         4        3489        3490        3591        3590
         4        3490        3491        3592        3591
         4        3491        3492        3593        3592
         4        3492        3493        3594        3593
         4        3493        3494        3595        3594
         4        3494        3495        3596        3595
         4        3495        3496        3597        3596
         4        3496        3497        3598        3597
         4        3497        3498        3599        3598
         4        3498        3499        3600        3599
         4        3499        3500        3601        3600
         4        3500        3501        3602        3601
         4        3501        3502        3603        3602
         4        3502        3503        3604        3603
         4        3503        3504        3605        3604
         4        3504        3505        3606        3605
         4        3505        3506        3607        3606
         4        3506        3507        3608        3607
         4        3507        3508        3609        3608
         4        3508        3509        3610        3609
         4        3509        3510        3611        3610
         4        3510        3511        3612        3611
         4        3511        3512        3613        3612
         4        3512        3513        3614        3613
         4        3513        3514        3615        3614
         4        3514        3515        3616        3615
         4        3515        3516        3617        3616
         4        3516        3517        3618        3617
         4        3517        3518        3619        3618
         4        3518        3519        3620        3619
         4        3519        3520        3621        3620
         4        3520        3521        3622        3621
         4        3521        3522        3623        3622
         4        3522        3523        3624        3623
         4        3523        3524        3625        3624
         4        3524        3525        3626        3625
         4        3525        3526        3627        3626
         4        3526        3527        3628        3627
         4        3527        3528        3629        3628
         4        3528        3529        3630        3629
         4        3529        3530        3631        3630
         4        3530        3531        3632        3631
         4        3531        3532        3633        3632
         4        3532        3533        3634        3633
         4        3533        3534        3635        3634
         4        3535        3536        3637        3636
         4        3536        3537        3638        3637
         4        3537        3538        3639        3638
         4        3538        3539        3640        3639
         4        3539        3540        3641        3640
         4        3540        3541        3642        3641
         4        3541        3542        3643        3642
         4        3542        3543        3644        3643
         4        3543        3544        3645        3644
         4        3544        3545        3646        3645
         4        3545        3546        3647        3646
         4        3546        3547        3648        3647
         4        3547        3548        3649        3648
         4        3548        3549        3650        3649
         4        3549        3550        3651        3650
         4        3550        3551        3652        3651
         4        3551        3552        3653        3652
         4        3552        3553        3654        3653
         4        3553        3554        3655        3654
         4        3554        3555        3656        3655
         4        3555        3556        3657        3656
         4        3556        3557        3658        3657
         4        3557        3558        3659        3658
         4        3558        3559        3660        3659
         4        3559        3560        3661        3660
         4        3560        3561        3662        3661
         4        3561        3562        3663        3662
         4        3562        3563        3664        3663
         4        3563        3564        3665        3664
         4        3564        3565        3666        3665
         4        3565        3566        3667        3666
         4        3566        3567        3668        3667
         4        3567        3568        3669        3668
         4        3568        3569        3670        3669
         4        3569        3570        3671        3670
         4        3570        3571        3672        3671
         4        3571        3572        3673        3672
         4        3572        3573        3674        3673
         4        3573        3574        3675        3674
         4        3574        3575        3676        3675
         4        3575        3576        3677        3676
         4        3576        3577        3678        3677
         4        3577        3578        3679        3678
         4        3578        3579        3680        3679
         4        3579        3580        3681        3680
         4        3580        3581        3682        3681
         4        3581        3582        3683        3682
         4        3582        3583        3684        3683
         4        3583        3584        3685        3684
         4        3584        3585        3686        3685
         4        3585        3586        3687        3686
         4        3586        3587        3688        3687
         4        3587        3588        3689        3688
         4        3588        3589        3690        3689
         4        3589        3590        3691        3690
         4        3590        3591        3692        3691
         4        3591        3592        3693        3692
         4        3592        3593        3694        3693
         4        3593        3594        3695        3694
         4        3594        3595        3696        3695
         4        3595        3596        3697        3696
         4        3596        3597        3698        3697
         4        3597        3598        3699        3698
         4        3598        3599        3700        3699
         4        3599        3600        3701        3700
         4        3600        3601        3702        3701
         4        3601        3602        3703        3702
         4        3602        3603        3704        3703
         4        3603        3604        3705        3704
         4        3604        3605        3706        3705
         4        3605        3606        3707        3706
         4        3606        3607        3708        3707
         4        3607        3608        3709        3708
         4        3608        3609        3710        3709
         4        3609        3610        3711        3710
         4        3610        3611        3712        3711
         4        3611        3612        3713        3712
         4        3612        3613        3714        3713
         4        3613        3614        3715        3714
         4        3614        3615        3716        3715
         4        3615        3616        3717        3716
         4        3616        3617        3718        3717
         4        3617        3618        3719        3718
         4        3618        3619        3720        3719
         4        3619        3620        3721        3720
         4        3620        3621        3722        3721
         4        3621        3622        3723        3722
         4        3622        3623        3724        3723
         4        3623        3624        3725        3724
         4        3624        3625        3726        3725
         4        3625        3626        3727        3726
         4        3626        3627        3728        3727
         4        3627        3628        3729        3728
         4        3628        3629        3730        3729
         4        3629        3630        3731        3730
         4        3630        3631        3732        3731
         4        3631        3632        3733        3732
         4        3632        3633        3734        3733
         4        3633        3634        3735        3734
         4        3634        3635        3736        3735
         4        3636        3637        3738        3737
         4        3637        3638        3739        3738
         4        3638        3639        3740        3739
         4        3639        3640        3741        3740
         4        3640        3641        3742        3741
         4        3641        3642        3743        3742
         4        3642        3643        3744        3743
         4        3643        3644        3745        3744
         4        3644        3645        3746        3745
         4        3645        3646        3747        3746
         4        3646        3647        3748        3747
         4        3647        3648        3749        3748
         4        3648        3649        3750        3749
         4        3649        3650        3751        3750
         4        3650        3651        3752        3751
         4        3651        3652        3753        3752
         4        3652        3653        3754        3753
         4        3653        3654        3755        3754
         4        3654        3655        3756        3755
         4        3655        3656        3757        3756
         4        3656        3657        3758        3757
         4        3657        3658        3759        3758
         4        3658        3659        3760        3759
         4        3659        3660        3761        3760
         4        3660        3661        3762        3761
         4        3661        3662        3763        3762
         4        3662        3663        3764        3763
         4        3663        3664        3765        3764
         4        3664        3665        3766        3765
         4        3665        3666        3767        3766
         4        3666        3667        3768        3767
         4        3667        3668        3769        3768
         4        3668        3669        3770        3769
         4        3669        3670        3771        3770
         4        3670        3671        3772        3771
         4        3671        3672        3773        3772
         4        3672        3673        3774        3773
         4        3673        3674        3775        3774
         4        3674        3675        3776        3775
         4        3675        3676        3777        3776
         4        3676        3677        3778        3777
         4        3677        3678        3779        3778
         4        3678        3679        3780        3779
         4        3679        3680        3781        3780
         4        3680        3681        3782        3781
         4        3681        3682        3783        3782
         4        3682        3683        3784        3783
         4        3683        3684        3785        3784
         4        3684        3685        3786        3785
         4        3685        3686        3787        3786
         4        3686        3687        3788        3787
         4        3687        3688        3789        3788
         4        3688        3689        3790        3789
         4        3689        3690        3791        3790
         4        3690        3691        3792        3791
         4        3691        3692        3793        3792
         4        3692        3693        3794        3793
         4        3693        3694        3795        3794
         4        3694        3695        3796        3795
         4        3695        3696        3797        3796
         4        3696        3697        3798        3797
         4        3697        3698        3799        3798
         4        3698        3699        3800        3799
         4        3699        3700        3801        3800
         4        3700        3701        3802        3801
         4        3701        3702        3803        3802
         4        3702        3703        3804        3803
         4        3703        3704        3805        3804
         4        3704        3705        3806        3805
         4        3705        3706        3807        3806
         4        3706        3707        3808        3807
         4        3707        3708        3809        3808
         4        3708        3709        3810        3809
         4        3709        3710        3811        3810
         4        3710        3711        3812        3811
         4        3711        3712        3813        3812
         4        3712        3713        3814        3813
         4        3713        3714        3815        3814
         4        3714        3715        3816        3815
         4        3715        3716        3817        3816
         4        3716        3717        3818        3817
         4        3717        3718        3819        3818
         4        3718        3719        3820        3819
         4        3719        3720        3821        3820
         4        3720        3721        3822        3821
         4        3721        3722        3823        3822
         4        3722        3723        3824        3823
         4        3723        3724        3825        3824
         4        3724        3725        3826        3825
         4        3725        3726        3827        3826
         4        3726        3727        3828        3827
         4        3727        3728        3829        3828
         4        3728        3729        3830        3829
         4        3729        3730        3831        3830
         4        3730        3731        3832        3831
         4        3731        3732        3833        3832
         4        3732        3733        3834        3833
         4        3733        3734        3835        3834
         4        3734        3735        3836        3835
         4        3735        3736        3837        3836
         4        3737        3738        3839        3838
         4        3738        3739        3840        3839
         4        3739        3740        3841        3840
         4        3740        3741        3842        3841
         4        3741        3742        3843        3842
         4        3742        3743        3844        3843
         4        3743        3744        3845        3844
         4        3744        3745        3846        3845
         4        3745        3746        3847        3846
         4        3746        3747        3848        3847
         4        3747        3748        3849        3848
         4        3748        3749        3850        3849
         4        3749        3750        3851        3850
         4        3750        3751        3852        3851
         4        3751        3752        3853        3852
         4        3752        3753        3854        3853
         4        3753        3754        3855        3854
         4        3754        3755        3856        3855
         4        3755        3756        3857        3856
         4        3756        3757        3858        3857
         4        3757        3758        3859        3858
         4        3758        3759        3860        3859
         4        3759        3760        3861        3860
         4        3760        3761        3862        3861
         4        3761        3762        3863        3862
         4        3762        3763        3864        3863
         4        3763        3764        3865        3864
         4        3764        3765        3866        3865
         4        3765        3766        3867        3866
         4        3766        3767        3868        3867
         4        3767        3768        3869        3868
         4        3768        3769        3870        3869
         4        3769        3770        3871        3870
         4        3770        3771        3872        3871
         4        3771        3772        3873        3872
         4        3772        3773        3874        3873
         4        3773        3774        3875        3874
         4        3774        3775        3876        3875
         4        3775        3776        3877        3876
         4        3776        3777        3878        3877
         4        3777        3778        3879        3878
         4        3778        3779        3880        3879
         4        3779        3780        3881        3880
         4        3780        3781        3882        3881
         4        3781        3782        3883        3882
         4        3782        3783        3884        3883
         4        3783        3784        3885        3884
         4        3784        3785        3886        3885
         4        3785        3786        3887        3886
         4        3786        3787        3888        3887
         4        3787        3788        3889        3888
         4        3788        3789        3890        3889
         4        3789        3790        3891        3890
         4        3790        3791        3892        3891
         4        3791        3792        3893        3892
         4        3792        3793        3894        3893
         4        3793        3794        3895        3894
         4        3794        3795        3896        3895
         4        3795        3796        3897        3896
         4        3796        3797        3898        3897
         4        3797        3798        3899        3898
         4        3798        3799        3900        3899
         4        3799        3800        3901        3900
         4        3800        3801        3902        3901
         4        3801        3802        3903        3902
         4        3802        3803        3904        3903
         4        3803        3804        3905        3904
         4        3804        3805        3906        3905
         4        3805        3806        3907        3906
         4        3806        3807        3908        3907
         4        3807        3808        3909        3908
         4        3808        3809        3910        3909
         4        3809        3810        3911        3910
         4        3810        3811        3912        3911
         4        3811        3812        3913        3912
         4        3812        3813        3914        3913
         4        3813        3814        3915        3914
         4        3814        3815        3916        3915
         4        3815        3816        3917        3916
         4        3816        3817        3918        3917
         4        3817        3818        3919        3918
         4        3818        3819        3920        3919
         4        3819        3820        3921        3920
         4        3820        3821        3922        3921
         4        3821        3822        3923        3922
         4        3822        3823        3924        3923
         4        3823        3824        3925        3924
         4        3824        3825        3926        3925
         4        3825        3826        3927        3926
         4        3826        3827        3928        3927
         4        3827        3828        3929        3928
         4        3828        3829        3930        3929
         4        3829        3830        3931        3930
         4        3830        3831        3932        3931
         4        3831        3832        3933        3932
         4        3832        3833        3934        3933
         4        3833        3834        3935        3934
         4        3834        3835        3936        3935
         4        3835        3836        3937        3936
         4        3836        3837        3938        3937
         4        3838        3839        3940        3939
         4        3839        3840        3941        3940
         4        3840        3841        3942        3941
         4        3841        3842        3943        3942
         4        3842        3843        3944        3943
         4        3843        3844        3945        3944
         4        3844        3845        3946        3945
         4        3845        3846        3947        3946
         4        3846        3847        3948        3947
         4        3847        3848        3949        3948
         4        3848        3849        3950        3949
         4        3849        3850        3951        3950
         4        3850        3851        3952        3951
         4        3851        3852        3953        3952
         4        3852        3853        3954        3953
         4        3853        3854        3955        3954
         4        3854        3855        3956        3955
         4        3855        3856        3957        3956
         4        3856        3857        3958        3957
         4        3857        3858        3959        3958
         4        3858        3859        3960        3959
         4        3859        3860        3961        3960
         4        3860        3861        3962        3961
         4        3861        3862        3963        3962
         4        3862        3863        3964        3963
         4        3863        3864        3965        3964
         4        3864        3865        3966        3965
         4        3865        3866        3967        3966
         4        3866        3867        3968        3967
         4        3867        3868        3969        3968
         4        3868        3869        3970        3969
         4        3869        3870        3971        3970
         4        3870        3871        3972        3971
         4        3871        3872        3973        3972
         4        3872        3873        3974        3973
         4        3873        3874        3975        3974
         4        3874        3875        3976        3975
         4        3875        3876        3977        3976
         4        3876        3877        3978        3977
         4        3877        3878        3979        3978
         4        3878        3879        3980        3979
         4        3879        3880        3981        3980
         4        3880        3881        3982        3981
         4        3881        3882        3983        3982
         4        3882        3883        3984        3983
         4        3883        3884        3985        3984
         4        3884        3885        3986        3985
         4        3885        3886        3987        3986
         4        3886        3887        3988        3987
         4        3887        3888        3989        3988
         4        3888        3889        3990        3989
         4        3889        3890        3991        3990
         4        3890        3891        3992        3991
         4        3891        3892        3993        3992
         4        3892        3893        3994        3993
         4        3893        3894        3995        3994
         4        3894        3895        3996        3995
         4        3895        3896        3997        3996
         4        3896        3897        3998        3997
         4        3897        3898        3999        3998
         4        3898        3899        4000        3999
         4        3899        3900        4001        4000
         4        3900        3901        4002        4001
         4        3901        3902        4003        4002
         4        3902        3903        4004        4003
         4        3903        3904        4005        4004
         4        3904        3905        4006        4005
         4        3905        3906        4007        4006
         4        3906        3907        4008        4007
         4        3907        3908        4009        4008
         4        3908        3909        4010        4009
         4        3909        3910        4011        4010
         4        3910        3911        4012        4011
         4        3911        3912        4013        4012
         4        3912        3913        4014        4013
         4        3913        3914        4015        4014
         4        3914        3915        4016        4015
         4        3915        3916        4017        4016
         4        3916        3917        4018        4017
         4        3917        3918        4019        4018
         4        3918        3919        4020        4019
         4        3919        3920        4021        4020
         4        3920        3921        4022        4021
         4        3921        3922        4023        4022
         4        3922        3923        4024        4023
         4        3923        3924        4025        4024
         4        3924        3925        4026        4025
         4        3925        3926        4027        4026
         4        3926        3927        4028        4027
         4        3927        3928        4029        4028
         4        3928        3929        4030        4029
         4        3929        3930        4031        4030
         4        3930        3931        4032        4031
         4        3931        3932        4033        4032
         4        3932        3933        4034        4033
         4        3933        3934        4035        4034
         4        3934        3935        4036        4035
         4        3935        3936        4037        4036
         4        3936        3937        4038        4037
         4        3937        3938        4039        4038
         4        3939        3940        4041        4040
         4        3940        3941        4042        4041
         4        3941        3942        4043        4042
         4        3942        3943        4044        4043
         4        3943        3944        4045        4044
         4        3944        3945        4046        4045
         4        3945        3946        4047        4046
         4        3946        3947        4048        4047
         4        3947        3948        4049        4048
         4        3948        3949        4050        4049
         4        3949        3950        4051        4050
         4        3950        3951        4052        4051
         4        3951        3952        4053        4052
         4        3952        3953        4054        4053
         4        3953        3954        4055        4054
         4        3954        3955        4056        4055
         4        3955        3956        4057        4056
         4        3956        3957        4058        4057
         4        3957        3958        4059        4058
         4        3958        3959        4060        4059
         4        3959        3960        4061        4060
         4        3960        3961        4062        4061
         4        3961        3962        4063        4062
         4        3962        3963        4064        4063
         4        3963        3964        4065        4064
         4        3964        3965        4066        4065
         4        3965        3966        4067        4066
         4        3966        3967        4068        4067
         4        3967        3968        4069        4068
         4        3968        3969        4070        4069
         4        3969        3970        4071        4070
         4        3970        3971        4072        4071
         4        3971        3972        4073        4072
         4        3972        3973        4074        4073
         4        3973        3974        4075        4074
         4        3974        3975        4076        4075
         4        3975        3976        4077        4076
         4        3976        3977        4078        4077
         4        3977        3978        4079        4078
         4        3978        3979        4080        4079
         4        3979        3980        4081        4080
         4        3980        3981        4082        4081
         4        3981        3982        4083        4082
         4        3982        3983        4084        4083
         4        3983        3984        4085        4084
         4        3984        3985        4086        4085
         4        3985        3986        4087        4086
         4        3986        3987        4088        4087
         4        3987        3988        4089        4088
         4        3988        3989        4090        4089
         4        3989        3990        4091        4090
         4        3990        3991        4092        4091
         4        3991        3992        4093        4092
         4        3992        3993        4094        4093
         4        3993        3994        4095        4094
         4        3994        3995        4096        4095
         4        3995        3996        4097        4096
         4        3996        3997        4098        4097
         4        3997        3998        4099        4098
         4        3998        3999        4100        4099
         4        3999        4000        4101        4100
         4        4000        4001        4102        4101
         4        4001        4002        4103        4102
         4        4002        4003        4104        4103
         4        4003        4004        4105        4104
         4        4004        4005        4106        4105
         4        4005        4006        4107        4106
         4        4006        4007        4108        4107
         4        4007        4008        4109        4108
         4        4008        4009        4110        4109
         4        4009        4010        4111        4110
         4        4010        4011        4112        4111
         4        4011        4012        4113        4112
         4        4012        4013        4114        4113
         4        4013        4014        4115        4114
         4        4014        4015        4116        4115
         4        4015        4016        4117        4116
         4        4016        4017        4118        4117
         4        4017        4018        4119        4118
         4        4018        4019        4120        4119
         4        4019        4020        4121        4120
         4        4020        4021        4122        4121
         4        4021        4022        4123        4122
         4        4022        4023        4124        4123
         4        4023        4024        4125        4124
         4        4024        4025        4126        4125
         4        4025        4026        4127        4126
         4        4026        4027        4128        4127
         4        4027        4028        4129        4128
         4        4028        4029        4130        4129
         4        4029        4030        4131        4130
         4        4030        4031        4132        4131
         4        4031        4032        4133        4132
         4        4032        4033        4134        4133
         4        4033        4034        4135        4134
         4        4034        4035        4136        4135
         4        4035        4036        4137        4136
         4        4036        4037        4138        4137
         4        4037        4038        4139        4138
         4        4038        4039        4140        4139
         4        4040        4041        4142        4141
         4        4041        4042        4143        4142
         4        4042        4043        4144        4143
         4        4043        4044        4145        4144
         4        4044        4045        4146        4145
         4        4045        4046        4147        4146
         4        4046        4047        4148        4147
         4        4047        4048        4149        4148
         4        4048        4049        4150        4149
         4        4049        4050        4151        4150
         4        4050        4051        4152        4151
         4        4051        4052        4153        4152
         4        4052        4053        4154        4153
         4        4053        4054        4155        4154
         4        4054        4055        4156        4155
         4        4055        4056        4157        4156
         4        4056        4057        4158        4157
         4        4057        4058        4159        4158
         4        4058        4059        4160        4159
         4        4059        4060        4161        4160
         4        4060        4061        4162        4161
         4        4061        4062        4163        4162
         4        4062        4063        4164        4163
         4        4063        4064        4165        4164
         4        4064        4065        4166        4165
         4        4065        4066        4167        4166
         4        4066        4067        4168        4167
         4        4067        4068        4169        4168
         4        4068        4069        4170        4169
         4        4069        4070        4171        4170
         4        4070        4071        4172        4171
         4        4071        4072        4173        4172
         4        4072        4073        4174        4173
         4        4073        4074        4175        4174
         4        4074        4075        4176        4175
         4        4075        4076        4177        4176
         4        4076        4077        4178        4177
         4        4077        4078        4179        4178
         4        4078        4079        4180        4179
         4        4079        4080        4181        4180
         4        4080        4081        4182        4181
         4        4081        4082        4183        4182
         4        4082        4083        4184        4183
         4        4083        4084        4185        4184
         4        4084        4085        4186        4185
         4        4085        4086        4187        4186
         4        4086        4087        4188        4187
         4        4087        4088        4189        4188
         4        4088        4089        4190        4189
         4        4089        4090        4191        4190
         4        4090        4091        4192        4191
         4        4091        4092        4193        4192
         4        4092        4093        4194        4193
         4        4093        4094        4195        4194
         4        4094        4095        4196        4195
         4        4095        4096        4197        4196
         4        4096        4097        4198        4197
         4        4097        4098        4199        4198
         4        4098        4099        4200        4199
         4        4099        4100        4201        4200
         4        4100        4101        4202        4201
         4        4101        4102        4203        4202
         4        4102        4103        4204        4203
         4        4103        4104        4205        4204
         4        4104        4105        4206        4205
         4        4105        4106        4207        4206
         4        4106        4107        4208        4207
         4        4107        4108        4209        4208
         4        4108        4109        4210        4209
         4        4109        4110        4211        4210
         4        4110        4111        4212        4211
         4        4111        4112        4213        4212
         4        4112        4113        4214        4213
         4        4113        4114        4215        4214
         4        4114        4115        4216        4215
         4        4115        4116        4217        4216
         4        4116        4117        4218        4217
         4        4117        4118        4219        4218
         4        4118        4119        4220        4219
         4        4119        4120        4221        4220
         4        4120        4121        4222        4221
         4        4121        4122        4223        4222
         4        4122        4123        4224        4223
         4        4123        4124        4225        4224
         4        4124        4125        4226        4225
         4        4125        4126        4227        4226
         4        4126        4127        4228        4227
         4        4127        4128        4229        4228
         4        4128        4129        4230        4229
         4        4129        4130        4231        4230
         4        4130        4131        4232        4231
         4        4131        4132        4233        4232
         4        4132        4133        4234        4233
         4        4133        4134        4235        4234
         4        4134        4135        4236        4235
         4        4135        4136        4237        4236
         4        4136        4137        4238        4237
         4        4137        4138        4239        4238
         4        4138        4139        4240        4239
         4        4139        4140        4241        4240
         4        4141        4142        4243        4242
         4        4142        4143        4244        4243
         4        4143        4144        4245        4244
         4        4144        4145        4246        4245
         4        4145        4146        4247        4246
         4        4146        4147        4248        4247
         4        4147        4148        4249        4248
         4        4148        4149        4250        4249
         4        4149        4150        4251        4250
         4        4150        4151        4252        4251
         4        4151        4152        4253        4252
         4        4152        4153        4254        4253
         4        4153        4154        4255        4254
         4        4154        4155        4256        4255
         4        4155        4156        4257        4256
         4        4156        4157        4258        4257
         4        4157        4158        4259        4258
         4        4158        4159        4260        4259
         4        4159        4160        4261        4260
         4        4160        4161        4262        4261
         4        4161        4162        4263        4262
         4        4162        4163        4264        4263
         4        4163        4164        4265        4264
         4        4164        4165        4266        4265
         4        4165        4166        4267        4266
         4        4166        4167        4268        4267
         4        4167        4168        4269        4268
         4        4168        4169        4270        4269
         4        4169        4170        4271        4270
         4        4170        4171        4272        4271
         4        4171        4172        4273        4272
         4        4172        4173        4274        4273
         4        4173        4174        4275        4274
         4        4174        4175        4276        4275
         4        4175        4176        4277        4276
         4        4176        4177        4278        4277
         4        4177        4178        4279        4278
         4        4178        4179        4280        4279
         4        4179        4180        4281        4280
         4        4180        4181        4282        4281
         4        4181        4182        4283        4282
         4        4182        4183        4284        4283
         4        4183        4184        4285        4284
         4        4184        4185        4286        4285
         4        4185        4186        4287        4286
         4        4186        4187        4288        4287
         4        4187        4188        4289        4288
         4        4188        4189        4290        4289
         4        4189        4190        4291        4290
         4        4190        4191        4292        4291
         4        4191        4192        4293        4292
         4        4192        4193        4294        4293
         4        4193        4194        4295        4294
         4        4194        4195        4296        4295
         4        4195        4196        4297        4296
         4        4196        4197        4298        4297
         4        4197        4198        4299        4298
         4        4198        4199        4300        4299
         4        4199        4200        4301        4300
         4        4200        4201        4302        4301
         4        4201        4202        4303        4302
         4        4202        4203        4304        4303
         4        4203        4204        4305        4304
         4        4204        4205        4306        4305
         4        4205        4206        4307        4306
         4        4206        4207        4308        4307
         4        4207        4208        4309        4308
         4        4208        4209        4310        4309
         4        4209        4210        4311        4310
         4        4210        4211        4312        4311
         4        4211        4212        4313        4312
         4        4212        4213        4314        4313
         4        4213        4214        4315        4314
         4        4214        4215        4316        4315
         4        4215        4216        4317        4316
         4        4216        4217        4318        4317
         4        4217        4218        4319        4318
         4        4218        4219        4320        4319
         4        4219        4220        4321        4320
         4        4220        4221        4322        4321
         4        4221        4222        4323        4322
         4        4222        4223        4324        4323
         4        4223        4224        4325        4324
         4        4224        4225        4326        4325
         4        4225        4226        4327        4326
         4        4226        4227        4328        4327
         4        4227        4228        4329        4328
         4        4228        4229        4330        4329
         4        4229        4230        4331        4330
         4        4230        4231        4332        4331
         4        4231        4232        4333        4332
         4        4232        4233        4334        4333
         4        4233        4234        4335        4334
         4        4234        4235        4336        4335
         4        4235        4236        4337        4336
         4        4236        4237        4338        4337
         4        4237        4238        4339        4338
         4        4238        4239        4340        4339
         4        4239        4240        4341        4340
         4        4240        4241        4342        4341
         4        4242        4243        4344        4343
         4        4243        4244        4345        4344
         4        4244        4245        4346        4345
         4        4245        4246        4347        4346
         4        4246        4247        4348        4347
         4        4247        4248        4349        4348
         4        4248        4249        4350        4349
         4        4249        4250        4351        4350
         4        4250        4251        4352        4351
         4        4251        4252        4353        4352
         4        4252        4253        4354        4353
         4        4253        4254        4355        4354
         4        4254        4255        4356        4355
         4        4255        4256        4357        4356
         4        4256        4257        4358        4357
         4        4257        4258        4359        4358
         4        4258        4259        4360        4359
         4        4259        4260        4361        4360
         4        4260        4261        4362        4361
         4        4261        4262        4363        4362
         4        4262        4263        4364        4363
         4        4263        4264        4365        4364
         4        4264        4265        4366        4365
         4        4265        4266        4367        4366
         4        4266        4267        4368        4367
         4        4267        4268        4369        4368
         4        4268        4269        4370        4369
         4        4269        4270        4371        4370
         4        4270        4271        4372        4371
         4        4271        4272        4373        4372
         4        4272        4273        4374        4373
         4        4273        4274        4375        4374
         4        4274        4275        4376        4375
         4        4275        4276        4377        4376
         4        4276        4277        4378        4377
         4        4277        4278        4379        4378
         4        4278        4279        4380        4379
         4        4279        4280        4381        4380
         4        4280        4281        4382        4381
         4        4281        4282        4383        4382
         4        4282        4283        4384        4383
         4        4283        4284        4385        4384
         4        4284        4285        4386        4385
         4        4285        4286        4387        4386
         4        4286        4287        4388        4387
         4        4287        4288        4389        4388
         4        4288        4289        4390        4389
         4        4289        4290        4391        4390
         4        4290        4291        4392        4391
         4        4291        4292        4393        4392
         4        4292        4293        4394        4393
         4        4293        4294        4395        4394
         4        4294        4295        4396        4395
         4        4295        4296        4397        4396
         4        4296        4297        4398        4397
         4        4297        4298        4399        4398
         4        4298        4299        4400        4399
         4        4299        4300        4401        4400
         4        4300        4301        4402        4401
         4        4301        4302        4403        4402
         4        4302        4303        4404        4403
         4        4303        4304        4405        4404
         4        4304        4305        4406        4405
         4        4305        4306        4407        4406
         4        4306        4307        4408        4407
         4        4307        4308        4409        4408
         4        4308        4309        4410        4409
         4        4309        4310        4411        4410
         4        4310        4311        4412        4411
         4        4311        4312        4413        4412
         4        4312        4313        4414        4413
         4        4313        4314        4415        4414
         4        4314        4315        4416        4415
         4        4315        4316        4417        4416
         4        4316        4317        4418        4417
         4        4317        4318        4419        4418
         4        4318        4319        4420        4419
         4        4319        4320        4421        4420
         4        4320        4321        4422        4421
         4        4321        4322        4423        4422
         4        4322        4323        4424        4423
         4        4323        4324        4425        4424
         4        4324        4325        4426        4425
         4        4325        4326        4427        4426
         4        4326        4327        4428        4427
         4        4327        4328        4429        4428
         4        4328        4329        4430        4429
         4        4329        4330        4431        4430
         4        4330        4331        4432        4431
         4        4331        4332        4433        4432
         4        4332        4333        4434        4433
         4        4333        4334        4435        4434
         4        4334        4335        4436        4435
         4        4335        4336        4437        4436
         4        4336        4337        4438        4437
         4        4337        4338        4439        4438
         4        4338        4339        4440        4439
         4        4339        4340        4441        4440
         4        4340        4341        4442        4441
         4        4341        4342        4443        4442
         4        4343        4344        4445        4444
         4        4344        4345        4446        4445
         4        4345        4346        4447        4446
         4        4346        4347        4448        4447
         4        4347        4348        4449        4448
         4        4348        4349        4450        4449
         4        4349        4350        4451        4450
         4        4350        4351        4452        4451
         4        4351        4352        4453        4452
         4        4352        4353        4454        4453
         4        4353        4354        4455        4454
         4        4354        4355        4456        4455
         4        4355        4356        4457        4456
         4        4356        4357        4458        4457
         4        4357        4358        4459        4458
         4        4358        4359        4460        4459
         4        4359        4360        4461        4460
         4        4360        4361        4462        4461
         4        4361        4362        4463        4462
         4        4362        4363        4464        4463
         4        4363        4364        4465        4464
         4        4364        4365        4466        4465
         4        4365        4366        4467        4466
         4        4366        4367        4468        4467
         4        4367        4368        4469        4468
         4        4368        4369        4470        4469
         4        4369        4370        4471        4470
         4        4370        4371        4472        4471
         4        4371        4372        4473        4472
         4        4372        4373        4474        4473
         4        4373        4374        4475        4474
         4        4374        4375        4476        4475
         4        4375        4376        4477        4476
         4        4376        4377        4478        4477
         4        4377        4378        4479        4478
         4        4378        4379        4480        4479
         4        4379        4380        4481        4480
         4        4380        4381        4482        4481
         4        4381        4382        4483        4482
         4        4382        4383        4484        4483
         4        4383        4384        4485        4484
         4        4384        4385        4486        4485
         4        4385        4386        4487        4486
         4        4386        4387        4488        4487
         4        4387        4388        4489        4488
         4        4388        4389        4490        4489
         4        4389        4390        4491        4490
         4        4390        4391        4492        4491
         4        4391        4392        4493        4492
         4        4392        4393        4494        4493
         4        4393        4394        4495        4494
         4        4394        4395        4496        4495
         4        4395        4396        4497        4496
         4        4396        4397        4498        4497
         4        4397        4398        4499        4498
         4        4398        4399        4500        4499
         4        4399        4400        4501        4500
         4        4400        4401        4502        4501
         4        4401        4402        4503        4502
         4        4402        4403        4504        4503
         4        4403        4404        4505        4504
         4        4404        4405        4506        4505
         4        4405        4406        4507        4506
         4        4406        4407        4508        4507
         4        4407        4408        4509        4508
         4        4408        4409        4510        4509
         4        4409        4410        4511        4510
         4        4410        4411        4512        4511
         4        4411        4412        4513        4512
         4        4412        4413        4514        4513
         4        4413        4414        4515        4514
         4        4414        4415        4516        4515
         4        4415        4416        4517        4516
         4        4416        4417        4518        4517
         4        4417        4418        4519        4518
         4        4418        4419        4520        4519
         4        4419        4420        4521        4520
         4        4420        4421        4522        4521
         4        4421        4422        4523        4522
         4        4422        4423        4524        4523
         4        4423        4424        4525        4524
         4        4424        4425        4526        4525
         4        4425        4426        4527        4526
         4        4426        4427        4528        4527
         4        4427        4428        4529        4528
         4        4428        4429        4530        4529
         4        4429        4430        4531        4530
         4        4430        4431        4532        4531
         4        4431        4432        4533        4532
         4        4432        4433        4534        4533
         4        4433        4434        4535        4534
         4        4434        4435        4536        4535
         4        4435        4436        4537        4536
         4        4436        4437        4538        4537
         4        4437        4438        4539        4538
         4        4438        4439        4540        4539
         4        4439        4440        4541        4540
         4        4440        4441        4542        4541
         4        4441        4442        4543        4542
         4        4442        4443        4544        4543
         4        4444        4445        4546        4545
         4        4445        4446        4547        4546
         4        4446        4447        4548        4547
         4        4447        4448        4549        4548
         4        4448        4449        4550        4549
         4        4449        4450        4551        4550
         4        4450        4451        4552        4551
         4        4451        4452        4553        4552
         4        4452        4453        4554        4553
         4        4453        4454        4555        4554
         4        4454        4455        4556        4555
         4        4455        4456        4557        4556
         4        4456        4457        4558        4557
         4        4457        4458        4559        4558
         4        4458        4459        4560        4559
         4        4459        4460        4561        4560
         4        4460        4461        4562        4561
         4        4461        4462        4563        4562
         4        4462        4463        4564        4563
         4        4463        4464        4565        4564
         4        4464        4465        4566        4565
         4        4465        4466        4567        4566
         4        4466        4467        4568        4567
         4        4467        4468        4569        4568
         4        4468        4469        4570        4569
         4        4469        4470        4571        4570
         4        4470        4471        4572        4571
         4        4471        4472        4573        4572
         4        4472        4473        4574        4573
         4        4473        4474        4575        4574
         4        4474        4475        4576        4575
         4        4475        4476        4577        4576
         4        4476        4477        4578        4577
         4        4477        4478        4579        4578
         4        4478        4479        4580        4579
         4        4479        4480        4581        4580
         4        4480        4481        4582        4581
         4        4481        4482        4583        4582
         4        4482        4483        4584        4583
         4        4483        4484        4585        4584
         4        4484        4485        4586        4585
         4        4485        4486        4587        4586
         4        4486        4487        4588        4587
         4        4487        4488        4589        4588
         4        4488        4489        4590        4589
         4        4489        4490        4591        4590
         4        4490        4491        4592        4591
         4        4491        4492        4593        4592
         4        4492        4493        4594        4593
         4        4493        4494        4595        4594
         4        4494        4495        4596        4595
         4        4495        4496        4597        4596
         4        4496        4497        4598        4597
         4        4497        4498        4599        4598
         4        4498        4499        4600        4599
         4        4499        4500        4601        4600
         4        4500        4501        4602        4601
         4        4501        4502        4603        4602
         4        4502        4503        4604        4603
         4        4503        4504        4605        4604
         4        4504        4505        4606        4605
         4        4505        4506        4607        4606
         4        4506        4507        4608        4607
         4        4507        4508        4609        4608
         4        4508        4509        4610        4609
         4        4509        4510        4611        4610
         4        4510        4511        4612        4611
         4        4511        4512        4613        4612
         4        4512        4513        4614        4613
         4        4513        4514        4615        4614
         4        4514        4515        4616        4615
         4        4515        4516        4617        4616
         4        4516        4517        4618        4617
         4        4517        4518        4619        4618
         4        4518        4519        4620        4619
         4        4519        4520        4621        4620
         4        4520        4521        4622        4621
         4        4521        4522        4623        4622
         4        4522        4523        4624        4623
         4        4523        4524        4625        4624
         4        4524        4525        4626        4625
         4        4525        4526        4627        4626
         4        4526        4527        4628        4627
         4        4527        4528        4629        4628
         4        4528        4529        4630        4629
         4        4529        4530        4631        4630
         4        4530        4531        4632        4631
         4        4531        4532        4633        4632
         4        4532        4533        4634        4633
         4        4533        4534        4635        4634
         4        4534        4535        4636        4635
         4        4535        4536        4637        4636
         4        4536        4537        4638        4637
         4        4537        4538        4639        4638
         4        4538        4539        4640        4639
         4        4539        4540        4641        4640
         4        4540        4541        4642        4641
         4        4541        4542        4643        4642
         4        4542        4543        4644        4643
         4        4543        4544        4645        4644
         4        4545        4546        4647        4646
         4        4546        4547        4648        4647
         4        4547        4548        4649        4648
         4        4548        4549        4650        4649
         4        4549        4550        4651        4650
         4        4550        4551        4652        4651
         4        4551        4552        4653        4652
         4        4552        4553        4654        4653
         4        4553        4554        4655        4654
         4        4554        4555        4656        4655
         4        4555        4556        4657        4656
         4        4556        4557        4658        4657
         4        4557        4558        4659        4658
         4        4558        4559        4660        4659
         4        4559        4560        4661        4660
         4        4560        4561        4662        4661
         4        4561        4562        4663        4662
         4        4562        4563        4664        4663
         4        4563        4564        4665        4664
         4        4564        4565        4666        4665
         4        4565        4566        4667        4666
         4        4566        4567        4668        4667
         4        4567        4568        4669        4668
         4        4568        4569        4670        4669
         4        4569        4570        4671        4670
         4        4570        4571        4672        4671
         4        4571        4572        4673        4672
         4        4572        4573        4674        4673
         4        4573        4574        4675        4674
         4        4574        4575        4676        4675
         4        4575        4576        4677        4676
         4        4576        4577        4678        4677
         4        4577        4578        4679        4678
         4        4578        4579        4680        4679
         4        4579        4580        4681        4680
         4        4580        4581        4682        4681
         4        4581        4582        4683        4682
         4        4582        4583        4684        4683
         4        4583        4584        4685        4684
         4        4584        4585        4686        4685
         4        4585        4586        4687        4686
         4        4586        4587        4688        4687
         4        4587        4588        4689        4688
         4        4588        4589        4690        4689
         4        4589        4590        4691        4690
         4        4590        4591        4692        4691
         4        4591        4592        4693        4692
         4        4592        4593        4694        4693
         4        4593        4594        4695        4694
         4        4594        4595        4696        4695
         4        4595        4596        4697        4696
         4        4596        4597        4698        4697
         4        4597        4598        4699        4698
         4        4598        4599        4700        4699
         4        4599        4600        4701        4700
         4        4600        4601        4702        4701
         4        4601        4602        4703        4702
         4        4602        4603        4704        4703
         4        4603        4604        4705        4704
         4        4604        4605        4706        4705
         4        4605        4606        4707        4706
         4        4606        4607        4708        4707
         4        4607        4608        4709        4708
         4        4608        4609        4710        4709
         4        4609        4610        4711        4710
         4        4610        4611        4712        4711
         4        4611        4612        4713        4712
         4        4612        4613        4714        4713
         4        4613        4614        4715        4714
         4        4614        4615        4716        4715
         4        4615        4616        4717        4716
         4        4616        4617        4718        4717
         4        4617        4618        4719        4718
         4        4618        4619        4720        4719
         4        4619        4620        4721        4720
         4        4620        4621        4722        4721
         4        4621        4622        4723        4722
         4        4622        4623        4724        4723
         4        4623        4624        4725        4724
         4        4624        4625        4726        4725
         4        4625        4626        4727        4726
         4        4626        4627        4728        4727
         4        4627        4628        4729        4728
         4        4628        4629        4730        4729
         4        4629        4630        4731        4730
         4        4630        4631        4732        4731
         4        4631        4632        4733        4732
         4        4632        4633        4734        4733
         4        4633        4634        4735        4734
         4        4634        4635        4736        4735
         4        4635        4636        4737        4736
         4        4636        4637        4738        4737
         4        4637        4638        4739        4738
         4        4638        4639        4740        4739
         4        4639        4640        4741        4740
         4        4640        4641        4742        4741
         4        4641        4642        4743        4742
         4        4642        4643        4744        4743
         4        4643        4644        4745        4744
         4        4644        4645        4746        4745
         4        4646        4647        4748        4747
         4        4647        4648        4749        4748
         4        4648        4649        4750        4749
         4        4649        4650        4751        4750
         4        4650        4651        4752        4751
         4        4651        4652        4753        4752
         4        4652        4653        4754        4753
         4        4653        4654        4755        4754
         4        4654        4655        4756        4755
         4        4655        4656        4757        4756
         4        4656        4657        4758        4757
         4        4657        4658        4759        4758
         4        4658        4659        4760        4759
         4        4659        4660        4761        4760
         4        4660        4661        4762        4761
         4        4661        4662        4763        4762
         4        4662        4663        4764        4763
         4        4663        4664        4765        4764
         4        4664        4665        4766        4765
         4        4665        4666        4767        4766
         4        4666        4667        4768        4767
         4        4667        4668        4769        4768
         4        4668        4669        4770        4769
         4        4669        4670        4771        4770
         4        4670        4671        4772        4771
         4        4671        4672        4773        4772
         4        4672        4673        4774        4773
         4        4673        4674        4775        4774
         4        4674        4675        4776        4775
         4        4675        4676        4777        4776
         4        4676        4677        4778        4777
         4        4677        4678        4779        4778
         4        4678        4679        4780        4779
         4        4679        4680        4781        4780
         4        4680        4681        4782        4781
         4        4681        4682        4783        4782
         4        4682        4683        4784        4783
         4        4683        4684        4785        4784
         4        4684        4685        4786        4785
         4        4685        4686        4787        4786
         4        4686        4687        4788        4787
         4        4687        4688        4789        4788
         4        4688        4689        4790        4789
         4        4689        4690        4791        4790
         4        4690        4691        4792        4791
         4        4691        4692        4793        4792
         4        4692        4693        4794        4793
         4        4693        4694        4795        4794
         4        4694        4695        4796        4795
         4        4695        4696        4797        4796
         4        4696        4697        4798        4797
         4        4697        4698        4799        4798
         4        4698        4699        4800        4799
         4        4699        4700        4801        4800
         4        4700        4701        4802        4801
         4        4701        4702        4803        4802
         4        4702        4703        4804        4803
         4        4703        4704        4805        4804
         4        4704        4705        4806        4805
         4        4705        4706        4807        4806
         4        4706        4707        4808        4807
         4        4707        4708        4809        4808
         4        4708        4709        4810        4809
         4        4709        4710        4811        4810
         4        4710        4711        4812        4811
         4        4711        4712        4813        4812
         4        4712        4713        4814        4813
         4        4713        4714        4815        4814
         4        4714        4715        4816        4815
         4        4715        4716        4817        4816
         4        4716        4717        4818        4817
         4        4717        4718        4819        4818
         4        4718        4719        4820        4819
         4        4719        4720        4821        4820
         4        4720        4721        4822        4821
         4        4721        4722        4823        4822
         4        4722        4723        4824        4823
         4        4723        4724        4825        4824
         4        4724        4725        4826        4825
         4        4725        4726        4827        4826
         4        4726        4727        4828        4827
         4        4727        4728        4829        4828
         4        4728        4729        4830        4829
         4        4729        4730        4831        4830
         4        4730        4731        4832        4831
         4        4731        4732        4833        4832
         4        4732        4733        4834        4833
         4        4733        4734        4835        4834
         4        4734        4735        4836        4835
         4        4735        4736        4837        4836
         4        4736        4737        4838        4837
         4        4737        4738        4839        4838
         4        4738        4739        4840        4839
         4        4739        4740        4841        4840
         4        4740        4741        4842        4841
         4        4741        4742        4843        4842
         4        4742        4743        4844        4843
         4        4743        4744        4845        4844
         4        4744        4745        4846        4845
         4        4745        4746        4847        4846
         4        4747        4748        4849        4848
         4        4748        4749        4850        4849
         4        4749        4750        4851        4850
         4        4750        4751        4852        4851
         4        4751        4752        4853        4852
         4        4752        4753        4854        4853
         4        4753        4754        4855        4854
         4        4754        4755        4856        4855
         4        4755        4756        4857        4856
         4        4756        4757        4858        4857
         4        4757        4758        4859        4858
         4        4758        4759        4860        4859
         4        4759        4760        4861        4860
         4        4760        4761        4862        4861
         4        4761        4762        4863        4862
         4        4762        4763        4864        4863
         4        4763        4764        4865        4864
         4        4764        4765        4866        4865
         4        4765        4766        4867        4866
         4        4766        4767        4868        4867
         4        4767        4768        4869        4868
         4        4768        4769        4870        4869
         4        4769        4770        4871        4870
         4        4770        4771        4872        4871
         4        4771        4772        4873        4872
         4        4772        4773        4874        4873
         4        4773        4774        4875        4874
         4        4774        4775        4876        4875
         4        4775        4776        4877        4876
         4        4776        4777        4878        4877
         4        4777        4778        4879        4878
         4        4778        4779        4880        4879
         4        4779        4780        4881        4880
         4        4780        4781        4882        4881
         4        4781        4782        4883        4882
         4        4782        4783        4884        4883
         4        4783        4784        4885        4884
         4        4784        4785        4886        4885
         4        4785        4786        4887        4886
         4        4786        4787        4888        4887
         4        4787        4788        4889        4888
         4        4788        4789        4890        4889
         4        4789        4790        4891        4890
         4        4790        4791        4892        4891
         4        4791        4792        4893        4892
         4        4792        4793        4894        4893
         4        4793        4794        4895        4894
         4        4794        4795        4896        4895
         4        4795        4796        4897        4896
         4        4796        4797        4898        4897
         4        4797        4798        4899        4898
         4        4798        4799        4900        4899
         4        4799        4800        4901        4900
         4        4800        4801        4902        4901
         4        4801        4802        4903        4902
         4        4802        4803        4904        4903
         4        4803        4804        4905        4904
         4        4804        4805        4906        4905
         4        4805        4806        4907        4906
         4        4806        4807        4908        4907
         4        4807        4808        4909        4908
         4        4808        4809        4910        4909
         4        4809        4810        4911        4910
         4        4810        4811        4912        4911
         4        4811        4812        4913        4912
         4        4812        4813        4914        4913
         4        4813        4814        4915        4914
         4        4814        4815        4916        4915
         4        4815        4816        4917        4916
         4        4816        4817        4918        4917
         4        4817        4818        4919        4918
         4        4818        4819        4920        4919
         4        4819        4820        4921        4920
         4        4820        4821        4922        4921
         4        4821        4822        4923        4922
         4        4822        4823        4924        4923
         4        4823        4824        4925        4924
         4        4824        4825        4926        4925
         4        4825        4826        4927        4926
         4        4826        4827        4928        4927
         4        4827        4828        4929        4928
         4        4828        4829        4930        4929
         4        4829        4830        4931        4930
         4        4830        4831        4932        4931
         4        4831        4832        4933        4932
         4        4832        4833        4934        4933
         4        4833        4834        4935        4934
         4        4834        4835        4936        4935
         4        4835        4836        4937        4936
         4        4836        4837        4938        4937
         4        4837        4838        4939        4938
         4        4838        4839        4940        4939
         4        4839        4840        4941        4940
         4        4840        4841        4942        4941
         4        4841        4842        4943        4942
         4        4842        4843        4944        4943
         4        4843        4844        4945        4944
         4        4844        4845        4946        4945
         4        4845        4846        4947        4946
         4        4846        4847        4948        4947
         4        4848        4849        4950        4949
         4        4849        4850        4951        4950
         4        4850        4851        4952        4951
         4        4851        4852        4953        4952
         4        4852        4853        4954        4953
         4        4853        4854        4955        4954
         4        4854        4855        4956        4955
         4        4855        4856        4957        4956
         4        4856        4857        4958        4957
         4        4857        4858        4959        4958
         4        4858        4859        4960        4959
         4        4859        4860        4961        4960
         4        4860        4861        4962        4961
         4        4861        4862        4963        4962
         4        4862        4863        4964        4963
         4        4863        4864        4965        4964
         4        4864        4865        4966        4965
         4        4865        4866        4967        4966
         4        4866        4867        4968        4967
         4        4867        4868        4969        4968
         4        4868        4869        4970        4969
         4        4869        4870        4971        4970
         4        4870        4871        4972        4971
         4        4871        4872        4973        4972
         4        4872        4873        4974        4973
         4        4873        4874        4975        4974
         4        4874        4875        4976        4975
         4        4875        4876        4977        4976
         4        4876        4877        4978        4977
         4        4877        4878        4979        4978
         4        4878        4879        4980        4979
         4        4879        4880        4981        4980
         4        4880        4881        4982        4981
         4        4881        4882        4983        4982
         4        4882        4883        4984        4983
         4        4883        4884        4985        4984
         4        4884        4885        4986        4985
         4        4885        4886        4987        4986
         4        4886        4887        4988        4987
         4        4887        4888        4989        4988
         4        4888        4889        4990        4989
         4        4889        4890        4991        4990
         4        4890        4891        4992        4991
         4        4891        4892        4993        4992
         4        4892        4893        4994        4993
         4        4893        4894        4995        4994
         4        4894        4895        4996        4995
         4        4895        4896        4997        4996
         4        4896        4897        4998        4997
         4        4897        4898        4999        4998
         4        4898        4899        5000        4999
         4        4899        4900        5001        5000
         4        4900        4901        5002        5001
         4        4901        4902        5003        5002
         4        4902        4903        5004        5003
         4        4903        4904        5005        5004
         4        4904        4905        5006        5005
         4        4905        4906        5007        5006
         4        4906        4907        5008        5007
         4        4907        4908        5009        5008
         4        4908        4909        5010        5009
         4        4909        4910        5011        5010
         4        4910        4911        5012        5011
         4        4911        4912        5013        5012
         4        4912        4913        5014        5013
         4        4913        4914        5015        5014
         4        4914        4915        5016        5015
         4        4915        4916        5017        5016
         4        4916        4917        5018        5017
         4        4917        4918        5019        5018
         4        4918        4919        5020        5019
         4        4919        4920        5021        5020
         4        4920        4921        5022        5021
         4        4921        4922        5023        5022
         4        4922        4923        5024        5023
         4        4923        4924        5025        5024
         4        4924        4925        5026        5025
         4        4925        4926        5027        5026
         4        4926        4927        5028        5027
         4        4927        4928        5029        5028
         4        4928        4929        5030        5029
         4        4929        4930        5031        5030
         4        4930        4931        5032        5031
         4        4931        4932        5033        5032
         4        4932        4933        5034        5033
         4        4933        4934        5035        5034
         4        4934        4935        5036        5035
         4        4935        4936        5037        5036
         4        4936        4937        5038        5037
         4        4937        4938        5039        5038
         4        4938        4939        5040        5039
         4        4939        4940        5041        5040
         4        4940        4941        5042        5041
         4        4941        4942        5043        5042
         4        4942        4943        5044        5043
         4        4943        4944        5045        5044
         4        4944        4945        5046        5045
         4        4945        4946        5047        5046
         4        4946        4947        5048        5047
         4        4947        4948        5049        5048
         4        4949        4950        5051        5050
         4        4950        4951        5052        5051
         4        4951        4952        5053        5052
         4        4952        4953        5054        5053
         4        4953        4954        5055        5054
         4        4954        4955        5056        5055
         4        4955        4956        5057        5056
         4        4956        4957        5058        5057
         4        4957        4958        5059        5058
         4        4958        4959        5060        5059
         4        4959        4960        5061        5060
         4        4960        4961        5062        5061
         4        4961        4962        5063        5062
         4        4962        4963        5064        5063
         4        4963        4964        5065        5064
         4        4964        4965        5066        5065
         4        4965        4966        5067        5066
         4        4966        4967        5068        5067
         4        4967        4968        5069        5068
         4        4968        4969        5070        5069
         4        4969        4970        5071        5070
         4        4970        4971        5072        5071
         4        4971        4972        5073        5072
         4        4972        4973        5074        5073
         4        4973        4974        5075        5074
         4        4974        4975        5076        5075
         4        4975        4976        5077        5076
         4        4976        4977        5078        5077
         4        4977        4978        5079        5078
         4        4978        4979        5080        5079
         4        4979        4980        5081        5080
         4        4980        4981        5082        5081
         4        4981        4982        5083        5082
         4        4982        4983        5084        5083
         4        4983        4984        5085        5084
         4        4984        4985        5086        5085
         4        4985        4986        5087        5086
         4        4986        4987        5088        5087
         4        4987        4988        5089        5088
         4        4988        4989        5090        5089
         4        4989        4990        5091        5090
         4        4990        4991        5092        5091
         4        4991        4992        5093        5092
         4        4992        4993        5094        5093
         4        4993        4994        5095        5094
         4        4994        4995        5096        5095
         4        4995        4996        5097        5096
         4        4996        4997        5098        5097
         4        4997        4998        5099        5098
         4        4998        4999        5100        5099
         4        4999        5000        5101        5100
         4        5000        5001        5102        5101
         4        5001        5002        5103        5102
         4        5002        5003        5104        5103
         4        5003        5004        5105        5104
         4        5004        5005        5106        5105
         4        5005        5006        5107        5106
         4        5006        5007        5108        5107
         4        5007        5008        5109        5108
         4        5008        5009        5110        5109
         4        5009        5010        5111        5110
         4        5010        5011        5112        5111
         4        5011        5012        5113        5112
         4        5012        5013        5114        5113
         4        5013        5014        5115        5114
         4        5014        5015        5116        5115
         4        5015        5016        5117        5116
         4        5016        5017        5118        5117
         4        5017        5018        5119        5118
         4        5018        5019        5120        5119
         4        5019        5020        5121        5120
         4        5020        5021        5122        5121
         4        5021        5022        5123        5122
         4        5022        5023        5124        5123
         4        5023        5024        5125        5124
         4        5024        5025        5126        5125
         4        5025        5026        5127        5126
         4        5026        5027        5128        5127
         4        5027        5028        5129        5128
         4        5028        5029        5130        5129
         4        5029        5030        5131        5130
         4        5030        5031        5132        5131
         4        5031        5032        5133        5132
         4        5032        5033        5134        5133
         4        5033        5034        5135        5134
         4        5034        5035        5136        5135
         4        5035        5036        5137        5136
         4        5036        5037        5138        5137
         4        5037        5038        5139        5138
         4        5038        5039        5140        5139
         4        5039        5040        5141        5140
         4        5040        5041        5142        5141
         4        5041        5042        5143        5142
         4        5042        5043        5144        5143
         4        5043        5044        5145        5144
         4        5044        5045        5146        5145
         4        5045        5046        5147        5146
         4        5046        5047        5148        5147
         4        5047        5048        5149        5148
         4        5048        5049        5150        5149
CELL_TYPES       5000
9
9
9
9
9
9
9
9
9
9
9
9
9
9
9
9
9
9
9
9
9
9
9
9
9
9
9
9
9
9
9
9
9
9
9
9
9
9
9
9
9
9
9
9
9
9
9
9
9
9
9
9
9
9
9
9
9
9
9
9
9
9
9
9
9
9
9
9
9
9
9
9
9
9
9
9
9
9
9
9
9
9
9
9
9
9
9
9
9
9
9
9
9
9
9
9
9
9
9
9
9
9
9
9
9
9
9
9
9
9
9
9
9
9
9
9
9
9
9
9
9
9
9
9
9
9
9
9
9
9
9
9
9
9
9
9
9
9
9
9
9
9
9
9
9
9
9
9
9
9
9
9
9
9
9
9
9
9
9
9
9
9
9
9
9
9
9
9
9
9
9
9
9
9
9
9
9
9
9
9
9
9
9
9
9
9
9
9
9
9
9
9
9
9
9
9
9
9
9
9
9
9
9
9
9
9
9
9
9
9
9
9
9
9
9
9
9
9
9
9
9
9
9
9
9
9
9
9
9
9
9
9
9
9
9
9
9
9
9
9
9
9
9
9
9
9
9
9
9
9
9
9
9
9
9
9
9
9
9
9
9
9
9
9
9
9
9
9
9
9
9
9
9
9
9
9
9
9
9
9
9
9
9
9
9
9
9
9
9
9
9
9
9
9
9
9
9
9
9
9
9
9
9
9
9
9
9
9
9
9
9
9
9
9
9
9
9
9
9
9
9
9
9
9
9
9
9
9
9
9
9
9
9
9
9
9
9
9
9
9
9
9
9
9
9
9
9
9
9
9
9
9
9
9
9
9
9
9
9
9
9
9
9
9
9
9
9
9
9
9
9
9
9
9
9
9
9
9
9
9
9
9
9
9
9
9
9
9
9
9
9
9
9
9
9
9
9
9
9
9
9
9
9
9
9
9
9
9
9
9
9
9
9
9
9
9
9
9
9
9
9
9
9
9
9
9
9
9
9
9
9
9
9
9
9
9
9
9
9
9
9
9
9
9
9
9
9
9
9
9
9
9
9
9
9
9
9
9
9
9
9
9
9
9
9
9
9
9
9
9
9
9
9
9
9
9
9
9
9
9
9
9
9
9
9
9
9
9
9
9
9
9
9
9
9
9
9
9
9
9
9
9
9
9
9
9
9
9
9
9
9
9
9
9
9
9
9
9
9
9
9
9
9
9
9
9
9
9
9
9
9
9
9
9
9
9
9
9
9
9
9
9
9
9
9
9
9
9
9
9
9
9
9
9
9
9
9
9
9
9
9
9
9
9
9
9
9
9
9
9
9
9
9
9
9
9
9
9
9
9
9
9
9
9
9
9
9
9
9
9
9
9
9
9
9
9
9
9
9
9
9
9
9
9
9
9
9
9
9
9
9
9
9
9
9
9
9
9
9
9
9
9
9
9
9
9
9
9
9
9
9
9
9
9
9
9
9
9
9
9
9
9
9
9
9
9
9
9
9
9
9
9
9
9
9
9
9
9
9
9
9
9
9
9
9
9
9
9
9
9
9
9
9
9
9
9
9
9
9
9
9
9
9
9
9
9
9
9
9
9
9
9
9
9
9
9
9
9
9
9
9
9
9
9
9
9
9
9
9
9
9
9
9
9
9
9
9
9
9
9
9
9
9
9
9
9
9
9
9
9
9
9
9
9
9
9
9
9
9
9
9
9
9
9
9
9
9
9
9
9
9
9
9
9
9
9
9
9
9
9
9
9
9
9
9
9
9
9
9
9
9
9
9
9
9
9
9
9
9
9
9
9
9
9
9
9
9
9
9
9
9
9
9
9
9
9
9
9
9
9
9
9
9
9
9
9
9
9
9
9
9
9
9
9
9
9
9
9
9
9
9
9
9
9
9
9
9
9
9
9
9
9
9
9
9
9
9
9
9
9
9
9
9
9
9
9
9
9
9
9
9
9
9
9
9
9
9
9
9
9
9
9
9
9
9
9
9
9
9
9
9
9
9
9
9
9
9
9
9
9
9
9
9
9
9
9
9
9
9
9
9
9
9
9
9
9
9
9
9
9
9
9
9
9
9
9
9
9
9
9
9
9
9
9
9
9
9
9
9
9
9
9
9
9
9
9
9
9
9
9
9
9
9
9
9
9
9
9
9
9
9
9
9
9
9
9
9
9
9
9
9
9
9
9
9
9
9
9
9
9
9
9
9
9
9
9
9
9
9
9
9
9
9
9
9
9
9
9
9
9
9
9
9
9
9
9
9
9
9
9
9
9
9
9
9
9
9
9
9
9
9
9
9
9
9
9
9
9
9
9
9
9
9
9
9
9
9
9
9
9
9
9
9
9
9
9
9
9
9
9
9
9
9
9
9
9
9
9
9
9
9
9
9
9
9
9
9
9
9
9
9
9
9
9
9
9
9
9
9
9
9
9
9
9
9
9
9
9
9
9
9
9
9
9
9
9
9
9
9
9
9
9
9
9
9
9
9
9
9
9
9
9
9
9
9
9
9
9
9
9
9
9
9
9
9
9
9
9
9
9
9
9
9
9
9
9
9
9
9
9
9
9
9
9
9
9
9
9
9
9
9
9
9
9
9
9
9
9
9
9
9
9
9
9
9
9
9
9
9
9
9
9
9
9
9
9
9
9
9
9
9
9
9
9
9
9
9
9
9
9
9
9
9
9
9
9
9
9
9
9
9
9
9
9
9
9
9
9
9
9
9
9
9
9
9
9
9
9
9
9
9
9
9
9
9
9
9
9
9
9
9
9
9
9
9
9
9
9
9
9
9
9
9
9
9
9
9
9
9
9
9
9
9
9
9
9
9
9
9
9
9
9
9
9
9
9
9
9
9
9
9
9
9
9
9
9
9
9
9
9
9
9
9
9
9
9
9
9
9
9
9
9
9
9
9
9
9
9
9
9
9
9
9
9
9
9
9
9
9
9
9
9
9
9
9
9
9
9
9
9
9
9
9
9
9
9
9
9
9
9
9
9
9
9
9
9
9
9
9
9
9
9
9
9
9
9
9
9
9
9
9
9
9
9
9
9
9
9
9
9
9
9
9
9
9
9
9
9
9
9
9
9
9
9
9
9
9
9
9
9
9
9
9
9
9
9
9
9
9
9
9
9
9
9
9
9
9
9
9
9
9
9
9
9
9
9
9
9
9
9
9
9
9
9
9
9
9
9
9
9
9
9
9
9
9
9
9
9
9
9
9
9
9
9
9
9
9
9
9
9
9
9
9
9
9
9
9
9
9
9
9
9
9
9
9
9
9
9
9
9
9
9
9
9
9
9
9
9
9
9
9
9
9
9
9
9
9
9
9
9
9
9
9
9
9
9
9
9
9
9
9
9
9
9
9
9
9
9
9
9
9
9
9
9
9
9
9
9
9
9
9
9
9
9
9
9
9
9
9
9
9
9
9
9
9
9
9
9
9
9
9
9
9
9
9
9
9
9
9
9
9
9
9
9
9
9
9
9
9
9
9
9
9
9
9
9
9
9
9
9
9
9
9
9
9
9
9
9
9
9
9
9
9
9
9
9
9
9
9
9
9
9
9
9
9
9
9
9
9
9
9
9
9
9
9
9
9
9
9
9
9
9
9
9
9
9
9
9
9
9
9
9
9
9
9
9
9
9
9
9
9
9
9
9
9
9
9
9
9
9
9
9
9
9
9
9
9
9
9
9
9
9
9
9
9
9
9
9
9
9
9
9
9
9
9
9
9
9
9
9
9
9
9
9
9
9
9
9
9
9
9
9
9
9
9
9
9
9
9
9
9
9
9
9
9
9
9
9
9
9
9
9
9
9
9
9
9
9
9
9
9
9
9
9
9
9
9
9
9
9
9
9
9
9
9
9
9
9
9
9
9
9
9
9
9
9
9
9
9
9
9
9
9
9
9
9
9
9
9
9
9
9
9
9
9
9
9
9
9
9
9
9
9
9
9
9
9
9
9
9
9
9
9
9
9
9
9
9
9
9
9
9
9
9
9
9
9
9
9
9
9
9
9
9
9
9
9
9
9
9
9
9
9
9
9
9
9
9
9
9
9
9
9
9
9
9
9
9
9
9
9
9
9
9
9
9
9
9
9
9
9
9
9
9
9
9
9
9
9
9
9
9
9
9
9
9
9
9
9
9
9
9
9
9
9
9
9
9
9
9
9
9
9
9
9
9
9
9
9
9
9
9
9
9
9
9
9
9
9
9
9
9
9
9
9
9
9
9
9
9
9
9
9
9
9
9
9
9
9
9
9
9
9
9
9
9
9
9
9
9
9
9
9
9
9
9
9
9
9
9
9
9
9
9
9
9
9
9
9
9
9
9
9
9
9
9
9
9
9
9
9
9
9
9
9
9
9
9
9
9
9
9
9
9
9
9
9
9
9
9
9
9
9
9
9
9
9
9
9
9
9
9
9
9
9
9
9
9
9
9
9
9
9
9
9
9
9
9
9
9
9
9
9
9
9
9
9
9
9
9
9
9
9
9
9
9
9
9
9
9
9
9
9
9
9
9
9
9
9
9
9
9
9
9
9
9
9
9
9
9
9
9
9
9
9
9
9
9
9
9
9
9
9
9
9
9
9
9
9
9
9
9
9
9
9
9
9
9
9
9
9
9
9
9
9
9
9
9
9
9
9
9
9
9
9
9
9
9
9
9
9
9
9
9
9
9
9
9
9
9
9
9
9
9
9
9
9
9
9
9
9
9
9
9
9
9
9
9
9
9
9
9
9
9
9
9
9
9
9
9
9
9
9
9
9
9
9
9
9
9
9
9
9
9
9
9
9
9
9
9
9
9
9
9
9
9
9
9
9
9
9
9
9
9
9
9
9
9
9
9
9
9
9
9
9
9
9
9
9
9
9
9
9
9
9
9
9
9
9
9
9
9
9
9
9
9
9
9
9
9
9
9
9
9
9
9
9
9
9
9
9
9
9
9
9
9
9
9
9
9
9
9
9
9
9
9
9
9
9
9
9
9
9
9
9
9
9
9
9
9
9
9
9
9
9
9
9
9
9
9
9
9
9
9
9
9
9
9
9
9
9
9
9
9
9
9
9
9
9
9
9
9
9
9
9
9
9
9
9
9
9
9
9
9
9
9
9
9
9
9
9
9
9
9
9
9
9
9
9
9
9
9
9
9
9
9
9
9
9
9
9
9
9
9
9
9
9
9
9
9
9
9
9
9
9
9
9
9
9
9
9
9
9
9
9
9
9
9
9
9
9
9
9
9
9
9
9
9
9
9
9
9
9
9
9
9
9
9
9
9
9
9
9
9
9
9
9
9
9
9
9
9
9
9
9
9
9
9
9
9
9
9
9
9
9
9
9
9
9
9
9
9
9
9
9
9
9
9
9
9
9
9
9
9
9
9
9
9
9
9
9
9
9
9
9
9
9
9
9
9
9
9
9
9
9
9
9
9
9
9
9
9
9
9
9
9
9
9
9
9
9
9
9
9
9
9
9
9
9
9
9
9
9
9
9
9
9
9
9
9
9
9
9
9
9
9
9
9
9
9
9
9
9
9
9
9
9
9
9
9
9
9
9
9
9
9
9
9
9
9
9
9
9
9
9
9
9
9
9
9
9
9
9
9
9
9
9
9
9
9
9
9
9
9
9
9
9
9
9
9
9
9
9
9
9
9
9
9
9
9
9
9
9
9
9
9
9
9
9
9
9
9
9
9
9
9
9
9
9
9
9
9
9
9
9
9
9
9
9
9
9
9
9
9
9
9
9
9
9
9
9
9
9
9
9
9
9
9
9
9
9
9
9
9
9
9
9
9
9
9
9
9
9
9
9
9
9
9
9
9
9
9
9
9
9
9
9
9
9
9
9
9
9
9
9
9
9
9
9
9
9
9
9
9
9
9
9
9
9
9
9
9
9
9
9
9
9
9
9
9
9
9
9
9
9
9
9
9
9
9
9
9
9
9
9
9
9
9
9
9
9
9
9
9
9
9
9
9
9
9
9
9
9
9
9
9
9
9
9
9
9
9
9
9
9
9
9
9
9
9
9
9
9
9
9
9
9
9
9
9
9
9
9
9
9
9
9
9
9
9
9
9
9
9
9
9
9
9
9
9
9
9
9
9
9
9
9
9
9
9
9
9
9
9
9
9
9
9
9
9
9
9
9
9
9
9
9
9
9
9
9
9
9
9
9
9
9
9
9
9
9
9
9
9
9
9
9
9
9
9
9
9
9
9
9
9
9
9
9
9
9
9
9
9
9
9
9
9
9
9
9
9
9
9
9
9
9
9
9
9
9
9
9
9
9
9
9
9
9
9
9
9
9
9
9
9
9
9
9
9
9
9
9
9
9
9
9
9
9
9
9
9
9
9
9
9
9
9
9
9
9
9
9
9
9
9
9
9
9
9
9
9
9
9
9
9
9
9
9
9
9
9
9
9
9
9
9
9
9
9
9
9
9
9
9
9
9
9
9
9
9
9
9
9
9
9
9
9
9
9
9
9
9
9
9
9
9
9
9
9
9
9
9
9
9
9
9
9
9
9
9
9
9
9
9
9
9
9
9
9
9
9
9
9
9
9
9
9
9
9
9
9
9
9
9
9
9
9
9
9
9
9
9
9
9
9
9
9
9
9
9
9
9
9
9
9
9
9
9
9
9
9
9
9
9
9
9
9
9
9
9
9
9
9
9
9
9
9
9
9
9
9
9
9
9
9
9
9
9
9
9
9
9
9
9
9
9
9
9
9
9
9
9
9
9
9
9
9
9
9
9
9
9
9
9
9
9
9
9
9
9
9
9
9
9
9
9
9
9
9
9
9
9
9
9
9
9
9
9
9
9
9
9
9
9
9
9
9
9
9
9
9
9
9
9
9
9
9
9
9
9
9
9
9
9
9
9
9
9
9
9
9
9
9
9
9
9
9
9
9
9
9
9
9
9
9
9
9
9
9
9
9
9
9
9
9
9
9
9
9
9
9
9
9
9
9
9
9
9
9
9
9
9
9
9
9
9
9
9
9
9
9
9
9
9
9
9
9
9
9
9
9
9
9
9
9
9
9
9
9
9
9
9
9
9
9
9
9
9
9
9
9
9
9
9
9
9
9
9
9
9
9
9
9
9
9
9
9
9
9
9
9
9
9
9
9
9
9
9
9
9
9
9
9
9
9
9
9
9
9
9
9
9
9
9
9
9
9
9
9
9
9
9
9
9
9
9
9
9
9
9
9
9
9
9
9
9
9
9
9
9
9
9
9
9
9
9
9
9
9
9
9
9
9
9
9
9
9
9
9
9
9
9
9
9
9
9
9
9
9
9
9
9
9
9
9
9
9
9
9
9
9
9
9
9
9
9
9
9
9
9
9
9
9
9
9
9
9
9
9
9
9
9
9
9
9
9
9
9
9
9
9
9
9
9
9
9
9
9
9
9
9
9
9
9
9
9
9
9
9
9
9
9
9
9
9
9
9
9
9
9
9
9
9
9
9
9
9
9
9
9
9
9
9
9
9
9
9
9
9
9
9
9
9
9
9
9
9
9
9
9
9
9
9
9
9
9
9
9
9
9
9
9
9
9
9
9
9
9
9
9
9
9
9
9
9
9
9
9
9
9
9
9
9
9
9
9
9
9
9
9
9
9
9
9
9
9
9
9
9
9
9
9
9
9
9
9
9
9
9
9
9
9
9
9
9
9
9
9
9
9
9
9
9
9
9
9
9
9
9
9
9
9
9
9
9
9
9
9
9
9
9
9
9
9
9
9
9
9
9
9
9
9
9
9
9
9
9
9
9
9
9
9
9
9
9
9
9
9
9
9
9
9
9
9
9
9
9
9
9
9
9
9
9
9
9
9
9
9
9
9
9
9
9
9
9
9
9
9
9
9
9
9
9
9
9
9
9
9
9
9
9
9
9
9
9
9
9
9
9
9
9
9
9
9
9
9
9
9
9
9
9
9
9
9
9
9
9
9
9
9
9
9
9
9
9
9
9
9
9
9
9
9
9
9
9
9
9
9
9
9
9
9
9
9
9
9
9
9
9
9
9
9
9
9
9
9
9
9
9
9
9
9
9
9
9
9
9
9
9
9
9
9
9
9
9
9
9
9
9
9
9
9
9
9
9
9
9
9
9
9
9
9
9
9
9
9
9
9
9
9
9
9
9
9
9
9
9
9
9
9
9
9
9
9
9
9
9
9
9
9
9
9
9
9
9
9
9
9
9
9
9
9
9
9
9
9
9
9
9
9
9
9
9
9
9
9
9
9
9
9
9
9
9
9
9
9
9
9
9
9
9
9
9
9
9
9
9
9
9
9
9
9
9
9
9
9
9
9
9
9
9
9
9
9
9
9
9
9
9
9
9
9
9
9
9
9
9
9
9
9
9
9
9
9
9
9
9
9
9
9
9
9
9
9
9
9
9
9
9
9
9
9
9
9
9
9
9
9
9
9
9
9
9
9
9
9
9
9
9
9
9
9
9
9
9
9
9
9
9
9
9
9
9
9
9
9
9
9
9
9
9
9
9
9
9
9
9
9
9
9
9
9
9
9
9
9
9
9
9
9
9
9
9
9
9
9
9
9
9
9
9
9
9
9
9
9
9
9
9
9
9
9
9
9
9
9
9
9
9
9
9
9
9
9
9
9
9
9
9
9
9
9
9
9
9
9
9
9
9
9
9
9
9
9
9
9
9
9
9
9
9
9
9
9
9
9
9
9
9
9
9
9
9
9
9
9
9
9
9
9
9
9
9
9
9
9
9
9
9
9
9
9
9
9
9
9
9
9
9
9
9
9
9
9
9
9
9
9
9
9
9
9
9
9
9
9
9
9
9
9
9
9
9
9
9
9
9
9
9
9
9
9
9
9
9
9
9
9
9
9
9
9
9
9
9
9
9
9
9
9
9
9
9
9
9
9
9
9
9
9
9
9
9
9
9
9
9
9
9
9
9
9
9
9
9
9
9
9
9
9
9
9
9
9
9
9
9
9
9
9
9
9
9
9
9
9
9
9
9
9
9
9
9
9
9
9
9
9
9
9
9
9
9
9
9
9
9
9
9
9
9
9
9
9
9
9
9
9
9
9
9
9
9
9
9
9
9
9
9
9
9
9
9
9
9
9
9
9
9
9
9
9
9
9
9
9
9
9
9
9
9
9
9
9
9
9
9
9
9
9
9
9
9
9
9
9
9
9
9
9
9
9
9
9
9
9
9
9
9
9
9
9
9
9
9
9
9
9
9
9
9
9
9
9
9
9
9
9
9
9
9
9
9
9
9
9
9
9
9
9
9
9
9
9
9
9
9
9
9
9
9
9
9
9
9
9
9
9
9
9
9
9
9
9
9
9
9
9
9
9
9
9
9
9
9
9
9
9
9
9
9
9
9
9
9
9
9
9
9
9
9
9
9
9
9
9
9
9
9
9
9
9
9
9
9
9
9
9
9
9
9
9
9
9
9
9
9
9
9
9
9
9
9
9
9
9
9
9
9
9
9
9
9
9
9
9
9
9
9
9
9
9
9
9
9
9
9
9
9
9
9
9
9
9
9
9
9
9
9
9
9
9
9
9
9
9
9
9
9
9
9
9
9
9
9
9
9
9
9
9
9
9
9
9
9
9
9
9
9
9
9
9
9
9
9
9
9
9
9
9
9
9
9
9
9
9
9
9
9
9
9
9
9
9
9
9
9
9
9
9
9
9
9
9
9
9
9
9
9
9
9
9
9
9
9
9
9
9
9
9
9
9
9
9
9
9
9
9
9
9
9
9
9
9
9
9
9
9
9
9
9
9
9
9
9
9
9
9
9
9
9
9
9
9
9
9
9
9
9
9
9
9
9
9
9
9
9
9
9
9
9
9
9
9
9
9
9
9
9
9
9
9
9
9
9
9
9
9
9
9
9
9
9
9
9
9
9
9
9
9
9
9
9
9
9
9
9
9
9
9
9
9
9
9
9
9
9
9
9
9
9
9
9
9
9
9
9
9
9
9
9
9
9
9
9
9
9
9
9
9
9
9
9
9
9
9
9
9
9
9
9
9
9
9
9
9
9
9
9
9
9
9
9
9
9
9
9
9
9
9
9
9
9
9
9
9
9
9
9
9
9
9
9
9
9
9
9
9
9
9
9
9
9
9
9
9
9
9
9
9
9
9
9
9
9
9
9
9
9
9
9
9
9
9
9
9
9
9
9
9
9
9
9
9
9
9
9
9
9
9
9
9
9
9
9
9
9
9
9
9
9
9
9
9
9
9
9
9
9
9
9
9
9
9
9
9
9
9
9
9
9
9
9
9
9
9
9
9
9
9
9
9
9
9
9
9
9
9
9
9
9
9
9
9
9
9
9
9
9
9
9
9
9
9
9
9
9
9
9
9
9
9
9
9
9
9
9
9
9
9
9
9
9
9
9
9
9
9
9
9
9
9
9
9
9
9
9
9
9
9
9
9
9
9
9
9
9
9
9
9
9
9
9
9
9
9
9
9
9
9
9
9
9
9
9
9
9
9
9
9
9
9
9
9
9
9
9
9
9
9
9
9
9
9
9
9
9
9
9
9
9
9
9
9
9
9
9
9
9
9
9
9
9
9
9
9
9
9
9
9
9
9
9
9
9
9
9
9
9
9
9
9
9
9
9
9
9
9
9
9
9
9
9
9
9
9
9
9
9
9
9
9
9
9
9
9
9
9
9
9
9
9
9
9
9
9
9
9
9
9
9
9
9
9
9
9
9
9
9
9
9
9
9
9
9
9
9
9
9
9
9
9
9
9
9
9
9
9
9
9
9
9
9
9
9
9
9
9
9
9
9
9
9
9
9
9
9
9
9
9
9
9
9
9
9
9
9
9
9
9
9
9
9
9
9
9
9
9
9
9
9
9
9
9
9
9
9
9
9
9
9
9
9
9
9
9
9
9
9
9
9
9
9
9
9
9
9
9
9
9
9
9
9
9
9
9
9
9
9
9
9
9
9
9
9
9
9
9
9
9
9
9
9
9
9
9
9
9
9
9
9
9
9
9
9
9
9
9
9
9
9
9
9
9
9
9
9
9
9
9
9
9
9
9
9
9
9
9
9
9
9
9
9
9
9
9
9
9
9
9
9
9
9
9
9
9
9
9
9
9
9
9
9
9
9
9
9
9
9
9
9
9
9
9
9
9
9
9
9
9
9
9
9
9
9
9
9
9
9
9
9
9
9
9
9
9
9
9
9
9
9
9
9
9
9
9
9
9
9
9
9
9
9
9
9
9
9
9
9
9
9
9
9
9
9
9
9
9
9
9
9
9
9
9
9
9
9
9
9
9
9
9
9
9
9
9
9
9
9
9
9
9
9
9
9
9
9
9
9
9
9
9
9
9
9
9
9
9
9
POINT_DATA      5151
SCALARS p double 
LOOKUP_TABLE default
   50000000.0000000     
   49935716.9996882     
   49871385.6379078     
   49806949.5200756     
   49742349.8820037     
   49677526.6204712     
   49612418.6323226     
   49546964.0874428     
   49481100.6261836     
   49414765.5195901     
   49347895.7929296     
   49280428.3210790     
   49212299.8997796     
   49143447.2980448     
   49073807.2958629     
   49003316.7110439     
   48931912.4183223     
   48859531.3633031     
   48786110.5732966     
   48711587.1666583     
   48635898.3618827     
   48558981.4874107     
   48480773.9928781     
   48401213.4623528     
   48320237.6299728     
   48237784.3982942     
   48153791.8595810     
   48068198.3202182     
   47980942.3283861     
   47891962.7051119     
   47801198.5787935     
   47708589.4232808     
   47614075.0995910     
   47517595.9013308     
   47419092.6038960     
   47318506.5175105     
   47215779.5441752     
   47110854.2385814     
   47003673.8730516     
   46894182.5065563     
   46782325.0578576     
   46668047.3828182     
   46551296.3559109     
   46432019.9559521     
   46310167.3560699     
   46185689.0179151     
   46058536.7900960     
   45928664.0108185     
   45796025.6146837     
   45660578.2435881     
   45522280.3616440     
   45381092.3740228     
   45236976.7495990     
   45089898.1472486     
   44939823.5456294     
   44786722.3762439     
   44630566.6595553     
   44471331.1438956     
   44308993.4468711     
   44143534.1989375     
   43974937.1887763     
   43803189.5100694     
   43628281.7092230     
   43450207.9335587     
   43268966.0794336     
   43084557.9397184     
   42896989.3500089     
   42706270.3329006     
   42512415.2396097     
   42315442.8881716     
   42115376.6974012     
   41912244.8157484     
   41706080.2441268     
   41496920.9517463     
   41284809.9839210     
   41069795.5607665     
   40851931.1656374     
   40631275.6220843     
   40407893.1580247     
   40181853.4557300     
   39953231.6861034     
   39722108.5255821     
   39488570.1538063     
   39252708.2299641     
   39014619.8454239     
   38774407.4498917     
   38532178.7478667     
   38288046.5616023     
   38042128.6560804     
   37794547.5207264     
   37545430.1016336     
   37294907.4772318     
   37043114.4691715     
   36790189.1802401     
   36536272.4494177     
   36281507.2186845     
   36026037.7972155     
   35770009.0313674     
   35513565.3044676     
   35256849.4179978     
   35000000.0000000     
   50000000.0000000     
   49935716.8484545     
   49871385.4496667     
   49806949.3107036     
   49742349.6679579     
   49677526.4094099     
   49612418.4298603     
   49546963.8966332     
   49481100.4488042     
   49414765.3563555     
   49347895.6439234     
   49280428.1859495     
   49212299.7779281     
   49143447.1887375     
   49073807.1983157     
   49003316.6244745     
   48931912.3419850     
   48859531.2965084     
   48786110.5154209     
   48711587.1171480     
   48635898.3202536     
   48558981.4532448     
   48480773.9658194     
   48401213.4421022     
   48320237.6162828     
   48237784.3909636     
   48153791.8584506     
   48068198.3251658     
   47980942.3393227     
   47891962.7219780     
   47801198.6015560     
   47708589.4519295     
   47614075.1341365     
   47517595.9418016     
   47419092.6503361     
   47318506.5699778     
   47215779.6027388     
   47110854.3033198     
   47003673.9440510     
   46894182.5839086     
   46782325.1416584     
   46668047.4731651     
   46551296.4529015     
   46432020.0596823     
   46310167.4666318     
   46185689.1353949     
   46058536.9145724     
   45928664.1423603     
   45796025.7533479     
   45660578.3894176     
   45522280.5146651     
   45381092.5342433     
   45236976.9170055     
   45089898.3218041     
   44939823.7272706     
   44786722.5648788     
   44630566.8550602     
   44471331.3461121     
   44308993.6556038     
   44143534.4139500     
   43974937.4097889     
   43803189.7367555     
   43628281.9412058     
   43450208.1704077     
   43268966.3206612     
   43084558.1847761     
   42896989.5982835     
   42706270.5837101     
   42512415.4921992     
   42315443.1417090     
   42115376.9509723     
   41912245.0683521     
   41706080.4946695     
   41496921.1990361     
   41284810.2266615     
   41069795.7975495     
   40851931.3949356     
   40631275.8422434     
   40407893.3672542     
   40181853.6520947     
   39953231.8675147     
   39722108.6897903     
   39488570.2983945     
   39252708.3523469     
   39014619.9428513     
   38774407.5194638     
   38532178.7865631     
   38288046.5663332     
   38042128.6237710     
   37794547.4484403     
   37545429.9867674     
   37294907.3177633     
   37043114.2640765     
   36790188.9298968     
   36536272.1565427     
   36281506.8886688     
   36026037.4409347     
   35770008.6634616     
   35513564.9584851     
   35256849.1228083     
   35000000.0000000     
   50000000.0000000     
   49935716.4191650     
   49871384.8963714     
   49806948.6941144     
   49742349.0346513     
   49677525.7843528     
   49612417.8296869     
   49546963.3309476     
   49481099.9229536     
   49414764.8725843     
   49347895.2024868     
   49280427.7858045     
   49212299.4172712     
   49143446.8653618     
   49073806.9098620     
   49003316.3685932     
   48931912.1164382     
   48859531.0992293     
   48786110.3445440     
   48711586.9710193     
   48635898.1974285     
   48558981.3524786     
   48480773.8860538     
   48401213.3824491     
   48320237.5760088     
   48237784.3694741     
   48153791.8552751     
   48068198.3399448     
   47980942.3717950     
   47891962.7719703     
   47801198.6689724     
   47708589.5367431     
   47614075.2363807     
   47517596.0615635     
   47419092.7877487     
   47318506.7252142     
   47215779.7760058     
   47110854.4948525     
   47003674.1541063     
   46894182.8127604     
   46782325.3895919     
   46668047.7404709     
   46551296.7398708     
   46432020.3666005     
   46310167.7937734     
   46185689.4830175     
   46058537.2829108     
   45928664.5316202     
   45796026.1636999     
   45660578.8209905     
   45522280.9675394     
   45381093.0084441     
   45236977.4124956     
   45089898.8384762     
   44939824.2649402     
   44786723.1232756     
   44630567.4338206     
   44471331.9447706     
   44308994.2735838     
   44143535.0505554     
   43974938.0641947     
   43803190.4079980     
   43628282.6281729     
   43450208.8718286     
   43268967.0350960     
   43084558.9106047     
   42896990.3336945     
   42706271.3266889     
   42512416.2405153     
   42315443.8929031     
   42115377.7023426     
   41912245.8169387     
   41706081.2372388     
   41496921.9320630     
   41284810.9463102     
   41069796.4996524     
   40851932.0749706     
   40631276.4953087     
   40407893.9880424     
   40181854.2348650     
   39953232.4060658     
   39722109.1774362     
   39488570.7279461     
   39252708.7161041     
   39014620.2326154     
   38774407.7265785     
   38532178.9020025     
   38288046.5808553     
   38042128.5281689     
   37794547.2339239     
   37545429.6455381     
   37294906.8438134     
   37043113.6543690     
   36790188.1858345     
   36536271.2863331     
   36281505.9095783     
   36026036.3851136     
   35770007.5796314     
   35513563.9408321     
   35256848.2885109     
   35000000.0000000     
   50000000.0000000     
   49935715.7547923     
   49871384.0021388     
   49806947.6925138     
   49742348.0001254     
   49677524.7615229     
   49612416.8464272     
   49546962.4039697     
   49481099.0613318     
   49414764.0802269     
   49347894.4798566     
   49280427.1311823     
   49212298.8276409     
   49143446.3370337     
   49073806.4388923     
   49003315.9510599     
   48931911.7486122     
   48859530.7776731     
   48786110.0661611     
   48711586.7330699     
   48635897.9975252     
   48558981.1885689     
   48480773.7563961     
   48401213.2855859     
   48320237.5107390     
   48237784.3348266     
   48153791.8504839     
   48068198.3644265     
   47980942.4251282     
   47891962.8538772     
   47801198.7793025     
   47708589.6754584     
   47614075.4035421     
   47517596.2573188     
   47419093.0123214     
   47318506.9788926     
   47215780.0591334     
   47110854.8078183     
   47003674.4973357     
   46894183.1867058     
   46782325.7947240     
   46668048.1772699     
   46551297.2088170     
   46432020.8681652     
   46310168.3284101     
   46185690.0511518     
   46058537.8849311     
   45928665.1678679     
   45796026.8344586     
   45660579.5264758     
   45522281.7078881     
   45381093.7837024     
   45236978.2226078     
   45089899.6832727     
   44939825.1441245     
   44786724.0364122     
   44630568.3803209     
   44471332.9238796     
   44308995.2843653     
   44143536.0918782     
   43974939.1347166     
   43803191.5061505     
   43628283.7521451     
   43450210.0195505     
   43268968.2042214     
   43084560.0984932     
   42896991.5373928     
   42706272.5429117     
   42512417.4656250     
   42315445.1228877     
   42115378.9327932     
   41912247.0430244     
   41706082.4536802     
   41496923.1331025     
   41284812.1256801     
   41069797.6505394     
   40851933.1899770     
   40631277.5664098     
   40407895.0065414     
   40181855.1913457     
   39953233.2903452     
   39722109.9785209     
   39488571.4339985     
   39252709.3144266     
   39014620.7096661     
   38774408.0680375     
   38532179.0929147     
   38288046.6058867     
   38042128.3720262     
   37794546.8820042     
   37545429.0848913     
   37294906.0645395     
   37043112.6515604     
   36790186.9622966     
   36536269.8561951     
   36281504.3033820     
   36026034.6568831     
   35770005.8178902     
   35513562.2953924     
   35256847.0048606     
   35000000.0000000     
   50000000.0000000     
   49935714.8882691     
   49871382.7923430     
   49806946.3269478     
   49742346.5828331     
   49677523.3572062     
   49612415.4950130     
   49546961.1295033     
   49481097.8768657     
   49414762.9914088     
   49347893.4874124     
   49280426.2327245     
   49212298.0189425     
   49143445.6129161     
   49073805.7938238     
   49003315.3795463     
   48931911.2454382     
   48859530.3380406     
   48786109.6857562     
   48711586.4080843     
   48635897.7246473     
   48558980.9649585     
   48480773.5796487     
   48401213.1536940     
   48320237.4220525     
   48237784.2880153     
   48153791.8445016     
   48068198.3984793     
   47980942.4986461     
   47891962.9664878     
   47801198.9308080     
   47708589.8658156     
   47614075.6328434     
   47517596.5257755     
   47419093.3202479     
   47318507.3266926     
   47215780.4472857     
   47110855.2368637     
   47003674.9678648     
   46894183.6993463     
   46782326.3501283     
   46668048.7761033     
   46551297.8517449     
   46432021.5558409     
   46310169.0614621     
   46185690.8301708     
   46058538.7104569     
   45928666.0403752     
   45796027.7543439     
   45660580.4940419     
   45522282.7233298     
   45381094.8470909     
   45236979.3338745     
   45089900.8421928     
   44939826.3503000     
   44786725.2892538     
   44630569.6790302     
   44471334.2674297     
   44308996.6714819     
   44143537.5210188     
   43974940.6040502     
   43803193.0135361     
   43628285.2951093     
   43450211.5952652     
   43268969.8094796     
   43084561.7296849     
   42896993.1904795     
   42706274.2133996     
   42512419.1485369     
   42315446.8127334     
   42115380.6235374     
   41912248.7280527     
   41706084.1257613     
   41496924.7843476     
   41284813.7474970     
   41069799.2335832     
   40851934.7240940     
   40631279.0405778     
   40407896.4088039     
   40181856.5087432     
   39953234.5088464     
   39722111.0829576     
   39488572.4080139     
   39252710.1404485     
   39014621.3689239     
   38774408.5406497     
   38532179.3580855     
   38288046.6422638     
   38042128.1582916     
   37794546.3977949     
   37545428.3121736     
   37294904.9896026     
   37043111.2678205     
   36790185.2742031     
   36536267.8844692     
   36281502.0924578     
   36026032.2847137     
   35770003.4139912     
   35513560.0696750     
   35256845.3396806     
   35000000.0000000     
   50000000.0000000     
   49935713.8453290     
   49871381.2917319     
   49806944.6179655     
   49742344.8011942     
   49677521.5878642     
   49612413.7905769     
   49546959.5215872     
   49481096.3826841     
   49414761.6184322     
   49347892.2366709     
   49280425.1011768     
   49212297.0011539     
   49143444.7022190     
   49073804.9831001     
   49003314.6617347     
   48931910.6138470     
   48859529.7865241     
   48786109.2088004     
   48711586.0008311     
   48635897.3828821     
   48558980.6850741     
   48480773.3585989     
   48401212.9889416     
   48320237.3115177     
   48237784.2300255     
   48153791.8377460     
   48068198.4419676     
   47980942.5916704     
   47891963.1085905     
   47801199.1217520     
   47708590.1055576     
   47614075.9215113     
   47517596.8636461     
   47419093.7077279     
   47318507.7643003     
   47215780.9356337     
   47110855.7766424     
   47003675.5598269     
   46894184.3442909     
   46782327.0488856     
   46668049.5295193     
   46551298.6606658     
   46432022.4210979     
   46310169.9838550     
   46185691.8104520     
   46058539.7493144     
   45928667.1384160     
   45796028.9120758     
   45660581.7118559     
   45522284.0014806     
   45381096.1856779     
   45236980.7328214     
   45089902.3012272     
   44939827.8689315     
   44786726.8667517     
   44630571.3144007     
   44471335.9593922     
   44308998.4184441     
   44143539.3210518     
   43974942.4548621     
   43803194.9124450     
   43628287.2390159     
   43450213.5806236     
   43268971.8322679     
   43084563.7853743     
   42896995.2740021     
   42706276.3191149     
   42512421.2701962     
   42315448.9434422     
   42115382.7557149     
   41912250.8533881     
   41706086.2351658     
   41496926.8679017     
   41284815.7943922     
   41069801.2320570     
   40851936.6613579     
   40631280.9027379     
   40407898.1807748     
   40181858.1741568     
   39953236.0499593     
   39722112.4805634     
   39488573.6413711     
   39252711.1872401     
   39014622.2052727     
   38774409.1412252     
   38532179.6963513     
   38288046.6909367     
   38042127.8901050     
   37794545.7866952     
   37545427.3351177     
   37294903.6291692     
   37043109.5159139     
   36790183.1371846     
   36536265.3901701     
   36281499.2998618     
   36026029.2973425     
   35770000.4029831     
   35513557.3103839     
   35256843.3451042     
   35000000.0000000     
   50000000.0000000     
   49935712.6465036     
   49871379.5235562     
   49806942.5857225     
   49742342.6734736     
   49677519.4700916     
   49612411.7484268     
   49546957.5944717     
   49481094.5921103     
   49414759.9737679     
   49347890.7392835     
   49280423.7473866     
   49212295.7843242     
   49143443.6141982     
   49073804.0151901     
   49003313.8053172     
   48931909.8607672     
   48859529.1293063     
   48786108.6407497     
   48711585.5160617     
   48635896.9762981     
   48558980.3523244     
   48480773.0960174     
   48401212.7934823     
   48320237.1806899     
   48237784.1618321     
   48153791.8306272     
   48068198.4947493     
   47980942.7035192     
   47891963.2789724     
   47801199.3503973     
   47708590.3924290     
   47614076.2667753     
   47517597.2676475     
   47419094.1709662     
   47318508.2874078     
   47215781.5193549     
   47110856.4218151     
   47003676.2673622     
   46894185.1151555     
   46782327.8840834     
   46668050.4300726     
   46551299.6275975     
   46432023.4554122     
   46310171.0865192     
   46185692.9823764     
   46058540.9913329     
   45928668.4512653     
   45796030.2963748     
   45660583.1680833     
   45522285.5299530     
   45381097.7865261     
   45236982.4059668     
   45089904.0463566     
   44939829.6854715     
   44786728.7538422     
   44630573.2708671     
   44471337.9837172     
   44309000.5087386     
   44143541.4750241     
   43974944.6697874     
   43803197.1851324     
   43628289.5657759     
   43450215.9572333     
   43268974.2539357     
   43084566.2467031     
   42896997.7689507     
   42706278.8409576     
   42512423.8114805     
   42315451.4959432     
   42115385.3103866     
   41912253.4003105     
   41706088.7634866     
   41496929.3657721     
   41284818.2488951     
   41069803.6291274     
   40851938.9856935     
   40631283.1377005     
   40407900.3082826     
   40181860.1745697     
   39953237.9019615     
   39722114.1610509     
   39488575.1253575     
   39252712.4477999     
   39014623.2135530     
   38774409.8665688     
   38532180.1065940     
   38288046.7529646     
   38042127.5707923     
   37794545.0543808     
   37545426.1618332     
   37294901.9938889     
   37043107.4091796     
   36790180.5675236     
   36536262.3929224     
   36281495.9492191     
   36026025.7234713     
   35769996.8194368     
   35513554.0613329     
   35256841.0619737     
   35000000.0000000     
   50000000.0000000     
   49935711.3085076     
   49871377.5092538     
   49806940.2498968     
   49742340.2177437     
   49677517.0205552     
   49612409.3840275     
   49546955.3625977     
   49481092.5186531     
   49414758.0700486     
   49347889.0070326     
   49280422.1823001     
   49212294.3785723     
   49143442.3581536     
   49073802.8985861     
   49003312.8179932     
   48931908.9931233     
   48859528.3725573     
   48786107.9870430     
   48711584.9585072     
   48635896.5089433     
   48558979.9700978     
   48480772.7946558     
   48401212.5694523     
   48320237.0311096     
   48237784.0843978     
   48153791.8235453     
   48068198.5566756     
   47980942.8335051     
   47891963.4764172     
   47801199.6150060     
   47708590.7241750     
   47614076.6658675     
   47517597.7345003     
   47419094.7061721     
   47318508.8917124     
   47215782.1936331     
   47110857.1670486     
   47003677.0846178     
   46894186.0055633     
   46782328.8488161     
   46668051.4703246     
   46551300.7445632     
   46432024.6502651     
   46310172.3603893     
   46185694.3363287     
   46058542.4263439     
   45928669.9681995     
   45796031.8959606     
   45660584.8508876     
   45522287.2963554     
   45381099.6366922     
   45236984.3398204     
   45089906.0635508     
   44939831.7853592     
   44786730.9354451     
   44630575.5328444     
   44471340.3243325     
   44309002.9258258     
   44143543.9659532     
   43974947.2314277     
   43803199.8138159     
   43628292.2572585     
   43450218.7066555     
   43268977.0557813     
   43084569.0947570     
   42897000.6562538     
   42706281.7597607     
   42512426.7531946     
   42315454.4510868     
   42115388.2685290     
   41912256.3500093     
   41706091.6922201     
   41496932.2598631     
   41284821.0934263     
   41069806.4078464     
   40851941.6809063     
   40631285.7301529     
   40407902.7770307     
   40181862.4968405     
   39953240.0530093     
   39722116.1140190     
   39488576.8511598     
   39252713.9150461     
   39014624.3885537     
   38774410.7134729     
   38532180.5877329     
   38288046.8295078     
   38042127.2038579     
   37794544.2067952     
   37545424.8007959     
   37294900.0948753     
   37043104.9615060     
   36790177.5820992     
   36536258.9129117     
   36281492.0645728     
   36026021.5916681     
   35769992.6972249     
   35513550.3626508     
   35256838.5228918     
   35000000.0000000     
   50000000.0000000     
   49935709.8452073     
   49871375.2684193     
   49806937.6295749     
   49742337.4518603     
   49677514.2559464     
   49612406.7129793     
   49546952.8405790     
   49481090.1759964     
   49414755.9200619     
   49347887.0518276     
   49280420.4169597     
   49212292.7940839     
   49143440.9434270     
   49073801.6418020     
   49003311.7074675     
   48931908.0178335     
   48859527.5224331     
   48786107.2530997     
   48711584.3328767     
   48635895.9848426     
   48558979.5417601     
   48480772.4572447     
   48401212.3189689     
   48320236.8643010     
   48237783.9986711     
   48153791.8168889     
   48068198.6275887     
   47980942.9809350     
   47891963.6997050     
   47801199.9138381     
   47708591.0985407     
   47614077.1160211     
   47517598.2609275     
   47419095.3095587     
   47318509.5729163     
   47215782.9536574     
   47110858.0070163     
   47003678.0057469     
   46894187.0091435     
   46782329.9361846     
   46668052.6428427     
   46551302.0035924     
   46432025.9971429     
   46310173.7964047     
   46185695.8626970     
   46058544.0441811     
   45928671.6784956     
   45796033.6995521     
   45660586.7484295     
   45522289.2882919     
   45381101.7232265     
   45236986.5208832     
   45089908.3387683     
   44939834.1540193     
   44786733.3964634     
   44630578.0847275     
   44471342.9651417     
   44309005.6531389     
   44143546.7768250     
   43974950.1223493     
   43803202.7806731     
   43628295.2952885     
   43450221.8104020     
   43268980.2190487     
   43084572.3105618     
   42897003.9167749     
   42706285.0562864     
   42512430.0760666     
   42315457.7896404     
   42115391.6110284     
   41912259.6835773     
   41706095.0027592     
   41496935.5319691     
   41284824.3102901     
   41069809.5511437     
   40851944.7306743     
   40631288.6646511     
   40407905.5725888     
   40181865.1276937     
   39953242.4911284     
   39722118.3289439     
   39488578.8098552     
   39252715.5818074     
   39014625.7250030     
   38774411.6787082     
   38532181.1387170     
   38288046.9218196     
   38042126.7929756     
   37794543.2501387     
   37545423.2608332     
   37294897.9436859     
   37043102.1873028     
   36790174.1983408     
   36536254.9708278     
   36281487.6702610     
   36026016.9302951     
   35769988.0692274     
   35513546.2506554     
   35256835.7543466     
   35000000.0000000     
   50000000.0000000     
   49935708.2683053     
   49871372.8189112     
   49806934.7431628     
   49742334.3934354     
   49677511.1929455     
   49612403.7509952     
   49546950.0431869     
   49481087.5779888     
   49414753.5367435     
   49347884.8856994     
   49280418.4624997     
   49212291.0411086     
   49143439.3793998     
   49073800.2533702     
   49003310.4814480     
   48931906.9418073     
   48859526.5850727     
   48786106.4443170     
   48711583.6438547     
   48635895.4079952     
   48558979.0706522     
   48480772.0864911     
   48401212.0441282     
   48320236.6817696     
   48237783.9055851     
   48153791.8110340     
   48068198.7073204     
   47980943.1451078     
   47891963.9476105     
   47801200.2451507     
   47708591.5132702     
   47614077.6144703     
   47517598.8436545     
   47419095.9773429     
   47318510.3267264     
   47215783.7946223     
   47110858.9363969     
   47003679.0249091     
   46894188.1195319     
   46782331.1392961     
   46668053.9402005     
   46551303.3967199     
   46432027.4875370     
   46310175.3855085     
   46185697.5518725     
   46058545.8346802     
   45928673.5714311     
   45796035.6958673     
   45660588.8488671     
   45522291.4933616     
   45381104.0331717     
   45236988.9356462     
   45089910.8579550     
   44939836.7768616     
   44786736.1217812     
   44630580.9108893     
   44471345.8900233     
   44309008.6740817     
   44143549.8905921     
   43974953.3250807     
   43803206.0678396     
   43628298.6616436     
   43450225.2499328     
   43268983.7249243     
   43084575.8750806     
   42897007.5313086     
   42706288.7112216     
   42512433.7607426     
   42315461.4922826     
   42115395.3186763     
   41912263.3820050     
   41706098.6763877     
   41496939.1637681     
   41284827.8816672     
   41069813.0418193     
   40851948.1185398     
   40631291.9256107     
   40407908.6803834     
   40181868.0537111     
   39953245.2042046     
   39722120.7951689     
   39488580.9924015     
   39252717.4408133     
   39014627.2175589     
   38774412.7590143     
   38532181.7585147     
   38288047.0312363     
   38042126.3419775     
   37794542.1908564     
   37545421.5511091     
   37294895.5523024     
   37043099.1014716     
   36790170.4341882     
   36536250.5878048     
   36281482.7908241     
   36026011.7674335     
   35769982.9670973     
   35513541.7580511     
   35256832.7782106     
   35000000.0000000     
   50000000.0000000     
   49935706.5878346     
   49871370.1770163     
   49806931.6083382     
   49742331.0598113     
   49677507.8481964     
   49612400.5138806     
   49546946.9853375     
   49481084.7386330     
   49414750.9331702     
   49347882.5207950     
   49280416.3301424     
   49212289.1299567     
   49143437.6754887     
   49073798.7418393     
   49003309.1476425     
   48931905.7719422     
   48859525.5665952     
   48786105.5660675     
   48711582.8960981     
   48635894.7823725     
   48558978.5600876     
   48480771.6850768     
   48401211.7470031     
   48320236.4850005     
   48237783.8060551     
   48153791.8063421     
   48068198.7956913     
   47980943.3253138     
   47891964.2189021     
   47801200.6071970     
   47708591.9661057     
   47614078.1584489     
   47517599.4794083     
   47419096.7057441     
   47318511.1488532     
   47215784.7117270     
   47110859.9498749     
   47003680.1362700     
   46894189.3303704     
   46782332.4512636     
   46668055.3549773     
   46551304.9159860     
   46432029.1129435     
   46310177.1186481     
   46185699.3942492     
   46058547.7876783     
   45928675.6362836     
   45796037.8736224     
   45660591.1403548     
   45522293.8991579     
   45381106.5535627     
   45236991.5705903     
   45089913.6070436     
   44939839.6392792     
   44786739.0962634     
   44630583.9956797     
   44471349.0828289     
   44309011.9720272     
   44143553.2901721     
   43974956.8221110     
   43803209.6574066     
   43628302.3380523     
   43450229.0066528     
   43268987.5545342     
   43084579.7692097     
   42897011.4805765     
   42706292.7051739     
   42512437.7877827     
   42315465.5395993     
   42115399.3721634     
   41912267.4261748     
   41706102.6942735     
   41496943.1368147     
   41284831.7896078     
   41069816.8625352     
   40851951.8279015     
   40631295.4972987     
   40407912.0856894     
   40181871.2613213     
   39953248.1799735     
   39722123.5018947     
   39488583.3896265     
   39252719.4846838     
   39014628.8607983     
   38774413.9510887     
   38532182.4461030     
   38288047.1591653     
   38042125.8548423     
   37794541.0356243     
   37545419.6811075     
   37294892.9331102     
   37043095.7193783     
   36790166.3080540     
   36536245.7853670     
   36281477.4509353     
   36026006.1308060     
   35769977.4211199     
   35513536.9142650     
   35256829.6128180     
   35000000.0000000     
   50000000.0000000     
   49935704.8125213     
   49871367.3576312     
   49806928.2420378     
   49742327.4680392     
   49677504.2382876     
   49612397.0175160     
   49546943.6820782     
   49481081.6720768     
   49414748.1225522     
   49347879.9693718     
   49280414.0311929     
   49212287.0709942     
   49143435.8411431     
   49073797.1157696     
   49003307.7137552     
   48931904.5151209     
   48859524.4730970     
   48786104.6236961     
   48711582.0942340     
   48635894.1119153     
   48558978.0133502     
   48480771.2556555     
   48401211.4296415     
   48320236.2754565     
   48237783.7009773     
   48153791.8031582     
   48068198.8925088     
   47980943.5208331     
   47891964.5123410     
   47801200.9982252     
   47708592.4547868     
   47614078.7451906     
   47517600.1649167     
   47419097.4909843     
   47318512.0350111     
   47215785.7001753     
   47110861.0421400     
   47003681.3340006     
   46894190.6353065     
   46782333.8652064     
   46668056.8797581     
   46551306.5534361     
   46432030.8648631     
   46310178.9867743     
   46185701.3802237     
   46058549.8930141     
   45928677.8623306     
   45796040.2215319     
   45660593.6110431     
   45522296.4932683     
   45381109.2714260     
   45236994.4121849     
   45089916.5719528     
   44939842.7266482     
   44786742.3047541     
   44630587.3234242     
   44471352.5273819     
   44309015.5303160     
   44143556.9584457     
   43974960.5958875     
   43803213.5314185     
   43628306.3061906     
   43450233.0619092     
   43268991.6889406     
   43084583.9737757     
   42897015.7452238     
   42706297.0186673     
   42512442.1376565     
   42315469.9120776     
   42115403.7520746     
   41912271.7968554     
   41706107.0374624     
   41496947.4325333     
   41284836.0160241     
   41069820.9958084     
   40851955.8420061     
   40631299.3638248     
   40407915.7736204     
   40181874.7367913     
   39953251.4060111     
   39722126.4381690     
   39488585.9922175     
   39252721.7059176     
   39014630.6492059     
   38774415.2515753     
   38532183.2004553     
   38288047.3070730     
   38042125.3356807     
   37794539.7913337     
   37545417.6606143     
   37294890.0988765     
   37043092.0568248     
   36790161.8387892     
   36536240.5853805     
   36281471.6753464     
   36026000.0477114     
   35769971.4601593     
   35513531.7458271     
   35256826.2737512     
   35000000.0000000     
   50000000.0000000     
   49935702.9500559     
   49871364.3744395     
   49806924.6604750     
   49742323.6348659     
   49677500.3797390     
   49612393.2778437     
   49546940.1485776     
   49481078.3926037     
   49414745.1182262     
   49347877.2437914     
   49280411.5770343     
   49212284.8746385     
   49143433.8858397     
   49073795.3837300     
   49003306.1874834     
   48931903.1782077     
   48859523.3106482     
   48786103.6225168     
   48711581.2428562     
   48635893.4005311     
   48558977.4336918     
   48480770.8008511     
   48401211.0940636     
   48320236.0545762     
   48237783.5912271     
   48153791.8018103     
   48068198.9975661     
   47980943.7309346     
   47891964.8266800     
   47801201.4164777     
   47708592.9770496     
   47614079.3719269     
   47517600.8969082     
   47419098.3292874     
   47318512.9809175     
   47215786.7551750     
   47110862.2078866     
   47003682.6122773     
   46894192.0279937     
   46782335.3742490     
   46668058.5071333     
   46551308.3011209     
   46432032.7348009     
   46310180.9808416     
   46185703.5001951     
   46058552.1405272     
   45928680.2388490     
   45796042.7283080     
   45660596.2490785     
   45522299.2632736     
   45381112.1737792     
   45236997.4468879     
   45089919.7385866     
   44939846.0243266     
   44786745.7320758     
   44630590.8784233     
   44471356.2074762     
   44309019.3322548     
   44143560.8782551     
   43974964.6288138     
   43803217.6718707     
   43628310.5476805     
   43450237.3969890     
   43268996.1091392     
   43084588.4695316     
   42897020.3058155     
   42706301.6321386     
   42512446.7907382     
   42315474.5901023     
   42115408.4388834     
   41912276.4746956     
   41706111.6868724     
   41496952.0322121     
   41284840.5426833     
   41069825.4240027     
   40851960.1439399     
   40631303.5091323     
   40407919.7291198     
   40181878.4662156     
   39953254.8697230     
   39722129.5928753     
   39488588.7907098     
   39252724.0968811     
   39014632.5771615     
   38774416.6570515     
   38532184.0205280     
   38288047.4764699     
   38042124.7887212     
   37794538.4650751     
   37545415.4996990     
   37294887.0627286     
   37043088.1300237     
   36790157.0456510     
   36536235.0100137     
   36281465.4888464     
   36025993.5449790     
   35769965.1116735     
   35513526.2767473     
   35256822.7744270     
   35000000.0000000     
   50000000.0000000     
   49935701.0073000     
   49871361.2400776     
   49806920.8791771     
   49742319.5767308     
   49677496.2889936     
   49612389.3108569     
   49546936.4001153     
   49481074.9146244     
   49414741.9336472     
   49347874.3565129     
   49280408.9791209     
   49212282.5513531     
   49143431.8190783     
   49073793.5542929     
   49003304.5765128     
   48931901.7680447     
   48859522.0852897     
   48786102.5678100     
   48711580.3465231     
   48635892.6520915     
   48558976.8243297     
   48480770.3232549     
   48401210.7422607     
   48320235.8237721     
   48237783.4776574     
   48153791.8026070     
   48068199.1106406     
   47980943.9548749     
   47891965.1606625     
   47801201.8601904     
   47708593.5306259     
   47614080.0358879     
   47517601.6721108     
   47419099.2168786     
   47318513.9822926     
   47215787.8719380     
   47110863.4418139     
   47003683.9652819     
   46894193.5020908     
   46782336.9715218     
   46668060.2296989     
   46551310.1510959     
   46432034.7142664     
   46310183.0918079     
   46185705.7445648     
   46058554.5200582     
   45928682.7551154     
   45796045.3826603     
   45660599.0426027     
   45522302.1967478     
   45381115.2476301     
   45237000.6611446     
   45089923.0928331     
   44939849.5176534     
   44786749.3630285     
   44630594.6449502     
   44471360.1068747     
   44309023.3611148     
   44143565.0324018     
   43974968.9032481     
   43803222.0607078     
   43628315.0440865     
   43450241.9931157     
   43269000.7960557     
   43084593.2371542     
   42897025.1428326     
   42706306.5259329     
   42512451.7273028     
   42315479.5539498     
   42115413.4129471     
   41912281.4402193     
   41706116.6232869     
   41496956.9169955     
   41284845.3512003     
   41069830.1293214     
   40851964.7166210     
   40631307.9169897     
   40407923.9369512     
   40181882.4355070     
   39953258.5583339     
   39722132.9547222     
   39488591.7754752     
   39252726.6497956     
   39014634.6389274     
   38774418.1640143     
   38532184.9052459     
   38288047.6688956     
   38042124.2182927     
   37794537.0641199     
   37545413.2086949     
   37294883.8381320     
   37043083.9555735     
   36790151.9482746     
   36536229.0817059     
   36281458.9162315     
   36025986.6489452     
   35769958.4017805     
   35513520.5288672     
   35256819.1265418     
   35000000.0000000     
   50000000.0000000     
   49935698.9904466     
   49871357.9662843     
   49806916.9130378     
   49742315.3097722     
   49677491.9824138     
   49612385.1325932     
   49546932.4520743     
   49481071.2526697     
   49414738.5823820     
   49347871.3200860     
   49280406.2489729     
   49212280.1116417     
   49143429.6503766     
   49073791.6360296     
   49003302.8885141     
   48931900.2914476     
   48859520.8030287     
   48786101.4648182     
   48711579.4097536     
   48635891.8704292     
   48558976.1884435     
   48480769.8254236     
   48401210.3761921     
   48320235.5844289     
   48237783.3610966     
   48153791.8058367     
   48068199.2314929     
   47980944.1918970     
   47891965.5130212     
   47801202.3275914     
   47708594.1132429     
   47614080.7343008     
   47517602.4872520     
   47419100.1499844     
   47318515.0348588     
   47215789.0456795     
   47110864.7386252     
   47003685.3872009     
   46894195.0512618     
   46782338.6501604     
   46668062.0400558     
   46551312.0954214     
   46432036.7947731     
   46310185.3106342     
   46185708.1037364     
   46058557.0214484     
   45928685.4004052     
   45796048.1732958     
   45660601.9797524     
   45522305.2812575     
   45381118.4799765     
   45237004.0413872     
   45089926.6205645     
   44939853.1919478     
   44786753.1823882     
   44630598.6072508     
   44471364.2093080     
   44309027.6001302     
   44143569.4036455     
   43974973.4015011     
   43803226.6798208     
   43628319.7769142     
   43450246.8314471     
   43269005.7305435     
   43084598.2572399     
   42897030.2366686     
   42706311.6802999     
   42512456.9275212     
   42315484.7837841     
   42115418.6545011     
   41912286.6738190     
   41706121.8273490     
   41496962.0678780     
   41284850.4230307     
   41069835.0937991     
   40851969.5427905     
   40631312.5709813     
   40407928.3816888     
   40181886.6303860     
   39953262.4588769     
   39722136.5122312     
   39488594.9367092     
   39252729.3567239     
   39014636.8286339     
   38774419.7688655     
   38532185.8534865     
   38288047.8859022     
   38042123.6288071     
   37794535.5959011     
   37545410.7981783     
   37294880.4388683     
   37043079.5504347     
   36790146.5666483     
   36536222.8231431     
   36281451.9822873     
   36025979.3854539     
   35769951.3553572     
   35513514.5221795     
   35256815.3404148     
   35000000.0000000     
   50000000.0000000     
   49935696.9051470     
   49871354.5640343     
   49806912.7763767     
   49742310.8498424     
   49677487.4762837     
   49612380.7591304     
   49546928.3199342     
   49481067.4213822     
   49414735.0781011     
   49347868.1471441     
   49280403.3981688     
   49212277.5660416     
   49143427.3892637     
   49073789.6375052     
   49003301.1311367     
   48931898.7552017     
   48859519.4698353     
   48786100.3187434     
   48711578.4370245     
   48635891.0593350     
   48558975.5291733     
   48480769.3098771     
   48401209.9977839     
   48320235.3379012     
   48237783.2423475     
   48153791.8117653     
   48068199.3598653     
   47980944.4412289     
   47891965.8824778     
   47801202.8169007     
   47708594.7226216     
   47614081.4643893     
   47517603.3390580     
   47419101.1248316     
   47318516.1343410     
   47215790.2716179     
   47110866.0930284     
   47003686.8722257     
   46894196.6691760     
   46782340.4033057     
   46668063.9308103     
   46551314.1261622     
   46432038.9678387     
   46310187.6282850     
   46185710.5681153     
   46058559.6345398     
   45928688.1639925     
   45796051.0889182     
   45660605.0486589     
   45522308.5043613     
   45381121.8578055     
   45237007.5740342     
   45089930.3076357     
   44939857.0325080     
   44786757.1749063     
   44630602.7495417     
   44471368.4984731     
   44309032.0324964     
   44143573.9747020     
   43974978.1058338     
   43803231.5110455     
   43628324.7276069     
   43450251.8930725     
   43269010.8933800     
   43084603.5103022     
   42897035.5676259     
   42706317.0753896     
   42512462.3714561     
   42315490.2596520     
   42115424.1436542     
   41912292.1557508     
   41706127.2795553     
   41496967.4656976     
   41284855.7394633     
   41069840.2992943     
   40851974.6050045     
   40631317.4544988     
   40407933.0477081     
   40181891.0363704     
   39953266.5581822     
   39722140.2537253     
   39488598.2644188     
   39252732.2095574     
   39014639.1402653     
   38774421.4678964     
   38532186.8640633     
   38288048.1290358     
   38042123.0247399     
   37794534.0679933     
   37545408.2789474     
   37294876.8790126     
   37043074.9319074     
   36790140.9210925     
   36536216.2572411     
   36281444.7117825     
   36025971.7798784     
   35769943.9961609     
   35513508.2751147     
   35256811.4252588     
   35000000.0000000     
   50000000.0000000     
   49935694.7566123     
   49871351.0436581     
   49806908.4830054     
   49742306.2125315     
   49677482.7868149     
   49612376.2065856     
   49546924.0192667     
   49481063.4355104     
   49414731.4345716     
   49347864.8503963     
   49280400.4383386     
   49212274.9251177     
   49143425.0452748     
   49073787.5672725     
   49003299.3120048     
   48931897.1660566     
   48859518.0916379     
   48786099.1347425     
   48711577.4327669     
   48635890.2225552     
   48558974.8496166     
   48480768.7790955     
   48401209.6089261     
   48320235.0855123     
   48237783.1221850     
   48153791.8206357     
   48068199.4954805     
   47980944.7020832     
   47891966.2677414     
   47801203.3263289     
   47708595.3564769     
   47614082.2233736     
   47517604.2242532     
   47419102.1376471     
   47318517.2764653     
   47215791.5449748     
   47110867.4997349     
   47003688.4145523     
   46894198.3495079     
   46782342.2241039     
   46668065.8945737     
   46551316.2353883     
   46432041.2249848     
   46310190.0357275     
   46185713.1281088     
   46058562.3491745     
   45928691.0351503     
   45796054.1182276     
   45660608.2374482     
   45522311.8536097     
   45381125.3680931     
   45237011.2454900     
   45089934.1398836     
   44939861.0246111     
   44786761.3253088     
   44630607.0560096     
   44471372.9580322     
   44309036.6413691     
   44143578.7282414     
   43974982.9984560     
   43803236.5361599     
   43628329.8775442     
   43450257.1590099     
   43269016.2652641     
   43084608.9767680     
   42897041.1159122     
   42706322.6912488     
   42512468.0390578     
   42315495.9614781     
   42115429.8603832     
   41912297.8661288     
   41706132.9602495     
   41496973.0911290     
   41284861.2816135     
   41069845.7274817     
   40851979.8856257     
   40631322.5507319     
   40407937.9191755     
   40181895.6387650     
   39953270.8428655     
   39722144.1673166     
   39488601.7484083     
   39252735.2000010     
   39014641.5676438     
   38774423.2572704     
   38532187.9357074     
   38288048.3998174     
   38042122.4106096     
   37794532.4880908     
   37545405.6619993     
   37294873.1729115     
   37043070.1176106     
   36790135.0322414     
   36536209.4071354     
   36281437.1294738     
   36025963.8571626     
   35769936.3469639     
   35513501.8047954     
   35256807.3893967     
   35000000.0000000     
   50000000.0000000     
   49935692.5496970     
   49871347.4149475     
   49806904.0462947     
   49742301.4131963     
   49677477.9301573     
   49612371.4911168     
   49546919.5657318     
   49481059.3099023     
   49414727.6656496     
   49347861.4426205     
   49280397.3811562     
   49212272.1994545     
   49143422.6279435     
   49073785.4338662     
   49003297.4387112     
   48931895.5307220     
   48859516.6743191     
   48786097.9179237     
   48711576.4013627     
   48635889.3637880     
   48558974.1528256     
   48480768.2355173     
   48401209.2114712     
   48320234.8285517     
   48237783.0013552     
   48153791.8326656     
   48068199.6380407     
   47980944.9736554     
   47891966.6675078     
   47801203.8540766     
   47708596.0125166     
   47614083.0084692     
   47517605.1395602     
   47419103.1846578     
   47318518.4569597     
   47215792.8609743     
   47110868.9534600     
   47003690.0083813     
   46894200.0859365     
   46782344.1057061     
   46668067.9239618     
   46551318.4151736     
   46432043.5577366     
   46310192.5239318     
   46185715.7741258     
   46058565.1551949     
   45928694.0031499     
   45796057.2499209     
   45660611.5342398     
   45522315.3165443     
   45381128.9978037     
   45237015.0421439     
   45089938.1031270     
   44939865.1535113     
   44786765.6182946     
   44630611.5108096     
   44471377.5716113     
   44309041.4098625     
   44143583.6468869     
   43974988.0615244     
   43803241.7368826     
   43628335.2080388     
   43450262.6102036     
   43269021.8268131     
   43084614.6369747     
   42897046.8616369     
   42706328.5078169     
   42512473.9101597     
   42315501.8690603     
   42115435.7845279     
   41912303.7849192     
   41706138.8496169     
   41496978.9246773     
   41284867.0304156     
   41069851.3598442     
   40851985.3668150     
   40631327.8426591     
   40407942.9800389     
   40181900.4226506     
   39953275.2993171     
   39722148.2408933     
   39488605.3782669     
   39252738.3195583     
   39014644.1044136     
   38774425.1330061     
   38532189.0670492     
   38288048.6997227     
   38042121.7909561     
   37794530.8639849     
   37545402.9585077     
   37294869.3351606     
   37043065.1254619     
   36790128.9210295     
   36536202.2961781     
   36281429.2601219     
   36025955.6418773     
   35769928.4296944     
   35513495.1272644     
   35256803.2404377     
   35000000.0000000     
   50000000.0000000     
   49935690.2889679     
   49871343.6872516     
   49806899.4792438     
   49742296.4669964     
   49677472.9224148     
   49612366.6289275     
   49546914.9750764     
   49481055.0595000     
   49414723.7852735     
   49347857.9366542     
   49280394.2383309     
   49212269.3996485     
   49143420.1467952     
   49073783.2457959     
   49003295.5188117     
   48931893.8558617     
   48859515.2237109     
   48786096.6733426     
   48711575.3471410     
   48635888.4866806     
   48558973.4418042     
   48480767.6815367     
   48401208.8072316     
   48320234.5682733     
   48237782.8805730     
   48153791.8480465     
   48068199.7872257     
   47980945.2551234     
   47891967.0804588     
   47801204.3983337     
   47708596.6884409     
   47614083.8168866     
   47517606.0816985     
   47419104.2620900     
   47318519.6715528     
   47215794.2148431     
   47110870.4489228     
   47003691.6479174     
   46894201.8721458     
   46782346.0412683     
   46668070.0115958     
   46551320.6575969     
   46432045.9576234     
   46310195.0838709     
   46185718.4965769     
   46058568.0424434     
   45928697.0572608     
   45796060.4726908     
   45660614.9271471     
   45522318.8806978     
   45381132.7338894     
   45237018.9503698     
   45089942.1831653     
   44939869.4044400     
   44786770.0385353     
   44630616.0980649     
   44471382.3227989     
   44309046.3210475     
   44143588.7132129     
   43974993.2771404     
   43803247.0948702     
   43628340.7003348     
   43450268.2275214     
   43269027.5585601     
   43084620.4711667     
   42897052.7848077     
   42706334.5049224     
   42512479.9644744     
   42315507.9620654     
   42115441.8957861     
   41912309.8919351     
   41706144.9276783     
   41496984.9466711     
   41284872.9666162     
   41069857.1776654     
   40851991.0305226     
   40631333.3130390     
   40407948.2140178     
   40181905.3728736     
   39953279.9136891     
   39722152.4621073     
   39488609.1433529     
   39252741.5595164     
   39014646.7440239     
   38774427.0909581     
   38532190.2565974     
   38288049.0301602     
   38042121.1703177     
   37794529.2035400     
   37545400.1797983     
   37294865.3805816     
   37043059.9736589     
   36790122.6086797     
   36536194.9479404     
   36281421.1285174     
   36025947.1582910     
   35769920.2655822     
   35513488.2576888     
   35256798.9854248     
   35000000.0000000     
   50000000.0000000     
   49935687.9787635     
   49871339.8695625     
   49806894.7945480     
   49742291.3889331     
   49677467.7796639     
   49612361.6362730     
   49546910.2631328     
   49481050.6993343     
   49414719.8074556     
   49347854.3453872     
   49280391.0215993     
   49212266.5363004     
   49143417.6113396     
   49073781.0115399     
   49003293.5598186     
   48931892.1480884     
   48859513.7455898     
   48786095.4059973     
   48711574.2743745     
   48635887.5948260     
   48558972.7195056     
   48480767.1195009     
   48401208.3979775     
   48320234.3058941     
   48237782.7605211     
   48153791.8669424     
   48068199.9426926     
   47980945.5456456     
   47891967.5052612     
   47801204.9572787     
   47708597.3819414     
   47614084.6458311     
   47517607.0473851     
   47419105.3661688     
   47318520.9159746     
   47215795.6018103     
   47110871.9808453     
   47003693.3273696     
   46894203.7018246     
   46782348.0239515     
   46668072.1501015     
   46551322.9547412     
   46432048.4161783     
   46310197.7065208     
   46185721.2858742     
   46058571.0007624     
   45928700.1867507     
   45796063.7752259     
   45660618.4042769     
   45522322.5335936     
   45381136.5632902     
   45237022.9565254     
   45089946.3657783     
   44939873.7626043     
   44786774.5706740     
   44630620.8018651     
   44471387.1951448     
   44309051.3579514     
   44143593.9097431     
   43974998.6273489     
   43803252.5917157     
   43628346.3356053     
   43450273.9917523     
   43269033.4409510     
   43084626.4594926     
   42897058.8653271     
   42706340.6622786     
   42512486.1815893     
   42315514.2200241     
   42115448.1737084     
   41912316.1668312     
   41706151.1742836     
   41496991.1372567     
   41284879.0707669     
   41069863.1620219     
   40851996.8584807     
   40631338.9444006     
   40407953.6045929     
   40181910.4740341     
   39953284.6718840     
   39722156.8183603     
   39488613.0327804     
   39252744.9109294     
   39014649.4797109     
   38774429.1267983     
   38532191.5027185     
   38288049.3924482     
   38042120.5532066     
   37794527.5146683     
   37545397.3373241     
   37294861.3241999     
   37043054.6806613     
   36790116.1166959     
   36536187.3862203     
   36281412.7595163     
   36025938.4304499     
   35769911.8753043     
   35513481.2105447     
   35256794.6309593     
   35000000.0000000     
   50000000.0000000     
   49935685.6232447     
   49871335.9705940     
   49806890.0046676     
   49742286.1938923     
   49677462.5179756     
   49612356.5294697     
   49546905.4458195     
   49481046.2445202     
   49414715.7462754     
   49347850.6817519     
   49280387.7427162     
   49212263.6200061     
   49143415.0310620     
   49073778.7395370     
   49003291.5691944     
   48931890.4139582     
   48859512.2456716     
   48786094.1208251     
   48711573.1872755     
   48635886.6917594     
   48558971.9888292     
   48480766.5517083     
   48401207.9854349     
   48320234.0425918     
   48237782.6418483     
   48153791.8894880     
   48068200.1040739     
   47980945.8443611     
   47891967.9405657     
   47801205.5290777     
   47708598.0907013     
   47614085.4925017     
   47517608.0333331     
   47419106.4931185     
   47318522.1859553     
   47215797.0171069     
   47110873.5439534     
   47003695.0409513     
   46894205.5686662     
   46782350.0469218     
   46668074.3321095     
   46551325.2986941     
   46432050.9249379     
   46310200.3828600     
   46185724.1324311     
   46058574.0199943     
   45928703.3808849     
   45796067.1462107     
   45660621.9537291     
   45522326.2627453     
   45381140.4729328     
   45237027.0469523     
   45089950.6367250     
   44939878.2131867     
   44786779.1993244     
   44630625.6062654     
   44471392.1721592     
   44309056.5035550     
   44143599.2189498     
   43975004.0941359     
   43803258.2089464     
   43628352.0949496     
   43450279.8836040     
   43269039.4543417     
   43084632.5820021     
   42897065.0829893     
   42706346.9594803     
   42512492.5409625     
   42315520.6223269     
   42115454.5976937     
   41912322.5890978     
   41706157.5691066     
   41496997.4763907     
   41284885.3232172     
   41069869.2937757     
   40852002.8321939     
   40631344.7190344     
   40407959.1349964     
   40181915.7104758     
   39953289.5595419     
   39722161.2967903     
   39488617.0354034     
   39252748.3646018     
   39014652.3044796     
   38774431.2359946     
   38532192.8036139     
   38288049.7877911     
   38042119.9440836     
   37794525.8053038     
   37545394.4426394     
   37294857.1812213     
   37043049.2651737     
   36790109.4668565     
   36536179.6350568     
   36281404.1780833     
   36025929.4822686     
   35769903.2791307     
   35513473.9997869     
   35256790.1833084     
   35000000.0000000     
   50000000.0000000     
   49935683.2264399     
   49871331.9988546     
   49806885.1218951     
   49742280.8966902     
   49677457.1534416     
   49612351.3249051     
   49546900.5391422     
   49481041.7102520     
   49414711.6158713     
   49347846.9587151     
   49280384.4134448     
   49212260.6613472     
   49143412.4154151     
   49073776.4381795     
   49003289.5543447     
   48931888.6599642     
   48859510.7296067     
   48786092.8226966     
   48711572.0899920     
   48635885.7809554     
   48558971.2526177     
   48480765.9804054     
   48401207.5712836     
   48320233.7795033     
   48237782.5251675     
   48153791.9157878     
   48068200.2709766     
   47980946.1503876     
   47891968.3850065     
   47801206.1118843     
   47708598.8123940     
   47614086.3540913     
   47517609.0362522     
   47419107.6391618     
   47318523.4772257     
   47215798.4559662     
   47110875.1329757     
   47003696.7828795     
   46894207.4663687     
   46782352.1033499     
   46668076.5502553     
   46551327.6815473     
   46432053.4754427     
   46310203.1038697     
   46185727.0266627     
   46058577.0899809     
   45928706.6289269     
   45796070.5743251     
   45660625.5635965     
   45522330.0556561     
   45381144.4497305     
   45237031.2079746     
   45089954.9817437     
   44939882.7413445     
   44786783.9090697     
   44630630.4952857     
   44471397.2373111     
   44309061.7407928     
   44143604.6232514     
   43975009.6594270     
   43803263.9280219     
   43628357.9593920     
   43450285.8837002     
   43269045.5789954     
   43084638.8186428     
   42897071.4174763     
   42706353.3760002     
   42512499.0219190     
   42315527.1482197     
   42115461.1469840     
   41912329.1380562     
   41706164.0916386     
   41497003.9438348     
   41284891.7041075     
   41069875.5535660     
   40852008.9329317     
   40631350.6189830     
   40407964.7882009     
   40181921.0662737     
   39953294.5620281     
   39722165.8842577     
   39488621.1398006     
   39252751.9110711     
   39014655.2110843     
   38774433.4137904     
   38532194.1572975     
   38288050.2172538     
   38042119.3473312     
   37794524.0833746     
   37545391.5073733     
   37294852.9670080     
   37043043.7461295     
   36790102.6812111     
   36536171.7187472     
   36281395.4093428     
   36025920.3376267     
   35769894.4970709     
   35513466.6390060     
   35256785.6485015     
   35000000.0000000     
   50000000.0000000     
   49935680.7922861     
   49871327.9627159     
   49806880.1584218     
   49742275.5121218     
   49677451.7022009     
   49612346.0390505     
   49546895.5591957     
   49481037.1117992     
   49414707.4304331     
   49347843.1892677     
   49280381.0455472     
   49212257.6708821     
   49143409.7738104     
   49073774.1158046     
   49003287.5226113     
   48931886.8925302     
   48859509.2029738     
   48786091.5164121     
   48711570.9866038     
   48635884.8658238     
   48558970.5136543     
   48480765.4077843     
   48401207.1571547     
   48320233.5177227     
   48237782.4110550     
   48153791.9459145     
   48068200.4429816     
   47980946.4628215     
   47891968.8372004     
   47801206.7038382     
   47708599.5446832     
   47614087.2277858     
   47517610.0528478     
   47419108.8005196     
   47318524.7855168     
   47215799.9136228     
   47110876.7426442     
   47003698.5473756     
   46894209.3886347     
   46782354.1864115     
   46668078.7971791     
   46551330.0953974     
   46432056.0592367     
   46310205.8605339     
   46185729.9589851     
   46058580.2005640     
   45928709.9201378     
   45796074.0482442     
   45660629.2219647     
   45522333.8998195     
   45381148.4805830     
   45237035.4258993     
   45089959.3865510     
   44939887.3322084     
   44786788.6844625     
   44630635.4529093     
   44471402.3740274     
   44309067.0525504     
   44143610.1050115     
   43975015.3050860     
   43803269.7303318     
   43628363.9098788     
   43450291.9725783     
   43269051.7950800     
   43084645.1492572     
   42897077.8483549     
   42706359.8911847     
   42512505.6036462     
   42315533.7767989     
   42115467.8006596     
   41912335.7928529     
   41706170.7211830     
   41497010.5191481     
   41284898.1933628     
   41069881.9218023     
   40852015.1417194     
   40631356.6260318     
   40407970.5469103     
   40181926.5252234     
   39953299.6644203     
   39722170.5673315     
   39488625.3342593     
   39252755.5405904     
   39014658.1920091     
   38774435.6551825     
   38532195.5615706     
   38288050.6817356     
   38042118.7672255     
   37794522.3567740     
   37545388.5432017     
   37294848.6970546     
   37043038.1426737     
   36790095.7820789     
   36536163.6618686     
   36281386.4786358     
   36025911.0204715     
   35769885.5490190     
   35513459.1415774     
   35256781.0324175     
   35000000.0000000     
   50000000.0000000     
   49935678.3246668     
   49871323.8704782     
   49806875.1264047     
   49742270.0550101     
   49677446.1804705     
   49612340.6884746     
   49546890.5221665     
   49481032.4645019     
   49414703.2041938     
   49347839.3864153     
   49280377.6507737     
   49212254.6591351     
   49143407.1156082     
   49073771.7806861     
   49003285.4812644     
   48931885.1180044     
   48859507.6712751     
   48786090.2066962     
   48711569.8811183     
   48635883.9497065     
   48558969.7746596     
   48480764.8359809     
   48401206.7446289     
   48320233.2582994     
   48237782.3000483     
   48153791.9799081     
   48068200.6196416     
   47980946.7807362     
   47891969.2957459     
   47801207.3030654     
   47708600.2852219     
   47614088.1107639     
   47517611.0798212     
   47419109.9734107     
   47318526.1065598     
   47215801.3853137     
   47110878.3676937     
   47003700.3286648     
   46894211.3291713     
   46782356.2892871     
   46668081.0655259     
   46551332.5323450     
   46432058.6678680     
   46310208.6438393     
   46185732.9198161     
   46058583.3415850     
   45928713.2437761     
   45796077.5566386     
   45660632.9169116     
   45522337.7827177     
   45381152.5523759     
   45237039.6870153     
   45089963.8368411     
   44939891.9708827     
   44786793.5100231     
   44630640.4630824     
   44471407.5656915     
   44309072.4216641     
   44143615.6465372     
   43975021.0129127     
   43803275.5971946     
   43628369.9272764     
   43450298.1306871     
   43269058.0826653     
   43084651.5535800     
   42897084.3550737     
   42706366.4842509     
   42512512.2651907     
   42315540.4870075     
   42115474.5376345     
   41912342.5324547     
   41706177.4368493     
   41497017.1816819     
   41284904.7706845     
   41069888.3786563     
   40852021.4393298     
   40631362.7216998     
   40407976.3935483     
   40181932.0708288     
   39953304.8514957     
   39722175.3322738     
   39488629.6067590     
   39252759.2431093     
   39014661.2394470     
   38774437.9548977     
   38532197.0139969     
   38288051.1819426     
   38042118.2079071     
   37794520.6333306     
   37545385.5618178     
   37294844.3869631     
   37043032.4741474     
   36790088.7920478     
   36536155.4893037     
   36281377.4115814     
   36025901.5549271     
   35769876.4549000     
   35513451.5208037     
   35256776.3408656     
   35000000.0000000     
   50000000.0000000     
   49935675.8274478     
   49871319.7304340     
   49806870.0380336     
   49742264.5402586     
   49677440.6045760     
   49612335.2898577     
   49546885.4443352     
   49481027.7837665     
   49414698.9514206     
   49347835.5631672     
   49280374.2408522     
   49212251.6365864     
   49143404.4501078     
   49073769.4410254     
   49003283.4374949     
   48931883.3426524     
   48859506.1399300     
   48786088.8981927     
   48711568.7774661     
   48635883.0358744     
   48558969.0382885     
   48480764.2670716     
   48401206.3352339     
   48320233.0022369     
   48237782.1926447     
   48153792.0177745     
   48068200.8004812     
   47980947.1031818     
   47891969.7592229     
   47801207.9076769     
   47708601.0316524     
   47614089.0001968     
   47517612.1138687     
   47419111.1540518     
   47318527.4360857     
   47215802.8662771     
   47110880.0028623     
   47003702.1209765     
   46894213.2816905     
   46782358.4051622     
   46668083.3479457     
   46551334.9844956     
   46432061.2928882     
   46310211.4447753     
   46185735.8995747     
   46058586.5028847     
   45928716.5890981     
   45796081.0881737     
   45660636.6365075     
   45522341.6918225     
   45381156.6519804     
   45237043.9775930     
   45089968.3182857     
   44939896.6424438     
   44786798.3702394     
   44630645.5097126     
   44471412.7956430     
   44309077.8309192     
   44143621.2300778     
   43975026.7646416     
   43803281.5098553     
   43628375.9923694     
   43450304.3383844     
   43269064.4217205     
   43084658.0112349     
   42897090.9169595     
   42706373.1342828     
   42512518.9854536     
   42315547.2576308     
   42115481.3366515     
   41912349.3356433     
   41706184.2175476     
   41497023.9105733     
   41284911.4155447     
   41069894.9040543     
   40852027.8062755     
   40631368.8872298     
   40407982.3102486     
   40181937.6862911     
   39953310.1077178     
   39722180.1650258     
   39488633.9449550     
   39252763.0082560     
   39014664.3452791     
   38774440.3073696     
   38532198.5118762     
   38288051.7183589     
   38042117.6733501     
   37794518.9207768     
   37545382.5749024     
   37294840.0524167     
   37043026.7600705     
   36790081.7339745     
   36536147.2262665     
   36281368.2341439     
   36025891.9654066     
   35769867.2348172     
   35513443.7900553     
   35256771.5796635     
   35000000.0000000     
   50000000.0000000     
   49935673.3045131     
   49871315.5509310     
   49806864.9055987     
   49742258.9829037     
   49677434.9909851     
   49612329.8600070     
   49546880.3420796     
   49481023.0850603     
   49414694.6864061     
   49347831.7325259     
   49280370.8274760     
   49212248.6136607     
   49143401.7865377     
   49073767.1049428     
   49003281.3984067     
   48931881.5726503     
   48859504.6142692     
   48786087.5954604     
   48711567.6794972     
   48635882.1275229     
   48558968.3071278     
   48480763.7030713     
   48401205.9304430     
   48320232.7504904     
   48237782.0893002     
   48153792.0594839     
   48068200.9849950     
   47980947.4291838     
   47891970.2261914     
   47801208.5157688     
   47708601.7816056     
   47614089.8932478     
   47517613.1516819     
   47419112.3386575     
   47318528.7698252     
   47215804.3517530     
   47110881.6428908     
   47003703.9185439     
   46894215.2399090     
   46782360.5272273     
   46668085.6370935     
   46551337.4439591     
   46432063.9258530     
   46310214.2543342     
   46185738.8886812     
   46058589.6743039     
   45928719.9453574     
   45796084.6315103     
   45660640.3688150     
   45522345.6145945     
   45381160.7662530     
   45237048.2838842     
   45089972.8165332     
   44939901.3319404     
   44786803.2495659     
   44630650.5766686     
   44471418.0471755     
   44309083.2630490     
   44143626.8378233     
   43975032.5419402     
   43803287.4494834     
   43628382.0858585     
   43450310.5759347     
   43269070.7921116     
   43084664.5017321     
   42897097.5132143     
   42706379.8202277     
   42512525.7431873     
   42315554.0672920     
   42115488.1762778     
   41912356.1810104     
   41706191.0419828     
   41497030.6847385     
   41284918.1071788     
   41069901.4776701     
   40852034.2227992     
   40631375.1035798     
   40407988.2788445     
   40181943.3544967     
   39953315.4172235     
   39722185.0511926     
   39488638.3361611     
   39252766.8253169     
   39014667.5010522     
   38774442.7067137     
   38532200.0522171     
   38288052.2912167     
   38042117.1673309     
   37794517.2267159     
   37545379.5940915     
   37294835.7091522     
   37043021.0201240     
   36790074.6309846     
   36536138.8983328     
   36281358.9727019     
   36025882.2767288     
   35769857.9092027     
   35513435.9629085     
   35256766.7547144     
   35000000.0000000     
   50000000.0000000     
   49935670.7597997     
   49871311.3404359     
   49806859.7415588     
   49742253.3981696     
   49677429.3563405     
   49612324.4158719     
   49546875.2318773     
   49481018.3839067     
   49414690.4234586     
   49347827.9074753     
   49280367.4222923     
   49212245.6007151     
   49143399.1340443     
   49073764.7804670     
   49003279.3710073     
   48931879.8140773     
   48859503.0995284     
   48786086.3029669     
   48711566.5909765     
   48635881.2277690     
   48558967.5836923     
   48480763.1459305     
   48401205.5316725     
   48320232.5039654     
   48237781.9904279     
   48153792.1049705     
   48068201.1726473     
   47980947.7577428     
   47891970.6951915     
   47801209.1254213     
   47708602.5327008     
   47614090.7870722     
   47517614.1899471     
   47419113.5234397     
   47318530.1035091     
   47215805.8369827     
   47110883.2825233     
   47003705.7156043     
   46894217.1975480     
   46782362.6486781     
   46668087.9256293     
   46551339.9028501     
   46432066.5583220     
   46310217.0635114     
   46185741.8775574     
   46058592.8456829     
   45928723.3018052     
   45796088.1753039     
   45660644.1018884     
   45522349.5384829     
   45381164.8820349     
   45237052.5921215     
   45089977.3172083     
   44939906.0243922     
   44786808.1324226     
   44630655.6477788     
   44471423.3035365     
   44309088.7007333     
   44143632.4519027     
   43975038.3264077     
   43803293.3971719     
   43628388.1883583     
   43450316.8235070     
   43269077.1735991     
   43084671.0044651     
   42897104.1229121     
   42706386.5208929     
   42512532.5169913     
   42315560.8944481     
   42115495.0349002     
   41912363.0469524     
   41706197.8886494     
   41497037.4828669     
   41284924.8245791     
   41069908.0789169     
   40852040.6688669     
   40631381.3514129     
   40407994.2808579     
   40181949.0580053     
   39953320.7638089     
   39722189.9760275     
   39488642.7673324     
   39252770.6832182     
   39014670.6979570     
   38774445.1467026     
   38532201.6317089     
   38288052.9004656     
   38042116.6933940     
   37794515.5585876     
   37545376.6309436     
   37294831.3729316     
   37043015.2741321     
   36790067.5064724     
   36536130.5314682     
   36281349.6541205     
   36025872.5142394     
   35769848.4989705     
   35513428.0532884     
   35256761.8720835     
   35000000.0000000     
   50000000.0000000     
   49935668.1973336     
   49871307.1075993     
   49806854.5586128     
   49742247.8015239     
   49677423.7174945     
   49612318.9745592     
   49546870.1303074     
   49481013.6958791     
   49414686.1768919     
   49347824.1009681     
   49280364.0368894     
   49212242.6080278     
   49143396.5016810     
   49073762.4755259     
   49003277.3622001     
   48931878.0729088     
   48859501.6008426     
   48786085.0250838     
   48711565.5155790     
   48635880.3396472     
   48558966.8704226     
   48480762.5975330     
   48401205.1402797     
   48320232.2635163     
   48237781.8963964     
   48153792.1541302     
   48068201.3628709     
   47980948.0878335     
   47891971.1647425     
   47801209.7346986     
   47708603.2825450     
   47614091.6788162     
   47517615.2253456     
   47419114.7046076     
   47318531.4328675     
   47215807.3172095     
   47110884.9165066     
   47003707.5063993     
   46894219.1483337     
   46782364.7627153     
   46668090.2062184     
   46551342.3532881     
   46432069.1818587     
   46310219.8633047     
   46185744.8566269     
   46058596.0068616     
   45928726.6476901     
   45796091.7082049     
   45660647.8237740     
   45522353.4509254     
   45381168.9861522     
   45237056.8885177     
   45089981.8059114     
   44939910.7047896     
   44786813.0031950     
   44630660.7068309     
   44471428.5479259     
   44309094.1265976     
   44143638.0543835     
   43975044.0995726     
   43803299.3339347     
   43628394.2803955     
   43450323.0611723     
   43269083.5458347     
   43084677.4987081     
   42897110.7249961     
   42706393.2149426     
   42512539.2853086     
   42315567.7173859     
   42115501.8907208     
   41912369.9116658     
   41706204.7358257     
   41497044.2834155     
   41284931.5464876     
   41069914.6869402     
   40852047.1241584     
   40631387.6110885     
   40408000.2974892     
   40181954.7790381     
   39953326.1309164     
   39722194.9244171     
   39488647.2250476     
   39252774.5705043     
   39014673.9268046     
   38774447.6207394     
   38532203.2466924     
   38288053.5457401     
   38042116.2548183     
   37794513.9236324     
   37545373.6969039     
   37294827.0595113     
   37043009.5420412     
   36790060.3840996     
   36536122.1520586     
   36281340.3058247     
   36025862.7039346     
   35769839.0256756     
   35513420.0756142     
   35256756.9380795     
   35000000.0000000     
   50000000.0000000     
   49935665.6212685     
   49871302.8613241     
   49806849.3697720     
   49742242.2087348     
   49677418.0915433     
   49612313.5533482     
   49546865.0540525     
   49481009.0365942     
   49414681.9610139     
   49347820.3259131     
   49280360.6827831     
   49212239.6457845     
   49143393.8983964     
   49073760.1979358     
   49003275.3787751     
   48931876.3550080     
   48859500.1232388     
   48786083.7660815     
   48711564.4568857     
   48635879.4661065     
   48558966.1696817     
   48480762.0596937     
   48401204.7575611     
   48320232.0299441     
   48237781.8075289     
   48153792.2068207     
   48068201.5550660     
   47980948.4184039     
   47891971.6333423     
   47801210.3416482     
   47708604.0287331     
   47614092.5656181     
   47517616.2545529     
   47419115.8783679     
   47318532.7536304     
   47215808.7876778     
   47110886.5395909     
   47003709.2851745     
   46894221.0859972     
   46782366.8625451     
   46668092.4715313     
   46551344.7873974     
   46432071.7880313     
   46310222.6447157     
   46185747.8163145     
   46058599.1476796     
   45928729.9722584     
   45796095.2188584     
   45660651.5225100     
   45522357.3393481     
   45381173.0654157     
   45237061.1592662     
   45089986.2682184     
   44939915.3580934     
   44786817.8462329     
   44630665.7375707     
   44471433.7634954     
   44309099.5232118     
   44143643.6272696     
   43975049.8428924     
   43803305.2407052     
   43628400.3424067     
   43450329.2689021     
   43269089.8883603     
   43084683.9636137     
   42897117.2982755     
   42706399.8808942     
   42512546.0264223     
   42315574.5142179     
   42115508.7217523     
   41912376.7531420     
   41706211.5615685     
   41497051.0646024     
   41284938.2513899     
   41069921.2806106     
   40852053.5680593     
   40631393.8626529     
   40408006.3096067     
   40181960.4994660     
   39953331.5016208     
   39722199.8808656     
   39488651.6954908     
   39252778.4753182     
   39014677.1780035     
   38774450.1218313     
   38532204.8931296     
   38288054.2263265     
   38042115.8545806     
   37794512.3288542     
   37545370.8032682     
   37294822.7846101     
   37043003.8438978     
   36790053.2877924     
   36536113.7869383     
   36281330.9558736     
   36025852.8725882     
   35769829.5116787     
   35513412.0449538     
   35256751.9593385     
   35000000.0000000     
   50000000.0000000     
   49935663.0359259     
   49871298.6108377     
   49806844.1884364     
   49742236.6359284     
   49677412.4958603     
   49612308.1697043     
   49546860.0198988     
   49481004.4217039     
   49414677.7901146     
   49347816.5951614     
   49280357.3714031     
   49212236.7240658     
   49143391.3330225     
   49073757.9553912     
   49003273.4273995     
   48931874.6661189     
   48859498.6716302     
   48786082.5301234     
   48711563.4183793     
   48635878.6100058     
   48558965.4837518     
   48480761.5341560     
   48401204.3847501     
   48320231.8039953     
   48237781.7241016     
   48153792.2628599     
   48068201.7485997     
   47980948.7483749     
   47891972.0994672     
   47801210.9443006     
   47708604.7688472     
   47614093.4446068     
   47517617.2742391     
   47419117.0409245     
   47318534.0615273     
   47215810.2436339     
   47110888.1465293     
   47003711.0461800     
   46894223.0042749     
   46782368.9413791     
   46668094.7142441     
   46551347.1973078     
   46432074.3684117     
   46310225.3987487     
   46185750.7470471     
   46058602.2579766     
   45928733.2647537     
   45796098.6959048     
   45660655.1861264     
   45522361.1911653     
   45381177.1066198     
   45237065.3905400     
   45089990.6896801     
   44939919.9692338     
   44786822.6458500     
   44630670.7237016     
   44471438.9333472     
   44309104.8730891     
   44143649.1525002     
   43975055.5377512     
   43803311.0983351     
   43628406.3547371     
   43450335.4265655     
   43269096.1806042     
   43084690.3782097     
   42897123.8214224     
   42706406.4971151     
   42512552.7184517     
   42315581.2628781     
   42115515.5058138     
   41912383.5491627     
   41706218.3437079     
   41497057.8044012     
   41284944.9175083     
   41069927.8385159     
   40852059.9796532     
   40631400.0858299     
   40408012.2977362     
   40181966.2007972     
   39953336.8586158     
   39722204.8294787     
   39488656.1644339     
   39252782.3853803     
   39014680.4415349     
   38774452.6425620     
   38532206.5665731     
   38288054.9411283     
   38042115.4953181     
   37794510.7809808     
   37545367.9611441     
   37294818.5638741     
   37042998.1998244     
   36790046.2417356     
   36536105.4634159     
   36281321.6330335     
   36025843.0478824     
   35769819.9803190     
   35513403.9771879     
   35256746.9429165     
   35000000.0000000     
   50000000.0000000     
   49935660.4458401     
   49871294.3657696     
   49806839.0284742     
   49742231.0996482     
   49677406.9481297     
   49612302.8412919     
   49546855.0447351     
   49480999.8668868     
   49414673.6784532     
   49347812.9214917     
   49280354.1140778     
   49212233.8528329     
   49143388.8142620     
   49073755.7554535     
   49003271.5146088     
   48931873.0118575     
   48859497.2508092     
   48786081.3212607     
   48711562.4034396     
   48635877.7741108     
   48558964.8148320     
   48480761.0225890     
   48401204.0230157     
   48320231.5863604     
   48237781.6463427     
   48153792.3220246     
   48068201.9428053     
   47980949.0766396     
   47891972.5615708     
   47801211.5406690     
   47708605.5004564     
   47614094.3129024     
   47517618.2810687     
   47419118.1884786     
   47318535.3522875     
   47215811.6803258     
   47110889.7320785     
   47003712.7836704     
   46894224.8969082     
   46782370.9924347     
   46668096.9270385     
   46551349.5751541     
   46432076.9145771     
   46310228.1164118     
   46185753.6392533     
   46058605.3275920     
   45928736.5144174     
   45796102.1279789     
   45660658.8026447     
   45522364.9937794     
   45381181.0965436     
   45237069.5684916     
   45089995.0558220     
   44939924.5231104     
   44786827.3863230     
   44630675.6488838     
   44471444.0405334     
   44309110.1586849     
   44143654.6119490     
   43975061.1654588     
   43803316.8875918     
   43628412.2976381     
   43450341.5139275     
   43269102.4018797     
   43084696.7213967     
   42897130.2729695     
   42706413.0418196     
   42512559.3393489     
   42315587.9411188     
   42115522.2205264     
   41912390.2772950     
   41706225.0598418     
   41497064.4805348     
   41284951.5227954     
   41069934.3389546     
   40852066.3377135     
   40631406.2600117     
   40408018.2420501     
   40181971.8641657     
   39953342.1841998     
   39722209.7539479     
   39488660.6172174     
   39252786.2879669     
   39014683.7069288     
   38774455.1750639     
   38532208.2621337     
   38288055.6886310     
   38042115.1792904     
   37794509.2864234     
   37545365.1814098     
   37294814.4128399     
   37042992.6299920     
   36790039.2703644     
   36536097.2092984     
   36281312.3668497     
   36025833.2585392     
   35769810.4560961     
   35513395.8891875     
   35256741.8963909     
   35000000.0000000     
   50000000.0000000     
   49935657.8558080     
   49871290.1362363     
   49806833.9043057     
   49742225.6169138     
   49677401.4663783     
   49612297.5859850     
   49546850.1455504     
   49480995.3878381     
   49414669.6402440     
   49347809.3175947     
   49280350.9220194     
   49212231.0419135     
   49143386.3506752     
   49073753.6055397     
   49003269.6467966     
   48931871.3977043     
   48859495.8654406     
   48786080.1434265     
   48711561.4153383     
   48635876.9610906     
   48558964.1650346     
   48480760.5265857     
   48401203.6734599     
   48320231.3776719     
   48237781.5744307     
   48153792.3840502     
   48068202.1369813     
   47980949.4020627     
   47891973.0180845     
   47801212.1287492     
   47708606.2211165     
   47614095.1676156     
   47517619.2717001     
   47419119.3172285     
   47318536.6216401     
   47215813.0930032     
   47110891.2909983     
   47003714.4919047     
   46894226.7576442     
   46782373.0089350     
   46668099.1026024     
   46551351.9130768     
   46432079.4181089     
   46310230.7887165     
   46185756.4833639     
   46058608.3463656     
   45928739.7104885     
   45796105.5037108     
   45660662.3600781     
   45522368.7345808     
   45381185.0219498     
   45237073.6792530     
   45089999.3521438     
   44939929.0045911     
   44786832.0518916     
   44630680.4967337     
   44471449.0680551     
   44309115.3623960     
   44143659.9874225     
   43975066.7072490     
   43803322.5891580     
   43628418.1512658     
   43450347.5106471     
   43269108.5313824     
   43084702.9719457     
   42897136.6313067     
   42706419.4930658     
   42512565.8668951     
   42315594.5265060     
   42115528.8433093     
   41912396.9148867     
   41706231.6873311     
   41497071.0704703     
   41284958.0449279     
   41069940.7599281     
   40852072.6206947     
   40631412.3642498     
   40408024.1223577     
   40181977.4703191     
   39953347.4602626     
   39722214.6375344     
   39488665.0387326     
   39252790.1698888     
   39014686.9632384     
   38774457.7109888     
   38532209.9744483     
   38288056.4668649     
   38042114.9083383     
   37794507.8512334     
   37545362.4746713     
   37294810.3468950     
   37042987.1545891     
   36790032.3983524     
   36536089.0529108     
   36281303.1877160     
   36025823.5344556     
   35769800.9648620     
   35513387.7990092     
   35256736.8279741     
   35000000.0000000     
   50000000.0000000     
   49935655.2709454     
   49871285.9329340     
   49806828.8309913     
   49742220.2052810     
   49677396.0690053     
   49612292.4218764     
   49546845.3394297     
   49480991.0002573     
   49414665.6896409     
   49347805.7960566     
   49280347.8063075     
   49212228.3009867     
   49143383.9506672     
   49073751.5129109     
   49003267.8302050     
   48931869.8289960     
   48859494.5200552     
   48786079.0004305     
   48711560.4572357     
   48635876.1735132     
   48558963.5363826     
   48480760.0476604     
   48401203.3371162     
   48320231.1785032     
   48237781.5084939     
   48153792.4486296     
   48068202.3303906     
   47980949.7234799     
   47891973.4674163     
   47801212.7065186     
   47708606.9283706     
   47614096.0058481     
   47517620.2427865     
   47419120.4233698     
   47318537.8653137     
   47215814.4769177     
   47110892.8180523     
   47003716.1651470     
   46894228.5802355     
   46782374.9841094     
   46668101.2336293     
   46551354.2032219     
   46432081.8705940     
   46310233.4066783     
   46185759.2698117     
   46058611.3041373     
   45928742.8422041     
   45796108.8117252     
   45660665.8464318     
   45522372.4009480     
   45381188.8695849     
   45237077.7089352     
   45090003.5641190     
   44939933.3985126     
   44786836.6267573     
   44630685.2508228     
   44471453.9988611     
   44309120.4665593     
   44143665.2606592     
   43975072.1442786     
   43803328.1836291     
   43628423.8956790     
   43450353.3962752     
   43269114.5481882     
   43084709.1084953     
   42897142.8746785     
   42706425.8287526     
   42512572.2786978     
   42315600.9964159     
   42115535.3513753     
   41912403.4390620     
   41706238.2032944     
   41497077.5514129     
   41284964.4613002     
   41069947.0791340     
   40852078.8067253     
   40631418.3772458     
   40408029.9180940     
   40181982.9996066     
   39953352.6682712     
   39722219.4630531     
   39488669.4134023     
   39252794.0174694     
   39014690.1990152     
   38774460.2414790     
   38532211.6976458     
   38288057.2733678     
   38042114.6838426     
   37794506.4810585     
   37545359.8512170     
   37294806.3812346     
   37042981.7937883     
   36790025.6505945     
   36536081.0231096     
   36281294.1269384     
   36025813.9068373     
   35769791.5340246     
   35513379.7261104     
   35256731.7466432     
   35000000.0000000     
   50000000.0000000     
   49935652.6967515     
   49871281.7672430     
   49806823.8243256     
   49742214.8829001     
   49677390.7748097     
   49612287.3672840     
   49546840.6435473     
   49480986.7198350     
   49414661.8407208     
   49347802.3693417     
   49280344.7778721     
   49212225.6395674     
   49143381.6224733     
   49073749.4846604     
   49003266.0709144     
   48931868.3109164     
   48859493.2190421     
   48786077.8959534     
   48711559.5321750     
   48635875.4138428     
   48558962.9308069     
   48480759.5872465     
   48401203.0149477     
   48320230.9893673     
   48237781.4486088     
   48153792.5154121     
   48068202.5222602     
   47980950.0396976     
   47891973.9079508     
   47801213.2719369     
   47708607.6197477     
   47614096.8246921     
   47517621.1909750     
   47419121.5030956     
   47318539.0790372     
   47215815.8273232     
   47110894.3080079     
   47003717.7976665     
   46894230.3584406     
   46782376.9111935     
   46668103.3128196     
   46551356.4377416     
   46432084.2636240     
   46310235.9613166     
   46185761.9890323     
   46058614.1907472     
   45928745.8987988     
   45796112.0406423     
   45660669.2497026     
   45522375.9802473     
   45381192.6261792     
   45237081.6436281     
   45090007.6771951     
   44939937.6896791     
   44786841.0950834     
   44630689.8946773     
   44471458.8158482     
   44309125.4534513     
   44143670.4133280     
   43975077.4576258     
   43803333.6515125     
   43628429.5108377     
   43450359.1502526     
   43269120.4312511     
   43084715.1095499     
   42897148.9811816     
   42706432.0266165     
   42512578.5521868     
   42315607.3280317     
   42115541.7217269     
   41912409.8267168     
   41706244.5846028     
   41497083.9003004     
   41284970.7490183     
   41069953.2739593     
   40852084.8735993     
   40631424.2773427     
   40408035.6083103     
   40181988.4319673     
   39953357.7892560     
   39722224.2128567     
   39488673.7251622     
   39252797.8165225     
   39014693.4022830     
   38774462.7571374     
   38532213.4253131     
   38288058.1051456     
   38042114.5066811     
   37794505.1810958     
   37545357.3209699     
   37294802.5308164     
   37042976.5677071     
   36790019.0521855     
   36536073.1492925     
   36281285.2167947     
   36025804.4083334     
   35769782.1927647     
   35513371.6915909     
   35256726.6622901     
   35000000.0000000     
   50000000.0000000     
   49935650.1391843     
   49871277.6513439     
   49806818.9009360     
   49742209.6685746     
   49677385.6030148     
   49612282.4407534     
   49546836.0751581     
   49480982.5622380     
   49414658.1074655     
   49347799.0497738     
   49280341.8474761     
   49212223.0669903     
   49143379.3741457     
   49073747.5277015     
   49003264.3748333     
   48931866.8484889     
   48859491.9666424     
   48786076.8335411     
   48711558.6430783     
   48635874.6844354     
   48558962.3501429     
   48480759.1466943     
   48401202.7078455     
   48320230.8107152     
   48237781.3947995     
   48153792.5840028     
   48068202.7117806     
   47980950.3494923     
   47891974.3380488     
   47801213.8229451     
   47708608.2927636     
   47614097.6212304     
   47517622.1129070     
   47419122.5525963     
   47318540.2585394     
   47215817.1394755     
   47110895.7556363     
   47003719.3837374     
   46894232.0860244     
   46782378.7834296     
   46668105.3328800     
   46551358.6087945     
   46432086.5887963     
   46310238.4436551     
   46185764.6314638     
   46058616.9960363     
   45928748.8695058     
   45796115.1790773     
   45660672.5578790     
   45522379.4598331     
   45381196.2784466     
   45237085.4694005     
   45090011.6767928     
   44939941.8628624     
   44786845.4409941     
   44630694.4117780     
   44471463.5018592     
   44309130.3052865     
   44143675.4270279     
   43975082.6282891     
   43803338.9732255     
   43628434.9766015     
   43450364.7519082     
   43269126.1594007     
   43084720.9534765     
   42897154.9287618     
   42706438.0642289     
   42512584.6646115     
   42315613.4983392     
   42115547.9311523     
   41912416.0545143     
   41706250.8078757     
   41497090.0937982     
   41284976.8848933     
   41069959.3214732     
   40852090.7987688     
   40631430.0425158     
   40408041.1716633     
   40181993.7469183     
   39953362.8037971     
   39722228.8688188     
   39488677.9574416     
   39252801.5523303     
   39014696.5605117     
   38774465.2479967     
   38532215.1504598     
   38288058.9586326     
   38042114.3771836     
   37794503.9560433     
   37545354.8934371     
   37294798.8103106     
   37042971.4963660     
   36790012.6283923     
   36536065.4613990     
   36281276.4905851     
   36025795.0731678     
   35769772.9722644     
   35513363.7184640     
   35256721.5858964     
   35000000.0000000     
   50000000.0000000     
   49935647.6047502     
   49871273.5983492     
   49806814.0783871     
   49742204.5818162     
   49677380.5732883     
   49612277.6610585     
   49546831.6515858     
   49480978.5430910     
   49414654.5037421     
   49347795.8495163     
   49280339.0256965     
   49212220.5923930     
   49143377.2135380     
   49073745.6487549     
   49003262.7476878     
   48931865.4465670     
   48859490.7669420     
   48786075.8165993     
   48711557.7927424     
   48635873.9875360     
   48558961.7961286     
   48480758.7272685     
   48401202.4166269     
   48320230.6429347     
   48237781.3470365     
   48153792.6539617     
   48068202.8981051     
   47980950.6516104     
   47891974.7560473     
   47801214.3574662     
   47708608.9449204     
   47614098.3925367     
   47517623.0052183     
   47419123.5680598     
   47318541.3995493     
   47215818.4086333     
   47110897.1557133     
   47003720.9176396     
   46894233.7567582     
   46782380.5940670     
   46668107.2865244     
   46551360.7085458     
   46432088.8377143     
   46310240.8447223     
   46185767.1875471     
   46058619.7098466     
   45928751.7435565     
   45796118.2156407     
   45660675.7589414     
   45522382.8270477     
   45381199.8130844     
   45237089.1722997     
   45090015.5483060     
   44939945.9028017     
   44786849.6485746     
   44630698.7855587     
   44471468.0396830     
   44309135.0042173     
   44143680.2832863     
   43975087.6371861     
   43803344.1290946     
   43628440.2727281     
   43450370.1804571     
   43269131.7113412     
   43084726.6185030     
   42897160.6952117     
   42706443.9189929     
   42512590.5930374     
   42315619.4841240     
   42115553.9562214     
   41912422.0988808     
   41706256.8494752     
   41497096.1082933     
   41284982.8454361     
   41069965.1984203     
   40852096.5593362     
   40631435.6503642     
   40408046.5864052     
   40181998.9235428     
   39953367.6920110     
   39722233.4123185     
   39488682.0931448     
   39252805.2096206     
   39014699.6605910     
   38774467.7034888     
   38532216.8654823     
   38288059.8296506     
   38042114.2950860     
   37794502.8100499     
   37545352.5776562     
   37294795.2340474     
   37042966.5996403     
   36790006.4046204     
   36536057.9899037     
   36281267.9826745     
   36025785.9372652     
   35769763.9059498     
   35513355.8319647     
   35256716.5297410     
   35000000.0000000     
   50000000.0000000     
   49935645.1006096     
   49871269.6224534     
   49806809.3752894     
   49742199.6428974     
   49677375.7057576     
   49612273.0471966     
   49546827.3902088     
   49480974.6779581     
   49414651.0432819     
   49347792.7805518     
   49280336.3229053     
   49212218.2246987     
   49143375.1482908     
   49073743.8543361     
   49003261.1950109     
   48931864.1098262     
   48859489.6238647     
   48786074.8483874     
   48711556.9838338     
   48635873.3252746     
   48558961.2704012     
   48480758.3301467     
   48401202.1420341     
   48320230.4863492     
   48237781.3052354     
   48153792.7248037     
   48068203.0803492     
   47980950.9447676     
   47891975.1602589     
   47801214.8734043     
   47708609.5737066     
   47614099.1356752     
   47517623.8645394     
   47419124.5456719     
   47318542.4977966     
   47215819.6300576     
   47110898.5030189     
   47003722.3936591     
   46894235.3644198     
   46782382.3363620     
   46668109.1664741     
   46551362.7291676     
   46432091.0019872     
   46310243.1555515     
   46185769.6477266     
   46058622.3220210     
   45928754.5101808     
   45796121.1389389     
   45660678.8408625     
   45522386.0692215     
   45381203.2167736     
   45237092.7383516     
   45090019.2771016     
   44939949.7942029     
   44786853.7018698     
   44630702.9994065     
   44471472.4120536     
   44309139.5323327     
   44143684.9635582     
   43975092.4651523     
   43803349.0993535     
   43628445.3788711     
   43450375.4149989     
   43269137.0656478     
   43084732.0827159     
   42897166.2581683     
   42706449.5681411     
   42512596.3143431     
   42315625.2619678     
   42115559.7732824     
   41912427.9360012     
   41706262.6855023     
   41497101.9198894     
   41284988.6068511     
   41069970.8812148     
   40852102.1320470     
   40631441.0781019     
   40408051.8303743     
   40182003.9404788     
   39953372.4335360     
   39722237.8242242     
   39488686.1146318     
   39252808.7725443     
   39014702.6888035     
   38774470.1124131     
   38532218.5621272     
   38288060.7133663     
   38042114.2594828     
   37794501.7466623     
   37545350.3821401     
   37294791.8159601     
   37042961.8972074     
   36790000.4063728     
   36536050.7658002     
   36281259.7285234     
   36025777.0383690     
   35769755.0297450     
   35513348.0599007     
   35256711.5076483     
   35000000.0000000     
   50000000.0000000     
   49935642.6347054     
   49871265.7391033     
   49806804.8114131     
   49742194.8728981     
   49677371.0210205     
   49612268.6183810     
   49546823.3084419     
   49480970.9823202     
   49414647.7396574     
   49347789.8546594     
   49280333.7492490     
   49212215.9725987     
   49143373.1858160     
   49073742.1507422     
   49003259.7221319     
   48931862.8427549     
   48859488.5411647     
   48786073.9320134     
   48711556.2188848     
   48635872.6996630     
   48558960.7744947     
   48480757.9564170     
   48401201.8847319     
   48320230.3412167     
   48237781.2692571     
   48153792.7959969     
   48068203.2575905     
   47980951.2276492     
   47891975.5489720     
   47801215.3686448     
   47708610.1765971     
   47614099.8477010     
   47517624.6874952     
   47419125.4816162     
   47318543.5490115     
   47215820.7990127     
   47110899.7923380     
   47003723.8060878     
   46894236.9027945     
   46782384.0035789     
   46668110.9654578     
   46551364.6628390     
   46432093.0732309     
   46310245.3671812     
   46185772.0024502     
   46058624.8224038     
   45928757.1586075     
   45796123.9375734     
   45660681.7916070     
   45522389.1736728     
   45381206.4761786     
   45237096.1535606     
   45090022.8485192     
   44939953.5217386     
   44786857.5848850     
   44630707.0366610     
   44471476.6016497     
   44309143.8716577     
   44143689.4492254     
   43975097.0929400     
   43803353.8641421     
   43628450.2745792     
   43450380.4345163     
   43269142.2007662     
   43084737.3240578     
   42897171.5951100     
   42706454.9887321     
   42512601.8052172     
   42315630.8082449     
   42115565.3584577     
   41912433.5418156     
   41706268.2917915     
   41497107.5044023     
   41284994.1450307     
   41069976.3459329     
   40852107.4932819     
   40631446.3025497     
   40408056.8809842     
   40182008.7759076     
   39953377.0075198     
   39722242.0848774     
   39488690.0036994     
   39252812.2246531     
   39014705.6307983     
   38774472.4629051     
   38532220.2314544     
   38288061.6042487     
   38042114.2687777     
   37794500.7687710     
   37545348.3148171     
   37294788.5695243     
   37042957.4084890     
   36789994.6592013     
   36536043.8205754     
   36281251.7647051     
   36025768.4161478     
   35769746.3823347     
   35513340.4330532     
   35256706.5352902     
   35000000.0000000     
   50000000.0000000     
   49935640.2159209     
   49871261.9651940     
   49806800.4078017     
   49742190.2937460     
   49677366.5401483     
   49612264.3940271     
   49546819.4237153     
   49480967.4715512     
   49414644.6062580     
   49347787.0833922     
   49280331.3146277     
   49212213.8445332     
   49143371.3332811     
   49073740.5440388     
   49003258.3341657     
   48931861.6496459     
   48859487.5224201     
   48786073.0704284     
   48711555.5002889     
   48635872.1125915     
   48558960.3098375     
   48480757.6070762     
   48401201.6453076     
   48320230.2077286     
   48237781.2389060     
   48153792.8669633     
   48068203.4288682     
   47980951.4989091     
   47891975.9204507     
   47801215.8410550     
   47708610.7510534     
   47614100.5256602     
   47517625.4707057     
   47419126.3720745     
   47318544.5489253     
   47215821.9107663     
   47110901.0184607     
   47003725.1492242     
   46894238.3656748     
   46782385.5889898     
   46668112.6762126     
   46551366.5017475     
   46432095.0430682     
   46310247.4706557     
   46185774.2421697     
   46058627.2008413     
   45928759.6780645     
   45796126.6001424     
   45660684.5991319     
   45522392.1277084     
   45381209.5779476     
   45237099.4039092     
   45090026.2478715     
   44939957.0700477     
   44786861.2815847     
   44630710.8806137     
   44471480.5910938     
   44309148.0041526     
   44143693.7215956     
   43975101.5012172     
   43803358.4035056     
   43628454.9392946     
   43450385.2178726     
   43269147.0950101     
   43084742.3203256     
   42897176.6833551     
   42706460.1576486     
   42512607.0421555     
   42315636.0991193     
   42115570.6876402     
   41912438.8920144     
   41706273.6439069     
   41497112.8373540     
   41284999.4355497     
   41069981.5683075     
   40852112.6190503     
   40631451.3001266     
   40408061.7152151     
   40182013.4075423     
   39953381.3926051     
   39722246.1740769     
   39488693.7415619     
   39252815.5488766     
   39014708.4715634     
   38774474.7424043     
   38532221.8637987     
   38288062.4960250     
   38042114.3206334     
   37794499.8785529     
   37545346.3829697     
   37294785.5076928     
   37042953.1525859     
   36789989.1886502     
   36536037.1861718     
   36281244.1289094     
   36025760.1122833     
   35769738.0054330     
   35513332.9856372     
   35256701.6305547     
   35000000.0000000     
   50000000.0000000     
   49935637.8542739     
   49871258.3192917     
   49806796.1868869     
   49742185.9282465     
   49677362.2846828     
   49612260.3937348     
   49546815.7534500     
   49480964.1608909     
   49414641.6562634     
   49347784.4780522     
   49280329.0286732     
   49212211.8486732     
   49143369.5975930     
   49073739.0400468     
   49003257.0360013     
   48931860.5345874     
   48859486.5710259     
   48786072.2664207     
   48711554.8302965     
   48635871.5658256     
   48558959.8777497     
   48480757.2830281     
   48401201.4242682     
   48320230.0860087     
   48237781.2139299     
   48153792.9370773     
   48068203.5931830     
   47980951.7571703     
   47891976.2729346     
   47801216.2884829     
   47708611.2945234     
   47614101.1665900     
   47517626.2107856     
   47419127.2132272     
   47318545.4932706     
   47215822.9605894     
   47110902.1761826     
   47003726.4173740     
   46894239.7468613     
   46782387.0858753     
   46668114.2914838     
   46551368.2380881     
   46432096.9031292     
   46310249.4570252     
   46185776.3573413     
   46058629.4471817     
   45928762.0577792     
   45796129.1152398     
   45660687.2513869     
   45522394.9186235     
   45381212.5087124     
   45237102.4753589     
   45090029.4604431     
   44939960.4237356     
   44786864.7758928     
   44630714.5145080     
   44471484.3629517     
   44309151.9117119     
   44143697.7619013     
   43975105.6705665     
   43803362.6973924     
   43628459.3523513     
   43450389.7438110     
   43269151.7265593     
   43084747.0491681     
   42897181.5000588     
   42706465.0515942     
   42512612.0014582     
   42315641.1105410     
   42115575.7364903     
   41912443.9620351     
   41706278.7171377     
   41497117.8939688     
   41285004.4536597     
   41069986.5237215     
   40852117.4849826     
   40631456.0468420     
   40408066.3096038     
   40182017.8126169     
   39953385.5669175     
   39722250.0710631     
   39488697.3088331     
   39252818.7274995     
   39014711.1953991     
   38774476.9376213     
   38532223.4487323     
   38288063.3816354     
   38042114.4119197     
   37794499.0774131     
   37545344.5931695     
   37294782.6428264     
   37042949.1482087     
   36789984.0201905     
   36536030.8949388     
   36281236.8599278     
   36025752.1705377     
   35769729.9440471     
   35513325.7558281     
   35256696.8140047     
   35000000.0000000     
   50000000.0000000     
   49935635.5611620     
   49871254.8218897     
   49806792.1725953     
   49742181.8001024     
   49677358.2766264     
   49612256.6372648     
   49546812.3150293     
   49480961.0654155     
   49414638.9026154     
   49347782.0496649     
   49280326.9007262     
   49212209.9928998     
   49143367.9853817     
   49073737.6443286     
   49003255.8322915     
   48931859.5014542     
   48859485.6901868     
   48786071.5226111     
   48711554.2110113     
   48635871.0610028     
   48558959.4794409     
   48480756.9850814     
   48401201.2220403     
   48320229.9761126     
   48237781.1940193     
   48153793.0056658     
   48068203.7494964     
   47980952.0010247     
   47891976.6046386     
   47801216.7087585     
   47708611.8044418     
   47614101.7675188     
   47517626.9043452     
   47419128.0012532     
   47318546.3777816     
   47215823.9437571     
   47110903.2603054     
   47003727.6048498     
   46894241.0401631     
   46782388.4875247     
   46668115.8040258     
   46551369.8640645     
   46432098.6450515     
   46310251.3173461     
   46185778.3384257     
   46058631.5512756     
   45928764.2869784     
   45796131.4714562     
   45660689.7363145     
   45522397.5337016     
   45381215.2550885     
   45237105.3538491     
   45090032.4714921     
   44939963.5673734     
   44786868.0516922     
   44630717.9215382     
   44471487.8997323     
   44309155.5761643     
   44143701.5512990     
   43975109.5814843     
   43803366.7256536     
   43628463.4929741     
   43450393.9909525     
   43269156.0734582     
   43084751.4880846     
   42897186.0222111     
   42706469.6470916     
   42512616.6592270     
   42315645.8182434     
   42115580.4804320     
   41912448.7270583     
   41706283.4864940     
   41497122.6491677     
   41285009.1742840     
   41069991.1872021     
   40852122.0663239     
   40631460.5182876     
   40408070.6402349     
   40182021.9678753     
   39953389.5080518     
   39722253.7545023     
   39488700.6855066     
   39252821.7421394     
   39014713.7858905     
   38774479.0345060     
   38532224.9750249     
   38288064.2531873     
   38042114.5386600     
   37794498.3659238     
   37545342.9512089     
   37294779.9866205     
   37042945.4136008     
   36789979.1791461     
   36536024.9795702     
   36281229.9976233     
   36025744.6367925     
   35769722.2467280     
   35513318.7863630     
   35256692.1094547     
   35000000.0000000     
   50000000.0000000     
   49935633.3496740     
   49871251.4956960     
   49806788.3904430     
   49742177.9339193     
   49677354.5384229     
   49612253.1445097     
   49546809.1257653     
   49480958.2000061     
   49414636.3579879     
   49347779.8089520     
   49280324.9398126     
   49212208.2847852     
   49143366.5029833     
   49073736.3621744     
   49003254.7274413     
   48931858.5538992     
   48859484.8829105     
   48786070.8414468     
   48711553.6443856     
   48635870.5996302     
   48558959.1160083     
   48480756.7139485     
   48401201.0389683     
   48320229.8780266     
   48237781.1788066     
   48153793.0720081     
   48068203.8967311     
   47980952.2290327     
   47891976.9137533     
   47801217.0996935     
   47708612.2782305     
   47614102.3254670     
   47517627.5479904     
   47419128.7323306     
   47318547.1981943     
   47215824.8555492     
   47110904.2656368     
   47003728.7059724     
   46894242.2393976     
   46782389.7872366     
   46668117.2066023     
   46551371.3718897     
   46432100.2604812     
   46310253.0426823     
   46185780.1758888     
   46058633.5029766     
   45928766.3548893     
   45796133.6573793     
   45660692.0418503     
   45522399.9602154     
   45381217.8036754     
   45237108.0252983     
   45090035.2662483     
   44939966.4854985     
   44786871.0928243     
   44630721.0848498     
   44471491.1838868     
   44309158.9792715     
   44143705.0708688     
   43975113.2143797     
   43803370.4680419     
   43628467.3402770     
   43450397.9377946     
   43269160.1136139     
   43084755.6144222     
   42897190.2266349     
   42706473.9204793     
   42512620.9913621     
   42315650.1977400     
   42115584.8946499     
   41912453.1620036     
   41706287.9267026     
   41497127.0775647     
   41285013.5720126     
   41069995.5334148     
   40852126.3379269     
   40631464.6896297     
   40408074.6827314     
   40182025.8495608     
   39953393.1930597     
   39722257.2024720     
   39488703.8509381     
   39252824.5737242     
   39014716.2258804     
   38774481.0182140     
   38532226.4306054     
   38288065.1019091     
   38042114.6959769     
   37794497.7437613     
   37545341.4620305     
   37294777.5500264     
   37042941.9664555     
   36789974.6906090     
   36536019.4730289     
   36281223.5828805     
   36025737.5590558     
   35769714.9657880     
   35513312.1252216     
   35256687.5447051     
   35000000.0000000     
   50000000.0000000     
   49935631.2349928     
   49871248.3659554     
   49806784.8676069     
   49742174.3551963     
   49677351.0929320     
   49612249.9354579     
   49546806.2028636     
   49480955.5793129     
   49414634.0347550     
   49347777.7663031     
   49280323.1546191     
   49212206.7315713     
   49143365.1564231     
   49073735.1985883     
   49003253.7255972     
   48931857.6953442     
   48859484.1520012     
   48786070.2251972     
   48711553.1322172     
   48635870.1830805     
   48558958.7884339     
   48480756.4702440     
   48401200.8753137     
   48320229.7916670     
   48237781.1678662     
   48153793.1353353     
   48068204.0337705     
   47980952.4397235     
   47891977.1984454     
   47801217.4590810     
   47708612.7132983     
   47614102.8374463     
   47517628.1383229     
   47419129.4026369     
   47318547.9502474     
   47215825.6912500     
   47110905.1869915     
   47003729.7150707     
   46894243.3383917     
   46782390.9783196     
   46668118.4919869     
   46551372.7537856     
   46432101.7410729     
   46310254.6241044     
   46185781.8602019     
   46058635.2921415     
   45928768.2507395     
   45796135.6615937     
   45660694.1559232     
   45522402.1854261     
   45381220.1410569     
   45237110.4756030     
   45090037.8299144     
   44939969.1626139     
   44786873.8830893     
   44630723.9875387     
   44471494.1978084     
   44309162.1027278     
   44143708.3016134     
   43975116.5495738     
   43803373.9042103     
   43628470.8732622     
   43450401.5627100     
   43269163.8247944     
   43084759.4053744     
   42897194.0899835     
   42706477.8479100     
   42512624.9735602     
   42315654.2243221     
   42115588.9540858     
   41912457.2415269     
   41706292.0122034     
   41497131.1534617     
   41285017.6210968     
   41069999.5366577     
   40852130.2742462     
   40631468.5356022     
   40408078.4122463     
   40182029.4334059     
   39953396.5984369     
   39722260.3924453     
   39488706.7838266     
   39252827.2024699     
   39014718.4974423     
   38774482.8730745     
   38532227.8025216     
   38288065.9181024     
   38042114.8780362     
   37794497.2096410     
   37545340.1296524     
   37294775.3431686     
   37042938.8238264     
   36789970.5793468     
   36536014.4084552     
   36281217.6575376     
   36025730.9874341     
   35769708.1574638     
   35513305.8263848     
   35256683.1524942     
   35000000.0000000     
   50000000.0000000     
   49935629.2349242     
   49871245.4607974     
   49806781.6329603     
   49742171.0903034     
   49677347.9633939     
   49612247.0301513     
   49546803.5633819     
   49480953.2177180     
   49414631.9449569     
   49347775.9317463     
   49280321.5534681     
   49212205.3401490     
   49143363.9513982     
   49073734.1582746     
   49003252.8306361     
   48931856.9289721     
   48859483.5000526     
   48786069.6759480     
   48711552.6761450     
   48635869.8125907     
   48558958.4975835     
   48480756.2544832     
   48401200.7312539     
   48320229.7168799     
   48237781.1607140     
   48153793.1948299     
   48068204.1594592     
   47980952.6315953     
   47891977.4568571     
   47801217.7846967     
   47708613.1070416     
   47614103.3004612     
   47517628.6719408     
   47419130.0083495     
   47318548.6296822     
   47215826.4461491     
   47110906.0191913     
   47003730.6264823     
   46894244.3309820     
   46782392.0540926     
   46668119.6529636     
   46551374.0019849     
   46432103.0784902     
   46310256.0526911     
   46185783.3818426     
   46058636.9086308     
   45928769.9637575     
   45796137.4726817     
   45660696.0664558     
   45522404.1965848     
   45381222.2538007     
   45237112.6906389     
   45090040.1476657     
   44939971.5831884     
   44786876.4062456     
   44630726.6126512     
   44471496.9238318     
   44309164.9281599     
   44143711.2244573     
   43975119.5672986     
   43803377.0137111     
   43628474.0708189     
   43450404.8439446     
   43269167.1846275     
   43084762.8379794     
   42897197.5887388     
   42706481.4053478     
   42512628.5813115     
   42315657.8730550     
   42115592.6334356     
   41912460.9400161     
   41706295.7171451     
   41497134.8508449     
   41285021.2954449     
   41070003.1708566     
   40852133.8493311     
   40631472.0304985     
   40408081.8034538     
   40182032.6946217     
   39953399.7001117     
   39722263.3012763     
   39488709.4621970     
   39252829.6078588     
   39014720.5818534     
   38774484.5825569     
   38532229.0769007     
   38288066.6910939     
   38042115.0779897     
   37794496.7612503     
   37545338.9570915     
   37294773.3752578     
   37042936.0020312     
   36789966.8696997     
   36536009.8190604     
   36281212.2642961     
   36025724.9740712     
   35769701.8819932     
   35513299.9506560     
   35256678.9717466     
   35000000.0000000     
   50000000.0000000     
   49935627.3706037     
   49871242.8115927     
   49806778.7170583     
   49742168.1664480     
   49677345.1733843     
   49612244.4486364     
   49546801.2241860     
   49480951.1292945     
   49414630.1002643     
   49347774.3149175     
   49280320.1442915     
   49212204.1170364     
   49143362.8932600     
   49073733.2456235     
   49003252.0461539     
   48931856.2577178     
   48859482.9294418     
   48786069.1955972     
   48711552.2776458     
   48635869.4892582     
   48558958.2442040     
   48480756.0670809     
   48401200.6068820     
   48320229.6534404     
   48237781.1568066     
   48153793.2496266     
   48068204.2726024     
   47980952.8031152     
   47891977.6871067     
   47801218.0742983     
   47708613.4568449     
   47614103.7115085     
   47517629.1454389     
   47419130.5456459     
   47318549.2322434     
   47215827.1155421     
   47110906.7570659     
   47003731.4345541     
   46894245.2110156     
   46782393.0078850     
   46668120.6823274     
   46551375.1087301     
   46432104.2644067     
   46310257.3195296     
   46185784.7312948     
   46058638.3423091     
   45928771.4831733     
   45796139.0792233     
   45660697.7613649     
   45522405.9809316     
   45381224.1284593     
   45237114.6562604     
   45090042.2046501     
   44939973.7316568     
   44786878.6460098     
   44630728.9431836     
   44471499.3442328     
   44309167.4371258     
   44143713.8202464     
   43975122.2476965     
   43803379.7759952     
   43628476.9117220     
   43450407.7596170     
   43269170.1705989     
   43084765.8891180     
   42897200.6992093     
   42706484.5685667     
   42512631.7898976     
   42315661.1187759     
   42115595.9071465     
   41912464.2315882     
   41706299.0153820     
   41497138.1433798     
   41285024.5686174     
   41070006.4095590     
   40852137.0368204     
   40631475.1481655     
   40408084.8305417     
   40182035.6078885     
   39953402.4734326     
   39722265.9051862     
   39488711.8633821     
   39252831.7686178     
   39014722.4595684     
   38774486.1292383     
   38532230.2389089     
   38288067.4091875     
   38042115.2879171     
   37794496.3951799     
   37545337.9462830     
   37294771.6544985     
   37042933.5165482     
   36789963.5854687     
   36536005.7380036     
   36281207.4466093     
   36025719.5730619     
   35769696.2035707     
   35513294.5665011     
   35256675.0492436     
   35000000.0000000     
   50000000.0000000     
   49935625.6674555     
   49871240.4532789     
   49806776.1520592     
   49742165.6116366     
   49677342.7467561     
   49612242.2109091     
   49546799.2019015     
   49480949.3277630     
   49414628.5119408     
   49347772.9250276     
   49280318.9346039     
   49212203.0683570     
   49143361.9869967     
   49073732.4646973     
   49003251.3754552     
   48931855.6842600     
   48859482.4423228     
   48786068.7858499     
   48711551.9380313     
   48635869.2140394     
   48558958.0289225     
   48480755.9083504     
   48401200.5022053     
   48320229.6010523     
   48237781.1555419     
   48153793.2988115     
   48068204.3719663     
   47980952.9527199     
   47891977.8872892     
   47801218.3256264     
   47708613.7600804     
   47614104.0675780     
   47517629.5554094     
   47419131.0107045     
   47318549.7536793     
   47215827.6947308     
   47110907.3954532     
   47003732.1336427     
   46894245.9723502     
   46782393.8330381     
   46668121.5728846     
   46551376.0662753     
   46432105.2905062     
   46310258.4157159     
   46185785.8990496     
   46058639.5830459     
   45928772.7982186     
   45796140.4697974     
   45660699.2285614     
   45522407.5256970     
   45381225.7515702     
   45237116.3583010     
   45090043.9859884     
   44939975.5924196     
   44786880.5860571     
   44630730.9620820     
   44471501.4412282     
   44309169.6111150     
   44143716.0697474     
   43975124.5708192     
   43803382.1704108     
   43628479.3746308     
   43450410.2877169     
   43269172.7600508     
   43084768.5355121     
   42897203.3975284     
   42706487.3131475     
   42512634.5743887     
   42315663.9360914     
   42115598.7494137     
   41912467.0900864     
   41706301.8804698     
   41497141.0044083     
   41285027.4138224     
   41070009.2259298     
   40852139.8099365     
   40631477.8619964     
   40408087.4672027     
   40182038.1473464     
   39953404.8931574     
   39722268.1797489     
   39488713.9640055     
   39252833.6626967     
   39014724.1101922     
   38774487.4947707     
   38532231.2727113     
   38288068.0596142     
   38042115.4987663     
   37794496.1068529     
   37545337.0979967     
   37294770.1879937     
   37042931.3819054     
   36789960.7497946     
   36536002.1982547     
   36281203.2485359     
   36025714.8403570     
   35769691.1901518     
   35513289.7508128     
   35256671.4418938     
   35000000.0000000     
   50000000.0000000     
   49935624.1565209     
   49871238.4245733     
   49806773.9715834     
   49742163.4546421     
   49677340.7075606     
   49612240.3368566     
   49546797.5128606     
   49480947.8264445     
   49414627.1908041     
   49347771.7708300     
   49280317.9314751     
   49212202.1998172     
   49143361.2372151     
   49073731.8192165     
   49003250.8215424     
   48931855.2110130     
   48859482.0406205     
   48786068.4482141     
   48711551.6584443     
   48635868.9877473     
   48558957.8522445     
   48480755.7785024     
   48401200.4171455     
   48320229.5593479     
   48237781.1562587     
   48153793.3414228     
   48068204.4562788     
   47980953.0788151     
   47891978.0554763     
   47801218.5364046     
   47708614.0141093     
   47614104.3656529     
   47517629.8984417     
   47419131.3997051     
   47318550.1897430     
   47215828.1790235     
   47110907.9292002     
   47003732.7181154     
   46894246.6088552     
   46782394.5229049     
   46668122.3174540     
   46551376.8668863     
   46432106.1484832     
   46310259.3323553     
   46185786.8756057     
   46058640.6207159     
   45928773.8981274     
   45796141.6329814     
   45660700.4559517     
   45522408.8181015     
   45381227.1096556     
   45237117.7825736     
   45090045.4767742     
   44939977.1498431     
   44786882.2100205     
   44630732.6522427     
   44471503.1969756     
   44309171.4315473     
   44143717.9536469     
   43975126.5166276     
   43803384.1762028     
   43628481.4380889     
   43450412.4061033     
   43269174.9301804     
   43084770.7537232     
   42897205.6596524     
   42706489.6144765     
   42512636.9096416     
   42315666.2993747     
   42115601.1341780     
   41912469.4890760     
   41706304.2856630     
   41497143.4069439     
   41285029.8039116     
   41070011.5927460     
   40852142.1414794     
   40631480.1449243     
   40408089.6866278     
   40182040.2865865     
   39953406.9334419     
   39722270.0998777     
   39488715.7399651     
   39252835.2672480     
   39014725.5124547     
   38774488.6598487     
   38532232.1614320     
   38288068.6284836     
   38042115.7002935     
   37794495.8904524     
   37545336.4117512     
   37294768.9816440     
   37042929.6115632     
   36789958.3850254     
   36535999.2324504     
   36281199.7145468     
   36025710.8336779     
   35769686.9131036     
   35513285.5894031     
   35256668.2198750     
   35000000.0000000     
   50000000.0000000     
   49935622.8763237     
   49871236.7679171     
   49806772.2105428     
   49742161.7249730     
   49677339.0799426     
   49612238.8462020     
   49546796.1730410     
   49480946.6382133     
   49414626.1471835     
   49347770.8605856     
   49280317.1415024     
   49212201.5166837     
   49143360.6481230     
   49073731.3125454     
   49003250.3871047     
   48931854.8401190     
   48859481.7260253     
   48786068.1839969     
   48711551.4398561     
   48635868.8110492     
   48558957.7145525     
   48480755.6776447     
   48401200.3515380     
   48320229.5278880     
   48237781.1582371     
   48153793.3764505     
   48068204.5242290     
   47980953.1797768     
   47891978.1897169     
   47801218.7043402     
   47708614.2162817     
   47614104.6027106     
   47517630.1711240     
   47419131.7088289     
   47318550.5361918     
   47215828.5637366     
   47110908.3531629     
   47003733.1823501     
   46894247.1144117     
   46782395.0708513     
   46668122.9088669     
   46551377.5028411     
   46432106.8300438     
   46310260.0605636     
   46185787.6514701     
   46058641.4451996     
   45928774.7721367     
   45796142.5573522     
   45660701.4314369     
   45522409.8453563     
   45381228.1892236     
   45237118.9148709     
   45090046.6620742     
   44939978.3882596     
   44786883.5014912     
   44630733.9965111     
   44471504.5935728     
   44309172.8797735     
   44143719.4525516     
   43975128.0649902     
   43803385.7725120     
   43628483.0805220     
   43450414.0925045     
   43269176.6580391     
   43084772.5201506     
   42897207.4613584     
   42706491.4477435     
   42512638.7702977     
   42315668.1827631     
   42115603.0351229     
   41912471.4018429     
   41706306.2039109     
   41497145.3236688     
   41285031.7113762     
   41070013.4823926     
   40852144.0038222     
   40631481.9694165     
   40408091.4614984     
   40182041.9986417     
   39953408.5678295     
   39722271.6398123     
   39488717.1664168     
   39252836.5586063     
   39014726.6441850     
   38774489.6041771     
   38532232.8871136     
   38288069.1007335     
   38042115.8810023     
   37794495.7388473     
   37545335.8857245     
   37294768.0400424     
   37042928.2177946     
   36789956.5125639     
   36535996.8727565     
   36281196.8892692     
   36025707.6124416     
   35769683.4467899     
   35513282.1768487     
   35256665.4710526     
   35000000.0000000     
   50000000.0000000     
   49935621.8755248     
   49871235.5288577     
   49806770.9050730     
   49742160.4528039     
   49677337.8880173     
   49612237.7584533     
   49546795.1979933     
   49480945.7754504     
   49414625.3908755     
   49347770.2020283     
   49280316.5707808     
   49212201.0237606     
   49143360.2235113     
   49073730.9476791     
   49003250.0745082     
   48931854.5734402     
   48859481.4999867     
   48786067.9942998     
   48711551.2830637     
   48635868.6844654     
   48558957.6161053     
   48480755.6057811     
   48401200.3051317     
   48320229.5061619     
   48237781.1606981     
   48153793.4028369     
   48068204.5744682     
   47980953.2539512     
   47891978.2880372     
   47801218.8271243     
   47708614.3639375     
   47614104.7757229     
   47517630.3700426     
   47419131.9342599     
   47318550.7887890     
   47215828.8441941     
   47110908.6622079     
   47003733.5207368     
   46894247.4829140     
   46782395.4702564     
   46668123.3399681     
   46551377.9664309     
   46432107.3269064     
   46310260.5914670     
   46185788.2171584     
   46058642.0463840     
   45928775.4094868     
   45796143.2314868     
   45660702.1429143     
   45522410.5946641     
   45381228.9767679     
   45237119.7409652     
   45090047.5269285     
   44939979.2919679     
   44786884.4440188     
   44630734.9776825     
   44471505.6130580     
   44309173.9370742     
   44143720.5469873     
   43975129.1956836     
   43803386.9383744     
   43628484.2802380     
   43450415.3245161     
   43269177.9205302     
   43084773.8110303     
   42897208.7782432     
   42706492.7879395     
   42512640.1307805     
   42315669.5601560     
   42115604.4256721     
   41912472.8013891     
   41706307.6078549     
   41497146.7269303     
   41285033.1083429     
   41070014.8668577     
   40852145.3689057     
   40631483.3074686     
   40408092.7639799     
   40182043.2559791     
   39953409.7692415     
   39722272.7731065     
   39488718.2177589     
   39252837.5122685     
   39014727.4822860     
   38774490.3064400     
   38532233.4306775     
   38288069.4600803     
   38042116.0280811     
   37794495.6435163     
   37545335.5166644     
   37294767.3663590     
   37042927.2115682     
   36789955.1526887     
   36535995.1507424     
   36281194.8171869     
   36025705.2375885     
   35769680.8684027     
   35513279.6149902     
   35256663.3072657     
   35000000.0000000     
   50000000.0000000     
   49935621.2167038     
   49871234.7543498     
   49806770.0929084     
   49742159.6686842     
   49677337.1558141     
   49612237.0928246     
   49546794.6027682     
   49480945.2499962     
   49414624.9310939     
   49347769.8023316     
   49280316.2248726     
   49212200.7253671     
   49143359.9667350     
   49073730.7272292     
   49003249.8857852     
   48931854.4125515     
   48859481.3637087     
   48786067.8800157     
   48711551.1886880     
   48635868.6083675     
   48558957.5570372     
   48480755.5628113     
   48401200.2775890     
   48320229.4935872     
   48237781.1628043     
   48153793.4194773     
   48068204.6056100     
   47980953.2996554     
   47891978.3484421     
   47801218.9024328     
   47708614.4544069     
   47614104.8816566     
   47517630.4917836     
   47419132.0721850     
   47318550.9433038     
   47215829.0157285     
   47110908.8512123     
   47003733.7276775     
   46894247.7082695     
   46782395.7145132     
   46668123.6036164     
   46551378.2499605     
   46432107.6308020     
   46310260.9162035     
   46185788.5631960     
   46058642.4141630     
   45928775.7994223     
   45796143.6439626     
   45660702.5782776     
   45522411.0532188     
   45381229.4587683     
   45237120.2466094     
   45090048.0563510     
   44939979.8452325     
   44786885.0211111     
   44630735.5785019     
   44471506.2374094     
   44309174.5846600     
   44143721.2173985     
   43975129.8883913     
   43803387.6527203     
   43628485.0154254     
   43450416.0796004     
   43269178.6944090     
   43084774.6024330     
   42897209.5857216     
   42706493.6098552     
   42512640.9652938     
   42315670.4052123     
   42115605.2789871     
   41912473.6604315     
   41706308.4698254     
   41497147.5887370     
   41285033.9665705     
   41070015.7177289     
   40852146.2082339     
   40631484.1305987     
   40408093.5657152     
   40182044.0304922     
   39953410.5099670     
   39722273.4726160     
   39488718.8676169     
   39252838.1028745     
   39014728.0027108     
   38774490.7442685     
   38532233.7718846     
   38288069.6889682     
   38042116.1273434     
   37794495.5944664     
   37545335.2998022     
   37294766.9622162     
   37042926.6024299     
   36789954.3243745     
   36535994.0971875     
   36281193.5425008     
   36025703.7708793     
   35769679.2588653     
   35513278.0088373     
   35256661.8732792     
   35000000.0000000     
   50000000.0000000     
   49935620.9816190     
   49871234.4891157     
   49806769.8149916     
   49742159.4024641     
   49677336.9076415     
   49612236.8679200     
   49546794.4019594     
   49480945.0730409     
   49414624.7764485     
   49347769.6680590     
   49280316.1087829     
   49212200.6253117     
   49143359.8806974     
   49073730.6534105     
   49003249.8226250     
   48931854.3587334     
   48859481.3181450     
   48786067.8418253     
   48711551.1571707     
   48635868.5829771     
   48558957.5373568     
   48480755.5485308     
   48401200.2684860     
   48320229.4895104     
   48237781.1636604     
   48153793.4252199     
   48068204.6162309     
   47980953.3151777     
   47891978.3689148     
   47801218.9279266     
   47708614.4850106     
   47614104.9174744     
   47517630.5329330     
   47419132.1187946     
   47318550.9955121     
   47215829.0736822     
   47110908.9150647     
   47003733.7975875     
   46894247.7843999     
   46782395.7970295     
   46668123.6926856     
   46551378.3457492     
   46432107.7334752     
   46310261.0259229     
   46185788.6801184     
   46058642.5384384     
   45928775.9311921     
   45796143.7833580     
   45660702.7254172     
   45522411.2082066     
   45381229.6216917     
   45237120.4175369     
   45090048.2353294     
   44939980.0322849     
   44786885.2162343     
   44630735.7816634     
   44471506.4485451     
   44309174.8036710     
   44143721.4441485     
   43975130.1227033     
   43803387.8943738     
   43628485.2641531     
   43450416.3350851     
   43269178.9562802     
   43084774.8702638     
   42897209.8590246     
   42706493.8880793     
   42512641.2478197     
   42315670.6913486     
   42115605.5679648     
   41912473.9513984     
   41706308.7618391     
   41497147.8807566     
   41285034.2574463     
   41070016.0061893     
   40852146.4928699     
   40631484.4098431     
   40408093.8378188     
   40182044.2934931     
   39953410.7616545     
   39722273.7104876     
   39488719.0888292     
   39252838.3041892     
   39014728.1804381     
   38774490.8942113     
   38532233.8892955     
   38288069.7685219     
   38042116.1631595     
   37794495.5801681     
   37545335.2287267     
   37294766.8276322     
   37042926.3982332     
   36789954.0453931     
   36535993.7413144     
   36281193.1100151     
   36025703.2722964     
   35769678.7067119     
   35513277.4578306     
   35256661.3592179     
   35000000.0000000     
VECTORS u double 
    0.00000E+00         0.00000E+00         0.00000E+00
    0.00000E+00         0.00000E+00         0.00000E+00
    0.00000E+00         0.00000E+00         0.00000E+00
    0.00000E+00         0.00000E+00         0.00000E+00
    0.00000E+00         0.00000E+00         0.00000E+00
    0.00000E+00         0.00000E+00         0.00000E+00
    0.00000E+00         0.00000E+00         0.00000E+00
    0.00000E+00         0.00000E+00         0.00000E+00
    0.00000E+00         0.00000E+00         0.00000E+00
    0.00000E+00         0.00000E+00         0.00000E+00
    0.00000E+00         0.00000E+00         0.00000E+00
    0.00000E+00         0.00000E+00         0.00000E+00
    0.00000E+00         0.00000E+00         0.00000E+00
    0.00000E+00         0.00000E+00         0.00000E+00
    0.00000E+00         0.00000E+00         0.00000E+00
    0.00000E+00         0.00000E+00         0.00000E+00
    0.00000E+00         0.00000E+00         0.00000E+00
    0.00000E+00         0.00000E+00         0.00000E+00
    0.00000E+00         0.00000E+00         0.00000E+00
    0.00000E+00         0.00000E+00         0.00000E+00
    0.00000E+00         0.00000E+00         0.00000E+00
    0.00000E+00         0.00000E+00         0.00000E+00
    0.00000E+00         0.00000E+00         0.00000E+00
    0.00000E+00         0.00000E+00         0.00000E+00
    0.00000E+00         0.00000E+00         0.00000E+00
    0.00000E+00         0.00000E+00         0.00000E+00
    0.00000E+00         0.00000E+00         0.00000E+00
    0.00000E+00         0.00000E+00         0.00000E+00
    0.00000E+00         0.00000E+00         0.00000E+00
    0.00000E+00         0.00000E+00         0.00000E+00
    0.00000E+00         0.00000E+00         0.00000E+00
    0.00000E+00         0.00000E+00         0.00000E+00
    0.00000E+00         0.00000E+00         0.00000E+00
    0.00000E+00         0.00000E+00         0.00000E+00
    0.00000E+00         0.00000E+00         0.00000E+00
    0.00000E+00         0.00000E+00         0.00000E+00
    0.00000E+00         0.00000E+00         0.00000E+00
    0.00000E+00         0.00000E+00         0.00000E+00
    0.00000E+00         0.00000E+00         0.00000E+00
    0.00000E+00         0.00000E+00         0.00000E+00
    0.00000E+00         0.00000E+00         0.00000E+00
    0.00000E+00         0.00000E+00         0.00000E+00
    0.00000E+00         0.00000E+00         0.00000E+00
    0.00000E+00         0.00000E+00         0.00000E+00
    0.00000E+00         0.00000E+00         0.00000E+00
    0.00000E+00         0.00000E+00         0.00000E+00
    0.00000E+00         0.00000E+00         0.00000E+00
    0.00000E+00         0.00000E+00         0.00000E+00
    0.00000E+00         0.00000E+00         0.00000E+00
    0.00000E+00         0.00000E+00         0.00000E+00
    0.00000E+00         0.00000E+00         0.00000E+00
    0.00000E+00         0.00000E+00         0.00000E+00
    0.00000E+00         0.00000E+00         0.00000E+00
    0.00000E+00         0.00000E+00         0.00000E+00
    0.00000E+00         0.00000E+00         0.00000E+00
    0.00000E+00         0.00000E+00         0.00000E+00
    0.00000E+00         0.00000E+00         0.00000E+00
    0.00000E+00         0.00000E+00         0.00000E+00
    0.00000E+00         0.00000E+00         0.00000E+00
    0.00000E+00         0.00000E+00         0.00000E+00
    0.00000E+00         0.00000E+00         0.00000E+00
    0.00000E+00         0.00000E+00         0.00000E+00
    0.00000E+00         0.00000E+00         0.00000E+00
    0.00000E+00         0.00000E+00         0.00000E+00
    0.00000E+00         0.00000E+00         0.00000E+00
    0.00000E+00         0.00000E+00         0.00000E+00
    0.00000E+00         0.00000E+00         0.00000E+00
    0.00000E+00         0.00000E+00         0.00000E+00
    0.00000E+00         0.00000E+00         0.00000E+00
    0.00000E+00         0.00000E+00         0.00000E+00
    0.00000E+00         0.00000E+00         0.00000E+00
    0.00000E+00         0.00000E+00         0.00000E+00
    0.00000E+00         0.00000E+00         0.00000E+00
    0.00000E+00         0.00000E+00         0.00000E+00
    0.00000E+00         0.00000E+00         0.00000E+00
    0.00000E+00         0.00000E+00         0.00000E+00
    0.00000E+00         0.00000E+00         0.00000E+00
    0.00000E+00         0.00000E+00         0.00000E+00
    0.00000E+00         0.00000E+00         0.00000E+00
    0.00000E+00         0.00000E+00         0.00000E+00
    0.00000E+00         0.00000E+00         0.00000E+00
    0.00000E+00         0.00000E+00         0.00000E+00
    0.00000E+00         0.00000E+00         0.00000E+00
    0.00000E+00         0.00000E+00         0.00000E+00
    0.00000E+00         0.00000E+00         0.00000E+00
    0.00000E+00         0.00000E+00         0.00000E+00
    0.00000E+00         0.00000E+00         0.00000E+00
    0.00000E+00         0.00000E+00         0.00000E+00
    0.00000E+00         0.00000E+00         0.00000E+00
    0.00000E+00         0.00000E+00         0.00000E+00
    0.00000E+00         0.00000E+00         0.00000E+00
    0.00000E+00         0.00000E+00         0.00000E+00
    0.00000E+00         0.00000E+00         0.00000E+00
    0.00000E+00         0.00000E+00         0.00000E+00
    0.00000E+00         0.00000E+00         0.00000E+00
    0.00000E+00         0.00000E+00         0.00000E+00
    0.00000E+00         0.00000E+00         0.00000E+00
    0.00000E+00         0.00000E+00         0.00000E+00
    0.00000E+00         0.00000E+00         0.00000E+00
    0.00000E+00         0.00000E+00         0.00000E+00
    0.00000E+00         0.00000E+00         0.00000E+00
    0.00000E+00         0.10170E-05         0.00000E+00
    0.83233E-05         0.90208E-07         0.00000E+00
    0.13313E-04        -0.16957E-05         0.00000E+00
    0.17305E-04        -0.36165E-05         0.00000E+00
    0.20635E-04        -0.58095E-05         0.00000E+00
    0.23586E-04        -0.81687E-05         0.00000E+00
    0.26296E-04        -0.10686E-04         0.00000E+00
    0.28853E-04        -0.13318E-04         0.00000E+00
    0.31306E-04        -0.16045E-04         0.00000E+00
    0.33685E-04        -0.18840E-04         0.00000E+00
    0.36004E-04        -0.21689E-04         0.00000E+00
    0.38269E-04        -0.24578E-04         0.00000E+00
    0.40484E-04        -0.27499E-04         0.00000E+00
    0.42648E-04        -0.30445E-04         0.00000E+00
    0.44762E-04        -0.33415E-04         0.00000E+00
    0.46827E-04        -0.36405E-04         0.00000E+00
    0.48845E-04        -0.39418E-04         0.00000E+00
    0.50817E-04        -0.42455E-04         0.00000E+00
    0.52746E-04        -0.45517E-04         0.00000E+00
    0.54636E-04        -0.48608E-04         0.00000E+00
    0.56492E-04        -0.51731E-04         0.00000E+00
    0.58316E-04        -0.54890E-04         0.00000E+00
    0.60114E-04        -0.58088E-04         0.00000E+00
    0.61890E-04        -0.61328E-04         0.00000E+00
    0.63649E-04        -0.64615E-04         0.00000E+00
    0.65394E-04        -0.67952E-04         0.00000E+00
    0.67130E-04        -0.71342E-04         0.00000E+00
    0.68860E-04        -0.74789E-04         0.00000E+00
    0.70587E-04        -0.78296E-04         0.00000E+00
    0.72316E-04        -0.81866E-04         0.00000E+00
    0.74048E-04        -0.85503E-04         0.00000E+00
    0.75786E-04        -0.89210E-04         0.00000E+00
    0.77533E-04        -0.92990E-04         0.00000E+00
    0.79289E-04        -0.96845E-04         0.00000E+00
    0.81057E-04        -0.10078E-03         0.00000E+00
    0.82837E-04        -0.10479E-03         0.00000E+00
    0.84631E-04        -0.10889E-03         0.00000E+00
    0.86439E-04        -0.11308E-03         0.00000E+00
    0.88262E-04        -0.11736E-03         0.00000E+00
    0.90099E-04        -0.12173E-03         0.00000E+00
    0.91951E-04        -0.12619E-03         0.00000E+00
    0.93818E-04        -0.13075E-03         0.00000E+00
    0.95697E-04        -0.13541E-03         0.00000E+00
    0.97590E-04        -0.14017E-03         0.00000E+00
    0.99494E-04        -0.14504E-03         0.00000E+00
    0.10141E-03        -0.15002E-03         0.00000E+00
    0.10333E-03        -0.15510E-03         0.00000E+00
    0.10526E-03        -0.16030E-03         0.00000E+00
    0.10720E-03        -0.16561E-03         0.00000E+00
    0.10914E-03        -0.17103E-03         0.00000E+00
    0.11108E-03        -0.17658E-03         0.00000E+00
    0.11301E-03        -0.18224E-03         0.00000E+00
    0.11494E-03        -0.18803E-03         0.00000E+00
    0.11686E-03        -0.19393E-03         0.00000E+00
    0.11877E-03        -0.19997E-03         0.00000E+00
    0.12067E-03        -0.20613E-03         0.00000E+00
    0.12254E-03        -0.21242E-03         0.00000E+00
    0.12438E-03        -0.21885E-03         0.00000E+00
    0.12620E-03        -0.22540E-03         0.00000E+00
    0.12798E-03        -0.23209E-03         0.00000E+00
    0.12972E-03        -0.23891E-03         0.00000E+00
    0.13141E-03        -0.24587E-03         0.00000E+00
    0.13304E-03        -0.25296E-03         0.00000E+00
    0.13462E-03        -0.26019E-03         0.00000E+00
    0.13612E-03        -0.26757E-03         0.00000E+00
    0.13754E-03        -0.27508E-03         0.00000E+00
    0.13888E-03        -0.28273E-03         0.00000E+00
    0.14012E-03        -0.29053E-03         0.00000E+00
    0.14125E-03        -0.29847E-03         0.00000E+00
    0.14226E-03        -0.30655E-03         0.00000E+00
    0.14314E-03        -0.31477E-03         0.00000E+00
    0.14388E-03        -0.32314E-03         0.00000E+00
    0.14446E-03        -0.33166E-03         0.00000E+00
    0.14486E-03        -0.34032E-03         0.00000E+00
    0.14508E-03        -0.34913E-03         0.00000E+00
    0.14508E-03        -0.35809E-03         0.00000E+00
    0.14487E-03        -0.36720E-03         0.00000E+00
    0.14441E-03        -0.37645E-03         0.00000E+00
    0.14370E-03        -0.38586E-03         0.00000E+00
    0.14271E-03        -0.39542E-03         0.00000E+00
    0.14142E-03        -0.40513E-03         0.00000E+00
    0.13981E-03        -0.41500E-03         0.00000E+00
    0.13787E-03        -0.42501E-03         0.00000E+00
    0.13559E-03        -0.43518E-03         0.00000E+00
    0.13295E-03        -0.44549E-03         0.00000E+00
    0.12994E-03        -0.45594E-03         0.00000E+00
    0.12656E-03        -0.46652E-03         0.00000E+00
    0.12281E-03        -0.47721E-03         0.00000E+00
    0.11868E-03        -0.48800E-03         0.00000E+00
    0.11417E-03        -0.49886E-03         0.00000E+00
    0.10930E-03        -0.50975E-03         0.00000E+00
    0.10406E-03        -0.52060E-03         0.00000E+00
    0.98423E-04        -0.53137E-03         0.00000E+00
    0.92344E-04        -0.54196E-03         0.00000E+00
    0.85718E-04        -0.55226E-03         0.00000E+00
    0.78354E-04        -0.56217E-03         0.00000E+00
    0.69909E-04        -0.57151E-03         0.00000E+00
    0.59846E-04        -0.58022E-03         0.00000E+00
    0.47056E-04        -0.58787E-03         0.00000E+00
    0.30208E-04        -0.59500E-03         0.00000E+00
    0.00000E+00        -0.59870E-03         0.00000E+00
    0.00000E+00         0.78831E-06         0.00000E+00
    0.15671E-04        -0.73033E-06         0.00000E+00
    0.25883E-04        -0.39848E-05         0.00000E+00
    0.33893E-04        -0.77628E-05         0.00000E+00
    0.40640E-04        -0.12058E-04         0.00000E+00
    0.46600E-04        -0.16743E-04         0.00000E+00
    0.52070E-04        -0.21746E-04         0.00000E+00
    0.57220E-04        -0.26995E-04         0.00000E+00
    0.62152E-04        -0.32434E-04         0.00000E+00
    0.66925E-04        -0.38016E-04         0.00000E+00
    0.71569E-04        -0.43705E-04         0.00000E+00
    0.76099E-04        -0.49476E-04         0.00000E+00
    0.80522E-04        -0.55310E-04         0.00000E+00
    0.84841E-04        -0.61195E-04         0.00000E+00
    0.89057E-04        -0.67126E-04         0.00000E+00
    0.93174E-04        -0.73101E-04         0.00000E+00
    0.97193E-04        -0.79120E-04         0.00000E+00
    0.10112E-03        -0.85186E-04         0.00000E+00
    0.10496E-03        -0.91305E-04         0.00000E+00
    0.10873E-03        -0.97482E-04         0.00000E+00
    0.11242E-03        -0.10372E-03         0.00000E+00
    0.11605E-03        -0.11004E-03         0.00000E+00
    0.11963E-03        -0.11643E-03         0.00000E+00
    0.12317E-03        -0.12291E-03         0.00000E+00
    0.12667E-03        -0.12948E-03         0.00000E+00
    0.13014E-03        -0.13615E-03         0.00000E+00
    0.13359E-03        -0.14293E-03         0.00000E+00
    0.13704E-03        -0.14982E-03         0.00000E+00
    0.14048E-03        -0.15684E-03         0.00000E+00
    0.14392E-03        -0.16398E-03         0.00000E+00
    0.14736E-03        -0.17125E-03         0.00000E+00
    0.15082E-03        -0.17867E-03         0.00000E+00
    0.15430E-03        -0.18623E-03         0.00000E+00
    0.15779E-03        -0.19394E-03         0.00000E+00
    0.16131E-03        -0.20181E-03         0.00000E+00
    0.16486E-03        -0.20984E-03         0.00000E+00
    0.16843E-03        -0.21804E-03         0.00000E+00
    0.17202E-03        -0.22642E-03         0.00000E+00
    0.17565E-03        -0.23497E-03         0.00000E+00
    0.17931E-03        -0.24371E-03         0.00000E+00
    0.18299E-03        -0.25264E-03         0.00000E+00
    0.18670E-03        -0.26176E-03         0.00000E+00
    0.19045E-03        -0.27109E-03         0.00000E+00
    0.19421E-03        -0.28061E-03         0.00000E+00
    0.19800E-03        -0.29035E-03         0.00000E+00
    0.20181E-03        -0.30030E-03         0.00000E+00
    0.20564E-03        -0.31047E-03         0.00000E+00
    0.20948E-03        -0.32087E-03         0.00000E+00
    0.21333E-03        -0.33149E-03         0.00000E+00
    0.21719E-03        -0.34234E-03         0.00000E+00
    0.22104E-03        -0.35343E-03         0.00000E+00
    0.22489E-03        -0.36475E-03         0.00000E+00
    0.22873E-03        -0.37632E-03         0.00000E+00
    0.23256E-03        -0.38814E-03         0.00000E+00
    0.23635E-03        -0.40021E-03         0.00000E+00
    0.24012E-03        -0.41253E-03         0.00000E+00
    0.24384E-03        -0.42511E-03         0.00000E+00
    0.24751E-03        -0.43795E-03         0.00000E+00
    0.25113E-03        -0.45105E-03         0.00000E+00
    0.25467E-03        -0.46442E-03         0.00000E+00
    0.25812E-03        -0.47806E-03         0.00000E+00
    0.26148E-03        -0.49197E-03         0.00000E+00
    0.26473E-03        -0.50615E-03         0.00000E+00
    0.26786E-03        -0.52061E-03         0.00000E+00
    0.27085E-03        -0.53534E-03         0.00000E+00
    0.27368E-03        -0.55035E-03         0.00000E+00
    0.27634E-03        -0.56565E-03         0.00000E+00
    0.27880E-03        -0.58122E-03         0.00000E+00
    0.28105E-03        -0.59708E-03         0.00000E+00
    0.28306E-03        -0.61323E-03         0.00000E+00
    0.28481E-03        -0.62966E-03         0.00000E+00
    0.28627E-03        -0.64638E-03         0.00000E+00
    0.28741E-03        -0.66339E-03         0.00000E+00
    0.28821E-03        -0.68069E-03         0.00000E+00
    0.28864E-03        -0.69828E-03         0.00000E+00
    0.28865E-03        -0.71616E-03         0.00000E+00
    0.28822E-03        -0.73435E-03         0.00000E+00
    0.28731E-03        -0.75282E-03         0.00000E+00
    0.28588E-03        -0.77160E-03         0.00000E+00
    0.28389E-03        -0.79068E-03         0.00000E+00
    0.28132E-03        -0.81006E-03         0.00000E+00
    0.27812E-03        -0.82974E-03         0.00000E+00
    0.27426E-03        -0.84972E-03         0.00000E+00
    0.26971E-03        -0.87000E-03         0.00000E+00
    0.26444E-03        -0.89057E-03         0.00000E+00
    0.25843E-03        -0.91142E-03         0.00000E+00
    0.25168E-03        -0.93252E-03         0.00000E+00
    0.24417E-03        -0.95386E-03         0.00000E+00
    0.23590E-03        -0.97539E-03         0.00000E+00
    0.22687E-03        -0.99705E-03         0.00000E+00
    0.21709E-03        -0.10188E-02         0.00000E+00
    0.20654E-03        -0.10404E-02         0.00000E+00
    0.19517E-03        -0.10619E-02         0.00000E+00
    0.18288E-03        -0.10830E-02         0.00000E+00
    0.16945E-03        -0.11035E-02         0.00000E+00
    0.15450E-03        -0.11232E-02         0.00000E+00
    0.13735E-03        -0.11417E-02         0.00000E+00
    0.11686E-03        -0.11588E-02         0.00000E+00
    0.91160E-04        -0.11738E-02         0.00000E+00
    0.56524E-04        -0.11868E-02         0.00000E+00
    0.00000E+00        -0.11929E-02         0.00000E+00
    0.00000E+00        -0.48056E-06         0.00000E+00
    0.22307E-04        -0.24184E-05         0.00000E+00
    0.37734E-04        -0.68998E-05         0.00000E+00
    0.49822E-04        -0.12430E-04         0.00000E+00
    0.60035E-04        -0.18761E-04         0.00000E+00
    0.69060E-04        -0.25726E-04         0.00000E+00
    0.77333E-04        -0.33187E-04         0.00000E+00
    0.85109E-04        -0.41033E-04         0.00000E+00
    0.92543E-04        -0.49171E-04         0.00000E+00
    0.99723E-04        -0.57528E-04         0.00000E+00
    0.10670E-03        -0.66049E-04         0.00000E+00
    0.11349E-03        -0.74692E-04         0.00000E+00
    0.12012E-03        -0.83431E-04         0.00000E+00
    0.12658E-03        -0.92248E-04         0.00000E+00
    0.13289E-03        -0.10113E-03         0.00000E+00
    0.13904E-03        -0.11008E-03         0.00000E+00
    0.14505E-03        -0.11910E-03         0.00000E+00
    0.15092E-03        -0.12819E-03         0.00000E+00
    0.15665E-03        -0.13736E-03         0.00000E+00
    0.16227E-03        -0.14662E-03         0.00000E+00
    0.16779E-03        -0.15597E-03         0.00000E+00
    0.17321E-03        -0.16544E-03         0.00000E+00
    0.17855E-03        -0.17502E-03         0.00000E+00
    0.18383E-03        -0.18473E-03         0.00000E+00
    0.18905E-03        -0.19459E-03         0.00000E+00
    0.19424E-03        -0.20459E-03         0.00000E+00
    0.19940E-03        -0.21476E-03         0.00000E+00
    0.20454E-03        -0.22510E-03         0.00000E+00
    0.20967E-03        -0.23562E-03         0.00000E+00
    0.21480E-03        -0.24633E-03         0.00000E+00
    0.21995E-03        -0.25724E-03         0.00000E+00
    0.22511E-03        -0.26837E-03         0.00000E+00
    0.23030E-03        -0.27971E-03         0.00000E+00
    0.23552E-03        -0.29128E-03         0.00000E+00
    0.24077E-03        -0.30309E-03         0.00000E+00
    0.24605E-03        -0.31514E-03         0.00000E+00
    0.25138E-03        -0.32744E-03         0.00000E+00
    0.25675E-03        -0.34001E-03         0.00000E+00
    0.26216E-03        -0.35284E-03         0.00000E+00
    0.26762E-03        -0.36595E-03         0.00000E+00
    0.27312E-03        -0.37935E-03         0.00000E+00
    0.27866E-03        -0.39304E-03         0.00000E+00
    0.28424E-03        -0.40703E-03         0.00000E+00
    0.28986E-03        -0.42132E-03         0.00000E+00
    0.29552E-03        -0.43593E-03         0.00000E+00
    0.30120E-03        -0.45086E-03         0.00000E+00
    0.30691E-03        -0.46611E-03         0.00000E+00
    0.31264E-03        -0.48171E-03         0.00000E+00
    0.31839E-03        -0.49764E-03         0.00000E+00
    0.32414E-03        -0.51391E-03         0.00000E+00
    0.32990E-03        -0.53055E-03         0.00000E+00
    0.33564E-03        -0.54753E-03         0.00000E+00
    0.34137E-03        -0.56489E-03         0.00000E+00
    0.34708E-03        -0.58261E-03         0.00000E+00
    0.35274E-03        -0.60071E-03         0.00000E+00
    0.35836E-03        -0.61919E-03         0.00000E+00
    0.36391E-03        -0.63805E-03         0.00000E+00
    0.36939E-03        -0.65731E-03         0.00000E+00
    0.37478E-03        -0.67696E-03         0.00000E+00
    0.38006E-03        -0.69700E-03         0.00000E+00
    0.38521E-03        -0.71745E-03         0.00000E+00
    0.39023E-03        -0.73830E-03         0.00000E+00
    0.39507E-03        -0.75956E-03         0.00000E+00
    0.39974E-03        -0.78123E-03         0.00000E+00
    0.40419E-03        -0.80332E-03         0.00000E+00
    0.40842E-03        -0.82582E-03         0.00000E+00
    0.41238E-03        -0.84874E-03         0.00000E+00
    0.41605E-03        -0.87208E-03         0.00000E+00
    0.41940E-03        -0.89585E-03         0.00000E+00
    0.42240E-03        -0.92004E-03         0.00000E+00
    0.42500E-03        -0.94466E-03         0.00000E+00
    0.42718E-03        -0.96971E-03         0.00000E+00
    0.42888E-03        -0.99518E-03         0.00000E+00
    0.43007E-03        -0.10211E-02         0.00000E+00
    0.43069E-03        -0.10474E-02         0.00000E+00
    0.43071E-03        -0.10742E-02         0.00000E+00
    0.43006E-03        -0.11014E-02         0.00000E+00
    0.42869E-03        -0.11291E-02         0.00000E+00
    0.42655E-03        -0.11572E-02         0.00000E+00
    0.42359E-03        -0.11858E-02         0.00000E+00
    0.41974E-03        -0.12148E-02         0.00000E+00
    0.41495E-03        -0.12442E-02         0.00000E+00
    0.40918E-03        -0.12741E-02         0.00000E+00
    0.40237E-03        -0.13045E-02         0.00000E+00
    0.39448E-03        -0.13352E-02         0.00000E+00
    0.38549E-03        -0.13664E-02         0.00000E+00
    0.37537E-03        -0.13980E-02         0.00000E+00
    0.36410E-03        -0.14299E-02         0.00000E+00
    0.35169E-03        -0.14622E-02         0.00000E+00
    0.33812E-03        -0.14946E-02         0.00000E+00
    0.32339E-03        -0.15271E-02         0.00000E+00
    0.30747E-03        -0.15595E-02         0.00000E+00
    0.29028E-03        -0.15916E-02         0.00000E+00
    0.27165E-03        -0.16231E-02         0.00000E+00
    0.25126E-03        -0.16538E-02         0.00000E+00
    0.22851E-03        -0.16831E-02         0.00000E+00
    0.20242E-03        -0.17106E-02         0.00000E+00
    0.17129E-03        -0.17357E-02         0.00000E+00
    0.13241E-03        -0.17577E-02         0.00000E+00
    0.80006E-04        -0.17756E-02         0.00000E+00
    0.00000E+00        -0.17833E-02         0.00000E+00
    0.00000E+00        -0.26557E-05         0.00000E+00
    0.28398E-04        -0.49185E-05         0.00000E+00
    0.48928E-04        -0.10450E-04         0.00000E+00
    0.65132E-04        -0.17618E-04         0.00000E+00
    0.78847E-04        -0.25922E-04         0.00000E+00
    0.90982E-04        -0.35121E-04         0.00000E+00
    0.10210E-03        -0.45012E-04         0.00000E+00
    0.11253E-03        -0.55434E-04         0.00000E+00
    0.12249E-03        -0.66256E-04         0.00000E+00
    0.13209E-03        -0.77377E-04         0.00000E+00
    0.14140E-03        -0.88719E-04         0.00000E+00
    0.15046E-03        -0.10023E-03         0.00000E+00
    0.15928E-03        -0.11186E-03         0.00000E+00
    0.16788E-03        -0.12360E-03         0.00000E+00
    0.17626E-03        -0.13543E-03         0.00000E+00
    0.18444E-03        -0.14735E-03         0.00000E+00
    0.19242E-03        -0.15936E-03         0.00000E+00
    0.20021E-03        -0.17147E-03         0.00000E+00
    0.20782E-03        -0.18368E-03         0.00000E+00
    0.21528E-03        -0.19602E-03         0.00000E+00
    0.22260E-03        -0.20848E-03         0.00000E+00
    0.22979E-03        -0.22109E-03         0.00000E+00
    0.23688E-03        -0.23386E-03         0.00000E+00
    0.24388E-03        -0.24680E-03         0.00000E+00
    0.25081E-03        -0.25994E-03         0.00000E+00
    0.25769E-03        -0.27327E-03         0.00000E+00
    0.26453E-03        -0.28683E-03         0.00000E+00
    0.27135E-03        -0.30061E-03         0.00000E+00
    0.27816E-03        -0.31464E-03         0.00000E+00
    0.28497E-03        -0.32892E-03         0.00000E+00
    0.29180E-03        -0.34348E-03         0.00000E+00
    0.29865E-03        -0.35831E-03         0.00000E+00
    0.30553E-03        -0.37343E-03         0.00000E+00
    0.31245E-03        -0.38886E-03         0.00000E+00
    0.31942E-03        -0.40461E-03         0.00000E+00
    0.32643E-03        -0.42068E-03         0.00000E+00
    0.33350E-03        -0.43709E-03         0.00000E+00
    0.34062E-03        -0.45385E-03         0.00000E+00
    0.34780E-03        -0.47097E-03         0.00000E+00
    0.35504E-03        -0.48845E-03         0.00000E+00
    0.36233E-03        -0.50632E-03         0.00000E+00
    0.36968E-03        -0.52457E-03         0.00000E+00
    0.37709E-03        -0.54323E-03         0.00000E+00
    0.38454E-03        -0.56229E-03         0.00000E+00
    0.39204E-03        -0.58177E-03         0.00000E+00
    0.39958E-03        -0.60168E-03         0.00000E+00
    0.40716E-03        -0.62202E-03         0.00000E+00
    0.41476E-03        -0.64281E-03         0.00000E+00
    0.42238E-03        -0.66405E-03         0.00000E+00
    0.43001E-03        -0.68576E-03         0.00000E+00
    0.43764E-03        -0.70793E-03         0.00000E+00
    0.44526E-03        -0.73058E-03         0.00000E+00
    0.45286E-03        -0.75372E-03         0.00000E+00
    0.46043E-03        -0.77735E-03         0.00000E+00
    0.46794E-03        -0.80147E-03         0.00000E+00
    0.47539E-03        -0.82611E-03         0.00000E+00
    0.48275E-03        -0.85125E-03         0.00000E+00
    0.49002E-03        -0.87692E-03         0.00000E+00
    0.49716E-03        -0.90310E-03         0.00000E+00
    0.50416E-03        -0.92982E-03         0.00000E+00
    0.51100E-03        -0.95707E-03         0.00000E+00
    0.51764E-03        -0.98486E-03         0.00000E+00
    0.52407E-03        -0.10132E-02         0.00000E+00
    0.53025E-03        -0.10421E-02         0.00000E+00
    0.53616E-03        -0.10715E-02         0.00000E+00
    0.54176E-03        -0.11015E-02         0.00000E+00
    0.54701E-03        -0.11320E-02         0.00000E+00
    0.55187E-03        -0.11631E-02         0.00000E+00
    0.55631E-03        -0.11948E-02         0.00000E+00
    0.56028E-03        -0.12270E-02         0.00000E+00
    0.56373E-03        -0.12598E-02         0.00000E+00
    0.56661E-03        -0.12931E-02         0.00000E+00
    0.56887E-03        -0.13270E-02         0.00000E+00
    0.57044E-03        -0.13615E-02         0.00000E+00
    0.57126E-03        -0.13966E-02         0.00000E+00
    0.57127E-03        -0.14323E-02         0.00000E+00
    0.57041E-03        -0.14685E-02         0.00000E+00
    0.56859E-03        -0.15053E-02         0.00000E+00
    0.56574E-03        -0.15427E-02         0.00000E+00
    0.56180E-03        -0.15807E-02         0.00000E+00
    0.55669E-03        -0.16193E-02         0.00000E+00
    0.55032E-03        -0.16585E-02         0.00000E+00
    0.54265E-03        -0.16982E-02         0.00000E+00
    0.53360E-03        -0.17386E-02         0.00000E+00
    0.52311E-03        -0.17795E-02         0.00000E+00
    0.51114E-03        -0.18210E-02         0.00000E+00
    0.49766E-03        -0.18630E-02         0.00000E+00
    0.48265E-03        -0.19055E-02         0.00000E+00
    0.46608E-03        -0.19483E-02         0.00000E+00
    0.44794E-03        -0.19914E-02         0.00000E+00
    0.42823E-03        -0.20346E-02         0.00000E+00
    0.40688E-03        -0.20777E-02         0.00000E+00
    0.38378E-03        -0.21204E-02         0.00000E+00
    0.35870E-03        -0.21623E-02         0.00000E+00
    0.33119E-03        -0.22030E-02         0.00000E+00
    0.30047E-03        -0.22418E-02         0.00000E+00
    0.26523E-03        -0.22781E-02         0.00000E+00
    0.22328E-03        -0.23110E-02         0.00000E+00
    0.17106E-03        -0.23395E-02         0.00000E+00
    0.10132E-03        -0.23615E-02         0.00000E+00
    0.00000E+00        -0.23706E-02         0.00000E+00
    0.00000E+00        -0.56419E-05         0.00000E+00
    0.34056E-04        -0.81761E-05         0.00000E+00
    0.59536E-04        -0.14632E-04         0.00000E+00
    0.79861E-04        -0.23328E-04         0.00000E+00
    0.97107E-04        -0.33543E-04         0.00000E+00
    0.11239E-03        -0.44933E-04         0.00000E+00
    0.12637E-03        -0.57224E-04         0.00000E+00
    0.13949E-03        -0.70201E-04         0.00000E+00
    0.15199E-03        -0.83692E-04         0.00000E+00
    0.16402E-03        -0.97563E-04         0.00000E+00
    0.17567E-03        -0.11172E-03         0.00000E+00
    0.18699E-03        -0.12608E-03         0.00000E+00
    0.19801E-03        -0.14060E-03         0.00000E+00
    0.20873E-03        -0.15525E-03         0.00000E+00
    0.21918E-03        -0.17002E-03         0.00000E+00
    0.22937E-03        -0.18491E-03         0.00000E+00
    0.23930E-03        -0.19990E-03         0.00000E+00
    0.24899E-03        -0.21502E-03         0.00000E+00
    0.25847E-03        -0.23027E-03         0.00000E+00
    0.26775E-03        -0.24567E-03         0.00000E+00
    0.27685E-03        -0.26124E-03         0.00000E+00
    0.28580E-03        -0.27699E-03         0.00000E+00
    0.29462E-03        -0.29294E-03         0.00000E+00
    0.30332E-03        -0.30912E-03         0.00000E+00
    0.31195E-03        -0.32553E-03         0.00000E+00
    0.32050E-03        -0.34219E-03         0.00000E+00
    0.32901E-03        -0.35913E-03         0.00000E+00
    0.33749E-03        -0.37636E-03         0.00000E+00
    0.34596E-03        -0.39390E-03         0.00000E+00
    0.35443E-03        -0.41175E-03         0.00000E+00
    0.36292E-03        -0.42994E-03         0.00000E+00
    0.37144E-03        -0.44849E-03         0.00000E+00
    0.38000E-03        -0.46740E-03         0.00000E+00
    0.38860E-03        -0.48669E-03         0.00000E+00
    0.39726E-03        -0.50637E-03         0.00000E+00
    0.40599E-03        -0.52647E-03         0.00000E+00
    0.41478E-03        -0.54698E-03         0.00000E+00
    0.42363E-03        -0.56794E-03         0.00000E+00
    0.43256E-03        -0.58934E-03         0.00000E+00
    0.44156E-03        -0.61120E-03         0.00000E+00
    0.45063E-03        -0.63354E-03         0.00000E+00
    0.45978E-03        -0.65636E-03         0.00000E+00
    0.46898E-03        -0.67968E-03         0.00000E+00
    0.47825E-03        -0.70351E-03         0.00000E+00
    0.48758E-03        -0.72787E-03         0.00000E+00
    0.49695E-03        -0.75275E-03         0.00000E+00
    0.50637E-03        -0.77819E-03         0.00000E+00
    0.51582E-03        -0.80418E-03         0.00000E+00
    0.52530E-03        -0.83073E-03         0.00000E+00
    0.53479E-03        -0.85786E-03         0.00000E+00
    0.54428E-03        -0.88558E-03         0.00000E+00
    0.55375E-03        -0.91389E-03         0.00000E+00
    0.56320E-03        -0.94281E-03         0.00000E+00
    0.57261E-03        -0.97234E-03         0.00000E+00
    0.58195E-03        -0.10025E-02         0.00000E+00
    0.59121E-03        -0.10333E-02         0.00000E+00
    0.60036E-03        -0.10647E-02         0.00000E+00
    0.60940E-03        -0.10968E-02         0.00000E+00
    0.61828E-03        -0.11295E-02         0.00000E+00
    0.62698E-03        -0.11629E-02         0.00000E+00
    0.63548E-03        -0.11969E-02         0.00000E+00
    0.64374E-03        -0.12316E-02         0.00000E+00
    0.65173E-03        -0.12670E-02         0.00000E+00
    0.65941E-03        -0.13031E-02         0.00000E+00
    0.66675E-03        -0.13399E-02         0.00000E+00
    0.67371E-03        -0.13773E-02         0.00000E+00
    0.68023E-03        -0.14154E-02         0.00000E+00
    0.68628E-03        -0.14543E-02         0.00000E+00
    0.69180E-03        -0.14938E-02         0.00000E+00
    0.69673E-03        -0.15340E-02         0.00000E+00
    0.70101E-03        -0.15750E-02         0.00000E+00
    0.70459E-03        -0.16166E-02         0.00000E+00
    0.70739E-03        -0.16590E-02         0.00000E+00
    0.70933E-03        -0.17020E-02         0.00000E+00
    0.71035E-03        -0.17458E-02         0.00000E+00
    0.71036E-03        -0.17903E-02         0.00000E+00
    0.70928E-03        -0.18355E-02         0.00000E+00
    0.70701E-03        -0.18814E-02         0.00000E+00
    0.70347E-03        -0.19281E-02         0.00000E+00
    0.69856E-03        -0.19755E-02         0.00000E+00
    0.69219E-03        -0.20236E-02         0.00000E+00
    0.68427E-03        -0.20724E-02         0.00000E+00
    0.67470E-03        -0.21220E-02         0.00000E+00
    0.66342E-03        -0.21724E-02         0.00000E+00
    0.65035E-03        -0.22234E-02         0.00000E+00
    0.63542E-03        -0.22751E-02         0.00000E+00
    0.61859E-03        -0.23275E-02         0.00000E+00
    0.59982E-03        -0.23804E-02         0.00000E+00
    0.57910E-03        -0.24338E-02         0.00000E+00
    0.55638E-03        -0.24875E-02         0.00000E+00
    0.53164E-03        -0.25414E-02         0.00000E+00
    0.50481E-03        -0.25951E-02         0.00000E+00
    0.47572E-03        -0.26483E-02         0.00000E+00
    0.44407E-03        -0.27005E-02         0.00000E+00
    0.40931E-03        -0.27511E-02         0.00000E+00
    0.37046E-03        -0.27993E-02         0.00000E+00
    0.32590E-03        -0.28442E-02         0.00000E+00
    0.27300E-03        -0.28847E-02         0.00000E+00
    0.20741E-03        -0.29192E-02         0.00000E+00
    0.12092E-03        -0.29449E-02         0.00000E+00
    0.00000E+00        -0.29550E-02         0.00000E+00
    0.00000E+00        -0.93671E-05         0.00000E+00
    0.39360E-04        -0.12141E-04         0.00000E+00
    0.69625E-04        -0.19429E-04         0.00000E+00
    0.94048E-04        -0.29559E-04         0.00000E+00
    0.11484E-03        -0.41625E-04         0.00000E+00
    0.13329E-03        -0.55164E-04         0.00000E+00
    0.15018E-03        -0.69826E-04         0.00000E+00
    0.16600E-03        -0.85336E-04         0.00000E+00
    0.18106E-03        -0.10148E-03         0.00000E+00
    0.19553E-03        -0.11809E-03         0.00000E+00
    0.20952E-03        -0.13504E-03         0.00000E+00
    0.22311E-03        -0.15224E-03         0.00000E+00
    0.23631E-03        -0.16964E-03         0.00000E+00
    0.24915E-03        -0.18720E-03         0.00000E+00
    0.26165E-03        -0.20490E-03         0.00000E+00
    0.27383E-03        -0.22274E-03         0.00000E+00
    0.28570E-03        -0.24071E-03         0.00000E+00
    0.29728E-03        -0.25883E-03         0.00000E+00
    0.30860E-03        -0.27711E-03         0.00000E+00
    0.31968E-03        -0.29558E-03         0.00000E+00
    0.33055E-03        -0.31424E-03         0.00000E+00
    0.34123E-03        -0.33313E-03         0.00000E+00
    0.35176E-03        -0.35227E-03         0.00000E+00
    0.36216E-03        -0.37167E-03         0.00000E+00
    0.37245E-03        -0.39135E-03         0.00000E+00
    0.38266E-03        -0.41135E-03         0.00000E+00
    0.39282E-03        -0.43167E-03         0.00000E+00
    0.40294E-03        -0.45234E-03         0.00000E+00
    0.41305E-03        -0.47338E-03         0.00000E+00
    0.42317E-03        -0.49481E-03         0.00000E+00
    0.43330E-03        -0.51664E-03         0.00000E+00
    0.44347E-03        -0.53890E-03         0.00000E+00
    0.45369E-03        -0.56159E-03         0.00000E+00
    0.46396E-03        -0.58474E-03         0.00000E+00
    0.47431E-03        -0.60837E-03         0.00000E+00
    0.48472E-03        -0.63249E-03         0.00000E+00
    0.49521E-03        -0.65712E-03         0.00000E+00
    0.50579E-03        -0.68226E-03         0.00000E+00
    0.51645E-03        -0.70795E-03         0.00000E+00
    0.52719E-03        -0.73419E-03         0.00000E+00
    0.53802E-03        -0.76100E-03         0.00000E+00
    0.54893E-03        -0.78839E-03         0.00000E+00
    0.55992E-03        -0.81639E-03         0.00000E+00
    0.57099E-03        -0.84499E-03         0.00000E+00
    0.58212E-03        -0.87422E-03         0.00000E+00
    0.59331E-03        -0.90409E-03         0.00000E+00
    0.60455E-03        -0.93461E-03         0.00000E+00
    0.61584E-03        -0.96580E-03         0.00000E+00
    0.62715E-03        -0.99766E-03         0.00000E+00
    0.63848E-03        -0.10302E-02         0.00000E+00
    0.64980E-03        -0.10635E-02         0.00000E+00
    0.66112E-03        -0.10975E-02         0.00000E+00
    0.67239E-03        -0.11322E-02         0.00000E+00
    0.68362E-03        -0.11676E-02         0.00000E+00
    0.69477E-03        -0.12038E-02         0.00000E+00
    0.70582E-03        -0.12407E-02         0.00000E+00
    0.71675E-03        -0.12784E-02         0.00000E+00
    0.72753E-03        -0.13169E-02         0.00000E+00
    0.73812E-03        -0.13561E-02         0.00000E+00
    0.74851E-03        -0.13962E-02         0.00000E+00
    0.75865E-03        -0.14370E-02         0.00000E+00
    0.76851E-03        -0.14786E-02         0.00000E+00
    0.77805E-03        -0.15211E-02         0.00000E+00
    0.78722E-03        -0.15643E-02         0.00000E+00
    0.79598E-03        -0.16084E-02         0.00000E+00
    0.80428E-03        -0.16533E-02         0.00000E+00
    0.81206E-03        -0.16990E-02         0.00000E+00
    0.81928E-03        -0.17456E-02         0.00000E+00
    0.82586E-03        -0.17930E-02         0.00000E+00
    0.83174E-03        -0.18412E-02         0.00000E+00
    0.83685E-03        -0.18903E-02         0.00000E+00
    0.84111E-03        -0.19402E-02         0.00000E+00
    0.84445E-03        -0.19909E-02         0.00000E+00
    0.84677E-03        -0.20425E-02         0.00000E+00
    0.84798E-03        -0.20950E-02         0.00000E+00
    0.84799E-03        -0.21483E-02         0.00000E+00
    0.84669E-03        -0.22024E-02         0.00000E+00
    0.84398E-03        -0.22574E-02         0.00000E+00
    0.83975E-03        -0.23133E-02         0.00000E+00
    0.83388E-03        -0.23701E-02         0.00000E+00
    0.82627E-03        -0.24277E-02         0.00000E+00
    0.81680E-03        -0.24862E-02         0.00000E+00
    0.80536E-03        -0.25455E-02         0.00000E+00
    0.79187E-03        -0.26058E-02         0.00000E+00
    0.77622E-03        -0.26669E-02         0.00000E+00
    0.75834E-03        -0.27288E-02         0.00000E+00
    0.73818E-03        -0.27914E-02         0.00000E+00
    0.71566E-03        -0.28548E-02         0.00000E+00
    0.69077E-03        -0.29187E-02         0.00000E+00
    0.66345E-03        -0.29830E-02         0.00000E+00
    0.63366E-03        -0.30475E-02         0.00000E+00
    0.60129E-03        -0.31117E-02         0.00000E+00
    0.56613E-03        -0.31754E-02         0.00000E+00
    0.52782E-03        -0.32378E-02         0.00000E+00
    0.48568E-03        -0.32982E-02         0.00000E+00
    0.43855E-03        -0.33556E-02         0.00000E+00
    0.38455E-03        -0.34090E-02         0.00000E+00
    0.32062E-03        -0.34567E-02         0.00000E+00
    0.24172E-03        -0.34969E-02         0.00000E+00
    0.13913E-03        -0.35259E-02         0.00000E+00
    0.00000E+00        -0.35369E-02         0.00000E+00
    0.00000E+00        -0.13774E-04         0.00000E+00
    0.44370E-04        -0.16769E-04         0.00000E+00
    0.79254E-04        -0.24825E-04         0.00000E+00
    0.10773E-03        -0.36308E-04         0.00000E+00
    0.13208E-03        -0.50168E-04         0.00000E+00
    0.15371E-03        -0.65814E-04         0.00000E+00
    0.17353E-03        -0.82818E-04         0.00000E+00
    0.19207E-03        -0.10084E-03         0.00000E+00
    0.20970E-03        -0.11962E-03         0.00000E+00
    0.22662E-03        -0.13895E-03         0.00000E+00
    0.24297E-03        -0.15869E-03         0.00000E+00
    0.25880E-03        -0.17872E-03         0.00000E+00
    0.27418E-03        -0.19899E-03         0.00000E+00
    0.28913E-03        -0.21945E-03         0.00000E+00
    0.30367E-03        -0.24007E-03         0.00000E+00
    0.31782E-03        -0.26085E-03         0.00000E+00
    0.33161E-03        -0.28179E-03         0.00000E+00
    0.34507E-03        -0.30291E-03         0.00000E+00
    0.35821E-03        -0.32422E-03         0.00000E+00
    0.37108E-03        -0.34574E-03         0.00000E+00
    0.38370E-03        -0.36750E-03         0.00000E+00
    0.39610E-03        -0.38952E-03         0.00000E+00
    0.40831E-03        -0.41183E-03         0.00000E+00
    0.42038E-03        -0.43445E-03         0.00000E+00
    0.43233E-03        -0.45741E-03         0.00000E+00
    0.44418E-03        -0.48073E-03         0.00000E+00
    0.45597E-03        -0.50444E-03         0.00000E+00
    0.46772E-03        -0.52856E-03         0.00000E+00
    0.47945E-03        -0.55310E-03         0.00000E+00
    0.49119E-03        -0.57810E-03         0.00000E+00
    0.50295E-03        -0.60357E-03         0.00000E+00
    0.51476E-03        -0.62954E-03         0.00000E+00
    0.52662E-03        -0.65602E-03         0.00000E+00
    0.53854E-03        -0.68304E-03         0.00000E+00
    0.55054E-03        -0.71061E-03         0.00000E+00
    0.56263E-03        -0.73875E-03         0.00000E+00
    0.57481E-03        -0.76749E-03         0.00000E+00
    0.58708E-03        -0.79683E-03         0.00000E+00
    0.59945E-03        -0.82681E-03         0.00000E+00
    0.61192E-03        -0.85743E-03         0.00000E+00
    0.62449E-03        -0.88871E-03         0.00000E+00
    0.63715E-03        -0.92068E-03         0.00000E+00
    0.64991E-03        -0.95334E-03         0.00000E+00
    0.66275E-03        -0.98671E-03         0.00000E+00
    0.67567E-03        -0.10208E-02         0.00000E+00
    0.68866E-03        -0.10557E-02         0.00000E+00
    0.70171E-03        -0.10913E-02         0.00000E+00
    0.71480E-03        -0.11277E-02         0.00000E+00
    0.72793E-03        -0.11649E-02         0.00000E+00
    0.74107E-03        -0.12028E-02         0.00000E+00
    0.75422E-03        -0.12416E-02         0.00000E+00
    0.76735E-03        -0.12813E-02         0.00000E+00
    0.78043E-03        -0.13217E-02         0.00000E+00
    0.79346E-03        -0.13631E-02         0.00000E+00
    0.80640E-03        -0.14053E-02         0.00000E+00
    0.81922E-03        -0.14484E-02         0.00000E+00
    0.83190E-03        -0.14923E-02         0.00000E+00
    0.84441E-03        -0.15372E-02         0.00000E+00
    0.85671E-03        -0.15830E-02         0.00000E+00
    0.86876E-03        -0.16297E-02         0.00000E+00
    0.88053E-03        -0.16773E-02         0.00000E+00
    0.89197E-03        -0.17258E-02         0.00000E+00
    0.90303E-03        -0.17753E-02         0.00000E+00
    0.91367E-03        -0.18258E-02         0.00000E+00
    0.92384E-03        -0.18772E-02         0.00000E+00
    0.93347E-03        -0.19295E-02         0.00000E+00
    0.94250E-03        -0.19828E-02         0.00000E+00
    0.95087E-03        -0.20371E-02         0.00000E+00
    0.95850E-03        -0.20923E-02         0.00000E+00
    0.96533E-03        -0.21485E-02         0.00000E+00
    0.97125E-03        -0.22057E-02         0.00000E+00
    0.97620E-03        -0.22638E-02         0.00000E+00
    0.98007E-03        -0.23230E-02         0.00000E+00
    0.98276E-03        -0.23831E-02         0.00000E+00
    0.98417E-03        -0.24442E-02         0.00000E+00
    0.98417E-03        -0.25062E-02         0.00000E+00
    0.98267E-03        -0.25693E-02         0.00000E+00
    0.97952E-03        -0.26334E-02         0.00000E+00
    0.97460E-03        -0.26984E-02         0.00000E+00
    0.96778E-03        -0.27645E-02         0.00000E+00
    0.95894E-03        -0.28316E-02         0.00000E+00
    0.94794E-03        -0.28996E-02         0.00000E+00
    0.93465E-03        -0.29687E-02         0.00000E+00
    0.91896E-03        -0.30388E-02         0.00000E+00
    0.90075E-03        -0.31099E-02         0.00000E+00
    0.87994E-03        -0.31820E-02         0.00000E+00
    0.85645E-03        -0.32549E-02         0.00000E+00
    0.83020E-03        -0.33286E-02         0.00000E+00
    0.80113E-03        -0.34029E-02         0.00000E+00
    0.76920E-03        -0.34778E-02         0.00000E+00
    0.73432E-03        -0.35528E-02         0.00000E+00
    0.69636E-03        -0.36275E-02         0.00000E+00
    0.65507E-03        -0.37015E-02         0.00000E+00
    0.61000E-03        -0.37740E-02         0.00000E+00
    0.56036E-03        -0.38441E-02         0.00000E+00
    0.50485E-03        -0.39107E-02         0.00000E+00
    0.44129E-03        -0.39723E-02         0.00000E+00
    0.36627E-03        -0.40271E-02         0.00000E+00
    0.27422E-03        -0.40726E-02         0.00000E+00
    0.15617E-03        -0.41046E-02         0.00000E+00
    0.00000E+00        -0.41165E-02         0.00000E+00
    0.00000E+00        -0.18815E-04         0.00000E+00
    0.49128E-04        -0.22020E-04         0.00000E+00
    0.88474E-04        -0.30798E-04         0.00000E+00
    0.12095E-03        -0.43568E-04         0.00000E+00
    0.14884E-03        -0.59168E-04         0.00000E+00
    0.17368E-03        -0.76885E-04         0.00000E+00
    0.19643E-03        -0.96201E-04         0.00000E+00
    0.21772E-03        -0.11671E-03         0.00000E+00
    0.23793E-03        -0.13811E-03         0.00000E+00
    0.25731E-03        -0.16015E-03         0.00000E+00
    0.27600E-03        -0.18266E-03         0.00000E+00
    0.29409E-03        -0.20552E-03         0.00000E+00
    0.31164E-03        -0.22865E-03         0.00000E+00
    0.32868E-03        -0.25199E-03         0.00000E+00
    0.34524E-03        -0.27552E-03         0.00000E+00
    0.36136E-03        -0.29923E-03         0.00000E+00
    0.37706E-03        -0.32314E-03         0.00000E+00
    0.39236E-03        -0.34724E-03         0.00000E+00
    0.40731E-03        -0.37157E-03         0.00000E+00
    0.42194E-03        -0.39615E-03         0.00000E+00
    0.43629E-03        -0.42099E-03         0.00000E+00
    0.45039E-03        -0.44615E-03         0.00000E+00
    0.46428E-03        -0.47163E-03         0.00000E+00
    0.47800E-03        -0.49747E-03         0.00000E+00
    0.49158E-03        -0.52370E-03         0.00000E+00
    0.50505E-03        -0.55035E-03         0.00000E+00
    0.51845E-03        -0.57744E-03         0.00000E+00
    0.53181E-03        -0.60499E-03         0.00000E+00
    0.54515E-03        -0.63304E-03         0.00000E+00
    0.55850E-03        -0.66161E-03         0.00000E+00
    0.57187E-03        -0.69073E-03         0.00000E+00
    0.58529E-03        -0.72041E-03         0.00000E+00
    0.59877E-03        -0.75067E-03         0.00000E+00
    0.61233E-03        -0.78156E-03         0.00000E+00
    0.62597E-03        -0.81307E-03         0.00000E+00
    0.63971E-03        -0.84524E-03         0.00000E+00
    0.65356E-03        -0.87809E-03         0.00000E+00
    0.66751E-03        -0.91163E-03         0.00000E+00
    0.68158E-03        -0.94590E-03         0.00000E+00
    0.69575E-03        -0.98090E-03         0.00000E+00
    0.71004E-03        -0.10167E-02         0.00000E+00
    0.72444E-03        -0.10532E-02         0.00000E+00
    0.73894E-03        -0.10905E-02         0.00000E+00
    0.75354E-03        -0.11287E-02         0.00000E+00
    0.76823E-03        -0.11677E-02         0.00000E+00
    0.78299E-03        -0.12075E-02         0.00000E+00
    0.79783E-03        -0.12482E-02         0.00000E+00
    0.81271E-03        -0.12898E-02         0.00000E+00
    0.82764E-03        -0.13323E-02         0.00000E+00
    0.84258E-03        -0.13757E-02         0.00000E+00
    0.85752E-03        -0.14200E-02         0.00000E+00
    0.87245E-03        -0.14653E-02         0.00000E+00
    0.88733E-03        -0.15116E-02         0.00000E+00
    0.90213E-03        -0.15588E-02         0.00000E+00
    0.91684E-03        -0.16070E-02         0.00000E+00
    0.93142E-03        -0.16563E-02         0.00000E+00
    0.94584E-03        -0.17065E-02         0.00000E+00
    0.96006E-03        -0.17578E-02         0.00000E+00
    0.97404E-03        -0.18101E-02         0.00000E+00
    0.98774E-03        -0.18634E-02         0.00000E+00
    0.10011E-02        -0.19178E-02         0.00000E+00
    0.10141E-02        -0.19733E-02         0.00000E+00
    0.10267E-02        -0.20298E-02         0.00000E+00
    0.10388E-02        -0.20874E-02         0.00000E+00
    0.10503E-02        -0.21461E-02         0.00000E+00
    0.10613E-02        -0.22059E-02         0.00000E+00
    0.10716E-02        -0.22667E-02         0.00000E+00
    0.10811E-02        -0.23287E-02         0.00000E+00
    0.10897E-02        -0.23918E-02         0.00000E+00
    0.10975E-02        -0.24559E-02         0.00000E+00
    0.11042E-02        -0.25212E-02         0.00000E+00
    0.11099E-02        -0.25876E-02         0.00000E+00
    0.11143E-02        -0.26550E-02         0.00000E+00
    0.11173E-02        -0.27236E-02         0.00000E+00
    0.11189E-02        -0.27933E-02         0.00000E+00
    0.11189E-02        -0.28642E-02         0.00000E+00
    0.11172E-02        -0.29361E-02         0.00000E+00
    0.11136E-02        -0.30092E-02         0.00000E+00
    0.11080E-02        -0.30834E-02         0.00000E+00
    0.11003E-02        -0.31587E-02         0.00000E+00
    0.10902E-02        -0.32352E-02         0.00000E+00
    0.10777E-02        -0.33129E-02         0.00000E+00
    0.10626E-02        -0.33916E-02         0.00000E+00
    0.10447E-02        -0.34716E-02         0.00000E+00
    0.10240E-02        -0.35526E-02         0.00000E+00
    0.10002E-02        -0.36347E-02         0.00000E+00
    0.97344E-03        -0.37178E-02         0.00000E+00
    0.94345E-03        -0.38018E-02         0.00000E+00
    0.91022E-03        -0.38866E-02         0.00000E+00
    0.87365E-03        -0.39718E-02         0.00000E+00
    0.83366E-03        -0.40573E-02         0.00000E+00
    0.79006E-03        -0.41425E-02         0.00000E+00
    0.74256E-03        -0.42267E-02         0.00000E+00
    0.69065E-03        -0.43093E-02         0.00000E+00
    0.63343E-03        -0.43890E-02         0.00000E+00
    0.56942E-03        -0.44646E-02         0.00000E+00
    0.49624E-03        -0.45343E-02         0.00000E+00
    0.41013E-03        -0.45958E-02         0.00000E+00
    0.30513E-03        -0.46464E-02         0.00000E+00
    0.17223E-03        -0.46813E-02         0.00000E+00
    0.00000E+00        -0.46940E-02         0.00000E+00
    0.00000E+00        -0.24449E-04         0.00000E+00
    0.53670E-04        -0.27859E-04         0.00000E+00
    0.97328E-04        -0.37326E-04         0.00000E+00
    0.13373E-03        -0.51331E-04         0.00000E+00
    0.16516E-03        -0.68624E-04         0.00000E+00
    0.19320E-03        -0.88375E-04         0.00000E+00
    0.21891E-03        -0.10998E-03         0.00000E+00
    0.24295E-03        -0.13296E-03         0.00000E+00
    0.26575E-03        -0.15695E-03         0.00000E+00
    0.28759E-03        -0.18169E-03         0.00000E+00
    0.30863E-03        -0.20696E-03         0.00000E+00
    0.32897E-03        -0.23263E-03         0.00000E+00
    0.34868E-03        -0.25860E-03         0.00000E+00
    0.36781E-03        -0.28482E-03         0.00000E+00
    0.38638E-03        -0.31125E-03         0.00000E+00
    0.40444E-03        -0.33789E-03         0.00000E+00
    0.42203E-03        -0.36475E-03         0.00000E+00
    0.43917E-03        -0.39184E-03         0.00000E+00
    0.45591E-03        -0.41918E-03         0.00000E+00
    0.47228E-03        -0.44680E-03         0.00000E+00
    0.48834E-03        -0.47473E-03         0.00000E+00
    0.50412E-03        -0.50301E-03         0.00000E+00
    0.51966E-03        -0.53166E-03         0.00000E+00
    0.53501E-03        -0.56072E-03         0.00000E+00
    0.55020E-03        -0.59022E-03         0.00000E+00
    0.56528E-03        -0.62019E-03         0.00000E+00
    0.58028E-03        -0.65065E-03         0.00000E+00
    0.59523E-03        -0.68165E-03         0.00000E+00
    0.61015E-03        -0.71321E-03         0.00000E+00
    0.62509E-03        -0.74535E-03         0.00000E+00
    0.64005E-03        -0.77810E-03         0.00000E+00
    0.65507E-03        -0.81150E-03         0.00000E+00
    0.67015E-03        -0.84555E-03         0.00000E+00
    0.68533E-03        -0.88030E-03         0.00000E+00
    0.70059E-03        -0.91576E-03         0.00000E+00
    0.71597E-03        -0.95196E-03         0.00000E+00
    0.73147E-03        -0.98892E-03         0.00000E+00
    0.74708E-03        -0.10267E-02         0.00000E+00
    0.76282E-03        -0.10652E-02         0.00000E+00
    0.77869E-03        -0.11046E-02         0.00000E+00
    0.79468E-03        -0.11448E-02         0.00000E+00
    0.81079E-03        -0.11860E-02         0.00000E+00
    0.82702E-03        -0.12280E-02         0.00000E+00
    0.84335E-03        -0.12709E-02         0.00000E+00
    0.85979E-03        -0.13148E-02         0.00000E+00
    0.87631E-03        -0.13596E-02         0.00000E+00
    0.89291E-03        -0.14054E-02         0.00000E+00
    0.90957E-03        -0.14522E-02         0.00000E+00
    0.92627E-03        -0.15000E-02         0.00000E+00
    0.94300E-03        -0.15488E-02         0.00000E+00
    0.95972E-03        -0.15987E-02         0.00000E+00
    0.97642E-03        -0.16496E-02         0.00000E+00
    0.99307E-03        -0.17017E-02         0.00000E+00
    0.10096E-02        -0.17548E-02         0.00000E+00
    0.10261E-02        -0.18090E-02         0.00000E+00
    0.10424E-02        -0.18644E-02         0.00000E+00
    0.10585E-02        -0.19209E-02         0.00000E+00
    0.10745E-02        -0.19786E-02         0.00000E+00
    0.10901E-02        -0.20374E-02         0.00000E+00
    0.11054E-02        -0.20974E-02         0.00000E+00
    0.11204E-02        -0.21585E-02         0.00000E+00
    0.11350E-02        -0.22209E-02         0.00000E+00
    0.11490E-02        -0.22845E-02         0.00000E+00
    0.11626E-02        -0.23492E-02         0.00000E+00
    0.11755E-02        -0.24152E-02         0.00000E+00
    0.11877E-02        -0.24824E-02         0.00000E+00
    0.11992E-02        -0.25508E-02         0.00000E+00
    0.12099E-02        -0.26205E-02         0.00000E+00
    0.12196E-02        -0.26913E-02         0.00000E+00
    0.12283E-02        -0.27634E-02         0.00000E+00
    0.12358E-02        -0.28368E-02         0.00000E+00
    0.12421E-02        -0.29114E-02         0.00000E+00
    0.12470E-02        -0.29872E-02         0.00000E+00
    0.12504E-02        -0.30642E-02         0.00000E+00
    0.12522E-02        -0.31425E-02         0.00000E+00
    0.12523E-02        -0.32221E-02         0.00000E+00
    0.12503E-02        -0.33029E-02         0.00000E+00
    0.12463E-02        -0.33849E-02         0.00000E+00
    0.12401E-02        -0.34683E-02         0.00000E+00
    0.12314E-02        -0.35528E-02         0.00000E+00
    0.12202E-02        -0.36387E-02         0.00000E+00
    0.12061E-02        -0.37258E-02         0.00000E+00
    0.11892E-02        -0.38143E-02         0.00000E+00
    0.11692E-02        -0.39039E-02         0.00000E+00
    0.11459E-02        -0.39949E-02         0.00000E+00
    0.11193E-02        -0.40870E-02         0.00000E+00
    0.10892E-02        -0.41802E-02         0.00000E+00
    0.10555E-02        -0.42745E-02         0.00000E+00
    0.10181E-02        -0.43696E-02         0.00000E+00
    0.97685E-03        -0.44652E-02         0.00000E+00
    0.93171E-03        -0.45611E-02         0.00000E+00
    0.88243E-03        -0.46566E-02         0.00000E+00
    0.82867E-03        -0.47510E-02         0.00000E+00
    0.76984E-03        -0.48435E-02         0.00000E+00
    0.70495E-03        -0.49328E-02         0.00000E+00
    0.63237E-03        -0.50172E-02         0.00000E+00
    0.54951E-03        -0.50948E-02         0.00000E+00
    0.45234E-03        -0.51631E-02         0.00000E+00
    0.33463E-03        -0.52185E-02         0.00000E+00
    0.18745E-03        -0.52560E-02         0.00000E+00
    0.00000E+00        -0.52696E-02         0.00000E+00
    0.00000E+00        -0.30642E-04         0.00000E+00
    0.58023E-04        -0.34253E-04         0.00000E+00
    0.10586E-03        -0.44388E-04         0.00000E+00
    0.14612E-03        -0.59586E-04         0.00000E+00
    0.18105E-03        -0.78531E-04         0.00000E+00
    0.21230E-03        -0.10028E-03         0.00000E+00
    0.24097E-03        -0.12414E-03         0.00000E+00
    0.26777E-03        -0.14957E-03         0.00000E+00
    0.29318E-03        -0.17615E-03         0.00000E+00
    0.31748E-03        -0.20356E-03         0.00000E+00
    0.34087E-03        -0.23158E-03         0.00000E+00
    0.36346E-03        -0.26005E-03         0.00000E+00
    0.38532E-03        -0.28885E-03         0.00000E+00
    0.40651E-03        -0.31793E-03         0.00000E+00
    0.42708E-03        -0.34726E-03         0.00000E+00
    0.44708E-03        -0.37682E-03         0.00000E+00
    0.46653E-03        -0.40662E-03         0.00000E+00
    0.48548E-03        -0.43668E-03         0.00000E+00
    0.50399E-03        -0.46703E-03         0.00000E+00
    0.52209E-03        -0.49769E-03         0.00000E+00
    0.53984E-03        -0.52870E-03         0.00000E+00
    0.55728E-03        -0.56010E-03         0.00000E+00
    0.57445E-03        -0.59192E-03         0.00000E+00
    0.59141E-03        -0.62419E-03         0.00000E+00
    0.60821E-03        -0.65695E-03         0.00000E+00
    0.62487E-03        -0.69024E-03         0.00000E+00
    0.64144E-03        -0.72409E-03         0.00000E+00
    0.65796E-03        -0.75853E-03         0.00000E+00
    0.67445E-03        -0.79359E-03         0.00000E+00
    0.69096E-03        -0.82930E-03         0.00000E+00
    0.70750E-03        -0.86570E-03         0.00000E+00
    0.72409E-03        -0.90281E-03         0.00000E+00
    0.74077E-03        -0.94065E-03         0.00000E+00
    0.75753E-03        -0.97927E-03         0.00000E+00
    0.77441E-03        -0.10187E-02         0.00000E+00
    0.79140E-03        -0.10589E-02         0.00000E+00
    0.80853E-03        -0.11000E-02         0.00000E+00
    0.82579E-03        -0.11419E-02         0.00000E+00
    0.84318E-03        -0.11848E-02         0.00000E+00
    0.86072E-03        -0.12285E-02         0.00000E+00
    0.87839E-03        -0.12733E-02         0.00000E+00
    0.89620E-03        -0.13190E-02         0.00000E+00
    0.91413E-03        -0.13656E-02         0.00000E+00
    0.93219E-03        -0.14133E-02         0.00000E+00
    0.95036E-03        -0.14621E-02         0.00000E+00
    0.96862E-03        -0.15119E-02         0.00000E+00
    0.98697E-03        -0.15628E-02         0.00000E+00
    0.10054E-02        -0.16148E-02         0.00000E+00
    0.10238E-02        -0.16679E-02         0.00000E+00
    0.10423E-02        -0.17222E-02         0.00000E+00
    0.10608E-02        -0.17776E-02         0.00000E+00
    0.10793E-02        -0.18342E-02         0.00000E+00
    0.10977E-02        -0.18920E-02         0.00000E+00
    0.11160E-02        -0.19510E-02         0.00000E+00
    0.11342E-02        -0.20113E-02         0.00000E+00
    0.11522E-02        -0.20728E-02         0.00000E+00
    0.11700E-02        -0.21355E-02         0.00000E+00
    0.11876E-02        -0.21996E-02         0.00000E+00
    0.12049E-02        -0.22649E-02         0.00000E+00
    0.12219E-02        -0.23315E-02         0.00000E+00
    0.12384E-02        -0.23995E-02         0.00000E+00
    0.12545E-02        -0.24687E-02         0.00000E+00
    0.12700E-02        -0.25393E-02         0.00000E+00
    0.12850E-02        -0.26112E-02         0.00000E+00
    0.12993E-02        -0.26845E-02         0.00000E+00
    0.13128E-02        -0.27591E-02         0.00000E+00
    0.13255E-02        -0.28351E-02         0.00000E+00
    0.13373E-02        -0.29124E-02         0.00000E+00
    0.13480E-02        -0.29910E-02         0.00000E+00
    0.13576E-02        -0.30711E-02         0.00000E+00
    0.13660E-02        -0.31525E-02         0.00000E+00
    0.13729E-02        -0.32352E-02         0.00000E+00
    0.13784E-02        -0.33194E-02         0.00000E+00
    0.13822E-02        -0.34049E-02         0.00000E+00
    0.13842E-02        -0.34917E-02         0.00000E+00
    0.13842E-02        -0.35800E-02         0.00000E+00
    0.13821E-02        -0.36696E-02         0.00000E+00
    0.13777E-02        -0.37606E-02         0.00000E+00
    0.13708E-02        -0.38530E-02         0.00000E+00
    0.13612E-02        -0.39468E-02         0.00000E+00
    0.13487E-02        -0.40420E-02         0.00000E+00
    0.13332E-02        -0.41386E-02         0.00000E+00
    0.13145E-02        -0.42366E-02         0.00000E+00
    0.12923E-02        -0.43360E-02         0.00000E+00
    0.12666E-02        -0.44367E-02         0.00000E+00
    0.12371E-02        -0.45388E-02         0.00000E+00
    0.12037E-02        -0.46421E-02         0.00000E+00
    0.11663E-02        -0.47466E-02         0.00000E+00
    0.11247E-02        -0.48519E-02         0.00000E+00
    0.10788E-02        -0.49579E-02         0.00000E+00
    0.10285E-02        -0.50641E-02         0.00000E+00
    0.97352E-03        -0.51698E-02         0.00000E+00
    0.91345E-03        -0.52744E-02         0.00000E+00
    0.84763E-03        -0.53768E-02         0.00000E+00
    0.77499E-03        -0.54755E-02         0.00000E+00
    0.69377E-03        -0.55687E-02         0.00000E+00
    0.60120E-03        -0.56540E-02         0.00000E+00
    0.49303E-03        -0.57287E-02         0.00000E+00
    0.36287E-03        -0.57888E-02         0.00000E+00
    0.20193E-03        -0.58290E-02         0.00000E+00
    0.00000E+00        -0.58433E-02         0.00000E+00
    0.00000E+00        -0.37364E-04         0.00000E+00
    0.62210E-04        -0.41174E-04         0.00000E+00
    0.11409E-03        -0.51964E-04         0.00000E+00
    0.15814E-03        -0.68321E-04         0.00000E+00
    0.19655E-03        -0.88882E-04         0.00000E+00
    0.23100E-03        -0.11261E-03         0.00000E+00
    0.26264E-03        -0.13870E-03         0.00000E+00
    0.29221E-03        -0.16656E-03         0.00000E+00
    0.32022E-03        -0.19570E-03         0.00000E+00
    0.34699E-03        -0.22577E-03         0.00000E+00
    0.37272E-03        -0.25652E-03         0.00000E+00
    0.39755E-03        -0.28777E-03         0.00000E+00
    0.42155E-03        -0.31940E-03         0.00000E+00
    0.44481E-03        -0.35134E-03         0.00000E+00
    0.46736E-03        -0.38355E-03         0.00000E+00
    0.48926E-03        -0.41602E-03         0.00000E+00
    0.51056E-03        -0.44876E-03         0.00000E+00
    0.53132E-03        -0.48178E-03         0.00000E+00
    0.55157E-03        -0.51513E-03         0.00000E+00
    0.57138E-03        -0.54883E-03         0.00000E+00
    0.59079E-03        -0.58291E-03         0.00000E+00
    0.60987E-03        -0.61742E-03         0.00000E+00
    0.62866E-03        -0.65240E-03         0.00000E+00
    0.64722E-03        -0.68789E-03         0.00000E+00
    0.66558E-03        -0.72391E-03         0.00000E+00
    0.68381E-03        -0.76052E-03         0.00000E+00
    0.70194E-03        -0.79775E-03         0.00000E+00
    0.72001E-03        -0.83562E-03         0.00000E+00
    0.73806E-03        -0.87419E-03         0.00000E+00
    0.75611E-03        -0.91347E-03         0.00000E+00
    0.77421E-03        -0.95351E-03         0.00000E+00
    0.79236E-03        -0.99433E-03         0.00000E+00
    0.81060E-03        -0.10360E-02         0.00000E+00
    0.82895E-03        -0.10785E-02         0.00000E+00
    0.84741E-03        -0.11218E-02         0.00000E+00
    0.86601E-03        -0.11661E-02         0.00000E+00
    0.88474E-03        -0.12113E-02         0.00000E+00
    0.90363E-03        -0.12574E-02         0.00000E+00
    0.92266E-03        -0.13046E-02         0.00000E+00
    0.94185E-03        -0.13527E-02         0.00000E+00
    0.96119E-03        -0.14019E-02         0.00000E+00
    0.98067E-03        -0.14522E-02         0.00000E+00
    0.10003E-02        -0.15035E-02         0.00000E+00
    0.10201E-02        -0.15560E-02         0.00000E+00
    0.10399E-02        -0.16096E-02         0.00000E+00
    0.10599E-02        -0.16644E-02         0.00000E+00
    0.10800E-02        -0.17204E-02         0.00000E+00
    0.11001E-02        -0.17776E-02         0.00000E+00
    0.11203E-02        -0.18360E-02         0.00000E+00
    0.11406E-02        -0.18957E-02         0.00000E+00
    0.11608E-02        -0.19567E-02         0.00000E+00
    0.11810E-02        -0.20190E-02         0.00000E+00
    0.12011E-02        -0.20826E-02         0.00000E+00
    0.12212E-02        -0.21475E-02         0.00000E+00
    0.12411E-02        -0.22137E-02         0.00000E+00
    0.12608E-02        -0.22814E-02         0.00000E+00
    0.12803E-02        -0.23504E-02         0.00000E+00
    0.12995E-02        -0.24208E-02         0.00000E+00
    0.13185E-02        -0.24927E-02         0.00000E+00
    0.13370E-02        -0.25659E-02         0.00000E+00
    0.13551E-02        -0.26406E-02         0.00000E+00
    0.13727E-02        -0.27168E-02         0.00000E+00
    0.13897E-02        -0.27944E-02         0.00000E+00
    0.14061E-02        -0.28734E-02         0.00000E+00
    0.14217E-02        -0.29540E-02         0.00000E+00
    0.14366E-02        -0.30360E-02         0.00000E+00
    0.14505E-02        -0.31194E-02         0.00000E+00
    0.14633E-02        -0.32044E-02         0.00000E+00
    0.14751E-02        -0.32909E-02         0.00000E+00
    0.14856E-02        -0.33788E-02         0.00000E+00
    0.14947E-02        -0.34683E-02         0.00000E+00
    0.15024E-02        -0.35592E-02         0.00000E+00
    0.15083E-02        -0.36516E-02         0.00000E+00
    0.15125E-02        -0.37455E-02         0.00000E+00
    0.15147E-02        -0.38409E-02         0.00000E+00
    0.15147E-02        -0.39378E-02         0.00000E+00
    0.15124E-02        -0.40362E-02         0.00000E+00
    0.15076E-02        -0.41362E-02         0.00000E+00
    0.15001E-02        -0.42376E-02         0.00000E+00
    0.14896E-02        -0.43405E-02         0.00000E+00
    0.14760E-02        -0.44450E-02         0.00000E+00
    0.14590E-02        -0.45510E-02         0.00000E+00
    0.14385E-02        -0.46586E-02         0.00000E+00
    0.14143E-02        -0.47676E-02         0.00000E+00
    0.13860E-02        -0.48782E-02         0.00000E+00
    0.13537E-02        -0.49902E-02         0.00000E+00
    0.13170E-02        -0.51035E-02         0.00000E+00
    0.12759E-02        -0.52181E-02         0.00000E+00
    0.12301E-02        -0.53336E-02         0.00000E+00
    0.11796E-02        -0.54498E-02         0.00000E+00
    0.11241E-02        -0.55663E-02         0.00000E+00
    0.10634E-02        -0.56823E-02         0.00000E+00
    0.99694E-03        -0.57969E-02         0.00000E+00
    0.92408E-03        -0.59090E-02         0.00000E+00
    0.84362E-03        -0.60170E-02         0.00000E+00
    0.75371E-03        -0.61189E-02         0.00000E+00
    0.65142E-03        -0.62119E-02         0.00000E+00
    0.53234E-03        -0.62929E-02         0.00000E+00
    0.38999E-03        -0.63575E-02         0.00000E+00
    0.21578E-03        -0.64002E-02         0.00000E+00
    0.00000E+00        -0.64153E-02         0.00000E+00
    0.00000E+00        -0.44585E-04         0.00000E+00
    0.66249E-04        -0.48596E-04         0.00000E+00
    0.12206E-03        -0.60031E-04         0.00000E+00
    0.16982E-03        -0.77525E-04         0.00000E+00
    0.21168E-03        -0.99673E-04         0.00000E+00
    0.24932E-03        -0.12534E-03         0.00000E+00
    0.28392E-03        -0.15365E-03         0.00000E+00
    0.31627E-03        -0.18391E-03         0.00000E+00
    0.34689E-03        -0.21560E-03         0.00000E+00
    0.37613E-03        -0.24832E-03         0.00000E+00
    0.40420E-03        -0.28179E-03         0.00000E+00
    0.43126E-03        -0.31581E-03         0.00000E+00
    0.45739E-03        -0.35025E-03         0.00000E+00
    0.48269E-03        -0.38503E-03         0.00000E+00
    0.50721E-03        -0.42011E-03         0.00000E+00
    0.53100E-03        -0.45548E-03         0.00000E+00
    0.55414E-03        -0.49114E-03         0.00000E+00
    0.57667E-03        -0.52713E-03         0.00000E+00
    0.59865E-03        -0.56347E-03         0.00000E+00
    0.62014E-03        -0.60019E-03         0.00000E+00
    0.64121E-03        -0.63735E-03         0.00000E+00
    0.66190E-03        -0.67497E-03         0.00000E+00
    0.68228E-03        -0.71311E-03         0.00000E+00
    0.70241E-03        -0.75180E-03         0.00000E+00
    0.72234E-03        -0.79109E-03         0.00000E+00
    0.74211E-03        -0.83101E-03         0.00000E+00
    0.76178E-03        -0.87161E-03         0.00000E+00
    0.78138E-03        -0.91293E-03         0.00000E+00
    0.80096E-03        -0.95500E-03         0.00000E+00
    0.82055E-03        -0.99786E-03         0.00000E+00
    0.84018E-03        -0.10415E-02         0.00000E+00
    0.85988E-03        -0.10861E-02         0.00000E+00
    0.87967E-03        -0.11315E-02         0.00000E+00
    0.89957E-03        -0.11779E-02         0.00000E+00
    0.91961E-03        -0.12252E-02         0.00000E+00
    0.93978E-03        -0.12735E-02         0.00000E+00
    0.96011E-03        -0.13228E-02         0.00000E+00
    0.98060E-03        -0.13731E-02         0.00000E+00
    0.10013E-02        -0.14246E-02         0.00000E+00
    0.10221E-02        -0.14771E-02         0.00000E+00
    0.10431E-02        -0.15308E-02         0.00000E+00
    0.10642E-02        -0.15856E-02         0.00000E+00
    0.10855E-02        -0.16417E-02         0.00000E+00
    0.11069E-02        -0.16989E-02         0.00000E+00
    0.11285E-02        -0.17574E-02         0.00000E+00
    0.11502E-02        -0.18172E-02         0.00000E+00
    0.11720E-02        -0.18783E-02         0.00000E+00
    0.11938E-02        -0.19407E-02         0.00000E+00
    0.12158E-02        -0.20044E-02         0.00000E+00
    0.12377E-02        -0.20696E-02         0.00000E+00
    0.12597E-02        -0.21361E-02         0.00000E+00
    0.12816E-02        -0.22040E-02         0.00000E+00
    0.13034E-02        -0.22733E-02         0.00000E+00
    0.13252E-02        -0.23441E-02         0.00000E+00
    0.13468E-02        -0.24164E-02         0.00000E+00
    0.13682E-02        -0.24902E-02         0.00000E+00
    0.13894E-02        -0.25655E-02         0.00000E+00
    0.14102E-02        -0.26423E-02         0.00000E+00
    0.14308E-02        -0.27206E-02         0.00000E+00
    0.14509E-02        -0.28005E-02         0.00000E+00
    0.14705E-02        -0.28820E-02         0.00000E+00
    0.14896E-02        -0.29650E-02         0.00000E+00
    0.15081E-02        -0.30496E-02         0.00000E+00
    0.15259E-02        -0.31358E-02         0.00000E+00
    0.15429E-02        -0.32236E-02         0.00000E+00
    0.15589E-02        -0.33130E-02         0.00000E+00
    0.15740E-02        -0.34040E-02         0.00000E+00
    0.15880E-02        -0.34966E-02         0.00000E+00
    0.16008E-02        -0.35908E-02         0.00000E+00
    0.16122E-02        -0.36867E-02         0.00000E+00
    0.16221E-02        -0.37841E-02         0.00000E+00
    0.16304E-02        -0.38832E-02         0.00000E+00
    0.16369E-02        -0.39839E-02         0.00000E+00
    0.16414E-02        -0.40862E-02         0.00000E+00
    0.16438E-02        -0.41901E-02         0.00000E+00
    0.16439E-02        -0.42957E-02         0.00000E+00
    0.16414E-02        -0.44028E-02         0.00000E+00
    0.16362E-02        -0.45116E-02         0.00000E+00
    0.16281E-02        -0.46221E-02         0.00000E+00
    0.16167E-02        -0.47342E-02         0.00000E+00
    0.16020E-02        -0.48479E-02         0.00000E+00
    0.15836E-02        -0.49633E-02         0.00000E+00
    0.15613E-02        -0.50803E-02         0.00000E+00
    0.15349E-02        -0.51990E-02         0.00000E+00
    0.15043E-02        -0.53193E-02         0.00000E+00
    0.14691E-02        -0.54411E-02         0.00000E+00
    0.14291E-02        -0.55644E-02         0.00000E+00
    0.13843E-02        -0.56890E-02         0.00000E+00
    0.13344E-02        -0.58147E-02         0.00000E+00
    0.12792E-02        -0.59411E-02         0.00000E+00
    0.12186E-02        -0.60677E-02         0.00000E+00
    0.11520E-02        -0.61938E-02         0.00000E+00
    0.10792E-02        -0.63185E-02         0.00000E+00
    0.99924E-03        -0.64403E-02         0.00000E+00
    0.91092E-03        -0.65575E-02         0.00000E+00
    0.81228E-03        -0.66678E-02         0.00000E+00
    0.70028E-03        -0.67684E-02         0.00000E+00
    0.57038E-03        -0.68556E-02         0.00000E+00
    0.41610E-03        -0.69246E-02         0.00000E+00
    0.22907E-03        -0.69699E-02         0.00000E+00
    0.00000E+00        -0.69858E-02         0.00000E+00
    0.00000E+00        -0.52282E-04         0.00000E+00
    0.70157E-04        -0.56495E-04         0.00000E+00
    0.12978E-03        -0.68572E-04         0.00000E+00
    0.18119E-03        -0.87186E-04         0.00000E+00
    0.22646E-03        -0.11090E-03         0.00000E+00
    0.26728E-03        -0.13848E-03         0.00000E+00
    0.30484E-03        -0.16898E-03         0.00000E+00
    0.33997E-03        -0.20163E-03         0.00000E+00
    0.37320E-03        -0.23585E-03         0.00000E+00
    0.40490E-03        -0.27120E-03         0.00000E+00
    0.43531E-03        -0.30737E-03         0.00000E+00
    0.46459E-03        -0.34415E-03         0.00000E+00
    0.49284E-03        -0.38139E-03         0.00000E+00
    0.52017E-03        -0.41900E-03         0.00000E+00
    0.54663E-03        -0.45694E-03         0.00000E+00
    0.57231E-03        -0.49520E-03         0.00000E+00
    0.59725E-03        -0.53378E-03         0.00000E+00
    0.62154E-03        -0.57272E-03         0.00000E+00
    0.64523E-03        -0.61204E-03         0.00000E+00
    0.66838E-03        -0.65179E-03         0.00000E+00
    0.69108E-03        -0.69201E-03         0.00000E+00
    0.71337E-03        -0.73274E-03         0.00000E+00
    0.73533E-03        -0.77403E-03         0.00000E+00
    0.75701E-03        -0.81593E-03         0.00000E+00
    0.77847E-03        -0.85847E-03         0.00000E+00
    0.79977E-03        -0.90171E-03         0.00000E+00
    0.82096E-03        -0.94569E-03         0.00000E+00
    0.84207E-03        -0.99045E-03         0.00000E+00
    0.86316E-03        -0.10360E-02         0.00000E+00
    0.88427E-03        -0.10824E-02         0.00000E+00
    0.90541E-03        -0.11298E-02         0.00000E+00
    0.92664E-03        -0.11780E-02         0.00000E+00
    0.94796E-03        -0.12272E-02         0.00000E+00
    0.96941E-03        -0.12775E-02         0.00000E+00
    0.99099E-03        -0.13287E-02         0.00000E+00
    0.10127E-02        -0.13810E-02         0.00000E+00
    0.10346E-02        -0.14345E-02         0.00000E+00
    0.10567E-02        -0.14890E-02         0.00000E+00
    0.10790E-02        -0.15448E-02         0.00000E+00
    0.11014E-02        -0.16017E-02         0.00000E+00
    0.11240E-02        -0.16599E-02         0.00000E+00
    0.11468E-02        -0.17193E-02         0.00000E+00
    0.11697E-02        -0.17800E-02         0.00000E+00
    0.11928E-02        -0.18421E-02         0.00000E+00
    0.12161E-02        -0.19055E-02         0.00000E+00
    0.12395E-02        -0.19702E-02         0.00000E+00
    0.12629E-02        -0.20364E-02         0.00000E+00
    0.12865E-02        -0.21040E-02         0.00000E+00
    0.13101E-02        -0.21731E-02         0.00000E+00
    0.13338E-02        -0.22436E-02         0.00000E+00
    0.13574E-02        -0.23157E-02         0.00000E+00
    0.13810E-02        -0.23892E-02         0.00000E+00
    0.14046E-02        -0.24644E-02         0.00000E+00
    0.14280E-02        -0.25411E-02         0.00000E+00
    0.14513E-02        -0.26193E-02         0.00000E+00
    0.14744E-02        -0.26992E-02         0.00000E+00
    0.14972E-02        -0.27808E-02         0.00000E+00
    0.15197E-02        -0.28640E-02         0.00000E+00
    0.15418E-02        -0.29488E-02         0.00000E+00
    0.15635E-02        -0.30353E-02         0.00000E+00
    0.15847E-02        -0.31235E-02         0.00000E+00
    0.16053E-02        -0.32134E-02         0.00000E+00
    0.16252E-02        -0.33050E-02         0.00000E+00
    0.16443E-02        -0.33983E-02         0.00000E+00
    0.16626E-02        -0.34934E-02         0.00000E+00
    0.16800E-02        -0.35902E-02         0.00000E+00
    0.16963E-02        -0.36887E-02         0.00000E+00
    0.17113E-02        -0.37889E-02         0.00000E+00
    0.17251E-02        -0.38909E-02         0.00000E+00
    0.17374E-02        -0.39946E-02         0.00000E+00
    0.17481E-02        -0.41001E-02         0.00000E+00
    0.17571E-02        -0.42073E-02         0.00000E+00
    0.17641E-02        -0.43162E-02         0.00000E+00
    0.17690E-02        -0.44269E-02         0.00000E+00
    0.17716E-02        -0.45393E-02         0.00000E+00
    0.17717E-02        -0.46535E-02         0.00000E+00
    0.17690E-02        -0.47694E-02         0.00000E+00
    0.17635E-02        -0.48870E-02         0.00000E+00
    0.17547E-02        -0.50064E-02         0.00000E+00
    0.17425E-02        -0.51276E-02         0.00000E+00
    0.17266E-02        -0.52505E-02         0.00000E+00
    0.17068E-02        -0.53753E-02         0.00000E+00
    0.16828E-02        -0.55017E-02         0.00000E+00
    0.16544E-02        -0.56300E-02         0.00000E+00
    0.16213E-02        -0.57599E-02         0.00000E+00
    0.15833E-02        -0.58916E-02         0.00000E+00
    0.15402E-02        -0.60248E-02         0.00000E+00
    0.14917E-02        -0.61594E-02         0.00000E+00
    0.14376E-02        -0.62951E-02         0.00000E+00
    0.13778E-02        -0.64317E-02         0.00000E+00
    0.13119E-02        -0.65684E-02         0.00000E+00
    0.12396E-02        -0.67046E-02         0.00000E+00
    0.11603E-02        -0.68391E-02         0.00000E+00
    0.10732E-02        -0.69705E-02         0.00000E+00
    0.97696E-03        -0.70968E-02         0.00000E+00
    0.86956E-03        -0.72156E-02         0.00000E+00
    0.74787E-03        -0.73237E-02         0.00000E+00
    0.60726E-03        -0.74169E-02         0.00000E+00
    0.44130E-03        -0.74903E-02         0.00000E+00
    0.24186E-03        -0.75380E-02         0.00000E+00
    0.00000E+00        -0.75547E-02         0.00000E+00
    0.00000E+00        -0.60431E-04         0.00000E+00
    0.73945E-04        -0.64849E-04         0.00000E+00
    0.13729E-03        -0.77567E-04         0.00000E+00
    0.19227E-03        -0.97290E-04         0.00000E+00
    0.24092E-03        -0.12254E-03         0.00000E+00
    0.28490E-03        -0.15203E-03         0.00000E+00
    0.32542E-03        -0.18470E-03         0.00000E+00
    0.36332E-03        -0.21972E-03         0.00000E+00
    0.39916E-03        -0.25645E-03         0.00000E+00
    0.43332E-03        -0.29442E-03         0.00000E+00
    0.46606E-03        -0.33328E-03         0.00000E+00
    0.49755E-03        -0.37280E-03         0.00000E+00
    0.52791E-03        -0.41282E-03         0.00000E+00
    0.55725E-03        -0.45325E-03         0.00000E+00
    0.58565E-03        -0.49404E-03         0.00000E+00
    0.61318E-03        -0.53518E-03         0.00000E+00
    0.63991E-03        -0.57667E-03         0.00000E+00
    0.66593E-03        -0.61856E-03         0.00000E+00
    0.69131E-03        -0.66086E-03         0.00000E+00
    0.71611E-03        -0.70362E-03         0.00000E+00
    0.74041E-03        -0.74689E-03         0.00000E+00
    0.76428E-03        -0.79073E-03         0.00000E+00
    0.78779E-03        -0.83517E-03         0.00000E+00
    0.81100E-03        -0.88027E-03         0.00000E+00
    0.83398E-03        -0.92607E-03         0.00000E+00
    0.85679E-03        -0.97262E-03         0.00000E+00
    0.87947E-03        -0.10200E-02         0.00000E+00
    0.90208E-03        -0.10682E-02         0.00000E+00
    0.92467E-03        -0.11172E-02         0.00000E+00
    0.94726E-03        -0.11672E-02         0.00000E+00
    0.96991E-03        -0.12182E-02         0.00000E+00
    0.99264E-03        -0.12702E-02         0.00000E+00
    0.10155E-02        -0.13232E-02         0.00000E+00
    0.10384E-02        -0.13773E-02         0.00000E+00
    0.10616E-02        -0.14325E-02         0.00000E+00
    0.10848E-02        -0.14889E-02         0.00000E+00
    0.11083E-02        -0.15464E-02         0.00000E+00
    0.11320E-02        -0.16052E-02         0.00000E+00
    0.11558E-02        -0.16652E-02         0.00000E+00
    0.11798E-02        -0.17265E-02         0.00000E+00
    0.12040E-02        -0.17892E-02         0.00000E+00
    0.12284E-02        -0.18532E-02         0.00000E+00
    0.12530E-02        -0.19186E-02         0.00000E+00
    0.12778E-02        -0.19854E-02         0.00000E+00
    0.13027E-02        -0.20537E-02         0.00000E+00
    0.13277E-02        -0.21235E-02         0.00000E+00
    0.13528E-02        -0.21947E-02         0.00000E+00
    0.13781E-02        -0.22675E-02         0.00000E+00
    0.14034E-02        -0.23419E-02         0.00000E+00
    0.14287E-02        -0.24179E-02         0.00000E+00
    0.14541E-02        -0.24955E-02         0.00000E+00
    0.14794E-02        -0.25747E-02         0.00000E+00
    0.15046E-02        -0.26556E-02         0.00000E+00
    0.15297E-02        -0.27382E-02         0.00000E+00
    0.15546E-02        -0.28225E-02         0.00000E+00
    0.15794E-02        -0.29085E-02         0.00000E+00
    0.16038E-02        -0.29963E-02         0.00000E+00
    0.16279E-02        -0.30858E-02         0.00000E+00
    0.16516E-02        -0.31772E-02         0.00000E+00
    0.16749E-02        -0.32703E-02         0.00000E+00
    0.16976E-02        -0.33652E-02         0.00000E+00
    0.17196E-02        -0.34620E-02         0.00000E+00
    0.17410E-02        -0.35606E-02         0.00000E+00
    0.17615E-02        -0.36611E-02         0.00000E+00
    0.17811E-02        -0.37633E-02         0.00000E+00
    0.17997E-02        -0.38675E-02         0.00000E+00
    0.18171E-02        -0.39735E-02         0.00000E+00
    0.18333E-02        -0.40813E-02         0.00000E+00
    0.18480E-02        -0.41911E-02         0.00000E+00
    0.18613E-02        -0.43026E-02         0.00000E+00
    0.18727E-02        -0.44161E-02         0.00000E+00
    0.18823E-02        -0.45314E-02         0.00000E+00
    0.18899E-02        -0.46486E-02         0.00000E+00
    0.18952E-02        -0.47676E-02         0.00000E+00
    0.18980E-02        -0.48885E-02         0.00000E+00
    0.18981E-02        -0.50112E-02         0.00000E+00
    0.18953E-02        -0.51358E-02         0.00000E+00
    0.18894E-02        -0.52623E-02         0.00000E+00
    0.18801E-02        -0.53907E-02         0.00000E+00
    0.18670E-02        -0.55209E-02         0.00000E+00
    0.18501E-02        -0.56530E-02         0.00000E+00
    0.18289E-02        -0.57870E-02         0.00000E+00
    0.18032E-02        -0.59229E-02         0.00000E+00
    0.17727E-02        -0.60606E-02         0.00000E+00
    0.17372E-02        -0.62002E-02         0.00000E+00
    0.16964E-02        -0.63416E-02         0.00000E+00
    0.16501E-02        -0.64847E-02         0.00000E+00
    0.15979E-02        -0.66292E-02         0.00000E+00
    0.15397E-02        -0.67750E-02         0.00000E+00
    0.14753E-02        -0.69215E-02         0.00000E+00
    0.14041E-02        -0.70683E-02         0.00000E+00
    0.13260E-02        -0.72144E-02         0.00000E+00
    0.12402E-02        -0.73587E-02         0.00000E+00
    0.11460E-02        -0.74997E-02         0.00000E+00
    0.10418E-02        -0.76351E-02         0.00000E+00
    0.92563E-03        -0.77622E-02         0.00000E+00
    0.79428E-03        -0.78776E-02         0.00000E+00
    0.64309E-03        -0.79768E-02         0.00000E+00
    0.46569E-03        -0.80545E-02         0.00000E+00
    0.25420E-03        -0.81048E-02         0.00000E+00
    0.00000E+00        -0.81222E-02         0.00000E+00
    0.00000E+00        -0.69012E-04         0.00000E+00
    0.77626E-04        -0.73637E-04         0.00000E+00
    0.14460E-03        -0.87000E-04         0.00000E+00
    0.20308E-03        -0.10783E-03         0.00000E+00
    0.25507E-03        -0.13461E-03         0.00000E+00
    0.30219E-03        -0.16598E-03         0.00000E+00
    0.34566E-03        -0.20080E-03         0.00000E+00
    0.38633E-03        -0.23817E-03         0.00000E+00
    0.42478E-03        -0.27740E-03         0.00000E+00
    0.46140E-03        -0.31796E-03         0.00000E+00
    0.49646E-03        -0.35950E-03         0.00000E+00
    0.53015E-03        -0.40174E-03         0.00000E+00
    0.56260E-03        -0.44453E-03         0.00000E+00
    0.59394E-03        -0.48777E-03         0.00000E+00
    0.62425E-03        -0.53140E-03         0.00000E+00
    0.65361E-03        -0.57541E-03         0.00000E+00
    0.68212E-03        -0.61981E-03         0.00000E+00
    0.70986E-03        -0.66463E-03         0.00000E+00
    0.73690E-03        -0.70990E-03         0.00000E+00
    0.76332E-03        -0.75567E-03         0.00000E+00
    0.78920E-03        -0.80200E-03         0.00000E+00
    0.81463E-03        -0.84893E-03         0.00000E+00
    0.83967E-03        -0.89652E-03         0.00000E+00
    0.86439E-03        -0.94482E-03         0.00000E+00
    0.88887E-03        -0.99387E-03         0.00000E+00
    0.91316E-03        -0.10437E-02         0.00000E+00
    0.93732E-03        -0.10945E-02         0.00000E+00
    0.96141E-03        -0.11461E-02         0.00000E+00
    0.98547E-03        -0.11987E-02         0.00000E+00
    0.10095E-02        -0.12522E-02         0.00000E+00
    0.10337E-02        -0.13068E-02         0.00000E+00
    0.10579E-02        -0.13625E-02         0.00000E+00
    0.10822E-02        -0.14193E-02         0.00000E+00
    0.11067E-02        -0.14773E-02         0.00000E+00
    0.11313E-02        -0.15365E-02         0.00000E+00
    0.11561E-02        -0.15969E-02         0.00000E+00
    0.11811E-02        -0.16585E-02         0.00000E+00
    0.12063E-02        -0.17215E-02         0.00000E+00
    0.12317E-02        -0.17859E-02         0.00000E+00
    0.12573E-02        -0.18516E-02         0.00000E+00
    0.12831E-02        -0.19187E-02         0.00000E+00
    0.13091E-02        -0.19873E-02         0.00000E+00
    0.13353E-02        -0.20574E-02         0.00000E+00
    0.13617E-02        -0.21290E-02         0.00000E+00
    0.13883E-02        -0.22022E-02         0.00000E+00
    0.14149E-02        -0.22769E-02         0.00000E+00
    0.14417E-02        -0.23533E-02         0.00000E+00
    0.14686E-02        -0.24313E-02         0.00000E+00
    0.14956E-02        -0.25110E-02         0.00000E+00
    0.15226E-02        -0.25924E-02         0.00000E+00
    0.15496E-02        -0.26755E-02         0.00000E+00
    0.15766E-02        -0.27604E-02         0.00000E+00
    0.16035E-02        -0.28470E-02         0.00000E+00
    0.16302E-02        -0.29355E-02         0.00000E+00
    0.16568E-02        -0.30258E-02         0.00000E+00
    0.16832E-02        -0.31180E-02         0.00000E+00
    0.17092E-02        -0.32120E-02         0.00000E+00
    0.17349E-02        -0.33079E-02         0.00000E+00
    0.17602E-02        -0.34058E-02         0.00000E+00
    0.17850E-02        -0.35055E-02         0.00000E+00
    0.18092E-02        -0.36072E-02         0.00000E+00
    0.18327E-02        -0.37108E-02         0.00000E+00
    0.18554E-02        -0.38164E-02         0.00000E+00
    0.18773E-02        -0.39239E-02         0.00000E+00
    0.18982E-02        -0.40335E-02         0.00000E+00
    0.19180E-02        -0.41450E-02         0.00000E+00
    0.19366E-02        -0.42584E-02         0.00000E+00
    0.19539E-02        -0.43739E-02         0.00000E+00
    0.19696E-02        -0.44914E-02         0.00000E+00
    0.19837E-02        -0.46108E-02         0.00000E+00
    0.19960E-02        -0.47322E-02         0.00000E+00
    0.20063E-02        -0.48556E-02         0.00000E+00
    0.20143E-02        -0.49810E-02         0.00000E+00
    0.20200E-02        -0.51083E-02         0.00000E+00
    0.20230E-02        -0.52377E-02         0.00000E+00
    0.20232E-02        -0.53690E-02         0.00000E+00
    0.20203E-02        -0.55023E-02         0.00000E+00
    0.20140E-02        -0.56375E-02         0.00000E+00
    0.20041E-02        -0.57748E-02         0.00000E+00
    0.19903E-02        -0.59140E-02         0.00000E+00
    0.19722E-02        -0.60553E-02         0.00000E+00
    0.19497E-02        -0.61985E-02         0.00000E+00
    0.19223E-02        -0.63437E-02         0.00000E+00
    0.18899E-02        -0.64910E-02         0.00000E+00
    0.18520E-02        -0.66401E-02         0.00000E+00
    0.18084E-02        -0.67912E-02         0.00000E+00
    0.17589E-02        -0.69440E-02         0.00000E+00
    0.17032E-02        -0.70984E-02         0.00000E+00
    0.16408E-02        -0.72541E-02         0.00000E+00
    0.15717E-02        -0.74107E-02         0.00000E+00
    0.14954E-02        -0.75674E-02         0.00000E+00
    0.14114E-02        -0.77234E-02         0.00000E+00
    0.13192E-02        -0.78775E-02         0.00000E+00
    0.12177E-02        -0.80278E-02         0.00000E+00
    0.11055E-02        -0.81722E-02         0.00000E+00
    0.98059E-03        -0.83076E-02         0.00000E+00
    0.83960E-03        -0.84303E-02         0.00000E+00
    0.67795E-03        -0.85354E-02         0.00000E+00
    0.48935E-03        -0.86174E-02         0.00000E+00
    0.26615E-03        -0.86701E-02         0.00000E+00
    0.00000E+00        -0.86884E-02         0.00000E+00
    0.00000E+00        -0.78004E-04         0.00000E+00
    0.81210E-04        -0.82841E-04         0.00000E+00
    0.15172E-03        -0.96854E-04         0.00000E+00
    0.21365E-03        -0.11878E-03         0.00000E+00
    0.26894E-03        -0.14709E-03         0.00000E+00
    0.31918E-03        -0.18033E-03         0.00000E+00
    0.36559E-03        -0.21728E-03         0.00000E+00
    0.40902E-03        -0.25699E-03         0.00000E+00
    0.45007E-03        -0.29869E-03         0.00000E+00
    0.48914E-03        -0.34184E-03         0.00000E+00
    0.52651E-03        -0.38603E-03         0.00000E+00
    0.56239E-03        -0.43099E-03         0.00000E+00
    0.59693E-03        -0.47654E-03         0.00000E+00
    0.63024E-03        -0.52257E-03         0.00000E+00
    0.66244E-03        -0.56903E-03         0.00000E+00
    0.69363E-03        -0.61590E-03         0.00000E+00
    0.72389E-03        -0.66319E-03         0.00000E+00
    0.75331E-03        -0.71093E-03         0.00000E+00
    0.78199E-03        -0.75917E-03         0.00000E+00
    0.81001E-03        -0.80795E-03         0.00000E+00
    0.83746E-03        -0.85732E-03         0.00000E+00
    0.86442E-03        -0.90734E-03         0.00000E+00
    0.89097E-03        -0.95807E-03         0.00000E+00
    0.91719E-03        -0.10096E-02         0.00000E+00
    0.94314E-03        -0.10619E-02         0.00000E+00
    0.96889E-03        -0.11151E-02         0.00000E+00
    0.99452E-03        -0.11691E-02         0.00000E+00
    0.10201E-02        -0.12242E-02         0.00000E+00
    0.10456E-02        -0.12803E-02         0.00000E+00
    0.10711E-02        -0.13374E-02         0.00000E+00
    0.10967E-02        -0.13957E-02         0.00000E+00
    0.11224E-02        -0.14551E-02         0.00000E+00
    0.11482E-02        -0.15157E-02         0.00000E+00
    0.11741E-02        -0.15775E-02         0.00000E+00
    0.12003E-02        -0.16406E-02         0.00000E+00
    0.12266E-02        -0.17051E-02         0.00000E+00
    0.12531E-02        -0.17709E-02         0.00000E+00
    0.12798E-02        -0.18381E-02         0.00000E+00
    0.13068E-02        -0.19067E-02         0.00000E+00
    0.13339E-02        -0.19768E-02         0.00000E+00
    0.13613E-02        -0.20485E-02         0.00000E+00
    0.13889E-02        -0.21216E-02         0.00000E+00
    0.14167E-02        -0.21964E-02         0.00000E+00
    0.14447E-02        -0.22728E-02         0.00000E+00
    0.14728E-02        -0.23508E-02         0.00000E+00
    0.15011E-02        -0.24306E-02         0.00000E+00
    0.15296E-02        -0.25120E-02         0.00000E+00
    0.15581E-02        -0.25953E-02         0.00000E+00
    0.15867E-02        -0.26803E-02         0.00000E+00
    0.16154E-02        -0.27671E-02         0.00000E+00
    0.16440E-02        -0.28557E-02         0.00000E+00
    0.16726E-02        -0.29463E-02         0.00000E+00
    0.17012E-02        -0.30387E-02         0.00000E+00
    0.17296E-02        -0.31331E-02         0.00000E+00
    0.17578E-02        -0.32294E-02         0.00000E+00
    0.17857E-02        -0.33277E-02         0.00000E+00
    0.18134E-02        -0.34279E-02         0.00000E+00
    0.18407E-02        -0.35302E-02         0.00000E+00
    0.18675E-02        -0.36345E-02         0.00000E+00
    0.18938E-02        -0.37409E-02         0.00000E+00
    0.19195E-02        -0.38493E-02         0.00000E+00
    0.19444E-02        -0.39598E-02         0.00000E+00
    0.19686E-02        -0.40723E-02         0.00000E+00
    0.19918E-02        -0.41870E-02         0.00000E+00
    0.20140E-02        -0.43037E-02         0.00000E+00
    0.20351E-02        -0.44226E-02         0.00000E+00
    0.20548E-02        -0.45435E-02         0.00000E+00
    0.20732E-02        -0.46666E-02         0.00000E+00
    0.20899E-02        -0.47918E-02         0.00000E+00
    0.21049E-02        -0.49190E-02         0.00000E+00
    0.21179E-02        -0.50484E-02         0.00000E+00
    0.21288E-02        -0.51799E-02         0.00000E+00
    0.21374E-02        -0.53134E-02         0.00000E+00
    0.21435E-02        -0.54491E-02         0.00000E+00
    0.21468E-02        -0.55869E-02         0.00000E+00
    0.21470E-02        -0.57267E-02         0.00000E+00
    0.21440E-02        -0.58686E-02         0.00000E+00
    0.21374E-02        -0.60127E-02         0.00000E+00
    0.21269E-02        -0.61588E-02         0.00000E+00
    0.21123E-02        -0.63070E-02         0.00000E+00
    0.20932E-02        -0.64573E-02         0.00000E+00
    0.20693E-02        -0.66098E-02         0.00000E+00
    0.20403E-02        -0.67643E-02         0.00000E+00
    0.20059E-02        -0.69210E-02         0.00000E+00
    0.19657E-02        -0.70797E-02         0.00000E+00
    0.19194E-02        -0.72403E-02         0.00000E+00
    0.18667E-02        -0.74029E-02         0.00000E+00
    0.18074E-02        -0.75671E-02         0.00000E+00
    0.17410E-02        -0.77327E-02         0.00000E+00
    0.16672E-02        -0.78991E-02         0.00000E+00
    0.15856E-02        -0.80657E-02         0.00000E+00
    0.14958E-02        -0.82316E-02         0.00000E+00
    0.13971E-02        -0.83953E-02         0.00000E+00
    0.12884E-02        -0.85550E-02         0.00000E+00
    0.11682E-02        -0.87083E-02         0.00000E+00
    0.10345E-02        -0.88519E-02         0.00000E+00
    0.88394E-03        -0.89817E-02         0.00000E+00
    0.71193E-03        -0.90928E-02         0.00000E+00
    0.51234E-03        -0.91790E-02         0.00000E+00
    0.27774E-03        -0.92343E-02         0.00000E+00
    0.00000E+00        -0.92534E-02         0.00000E+00
    0.00000E+00        -0.87389E-04         0.00000E+00
    0.84706E-04        -0.92442E-04         0.00000E+00
    0.15868E-03        -0.10711E-03         0.00000E+00
    0.22399E-03        -0.13014E-03         0.00000E+00
    0.28254E-03        -0.15996E-03         0.00000E+00
    0.33588E-03        -0.19506E-03         0.00000E+00
    0.38522E-03        -0.23414E-03         0.00000E+00
    0.43141E-03        -0.27616E-03         0.00000E+00
    0.47505E-03        -0.32033E-03         0.00000E+00
    0.51656E-03        -0.36604E-03         0.00000E+00
    0.55624E-03        -0.41287E-03         0.00000E+00
    0.59429E-03        -0.46053E-03         0.00000E+00
    0.63089E-03        -0.50883E-03         0.00000E+00
    0.66617E-03        -0.55764E-03         0.00000E+00
    0.70024E-03        -0.60691E-03         0.00000E+00
    0.73322E-03        -0.65663E-03         0.00000E+00
    0.76521E-03        -0.70681E-03         0.00000E+00
    0.79630E-03        -0.75747E-03         0.00000E+00
    0.82660E-03        -0.80866E-03         0.00000E+00
    0.85620E-03        -0.86044E-03         0.00000E+00
    0.88519E-03        -0.91285E-03         0.00000E+00
    0.91366E-03        -0.96597E-03         0.00000E+00
    0.94170E-03        -0.10198E-02         0.00000E+00
    0.96938E-03        -0.10745E-02         0.00000E+00
    0.99679E-03        -0.11301E-02         0.00000E+00
    0.10240E-02        -0.11866E-02         0.00000E+00
    0.10510E-02        -0.12440E-02         0.00000E+00
    0.10780E-02        -0.13025E-02         0.00000E+00
    0.11050E-02        -0.13621E-02         0.00000E+00
    0.11319E-02        -0.14228E-02         0.00000E+00
    0.11590E-02        -0.14847E-02         0.00000E+00
    0.11861E-02        -0.15478E-02         0.00000E+00
    0.12134E-02        -0.16122E-02         0.00000E+00
    0.12408E-02        -0.16779E-02         0.00000E+00
    0.12684E-02        -0.17450E-02         0.00000E+00
    0.12962E-02        -0.18135E-02         0.00000E+00
    0.13242E-02        -0.18834E-02         0.00000E+00
    0.13525E-02        -0.19548E-02         0.00000E+00
    0.13809E-02        -0.20278E-02         0.00000E+00
    0.14096E-02        -0.21023E-02         0.00000E+00
    0.14386E-02        -0.21784E-02         0.00000E+00
    0.14677E-02        -0.22562E-02         0.00000E+00
    0.14971E-02        -0.23356E-02         0.00000E+00
    0.15267E-02        -0.24168E-02         0.00000E+00
    0.15564E-02        -0.24997E-02         0.00000E+00
    0.15863E-02        -0.25845E-02         0.00000E+00
    0.16164E-02        -0.26710E-02         0.00000E+00
    0.16465E-02        -0.27594E-02         0.00000E+00
    0.16768E-02        -0.28498E-02         0.00000E+00
    0.17071E-02        -0.29420E-02         0.00000E+00
    0.17374E-02        -0.30362E-02         0.00000E+00
    0.17676E-02        -0.31324E-02         0.00000E+00
    0.17978E-02        -0.32306E-02         0.00000E+00
    0.18278E-02        -0.33308E-02         0.00000E+00
    0.18576E-02        -0.34332E-02         0.00000E+00
    0.18872E-02        -0.35376E-02         0.00000E+00
    0.19164E-02        -0.36441E-02         0.00000E+00
    0.19452E-02        -0.37527E-02         0.00000E+00
    0.19736E-02        -0.38635E-02         0.00000E+00
    0.20014E-02        -0.39765E-02         0.00000E+00
    0.20285E-02        -0.40916E-02         0.00000E+00
    0.20549E-02        -0.42089E-02         0.00000E+00
    0.20805E-02        -0.43285E-02         0.00000E+00
    0.21050E-02        -0.44502E-02         0.00000E+00
    0.21285E-02        -0.45742E-02         0.00000E+00
    0.21508E-02        -0.47004E-02         0.00000E+00
    0.21717E-02        -0.48288E-02         0.00000E+00
    0.21911E-02        -0.49594E-02         0.00000E+00
    0.22088E-02        -0.50923E-02         0.00000E+00
    0.22247E-02        -0.52274E-02         0.00000E+00
    0.22385E-02        -0.53647E-02         0.00000E+00
    0.22501E-02        -0.55042E-02         0.00000E+00
    0.22592E-02        -0.56459E-02         0.00000E+00
    0.22657E-02        -0.57899E-02         0.00000E+00
    0.22692E-02        -0.59360E-02         0.00000E+00
    0.22695E-02        -0.60844E-02         0.00000E+00
    0.22663E-02        -0.62349E-02         0.00000E+00
    0.22594E-02        -0.63877E-02         0.00000E+00
    0.22484E-02        -0.65427E-02         0.00000E+00
    0.22330E-02        -0.66998E-02         0.00000E+00
    0.22129E-02        -0.68592E-02         0.00000E+00
    0.21877E-02        -0.70208E-02         0.00000E+00
    0.21571E-02        -0.71846E-02         0.00000E+00
    0.21208E-02        -0.73506E-02         0.00000E+00
    0.20783E-02        -0.75188E-02         0.00000E+00
    0.20293E-02        -0.76890E-02         0.00000E+00
    0.19735E-02        -0.78613E-02         0.00000E+00
    0.19106E-02        -0.80352E-02         0.00000E+00
    0.18401E-02        -0.82106E-02         0.00000E+00
    0.17617E-02        -0.83868E-02         0.00000E+00
    0.16750E-02        -0.85633E-02         0.00000E+00
    0.15793E-02        -0.87388E-02         0.00000E+00
    0.14740E-02        -0.89121E-02         0.00000E+00
    0.13581E-02        -0.90811E-02         0.00000E+00
    0.12300E-02        -0.92432E-02         0.00000E+00
    0.10875E-02        -0.93950E-02         0.00000E+00
    0.92736E-03        -0.95320E-02         0.00000E+00
    0.74512E-03        -0.96489E-02         0.00000E+00
    0.53475E-03        -0.97394E-02         0.00000E+00
    0.28901E-03        -0.97972E-02         0.00000E+00
    0.00000E+00        -0.98171E-02         0.00000E+00
    0.00000E+00        -0.97150E-04         0.00000E+00
    0.88121E-04        -0.10242E-03         0.00000E+00
    0.16549E-03        -0.11776E-03         0.00000E+00
    0.23413E-03        -0.14190E-03         0.00000E+00
    0.29590E-03        -0.17323E-03         0.00000E+00
    0.35232E-03        -0.21018E-03         0.00000E+00
    0.40457E-03        -0.25137E-03         0.00000E+00
    0.45351E-03        -0.29569E-03         0.00000E+00
    0.49974E-03        -0.34231E-03         0.00000E+00
    0.54368E-03        -0.39057E-03         0.00000E+00
    0.58564E-03        -0.44003E-03         0.00000E+00
    0.62585E-03        -0.49037E-03         0.00000E+00
    0.66450E-03        -0.54139E-03         0.00000E+00
    0.70172E-03        -0.59298E-03         0.00000E+00
    0.73764E-03        -0.64505E-03         0.00000E+00
    0.77240E-03        -0.69761E-03         0.00000E+00
    0.80609E-03        -0.75066E-03         0.00000E+00
    0.83883E-03        -0.80423E-03         0.00000E+00
    0.87072E-03        -0.85837E-03         0.00000E+00
    0.90187E-03        -0.91314E-03         0.00000E+00
    0.93238E-03        -0.96859E-03         0.00000E+00
    0.96234E-03        -0.10248E-02         0.00000E+00
    0.99184E-03        -0.10818E-02         0.00000E+00
    0.10210E-02        -0.11397E-02         0.00000E+00
    0.10498E-02        -0.11985E-02         0.00000E+00
    0.10784E-02        -0.12583E-02         0.00000E+00
    0.11069E-02        -0.13191E-02         0.00000E+00
    0.11353E-02        -0.13810E-02         0.00000E+00
    0.11637E-02        -0.14441E-02         0.00000E+00
    0.11921E-02        -0.15084E-02         0.00000E+00
    0.12205E-02        -0.15739E-02         0.00000E+00
    0.12491E-02        -0.16408E-02         0.00000E+00
    0.12778E-02        -0.17090E-02         0.00000E+00
    0.13066E-02        -0.17786E-02         0.00000E+00
    0.13357E-02        -0.18496E-02         0.00000E+00
    0.13650E-02        -0.19221E-02         0.00000E+00
    0.13945E-02        -0.19962E-02         0.00000E+00
    0.14242E-02        -0.20718E-02         0.00000E+00
    0.14542E-02        -0.21490E-02         0.00000E+00
    0.14844E-02        -0.22279E-02         0.00000E+00
    0.15149E-02        -0.23085E-02         0.00000E+00
    0.15456E-02        -0.23909E-02         0.00000E+00
    0.15765E-02        -0.24750E-02         0.00000E+00
    0.16077E-02        -0.25610E-02         0.00000E+00
    0.16390E-02        -0.26488E-02         0.00000E+00
    0.16705E-02        -0.27385E-02         0.00000E+00
    0.17022E-02        -0.28302E-02         0.00000E+00
    0.17339E-02        -0.29238E-02         0.00000E+00
    0.17658E-02        -0.30195E-02         0.00000E+00
    0.17977E-02        -0.31171E-02         0.00000E+00
    0.18296E-02        -0.32169E-02         0.00000E+00
    0.18614E-02        -0.33187E-02         0.00000E+00
    0.18932E-02        -0.34227E-02         0.00000E+00
    0.19248E-02        -0.35288E-02         0.00000E+00
    0.19562E-02        -0.36371E-02         0.00000E+00
    0.19874E-02        -0.37476E-02         0.00000E+00
    0.20182E-02        -0.38604E-02         0.00000E+00
    0.20485E-02        -0.39754E-02         0.00000E+00
    0.20784E-02        -0.40927E-02         0.00000E+00
    0.21077E-02        -0.42122E-02         0.00000E+00
    0.21363E-02        -0.43341E-02         0.00000E+00
    0.21641E-02        -0.44583E-02         0.00000E+00
    0.21910E-02        -0.45848E-02         0.00000E+00
    0.22169E-02        -0.47136E-02         0.00000E+00
    0.22417E-02        -0.48448E-02         0.00000E+00
    0.22652E-02        -0.49783E-02         0.00000E+00
    0.22872E-02        -0.51141E-02         0.00000E+00
    0.23077E-02        -0.52523E-02         0.00000E+00
    0.23264E-02        -0.53929E-02         0.00000E+00
    0.23431E-02        -0.55358E-02         0.00000E+00
    0.23577E-02        -0.56810E-02         0.00000E+00
    0.23700E-02        -0.58286E-02         0.00000E+00
    0.23796E-02        -0.59785E-02         0.00000E+00
    0.23865E-02        -0.61307E-02         0.00000E+00
    0.23903E-02        -0.62852E-02         0.00000E+00
    0.23907E-02        -0.64421E-02         0.00000E+00
    0.23874E-02        -0.66012E-02         0.00000E+00
    0.23802E-02        -0.67627E-02         0.00000E+00
    0.23687E-02        -0.69264E-02         0.00000E+00
    0.23526E-02        -0.70925E-02         0.00000E+00
    0.23315E-02        -0.72609E-02         0.00000E+00
    0.23050E-02        -0.74316E-02         0.00000E+00
    0.22729E-02        -0.76046E-02         0.00000E+00
    0.22346E-02        -0.77800E-02         0.00000E+00
    0.21899E-02        -0.79576E-02         0.00000E+00
    0.21382E-02        -0.81373E-02         0.00000E+00
    0.20794E-02        -0.83191E-02         0.00000E+00
    0.20129E-02        -0.85027E-02         0.00000E+00
    0.19383E-02        -0.86878E-02         0.00000E+00
    0.18554E-02        -0.88738E-02         0.00000E+00
    0.17634E-02        -0.90600E-02         0.00000E+00
    0.16619E-02        -0.92453E-02         0.00000E+00
    0.15501E-02        -0.94281E-02         0.00000E+00
    0.14269E-02        -0.96063E-02         0.00000E+00
    0.12908E-02        -0.97771E-02         0.00000E+00
    0.11395E-02        -0.99369E-02         0.00000E+00
    0.96995E-03        -0.10081E-01         0.00000E+00
    0.77759E-03        -0.10204E-01         0.00000E+00
    0.55662E-03        -0.10299E-01         0.00000E+00
    0.30000E-03        -0.10359E-01         0.00000E+00
    0.00000E+00        -0.10380E-01         0.00000E+00
    0.00000E+00        -0.10727E-03         0.00000E+00
    0.91464E-04        -0.11277E-03         0.00000E+00
    0.17215E-03        -0.12878E-03         0.00000E+00
    0.24408E-03        -0.15404E-03         0.00000E+00
    0.30903E-03        -0.18689E-03         0.00000E+00
    0.36851E-03        -0.22568E-03         0.00000E+00
    0.42366E-03        -0.26897E-03         0.00000E+00
    0.47533E-03        -0.31558E-03         0.00000E+00
    0.52413E-03        -0.36462E-03         0.00000E+00
    0.57049E-03        -0.41542E-03         0.00000E+00
    0.61473E-03        -0.46749E-03         0.00000E+00
    0.65709E-03        -0.52050E-03         0.00000E+00
    0.69776E-03        -0.57424E-03         0.00000E+00
    0.73690E-03        -0.62857E-03         0.00000E+00
    0.77466E-03        -0.68345E-03         0.00000E+00
    0.81116E-03        -0.73883E-03         0.00000E+00
    0.84653E-03        -0.79474E-03         0.00000E+00
    0.88089E-03        -0.85122E-03         0.00000E+00
    0.91436E-03        -0.90830E-03         0.00000E+00
    0.94704E-03        -0.96605E-03         0.00000E+00
    0.97904E-03        -0.10245E-02         0.00000E+00
    0.10105E-02        -0.10838E-02         0.00000E+00
    0.10414E-02        -0.11440E-02         0.00000E+00
    0.10720E-02        -0.12050E-02         0.00000E+00
    0.11022E-02        -0.12671E-02         0.00000E+00
    0.11322E-02        -0.13302E-02         0.00000E+00
    0.11621E-02        -0.13944E-02         0.00000E+00
    0.11919E-02        -0.14597E-02         0.00000E+00
    0.12217E-02        -0.15263E-02         0.00000E+00
    0.12515E-02        -0.15942E-02         0.00000E+00
    0.12813E-02        -0.16634E-02         0.00000E+00
    0.13113E-02        -0.17339E-02         0.00000E+00
    0.13414E-02        -0.18059E-02         0.00000E+00
    0.13717E-02        -0.18794E-02         0.00000E+00
    0.14022E-02        -0.19544E-02         0.00000E+00
    0.14329E-02        -0.20309E-02         0.00000E+00
    0.14639E-02        -0.21091E-02         0.00000E+00
    0.14951E-02        -0.21889E-02         0.00000E+00
    0.15266E-02        -0.22705E-02         0.00000E+00
    0.15583E-02        -0.23538E-02         0.00000E+00
    0.15903E-02        -0.24389E-02         0.00000E+00
    0.16225E-02        -0.25258E-02         0.00000E+00
    0.16550E-02        -0.26147E-02         0.00000E+00
    0.16877E-02        -0.27054E-02         0.00000E+00
    0.17206E-02        -0.27981E-02         0.00000E+00
    0.17537E-02        -0.28928E-02         0.00000E+00
    0.17869E-02        -0.29896E-02         0.00000E+00
    0.18202E-02        -0.30884E-02         0.00000E+00
    0.18537E-02        -0.31894E-02         0.00000E+00
    0.18872E-02        -0.32925E-02         0.00000E+00
    0.19207E-02        -0.33977E-02         0.00000E+00
    0.19541E-02        -0.35052E-02         0.00000E+00
    0.19875E-02        -0.36150E-02         0.00000E+00
    0.20207E-02        -0.37270E-02         0.00000E+00
    0.20537E-02        -0.38413E-02         0.00000E+00
    0.20864E-02        -0.39579E-02         0.00000E+00
    0.21187E-02        -0.40769E-02         0.00000E+00
    0.21506E-02        -0.41983E-02         0.00000E+00
    0.21820E-02        -0.43220E-02         0.00000E+00
    0.22128E-02        -0.44482E-02         0.00000E+00
    0.22428E-02        -0.45767E-02         0.00000E+00
    0.22721E-02        -0.47078E-02         0.00000E+00
    0.23003E-02        -0.48412E-02         0.00000E+00
    0.23276E-02        -0.49771E-02         0.00000E+00
    0.23536E-02        -0.51155E-02         0.00000E+00
    0.23783E-02        -0.52563E-02         0.00000E+00
    0.24014E-02        -0.53996E-02         0.00000E+00
    0.24229E-02        -0.55454E-02         0.00000E+00
    0.24426E-02        -0.56936E-02         0.00000E+00
    0.24602E-02        -0.58443E-02         0.00000E+00
    0.24756E-02        -0.59975E-02         0.00000E+00
    0.24885E-02        -0.61530E-02         0.00000E+00
    0.24988E-02        -0.63111E-02         0.00000E+00
    0.25060E-02        -0.64715E-02         0.00000E+00
    0.25100E-02        -0.66344E-02         0.00000E+00
    0.25105E-02        -0.67997E-02         0.00000E+00
    0.25072E-02        -0.69674E-02         0.00000E+00
    0.24998E-02        -0.71375E-02         0.00000E+00
    0.24878E-02        -0.73101E-02         0.00000E+00
    0.24709E-02        -0.74850E-02         0.00000E+00
    0.24489E-02        -0.76624E-02         0.00000E+00
    0.24212E-02        -0.78422E-02         0.00000E+00
    0.23875E-02        -0.80244E-02         0.00000E+00
    0.23474E-02        -0.82090E-02         0.00000E+00
    0.23004E-02        -0.83959E-02         0.00000E+00
    0.22462E-02        -0.85852E-02         0.00000E+00
    0.21843E-02        -0.87765E-02         0.00000E+00
    0.21143E-02        -0.89697E-02         0.00000E+00
    0.20357E-02        -0.91645E-02         0.00000E+00
    0.19482E-02        -0.93602E-02         0.00000E+00
    0.18510E-02        -0.95560E-02         0.00000E+00
    0.17437E-02        -0.97509E-02         0.00000E+00
    0.16254E-02        -0.99430E-02         0.00000E+00
    0.14949E-02        -0.10130E-01         0.00000E+00
    0.13508E-02        -0.10310E-01         0.00000E+00
    0.11908E-02        -0.10478E-01         0.00000E+00
    0.10118E-02        -0.10629E-01         0.00000E+00
    0.80941E-03        -0.10757E-01         0.00000E+00
    0.57801E-03        -0.10857E-01         0.00000E+00
    0.31074E-03        -0.10920E-01         0.00000E+00
    0.00000E+00        -0.10941E-01         0.00000E+00
    0.00000E+00        -0.11774E-03         0.00000E+00
    0.94740E-04        -0.12347E-03         0.00000E+00
    0.17870E-03        -0.14017E-03         0.00000E+00
    0.25385E-03        -0.16655E-03         0.00000E+00
    0.32195E-03        -0.20092E-03         0.00000E+00
    0.38446E-03        -0.24155E-03         0.00000E+00
    0.44250E-03        -0.28693E-03         0.00000E+00
    0.49690E-03        -0.33582E-03         0.00000E+00
    0.54826E-03        -0.38728E-03         0.00000E+00
    0.59702E-03        -0.44059E-03         0.00000E+00
    0.64352E-03        -0.49525E-03         0.00000E+00
    0.68800E-03        -0.55092E-03         0.00000E+00
    0.73068E-03        -0.60736E-03         0.00000E+00
    0.77172E-03        -0.66443E-03         0.00000E+00
    0.81128E-03        -0.72209E-03         0.00000E+00
    0.84951E-03        -0.78029E-03         0.00000E+00
    0.88654E-03        -0.83905E-03         0.00000E+00
    0.92250E-03        -0.89842E-03         0.00000E+00
    0.95752E-03        -0.95844E-03         0.00000E+00
    0.99170E-03        -0.10192E-02         0.00000E+00
    0.10252E-02        -0.10807E-02         0.00000E+00
    0.10580E-02        -0.11430E-02         0.00000E+00
    0.10904E-02        -0.12063E-02         0.00000E+00
    0.11224E-02        -0.12706E-02         0.00000E+00
    0.11540E-02        -0.13358E-02         0.00000E+00
    0.11854E-02        -0.14022E-02         0.00000E+00
    0.12167E-02        -0.14698E-02         0.00000E+00
    0.12478E-02        -0.15386E-02         0.00000E+00
    0.12790E-02        -0.16087E-02         0.00000E+00
    0.13101E-02        -0.16801E-02         0.00000E+00
    0.13414E-02        -0.17529E-02         0.00000E+00
    0.13727E-02        -0.18272E-02         0.00000E+00
    0.14042E-02        -0.19030E-02         0.00000E+00
    0.14360E-02        -0.19804E-02         0.00000E+00
    0.14679E-02        -0.20593E-02         0.00000E+00
    0.15000E-02        -0.21399E-02         0.00000E+00
    0.15325E-02        -0.22222E-02         0.00000E+00
    0.15651E-02        -0.23063E-02         0.00000E+00
    0.15981E-02        -0.23921E-02         0.00000E+00
    0.16313E-02        -0.24798E-02         0.00000E+00
    0.16648E-02        -0.25694E-02         0.00000E+00
    0.16985E-02        -0.26610E-02         0.00000E+00
    0.17325E-02        -0.27545E-02         0.00000E+00
    0.17667E-02        -0.28500E-02         0.00000E+00
    0.18012E-02        -0.29476E-02         0.00000E+00
    0.18358E-02        -0.30473E-02         0.00000E+00
    0.18706E-02        -0.31492E-02         0.00000E+00
    0.19055E-02        -0.32532E-02         0.00000E+00
    0.19405E-02        -0.33595E-02         0.00000E+00
    0.19756E-02        -0.34680E-02         0.00000E+00
    0.20107E-02        -0.35788E-02         0.00000E+00
    0.20457E-02        -0.36920E-02         0.00000E+00
    0.20806E-02        -0.38075E-02         0.00000E+00
    0.21154E-02        -0.39254E-02         0.00000E+00
    0.21499E-02        -0.40457E-02         0.00000E+00
    0.21842E-02        -0.41684E-02         0.00000E+00
    0.22181E-02        -0.42936E-02         0.00000E+00
    0.22515E-02        -0.44213E-02         0.00000E+00
    0.22844E-02        -0.45516E-02         0.00000E+00
    0.23166E-02        -0.46843E-02         0.00000E+00
    0.23481E-02        -0.48196E-02         0.00000E+00
    0.23787E-02        -0.49574E-02         0.00000E+00
    0.24083E-02        -0.50978E-02         0.00000E+00
    0.24369E-02        -0.52408E-02         0.00000E+00
    0.24641E-02        -0.53864E-02         0.00000E+00
    0.24900E-02        -0.55345E-02         0.00000E+00
    0.25143E-02        -0.56853E-02         0.00000E+00
    0.25369E-02        -0.58386E-02         0.00000E+00
    0.25575E-02        -0.59945E-02         0.00000E+00
    0.25760E-02        -0.61529E-02         0.00000E+00
    0.25922E-02        -0.63140E-02         0.00000E+00
    0.26058E-02        -0.64775E-02         0.00000E+00
    0.26166E-02        -0.66437E-02         0.00000E+00
    0.26242E-02        -0.68124E-02         0.00000E+00
    0.26285E-02        -0.69836E-02         0.00000E+00
    0.26292E-02        -0.71573E-02         0.00000E+00
    0.26258E-02        -0.73336E-02         0.00000E+00
    0.26181E-02        -0.75123E-02         0.00000E+00
    0.26056E-02        -0.76936E-02         0.00000E+00
    0.25881E-02        -0.78774E-02         0.00000E+00
    0.25651E-02        -0.80637E-02         0.00000E+00
    0.25363E-02        -0.82525E-02         0.00000E+00
    0.25011E-02        -0.84439E-02         0.00000E+00
    0.24591E-02        -0.86377E-02         0.00000E+00
    0.24100E-02        -0.88340E-02         0.00000E+00
    0.23532E-02        -0.90326E-02         0.00000E+00
    0.22883E-02        -0.92334E-02         0.00000E+00
    0.22148E-02        -0.94362E-02         0.00000E+00
    0.21323E-02        -0.96405E-02         0.00000E+00
    0.20402E-02        -0.98458E-02         0.00000E+00
    0.19379E-02        -0.10051E-01         0.00000E+00
    0.18248E-02        -0.10256E-01         0.00000E+00
    0.16999E-02        -0.10457E-01         0.00000E+00
    0.15622E-02        -0.10654E-01         0.00000E+00
    0.14101E-02        -0.10842E-01         0.00000E+00
    0.12414E-02        -0.11017E-01         0.00000E+00
    0.10530E-02        -0.11176E-01         0.00000E+00
    0.84066E-03        -0.11310E-01         0.00000E+00
    0.59898E-03        -0.11414E-01         0.00000E+00
    0.32125E-03        -0.11479E-01         0.00000E+00
    0.00000E+00        -0.11502E-01         0.00000E+00
    0.00000E+00        -0.12853E-03         0.00000E+00
    0.97956E-04        -0.13450E-03         0.00000E+00
    0.18513E-03        -0.15191E-03         0.00000E+00
    0.26346E-03        -0.17943E-03         0.00000E+00
    0.33468E-03        -0.21532E-03         0.00000E+00
    0.40020E-03        -0.25779E-03         0.00000E+00
    0.46111E-03        -0.30525E-03         0.00000E+00
    0.51822E-03        -0.35641E-03         0.00000E+00
    0.57213E-03        -0.41026E-03         0.00000E+00
    0.62328E-03        -0.46608E-03         0.00000E+00
    0.67202E-03        -0.52332E-03         0.00000E+00
    0.71861E-03        -0.58162E-03         0.00000E+00
    0.76327E-03        -0.64074E-03         0.00000E+00
    0.80619E-03        -0.70055E-03         0.00000E+00
    0.84753E-03        -0.76097E-03         0.00000E+00
    0.88747E-03        -0.82198E-03         0.00000E+00
    0.92613E-03        -0.88359E-03         0.00000E+00
    0.96366E-03        -0.94584E-03         0.00000E+00
    0.10002E-02        -0.10088E-02         0.00000E+00
    0.10359E-02        -0.10725E-02         0.00000E+00
    0.10708E-02        -0.11370E-02         0.00000E+00
    0.11051E-02        -0.12025E-02         0.00000E+00
    0.11388E-02        -0.12688E-02         0.00000E+00
    0.11722E-02        -0.13363E-02         0.00000E+00
    0.12052E-02        -0.14048E-02         0.00000E+00
    0.12379E-02        -0.14745E-02         0.00000E+00
    0.12705E-02        -0.15454E-02         0.00000E+00
    0.13031E-02        -0.16177E-02         0.00000E+00
    0.13356E-02        -0.16913E-02         0.00000E+00
    0.13681E-02        -0.17663E-02         0.00000E+00
    0.14007E-02        -0.18427E-02         0.00000E+00
    0.14334E-02        -0.19207E-02         0.00000E+00
    0.14663E-02        -0.20003E-02         0.00000E+00
    0.14994E-02        -0.20815E-02         0.00000E+00
    0.15327E-02        -0.21644E-02         0.00000E+00
    0.15663E-02        -0.22491E-02         0.00000E+00
    0.16001E-02        -0.23355E-02         0.00000E+00
    0.16343E-02        -0.24238E-02         0.00000E+00
    0.16687E-02        -0.25140E-02         0.00000E+00
    0.17033E-02        -0.26061E-02         0.00000E+00
    0.17383E-02        -0.27002E-02         0.00000E+00
    0.17735E-02        -0.27963E-02         0.00000E+00
    0.18090E-02        -0.28945E-02         0.00000E+00
    0.18448E-02        -0.29948E-02         0.00000E+00
    0.18807E-02        -0.30973E-02         0.00000E+00
    0.19169E-02        -0.32020E-02         0.00000E+00
    0.19532E-02        -0.33090E-02         0.00000E+00
    0.19897E-02        -0.34182E-02         0.00000E+00
    0.20263E-02        -0.35298E-02         0.00000E+00
    0.20629E-02        -0.36437E-02         0.00000E+00
    0.20995E-02        -0.37601E-02         0.00000E+00
    0.21361E-02        -0.38789E-02         0.00000E+00
    0.21726E-02        -0.40002E-02         0.00000E+00
    0.22089E-02        -0.41239E-02         0.00000E+00
    0.22450E-02        -0.42502E-02         0.00000E+00
    0.22808E-02        -0.43791E-02         0.00000E+00
    0.23162E-02        -0.45105E-02         0.00000E+00
    0.23511E-02        -0.46446E-02         0.00000E+00
    0.23855E-02        -0.47813E-02         0.00000E+00
    0.24192E-02        -0.49206E-02         0.00000E+00
    0.24521E-02        -0.50626E-02         0.00000E+00
    0.24841E-02        -0.52073E-02         0.00000E+00
    0.25151E-02        -0.53546E-02         0.00000E+00
    0.25449E-02        -0.55047E-02         0.00000E+00
    0.25734E-02        -0.56574E-02         0.00000E+00
    0.26005E-02        -0.58129E-02         0.00000E+00
    0.26259E-02        -0.59710E-02         0.00000E+00
    0.26495E-02        -0.61319E-02         0.00000E+00
    0.26711E-02        -0.62954E-02         0.00000E+00
    0.26905E-02        -0.64616E-02         0.00000E+00
    0.27075E-02        -0.66305E-02         0.00000E+00
    0.27217E-02        -0.68021E-02         0.00000E+00
    0.27331E-02        -0.69764E-02         0.00000E+00
    0.27412E-02        -0.71532E-02         0.00000E+00
    0.27458E-02        -0.73328E-02         0.00000E+00
    0.27465E-02        -0.75149E-02         0.00000E+00
    0.27431E-02        -0.76997E-02         0.00000E+00
    0.27352E-02        -0.78870E-02         0.00000E+00
    0.27223E-02        -0.80770E-02         0.00000E+00
    0.27041E-02        -0.82696E-02         0.00000E+00
    0.26803E-02        -0.84649E-02         0.00000E+00
    0.26502E-02        -0.86627E-02         0.00000E+00
    0.26136E-02        -0.88631E-02         0.00000E+00
    0.25698E-02        -0.90661E-02         0.00000E+00
    0.25186E-02        -0.92716E-02         0.00000E+00
    0.24592E-02        -0.94796E-02         0.00000E+00
    0.23914E-02        -0.96898E-02         0.00000E+00
    0.23145E-02        -0.99021E-02         0.00000E+00
    0.22280E-02        -0.10116E-01         0.00000E+00
    0.21314E-02        -0.10331E-01         0.00000E+00
    0.20240E-02        -0.10546E-01         0.00000E+00
    0.19051E-02        -0.10759E-01         0.00000E+00
    0.17737E-02        -0.10970E-01         0.00000E+00
    0.16288E-02        -0.11176E-01         0.00000E+00
    0.14687E-02        -0.11372E-01         0.00000E+00
    0.12913E-02        -0.11556E-01         0.00000E+00
    0.10935E-02        -0.11721E-01         0.00000E+00
    0.87140E-03        -0.11862E-01         0.00000E+00
    0.61957E-03        -0.11970E-01         0.00000E+00
    0.33156E-03        -0.12038E-01         0.00000E+00
    0.00000E+00        -0.12061E-01         0.00000E+00
    0.00000E+00        -0.13965E-03         0.00000E+00
    0.10112E-03        -0.14586E-03         0.00000E+00
    0.19145E-03        -0.16398E-03         0.00000E+00
    0.27293E-03        -0.19267E-03         0.00000E+00
    0.34724E-03        -0.23009E-03         0.00000E+00
    0.41575E-03        -0.27439E-03         0.00000E+00
    0.47951E-03        -0.32393E-03         0.00000E+00
    0.53931E-03        -0.37734E-03         0.00000E+00
    0.59575E-03        -0.43358E-03         0.00000E+00
    0.64928E-03        -0.49188E-03         0.00000E+00
    0.70024E-03        -0.55168E-03         0.00000E+00
    0.74891E-03        -0.61260E-03         0.00000E+00
    0.79553E-03        -0.67440E-03         0.00000E+00
    0.84031E-03        -0.73692E-03         0.00000E+00
    0.88341E-03        -0.80009E-03         0.00000E+00
    0.92502E-03        -0.86390E-03         0.00000E+00
    0.96529E-03        -0.92834E-03         0.00000E+00
    0.10044E-02        -0.99347E-03         0.00000E+00
    0.10424E-02        -0.10593E-02         0.00000E+00
    0.10795E-02        -0.11260E-02         0.00000E+00
    0.11159E-02        -0.11936E-02         0.00000E+00
    0.11515E-02        -0.12621E-02         0.00000E+00
    0.11867E-02        -0.13316E-02         0.00000E+00
    0.12214E-02        -0.14022E-02         0.00000E+00
    0.12557E-02        -0.14739E-02         0.00000E+00
    0.12898E-02        -0.15469E-02         0.00000E+00
    0.13238E-02        -0.16212E-02         0.00000E+00
    0.13576E-02        -0.16969E-02         0.00000E+00
    0.13914E-02        -0.17740E-02         0.00000E+00
    0.14253E-02        -0.18526E-02         0.00000E+00
    0.14592E-02        -0.19327E-02         0.00000E+00
    0.14933E-02        -0.20144E-02         0.00000E+00
    0.15276E-02        -0.20978E-02         0.00000E+00
    0.15621E-02        -0.21829E-02         0.00000E+00
    0.15968E-02        -0.22697E-02         0.00000E+00
    0.16317E-02        -0.23584E-02         0.00000E+00
    0.16670E-02        -0.24490E-02         0.00000E+00
    0.17025E-02        -0.25415E-02         0.00000E+00
    0.17384E-02        -0.26360E-02         0.00000E+00
    0.17745E-02        -0.27325E-02         0.00000E+00
    0.18109E-02        -0.28311E-02         0.00000E+00
    0.18476E-02        -0.29318E-02         0.00000E+00
    0.18846E-02        -0.30347E-02         0.00000E+00
    0.19218E-02        -0.31398E-02         0.00000E+00
    0.19593E-02        -0.32472E-02         0.00000E+00
    0.19970E-02        -0.33569E-02         0.00000E+00
    0.20348E-02        -0.34689E-02         0.00000E+00
    0.20729E-02        -0.35834E-02         0.00000E+00
    0.21110E-02        -0.37003E-02         0.00000E+00
    0.21491E-02        -0.38197E-02         0.00000E+00
    0.21873E-02        -0.39416E-02         0.00000E+00
    0.22254E-02        -0.40660E-02         0.00000E+00
    0.22635E-02        -0.41930E-02         0.00000E+00
    0.23013E-02        -0.43227E-02         0.00000E+00
    0.23390E-02        -0.44550E-02         0.00000E+00
    0.23763E-02        -0.45900E-02         0.00000E+00
    0.24132E-02        -0.47276E-02         0.00000E+00
    0.24496E-02        -0.48680E-02         0.00000E+00
    0.24854E-02        -0.50112E-02         0.00000E+00
    0.25205E-02        -0.51571E-02         0.00000E+00
    0.25548E-02        -0.53058E-02         0.00000E+00
    0.25882E-02        -0.54573E-02         0.00000E+00
    0.26205E-02        -0.56116E-02         0.00000E+00
    0.26516E-02        -0.57687E-02         0.00000E+00
    0.26814E-02        -0.59286E-02         0.00000E+00
    0.27096E-02        -0.60913E-02         0.00000E+00
    0.27362E-02        -0.62569E-02         0.00000E+00
    0.27608E-02        -0.64253E-02         0.00000E+00
    0.27834E-02        -0.65964E-02         0.00000E+00
    0.28037E-02        -0.67704E-02         0.00000E+00
    0.28214E-02        -0.69472E-02         0.00000E+00
    0.28364E-02        -0.71267E-02         0.00000E+00
    0.28483E-02        -0.73091E-02         0.00000E+00
    0.28568E-02        -0.74941E-02         0.00000E+00
    0.28617E-02        -0.76819E-02         0.00000E+00
    0.28626E-02        -0.78725E-02         0.00000E+00
    0.28592E-02        -0.80657E-02         0.00000E+00
    0.28510E-02        -0.82617E-02         0.00000E+00
    0.28378E-02        -0.84604E-02         0.00000E+00
    0.28190E-02        -0.86617E-02         0.00000E+00
    0.27943E-02        -0.88658E-02         0.00000E+00
    0.27631E-02        -0.90726E-02         0.00000E+00
    0.27250E-02        -0.92821E-02         0.00000E+00
    0.26796E-02        -0.94942E-02         0.00000E+00
    0.26262E-02        -0.97089E-02         0.00000E+00
    0.25644E-02        -0.99262E-02         0.00000E+00
    0.24937E-02        -0.10146E-01         0.00000E+00
    0.24134E-02        -0.10367E-01         0.00000E+00
    0.23230E-02        -0.10591E-01         0.00000E+00
    0.22220E-02        -0.10815E-01         0.00000E+00
    0.21095E-02        -0.11039E-01         0.00000E+00
    0.19848E-02        -0.11262E-01         0.00000E+00
    0.18470E-02        -0.11482E-01         0.00000E+00
    0.16948E-02        -0.11697E-01         0.00000E+00
    0.15267E-02        -0.11902E-01         0.00000E+00
    0.13406E-02        -0.12094E-01         0.00000E+00
    0.11336E-02        -0.12266E-01         0.00000E+00
    0.90170E-03        -0.12412E-01         0.00000E+00
    0.63984E-03        -0.12524E-01         0.00000E+00
    0.34170E-03        -0.12596E-01         0.00000E+00
    0.00000E+00        -0.12620E-01         0.00000E+00
    0.00000E+00        -0.15106E-03         0.00000E+00
    0.10423E-03        -0.15752E-03         0.00000E+00
    0.19768E-03        -0.17639E-03         0.00000E+00
    0.28227E-03        -0.20624E-03         0.00000E+00
    0.35965E-03        -0.24521E-03         0.00000E+00
    0.43112E-03        -0.29136E-03         0.00000E+00
    0.49771E-03        -0.34296E-03         0.00000E+00
    0.56019E-03        -0.39861E-03         0.00000E+00
    0.61915E-03        -0.45722E-03         0.00000E+00
    0.67503E-03        -0.51799E-03         0.00000E+00
    0.72819E-03        -0.58033E-03         0.00000E+00
    0.77893E-03        -0.64386E-03         0.00000E+00
    0.82748E-03        -0.70831E-03         0.00000E+00
    0.87408E-03        -0.77354E-03         0.00000E+00
    0.91892E-03        -0.83945E-03         0.00000E+00
    0.96218E-03        -0.90604E-03         0.00000E+00
    0.10040E-02        -0.97331E-03         0.00000E+00
    0.10446E-02        -0.10413E-02         0.00000E+00
    0.10841E-02        -0.11101E-02         0.00000E+00
    0.11227E-02        -0.11797E-02         0.00000E+00
    0.11604E-02        -0.12503E-02         0.00000E+00
    0.11975E-02        -0.13218E-02         0.00000E+00
    0.12339E-02        -0.13945E-02         0.00000E+00
    0.12700E-02        -0.14683E-02         0.00000E+00
    0.13057E-02        -0.15433E-02         0.00000E+00
    0.13411E-02        -0.16196E-02         0.00000E+00
    0.13763E-02        -0.16972E-02         0.00000E+00
    0.14115E-02        -0.17763E-02         0.00000E+00
    0.14466E-02        -0.18569E-02         0.00000E+00
    0.14818E-02        -0.19390E-02         0.00000E+00
    0.15171E-02        -0.20228E-02         0.00000E+00
    0.15525E-02        -0.21082E-02         0.00000E+00
    0.15881E-02        -0.21954E-02         0.00000E+00
    0.16239E-02        -0.22844E-02         0.00000E+00
    0.16600E-02        -0.23752E-02         0.00000E+00
    0.16963E-02        -0.24680E-02         0.00000E+00
    0.17330E-02        -0.25627E-02         0.00000E+00
    0.17699E-02        -0.26594E-02         0.00000E+00
    0.18072E-02        -0.27582E-02         0.00000E+00
    0.18447E-02        -0.28591E-02         0.00000E+00
    0.18826E-02        -0.29622E-02         0.00000E+00
    0.19207E-02        -0.30675E-02         0.00000E+00
    0.19592E-02        -0.31751E-02         0.00000E+00
    0.19979E-02        -0.32850E-02         0.00000E+00
    0.20369E-02        -0.33973E-02         0.00000E+00
    0.20760E-02        -0.35120E-02         0.00000E+00
    0.21154E-02        -0.36291E-02         0.00000E+00
    0.21549E-02        -0.37488E-02         0.00000E+00
    0.21946E-02        -0.38710E-02         0.00000E+00
    0.22343E-02        -0.39958E-02         0.00000E+00
    0.22740E-02        -0.41232E-02         0.00000E+00
    0.23136E-02        -0.42533E-02         0.00000E+00
    0.23532E-02        -0.43861E-02         0.00000E+00
    0.23926E-02        -0.45216E-02         0.00000E+00
    0.24317E-02        -0.46599E-02         0.00000E+00
    0.24705E-02        -0.48010E-02         0.00000E+00
    0.25089E-02        -0.49449E-02         0.00000E+00
    0.25468E-02        -0.50916E-02         0.00000E+00
    0.25840E-02        -0.52412E-02         0.00000E+00
    0.26206E-02        -0.53937E-02         0.00000E+00
    0.26563E-02        -0.55491E-02         0.00000E+00
    0.26910E-02        -0.57074E-02         0.00000E+00
    0.27247E-02        -0.58686E-02         0.00000E+00
    0.27571E-02        -0.60328E-02         0.00000E+00
    0.27881E-02        -0.61999E-02         0.00000E+00
    0.28175E-02        -0.63699E-02         0.00000E+00
    0.28452E-02        -0.65429E-02         0.00000E+00
    0.28709E-02        -0.67188E-02         0.00000E+00
    0.28944E-02        -0.68976E-02         0.00000E+00
    0.29156E-02        -0.70793E-02         0.00000E+00
    0.29341E-02        -0.72639E-02         0.00000E+00
    0.29497E-02        -0.74514E-02         0.00000E+00
    0.29622E-02        -0.76418E-02         0.00000E+00
    0.29712E-02        -0.78350E-02         0.00000E+00
    0.29764E-02        -0.80311E-02         0.00000E+00
    0.29775E-02        -0.82300E-02         0.00000E+00
    0.29740E-02        -0.84317E-02         0.00000E+00
    0.29657E-02        -0.86363E-02         0.00000E+00
    0.29521E-02        -0.88436E-02         0.00000E+00
    0.29327E-02        -0.90537E-02         0.00000E+00
    0.29072E-02        -0.92666E-02         0.00000E+00
    0.28749E-02        -0.94823E-02         0.00000E+00
    0.28355E-02        -0.97008E-02         0.00000E+00
    0.27884E-02        -0.99220E-02         0.00000E+00
    0.27330E-02        -0.10146E-01         0.00000E+00
    0.26688E-02        -0.10372E-01         0.00000E+00
    0.25952E-02        -0.10601E-01         0.00000E+00
    0.25116E-02        -0.10832E-01         0.00000E+00
    0.24174E-02        -0.11065E-01         0.00000E+00
    0.23118E-02        -0.11299E-01         0.00000E+00
    0.21943E-02        -0.11532E-01         0.00000E+00
    0.20639E-02        -0.11765E-01         0.00000E+00
    0.19196E-02        -0.11994E-01         0.00000E+00
    0.17603E-02        -0.12217E-01         0.00000E+00
    0.15843E-02        -0.12431E-01         0.00000E+00
    0.13895E-02        -0.12630E-01         0.00000E+00
    0.11732E-02        -0.12809E-01         0.00000E+00
    0.93161E-03        -0.12962E-01         0.00000E+00
    0.65982E-03        -0.13078E-01         0.00000E+00
    0.35168E-03        -0.13152E-01         0.00000E+00
    0.00000E+00        -0.13178E-01         0.00000E+00
    0.00000E+00        -0.16277E-03         0.00000E+00
    0.10730E-03        -0.16949E-03         0.00000E+00
    0.20383E-03        -0.18911E-03         0.00000E+00
    0.29150E-03        -0.22016E-03         0.00000E+00
    0.37191E-03        -0.26068E-03         0.00000E+00
    0.44633E-03        -0.30867E-03         0.00000E+00
    0.51574E-03        -0.36234E-03         0.00000E+00
    0.58088E-03        -0.42022E-03         0.00000E+00
    0.64233E-03        -0.48119E-03         0.00000E+00
    0.70054E-03        -0.54441E-03         0.00000E+00
    0.75588E-03        -0.60928E-03         0.00000E+00
    0.80866E-03        -0.67539E-03         0.00000E+00
    0.85913E-03        -0.74249E-03         0.00000E+00
    0.90753E-03        -0.81040E-03         0.00000E+00
    0.95407E-03        -0.87905E-03         0.00000E+00
    0.99895E-03        -0.94841E-03         0.00000E+00
    0.10424E-02        -0.10185E-02         0.00000E+00
    0.10844E-02        -0.10894E-02         0.00000E+00
    0.11254E-02        -0.11610E-02         0.00000E+00
    0.11653E-02        -0.12336E-02         0.00000E+00
    0.12044E-02        -0.13072E-02         0.00000E+00
    0.12428E-02        -0.13818E-02         0.00000E+00
    0.12807E-02        -0.14576E-02         0.00000E+00
    0.13180E-02        -0.15345E-02         0.00000E+00
    0.13550E-02        -0.16127E-02         0.00000E+00
    0.13917E-02        -0.16923E-02         0.00000E+00
    0.14282E-02        -0.17734E-02         0.00000E+00
    0.14647E-02        -0.18559E-02         0.00000E+00
    0.15011E-02        -0.19400E-02         0.00000E+00
    0.15376E-02        -0.20257E-02         0.00000E+00
    0.15741E-02        -0.21131E-02         0.00000E+00
    0.16109E-02        -0.22023E-02         0.00000E+00
    0.16478E-02        -0.22932E-02         0.00000E+00
    0.16850E-02        -0.23861E-02         0.00000E+00
    0.17224E-02        -0.24809E-02         0.00000E+00
    0.17601E-02        -0.25777E-02         0.00000E+00
    0.17981E-02        -0.26765E-02         0.00000E+00
    0.18364E-02        -0.27774E-02         0.00000E+00
    0.18751E-02        -0.28806E-02         0.00000E+00
    0.19140E-02        -0.29859E-02         0.00000E+00
    0.19533E-02        -0.30935E-02         0.00000E+00
    0.19929E-02        -0.32034E-02         0.00000E+00
    0.20328E-02        -0.33156E-02         0.00000E+00
    0.20730E-02        -0.34303E-02         0.00000E+00
    0.21134E-02        -0.35475E-02         0.00000E+00
    0.21541E-02        -0.36672E-02         0.00000E+00
    0.21949E-02        -0.37895E-02         0.00000E+00
    0.22360E-02        -0.39144E-02         0.00000E+00
    0.22771E-02        -0.40419E-02         0.00000E+00
    0.23183E-02        -0.41721E-02         0.00000E+00
    0.23595E-02        -0.43051E-02         0.00000E+00
    0.24007E-02        -0.44408E-02         0.00000E+00
    0.24418E-02        -0.45794E-02         0.00000E+00
    0.24827E-02        -0.47208E-02         0.00000E+00
    0.25233E-02        -0.48650E-02         0.00000E+00
    0.25636E-02        -0.50122E-02         0.00000E+00
    0.26034E-02        -0.51623E-02         0.00000E+00
    0.26428E-02        -0.53154E-02         0.00000E+00
    0.26815E-02        -0.54715E-02         0.00000E+00
    0.27194E-02        -0.56305E-02         0.00000E+00
    0.27565E-02        -0.57926E-02         0.00000E+00
    0.27926E-02        -0.59577E-02         0.00000E+00
    0.28276E-02        -0.61259E-02         0.00000E+00
    0.28613E-02        -0.62971E-02         0.00000E+00
    0.28935E-02        -0.64713E-02         0.00000E+00
    0.29241E-02        -0.66486E-02         0.00000E+00
    0.29528E-02        -0.68290E-02         0.00000E+00
    0.29796E-02        -0.70124E-02         0.00000E+00
    0.30041E-02        -0.71988E-02         0.00000E+00
    0.30261E-02        -0.73883E-02         0.00000E+00
    0.30455E-02        -0.75807E-02         0.00000E+00
    0.30618E-02        -0.77762E-02         0.00000E+00
    0.30748E-02        -0.79746E-02         0.00000E+00
    0.30843E-02        -0.81760E-02         0.00000E+00
    0.30898E-02        -0.83803E-02         0.00000E+00
    0.30911E-02        -0.85875E-02         0.00000E+00
    0.30877E-02        -0.87977E-02         0.00000E+00
    0.30792E-02        -0.90108E-02         0.00000E+00
    0.30653E-02        -0.92267E-02         0.00000E+00
    0.30454E-02        -0.94456E-02         0.00000E+00
    0.30190E-02        -0.96673E-02         0.00000E+00
    0.29858E-02        -0.98918E-02         0.00000E+00
    0.29450E-02        -0.10119E-01         0.00000E+00
    0.28962E-02        -0.10350E-01         0.00000E+00
    0.28389E-02        -0.10583E-01         0.00000E+00
    0.27723E-02        -0.10818E-01         0.00000E+00
    0.26959E-02        -0.11056E-01         0.00000E+00
    0.26090E-02        -0.11297E-01         0.00000E+00
    0.25110E-02        -0.11539E-01         0.00000E+00
    0.24011E-02        -0.11781E-01         0.00000E+00
    0.22786E-02        -0.12024E-01         0.00000E+00
    0.21425E-02        -0.12266E-01         0.00000E+00
    0.19918E-02        -0.12504E-01         0.00000E+00
    0.18253E-02        -0.12736E-01         0.00000E+00
    0.16414E-02        -0.12958E-01         0.00000E+00
    0.14380E-02        -0.13165E-01         0.00000E+00
    0.12124E-02        -0.13352E-01         0.00000E+00
    0.96121E-03        -0.13510E-01         0.00000E+00
    0.67957E-03        -0.13632E-01         0.00000E+00
    0.36154E-03        -0.13708E-01         0.00000E+00
    0.00000E+00        -0.13735E-01         0.00000E+00
    0.00000E+00        -0.17475E-03         0.00000E+00
    0.11033E-03        -0.18174E-03         0.00000E+00
    0.20991E-03        -0.20213E-03         0.00000E+00
    0.30063E-03        -0.23440E-03         0.00000E+00
    0.38405E-03        -0.27649E-03         0.00000E+00
    0.46140E-03        -0.32633E-03         0.00000E+00
    0.53360E-03        -0.38206E-03         0.00000E+00
    0.60139E-03        -0.44216E-03         0.00000E+00
    0.66531E-03        -0.50547E-03         0.00000E+00
    0.72583E-03        -0.57112E-03         0.00000E+00
    0.78333E-03        -0.63851E-03         0.00000E+00
    0.83812E-03        -0.70720E-03         0.00000E+00
    0.89047E-03        -0.77692E-03         0.00000E+00
    0.94065E-03        -0.84750E-03         0.00000E+00
    0.98886E-03        -0.91887E-03         0.00000E+00
    0.10353E-02        -0.99099E-03         0.00000E+00
    0.10803E-02        -0.10639E-02         0.00000E+00
    0.11238E-02        -0.11376E-02         0.00000E+00
    0.11662E-02        -0.12122E-02         0.00000E+00
    0.12075E-02        -0.12877E-02         0.00000E+00
    0.12480E-02        -0.13643E-02         0.00000E+00
    0.12877E-02        -0.14419E-02         0.00000E+00
    0.13268E-02        -0.15208E-02         0.00000E+00
    0.13654E-02        -0.16009E-02         0.00000E+00
    0.14037E-02        -0.16824E-02         0.00000E+00
    0.14416E-02        -0.17653E-02         0.00000E+00
    0.14795E-02        -0.18497E-02         0.00000E+00
    0.15172E-02        -0.19356E-02         0.00000E+00
    0.15549E-02        -0.20232E-02         0.00000E+00
    0.15926E-02        -0.21125E-02         0.00000E+00
    0.16305E-02        -0.22036E-02         0.00000E+00
    0.16685E-02        -0.22964E-02         0.00000E+00
    0.17067E-02        -0.23912E-02         0.00000E+00
    0.17452E-02        -0.24880E-02         0.00000E+00
    0.17839E-02        -0.25867E-02         0.00000E+00
    0.18230E-02        -0.26876E-02         0.00000E+00
    0.18623E-02        -0.27905E-02         0.00000E+00
    0.19020E-02        -0.28957E-02         0.00000E+00
    0.19421E-02        -0.30031E-02         0.00000E+00
    0.19824E-02        -0.31128E-02         0.00000E+00
    0.20231E-02        -0.32249E-02         0.00000E+00
    0.20641E-02        -0.33394E-02         0.00000E+00
    0.21055E-02        -0.34564E-02         0.00000E+00
    0.21471E-02        -0.35759E-02         0.00000E+00
    0.21890E-02        -0.36980E-02         0.00000E+00
    0.22311E-02        -0.38227E-02         0.00000E+00
    0.22734E-02        -0.39500E-02         0.00000E+00
    0.23159E-02        -0.40801E-02         0.00000E+00
    0.23586E-02        -0.42129E-02         0.00000E+00
    0.24013E-02        -0.43486E-02         0.00000E+00
    0.24440E-02        -0.44871E-02         0.00000E+00
    0.24866E-02        -0.46285E-02         0.00000E+00
    0.25292E-02        -0.47728E-02         0.00000E+00
    0.25716E-02        -0.49201E-02         0.00000E+00
    0.26137E-02        -0.50703E-02         0.00000E+00
    0.26555E-02        -0.52236E-02         0.00000E+00
    0.26968E-02        -0.53800E-02         0.00000E+00
    0.27376E-02        -0.55394E-02         0.00000E+00
    0.27777E-02        -0.57019E-02         0.00000E+00
    0.28170E-02        -0.58675E-02         0.00000E+00
    0.28555E-02        -0.60363E-02         0.00000E+00
    0.28930E-02        -0.62082E-02         0.00000E+00
    0.29292E-02        -0.63833E-02         0.00000E+00
    0.29641E-02        -0.65615E-02         0.00000E+00
    0.29976E-02        -0.67429E-02         0.00000E+00
    0.30293E-02        -0.69275E-02         0.00000E+00
    0.30592E-02        -0.71152E-02         0.00000E+00
    0.30870E-02        -0.73061E-02         0.00000E+00
    0.31125E-02        -0.75001E-02         0.00000E+00
    0.31354E-02        -0.76973E-02         0.00000E+00
    0.31555E-02        -0.78976E-02         0.00000E+00
    0.31726E-02        -0.81010E-02         0.00000E+00
    0.31862E-02        -0.83074E-02         0.00000E+00
    0.31962E-02        -0.85169E-02         0.00000E+00
    0.32021E-02        -0.87295E-02         0.00000E+00
    0.32035E-02        -0.89451E-02         0.00000E+00
    0.32002E-02        -0.91636E-02         0.00000E+00
    0.31916E-02        -0.93852E-02         0.00000E+00
    0.31773E-02        -0.96098E-02         0.00000E+00
    0.31569E-02        -0.98373E-02         0.00000E+00
    0.31298E-02        -0.10068E-01         0.00000E+00
    0.30956E-02        -0.10301E-01         0.00000E+00
    0.30535E-02        -0.10537E-01         0.00000E+00
    0.30032E-02        -0.10777E-01         0.00000E+00
    0.29439E-02        -0.11019E-01         0.00000E+00
    0.28750E-02        -0.11264E-01         0.00000E+00
    0.27959E-02        -0.11511E-01         0.00000E+00
    0.27058E-02        -0.11760E-01         0.00000E+00
    0.26041E-02        -0.12012E-01         0.00000E+00
    0.24899E-02        -0.12264E-01         0.00000E+00
    0.23624E-02        -0.12516E-01         0.00000E+00
    0.22206E-02        -0.12767E-01         0.00000E+00
    0.20636E-02        -0.13014E-01         0.00000E+00
    0.18899E-02        -0.13254E-01         0.00000E+00
    0.16981E-02        -0.13485E-01         0.00000E+00
    0.14861E-02        -0.13700E-01         0.00000E+00
    0.12514E-02        -0.13893E-01         0.00000E+00
    0.99055E-03        -0.14057E-01         0.00000E+00
    0.69913E-03        -0.14184E-01         0.00000E+00
    0.37130E-03        -0.14264E-01         0.00000E+00
    0.00000E+00        -0.14291E-01         0.00000E+00
    0.00000E+00        -0.18700E-03         0.00000E+00
    0.11333E-03        -0.19427E-03         0.00000E+00
    0.21593E-03        -0.21546E-03         0.00000E+00
    0.30968E-03        -0.24896E-03         0.00000E+00
    0.39609E-03        -0.29264E-03         0.00000E+00
    0.47635E-03        -0.34434E-03         0.00000E+00
    0.55133E-03        -0.40212E-03         0.00000E+00
    0.62173E-03        -0.46443E-03         0.00000E+00
    0.68811E-03        -0.53007E-03         0.00000E+00
    0.75092E-03        -0.59814E-03         0.00000E+00
    0.81054E-03        -0.66802E-03         0.00000E+00
    0.86731E-03        -0.73926E-03         0.00000E+00
    0.92153E-03        -0.81159E-03         0.00000E+00
    0.97344E-03        -0.88484E-03         0.00000E+00
    0.10233E-02        -0.95891E-03         0.00000E+00
    0.10713E-02        -0.10338E-02         0.00000E+00
    0.11178E-02        -0.11095E-02         0.00000E+00
    0.11628E-02        -0.11860E-02         0.00000E+00
    0.12065E-02        -0.12635E-02         0.00000E+00
    0.12492E-02        -0.13420E-02         0.00000E+00
    0.12909E-02        -0.14215E-02         0.00000E+00
    0.13320E-02        -0.15023E-02         0.00000E+00
    0.13723E-02        -0.15842E-02         0.00000E+00
    0.14122E-02        -0.16675E-02         0.00000E+00
    0.14517E-02        -0.17522E-02         0.00000E+00
    0.14910E-02        -0.18384E-02         0.00000E+00
    0.15300E-02        -0.19261E-02         0.00000E+00
    0.15690E-02        -0.20155E-02         0.00000E+00
    0.16079E-02        -0.21066E-02         0.00000E+00
    0.16469E-02        -0.21995E-02         0.00000E+00
    0.16861E-02        -0.22942E-02         0.00000E+00
    0.17254E-02        -0.23908E-02         0.00000E+00
    0.17649E-02        -0.24894E-02         0.00000E+00
    0.18046E-02        -0.25900E-02         0.00000E+00
    0.18447E-02        -0.26927E-02         0.00000E+00
    0.18851E-02        -0.27976E-02         0.00000E+00
    0.19257E-02        -0.29047E-02         0.00000E+00
    0.19668E-02        -0.30141E-02         0.00000E+00
    0.20082E-02        -0.31258E-02         0.00000E+00
    0.20499E-02        -0.32400E-02         0.00000E+00
    0.20920E-02        -0.33565E-02         0.00000E+00
    0.21344E-02        -0.34756E-02         0.00000E+00
    0.21771E-02        -0.35973E-02         0.00000E+00
    0.22202E-02        -0.37216E-02         0.00000E+00
    0.22635E-02        -0.38486E-02         0.00000E+00
    0.23071E-02        -0.39783E-02         0.00000E+00
    0.23509E-02        -0.41107E-02         0.00000E+00
    0.23948E-02        -0.42460E-02         0.00000E+00
    0.24389E-02        -0.43842E-02         0.00000E+00
    0.24831E-02        -0.45253E-02         0.00000E+00
    0.25273E-02        -0.46693E-02         0.00000E+00
    0.25714E-02        -0.48163E-02         0.00000E+00
    0.26155E-02        -0.49664E-02         0.00000E+00
    0.26593E-02        -0.51196E-02         0.00000E+00
    0.27029E-02        -0.52758E-02         0.00000E+00
    0.27461E-02        -0.54352E-02         0.00000E+00
    0.27889E-02        -0.55978E-02         0.00000E+00
    0.28311E-02        -0.57635E-02         0.00000E+00
    0.28727E-02        -0.59325E-02         0.00000E+00
    0.29134E-02        -0.61047E-02         0.00000E+00
    0.29532E-02        -0.62801E-02         0.00000E+00
    0.29920E-02        -0.64588E-02         0.00000E+00
    0.30296E-02        -0.66408E-02         0.00000E+00
    0.30658E-02        -0.68261E-02         0.00000E+00
    0.31004E-02        -0.70146E-02         0.00000E+00
    0.31333E-02        -0.72065E-02         0.00000E+00
    0.31643E-02        -0.74016E-02         0.00000E+00
    0.31931E-02        -0.76000E-02         0.00000E+00
    0.32196E-02        -0.78016E-02         0.00000E+00
    0.32434E-02        -0.80064E-02         0.00000E+00
    0.32643E-02        -0.82145E-02         0.00000E+00
    0.32821E-02        -0.84258E-02         0.00000E+00
    0.32963E-02        -0.86403E-02         0.00000E+00
    0.33068E-02        -0.88579E-02         0.00000E+00
    0.33130E-02        -0.90787E-02         0.00000E+00
    0.33147E-02        -0.93026E-02         0.00000E+00
    0.33115E-02        -0.95295E-02         0.00000E+00
    0.33028E-02        -0.97596E-02         0.00000E+00
    0.32883E-02        -0.99927E-02         0.00000E+00
    0.32674E-02        -0.10229E-01         0.00000E+00
    0.32396E-02        -0.10468E-01         0.00000E+00
    0.32044E-02        -0.10710E-01         0.00000E+00
    0.31611E-02        -0.10956E-01         0.00000E+00
    0.31092E-02        -0.11204E-01         0.00000E+00
    0.30481E-02        -0.11455E-01         0.00000E+00
    0.29770E-02        -0.11709E-01         0.00000E+00
    0.28952E-02        -0.11965E-01         0.00000E+00
    0.28020E-02        -0.12224E-01         0.00000E+00
    0.26965E-02        -0.12484E-01         0.00000E+00
    0.25781E-02        -0.12745E-01         0.00000E+00
    0.24457E-02        -0.13007E-01         0.00000E+00
    0.22984E-02        -0.13266E-01         0.00000E+00
    0.21350E-02        -0.13522E-01         0.00000E+00
    0.19543E-02        -0.13772E-01         0.00000E+00
    0.17546E-02        -0.14010E-01         0.00000E+00
    0.15340E-02        -0.14233E-01         0.00000E+00
    0.12901E-02        -0.14434E-01         0.00000E+00
    0.10197E-02        -0.14604E-01         0.00000E+00
    0.71854E-03        -0.14735E-01         0.00000E+00
    0.38098E-03        -0.14818E-01         0.00000E+00
    0.00000E+00        -0.14847E-01         0.00000E+00
    0.00000E+00        -0.19951E-03         0.00000E+00
    0.11631E-03        -0.20706E-03         0.00000E+00
    0.22190E-03        -0.22907E-03         0.00000E+00
    0.31865E-03        -0.26384E-03         0.00000E+00
    0.40805E-03        -0.30913E-03         0.00000E+00
    0.49119E-03        -0.36268E-03         0.00000E+00
    0.56894E-03        -0.42252E-03         0.00000E+00
    0.64194E-03        -0.48702E-03         0.00000E+00
    0.71074E-03        -0.55497E-03         0.00000E+00
    0.77581E-03        -0.62545E-03         0.00000E+00
    0.83753E-03        -0.69781E-03         0.00000E+00
    0.89626E-03        -0.77159E-03         0.00000E+00
    0.95230E-03        -0.84651E-03         0.00000E+00
    0.10059E-02        -0.92240E-03         0.00000E+00
    0.10574E-02        -0.99917E-03         0.00000E+00
    0.11070E-02        -0.10768E-02         0.00000E+00
    0.11549E-02        -0.11553E-02         0.00000E+00
    0.12013E-02        -0.12346E-02         0.00000E+00
    0.12464E-02        -0.13150E-02         0.00000E+00
    0.12904E-02        -0.13964E-02         0.00000E+00
    0.13334E-02        -0.14790E-02         0.00000E+00
    0.13757E-02        -0.15627E-02         0.00000E+00
    0.14173E-02        -0.16478E-02         0.00000E+00
    0.14584E-02        -0.17343E-02         0.00000E+00
    0.14992E-02        -0.18222E-02         0.00000E+00
    0.15396E-02        -0.19117E-02         0.00000E+00
    0.15799E-02        -0.20028E-02         0.00000E+00
    0.16201E-02        -0.20956E-02         0.00000E+00
    0.16603E-02        -0.21902E-02         0.00000E+00
    0.17005E-02        -0.22866E-02         0.00000E+00
    0.17409E-02        -0.23850E-02         0.00000E+00
    0.17815E-02        -0.24853E-02         0.00000E+00
    0.18222E-02        -0.25877E-02         0.00000E+00
    0.18633E-02        -0.26922E-02         0.00000E+00
    0.19046E-02        -0.27989E-02         0.00000E+00
    0.19463E-02        -0.29078E-02         0.00000E+00
    0.19883E-02        -0.30190E-02         0.00000E+00
    0.20306E-02        -0.31327E-02         0.00000E+00
    0.20734E-02        -0.32487E-02         0.00000E+00
    0.21165E-02        -0.33673E-02         0.00000E+00
    0.21599E-02        -0.34883E-02         0.00000E+00
    0.22037E-02        -0.36120E-02         0.00000E+00
    0.22478E-02        -0.37384E-02         0.00000E+00
    0.22923E-02        -0.38675E-02         0.00000E+00
    0.23370E-02        -0.39994E-02         0.00000E+00
    0.23821E-02        -0.41341E-02         0.00000E+00
    0.24273E-02        -0.42716E-02         0.00000E+00
    0.24727E-02        -0.44121E-02         0.00000E+00
    0.25182E-02        -0.45556E-02         0.00000E+00
    0.25639E-02        -0.47021E-02         0.00000E+00
    0.26095E-02        -0.48517E-02         0.00000E+00
    0.26551E-02        -0.50044E-02         0.00000E+00
    0.27006E-02        -0.51602E-02         0.00000E+00
    0.27459E-02        -0.53192E-02         0.00000E+00
    0.27910E-02        -0.54814E-02         0.00000E+00
    0.28356E-02        -0.56469E-02         0.00000E+00
    0.28798E-02        -0.58157E-02         0.00000E+00
    0.29235E-02        -0.59878E-02         0.00000E+00
    0.29664E-02        -0.61632E-02         0.00000E+00
    0.30085E-02        -0.63420E-02         0.00000E+00
    0.30497E-02        -0.65241E-02         0.00000E+00
    0.30898E-02        -0.67096E-02         0.00000E+00
    0.31287E-02        -0.68985E-02         0.00000E+00
    0.31661E-02        -0.70908E-02         0.00000E+00
    0.32020E-02        -0.72865E-02         0.00000E+00
    0.32360E-02        -0.74856E-02         0.00000E+00
    0.32681E-02        -0.76880E-02         0.00000E+00
    0.32980E-02        -0.78939E-02         0.00000E+00
    0.33254E-02        -0.81031E-02         0.00000E+00
    0.33501E-02        -0.83157E-02         0.00000E+00
    0.33719E-02        -0.85315E-02         0.00000E+00
    0.33903E-02        -0.87507E-02         0.00000E+00
    0.34052E-02        -0.89732E-02         0.00000E+00
    0.34162E-02        -0.91989E-02         0.00000E+00
    0.34228E-02        -0.94279E-02         0.00000E+00
    0.34247E-02        -0.96601E-02         0.00000E+00
    0.34216E-02        -0.98954E-02         0.00000E+00
    0.34128E-02        -0.10134E-01         0.00000E+00
    0.33981E-02        -0.10376E-01         0.00000E+00
    0.33767E-02        -0.10620E-01         0.00000E+00
    0.33483E-02        -0.10868E-01         0.00000E+00
    0.33122E-02        -0.11119E-01         0.00000E+00
    0.32678E-02        -0.11373E-01         0.00000E+00
    0.32144E-02        -0.11630E-01         0.00000E+00
    0.31515E-02        -0.11890E-01         0.00000E+00
    0.30782E-02        -0.12153E-01         0.00000E+00
    0.29938E-02        -0.12419E-01         0.00000E+00
    0.28975E-02        -0.12686E-01         0.00000E+00
    0.27885E-02        -0.12956E-01         0.00000E+00
    0.26659E-02        -0.13226E-01         0.00000E+00
    0.25287E-02        -0.13497E-01         0.00000E+00
    0.23758E-02        -0.13765E-01         0.00000E+00
    0.22062E-02        -0.14030E-01         0.00000E+00
    0.20184E-02        -0.14288E-01         0.00000E+00
    0.18108E-02        -0.14535E-01         0.00000E+00
    0.15817E-02        -0.14765E-01         0.00000E+00
    0.13287E-02        -0.14973E-01         0.00000E+00
    0.10487E-02        -0.15150E-01         0.00000E+00
    0.73785E-03        -0.15285E-01         0.00000E+00
    0.39059E-03        -0.15372E-01         0.00000E+00
    0.00000E+00        -0.15401E-01         0.00000E+00
    0.00000E+00        -0.21227E-03         0.00000E+00
    0.11926E-03        -0.22011E-03         0.00000E+00
    0.22783E-03        -0.24297E-03         0.00000E+00
    0.32758E-03        -0.27902E-03         0.00000E+00
    0.41994E-03        -0.32594E-03         0.00000E+00
    0.50596E-03        -0.38136E-03         0.00000E+00
    0.58644E-03        -0.44324E-03         0.00000E+00
    0.66202E-03        -0.50994E-03         0.00000E+00
    0.73322E-03        -0.58018E-03         0.00000E+00
    0.80052E-03        -0.65305E-03         0.00000E+00
    0.86431E-03        -0.72786E-03         0.00000E+00
    0.92496E-03        -0.80417E-03         0.00000E+00
    0.98279E-03        -0.88168E-03         0.00000E+00
    0.10381E-02        -0.96019E-03         0.00000E+00
    0.10912E-02        -0.10396E-02         0.00000E+00
    0.11422E-02        -0.11200E-02         0.00000E+00
    0.11915E-02        -0.12012E-02         0.00000E+00
    0.12393E-02        -0.12835E-02         0.00000E+00
    0.12858E-02        -0.13667E-02         0.00000E+00
    0.13310E-02        -0.14510E-02         0.00000E+00
    0.13754E-02        -0.15366E-02         0.00000E+00
    0.14189E-02        -0.16234E-02         0.00000E+00
    0.14617E-02        -0.17116E-02         0.00000E+00
    0.15041E-02        -0.18012E-02         0.00000E+00
    0.15460E-02        -0.18923E-02         0.00000E+00
    0.15877E-02        -0.19851E-02         0.00000E+00
    0.16292E-02        -0.20796E-02         0.00000E+00
    0.16706E-02        -0.21758E-02         0.00000E+00
    0.17119E-02        -0.22739E-02         0.00000E+00
    0.17534E-02        -0.23739E-02         0.00000E+00
    0.17950E-02        -0.24759E-02         0.00000E+00
    0.18368E-02        -0.25799E-02         0.00000E+00
    0.18788E-02        -0.26861E-02         0.00000E+00
    0.19211E-02        -0.27945E-02         0.00000E+00
    0.19637E-02        -0.29052E-02         0.00000E+00
    0.20066E-02        -0.30182E-02         0.00000E+00
    0.20499E-02        -0.31336E-02         0.00000E+00
    0.20936E-02        -0.32514E-02         0.00000E+00
    0.21377E-02        -0.33718E-02         0.00000E+00
    0.21821E-02        -0.34947E-02         0.00000E+00
    0.22269E-02        -0.36203E-02         0.00000E+00
    0.22721E-02        -0.37486E-02         0.00000E+00
    0.23176E-02        -0.38797E-02         0.00000E+00
    0.23634E-02        -0.40136E-02         0.00000E+00
    0.24096E-02        -0.41503E-02         0.00000E+00
    0.24560E-02        -0.42900E-02         0.00000E+00
    0.25026E-02        -0.44327E-02         0.00000E+00
    0.25495E-02        -0.45784E-02         0.00000E+00
    0.25965E-02        -0.47272E-02         0.00000E+00
    0.26435E-02        -0.48791E-02         0.00000E+00
    0.26906E-02        -0.50342E-02         0.00000E+00
    0.27377E-02        -0.51926E-02         0.00000E+00
    0.27846E-02        -0.53542E-02         0.00000E+00
    0.28314E-02        -0.55190E-02         0.00000E+00
    0.28779E-02        -0.56873E-02         0.00000E+00
    0.29240E-02        -0.58589E-02         0.00000E+00
    0.29696E-02        -0.60338E-02         0.00000E+00
    0.30146E-02        -0.62122E-02         0.00000E+00
    0.30589E-02        -0.63941E-02         0.00000E+00
    0.31024E-02        -0.65794E-02         0.00000E+00
    0.31450E-02        -0.67682E-02         0.00000E+00
    0.31864E-02        -0.69605E-02         0.00000E+00
    0.32265E-02        -0.71563E-02         0.00000E+00
    0.32652E-02        -0.73557E-02         0.00000E+00
    0.33022E-02        -0.75585E-02         0.00000E+00
    0.33375E-02        -0.77648E-02         0.00000E+00
    0.33707E-02        -0.79746E-02         0.00000E+00
    0.34016E-02        -0.81879E-02         0.00000E+00
    0.34300E-02        -0.84047E-02         0.00000E+00
    0.34556E-02        -0.86250E-02         0.00000E+00
    0.34781E-02        -0.88486E-02         0.00000E+00
    0.34973E-02        -0.90757E-02         0.00000E+00
    0.35128E-02        -0.93062E-02         0.00000E+00
    0.35243E-02        -0.95400E-02         0.00000E+00
    0.35313E-02        -0.97771E-02         0.00000E+00
    0.35336E-02        -0.10018E-01         0.00000E+00
    0.35305E-02        -0.10261E-01         0.00000E+00
    0.35218E-02        -0.10508E-01         0.00000E+00
    0.35068E-02        -0.10758E-01         0.00000E+00
    0.34851E-02        -0.11012E-01         0.00000E+00
    0.34560E-02        -0.11268E-01         0.00000E+00
    0.34191E-02        -0.11528E-01         0.00000E+00
    0.33736E-02        -0.11791E-01         0.00000E+00
    0.33188E-02        -0.12057E-01         0.00000E+00
    0.32541E-02        -0.12326E-01         0.00000E+00
    0.31787E-02        -0.12597E-01         0.00000E+00
    0.30918E-02        -0.12872E-01         0.00000E+00
    0.29925E-02        -0.13149E-01         0.00000E+00
    0.28800E-02        -0.13427E-01         0.00000E+00
    0.27533E-02        -0.13707E-01         0.00000E+00
    0.26113E-02        -0.13986E-01         0.00000E+00
    0.24530E-02        -0.14263E-01         0.00000E+00
    0.22772E-02        -0.14537E-01         0.00000E+00
    0.20823E-02        -0.14803E-01         0.00000E+00
    0.18670E-02        -0.15058E-01         0.00000E+00
    0.16294E-02        -0.15297E-01         0.00000E+00
    0.13672E-02        -0.15512E-01         0.00000E+00
    0.10777E-02        -0.15694E-01         0.00000E+00
    0.75710E-03        -0.15835E-01         0.00000E+00
    0.40018E-03        -0.15925E-01         0.00000E+00
    0.00000E+00        -0.15955E-01         0.00000E+00
    0.00000E+00        -0.22526E-03         0.00000E+00
    0.12220E-03        -0.23341E-03         0.00000E+00
    0.23373E-03        -0.25714E-03         0.00000E+00
    0.33646E-03        -0.29451E-03         0.00000E+00
    0.43177E-03        -0.34307E-03         0.00000E+00
    0.52066E-03        -0.40036E-03         0.00000E+00
    0.60386E-03        -0.46429E-03         0.00000E+00
    0.68199E-03        -0.53316E-03         0.00000E+00
    0.75557E-03        -0.60569E-03         0.00000E+00
    0.82507E-03        -0.68093E-03         0.00000E+00
    0.89090E-03        -0.75819E-03         0.00000E+00
    0.95343E-03        -0.83700E-03         0.00000E+00
    0.10130E-02        -0.91707E-03         0.00000E+00
    0.10700E-02        -0.99821E-03         0.00000E+00
    0.11246E-02        -0.10803E-02         0.00000E+00
    0.11771E-02        -0.11634E-02         0.00000E+00
    0.12278E-02        -0.12474E-02         0.00000E+00
    0.12770E-02        -0.13324E-02         0.00000E+00
    0.13247E-02        -0.14185E-02         0.00000E+00
    0.13712E-02        -0.15058E-02         0.00000E+00
    0.14168E-02        -0.15943E-02         0.00000E+00
    0.14615E-02        -0.16842E-02         0.00000E+00
    0.15056E-02        -0.17755E-02         0.00000E+00
    0.15491E-02        -0.18682E-02         0.00000E+00
    0.15922E-02        -0.19626E-02         0.00000E+00
    0.16351E-02        -0.20587E-02         0.00000E+00
    0.16777E-02        -0.21565E-02         0.00000E+00
    0.17203E-02        -0.22562E-02         0.00000E+00
    0.17629E-02        -0.23577E-02         0.00000E+00
    0.18055E-02        -0.24613E-02         0.00000E+00
    0.18483E-02        -0.25670E-02         0.00000E+00
    0.18913E-02        -0.26748E-02         0.00000E+00
    0.19346E-02        -0.27847E-02         0.00000E+00
    0.19781E-02        -0.28970E-02         0.00000E+00
    0.20220E-02        -0.30116E-02         0.00000E+00
    0.20662E-02        -0.31287E-02         0.00000E+00
    0.21107E-02        -0.32482E-02         0.00000E+00
    0.21557E-02        -0.33703E-02         0.00000E+00
    0.22011E-02        -0.34950E-02         0.00000E+00
    0.22468E-02        -0.36223E-02         0.00000E+00
    0.22929E-02        -0.37524E-02         0.00000E+00
    0.23395E-02        -0.38853E-02         0.00000E+00
    0.23863E-02        -0.40211E-02         0.00000E+00
    0.24335E-02        -0.41598E-02         0.00000E+00
    0.24811E-02        -0.43014E-02         0.00000E+00
    0.25289E-02        -0.44461E-02         0.00000E+00
    0.25769E-02        -0.45939E-02         0.00000E+00
    0.26252E-02        -0.47449E-02         0.00000E+00
    0.26736E-02        -0.48990E-02         0.00000E+00
    0.27221E-02        -0.50563E-02         0.00000E+00
    0.27706E-02        -0.52170E-02         0.00000E+00
    0.28191E-02        -0.53809E-02         0.00000E+00
    0.28675E-02        -0.55483E-02         0.00000E+00
    0.29157E-02        -0.57190E-02         0.00000E+00
    0.29636E-02        -0.58932E-02         0.00000E+00
    0.30111E-02        -0.60709E-02         0.00000E+00
    0.30581E-02        -0.62521E-02         0.00000E+00
    0.31045E-02        -0.64369E-02         0.00000E+00
    0.31502E-02        -0.66252E-02         0.00000E+00
    0.31951E-02        -0.68170E-02         0.00000E+00
    0.32390E-02        -0.70125E-02         0.00000E+00
    0.32817E-02        -0.72116E-02         0.00000E+00
    0.33231E-02        -0.74143E-02         0.00000E+00
    0.33630E-02        -0.76206E-02         0.00000E+00
    0.34013E-02        -0.78306E-02         0.00000E+00
    0.34376E-02        -0.80441E-02         0.00000E+00
    0.34719E-02        -0.82613E-02         0.00000E+00
    0.35039E-02        -0.84821E-02         0.00000E+00
    0.35332E-02        -0.87064E-02         0.00000E+00
    0.35598E-02        -0.89344E-02         0.00000E+00
    0.35831E-02        -0.91658E-02         0.00000E+00
    0.36031E-02        -0.94007E-02         0.00000E+00
    0.36192E-02        -0.96392E-02         0.00000E+00
    0.36312E-02        -0.98810E-02         0.00000E+00
    0.36387E-02        -0.10126E-01         0.00000E+00
    0.36412E-02        -0.10375E-01         0.00000E+00
    0.36383E-02        -0.10627E-01         0.00000E+00
    0.36296E-02        -0.10882E-01         0.00000E+00
    0.36144E-02        -0.11141E-01         0.00000E+00
    0.35924E-02        -0.11403E-01         0.00000E+00
    0.35628E-02        -0.11668E-01         0.00000E+00
    0.35250E-02        -0.11937E-01         0.00000E+00
    0.34784E-02        -0.12208E-01         0.00000E+00
    0.34224E-02        -0.12483E-01         0.00000E+00
    0.33560E-02        -0.12761E-01         0.00000E+00
    0.32785E-02        -0.13041E-01         0.00000E+00
    0.31892E-02        -0.13325E-01         0.00000E+00
    0.30870E-02        -0.13610E-01         0.00000E+00
    0.29710E-02        -0.13898E-01         0.00000E+00
    0.28403E-02        -0.14186E-01         0.00000E+00
    0.26937E-02        -0.14474E-01         0.00000E+00
    0.25300E-02        -0.14761E-01         0.00000E+00
    0.23480E-02        -0.15043E-01         0.00000E+00
    0.21462E-02        -0.15318E-01         0.00000E+00
    0.19232E-02        -0.15581E-01         0.00000E+00
    0.16770E-02        -0.15827E-01         0.00000E+00
    0.14057E-02        -0.16049E-01         0.00000E+00
    0.11067E-02        -0.16238E-01         0.00000E+00
    0.77635E-03        -0.16384E-01         0.00000E+00
    0.40975E-03        -0.16477E-01         0.00000E+00
    0.00000E+00        -0.16509E-01         0.00000E+00
    0.00000E+00        -0.23847E-03         0.00000E+00
    0.12512E-03        -0.24695E-03         0.00000E+00
    0.23961E-03        -0.27157E-03         0.00000E+00
    0.34533E-03        -0.31030E-03         0.00000E+00
    0.44358E-03        -0.36051E-03         0.00000E+00
    0.53531E-03        -0.41969E-03         0.00000E+00
    0.62122E-03        -0.48566E-03         0.00000E+00
    0.70187E-03        -0.55670E-03         0.00000E+00
    0.77780E-03        -0.63150E-03         0.00000E+00
    0.84946E-03        -0.70909E-03         0.00000E+00
    0.91729E-03        -0.78877E-03         0.00000E+00
    0.98168E-03        -0.87008E-03         0.00000E+00
    0.10430E-02        -0.95269E-03         0.00000E+00
    0.11016E-02        -0.10364E-02         0.00000E+00
    0.11577E-02        -0.11212E-02         0.00000E+00
    0.12117E-02        -0.12070E-02         0.00000E+00
    0.12637E-02        -0.12937E-02         0.00000E+00
    0.13142E-02        -0.13816E-02         0.00000E+00
    0.13632E-02        -0.14706E-02         0.00000E+00
    0.14110E-02        -0.15608E-02         0.00000E+00
    0.14577E-02        -0.16523E-02         0.00000E+00
    0.15036E-02        -0.17451E-02         0.00000E+00
    0.15489E-02        -0.18395E-02         0.00000E+00
    0.15936E-02        -0.19354E-02         0.00000E+00
    0.16378E-02        -0.20331E-02         0.00000E+00
    0.16818E-02        -0.21324E-02         0.00000E+00
    0.17256E-02        -0.22336E-02         0.00000E+00
    0.17694E-02        -0.23367E-02         0.00000E+00
    0.18131E-02        -0.24418E-02         0.00000E+00
    0.18569E-02        -0.25489E-02         0.00000E+00
    0.19009E-02        -0.26582E-02         0.00000E+00
    0.19451E-02        -0.27697E-02         0.00000E+00
    0.19895E-02        -0.28835E-02         0.00000E+00
    0.20343E-02        -0.29997E-02         0.00000E+00
    0.20794E-02        -0.31183E-02         0.00000E+00
    0.21248E-02        -0.32394E-02         0.00000E+00
    0.21707E-02        -0.33630E-02         0.00000E+00
    0.22169E-02        -0.34893E-02         0.00000E+00
    0.22635E-02        -0.36183E-02         0.00000E+00
    0.23106E-02        -0.37501E-02         0.00000E+00
    0.23580E-02        -0.38847E-02         0.00000E+00
    0.24059E-02        -0.40222E-02         0.00000E+00
    0.24541E-02        -0.41627E-02         0.00000E+00
    0.25027E-02        -0.43062E-02         0.00000E+00
    0.25516E-02        -0.44527E-02         0.00000E+00
    0.26008E-02        -0.46024E-02         0.00000E+00
    0.26502E-02        -0.47553E-02         0.00000E+00
    0.26999E-02        -0.49115E-02         0.00000E+00
    0.27497E-02        -0.50709E-02         0.00000E+00
    0.27996E-02        -0.52337E-02         0.00000E+00
    0.28495E-02        -0.53999E-02         0.00000E+00
    0.28994E-02        -0.55695E-02         0.00000E+00
    0.29492E-02        -0.57426E-02         0.00000E+00
    0.29988E-02        -0.59192E-02         0.00000E+00
    0.30481E-02        -0.60994E-02         0.00000E+00
    0.30970E-02        -0.62832E-02         0.00000E+00
    0.31454E-02        -0.64706E-02         0.00000E+00
    0.31933E-02        -0.66616E-02         0.00000E+00
    0.32403E-02        -0.68564E-02         0.00000E+00
    0.32865E-02        -0.70548E-02         0.00000E+00
    0.33317E-02        -0.72569E-02         0.00000E+00
    0.33757E-02        -0.74628E-02         0.00000E+00
    0.34184E-02        -0.76724E-02         0.00000E+00
    0.34596E-02        -0.78857E-02         0.00000E+00
    0.34990E-02        -0.81028E-02         0.00000E+00
    0.35365E-02        -0.83236E-02         0.00000E+00
    0.35719E-02        -0.85481E-02         0.00000E+00
    0.36049E-02        -0.87764E-02         0.00000E+00
    0.36352E-02        -0.90083E-02         0.00000E+00
    0.36627E-02        -0.92438E-02         0.00000E+00
    0.36869E-02        -0.94830E-02         0.00000E+00
    0.37076E-02        -0.97258E-02         0.00000E+00
    0.37244E-02        -0.99722E-02         0.00000E+00
    0.37369E-02        -0.10222E-01         0.00000E+00
    0.37449E-02        -0.10476E-01         0.00000E+00
    0.37477E-02        -0.10732E-01         0.00000E+00
    0.37450E-02        -0.10993E-01         0.00000E+00
    0.37363E-02        -0.11257E-01         0.00000E+00
    0.37210E-02        -0.11524E-01         0.00000E+00
    0.36986E-02        -0.11794E-01         0.00000E+00
    0.36685E-02        -0.12068E-01         0.00000E+00
    0.36300E-02        -0.12345E-01         0.00000E+00
    0.35825E-02        -0.12625E-01         0.00000E+00
    0.35251E-02        -0.12909E-01         0.00000E+00
    0.34571E-02        -0.13195E-01         0.00000E+00
    0.33777E-02        -0.13485E-01         0.00000E+00
    0.32860E-02        -0.13777E-01         0.00000E+00
    0.31810E-02        -0.14072E-01         0.00000E+00
    0.30617E-02        -0.14368E-01         0.00000E+00
    0.29270E-02        -0.14665E-01         0.00000E+00
    0.27758E-02        -0.14962E-01         0.00000E+00
    0.26069E-02        -0.15257E-01         0.00000E+00
    0.24188E-02        -0.15548E-01         0.00000E+00
    0.22102E-02        -0.15831E-01         0.00000E+00
    0.19794E-02        -0.16103E-01         0.00000E+00
    0.17248E-02        -0.16356E-01         0.00000E+00
    0.14444E-02        -0.16585E-01         0.00000E+00
    0.11357E-02        -0.16781E-01         0.00000E+00
    0.79564E-03        -0.16932E-01         0.00000E+00
    0.41933E-03        -0.17028E-01         0.00000E+00
    0.00000E+00        -0.17062E-01         0.00000E+00
    0.00000E+00        -0.25191E-03         0.00000E+00
    0.12804E-03        -0.26072E-03         0.00000E+00
    0.24549E-03        -0.28628E-03         0.00000E+00
    0.35419E-03        -0.32638E-03         0.00000E+00
    0.45539E-03        -0.37828E-03         0.00000E+00
    0.54995E-03        -0.43934E-03         0.00000E+00
    0.63853E-03        -0.50734E-03         0.00000E+00
    0.72168E-03        -0.58054E-03         0.00000E+00
    0.79992E-03        -0.65759E-03         0.00000E+00
    0.87372E-03        -0.73751E-03         0.00000E+00
    0.94351E-03        -0.81961E-03         0.00000E+00
    0.10097E-02        -0.90339E-03         0.00000E+00
    0.10727E-02        -0.98854E-03         0.00000E+00
    0.11329E-02        -0.10749E-02         0.00000E+00
    0.11905E-02        -0.11623E-02         0.00000E+00
    0.12458E-02        -0.12507E-02         0.00000E+00
    0.12992E-02        -0.13403E-02         0.00000E+00
    0.13510E-02        -0.14309E-02         0.00000E+00
    0.14012E-02        -0.15228E-02         0.00000E+00
    0.14502E-02        -0.16159E-02         0.00000E+00
    0.14981E-02        -0.17103E-02         0.00000E+00
    0.15452E-02        -0.18062E-02         0.00000E+00
    0.15916E-02        -0.19037E-02         0.00000E+00
    0.16374E-02        -0.20028E-02         0.00000E+00
    0.16828E-02        -0.21036E-02         0.00000E+00
    0.17279E-02        -0.22063E-02         0.00000E+00
    0.17729E-02        -0.23108E-02         0.00000E+00
    0.18177E-02        -0.24173E-02         0.00000E+00
    0.18626E-02        -0.25259E-02         0.00000E+00
    0.19076E-02        -0.26366E-02         0.00000E+00
    0.19527E-02        -0.27496E-02         0.00000E+00
    0.19981E-02        -0.28648E-02         0.00000E+00
    0.20437E-02        -0.29824E-02         0.00000E+00
    0.20897E-02        -0.31025E-02         0.00000E+00
    0.21360E-02        -0.32250E-02         0.00000E+00
    0.21827E-02        -0.33502E-02         0.00000E+00
    0.22297E-02        -0.34780E-02         0.00000E+00
    0.22772E-02        -0.36085E-02         0.00000E+00
    0.23251E-02        -0.37419E-02         0.00000E+00
    0.23735E-02        -0.38780E-02         0.00000E+00
    0.24222E-02        -0.40172E-02         0.00000E+00
    0.24714E-02        -0.41593E-02         0.00000E+00
    0.25209E-02        -0.43044E-02         0.00000E+00
    0.25708E-02        -0.44527E-02         0.00000E+00
    0.26211E-02        -0.46042E-02         0.00000E+00
    0.26716E-02        -0.47589E-02         0.00000E+00
    0.27224E-02        -0.49169E-02         0.00000E+00
    0.27735E-02        -0.50782E-02         0.00000E+00
    0.28246E-02        -0.52430E-02         0.00000E+00
    0.28759E-02        -0.54112E-02         0.00000E+00
    0.29273E-02        -0.55829E-02         0.00000E+00
    0.29786E-02        -0.57582E-02         0.00000E+00
    0.30298E-02        -0.59370E-02         0.00000E+00
    0.30808E-02        -0.61195E-02         0.00000E+00
    0.31315E-02        -0.63057E-02         0.00000E+00
    0.31818E-02        -0.64956E-02         0.00000E+00
    0.32316E-02        -0.66892E-02         0.00000E+00
    0.32808E-02        -0.68865E-02         0.00000E+00
    0.33292E-02        -0.70877E-02         0.00000E+00
    0.33767E-02        -0.72927E-02         0.00000E+00
    0.34232E-02        -0.75015E-02         0.00000E+00
    0.34685E-02        -0.77142E-02         0.00000E+00
    0.35125E-02        -0.79306E-02         0.00000E+00
    0.35549E-02        -0.81510E-02         0.00000E+00
    0.35955E-02        -0.83752E-02         0.00000E+00
    0.36341E-02        -0.86032E-02         0.00000E+00
    0.36706E-02        -0.88350E-02         0.00000E+00
    0.37047E-02        -0.90707E-02         0.00000E+00
    0.37360E-02        -0.93102E-02         0.00000E+00
    0.37643E-02        -0.95534E-02         0.00000E+00
    0.37894E-02        -0.98003E-02         0.00000E+00
    0.38109E-02        -0.10051E-01         0.00000E+00
    0.38283E-02        -0.10305E-01         0.00000E+00
    0.38415E-02        -0.10563E-01         0.00000E+00
    0.38498E-02        -0.10825E-01         0.00000E+00
    0.38530E-02        -0.11090E-01         0.00000E+00
    0.38506E-02        -0.11359E-01         0.00000E+00
    0.38419E-02        -0.11631E-01         0.00000E+00
    0.38266E-02        -0.11906E-01         0.00000E+00
    0.38039E-02        -0.12185E-01         0.00000E+00
    0.37733E-02        -0.12468E-01         0.00000E+00
    0.37342E-02        -0.12753E-01         0.00000E+00
    0.36857E-02        -0.13042E-01         0.00000E+00
    0.36271E-02        -0.13335E-01         0.00000E+00
    0.35576E-02        -0.13630E-01         0.00000E+00
    0.34763E-02        -0.13928E-01         0.00000E+00
    0.33823E-02        -0.14229E-01         0.00000E+00
    0.32746E-02        -0.14533E-01         0.00000E+00
    0.31520E-02        -0.14838E-01         0.00000E+00
    0.30135E-02        -0.15144E-01         0.00000E+00
    0.28578E-02        -0.15449E-01         0.00000E+00
    0.26837E-02        -0.15753E-01         0.00000E+00
    0.24896E-02        -0.16052E-01         0.00000E+00
    0.22742E-02        -0.16344E-01         0.00000E+00
    0.20358E-02        -0.16623E-01         0.00000E+00
    0.17728E-02        -0.16885E-01         0.00000E+00
    0.14832E-02        -0.17121E-01         0.00000E+00
    0.11649E-02        -0.17323E-01         0.00000E+00
    0.81502E-03        -0.17479E-01         0.00000E+00
    0.42896E-03        -0.17579E-01         0.00000E+00
    0.00000E+00        -0.17614E-01         0.00000E+00
    0.00000E+00        -0.26555E-03         0.00000E+00
    0.13097E-03        -0.27471E-03         0.00000E+00
    0.25138E-03        -0.30124E-03         0.00000E+00
    0.36306E-03        -0.34275E-03         0.00000E+00
    0.46720E-03        -0.39635E-03         0.00000E+00
    0.56459E-03        -0.45930E-03         0.00000E+00
    0.65582E-03        -0.52934E-03         0.00000E+00
    0.74145E-03        -0.60468E-03         0.00000E+00
    0.82196E-03        -0.68396E-03         0.00000E+00
    0.89785E-03        -0.76621E-03         0.00000E+00
    0.96958E-03        -0.85069E-03         0.00000E+00
    0.10376E-02        -0.93693E-03         0.00000E+00
    0.11022E-02        -0.10246E-02         0.00000E+00
    0.11639E-02        -0.11135E-02         0.00000E+00
    0.12229E-02        -0.12035E-02         0.00000E+00
    0.12797E-02        -0.12947E-02         0.00000E+00
    0.13344E-02        -0.13870E-02         0.00000E+00
    0.13873E-02        -0.14804E-02         0.00000E+00
    0.14388E-02        -0.15751E-02         0.00000E+00
    0.14889E-02        -0.16711E-02         0.00000E+00
    0.15380E-02        -0.17685E-02         0.00000E+00
    0.15862E-02        -0.18675E-02         0.00000E+00
    0.16337E-02        -0.19680E-02         0.00000E+00
    0.16806E-02        -0.20703E-02         0.00000E+00
    0.17272E-02        -0.21743E-02         0.00000E+00
    0.17734E-02        -0.22803E-02         0.00000E+00
    0.18194E-02        -0.23882E-02         0.00000E+00
    0.18654E-02        -0.24981E-02         0.00000E+00
    0.19114E-02        -0.26102E-02         0.00000E+00
    0.19575E-02        -0.27245E-02         0.00000E+00
    0.20038E-02        -0.28411E-02         0.00000E+00
    0.20503E-02        -0.29600E-02         0.00000E+00
    0.20971E-02        -0.30815E-02         0.00000E+00
    0.21443E-02        -0.32054E-02         0.00000E+00
    0.21917E-02        -0.33319E-02         0.00000E+00
    0.22396E-02        -0.34611E-02         0.00000E+00
    0.22879E-02        -0.35931E-02         0.00000E+00
    0.23366E-02        -0.37279E-02         0.00000E+00
    0.23858E-02        -0.38655E-02         0.00000E+00
    0.24354E-02        -0.40061E-02         0.00000E+00
    0.24854E-02        -0.41498E-02         0.00000E+00
    0.25359E-02        -0.42965E-02         0.00000E+00
    0.25867E-02        -0.44463E-02         0.00000E+00
    0.26380E-02        -0.45994E-02         0.00000E+00
    0.26895E-02        -0.47558E-02         0.00000E+00
    0.27414E-02        -0.49155E-02         0.00000E+00
    0.27936E-02        -0.50786E-02         0.00000E+00
    0.28460E-02        -0.52452E-02         0.00000E+00
    0.28985E-02        -0.54152E-02         0.00000E+00
    0.29512E-02        -0.55889E-02         0.00000E+00
    0.30039E-02        -0.57661E-02         0.00000E+00
    0.30566E-02        -0.59470E-02         0.00000E+00
    0.31092E-02        -0.61316E-02         0.00000E+00
    0.31616E-02        -0.63200E-02         0.00000E+00
    0.32137E-02        -0.65121E-02         0.00000E+00
    0.32654E-02        -0.67081E-02         0.00000E+00
    0.33165E-02        -0.69079E-02         0.00000E+00
    0.33671E-02        -0.71116E-02         0.00000E+00
    0.34168E-02        -0.73192E-02         0.00000E+00
    0.34657E-02        -0.75308E-02         0.00000E+00
    0.35135E-02        -0.77462E-02         0.00000E+00
    0.35601E-02        -0.79656E-02         0.00000E+00
    0.36053E-02        -0.81890E-02         0.00000E+00
    0.36489E-02        -0.84164E-02         0.00000E+00
    0.36907E-02        -0.86477E-02         0.00000E+00
    0.37305E-02        -0.88829E-02         0.00000E+00
    0.37681E-02        -0.91221E-02         0.00000E+00
    0.38032E-02        -0.93652E-02         0.00000E+00
    0.38355E-02        -0.96122E-02         0.00000E+00
    0.38648E-02        -0.98630E-02         0.00000E+00
    0.38907E-02        -0.10118E-01         0.00000E+00
    0.39129E-02        -0.10376E-01         0.00000E+00
    0.39311E-02        -0.10638E-01         0.00000E+00
    0.39448E-02        -0.10904E-01         0.00000E+00
    0.39536E-02        -0.11174E-01         0.00000E+00
    0.39572E-02        -0.11447E-01         0.00000E+00
    0.39550E-02        -0.11724E-01         0.00000E+00
    0.39464E-02        -0.12005E-01         0.00000E+00
    0.39310E-02        -0.12289E-01         0.00000E+00
    0.39082E-02        -0.12576E-01         0.00000E+00
    0.38772E-02        -0.12867E-01         0.00000E+00
    0.38374E-02        -0.13161E-01         0.00000E+00
    0.37881E-02        -0.13459E-01         0.00000E+00
    0.37283E-02        -0.13760E-01         0.00000E+00
    0.36574E-02        -0.14064E-01         0.00000E+00
    0.35743E-02        -0.14371E-01         0.00000E+00
    0.34781E-02        -0.14681E-01         0.00000E+00
    0.33678E-02        -0.14993E-01         0.00000E+00
    0.32420E-02        -0.15307E-01         0.00000E+00
    0.30998E-02        -0.15622E-01         0.00000E+00
    0.29397E-02        -0.15936E-01         0.00000E+00
    0.27605E-02        -0.16248E-01         0.00000E+00
    0.25606E-02        -0.16556E-01         0.00000E+00
    0.23384E-02        -0.16856E-01         0.00000E+00
    0.20925E-02        -0.17143E-01         0.00000E+00
    0.18210E-02        -0.17412E-01         0.00000E+00
    0.15223E-02        -0.17656E-01         0.00000E+00
    0.11944E-02        -0.17864E-01         0.00000E+00
    0.83456E-03        -0.18026E-01         0.00000E+00
    0.43865E-03        -0.18130E-01         0.00000E+00
    0.00000E+00        -0.18165E-01         0.00000E+00
    0.00000E+00        -0.27940E-03         0.00000E+00
    0.13390E-03        -0.28892E-03         0.00000E+00
    0.25730E-03        -0.31645E-03         0.00000E+00
    0.37197E-03        -0.35941E-03         0.00000E+00
    0.47906E-03        -0.41473E-03         0.00000E+00
    0.57925E-03        -0.47958E-03         0.00000E+00
    0.67312E-03        -0.55164E-03         0.00000E+00
    0.76118E-03        -0.62911E-03         0.00000E+00
    0.84393E-03        -0.71062E-03         0.00000E+00
    0.92188E-03        -0.79516E-03         0.00000E+00
    0.99549E-03        -0.88202E-03         0.00000E+00
    0.10652E-02        -0.97070E-03         0.00000E+00
    0.11315E-02        -0.10609E-02         0.00000E+00
    0.11946E-02        -0.11523E-02         0.00000E+00
    0.12551E-02        -0.12450E-02         0.00000E+00
    0.13131E-02        -0.13388E-02         0.00000E+00
    0.13691E-02        -0.14338E-02         0.00000E+00
    0.14233E-02        -0.15301E-02         0.00000E+00
    0.14759E-02        -0.16276E-02         0.00000E+00
    0.15272E-02        -0.17265E-02         0.00000E+00
    0.15774E-02        -0.18269E-02         0.00000E+00
    0.16267E-02        -0.19289E-02         0.00000E+00
    0.16753E-02        -0.20325E-02         0.00000E+00
    0.17233E-02        -0.21379E-02         0.00000E+00
    0.17709E-02        -0.22452E-02         0.00000E+00
    0.18182E-02        -0.23544E-02         0.00000E+00
    0.18653E-02        -0.24657E-02         0.00000E+00
    0.19124E-02        -0.25790E-02         0.00000E+00
    0.19595E-02        -0.26946E-02         0.00000E+00
    0.20068E-02        -0.28125E-02         0.00000E+00
    0.20542E-02        -0.29327E-02         0.00000E+00
    0.21018E-02        -0.30554E-02         0.00000E+00
    0.21497E-02        -0.31806E-02         0.00000E+00
    0.21980E-02        -0.33085E-02         0.00000E+00
    0.22467E-02        -0.34390E-02         0.00000E+00
    0.22957E-02        -0.35723E-02         0.00000E+00
    0.23452E-02        -0.37083E-02         0.00000E+00
    0.23952E-02        -0.38474E-02         0.00000E+00
    0.24456E-02        -0.39893E-02         0.00000E+00
    0.24964E-02        -0.41343E-02         0.00000E+00
    0.25477E-02        -0.42825E-02         0.00000E+00
    0.25994E-02        -0.44338E-02         0.00000E+00
    0.26516E-02        -0.45884E-02         0.00000E+00
    0.27041E-02        -0.47463E-02         0.00000E+00
    0.27570E-02        -0.49075E-02         0.00000E+00
    0.28102E-02        -0.50722E-02         0.00000E+00
    0.28637E-02        -0.52405E-02         0.00000E+00
    0.29174E-02        -0.54122E-02         0.00000E+00
    0.29714E-02        -0.55876E-02         0.00000E+00
    0.30254E-02        -0.57667E-02         0.00000E+00
    0.30795E-02        -0.59495E-02         0.00000E+00
    0.31335E-02        -0.61360E-02         0.00000E+00
    0.31875E-02        -0.63264E-02         0.00000E+00
    0.32412E-02        -0.65206E-02         0.00000E+00
    0.32947E-02        -0.67187E-02         0.00000E+00
    0.33477E-02        -0.69208E-02         0.00000E+00
    0.34003E-02        -0.71268E-02         0.00000E+00
    0.34522E-02        -0.73368E-02         0.00000E+00
    0.35033E-02        -0.75509E-02         0.00000E+00
    0.35534E-02        -0.77689E-02         0.00000E+00
    0.36026E-02        -0.79911E-02         0.00000E+00
    0.36504E-02        -0.82173E-02         0.00000E+00
    0.36968E-02        -0.84475E-02         0.00000E+00
    0.37417E-02        -0.86819E-02         0.00000E+00
    0.37847E-02        -0.89203E-02         0.00000E+00
    0.38256E-02        -0.91627E-02         0.00000E+00
    0.38643E-02        -0.94092E-02         0.00000E+00
    0.39004E-02        -0.96597E-02         0.00000E+00
    0.39337E-02        -0.99143E-02         0.00000E+00
    0.39639E-02        -0.10173E-01         0.00000E+00
    0.39907E-02        -0.10435E-01         0.00000E+00
    0.40137E-02        -0.10701E-01         0.00000E+00
    0.40326E-02        -0.10972E-01         0.00000E+00
    0.40469E-02        -0.11246E-01         0.00000E+00
    0.40563E-02        -0.11523E-01         0.00000E+00
    0.40602E-02        -0.11805E-01         0.00000E+00
    0.40583E-02        -0.12090E-01         0.00000E+00
    0.40499E-02        -0.12379E-01         0.00000E+00
    0.40345E-02        -0.12671E-01         0.00000E+00
    0.40115E-02        -0.12967E-01         0.00000E+00
    0.39801E-02        -0.13267E-01         0.00000E+00
    0.39398E-02        -0.13569E-01         0.00000E+00
    0.38896E-02        -0.13876E-01         0.00000E+00
    0.38289E-02        -0.14185E-01         0.00000E+00
    0.37566E-02        -0.14498E-01         0.00000E+00
    0.36718E-02        -0.14814E-01         0.00000E+00
    0.35735E-02        -0.15132E-01         0.00000E+00
    0.34606E-02        -0.15453E-01         0.00000E+00
    0.33318E-02        -0.15776E-01         0.00000E+00
    0.31860E-02        -0.16099E-01         0.00000E+00
    0.30216E-02        -0.16422E-01         0.00000E+00
    0.28374E-02        -0.16743E-01         0.00000E+00
    0.26317E-02        -0.17059E-01         0.00000E+00
    0.24029E-02        -0.17366E-01         0.00000E+00
    0.21495E-02        -0.17662E-01         0.00000E+00
    0.18696E-02        -0.17938E-01         0.00000E+00
    0.15618E-02        -0.18189E-01         0.00000E+00
    0.12241E-02        -0.18404E-01         0.00000E+00
    0.85430E-03        -0.18572E-01         0.00000E+00
    0.44844E-03        -0.18679E-01         0.00000E+00
    0.00000E+00        -0.18717E-01         0.00000E+00
    0.00000E+00        -0.29344E-03         0.00000E+00
    0.13686E-03        -0.30335E-03         0.00000E+00
    0.26325E-03        -0.33192E-03         0.00000E+00
    0.38094E-03        -0.37636E-03         0.00000E+00
    0.49097E-03        -0.43342E-03         0.00000E+00
    0.59396E-03        -0.50016E-03         0.00000E+00
    0.69044E-03        -0.57424E-03         0.00000E+00
    0.78090E-03        -0.65382E-03         0.00000E+00
    0.86585E-03        -0.73754E-03         0.00000E+00
    0.94581E-03        -0.82437E-03         0.00000E+00
    0.10213E-02        -0.91358E-03         0.00000E+00
    0.10927E-02        -0.10047E-02         0.00000E+00
    0.11605E-02        -0.10973E-02         0.00000E+00
    0.12251E-02        -0.11914E-02         0.00000E+00
    0.12869E-02        -0.12866E-02         0.00000E+00
    0.13463E-02        -0.13831E-02         0.00000E+00
    0.14034E-02        -0.14808E-02         0.00000E+00
    0.14588E-02        -0.15799E-02         0.00000E+00
    0.15125E-02        -0.16802E-02         0.00000E+00
    0.15650E-02        -0.17821E-02         0.00000E+00
    0.16163E-02        -0.18854E-02         0.00000E+00
    0.16666E-02        -0.19904E-02         0.00000E+00
    0.17163E-02        -0.20971E-02         0.00000E+00
    0.17653E-02        -0.22057E-02         0.00000E+00
    0.18140E-02        -0.23162E-02         0.00000E+00
    0.18624E-02        -0.24287E-02         0.00000E+00
    0.19106E-02        -0.25433E-02         0.00000E+00
    0.19587E-02        -0.26601E-02         0.00000E+00
    0.20069E-02        -0.27792E-02         0.00000E+00
    0.20552E-02        -0.29006E-02         0.00000E+00
    0.21037E-02        -0.30245E-02         0.00000E+00
    0.21525E-02        -0.31509E-02         0.00000E+00
    0.22015E-02        -0.32800E-02         0.00000E+00
    0.22510E-02        -0.34117E-02         0.00000E+00
    0.23008E-02        -0.35462E-02         0.00000E+00
    0.23510E-02        -0.36835E-02         0.00000E+00
    0.24017E-02        -0.38237E-02         0.00000E+00
    0.24528E-02        -0.39670E-02         0.00000E+00
    0.25044E-02        -0.41133E-02         0.00000E+00
    0.25565E-02        -0.42627E-02         0.00000E+00
    0.26090E-02        -0.44154E-02         0.00000E+00
    0.26620E-02        -0.45713E-02         0.00000E+00
    0.27154E-02        -0.47306E-02         0.00000E+00
    0.27692E-02        -0.48933E-02         0.00000E+00
    0.28234E-02        -0.50594E-02         0.00000E+00
    0.28780E-02        -0.52292E-02         0.00000E+00
    0.29328E-02        -0.54025E-02         0.00000E+00
    0.29878E-02        -0.55795E-02         0.00000E+00
    0.30431E-02        -0.57602E-02         0.00000E+00
    0.30985E-02        -0.59447E-02         0.00000E+00
    0.31539E-02        -0.61330E-02         0.00000E+00
    0.32093E-02        -0.63252E-02         0.00000E+00
    0.32646E-02        -0.65213E-02         0.00000E+00
    0.33197E-02        -0.67214E-02         0.00000E+00
    0.33746E-02        -0.69255E-02         0.00000E+00
    0.34290E-02        -0.71336E-02         0.00000E+00
    0.34828E-02        -0.73459E-02         0.00000E+00
    0.35360E-02        -0.75622E-02         0.00000E+00
    0.35885E-02        -0.77827E-02         0.00000E+00
    0.36400E-02        -0.80073E-02         0.00000E+00
    0.36904E-02        -0.82361E-02         0.00000E+00
    0.37395E-02        -0.84690E-02         0.00000E+00
    0.37872E-02        -0.87062E-02         0.00000E+00
    0.38332E-02        -0.89475E-02         0.00000E+00
    0.38774E-02        -0.91930E-02         0.00000E+00
    0.39195E-02        -0.94426E-02         0.00000E+00
    0.39592E-02        -0.96965E-02         0.00000E+00
    0.39964E-02        -0.99544E-02         0.00000E+00
    0.40307E-02        -0.10216E-01         0.00000E+00
    0.40618E-02        -0.10483E-01         0.00000E+00
    0.40895E-02        -0.10753E-01         0.00000E+00
    0.41133E-02        -0.11027E-01         0.00000E+00
    0.41329E-02        -0.11305E-01         0.00000E+00
    0.41479E-02        -0.11587E-01         0.00000E+00
    0.41578E-02        -0.11873E-01         0.00000E+00
    0.41622E-02        -0.12162E-01         0.00000E+00
    0.41605E-02        -0.12456E-01         0.00000E+00
    0.41523E-02        -0.12753E-01         0.00000E+00
    0.41370E-02        -0.13054E-01         0.00000E+00
    0.41138E-02        -0.13358E-01         0.00000E+00
    0.40822E-02        -0.13666E-01         0.00000E+00
    0.40413E-02        -0.13977E-01         0.00000E+00
    0.39904E-02        -0.14292E-01         0.00000E+00
    0.39287E-02        -0.14610E-01         0.00000E+00
    0.38551E-02        -0.14932E-01         0.00000E+00
    0.37687E-02        -0.15256E-01         0.00000E+00
    0.36684E-02        -0.15583E-01         0.00000E+00
    0.35531E-02        -0.15913E-01         0.00000E+00
    0.34214E-02        -0.16244E-01         0.00000E+00
    0.32720E-02        -0.16576E-01         0.00000E+00
    0.31036E-02        -0.16907E-01         0.00000E+00
    0.29144E-02        -0.17236E-01         0.00000E+00
    0.27031E-02        -0.17560E-01         0.00000E+00
    0.24678E-02        -0.17876E-01         0.00000E+00
    0.22069E-02        -0.18180E-01         0.00000E+00
    0.19188E-02        -0.18464E-01         0.00000E+00
    0.16017E-02        -0.18722E-01         0.00000E+00
    0.12543E-02        -0.18943E-01         0.00000E+00
    0.87433E-03        -0.19117E-01         0.00000E+00
    0.45837E-03        -0.19228E-01         0.00000E+00
    0.00000E+00        -0.19267E-01         0.00000E+00
    0.00000E+00        -0.30767E-03         0.00000E+00
    0.13984E-03        -0.31798E-03         0.00000E+00
    0.26926E-03        -0.34764E-03         0.00000E+00
    0.38999E-03        -0.39360E-03         0.00000E+00
    0.50297E-03        -0.45241E-03         0.00000E+00
    0.60875E-03        -0.52105E-03         0.00000E+00
    0.70780E-03        -0.59713E-03         0.00000E+00
    0.80063E-03        -0.67882E-03         0.00000E+00
    0.88774E-03        -0.76472E-03         0.00000E+00
    0.96967E-03        -0.85382E-03         0.00000E+00
    0.10469E-02        -0.94537E-03         0.00000E+00
    0.11200E-02        -0.10389E-02         0.00000E+00
    0.11893E-02        -0.11340E-02         0.00000E+00
    0.12553E-02        -0.12306E-02         0.00000E+00
    0.13185E-02        -0.13284E-02         0.00000E+00
    0.13790E-02        -0.14276E-02         0.00000E+00
    0.14374E-02        -0.15280E-02         0.00000E+00
    0.14939E-02        -0.16298E-02         0.00000E+00
    0.15488E-02        -0.17330E-02         0.00000E+00
    0.16022E-02        -0.18377E-02         0.00000E+00
    0.16546E-02        -0.19441E-02         0.00000E+00
    0.17060E-02        -0.20521E-02         0.00000E+00
    0.17567E-02        -0.21619E-02         0.00000E+00
    0.18068E-02        -0.22736E-02         0.00000E+00
    0.18565E-02        -0.23873E-02         0.00000E+00
    0.19059E-02        -0.25031E-02         0.00000E+00
    0.19551E-02        -0.26210E-02         0.00000E+00
    0.20043E-02        -0.27413E-02         0.00000E+00
    0.20536E-02        -0.28638E-02         0.00000E+00
    0.21030E-02        -0.29889E-02         0.00000E+00
    0.21525E-02        -0.31164E-02         0.00000E+00
    0.22024E-02        -0.32466E-02         0.00000E+00
    0.22525E-02        -0.33794E-02         0.00000E+00
    0.23031E-02        -0.35150E-02         0.00000E+00
    0.23540E-02        -0.36535E-02         0.00000E+00
    0.24054E-02        -0.37949E-02         0.00000E+00
    0.24573E-02        -0.39393E-02         0.00000E+00
    0.25096E-02        -0.40867E-02         0.00000E+00
    0.25624E-02        -0.42374E-02         0.00000E+00
    0.26156E-02        -0.43912E-02         0.00000E+00
    0.26694E-02        -0.45484E-02         0.00000E+00
    0.27236E-02        -0.47089E-02         0.00000E+00
    0.27783E-02        -0.48729E-02         0.00000E+00
    0.28334E-02        -0.50404E-02         0.00000E+00
    0.28888E-02        -0.52115E-02         0.00000E+00
    0.29447E-02        -0.53862E-02         0.00000E+00
    0.30008E-02        -0.55646E-02         0.00000E+00
    0.30572E-02        -0.57468E-02         0.00000E+00
    0.31138E-02        -0.59329E-02         0.00000E+00
    0.31705E-02        -0.61228E-02         0.00000E+00
    0.32272E-02        -0.63166E-02         0.00000E+00
    0.32840E-02        -0.65145E-02         0.00000E+00
    0.33406E-02        -0.67164E-02         0.00000E+00
    0.33971E-02        -0.69223E-02         0.00000E+00
    0.34532E-02        -0.71324E-02         0.00000E+00
    0.35090E-02        -0.73466E-02         0.00000E+00
    0.35642E-02        -0.75651E-02         0.00000E+00
    0.36187E-02        -0.77877E-02         0.00000E+00
    0.36725E-02        -0.80146E-02         0.00000E+00
    0.37253E-02        -0.82458E-02         0.00000E+00
    0.37769E-02        -0.84812E-02         0.00000E+00
    0.38273E-02        -0.87209E-02         0.00000E+00
    0.38762E-02        -0.89649E-02         0.00000E+00
    0.39235E-02        -0.92132E-02         0.00000E+00
    0.39688E-02        -0.94658E-02         0.00000E+00
    0.40121E-02        -0.97227E-02         0.00000E+00
    0.40529E-02        -0.99838E-02         0.00000E+00
    0.40911E-02        -0.10249E-01         0.00000E+00
    0.41265E-02        -0.10519E-01         0.00000E+00
    0.41585E-02        -0.10792E-01         0.00000E+00
    0.41871E-02        -0.11070E-01         0.00000E+00
    0.42117E-02        -0.11352E-01         0.00000E+00
    0.42320E-02        -0.11638E-01         0.00000E+00
    0.42476E-02        -0.11928E-01         0.00000E+00
    0.42581E-02        -0.12222E-01         0.00000E+00
    0.42629E-02        -0.12520E-01         0.00000E+00
    0.42617E-02        -0.12822E-01         0.00000E+00
    0.42537E-02        -0.13127E-01         0.00000E+00
    0.42384E-02        -0.13436E-01         0.00000E+00
    0.42152E-02        -0.13749E-01         0.00000E+00
    0.41833E-02        -0.14065E-01         0.00000E+00
    0.41420E-02        -0.14385E-01         0.00000E+00
    0.40905E-02        -0.14708E-01         0.00000E+00
    0.40278E-02        -0.15035E-01         0.00000E+00
    0.39530E-02        -0.15365E-01         0.00000E+00
    0.38651E-02        -0.15698E-01         0.00000E+00
    0.37630E-02        -0.16034E-01         0.00000E+00
    0.36453E-02        -0.16372E-01         0.00000E+00
    0.35108E-02        -0.16712E-01         0.00000E+00
    0.33581E-02        -0.17052E-01         0.00000E+00
    0.31856E-02        -0.17392E-01         0.00000E+00
    0.29917E-02        -0.17729E-01         0.00000E+00
    0.27748E-02        -0.18062E-01         0.00000E+00
    0.25331E-02        -0.18386E-01         0.00000E+00
    0.22649E-02        -0.18696E-01         0.00000E+00
    0.19685E-02        -0.18988E-01         0.00000E+00
    0.16423E-02        -0.19253E-01         0.00000E+00
    0.12849E-02        -0.19482E-01         0.00000E+00
    0.89470E-03        -0.19661E-01         0.00000E+00
    0.46847E-03        -0.19777E-01         0.00000E+00
    0.00000E+00        -0.19817E-01         0.00000E+00
    0.00000E+00        -0.32209E-03         0.00000E+00
    0.14285E-03        -0.33283E-03         0.00000E+00
    0.27535E-03        -0.36362E-03         0.00000E+00
    0.39915E-03        -0.41112E-03         0.00000E+00
    0.51508E-03        -0.47170E-03         0.00000E+00
    0.62363E-03        -0.54223E-03         0.00000E+00
    0.72524E-03        -0.62031E-03         0.00000E+00
    0.82039E-03        -0.70409E-03         0.00000E+00
    0.90962E-03        -0.79216E-03         0.00000E+00
    0.99346E-03        -0.88350E-03         0.00000E+00
    0.10725E-02        -0.97738E-03         0.00000E+00
    0.11471E-02        -0.10733E-02         0.00000E+00
    0.12179E-02        -0.11709E-02         0.00000E+00
    0.12853E-02        -0.12699E-02         0.00000E+00
    0.13497E-02        -0.13704E-02         0.00000E+00
    0.14115E-02        -0.14722E-02         0.00000E+00
    0.14710E-02        -0.15753E-02         0.00000E+00
    0.15286E-02        -0.16799E-02         0.00000E+00
    0.15845E-02        -0.17859E-02         0.00000E+00
    0.16391E-02        -0.18935E-02         0.00000E+00
    0.16924E-02        -0.20028E-02         0.00000E+00
    0.17449E-02        -0.21138E-02         0.00000E+00
    0.17966E-02        -0.22267E-02         0.00000E+00
    0.18477E-02        -0.23416E-02         0.00000E+00
    0.18984E-02        -0.24585E-02         0.00000E+00
    0.19488E-02        -0.25776E-02         0.00000E+00
    0.19990E-02        -0.26989E-02         0.00000E+00
    0.20493E-02        -0.28226E-02         0.00000E+00
    0.20995E-02        -0.29486E-02         0.00000E+00
    0.21499E-02        -0.30772E-02         0.00000E+00
    0.22006E-02        -0.32084E-02         0.00000E+00
    0.22515E-02        -0.33423E-02         0.00000E+00
    0.23027E-02        -0.34790E-02         0.00000E+00
    0.23544E-02        -0.36185E-02         0.00000E+00
    0.24064E-02        -0.37609E-02         0.00000E+00
    0.24590E-02        -0.39064E-02         0.00000E+00
    0.25119E-02        -0.40549E-02         0.00000E+00
    0.25654E-02        -0.42066E-02         0.00000E+00
    0.26194E-02        -0.43616E-02         0.00000E+00
    0.26739E-02        -0.45199E-02         0.00000E+00
    0.27288E-02        -0.46815E-02         0.00000E+00
    0.27843E-02        -0.48467E-02         0.00000E+00
    0.28402E-02        -0.50154E-02         0.00000E+00
    0.28965E-02        -0.51877E-02         0.00000E+00
    0.29532E-02        -0.53637E-02         0.00000E+00
    0.30103E-02        -0.55434E-02         0.00000E+00
    0.30678E-02        -0.57269E-02         0.00000E+00
    0.31254E-02        -0.59144E-02         0.00000E+00
    0.31833E-02        -0.61057E-02         0.00000E+00
    0.32413E-02        -0.63011E-02         0.00000E+00
    0.32994E-02        -0.65005E-02         0.00000E+00
    0.33575E-02        -0.67039E-02         0.00000E+00
    0.34155E-02        -0.69116E-02         0.00000E+00
    0.34733E-02        -0.71234E-02         0.00000E+00
    0.35308E-02        -0.73394E-02         0.00000E+00
    0.35878E-02        -0.75598E-02         0.00000E+00
    0.36443E-02        -0.77844E-02         0.00000E+00
    0.37002E-02        -0.80134E-02         0.00000E+00
    0.37552E-02        -0.82467E-02         0.00000E+00
    0.38093E-02        -0.84844E-02         0.00000E+00
    0.38623E-02        -0.87264E-02         0.00000E+00
    0.39139E-02        -0.89729E-02         0.00000E+00
    0.39641E-02        -0.92238E-02         0.00000E+00
    0.40125E-02        -0.94791E-02         0.00000E+00
    0.40590E-02        -0.97388E-02         0.00000E+00
    0.41034E-02        -0.10003E-01         0.00000E+00
    0.41454E-02        -0.10271E-01         0.00000E+00
    0.41846E-02        -0.10544E-01         0.00000E+00
    0.42210E-02        -0.10821E-01         0.00000E+00
    0.42540E-02        -0.11102E-01         0.00000E+00
    0.42834E-02        -0.11388E-01         0.00000E+00
    0.43089E-02        -0.11678E-01         0.00000E+00
    0.43299E-02        -0.11972E-01         0.00000E+00
    0.43462E-02        -0.12270E-01         0.00000E+00
    0.43573E-02        -0.12571E-01         0.00000E+00
    0.43626E-02        -0.12877E-01         0.00000E+00
    0.43617E-02        -0.13187E-01         0.00000E+00
    0.43540E-02        -0.13501E-01         0.00000E+00
    0.43388E-02        -0.13818E-01         0.00000E+00
    0.43156E-02        -0.14139E-01         0.00000E+00
    0.42835E-02        -0.14464E-01         0.00000E+00
    0.42419E-02        -0.14793E-01         0.00000E+00
    0.41897E-02        -0.15125E-01         0.00000E+00
    0.41263E-02        -0.15460E-01         0.00000E+00
    0.40504E-02        -0.15798E-01         0.00000E+00
    0.39611E-02        -0.16140E-01         0.00000E+00
    0.38571E-02        -0.16484E-01         0.00000E+00
    0.37373E-02        -0.16831E-01         0.00000E+00
    0.36001E-02        -0.17179E-01         0.00000E+00
    0.34441E-02        -0.17528E-01         0.00000E+00
    0.32677E-02        -0.17876E-01         0.00000E+00
    0.30693E-02        -0.18222E-01         0.00000E+00
    0.28470E-02        -0.18562E-01         0.00000E+00
    0.25990E-02        -0.18894E-01         0.00000E+00
    0.23236E-02        -0.19213E-01         0.00000E+00
    0.20189E-02        -0.19512E-01         0.00000E+00
    0.16835E-02        -0.19784E-01         0.00000E+00
    0.13162E-02        -0.20019E-01         0.00000E+00
    0.91551E-03        -0.20204E-01         0.00000E+00
    0.47877E-03        -0.20325E-01         0.00000E+00
    0.00000E+00        -0.20367E-01         0.00000E+00
    0.00000E+00        -0.33668E-03         0.00000E+00
    0.14592E-03        -0.34787E-03         0.00000E+00
    0.28153E-03        -0.37985E-03         0.00000E+00
    0.40843E-03        -0.42894E-03         0.00000E+00
    0.52734E-03        -0.49128E-03         0.00000E+00
    0.63865E-03        -0.56371E-03         0.00000E+00
    0.74277E-03        -0.64378E-03         0.00000E+00
    0.84021E-03        -0.72962E-03         0.00000E+00
    0.93150E-03        -0.81984E-03         0.00000E+00
    0.10172E-02        -0.91342E-03         0.00000E+00
    0.10979E-02        -0.10096E-02         0.00000E+00
    0.11741E-02        -0.11079E-02         0.00000E+00
    0.12463E-02        -0.12079E-02         0.00000E+00
    0.13150E-02        -0.13095E-02         0.00000E+00
    0.13807E-02        -0.14125E-02         0.00000E+00
    0.14436E-02        -0.15170E-02         0.00000E+00
    0.15042E-02        -0.16228E-02         0.00000E+00
    0.15629E-02        -0.17301E-02         0.00000E+00
    0.16198E-02        -0.18390E-02         0.00000E+00
    0.16754E-02        -0.19495E-02         0.00000E+00
    0.17298E-02        -0.20617E-02         0.00000E+00
    0.17832E-02        -0.21758E-02         0.00000E+00
    0.18358E-02        -0.22917E-02         0.00000E+00
    0.18879E-02        -0.24097E-02         0.00000E+00
    0.19396E-02        -0.25299E-02         0.00000E+00
    0.19910E-02        -0.26522E-02         0.00000E+00
    0.20423E-02        -0.27769E-02         0.00000E+00
    0.20935E-02        -0.29040E-02         0.00000E+00
    0.21448E-02        -0.30336E-02         0.00000E+00
    0.21962E-02        -0.31657E-02         0.00000E+00
    0.22479E-02        -0.33006E-02         0.00000E+00
    0.22998E-02        -0.34382E-02         0.00000E+00
    0.23522E-02        -0.35787E-02         0.00000E+00
    0.24049E-02        -0.37221E-02         0.00000E+00
    0.24580E-02        -0.38685E-02         0.00000E+00
    0.25116E-02        -0.40180E-02         0.00000E+00
    0.25658E-02        -0.41707E-02         0.00000E+00
    0.26204E-02        -0.43266E-02         0.00000E+00
    0.26755E-02        -0.44859E-02         0.00000E+00
    0.27312E-02        -0.46486E-02         0.00000E+00
    0.27873E-02        -0.48148E-02         0.00000E+00
    0.28440E-02        -0.49846E-02         0.00000E+00
    0.29011E-02        -0.51580E-02         0.00000E+00
    0.29586E-02        -0.53351E-02         0.00000E+00
    0.30166E-02        -0.55160E-02         0.00000E+00
    0.30750E-02        -0.57007E-02         0.00000E+00
    0.31337E-02        -0.58894E-02         0.00000E+00
    0.31926E-02        -0.60820E-02         0.00000E+00
    0.32518E-02        -0.62787E-02         0.00000E+00
    0.33111E-02        -0.64795E-02         0.00000E+00
    0.33705E-02        -0.66844E-02         0.00000E+00
    0.34299E-02        -0.68935E-02         0.00000E+00
    0.34892E-02        -0.71069E-02         0.00000E+00
    0.35483E-02        -0.73246E-02         0.00000E+00
    0.36071E-02        -0.75466E-02         0.00000E+00
    0.36655E-02        -0.77730E-02         0.00000E+00
    0.37233E-02        -0.80039E-02         0.00000E+00
    0.37805E-02        -0.82391E-02         0.00000E+00
    0.38368E-02        -0.84789E-02         0.00000E+00
    0.38922E-02        -0.87231E-02         0.00000E+00
    0.39464E-02        -0.89718E-02         0.00000E+00
    0.39993E-02        -0.92251E-02         0.00000E+00
    0.40506E-02        -0.94828E-02         0.00000E+00
    0.41003E-02        -0.97451E-02         0.00000E+00
    0.41480E-02        -0.10012E-01         0.00000E+00
    0.41935E-02        -0.10283E-01         0.00000E+00
    0.42366E-02        -0.10559E-01         0.00000E+00
    0.42769E-02        -0.10839E-01         0.00000E+00
    0.43142E-02        -0.11124E-01         0.00000E+00
    0.43482E-02        -0.11412E-01         0.00000E+00
    0.43786E-02        -0.11706E-01         0.00000E+00
    0.44048E-02        -0.12003E-01         0.00000E+00
    0.44267E-02        -0.12305E-01         0.00000E+00
    0.44437E-02        -0.12611E-01         0.00000E+00
    0.44553E-02        -0.12921E-01         0.00000E+00
    0.44612E-02        -0.13235E-01         0.00000E+00
    0.44607E-02        -0.13553E-01         0.00000E+00
    0.44533E-02        -0.13875E-01         0.00000E+00
    0.44383E-02        -0.14201E-01         0.00000E+00
    0.44151E-02        -0.14530E-01         0.00000E+00
    0.43829E-02        -0.14863E-01         0.00000E+00
    0.43409E-02        -0.15200E-01         0.00000E+00
    0.42883E-02        -0.15541E-01         0.00000E+00
    0.42241E-02        -0.15884E-01         0.00000E+00
    0.41472E-02        -0.16231E-01         0.00000E+00
    0.40566E-02        -0.16581E-01         0.00000E+00
    0.39510E-02        -0.16934E-01         0.00000E+00
    0.38290E-02        -0.17289E-01         0.00000E+00
    0.36893E-02        -0.17646E-01         0.00000E+00
    0.35302E-02        -0.18003E-01         0.00000E+00
    0.33501E-02        -0.18359E-01         0.00000E+00
    0.31472E-02        -0.18713E-01         0.00000E+00
    0.29197E-02        -0.19062E-01         0.00000E+00
    0.26656E-02        -0.19401E-01         0.00000E+00
    0.23830E-02        -0.19728E-01         0.00000E+00
    0.20702E-02        -0.20035E-01         0.00000E+00
    0.17256E-02        -0.20314E-01         0.00000E+00
    0.13482E-02        -0.20556E-01         0.00000E+00
    0.93684E-03        -0.20747E-01         0.00000E+00
    0.48933E-03        -0.20872E-01         0.00000E+00
    0.00000E+00        -0.20916E-01         0.00000E+00
    0.00000E+00        -0.35144E-03         0.00000E+00
    0.14904E-03        -0.36312E-03         0.00000E+00
    0.28783E-03        -0.39633E-03         0.00000E+00
    0.41789E-03        -0.44704E-03         0.00000E+00
    0.53977E-03        -0.51117E-03         0.00000E+00
    0.65381E-03        -0.58548E-03         0.00000E+00
    0.76042E-03        -0.66751E-03         0.00000E+00
    0.86010E-03        -0.75541E-03         0.00000E+00
    0.95340E-03        -0.84777E-03         0.00000E+00
    0.10409E-02        -0.94356E-03         0.00000E+00
    0.11233E-02        -0.10420E-02         0.00000E+00
    0.12010E-02        -0.11427E-02         0.00000E+00
    0.12745E-02        -0.12451E-02         0.00000E+00
    0.13445E-02        -0.13492E-02         0.00000E+00
    0.14113E-02        -0.14548E-02         0.00000E+00
    0.14754E-02        -0.15619E-02         0.00000E+00
    0.15371E-02        -0.16704E-02         0.00000E+00
    0.15968E-02        -0.17805E-02         0.00000E+00
    0.16547E-02        -0.18922E-02         0.00000E+00
    0.17112E-02        -0.20055E-02         0.00000E+00
    0.17666E-02        -0.21207E-02         0.00000E+00
    0.18209E-02        -0.22378E-02         0.00000E+00
    0.18746E-02        -0.23568E-02         0.00000E+00
    0.19276E-02        -0.24780E-02         0.00000E+00
    0.19802E-02        -0.26013E-02         0.00000E+00
    0.20326E-02        -0.27270E-02         0.00000E+00
    0.20848E-02        -0.28550E-02         0.00000E+00
    0.21370E-02        -0.29855E-02         0.00000E+00
    0.21893E-02        -0.31186E-02         0.00000E+00
    0.22417E-02        -0.32543E-02         0.00000E+00
    0.22944E-02        -0.33928E-02         0.00000E+00
    0.23474E-02        -0.35342E-02         0.00000E+00
    0.24008E-02        -0.36785E-02         0.00000E+00
    0.24545E-02        -0.38258E-02         0.00000E+00
    0.25088E-02        -0.39762E-02         0.00000E+00
    0.25635E-02        -0.41298E-02         0.00000E+00
    0.26187E-02        -0.42866E-02         0.00000E+00
    0.26744E-02        -0.44468E-02         0.00000E+00
    0.27307E-02        -0.46104E-02         0.00000E+00
    0.27875E-02        -0.47775E-02         0.00000E+00
    0.28448E-02        -0.49483E-02         0.00000E+00
    0.29027E-02        -0.51226E-02         0.00000E+00
    0.29610E-02        -0.53007E-02         0.00000E+00
    0.30198E-02        -0.54827E-02         0.00000E+00
    0.30790E-02        -0.56685E-02         0.00000E+00
    0.31386E-02        -0.58582E-02         0.00000E+00
    0.31985E-02        -0.60520E-02         0.00000E+00
    0.32587E-02        -0.62498E-02         0.00000E+00
    0.33192E-02        -0.64518E-02         0.00000E+00
    0.33798E-02        -0.66580E-02         0.00000E+00
    0.34405E-02        -0.68685E-02         0.00000E+00
    0.35012E-02        -0.70833E-02         0.00000E+00
    0.35618E-02        -0.73024E-02         0.00000E+00
    0.36222E-02        -0.75260E-02         0.00000E+00
    0.36823E-02        -0.77540E-02         0.00000E+00
    0.37420E-02        -0.79865E-02         0.00000E+00
    0.38011E-02        -0.82235E-02         0.00000E+00
    0.38595E-02        -0.84651E-02         0.00000E+00
    0.39172E-02        -0.87112E-02         0.00000E+00
    0.39738E-02        -0.89620E-02         0.00000E+00
    0.40293E-02        -0.92173E-02         0.00000E+00
    0.40834E-02        -0.94773E-02         0.00000E+00
    0.41360E-02        -0.97419E-02         0.00000E+00
    0.41868E-02        -0.10011E-01         0.00000E+00
    0.42357E-02        -0.10285E-01         0.00000E+00
    0.42823E-02        -0.10563E-01         0.00000E+00
    0.43265E-02        -0.10846E-01         0.00000E+00
    0.43679E-02        -0.11134E-01         0.00000E+00
    0.44063E-02        -0.11426E-01         0.00000E+00
    0.44412E-02        -0.11723E-01         0.00000E+00
    0.44725E-02        -0.12024E-01         0.00000E+00
    0.44996E-02        -0.12329E-01         0.00000E+00
    0.45222E-02        -0.12638E-01         0.00000E+00
    0.45400E-02        -0.12952E-01         0.00000E+00
    0.45523E-02        -0.13270E-01         0.00000E+00
    0.45587E-02        -0.13592E-01         0.00000E+00
    0.45586E-02        -0.13919E-01         0.00000E+00
    0.45515E-02        -0.14249E-01         0.00000E+00
    0.45368E-02        -0.14583E-01         0.00000E+00
    0.45136E-02        -0.14921E-01         0.00000E+00
    0.44814E-02        -0.15262E-01         0.00000E+00
    0.44392E-02        -0.15608E-01         0.00000E+00
    0.43861E-02        -0.15956E-01         0.00000E+00
    0.43213E-02        -0.16309E-01         0.00000E+00
    0.42435E-02        -0.16664E-01         0.00000E+00
    0.41517E-02        -0.17023E-01         0.00000E+00
    0.40445E-02        -0.17384E-01         0.00000E+00
    0.39206E-02        -0.17747E-01         0.00000E+00
    0.37785E-02        -0.18112E-01         0.00000E+00
    0.36165E-02        -0.18478E-01         0.00000E+00
    0.34328E-02        -0.18842E-01         0.00000E+00
    0.32256E-02        -0.19204E-01         0.00000E+00
    0.29930E-02        -0.19561E-01         0.00000E+00
    0.27328E-02        -0.19908E-01         0.00000E+00
    0.24433E-02        -0.20242E-01         0.00000E+00
    0.21224E-02        -0.20556E-01         0.00000E+00
    0.17687E-02        -0.20843E-01         0.00000E+00
    0.13811E-02        -0.21091E-01         0.00000E+00
    0.95878E-03        -0.21289E-01         0.00000E+00
    0.50020E-03        -0.21419E-01         0.00000E+00
    0.00000E+00        -0.21464E-01         0.00000E+00
    0.00000E+00        -0.36637E-03         0.00000E+00
    0.15224E-03        -0.37857E-03         0.00000E+00
    0.29429E-03        -0.41308E-03         0.00000E+00
    0.42754E-03        -0.46543E-03         0.00000E+00
    0.55241E-03        -0.53135E-03         0.00000E+00
    0.66917E-03        -0.60753E-03         0.00000E+00
    0.77822E-03        -0.69152E-03         0.00000E+00
    0.88008E-03        -0.78145E-03         0.00000E+00
    0.97535E-03        -0.87592E-03         0.00000E+00
    0.10646E-02        -0.97391E-03         0.00000E+00
    0.11485E-02        -0.10746E-02         0.00000E+00
    0.12277E-02        -0.11776E-02         0.00000E+00
    0.13026E-02        -0.12825E-02         0.00000E+00
    0.13738E-02        -0.13891E-02         0.00000E+00
    0.14417E-02        -0.14972E-02         0.00000E+00
    0.15068E-02        -0.16069E-02         0.00000E+00
    0.15696E-02        -0.17181E-02         0.00000E+00
    0.16302E-02        -0.18310E-02         0.00000E+00
    0.16891E-02        -0.19455E-02         0.00000E+00
    0.17466E-02        -0.20617E-02         0.00000E+00
    0.18029E-02        -0.21798E-02         0.00000E+00
    0.18582E-02        -0.22999E-02         0.00000E+00
    0.19127E-02        -0.24220E-02         0.00000E+00
    0.19667E-02        -0.25463E-02         0.00000E+00
    0.20202E-02        -0.26729E-02         0.00000E+00
    0.20735E-02        -0.28018E-02         0.00000E+00
    0.21267E-02        -0.29332E-02         0.00000E+00
    0.21798E-02        -0.30671E-02         0.00000E+00
    0.22331E-02        -0.32037E-02         0.00000E+00
    0.22865E-02        -0.33431E-02         0.00000E+00
    0.23402E-02        -0.34852E-02         0.00000E+00
    0.23942E-02        -0.36303E-02         0.00000E+00
    0.24486E-02        -0.37784E-02         0.00000E+00
    0.25034E-02        -0.39296E-02         0.00000E+00
    0.25587E-02        -0.40840E-02         0.00000E+00
    0.26144E-02        -0.42416E-02         0.00000E+00
    0.26707E-02        -0.44026E-02         0.00000E+00
    0.27276E-02        -0.45671E-02         0.00000E+00
    0.27850E-02        -0.47350E-02         0.00000E+00
    0.28429E-02        -0.49066E-02         0.00000E+00
    0.29014E-02        -0.50818E-02         0.00000E+00
    0.29604E-02        -0.52608E-02         0.00000E+00
    0.30199E-02        -0.54436E-02         0.00000E+00
    0.30799E-02        -0.56303E-02         0.00000E+00
    0.31403E-02        -0.58210E-02         0.00000E+00
    0.32011E-02        -0.60158E-02         0.00000E+00
    0.32623E-02        -0.62147E-02         0.00000E+00
    0.33238E-02        -0.64178E-02         0.00000E+00
    0.33855E-02        -0.66251E-02         0.00000E+00
    0.34474E-02        -0.68367E-02         0.00000E+00
    0.35094E-02        -0.70527E-02         0.00000E+00
    0.35713E-02        -0.72731E-02         0.00000E+00
    0.36332E-02        -0.74980E-02         0.00000E+00
    0.36949E-02        -0.77274E-02         0.00000E+00
    0.37563E-02        -0.79614E-02         0.00000E+00
    0.38173E-02        -0.82000E-02         0.00000E+00
    0.38777E-02        -0.84432E-02         0.00000E+00
    0.39374E-02        -0.86911E-02         0.00000E+00
    0.39963E-02        -0.89437E-02         0.00000E+00
    0.40542E-02        -0.92010E-02         0.00000E+00
    0.41109E-02        -0.94630E-02         0.00000E+00
    0.41663E-02        -0.97297E-02         0.00000E+00
    0.42201E-02        -0.10001E-01         0.00000E+00
    0.42721E-02        -0.10277E-01         0.00000E+00
    0.43222E-02        -0.10558E-01         0.00000E+00
    0.43700E-02        -0.10844E-01         0.00000E+00
    0.44152E-02        -0.11134E-01         0.00000E+00
    0.44577E-02        -0.11429E-01         0.00000E+00
    0.44971E-02        -0.11729E-01         0.00000E+00
    0.45330E-02        -0.12033E-01         0.00000E+00
    0.45652E-02        -0.12341E-01         0.00000E+00
    0.45932E-02        -0.12655E-01         0.00000E+00
    0.46166E-02        -0.12972E-01         0.00000E+00
    0.46351E-02        -0.13294E-01         0.00000E+00
    0.46481E-02        -0.13620E-01         0.00000E+00
    0.46550E-02        -0.13950E-01         0.00000E+00
    0.46555E-02        -0.14284E-01         0.00000E+00
    0.46488E-02        -0.14623E-01         0.00000E+00
    0.46343E-02        -0.14965E-01         0.00000E+00
    0.46113E-02        -0.15311E-01         0.00000E+00
    0.45790E-02        -0.15661E-01         0.00000E+00
    0.45367E-02        -0.16015E-01         0.00000E+00
    0.44833E-02        -0.16372E-01         0.00000E+00
    0.44179E-02        -0.16733E-01         0.00000E+00
    0.43393E-02        -0.17097E-01         0.00000E+00
    0.42464E-02        -0.17464E-01         0.00000E+00
    0.41378E-02        -0.17833E-01         0.00000E+00
    0.40121E-02        -0.18205E-01         0.00000E+00
    0.38677E-02        -0.18578E-01         0.00000E+00
    0.37029E-02        -0.18952E-01         0.00000E+00
    0.35158E-02        -0.19325E-01         0.00000E+00
    0.33045E-02        -0.19695E-01         0.00000E+00
    0.30669E-02        -0.20059E-01         0.00000E+00
    0.28010E-02        -0.20414E-01         0.00000E+00
    0.25045E-02        -0.20755E-01         0.00000E+00
    0.21757E-02        -0.21077E-01         0.00000E+00
    0.18128E-02        -0.21371E-01         0.00000E+00
    0.14149E-02        -0.21626E-01         0.00000E+00
    0.98147E-03        -0.21830E-01         0.00000E+00
    0.51144E-03        -0.21965E-01         0.00000E+00
    0.00000E+00        -0.22013E-01         0.00000E+00
    0.00000E+00        -0.38147E-03         0.00000E+00
    0.15553E-03        -0.39423E-03         0.00000E+00
    0.30092E-03        -0.43010E-03         0.00000E+00
    0.43742E-03        -0.48412E-03         0.00000E+00
    0.56529E-03        -0.55182E-03         0.00000E+00
    0.68474E-03        -0.62986E-03         0.00000E+00
    0.79619E-03        -0.71579E-03         0.00000E+00
    0.90018E-03        -0.80773E-03         0.00000E+00
    0.99735E-03        -0.90430E-03         0.00000E+00
    0.10883E-02        -0.10045E-02         0.00000E+00
    0.11738E-02        -0.11075E-02         0.00000E+00
    0.12543E-02        -0.12128E-02         0.00000E+00
    0.13304E-02        -0.13201E-02         0.00000E+00
    0.14028E-02        -0.14291E-02         0.00000E+00
    0.14718E-02        -0.15398E-02         0.00000E+00
    0.15380E-02        -0.16521E-02         0.00000E+00
    0.16017E-02        -0.17660E-02         0.00000E+00
    0.16633E-02        -0.18815E-02         0.00000E+00
    0.17231E-02        -0.19989E-02         0.00000E+00
    0.17815E-02        -0.21180E-02         0.00000E+00
    0.18386E-02        -0.22391E-02         0.00000E+00
    0.18948E-02        -0.23621E-02         0.00000E+00
    0.19503E-02        -0.24873E-02         0.00000E+00
    0.20051E-02        -0.26148E-02         0.00000E+00
    0.20596E-02        -0.27446E-02         0.00000E+00
    0.21138E-02        -0.28768E-02         0.00000E+00
    0.21679E-02        -0.30115E-02         0.00000E+00
    0.22220E-02        -0.31489E-02         0.00000E+00
    0.22761E-02        -0.32890E-02         0.00000E+00
    0.23305E-02        -0.34319E-02         0.00000E+00
    0.23852E-02        -0.35777E-02         0.00000E+00
    0.24402E-02        -0.37265E-02         0.00000E+00
    0.24955E-02        -0.38784E-02         0.00000E+00
    0.25514E-02        -0.40335E-02         0.00000E+00
    0.26077E-02        -0.41919E-02         0.00000E+00
    0.26645E-02        -0.43536E-02         0.00000E+00
    0.27219E-02        -0.45188E-02         0.00000E+00
    0.27799E-02        -0.46874E-02         0.00000E+00
    0.28383E-02        -0.48597E-02         0.00000E+00
    0.28974E-02        -0.50357E-02         0.00000E+00
    0.29570E-02        -0.52155E-02         0.00000E+00
    0.30172E-02        -0.53991E-02         0.00000E+00
    0.30778E-02        -0.55866E-02         0.00000E+00
    0.31390E-02        -0.57781E-02         0.00000E+00
    0.32006E-02        -0.59738E-02         0.00000E+00
    0.32627E-02        -0.61735E-02         0.00000E+00
    0.33251E-02        -0.63775E-02         0.00000E+00
    0.33878E-02        -0.65858E-02         0.00000E+00
    0.34507E-02        -0.67985E-02         0.00000E+00
    0.35139E-02        -0.70155E-02         0.00000E+00
    0.35771E-02        -0.72371E-02         0.00000E+00
    0.36403E-02        -0.74631E-02         0.00000E+00
    0.37035E-02        -0.76938E-02         0.00000E+00
    0.37664E-02        -0.79290E-02         0.00000E+00
    0.38291E-02        -0.81690E-02         0.00000E+00
    0.38914E-02        -0.84137E-02         0.00000E+00
    0.39531E-02        -0.86631E-02         0.00000E+00
    0.40141E-02        -0.89173E-02         0.00000E+00
    0.40742E-02        -0.91763E-02         0.00000E+00
    0.41334E-02        -0.94401E-02         0.00000E+00
    0.41914E-02        -0.97087E-02         0.00000E+00
    0.42479E-02        -0.99822E-02         0.00000E+00
    0.43030E-02        -0.10261E-01         0.00000E+00
    0.43562E-02        -0.10544E-01         0.00000E+00
    0.44074E-02        -0.10832E-01         0.00000E+00
    0.44563E-02        -0.11125E-01         0.00000E+00
    0.45027E-02        -0.11422E-01         0.00000E+00
    0.45463E-02        -0.11724E-01         0.00000E+00
    0.45867E-02        -0.12031E-01         0.00000E+00
    0.46236E-02        -0.12343E-01         0.00000E+00
    0.46567E-02        -0.12659E-01         0.00000E+00
    0.46856E-02        -0.12980E-01         0.00000E+00
    0.47099E-02        -0.13306E-01         0.00000E+00
    0.47291E-02        -0.13635E-01         0.00000E+00
    0.47427E-02        -0.13969E-01         0.00000E+00
    0.47503E-02        -0.14308E-01         0.00000E+00
    0.47513E-02        -0.14650E-01         0.00000E+00
    0.47450E-02        -0.14997E-01         0.00000E+00
    0.47308E-02        -0.15347E-01         0.00000E+00
    0.47081E-02        -0.15702E-01         0.00000E+00
    0.46759E-02        -0.16060E-01         0.00000E+00
    0.46334E-02        -0.16422E-01         0.00000E+00
    0.45798E-02        -0.16788E-01         0.00000E+00
    0.45139E-02        -0.17157E-01         0.00000E+00
    0.44346E-02        -0.17529E-01         0.00000E+00
    0.43407E-02        -0.17905E-01         0.00000E+00
    0.42309E-02        -0.18283E-01         0.00000E+00
    0.41035E-02        -0.18663E-01         0.00000E+00
    0.39570E-02        -0.19044E-01         0.00000E+00
    0.37895E-02        -0.19426E-01         0.00000E+00
    0.35992E-02        -0.19807E-01         0.00000E+00
    0.33840E-02        -0.20185E-01         0.00000E+00
    0.31417E-02        -0.20557E-01         0.00000E+00
    0.28700E-02        -0.20919E-01         0.00000E+00
    0.25669E-02        -0.21268E-01         0.00000E+00
    0.22302E-02        -0.21597E-01         0.00000E+00
    0.18582E-02        -0.21897E-01         0.00000E+00
    0.14499E-02        -0.22160E-01         0.00000E+00
    0.10050E-02        -0.22370E-01         0.00000E+00
    0.52311E-03        -0.22510E-01         0.00000E+00
    0.00000E+00        -0.22560E-01         0.00000E+00
    0.00000E+00        -0.39673E-03         0.00000E+00
    0.15893E-03        -0.41011E-03         0.00000E+00
    0.30778E-03        -0.44740E-03         0.00000E+00
    0.44758E-03        -0.50311E-03         0.00000E+00
    0.57845E-03        -0.57258E-03         0.00000E+00
    0.70056E-03        -0.65246E-03         0.00000E+00
    0.81436E-03        -0.74030E-03         0.00000E+00
    0.92043E-03        -0.83424E-03         0.00000E+00
    0.10194E-02        -0.93289E-03         0.00000E+00
    0.11120E-02        -0.10352E-02         0.00000E+00
    0.11989E-02        -0.11404E-02         0.00000E+00
    0.12808E-02        -0.12481E-02         0.00000E+00
    0.13581E-02        -0.13577E-02         0.00000E+00
    0.14316E-02        -0.14692E-02         0.00000E+00
    0.15016E-02        -0.15825E-02         0.00000E+00
    0.15688E-02        -0.16974E-02         0.00000E+00
    0.16334E-02        -0.18139E-02         0.00000E+00
    0.16959E-02        -0.19323E-02         0.00000E+00
    0.17567E-02        -0.20524E-02         0.00000E+00
    0.18159E-02        -0.21744E-02         0.00000E+00
    0.18739E-02        -0.22984E-02         0.00000E+00
    0.19310E-02        -0.24245E-02         0.00000E+00
    0.19873E-02        -0.25528E-02         0.00000E+00
    0.20430E-02        -0.26833E-02         0.00000E+00
    0.20983E-02        -0.28163E-02         0.00000E+00
    0.21534E-02        -0.29518E-02         0.00000E+00
    0.22084E-02        -0.30899E-02         0.00000E+00
    0.22634E-02        -0.32307E-02         0.00000E+00
    0.23185E-02        -0.33743E-02         0.00000E+00
    0.23738E-02        -0.35208E-02         0.00000E+00
    0.24294E-02        -0.36703E-02         0.00000E+00
    0.24854E-02        -0.38229E-02         0.00000E+00
    0.25417E-02        -0.39786E-02         0.00000E+00
    0.25986E-02        -0.41376E-02         0.00000E+00
    0.26559E-02        -0.42999E-02         0.00000E+00
    0.27138E-02        -0.44657E-02         0.00000E+00
    0.27722E-02        -0.46350E-02         0.00000E+00
    0.28312E-02        -0.48079E-02         0.00000E+00
    0.28908E-02        -0.49846E-02         0.00000E+00
    0.29509E-02        -0.51650E-02         0.00000E+00
    0.30117E-02        -0.53492E-02         0.00000E+00
    0.30730E-02        -0.55375E-02         0.00000E+00
    0.31348E-02        -0.57297E-02         0.00000E+00
    0.31971E-02        -0.59261E-02         0.00000E+00
    0.32599E-02        -0.61266E-02         0.00000E+00
    0.33231E-02        -0.63314E-02         0.00000E+00
    0.33868E-02        -0.65405E-02         0.00000E+00
    0.34507E-02        -0.67540E-02         0.00000E+00
    0.35149E-02        -0.69720E-02         0.00000E+00
    0.35792E-02        -0.71945E-02         0.00000E+00
    0.36437E-02        -0.74215E-02         0.00000E+00
    0.37082E-02        -0.76532E-02         0.00000E+00
    0.37726E-02        -0.78896E-02         0.00000E+00
    0.38368E-02        -0.81308E-02         0.00000E+00
    0.39008E-02        -0.83767E-02         0.00000E+00
    0.39643E-02        -0.86275E-02         0.00000E+00
    0.40273E-02        -0.88831E-02         0.00000E+00
    0.40895E-02        -0.91436E-02         0.00000E+00
    0.41509E-02        -0.94090E-02         0.00000E+00
    0.42113E-02        -0.96793E-02         0.00000E+00
    0.42706E-02        -0.99546E-02         0.00000E+00
    0.43284E-02        -0.10235E-01         0.00000E+00
    0.43846E-02        -0.10520E-01         0.00000E+00
    0.44390E-02        -0.10810E-01         0.00000E+00
    0.44914E-02        -0.11105E-01         0.00000E+00
    0.45415E-02        -0.11405E-01         0.00000E+00
    0.45889E-02        -0.11710E-01         0.00000E+00
    0.46336E-02        -0.12020E-01         0.00000E+00
    0.46750E-02        -0.12334E-01         0.00000E+00
    0.47130E-02        -0.12654E-01         0.00000E+00
    0.47470E-02        -0.12978E-01         0.00000E+00
    0.47768E-02        -0.13306E-01         0.00000E+00
    0.48019E-02        -0.13639E-01         0.00000E+00
    0.48219E-02        -0.13977E-01         0.00000E+00
    0.48363E-02        -0.14319E-01         0.00000E+00
    0.48445E-02        -0.14665E-01         0.00000E+00
    0.48461E-02        -0.15016E-01         0.00000E+00
    0.48403E-02        -0.15371E-01         0.00000E+00
    0.48265E-02        -0.15730E-01         0.00000E+00
    0.48039E-02        -0.16092E-01         0.00000E+00
    0.47719E-02        -0.16459E-01         0.00000E+00
    0.47294E-02        -0.16829E-01         0.00000E+00
    0.46756E-02        -0.17203E-01         0.00000E+00
    0.46093E-02        -0.17581E-01         0.00000E+00
    0.45295E-02        -0.17962E-01         0.00000E+00
    0.44347E-02        -0.18345E-01         0.00000E+00
    0.43237E-02        -0.18732E-01         0.00000E+00
    0.41948E-02        -0.19120E-01         0.00000E+00
    0.40463E-02        -0.19510E-01         0.00000E+00
    0.38764E-02        -0.19900E-01         0.00000E+00
    0.36831E-02        -0.20288E-01         0.00000E+00
    0.34641E-02        -0.20674E-01         0.00000E+00
    0.32173E-02        -0.21054E-01         0.00000E+00
    0.29402E-02        -0.21424E-01         0.00000E+00
    0.26305E-02        -0.21780E-01         0.00000E+00
    0.22860E-02        -0.22116E-01         0.00000E+00
    0.19050E-02        -0.22423E-01         0.00000E+00
    0.14863E-02        -0.22693E-01         0.00000E+00
    0.10296E-02        -0.22909E-01         0.00000E+00
    0.53531E-03        -0.23055E-01         0.00000E+00
    0.00000E+00        -0.23107E-01         0.00000E+00
    0.00000E+00        -0.41216E-03         0.00000E+00
    0.16248E-03        -0.42621E-03         0.00000E+00
    0.31490E-03        -0.46499E-03         0.00000E+00
    0.45807E-03        -0.52240E-03         0.00000E+00
    0.59192E-03        -0.59362E-03         0.00000E+00
    0.71666E-03        -0.67533E-03         0.00000E+00
    0.83276E-03        -0.76506E-03         0.00000E+00
    0.94084E-03        -0.86097E-03         0.00000E+00
    0.10416E-02        -0.96167E-03         0.00000E+00
    0.11358E-02        -0.10661E-02         0.00000E+00
    0.12241E-02        -0.11736E-02         0.00000E+00
    0.13071E-02        -0.12835E-02         0.00000E+00
    0.13857E-02        -0.13956E-02         0.00000E+00
    0.14602E-02        -0.15095E-02         0.00000E+00
    0.15312E-02        -0.16253E-02         0.00000E+00
    0.15993E-02        -0.17428E-02         0.00000E+00
    0.16648E-02        -0.18620E-02         0.00000E+00
    0.17282E-02        -0.19831E-02         0.00000E+00
    0.17898E-02        -0.21060E-02         0.00000E+00
    0.18498E-02        -0.22309E-02         0.00000E+00
    0.19087E-02        -0.23578E-02         0.00000E+00
    0.19666E-02        -0.24869E-02         0.00000E+00
    0.20237E-02        -0.26183E-02         0.00000E+00
    0.20803E-02        -0.27520E-02         0.00000E+00
    0.21364E-02        -0.28882E-02         0.00000E+00
    0.21924E-02        -0.30270E-02         0.00000E+00
    0.22482E-02        -0.31684E-02         0.00000E+00
    0.23041E-02        -0.33127E-02         0.00000E+00
    0.23601E-02        -0.34598E-02         0.00000E+00
    0.24163E-02        -0.36098E-02         0.00000E+00
    0.24729E-02        -0.37630E-02         0.00000E+00
    0.25298E-02        -0.39193E-02         0.00000E+00
    0.25871E-02        -0.40788E-02         0.00000E+00
    0.26449E-02        -0.42417E-02         0.00000E+00
    0.27033E-02        -0.44081E-02         0.00000E+00
    0.27621E-02        -0.45779E-02         0.00000E+00
    0.28216E-02        -0.47514E-02         0.00000E+00
    0.28817E-02        -0.49285E-02         0.00000E+00
    0.29423E-02        -0.51095E-02         0.00000E+00
    0.30035E-02        -0.52943E-02         0.00000E+00
    0.30654E-02        -0.54831E-02         0.00000E+00
    0.31278E-02        -0.56760E-02         0.00000E+00
    0.31907E-02        -0.58729E-02         0.00000E+00
    0.32542E-02        -0.60741E-02         0.00000E+00
    0.33182E-02        -0.62796E-02         0.00000E+00
    0.33826E-02        -0.64894E-02         0.00000E+00
    0.34474E-02        -0.67036E-02         0.00000E+00
    0.35125E-02        -0.69223E-02         0.00000E+00
    0.35779E-02        -0.71456E-02         0.00000E+00
    0.36435E-02        -0.73735E-02         0.00000E+00
    0.37092E-02        -0.76061E-02         0.00000E+00
    0.37749E-02        -0.78435E-02         0.00000E+00
    0.38406E-02        -0.80856E-02         0.00000E+00
    0.39061E-02        -0.83327E-02         0.00000E+00
    0.39713E-02        -0.85846E-02         0.00000E+00
    0.40360E-02        -0.88414E-02         0.00000E+00
    0.41003E-02        -0.91032E-02         0.00000E+00
    0.41638E-02        -0.93700E-02         0.00000E+00
    0.42264E-02        -0.96418E-02         0.00000E+00
    0.42881E-02        -0.99187E-02         0.00000E+00
    0.43485E-02        -0.10201E-01         0.00000E+00
    0.44076E-02        -0.10488E-01         0.00000E+00
    0.44650E-02        -0.10780E-01         0.00000E+00
    0.45206E-02        -0.11077E-01         0.00000E+00
    0.45741E-02        -0.11379E-01         0.00000E+00
    0.46254E-02        -0.11686E-01         0.00000E+00
    0.46740E-02        -0.11998E-01         0.00000E+00
    0.47197E-02        -0.12315E-01         0.00000E+00
    0.47622E-02        -0.12637E-01         0.00000E+00
    0.48011E-02        -0.12964E-01         0.00000E+00
    0.48361E-02        -0.13296E-01         0.00000E+00
    0.48669E-02        -0.13632E-01         0.00000E+00
    0.48928E-02        -0.13973E-01         0.00000E+00
    0.49136E-02        -0.14319E-01         0.00000E+00
    0.49288E-02        -0.14669E-01         0.00000E+00
    0.49377E-02        -0.15023E-01         0.00000E+00
    0.49398E-02        -0.15382E-01         0.00000E+00
    0.49345E-02        -0.15745E-01         0.00000E+00
    0.49211E-02        -0.16112E-01         0.00000E+00
    0.48989E-02        -0.16483E-01         0.00000E+00
    0.48671E-02        -0.16858E-01         0.00000E+00
    0.48247E-02        -0.17237E-01         0.00000E+00
    0.47707E-02        -0.17619E-01         0.00000E+00
    0.47042E-02        -0.18005E-01         0.00000E+00
    0.46238E-02        -0.18394E-01         0.00000E+00
    0.45284E-02        -0.18786E-01         0.00000E+00
    0.44163E-02        -0.19180E-01         0.00000E+00
    0.42861E-02        -0.19577E-01         0.00000E+00
    0.41358E-02        -0.19975E-01         0.00000E+00
    0.39637E-02        -0.20373E-01         0.00000E+00
    0.37675E-02        -0.20769E-01         0.00000E+00
    0.35450E-02        -0.21163E-01         0.00000E+00
    0.32938E-02        -0.21550E-01         0.00000E+00
    0.30114E-02        -0.21928E-01         0.00000E+00
    0.26954E-02        -0.22291E-01         0.00000E+00
    0.23434E-02        -0.22634E-01         0.00000E+00
    0.19534E-02        -0.22948E-01         0.00000E+00
    0.15241E-02        -0.23224E-01         0.00000E+00
    0.10554E-02        -0.23448E-01         0.00000E+00
    0.54814E-03        -0.23599E-01         0.00000E+00
    0.00000E+00        -0.23654E-01         0.00000E+00
    0.00000E+00        -0.42774E-03         0.00000E+00
    0.16619E-03        -0.44255E-03         0.00000E+00
    0.32233E-03        -0.48289E-03         0.00000E+00
    0.46892E-03        -0.54199E-03         0.00000E+00
    0.60576E-03        -0.61495E-03         0.00000E+00
    0.73308E-03        -0.69845E-03         0.00000E+00
    0.85141E-03        -0.79005E-03         0.00000E+00
    0.96144E-03        -0.88792E-03         0.00000E+00
    0.10639E-02        -0.99065E-03         0.00000E+00
    0.11596E-02        -0.10972E-02         0.00000E+00
    0.12492E-02        -0.12069E-02         0.00000E+00
    0.13334E-02        -0.13191E-02         0.00000E+00
    0.14130E-02        -0.14335E-02         0.00000E+00
    0.14885E-02        -0.15499E-02         0.00000E+00
    0.15605E-02        -0.16682E-02         0.00000E+00
    0.16295E-02        -0.17883E-02         0.00000E+00
    0.16958E-02        -0.19102E-02         0.00000E+00
    0.17600E-02        -0.20340E-02         0.00000E+00
    0.18224E-02        -0.21597E-02         0.00000E+00
    0.18833E-02        -0.22874E-02         0.00000E+00
    0.19429E-02        -0.24173E-02         0.00000E+00
    0.20016E-02        -0.25494E-02         0.00000E+00
    0.20595E-02        -0.26839E-02         0.00000E+00
    0.21169E-02        -0.28207E-02         0.00000E+00
    0.21739E-02        -0.29602E-02         0.00000E+00
    0.22307E-02        -0.31022E-02         0.00000E+00
    0.22874E-02        -0.32470E-02         0.00000E+00
    0.23441E-02        -0.33947E-02         0.00000E+00
    0.24010E-02        -0.35453E-02         0.00000E+00
    0.24581E-02        -0.36990E-02         0.00000E+00
    0.25156E-02        -0.38558E-02         0.00000E+00
    0.25734E-02        -0.40158E-02         0.00000E+00
    0.26317E-02        -0.41792E-02         0.00000E+00
    0.26904E-02        -0.43460E-02         0.00000E+00
    0.27498E-02        -0.45163E-02         0.00000E+00
    0.28096E-02        -0.46902E-02         0.00000E+00
    0.28701E-02        -0.48678E-02         0.00000E+00
    0.29312E-02        -0.50493E-02         0.00000E+00
    0.29929E-02        -0.52346E-02         0.00000E+00
    0.30552E-02        -0.54238E-02         0.00000E+00
    0.31181E-02        -0.56171E-02         0.00000E+00
    0.31816E-02        -0.58146E-02         0.00000E+00
    0.32457E-02        -0.60163E-02         0.00000E+00
    0.33103E-02        -0.62223E-02         0.00000E+00
    0.33754E-02        -0.64326E-02         0.00000E+00
    0.34410E-02        -0.66474E-02         0.00000E+00
    0.35069E-02        -0.68668E-02         0.00000E+00
    0.35733E-02        -0.70907E-02         0.00000E+00
    0.36399E-02        -0.73194E-02         0.00000E+00
    0.37067E-02        -0.75527E-02         0.00000E+00
    0.37736E-02        -0.77909E-02         0.00000E+00
    0.38405E-02        -0.80339E-02         0.00000E+00
    0.39074E-02        -0.82818E-02         0.00000E+00
    0.39742E-02        -0.85346E-02         0.00000E+00
    0.40406E-02        -0.87925E-02         0.00000E+00
    0.41066E-02        -0.90554E-02         0.00000E+00
    0.41721E-02        -0.93234E-02         0.00000E+00
    0.42368E-02        -0.95965E-02         0.00000E+00
    0.43007E-02        -0.98748E-02         0.00000E+00
    0.43636E-02        -0.10158E-01         0.00000E+00
    0.44253E-02        -0.10447E-01         0.00000E+00
    0.44855E-02        -0.10740E-01         0.00000E+00
    0.45442E-02        -0.11039E-01         0.00000E+00
    0.46010E-02        -0.11343E-01         0.00000E+00
    0.46557E-02        -0.11653E-01         0.00000E+00
    0.47080E-02        -0.11967E-01         0.00000E+00
    0.47577E-02        -0.12286E-01         0.00000E+00
    0.48045E-02        -0.12611E-01         0.00000E+00
    0.48481E-02        -0.12940E-01         0.00000E+00
    0.48881E-02        -0.13275E-01         0.00000E+00
    0.49241E-02        -0.13614E-01         0.00000E+00
    0.49557E-02        -0.13958E-01         0.00000E+00
    0.49826E-02        -0.14307E-01         0.00000E+00
    0.50042E-02        -0.14660E-01         0.00000E+00
    0.50201E-02        -0.15018E-01         0.00000E+00
    0.50297E-02        -0.15381E-01         0.00000E+00
    0.50325E-02        -0.15748E-01         0.00000E+00
    0.50278E-02        -0.16119E-01         0.00000E+00
    0.50149E-02        -0.16494E-01         0.00000E+00
    0.49930E-02        -0.16873E-01         0.00000E+00
    0.49614E-02        -0.17257E-01         0.00000E+00
    0.49192E-02        -0.17644E-01         0.00000E+00
    0.48652E-02        -0.18034E-01         0.00000E+00
    0.47985E-02        -0.18429E-01         0.00000E+00
    0.47178E-02        -0.18826E-01         0.00000E+00
    0.46218E-02        -0.19226E-01         0.00000E+00
    0.45088E-02        -0.19629E-01         0.00000E+00
    0.43774E-02        -0.20034E-01         0.00000E+00
    0.42255E-02        -0.20440E-01         0.00000E+00
    0.40513E-02        -0.20846E-01         0.00000E+00
    0.38525E-02        -0.21250E-01         0.00000E+00
    0.36267E-02        -0.21651E-01         0.00000E+00
    0.33714E-02        -0.22046E-01         0.00000E+00
    0.30839E-02        -0.22431E-01         0.00000E+00
    0.27618E-02        -0.22801E-01         0.00000E+00
    0.24023E-02        -0.23151E-01         0.00000E+00
    0.20035E-02        -0.23472E-01         0.00000E+00
    0.15636E-02        -0.23755E-01         0.00000E+00
    0.10825E-02        -0.23985E-01         0.00000E+00
    0.56172E-03        -0.24142E-01         0.00000E+00
    0.00000E+00        -0.24200E-01         0.00000E+00
    0.00000E+00        -0.44350E-03         0.00000E+00
    0.17011E-03        -0.45915E-03         0.00000E+00
    0.33014E-03        -0.50110E-03         0.00000E+00
    0.48020E-03        -0.56189E-03         0.00000E+00
    0.62000E-03        -0.63655E-03         0.00000E+00
    0.74985E-03        -0.72182E-03         0.00000E+00
    0.87036E-03        -0.81527E-03         0.00000E+00
    0.98225E-03        -0.91506E-03         0.00000E+00
    0.10863E-02        -0.10198E-02         0.00000E+00
    0.11834E-02        -0.11285E-02         0.00000E+00
    0.12743E-02        -0.12403E-02         0.00000E+00
    0.13597E-02        -0.13548E-02         0.00000E+00
    0.14403E-02        -0.14716E-02         0.00000E+00
    0.15167E-02        -0.15904E-02         0.00000E+00
    0.15895E-02        -0.17112E-02         0.00000E+00
    0.16593E-02        -0.18339E-02         0.00000E+00
    0.17265E-02        -0.19585E-02         0.00000E+00
    0.17915E-02        -0.20850E-02         0.00000E+00
    0.18546E-02        -0.22135E-02         0.00000E+00
    0.19162E-02        -0.23441E-02         0.00000E+00
    0.19767E-02        -0.24769E-02         0.00000E+00
    0.20361E-02        -0.26120E-02         0.00000E+00
    0.20948E-02        -0.27496E-02         0.00000E+00
    0.21530E-02        -0.28896E-02         0.00000E+00
    0.22108E-02        -0.30322E-02         0.00000E+00
    0.22683E-02        -0.31776E-02         0.00000E+00
    0.23259E-02        -0.33257E-02         0.00000E+00
    0.23834E-02        -0.34768E-02         0.00000E+00
    0.24412E-02        -0.36309E-02         0.00000E+00
    0.24992E-02        -0.37882E-02         0.00000E+00
    0.25575E-02        -0.39486E-02         0.00000E+00
    0.26162E-02        -0.41124E-02         0.00000E+00
    0.26754E-02        -0.42796E-02         0.00000E+00
    0.27351E-02        -0.44503E-02         0.00000E+00
    0.27954E-02        -0.46246E-02         0.00000E+00
    0.28563E-02        -0.48026E-02         0.00000E+00
    0.29177E-02        -0.49844E-02         0.00000E+00
    0.29798E-02        -0.51701E-02         0.00000E+00
    0.30426E-02        -0.53597E-02         0.00000E+00
    0.31059E-02        -0.55534E-02         0.00000E+00
    0.31699E-02        -0.57513E-02         0.00000E+00
    0.32345E-02        -0.59533E-02         0.00000E+00
    0.32996E-02        -0.61597E-02         0.00000E+00
    0.33654E-02        -0.63705E-02         0.00000E+00
    0.34316E-02        -0.65858E-02         0.00000E+00
    0.34983E-02        -0.68056E-02         0.00000E+00
    0.35654E-02        -0.70301E-02         0.00000E+00
    0.36329E-02        -0.72593E-02         0.00000E+00
    0.37007E-02        -0.74932E-02         0.00000E+00
    0.37687E-02        -0.77320E-02         0.00000E+00
    0.38368E-02        -0.79757E-02         0.00000E+00
    0.39050E-02        -0.82243E-02         0.00000E+00
    0.39731E-02        -0.84780E-02         0.00000E+00
    0.40411E-02        -0.87367E-02         0.00000E+00
    0.41087E-02        -0.90006E-02         0.00000E+00
    0.41760E-02        -0.92696E-02         0.00000E+00
    0.42427E-02        -0.95438E-02         0.00000E+00
    0.43087E-02        -0.98232E-02         0.00000E+00
    0.43738E-02        -0.10108E-01         0.00000E+00
    0.44379E-02        -0.10398E-01         0.00000E+00
    0.45008E-02        -0.10693E-01         0.00000E+00
    0.45623E-02        -0.10993E-01         0.00000E+00
    0.46221E-02        -0.11299E-01         0.00000E+00
    0.46801E-02        -0.11610E-01         0.00000E+00
    0.47359E-02        -0.11926E-01         0.00000E+00
    0.47894E-02        -0.12248E-01         0.00000E+00
    0.48403E-02        -0.12575E-01         0.00000E+00
    0.48882E-02        -0.12906E-01         0.00000E+00
    0.49328E-02        -0.13243E-01         0.00000E+00
    0.49738E-02        -0.13585E-01         0.00000E+00
    0.50108E-02        -0.13932E-01         0.00000E+00
    0.50434E-02        -0.14284E-01         0.00000E+00
    0.50712E-02        -0.14641E-01         0.00000E+00
    0.50937E-02        -0.15002E-01         0.00000E+00
    0.51104E-02        -0.15368E-01         0.00000E+00
    0.51208E-02        -0.15739E-01         0.00000E+00
    0.51242E-02        -0.16114E-01         0.00000E+00
    0.51201E-02        -0.16493E-01         0.00000E+00
    0.51077E-02        -0.16876E-01         0.00000E+00
    0.50863E-02        -0.17264E-01         0.00000E+00
    0.50550E-02        -0.17655E-01         0.00000E+00
    0.50130E-02        -0.18051E-01         0.00000E+00
    0.49591E-02        -0.18450E-01         0.00000E+00
    0.48923E-02        -0.18852E-01         0.00000E+00
    0.48114E-02        -0.19258E-01         0.00000E+00
    0.47148E-02        -0.19666E-01         0.00000E+00
    0.46012E-02        -0.20077E-01         0.00000E+00
    0.44687E-02        -0.20490E-01         0.00000E+00
    0.43154E-02        -0.20904E-01         0.00000E+00
    0.41393E-02        -0.21318E-01         0.00000E+00
    0.39381E-02        -0.21730E-01         0.00000E+00
    0.37092E-02        -0.22139E-01         0.00000E+00
    0.34500E-02        -0.22541E-01         0.00000E+00
    0.31578E-02        -0.22933E-01         0.00000E+00
    0.28297E-02        -0.23311E-01         0.00000E+00
    0.24631E-02        -0.23668E-01         0.00000E+00
    0.20555E-02        -0.23995E-01         0.00000E+00
    0.16051E-02        -0.24284E-01         0.00000E+00
    0.11114E-02        -0.24521E-01         0.00000E+00
    0.57622E-03        -0.24685E-01         0.00000E+00
    0.00000E+00        -0.24746E-01         0.00000E+00
    0.00000E+00        -0.45942E-03         0.00000E+00
    0.17429E-03        -0.47603E-03         0.00000E+00
    0.33839E-03        -0.51966E-03         0.00000E+00
    0.49196E-03        -0.58208E-03         0.00000E+00
    0.63468E-03        -0.65842E-03         0.00000E+00
    0.76701E-03        -0.74543E-03         0.00000E+00
    0.88961E-03        -0.84069E-03         0.00000E+00
    0.10033E-02        -0.94238E-03         0.00000E+00
    0.11089E-02        -0.10491E-02         0.00000E+00
    0.12073E-02        -0.11599E-02         0.00000E+00
    0.12994E-02        -0.12739E-02         0.00000E+00
    0.13858E-02        -0.13907E-02         0.00000E+00
    0.14673E-02        -0.15098E-02         0.00000E+00
    0.15446E-02        -0.16311E-02         0.00000E+00
    0.16183E-02        -0.17543E-02         0.00000E+00
    0.16889E-02        -0.18796E-02         0.00000E+00
    0.17568E-02        -0.20068E-02         0.00000E+00
    0.18225E-02        -0.21360E-02         0.00000E+00
    0.18864E-02        -0.22674E-02         0.00000E+00
    0.19487E-02        -0.24009E-02         0.00000E+00
    0.20099E-02        -0.25366E-02         0.00000E+00
    0.20700E-02        -0.26747E-02         0.00000E+00
    0.21295E-02        -0.28153E-02         0.00000E+00
    0.21884E-02        -0.29585E-02         0.00000E+00
    0.22470E-02        -0.31043E-02         0.00000E+00
    0.23053E-02        -0.32530E-02         0.00000E+00
    0.23637E-02        -0.34045E-02         0.00000E+00
    0.24221E-02        -0.35590E-02         0.00000E+00
    0.24806E-02        -0.37167E-02         0.00000E+00
    0.25395E-02        -0.38775E-02         0.00000E+00
    0.25986E-02        -0.40416E-02         0.00000E+00
    0.26583E-02        -0.42091E-02         0.00000E+00
    0.27184E-02        -0.43801E-02         0.00000E+00
    0.27790E-02        -0.45548E-02         0.00000E+00
    0.28402E-02        -0.47330E-02         0.00000E+00
    0.29020E-02        -0.49151E-02         0.00000E+00
    0.29645E-02        -0.51011E-02         0.00000E+00
    0.30276E-02        -0.52910E-02         0.00000E+00
    0.30913E-02        -0.54850E-02         0.00000E+00
    0.31557E-02        -0.56831E-02         0.00000E+00
    0.32207E-02        -0.58855E-02         0.00000E+00
    0.32864E-02        -0.60922E-02         0.00000E+00
    0.33526E-02        -0.63033E-02         0.00000E+00
    0.34194E-02        -0.65189E-02         0.00000E+00
    0.34868E-02        -0.67391E-02         0.00000E+00
    0.35546E-02        -0.69640E-02         0.00000E+00
    0.36229E-02        -0.71935E-02         0.00000E+00
    0.36915E-02        -0.74279E-02         0.00000E+00
    0.37605E-02        -0.76672E-02         0.00000E+00
    0.38297E-02        -0.79114E-02         0.00000E+00
    0.38990E-02        -0.81607E-02         0.00000E+00
    0.39683E-02        -0.84150E-02         0.00000E+00
    0.40377E-02        -0.86744E-02         0.00000E+00
    0.41068E-02        -0.89390E-02         0.00000E+00
    0.41757E-02        -0.92088E-02         0.00000E+00
    0.42442E-02        -0.94839E-02         0.00000E+00
    0.43121E-02        -0.97643E-02         0.00000E+00
    0.43793E-02        -0.10050E-01         0.00000E+00
    0.44457E-02        -0.10341E-01         0.00000E+00
    0.45110E-02        -0.10637E-01         0.00000E+00
    0.45751E-02        -0.10939E-01         0.00000E+00
    0.46378E-02        -0.11247E-01         0.00000E+00
    0.46988E-02        -0.11559E-01         0.00000E+00
    0.47580E-02        -0.11877E-01         0.00000E+00
    0.48150E-02        -0.12200E-01         0.00000E+00
    0.48696E-02        -0.12529E-01         0.00000E+00
    0.49216E-02        -0.12863E-01         0.00000E+00
    0.49706E-02        -0.13202E-01         0.00000E+00
    0.50163E-02        -0.13547E-01         0.00000E+00
    0.50584E-02        -0.13896E-01         0.00000E+00
    0.50964E-02        -0.14251E-01         0.00000E+00
    0.51300E-02        -0.14610E-01         0.00000E+00
    0.51587E-02        -0.14975E-01         0.00000E+00
    0.51820E-02        -0.15344E-01         0.00000E+00
    0.51996E-02        -0.15718E-01         0.00000E+00
    0.52107E-02        -0.16096E-01         0.00000E+00
    0.52149E-02        -0.16479E-01         0.00000E+00
    0.52114E-02        -0.16867E-01         0.00000E+00
    0.51996E-02        -0.17259E-01         0.00000E+00
    0.51787E-02        -0.17654E-01         0.00000E+00
    0.51478E-02        -0.18054E-01         0.00000E+00
    0.51061E-02        -0.18458E-01         0.00000E+00
    0.50524E-02        -0.18865E-01         0.00000E+00
    0.49856E-02        -0.19276E-01         0.00000E+00
    0.49046E-02        -0.19690E-01         0.00000E+00
    0.48077E-02        -0.20107E-01         0.00000E+00
    0.46934E-02        -0.20526E-01         0.00000E+00
    0.45601E-02        -0.20947E-01         0.00000E+00
    0.44056E-02        -0.21369E-01         0.00000E+00
    0.42278E-02        -0.21790E-01         0.00000E+00
    0.40244E-02        -0.22210E-01         0.00000E+00
    0.37927E-02        -0.22626E-01         0.00000E+00
    0.35299E-02        -0.23036E-01         0.00000E+00
    0.32332E-02        -0.23435E-01         0.00000E+00
    0.28994E-02        -0.23820E-01         0.00000E+00
    0.25258E-02        -0.24183E-01         0.00000E+00
    0.21096E-02        -0.24518E-01         0.00000E+00
    0.16487E-02        -0.24813E-01         0.00000E+00
    0.11421E-02        -0.25056E-01         0.00000E+00
    0.59184E-03        -0.25226E-01         0.00000E+00
    0.00000E+00        -0.25291E-01         0.00000E+00
    0.00000E+00        -0.47552E-03         0.00000E+00
    0.17880E-03        -0.49325E-03         0.00000E+00
    0.34717E-03        -0.53856E-03         0.00000E+00
    0.50425E-03        -0.60257E-03         0.00000E+00
    0.64986E-03        -0.68054E-03         0.00000E+00
    0.78460E-03        -0.76926E-03         0.00000E+00
    0.90922E-03        -0.86631E-03         0.00000E+00
    0.10246E-02        -0.96988E-03         0.00000E+00
    0.11317E-02        -0.10786E-02         0.00000E+00
    0.12314E-02        -0.11914E-02         0.00000E+00
    0.13245E-02        -0.13076E-02         0.00000E+00
    0.14119E-02        -0.14266E-02         0.00000E+00
    0.14943E-02        -0.15481E-02         0.00000E+00
    0.15724E-02        -0.16718E-02         0.00000E+00
    0.16468E-02        -0.17975E-02         0.00000E+00
    0.17181E-02        -0.19254E-02         0.00000E+00
    0.17867E-02        -0.20552E-02         0.00000E+00
    0.18531E-02        -0.21872E-02         0.00000E+00
    0.19177E-02        -0.23213E-02         0.00000E+00
    0.19807E-02        -0.24577E-02         0.00000E+00
    0.20426E-02        -0.25964E-02         0.00000E+00
    0.21034E-02        -0.27375E-02         0.00000E+00
    0.21636E-02        -0.28812E-02         0.00000E+00
    0.22232E-02        -0.30275E-02         0.00000E+00
    0.22826E-02        -0.31765E-02         0.00000E+00
    0.23417E-02        -0.33285E-02         0.00000E+00
    0.24008E-02        -0.34834E-02         0.00000E+00
    0.24600E-02        -0.36413E-02         0.00000E+00
    0.25193E-02        -0.38025E-02         0.00000E+00
    0.25790E-02        -0.39669E-02         0.00000E+00
    0.26390E-02        -0.41347E-02         0.00000E+00
    0.26995E-02        -0.43059E-02         0.00000E+00
    0.27605E-02        -0.44808E-02         0.00000E+00
    0.28220E-02        -0.46593E-02         0.00000E+00
    0.28842E-02        -0.48416E-02         0.00000E+00
    0.29469E-02        -0.50277E-02         0.00000E+00
    0.30103E-02        -0.52178E-02         0.00000E+00
    0.30744E-02        -0.54120E-02         0.00000E+00
    0.31391E-02        -0.56103E-02         0.00000E+00
    0.32045E-02        -0.58129E-02         0.00000E+00
    0.32706E-02        -0.60198E-02         0.00000E+00
    0.33373E-02        -0.62311E-02         0.00000E+00
    0.34046E-02        -0.64470E-02         0.00000E+00
    0.34725E-02        -0.66674E-02         0.00000E+00
    0.35409E-02        -0.68925E-02         0.00000E+00
    0.36099E-02        -0.71224E-02         0.00000E+00
    0.36793E-02        -0.73571E-02         0.00000E+00
    0.37490E-02        -0.75967E-02         0.00000E+00
    0.38192E-02        -0.78413E-02         0.00000E+00
    0.38895E-02        -0.80910E-02         0.00000E+00
    0.39600E-02        -0.83457E-02         0.00000E+00
    0.40305E-02        -0.86057E-02         0.00000E+00
    0.41011E-02        -0.88708E-02         0.00000E+00
    0.41714E-02        -0.91413E-02         0.00000E+00
    0.42415E-02        -0.94171E-02         0.00000E+00
    0.43112E-02        -0.96983E-02         0.00000E+00
    0.43803E-02        -0.99848E-02         0.00000E+00
    0.44488E-02        -0.10277E-01         0.00000E+00
    0.45164E-02        -0.10574E-01         0.00000E+00
    0.45829E-02        -0.10877E-01         0.00000E+00
    0.46482E-02        -0.11186E-01         0.00000E+00
    0.47121E-02        -0.11500E-01         0.00000E+00
    0.47743E-02        -0.11819E-01         0.00000E+00
    0.48346E-02        -0.12144E-01         0.00000E+00
    0.48928E-02        -0.12474E-01         0.00000E+00
    0.49486E-02        -0.12810E-01         0.00000E+00
    0.50017E-02        -0.13151E-01         0.00000E+00
    0.50518E-02        -0.13498E-01         0.00000E+00
    0.50986E-02        -0.13850E-01         0.00000E+00
    0.51417E-02        -0.14207E-01         0.00000E+00
    0.51807E-02        -0.14569E-01         0.00000E+00
    0.52153E-02        -0.14936E-01         0.00000E+00
    0.52450E-02        -0.15309E-01         0.00000E+00
    0.52693E-02        -0.15686E-01         0.00000E+00
    0.52877E-02        -0.16068E-01         0.00000E+00
    0.52996E-02        -0.16454E-01         0.00000E+00
    0.53045E-02        -0.16845E-01         0.00000E+00
    0.53018E-02        -0.17241E-01         0.00000E+00
    0.52906E-02        -0.17641E-01         0.00000E+00
    0.52702E-02        -0.18045E-01         0.00000E+00
    0.52398E-02        -0.18453E-01         0.00000E+00
    0.51985E-02        -0.18865E-01         0.00000E+00
    0.51451E-02        -0.19281E-01         0.00000E+00
    0.50785E-02        -0.19700E-01         0.00000E+00
    0.49973E-02        -0.20122E-01         0.00000E+00
    0.49003E-02        -0.20547E-01         0.00000E+00
    0.47856E-02        -0.20974E-01         0.00000E+00
    0.46516E-02        -0.21403E-01         0.00000E+00
    0.44961E-02        -0.21833E-01         0.00000E+00
    0.43169E-02        -0.22262E-01         0.00000E+00
    0.41115E-02        -0.22690E-01         0.00000E+00
    0.38772E-02        -0.23114E-01         0.00000E+00
    0.36111E-02        -0.23530E-01         0.00000E+00
    0.33101E-02        -0.23937E-01         0.00000E+00
    0.29710E-02        -0.24328E-01         0.00000E+00
    0.25906E-02        -0.24698E-01         0.00000E+00
    0.21660E-02        -0.25039E-01         0.00000E+00
    0.16948E-02        -0.25340E-01         0.00000E+00
    0.11752E-02        -0.25589E-01         0.00000E+00
    0.60886E-03        -0.25766E-01         0.00000E+00
    0.00000E+00        -0.25836E-01         0.00000E+00
    0.00000E+00        -0.49179E-03         0.00000E+00
    0.18374E-03        -0.51086E-03         0.00000E+00
    0.35657E-03        -0.55782E-03         0.00000E+00
    0.51714E-03        -0.62335E-03         0.00000E+00
    0.66559E-03        -0.70292E-03         0.00000E+00
    0.80265E-03        -0.79330E-03         0.00000E+00
    0.92919E-03        -0.89211E-03         0.00000E+00
    0.10462E-02        -0.99754E-03         0.00000E+00
    0.11546E-02        -0.11082E-02         0.00000E+00
    0.12555E-02        -0.12231E-02         0.00000E+00
    0.13496E-02        -0.13414E-02         0.00000E+00
    0.14379E-02        -0.14627E-02         0.00000E+00
    0.15211E-02        -0.15865E-02         0.00000E+00
    0.16000E-02        -0.17125E-02         0.00000E+00
    0.16751E-02        -0.18408E-02         0.00000E+00
    0.17470E-02        -0.19712E-02         0.00000E+00
    0.18163E-02        -0.21037E-02         0.00000E+00
    0.18834E-02        -0.22384E-02         0.00000E+00
    0.19486E-02        -0.23753E-02         0.00000E+00
    0.20123E-02        -0.25146E-02         0.00000E+00
    0.20747E-02        -0.26562E-02         0.00000E+00
    0.21363E-02        -0.28003E-02         0.00000E+00
    0.21971E-02        -0.29471E-02         0.00000E+00
    0.22575E-02        -0.30965E-02         0.00000E+00
    0.23175E-02        -0.32488E-02         0.00000E+00
    0.23774E-02        -0.34040E-02         0.00000E+00
    0.24372E-02        -0.35623E-02         0.00000E+00
    0.24971E-02        -0.37237E-02         0.00000E+00
    0.25573E-02        -0.38883E-02         0.00000E+00
    0.26178E-02        -0.40563E-02         0.00000E+00
    0.26786E-02        -0.42278E-02         0.00000E+00
    0.27399E-02        -0.44028E-02         0.00000E+00
    0.28018E-02        -0.45815E-02         0.00000E+00
    0.28642E-02        -0.47639E-02         0.00000E+00
    0.29272E-02        -0.49502E-02         0.00000E+00
    0.29909E-02        -0.51404E-02         0.00000E+00
    0.30552E-02        -0.53347E-02         0.00000E+00
    0.31203E-02        -0.55331E-02         0.00000E+00
    0.31860E-02        -0.57358E-02         0.00000E+00
    0.32524E-02        -0.59428E-02         0.00000E+00
    0.33194E-02        -0.61542E-02         0.00000E+00
    0.33872E-02        -0.63702E-02         0.00000E+00
    0.34555E-02        -0.65907E-02         0.00000E+00
    0.35245E-02        -0.68160E-02         0.00000E+00
    0.35940E-02        -0.70460E-02         0.00000E+00
    0.36641E-02        -0.72809E-02         0.00000E+00
    0.37346E-02        -0.75207E-02         0.00000E+00
    0.38055E-02        -0.77656E-02         0.00000E+00
    0.38767E-02        -0.80155E-02         0.00000E+00
    0.39482E-02        -0.82706E-02         0.00000E+00
    0.40199E-02        -0.85309E-02         0.00000E+00
    0.40916E-02        -0.87965E-02         0.00000E+00
    0.41633E-02        -0.90674E-02         0.00000E+00
    0.42349E-02        -0.93438E-02         0.00000E+00
    0.43061E-02        -0.96255E-02         0.00000E+00
    0.43770E-02        -0.99128E-02         0.00000E+00
    0.44474E-02        -0.10206E-01         0.00000E+00
    0.45170E-02        -0.10504E-01         0.00000E+00
    0.45858E-02        -0.10808E-01         0.00000E+00
    0.46536E-02        -0.11117E-01         0.00000E+00
    0.47201E-02        -0.11432E-01         0.00000E+00
    0.47851E-02        -0.11753E-01         0.00000E+00
    0.48485E-02        -0.12079E-01         0.00000E+00
    0.49101E-02        -0.12411E-01         0.00000E+00
    0.49694E-02        -0.12749E-01         0.00000E+00
    0.50264E-02        -0.13092E-01         0.00000E+00
    0.50806E-02        -0.13440E-01         0.00000E+00
    0.51318E-02        -0.13794E-01         0.00000E+00
    0.51797E-02        -0.14153E-01         0.00000E+00
    0.52239E-02        -0.14518E-01         0.00000E+00
    0.52639E-02        -0.14888E-01         0.00000E+00
    0.52995E-02        -0.15263E-01         0.00000E+00
    0.53302E-02        -0.15643E-01         0.00000E+00
    0.53554E-02        -0.16028E-01         0.00000E+00
    0.53747E-02        -0.16418E-01         0.00000E+00
    0.53875E-02        -0.16812E-01         0.00000E+00
    0.53932E-02        -0.17212E-01         0.00000E+00
    0.53912E-02        -0.17615E-01         0.00000E+00
    0.53807E-02        -0.18023E-01         0.00000E+00
    0.53609E-02        -0.18436E-01         0.00000E+00
    0.53311E-02        -0.18852E-01         0.00000E+00
    0.52902E-02        -0.19272E-01         0.00000E+00
    0.52371E-02        -0.19696E-01         0.00000E+00
    0.51708E-02        -0.20123E-01         0.00000E+00
    0.50898E-02        -0.20554E-01         0.00000E+00
    0.49927E-02        -0.20987E-01         0.00000E+00
    0.48778E-02        -0.21422E-01         0.00000E+00
    0.47432E-02        -0.21859E-01         0.00000E+00
    0.45869E-02        -0.22297E-01         0.00000E+00
    0.44065E-02        -0.22734E-01         0.00000E+00
    0.41994E-02        -0.23169E-01         0.00000E+00
    0.39628E-02        -0.23600E-01         0.00000E+00
    0.36936E-02        -0.24025E-01         0.00000E+00
    0.33887E-02        -0.24438E-01         0.00000E+00
    0.30445E-02        -0.24836E-01         0.00000E+00
    0.26577E-02        -0.25212E-01         0.00000E+00
    0.22249E-02        -0.25559E-01         0.00000E+00
    0.17434E-02        -0.25867E-01         0.00000E+00
    0.12109E-02        -0.26122E-01         0.00000E+00
    0.62769E-03        -0.26305E-01         0.00000E+00
    0.00000E+00        -0.26380E-01         0.00000E+00
    0.00000E+00        -0.50825E-03         0.00000E+00
    0.18926E-03        -0.52893E-03         0.00000E+00
    0.36671E-03        -0.57743E-03         0.00000E+00
    0.53069E-03        -0.64440E-03         0.00000E+00
    0.68190E-03        -0.72554E-03         0.00000E+00
    0.82120E-03        -0.81755E-03         0.00000E+00
    0.94958E-03        -0.91809E-03         0.00000E+00
    0.10681E-02        -0.10253E-02         0.00000E+00
    0.11778E-02        -0.11380E-02         0.00000E+00
    0.12797E-02        -0.12549E-02         0.00000E+00
    0.13748E-02        -0.13753E-02         0.00000E+00
    0.14639E-02        -0.14988E-02         0.00000E+00
    0.15478E-02        -0.16249E-02         0.00000E+00
    0.16274E-02        -0.17534E-02         0.00000E+00
    0.17031E-02        -0.18842E-02         0.00000E+00
    0.17757E-02        -0.20171E-02         0.00000E+00
    0.18456E-02        -0.21523E-02         0.00000E+00
    0.19132E-02        -0.22897E-02         0.00000E+00
    0.19790E-02        -0.24294E-02         0.00000E+00
    0.20433E-02        -0.25715E-02         0.00000E+00
    0.21064E-02        -0.27161E-02         0.00000E+00
    0.21686E-02        -0.28632E-02         0.00000E+00
    0.22301E-02        -0.30130E-02         0.00000E+00
    0.22911E-02        -0.31656E-02         0.00000E+00
    0.23518E-02        -0.33212E-02         0.00000E+00
    0.24124E-02        -0.34797E-02         0.00000E+00
    0.24729E-02        -0.36413E-02         0.00000E+00
    0.25336E-02        -0.38061E-02         0.00000E+00
    0.25945E-02        -0.39743E-02         0.00000E+00
    0.26558E-02        -0.41459E-02         0.00000E+00
    0.27174E-02        -0.43210E-02         0.00000E+00
    0.27796E-02        -0.44998E-02         0.00000E+00
    0.28423E-02        -0.46823E-02         0.00000E+00
    0.29056E-02        -0.48686E-02         0.00000E+00
    0.29695E-02        -0.50589E-02         0.00000E+00
    0.30340E-02        -0.52532E-02         0.00000E+00
    0.30993E-02        -0.54516E-02         0.00000E+00
    0.31653E-02        -0.56543E-02         0.00000E+00
    0.32319E-02        -0.58613E-02         0.00000E+00
    0.32993E-02        -0.60728E-02         0.00000E+00
    0.33674E-02        -0.62887E-02         0.00000E+00
    0.34361E-02        -0.65093E-02         0.00000E+00
    0.35055E-02        -0.67346E-02         0.00000E+00
    0.35755E-02        -0.69647E-02         0.00000E+00
    0.36461E-02        -0.71996E-02         0.00000E+00
    0.37172E-02        -0.74395E-02         0.00000E+00
    0.37888E-02        -0.76845E-02         0.00000E+00
    0.38608E-02        -0.79345E-02         0.00000E+00
    0.39332E-02        -0.81898E-02         0.00000E+00
    0.40058E-02        -0.84503E-02         0.00000E+00
    0.40786E-02        -0.87162E-02         0.00000E+00
    0.41515E-02        -0.89874E-02         0.00000E+00
    0.42244E-02        -0.92641E-02         0.00000E+00
    0.42971E-02        -0.95463E-02         0.00000E+00
    0.43696E-02        -0.98341E-02         0.00000E+00
    0.44417E-02        -0.10127E-01         0.00000E+00
    0.45132E-02        -0.10426E-01         0.00000E+00
    0.45841E-02        -0.10731E-01         0.00000E+00
    0.46541E-02        -0.11041E-01         0.00000E+00
    0.47230E-02        -0.11357E-01         0.00000E+00
    0.47907E-02        -0.11679E-01         0.00000E+00
    0.48570E-02        -0.12006E-01         0.00000E+00
    0.49216E-02        -0.12340E-01         0.00000E+00
    0.49843E-02        -0.12678E-01         0.00000E+00
    0.50448E-02        -0.13023E-01         0.00000E+00
    0.51029E-02        -0.13373E-01         0.00000E+00
    0.51583E-02        -0.13729E-01         0.00000E+00
    0.52106E-02        -0.14090E-01         0.00000E+00
    0.52596E-02        -0.14457E-01         0.00000E+00
    0.53048E-02        -0.14829E-01         0.00000E+00
    0.53460E-02        -0.15206E-01         0.00000E+00
    0.53826E-02        -0.15589E-01         0.00000E+00
    0.54142E-02        -0.15977E-01         0.00000E+00
    0.54404E-02        -0.16370E-01         0.00000E+00
    0.54606E-02        -0.16768E-01         0.00000E+00
    0.54743E-02        -0.17170E-01         0.00000E+00
    0.54808E-02        -0.17578E-01         0.00000E+00
    0.54796E-02        -0.17990E-01         0.00000E+00
    0.54699E-02        -0.18406E-01         0.00000E+00
    0.54508E-02        -0.18826E-01         0.00000E+00
    0.54216E-02        -0.19251E-01         0.00000E+00
    0.53812E-02        -0.19679E-01         0.00000E+00
    0.53286E-02        -0.20111E-01         0.00000E+00
    0.52626E-02        -0.20547E-01         0.00000E+00
    0.51819E-02        -0.20985E-01         0.00000E+00
    0.50848E-02        -0.21427E-01         0.00000E+00
    0.49698E-02        -0.21870E-01         0.00000E+00
    0.48350E-02        -0.22315E-01         0.00000E+00
    0.46780E-02        -0.22761E-01         0.00000E+00
    0.44966E-02        -0.23206E-01         0.00000E+00
    0.42881E-02        -0.23649E-01         0.00000E+00
    0.40495E-02        -0.24087E-01         0.00000E+00
    0.37777E-02        -0.24518E-01         0.00000E+00
    0.34690E-02        -0.24938E-01         0.00000E+00
    0.31201E-02        -0.25343E-01         0.00000E+00
    0.27271E-02        -0.25726E-01         0.00000E+00
    0.22865E-02        -0.26079E-01         0.00000E+00
    0.17950E-02        -0.26392E-01         0.00000E+00
    0.12497E-02        -0.26652E-01         0.00000E+00
    0.64891E-03        -0.26842E-01         0.00000E+00
    0.00000E+00        -0.26923E-01         0.00000E+00
    0.00000E+00        -0.52493E-03         0.00000E+00
    0.19559E-03        -0.54757E-03         0.00000E+00
    0.37764E-03        -0.59734E-03         0.00000E+00
    0.54496E-03        -0.66574E-03         0.00000E+00
    0.69887E-03        -0.74837E-03         0.00000E+00
    0.84029E-03        -0.84197E-03         0.00000E+00
    0.97040E-03        -0.94422E-03         0.00000E+00
    0.10903E-02        -0.10533E-02         0.00000E+00
    0.12012E-02        -0.11678E-02         0.00000E+00
    0.13041E-02        -0.12867E-02         0.00000E+00
    0.14000E-02        -0.14093E-02         0.00000E+00
    0.14898E-02        -0.15350E-02         0.00000E+00
    0.15744E-02        -0.16634E-02         0.00000E+00
    0.16545E-02        -0.17943E-02         0.00000E+00
    0.17309E-02        -0.19276E-02         0.00000E+00
    0.18040E-02        -0.20631E-02         0.00000E+00
    0.18744E-02        -0.22009E-02         0.00000E+00
    0.19426E-02        -0.23411E-02         0.00000E+00
    0.20090E-02        -0.24836E-02         0.00000E+00
    0.20739E-02        -0.26285E-02         0.00000E+00
    0.21376E-02        -0.27760E-02         0.00000E+00
    0.22003E-02        -0.29262E-02         0.00000E+00
    0.22625E-02        -0.30791E-02         0.00000E+00
    0.23241E-02        -0.32348E-02         0.00000E+00
    0.23855E-02        -0.33936E-02         0.00000E+00
    0.24467E-02        -0.35554E-02         0.00000E+00
    0.25080E-02        -0.37203E-02         0.00000E+00
    0.25694E-02        -0.38886E-02         0.00000E+00
    0.26310E-02        -0.40603E-02         0.00000E+00
    0.26931E-02        -0.42355E-02         0.00000E+00
    0.27555E-02        -0.44143E-02         0.00000E+00
    0.28184E-02        -0.45968E-02         0.00000E+00
    0.28819E-02        -0.47831E-02         0.00000E+00
    0.29461E-02        -0.49734E-02         0.00000E+00
    0.30108E-02        -0.51676E-02         0.00000E+00
    0.30763E-02        -0.53660E-02         0.00000E+00
    0.31424E-02        -0.55686E-02         0.00000E+00
    0.32093E-02        -0.57756E-02         0.00000E+00
    0.32769E-02        -0.59869E-02         0.00000E+00
    0.33453E-02        -0.62028E-02         0.00000E+00
    0.34143E-02        -0.64233E-02         0.00000E+00
    0.34840E-02        -0.66485E-02         0.00000E+00
    0.35544E-02        -0.68785E-02         0.00000E+00
    0.36255E-02        -0.71134E-02         0.00000E+00
    0.36971E-02        -0.73533E-02         0.00000E+00
    0.37693E-02        -0.75982E-02         0.00000E+00
    0.38420E-02        -0.78483E-02         0.00000E+00
    0.39151E-02        -0.81036E-02         0.00000E+00
    0.39886E-02        -0.83642E-02         0.00000E+00
    0.40623E-02        -0.86302E-02         0.00000E+00
    0.41363E-02        -0.89016E-02         0.00000E+00
    0.42103E-02        -0.91785E-02         0.00000E+00
    0.42843E-02        -0.94609E-02         0.00000E+00
    0.43582E-02        -0.97490E-02         0.00000E+00
    0.44319E-02        -0.10043E-01         0.00000E+00
    0.45051E-02        -0.10342E-01         0.00000E+00
    0.45779E-02        -0.10647E-01         0.00000E+00
    0.46499E-02        -0.10958E-01         0.00000E+00
    0.47211E-02        -0.11275E-01         0.00000E+00
    0.47912E-02        -0.11597E-01         0.00000E+00
    0.48601E-02        -0.11926E-01         0.00000E+00
    0.49276E-02        -0.12260E-01         0.00000E+00
    0.49933E-02        -0.12600E-01         0.00000E+00
    0.50572E-02        -0.12946E-01         0.00000E+00
    0.51189E-02        -0.13297E-01         0.00000E+00
    0.51782E-02        -0.13654E-01         0.00000E+00
    0.52347E-02        -0.14017E-01         0.00000E+00
    0.52882E-02        -0.14386E-01         0.00000E+00
    0.53383E-02        -0.14760E-01         0.00000E+00
    0.53846E-02        -0.15140E-01         0.00000E+00
    0.54268E-02        -0.15525E-01         0.00000E+00
    0.54645E-02        -0.15915E-01         0.00000E+00
    0.54971E-02        -0.16311E-01         0.00000E+00
    0.55243E-02        -0.16712E-01         0.00000E+00
    0.55455E-02        -0.17118E-01         0.00000E+00
    0.55601E-02        -0.17528E-01         0.00000E+00
    0.55675E-02        -0.17944E-01         0.00000E+00
    0.55671E-02        -0.18364E-01         0.00000E+00
    0.55581E-02        -0.18788E-01         0.00000E+00
    0.55398E-02        -0.19217E-01         0.00000E+00
    0.55113E-02        -0.19650E-01         0.00000E+00
    0.54716E-02        -0.20086E-01         0.00000E+00
    0.54195E-02        -0.20527E-01         0.00000E+00
    0.53540E-02        -0.20970E-01         0.00000E+00
    0.52736E-02        -0.21417E-01         0.00000E+00
    0.51768E-02        -0.21867E-01         0.00000E+00
    0.50619E-02        -0.22318E-01         0.00000E+00
    0.49269E-02        -0.22771E-01         0.00000E+00
    0.47696E-02        -0.23225E-01         0.00000E+00
    0.45875E-02        -0.23677E-01         0.00000E+00
    0.43778E-02        -0.24128E-01         0.00000E+00
    0.41375E-02        -0.24573E-01         0.00000E+00
    0.38632E-02        -0.25012E-01         0.00000E+00
    0.35513E-02        -0.25439E-01         0.00000E+00
    0.31980E-02        -0.25850E-01         0.00000E+00
    0.27992E-02        -0.26238E-01         0.00000E+00
    0.23511E-02        -0.26597E-01         0.00000E+00
    0.18496E-02        -0.26917E-01         0.00000E+00
    0.12919E-02        -0.27182E-01         0.00000E+00
    0.67347E-03        -0.27377E-01         0.00000E+00
    0.00000E+00        -0.27466E-01         0.00000E+00
    0.00000E+00        -0.54191E-03         0.00000E+00
    0.20314E-03        -0.56690E-03         0.00000E+00
    0.38938E-03        -0.61747E-03         0.00000E+00
    0.56006E-03        -0.68740E-03         0.00000E+00
    0.71652E-03        -0.77139E-03         0.00000E+00
    0.85996E-03        -0.86658E-03         0.00000E+00
    0.99168E-03        -0.97047E-03         0.00000E+00
    0.11129E-02        -0.10813E-02         0.00000E+00
    0.12248E-02        -0.11977E-02         0.00000E+00
    0.13286E-02        -0.13187E-02         0.00000E+00
    0.14252E-02        -0.14434E-02         0.00000E+00
    0.15157E-02        -0.15713E-02         0.00000E+00
    0.16009E-02        -0.17020E-02         0.00000E+00
    0.16815E-02        -0.18353E-02         0.00000E+00
    0.17584E-02        -0.19711E-02         0.00000E+00
    0.18320E-02        -0.21092E-02         0.00000E+00
    0.19029E-02        -0.22496E-02         0.00000E+00
    0.19716E-02        -0.23925E-02         0.00000E+00
    0.20385E-02        -0.25378E-02         0.00000E+00
    0.21039E-02        -0.26856E-02         0.00000E+00
    0.21682E-02        -0.28360E-02         0.00000E+00
    0.22315E-02        -0.29892E-02         0.00000E+00
    0.22942E-02        -0.31452E-02         0.00000E+00
    0.23565E-02        -0.33041E-02         0.00000E+00
    0.24185E-02        -0.34660E-02         0.00000E+00
    0.24804E-02        -0.36311E-02         0.00000E+00
    0.25423E-02        -0.37995E-02         0.00000E+00
    0.26044E-02        -0.39712E-02         0.00000E+00
    0.26668E-02        -0.41464E-02         0.00000E+00
    0.27296E-02        -0.43252E-02         0.00000E+00
    0.27928E-02        -0.45076E-02         0.00000E+00
    0.28565E-02        -0.46939E-02         0.00000E+00
    0.29208E-02        -0.48840E-02         0.00000E+00
    0.29857E-02        -0.50782E-02         0.00000E+00
    0.30513E-02        -0.52765E-02         0.00000E+00
    0.31176E-02        -0.54789E-02         0.00000E+00
    0.31847E-02        -0.56857E-02         0.00000E+00
    0.32525E-02        -0.58969E-02         0.00000E+00
    0.33210E-02        -0.61127E-02         0.00000E+00
    0.33903E-02        -0.63330E-02         0.00000E+00
    0.34603E-02        -0.65580E-02         0.00000E+00
    0.35310E-02        -0.67878E-02         0.00000E+00
    0.36024E-02        -0.70226E-02         0.00000E+00
    0.36744E-02        -0.72623E-02         0.00000E+00
    0.37471E-02        -0.75071E-02         0.00000E+00
    0.38204E-02        -0.77571E-02         0.00000E+00
    0.38941E-02        -0.80123E-02         0.00000E+00
    0.39683E-02        -0.82728E-02         0.00000E+00
    0.40429E-02        -0.85387E-02         0.00000E+00
    0.41177E-02        -0.88101E-02         0.00000E+00
    0.41928E-02        -0.90870E-02         0.00000E+00
    0.42680E-02        -0.93696E-02         0.00000E+00
    0.43431E-02        -0.96578E-02         0.00000E+00
    0.44182E-02        -0.99517E-02         0.00000E+00
    0.44930E-02        -0.10251E-01         0.00000E+00
    0.45674E-02        -0.10557E-01         0.00000E+00
    0.46413E-02        -0.10868E-01         0.00000E+00
    0.47145E-02        -0.11186E-01         0.00000E+00
    0.47869E-02        -0.11509E-01         0.00000E+00
    0.48582E-02        -0.11838E-01         0.00000E+00
    0.49283E-02        -0.12173E-01         0.00000E+00
    0.49970E-02        -0.12514E-01         0.00000E+00
    0.50639E-02        -0.12860E-01         0.00000E+00
    0.51290E-02        -0.13213E-01         0.00000E+00
    0.51918E-02        -0.13572E-01         0.00000E+00
    0.52523E-02        -0.13936E-01         0.00000E+00
    0.53099E-02        -0.14306E-01         0.00000E+00
    0.53646E-02        -0.14682E-01         0.00000E+00
    0.54158E-02        -0.15064E-01         0.00000E+00
    0.54632E-02        -0.15451E-01         0.00000E+00
    0.55065E-02        -0.15844E-01         0.00000E+00
    0.55452E-02        -0.16242E-01         0.00000E+00
    0.55789E-02        -0.16645E-01         0.00000E+00
    0.56071E-02        -0.17054E-01         0.00000E+00
    0.56292E-02        -0.17468E-01         0.00000E+00
    0.56448E-02        -0.17887E-01         0.00000E+00
    0.56532E-02        -0.18310E-01         0.00000E+00
    0.56536E-02        -0.18738E-01         0.00000E+00
    0.56455E-02        -0.19171E-01         0.00000E+00
    0.56280E-02        -0.19608E-01         0.00000E+00
    0.56003E-02        -0.20049E-01         0.00000E+00
    0.55613E-02        -0.20494E-01         0.00000E+00
    0.55099E-02        -0.20942E-01         0.00000E+00
    0.54449E-02        -0.21394E-01         0.00000E+00
    0.53651E-02        -0.21849E-01         0.00000E+00
    0.52687E-02        -0.22307E-01         0.00000E+00
    0.51540E-02        -0.22766E-01         0.00000E+00
    0.50190E-02        -0.23227E-01         0.00000E+00
    0.48616E-02        -0.23688E-01         0.00000E+00
    0.46790E-02        -0.24149E-01         0.00000E+00
    0.44685E-02        -0.24607E-01         0.00000E+00
    0.42268E-02        -0.25059E-01         0.00000E+00
    0.39504E-02        -0.25505E-01         0.00000E+00
    0.36356E-02        -0.25938E-01         0.00000E+00
    0.32782E-02        -0.26356E-01         0.00000E+00
    0.28740E-02        -0.26751E-01         0.00000E+00
    0.24188E-02        -0.27115E-01         0.00000E+00
    0.19079E-02        -0.27440E-01         0.00000E+00
    0.13375E-02        -0.27711E-01         0.00000E+00
    0.70295E-03        -0.27909E-01         0.00000E+00
    0.00000E+00        -0.28007E-01         0.00000E+00
CELL_DATA       5000
VECTORS vDarcy double 
    0.64283E-08         0.37808E-13         0.00000E+00
    0.64331E-08         0.84869E-13         0.00000E+00
    0.64436E-08         0.99403E-13         0.00000E+00
    0.64600E-08         0.10585E-12         0.00000E+00
    0.64823E-08         0.10628E-12         0.00000E+00
    0.65108E-08         0.10338E-12         0.00000E+00
    0.65455E-08         0.98318E-13         0.00000E+00
    0.65863E-08         0.92047E-13         0.00000E+00
    0.66335E-08         0.85154E-13         0.00000E+00
    0.66870E-08         0.78060E-13         0.00000E+00
    0.67467E-08         0.71034E-13         0.00000E+00
    0.68128E-08         0.64245E-13         0.00000E+00
    0.68853E-08         0.57790E-13         0.00000E+00
    0.69640E-08         0.51714E-13         0.00000E+00
    0.70491E-08         0.46029E-13         0.00000E+00
    0.71404E-08         0.40727E-13         0.00000E+00
    0.72381E-08         0.35783E-13         0.00000E+00
    0.73421E-08         0.31168E-13         0.00000E+00
    0.74523E-08         0.26846E-13         0.00000E+00
    0.75689E-08         0.22785E-13         0.00000E+00
    0.76917E-08         0.18949E-13         0.00000E+00
    0.78207E-08         0.15306E-13         0.00000E+00
    0.79561E-08         0.11827E-13         0.00000E+00
    0.80976E-08         0.84852E-14         0.00000E+00
    0.82453E-08         0.52551E-14         0.00000E+00
    0.83993E-08         0.21152E-14         0.00000E+00
    0.85594E-08        -0.95429E-15         0.00000E+00
    0.87256E-08        -0.39710E-14         0.00000E+00
    0.88980E-08        -0.69507E-14         0.00000E+00
    0.90764E-08        -0.99071E-14         0.00000E+00
    0.92609E-08        -0.12853E-13         0.00000E+00
    0.94514E-08        -0.15799E-13         0.00000E+00
    0.96479E-08        -0.18754E-13         0.00000E+00
    0.98503E-08        -0.21728E-13         0.00000E+00
    0.10059E-07        -0.24727E-13         0.00000E+00
    0.10273E-07        -0.27758E-13         0.00000E+00
    0.10493E-07        -0.30825E-13         0.00000E+00
    0.10718E-07        -0.33934E-13         0.00000E+00
    0.10949E-07        -0.37088E-13         0.00000E+00
    0.11186E-07        -0.40288E-13         0.00000E+00
    0.11428E-07        -0.43537E-13         0.00000E+00
    0.11675E-07        -0.46834E-13         0.00000E+00
    0.11928E-07        -0.50180E-13         0.00000E+00
    0.12185E-07        -0.53573E-13         0.00000E+00
    0.12448E-07        -0.57010E-13         0.00000E+00
    0.12715E-07        -0.60489E-13         0.00000E+00
    0.12987E-07        -0.64005E-13         0.00000E+00
    0.13264E-07        -0.67552E-13         0.00000E+00
    0.13545E-07        -0.71123E-13         0.00000E+00
    0.13830E-07        -0.74713E-13         0.00000E+00
    0.14119E-07        -0.78310E-13         0.00000E+00
    0.14412E-07        -0.81907E-13         0.00000E+00
    0.14708E-07        -0.85490E-13         0.00000E+00
    0.15007E-07        -0.89049E-13         0.00000E+00
    0.15310E-07        -0.92569E-13         0.00000E+00
    0.15616E-07        -0.96035E-13         0.00000E+00
    0.15924E-07        -0.99430E-13         0.00000E+00
    0.16234E-07        -0.10274E-12         0.00000E+00
    0.16546E-07        -0.10594E-12         0.00000E+00
    0.16860E-07        -0.10901E-12         0.00000E+00
    0.17175E-07        -0.11192E-12         0.00000E+00
    0.17491E-07        -0.11467E-12         0.00000E+00
    0.17807E-07        -0.11721E-12         0.00000E+00
    0.18124E-07        -0.11952E-12         0.00000E+00
    0.18441E-07        -0.12157E-12         0.00000E+00
    0.18757E-07        -0.12333E-12         0.00000E+00
    0.19072E-07        -0.12477E-12         0.00000E+00
    0.19386E-07        -0.12585E-12         0.00000E+00
    0.19697E-07        -0.12653E-12         0.00000E+00
    0.20007E-07        -0.12678E-12         0.00000E+00
    0.20313E-07        -0.12654E-12         0.00000E+00
    0.20616E-07        -0.12579E-12         0.00000E+00
    0.20916E-07        -0.12446E-12         0.00000E+00
    0.21211E-07        -0.12251E-12         0.00000E+00
    0.21501E-07        -0.11988E-12         0.00000E+00
    0.21786E-07        -0.11652E-12         0.00000E+00
    0.22066E-07        -0.11236E-12         0.00000E+00
    0.22338E-07        -0.10735E-12         0.00000E+00
    0.22604E-07        -0.10140E-12         0.00000E+00
    0.22862E-07        -0.94444E-13         0.00000E+00
    0.23112E-07        -0.86405E-13         0.00000E+00
    0.23354E-07        -0.77199E-13         0.00000E+00
    0.23586E-07        -0.66743E-13         0.00000E+00
    0.23809E-07        -0.54953E-13         0.00000E+00
    0.24021E-07        -0.41750E-13         0.00000E+00
    0.24223E-07        -0.27067E-13         0.00000E+00
    0.24413E-07        -0.10857E-13         0.00000E+00
    0.24592E-07         0.68946E-14         0.00000E+00
    0.24758E-07         0.26149E-13         0.00000E+00
    0.24912E-07         0.46788E-13         0.00000E+00
    0.25052E-07         0.68584E-13         0.00000E+00
    0.25179E-07         0.91141E-13         0.00000E+00
    0.25293E-07         0.11386E-12         0.00000E+00
    0.25392E-07         0.13580E-12         0.00000E+00
    0.25477E-07         0.15572E-12         0.00000E+00
    0.25547E-07         0.17157E-12         0.00000E+00
    0.25603E-07         0.18105E-12         0.00000E+00
    0.25644E-07         0.17847E-12         0.00000E+00
    0.25672E-07         0.16029E-12         0.00000E+00
    0.25685E-07         0.73797E-13         0.00000E+00
    0.64283E-08         0.10732E-12         0.00000E+00
    0.64331E-08         0.24565E-12         0.00000E+00
    0.64436E-08         0.29247E-12         0.00000E+00
    0.64600E-08         0.31247E-12         0.00000E+00
    0.64823E-08         0.31459E-12         0.00000E+00
    0.65108E-08         0.30631E-12         0.00000E+00
    0.65455E-08         0.29146E-12         0.00000E+00
    0.65863E-08         0.27288E-12         0.00000E+00
    0.66335E-08         0.25241E-12         0.00000E+00
    0.66870E-08         0.23130E-12         0.00000E+00
    0.67467E-08         0.21040E-12         0.00000E+00
    0.68128E-08         0.19020E-12         0.00000E+00
    0.68853E-08         0.17101E-12         0.00000E+00
    0.69640E-08         0.15296E-12         0.00000E+00
    0.70491E-08         0.13608E-12         0.00000E+00
    0.71404E-08         0.12036E-12         0.00000E+00
    0.72381E-08         0.10571E-12         0.00000E+00
    0.73421E-08         0.92039E-13         0.00000E+00
    0.74523E-08         0.79251E-13         0.00000E+00
    0.75689E-08         0.67238E-13         0.00000E+00
    0.76917E-08         0.55898E-13         0.00000E+00
    0.78207E-08         0.45133E-13         0.00000E+00
    0.79561E-08         0.34855E-13         0.00000E+00
    0.80976E-08         0.24982E-13         0.00000E+00
    0.82453E-08         0.15441E-13         0.00000E+00
    0.83993E-08         0.61663E-14         0.00000E+00
    0.85594E-08        -0.29009E-14         0.00000E+00
    0.87256E-08        -0.11813E-13         0.00000E+00
    0.88980E-08        -0.20616E-13         0.00000E+00
    0.90764E-08        -0.29352E-13         0.00000E+00
    0.92609E-08        -0.38058E-13         0.00000E+00
    0.94514E-08        -0.46764E-13         0.00000E+00
    0.96479E-08        -0.55502E-13         0.00000E+00
    0.98503E-08        -0.64294E-13         0.00000E+00
    0.10059E-07        -0.73162E-13         0.00000E+00
    0.10273E-07        -0.82126E-13         0.00000E+00
    0.10493E-07        -0.91200E-13         0.00000E+00
    0.10718E-07        -0.10040E-12         0.00000E+00
    0.10949E-07        -0.10973E-12         0.00000E+00
    0.11186E-07        -0.11920E-12         0.00000E+00
    0.11428E-07        -0.12881E-12         0.00000E+00
    0.11675E-07        -0.13857E-12         0.00000E+00
    0.11928E-07        -0.14847E-12         0.00000E+00
    0.12185E-07        -0.15851E-12         0.00000E+00
    0.12448E-07        -0.16869E-12         0.00000E+00
    0.12715E-07        -0.17899E-12         0.00000E+00
    0.12987E-07        -0.18940E-12         0.00000E+00
    0.13264E-07        -0.19990E-12         0.00000E+00
    0.13545E-07        -0.21048E-12         0.00000E+00
    0.13830E-07        -0.22111E-12         0.00000E+00
    0.14119E-07        -0.23177E-12         0.00000E+00
    0.14412E-07        -0.24242E-12         0.00000E+00
    0.14708E-07        -0.25304E-12         0.00000E+00
    0.15007E-07        -0.26359E-12         0.00000E+00
    0.15310E-07        -0.27402E-12         0.00000E+00
    0.15616E-07        -0.28429E-12         0.00000E+00
    0.15924E-07        -0.29435E-12         0.00000E+00
    0.16234E-07        -0.30416E-12         0.00000E+00
    0.16546E-07        -0.31365E-12         0.00000E+00
    0.16860E-07        -0.32275E-12         0.00000E+00
    0.17175E-07        -0.33141E-12         0.00000E+00
    0.17491E-07        -0.33955E-12         0.00000E+00
    0.17807E-07        -0.34710E-12         0.00000E+00
    0.18124E-07        -0.35396E-12         0.00000E+00
    0.18441E-07        -0.36007E-12         0.00000E+00
    0.18757E-07        -0.36531E-12         0.00000E+00
    0.19072E-07        -0.36960E-12         0.00000E+00
    0.19386E-07        -0.37282E-12         0.00000E+00
    0.19697E-07        -0.37488E-12         0.00000E+00
    0.20007E-07        -0.37564E-12         0.00000E+00
    0.20313E-07        -0.37499E-12         0.00000E+00
    0.20616E-07        -0.37279E-12         0.00000E+00
    0.20916E-07        -0.36890E-12         0.00000E+00
    0.21211E-07        -0.36317E-12         0.00000E+00
    0.21501E-07        -0.35544E-12         0.00000E+00
    0.21786E-07        -0.34553E-12         0.00000E+00
    0.22066E-07        -0.33328E-12         0.00000E+00
    0.22338E-07        -0.31846E-12         0.00000E+00
    0.22604E-07        -0.30089E-12         0.00000E+00
    0.22862E-07        -0.28033E-12         0.00000E+00
    0.23112E-07        -0.25655E-12         0.00000E+00
    0.23354E-07        -0.22930E-12         0.00000E+00
    0.23586E-07        -0.19833E-12         0.00000E+00
    0.23809E-07        -0.16338E-12         0.00000E+00
    0.24021E-07        -0.12422E-12         0.00000E+00
    0.24223E-07        -0.80639E-13         0.00000E+00
    0.24413E-07        -0.32490E-13         0.00000E+00
    0.24592E-07         0.20270E-13         0.00000E+00
    0.24758E-07         0.77530E-13         0.00000E+00
    0.24912E-07         0.13894E-12         0.00000E+00
    0.25052E-07         0.20379E-12         0.00000E+00
    0.25179E-07         0.27091E-12         0.00000E+00
    0.25293E-07         0.33844E-12         0.00000E+00
    0.25392E-07         0.40357E-12         0.00000E+00
    0.25477E-07         0.46233E-12         0.00000E+00
    0.25547E-07         0.50873E-12         0.00000E+00
    0.25603E-07         0.53491E-12         0.00000E+00
    0.25644E-07         0.52537E-12         0.00000E+00
    0.25672E-07         0.46299E-12         0.00000E+00
    0.25685E-07         0.20857E-12         0.00000E+00
    0.64284E-08         0.16609E-12         0.00000E+00
    0.64332E-08         0.38965E-12         0.00000E+00
    0.64436E-08         0.47396E-12         0.00000E+00
    0.64600E-08         0.50903E-12         0.00000E+00
    0.64823E-08         0.51434E-12         0.00000E+00
    0.65108E-08         0.50152E-12         0.00000E+00
    0.65454E-08         0.47756E-12         0.00000E+00
    0.65863E-08         0.44715E-12         0.00000E+00
    0.66335E-08         0.41349E-12         0.00000E+00
    0.66870E-08         0.37875E-12         0.00000E+00
    0.67467E-08         0.34431E-12         0.00000E+00
    0.68128E-08         0.31106E-12         0.00000E+00
    0.68853E-08         0.27949E-12         0.00000E+00
    0.69640E-08         0.24982E-12         0.00000E+00
    0.70491E-08         0.22213E-12         0.00000E+00
    0.71404E-08         0.19634E-12         0.00000E+00
    0.72381E-08         0.17235E-12         0.00000E+00
    0.73421E-08         0.14998E-12         0.00000E+00
    0.74523E-08         0.12908E-12         0.00000E+00
    0.75689E-08         0.10946E-12         0.00000E+00
    0.76917E-08         0.90953E-13         0.00000E+00
    0.78207E-08         0.73392E-13         0.00000E+00
    0.79560E-08         0.56630E-13         0.00000E+00
    0.80976E-08         0.40533E-13         0.00000E+00
    0.82453E-08         0.24979E-13         0.00000E+00
    0.83992E-08         0.98597E-14         0.00000E+00
    0.85594E-08        -0.49226E-14         0.00000E+00
    0.87256E-08        -0.19454E-13         0.00000E+00
    0.88980E-08        -0.33810E-13         0.00000E+00
    0.90764E-08        -0.48059E-13         0.00000E+00
    0.92609E-08        -0.62261E-13         0.00000E+00
    0.94514E-08        -0.76469E-13         0.00000E+00
    0.96479E-08        -0.90729E-13         0.00000E+00
    0.98503E-08        -0.10508E-12         0.00000E+00
    0.10059E-07        -0.11956E-12         0.00000E+00
    0.10273E-07        -0.13420E-12         0.00000E+00
    0.10493E-07        -0.14902E-12         0.00000E+00
    0.10718E-07        -0.16405E-12         0.00000E+00
    0.10949E-07        -0.17929E-12         0.00000E+00
    0.11186E-07        -0.19477E-12         0.00000E+00
    0.11428E-07        -0.21048E-12         0.00000E+00
    0.11675E-07        -0.22644E-12         0.00000E+00
    0.11928E-07        -0.24263E-12         0.00000E+00
    0.12185E-07        -0.25905E-12         0.00000E+00
    0.12448E-07        -0.27569E-12         0.00000E+00
    0.12715E-07        -0.29254E-12         0.00000E+00
    0.12987E-07        -0.30957E-12         0.00000E+00
    0.13264E-07        -0.32675E-12         0.00000E+00
    0.13545E-07        -0.34406E-12         0.00000E+00
    0.13830E-07        -0.36146E-12         0.00000E+00
    0.14119E-07        -0.37890E-12         0.00000E+00
    0.14412E-07        -0.39634E-12         0.00000E+00
    0.14708E-07        -0.41373E-12         0.00000E+00
    0.15007E-07        -0.43100E-12         0.00000E+00
    0.15310E-07        -0.44808E-12         0.00000E+00
    0.15616E-07        -0.46491E-12         0.00000E+00
    0.15924E-07        -0.48140E-12         0.00000E+00
    0.16234E-07        -0.49747E-12         0.00000E+00
    0.16546E-07        -0.51303E-12         0.00000E+00
    0.16860E-07        -0.52796E-12         0.00000E+00
    0.17175E-07        -0.54217E-12         0.00000E+00
    0.17491E-07        -0.55553E-12         0.00000E+00
    0.17807E-07        -0.56792E-12         0.00000E+00
    0.18124E-07        -0.57921E-12         0.00000E+00
    0.18441E-07        -0.58925E-12         0.00000E+00
    0.18757E-07        -0.59790E-12         0.00000E+00
    0.19072E-07        -0.60498E-12         0.00000E+00
    0.19386E-07        -0.61033E-12         0.00000E+00
    0.19697E-07        -0.61377E-12         0.00000E+00
    0.20007E-07        -0.61511E-12         0.00000E+00
    0.20313E-07        -0.61413E-12         0.00000E+00
    0.20616E-07        -0.61063E-12         0.00000E+00
    0.20916E-07        -0.60437E-12         0.00000E+00
    0.21211E-07        -0.59510E-12         0.00000E+00
    0.21501E-07        -0.58256E-12         0.00000E+00
    0.21786E-07        -0.56647E-12         0.00000E+00
    0.22066E-07        -0.54653E-12         0.00000E+00
    0.22338E-07        -0.52240E-12         0.00000E+00
    0.22604E-07        -0.49374E-12         0.00000E+00
    0.22862E-07        -0.46019E-12         0.00000E+00
    0.23112E-07        -0.42134E-12         0.00000E+00
    0.23354E-07        -0.37678E-12         0.00000E+00
    0.23586E-07        -0.32609E-12         0.00000E+00
    0.23809E-07        -0.26884E-12         0.00000E+00
    0.24021E-07        -0.20463E-12         0.00000E+00
    0.24223E-07        -0.13309E-12         0.00000E+00
    0.24413E-07        -0.53986E-13         0.00000E+00
    0.24592E-07         0.32778E-13         0.00000E+00
    0.24758E-07         0.12702E-12         0.00000E+00
    0.24912E-07         0.22814E-12         0.00000E+00
    0.25052E-07         0.33498E-12         0.00000E+00
    0.25179E-07         0.44552E-12         0.00000E+00
    0.25293E-07         0.55659E-12         0.00000E+00
    0.25392E-07         0.66342E-12         0.00000E+00
    0.25477E-07         0.75908E-12         0.00000E+00
    0.25547E-07         0.83361E-12         0.00000E+00
    0.25603E-07         0.87249E-12         0.00000E+00
    0.25644E-07         0.85180E-12         0.00000E+00
    0.25672E-07         0.73227E-12         0.00000E+00
    0.25685E-07         0.32091E-12         0.00000E+00
    0.64285E-08         0.21663E-12         0.00000E+00
    0.64332E-08         0.51908E-12         0.00000E+00
    0.64436E-08         0.64384E-12         0.00000E+00
    0.64600E-08         0.69571E-12         0.00000E+00
    0.64823E-08         0.70540E-12         0.00000E+00
    0.65108E-08         0.68893E-12         0.00000E+00
    0.65454E-08         0.65647E-12         0.00000E+00
    0.65863E-08         0.61473E-12         0.00000E+00
    0.66335E-08         0.56832E-12         0.00000E+00
    0.66870E-08         0.52032E-12         0.00000E+00
    0.67467E-08         0.47273E-12         0.00000E+00
    0.68128E-08         0.42679E-12         0.00000E+00
    0.68852E-08         0.38320E-12         0.00000E+00
    0.69640E-08         0.34230E-12         0.00000E+00
    0.70490E-08         0.30415E-12         0.00000E+00
    0.71404E-08         0.26867E-12         0.00000E+00
    0.72381E-08         0.23570E-12         0.00000E+00
    0.73421E-08         0.20501E-12         0.00000E+00
    0.74523E-08         0.17635E-12         0.00000E+00
    0.75689E-08         0.14947E-12         0.00000E+00
    0.76917E-08         0.12412E-12         0.00000E+00
    0.78207E-08         0.10009E-12         0.00000E+00
    0.79560E-08         0.77160E-13         0.00000E+00
    0.80976E-08         0.55145E-13         0.00000E+00
    0.82453E-08         0.33874E-13         0.00000E+00
    0.83992E-08         0.13198E-13         0.00000E+00
    0.85593E-08        -0.70176E-14         0.00000E+00
    0.87256E-08        -0.26893E-13         0.00000E+00
    0.88980E-08        -0.46532E-13         0.00000E+00
    0.90764E-08        -0.66029E-13         0.00000E+00
    0.92609E-08        -0.85466E-13         0.00000E+00
    0.94514E-08        -0.10491E-12         0.00000E+00
    0.96479E-08        -0.12444E-12         0.00000E+00
    0.98503E-08        -0.14410E-12         0.00000E+00
    0.10059E-07        -0.16393E-12         0.00000E+00
    0.10273E-07        -0.18399E-12         0.00000E+00
    0.10493E-07        -0.20430E-12         0.00000E+00
    0.10718E-07        -0.22489E-12         0.00000E+00
    0.10949E-07        -0.24579E-12         0.00000E+00
    0.11186E-07        -0.26701E-12         0.00000E+00
    0.11428E-07        -0.28856E-12         0.00000E+00
    0.11675E-07        -0.31044E-12         0.00000E+00
    0.11928E-07        -0.33265E-12         0.00000E+00
    0.12185E-07        -0.35518E-12         0.00000E+00
    0.12448E-07        -0.37802E-12         0.00000E+00
    0.12715E-07        -0.40114E-12         0.00000E+00
    0.12987E-07        -0.42451E-12         0.00000E+00
    0.13264E-07        -0.44810E-12         0.00000E+00
    0.13545E-07        -0.47186E-12         0.00000E+00
    0.13830E-07        -0.49575E-12         0.00000E+00
    0.14119E-07        -0.51971E-12         0.00000E+00
    0.14412E-07        -0.54366E-12         0.00000E+00
    0.14708E-07        -0.56755E-12         0.00000E+00
    0.15007E-07        -0.59127E-12         0.00000E+00
    0.15310E-07        -0.61475E-12         0.00000E+00
    0.15616E-07        -0.63789E-12         0.00000E+00
    0.15924E-07        -0.66056E-12         0.00000E+00
    0.16234E-07        -0.68267E-12         0.00000E+00
    0.16546E-07        -0.70406E-12         0.00000E+00
    0.16860E-07        -0.72462E-12         0.00000E+00
    0.17175E-07        -0.74418E-12         0.00000E+00
    0.17491E-07        -0.76259E-12         0.00000E+00
    0.17807E-07        -0.77967E-12         0.00000E+00
    0.18124E-07        -0.79524E-12         0.00000E+00
    0.18441E-07        -0.80911E-12         0.00000E+00
    0.18757E-07        -0.82107E-12         0.00000E+00
    0.19072E-07        -0.83089E-12         0.00000E+00
    0.19386E-07        -0.83835E-12         0.00000E+00
    0.19697E-07        -0.84319E-12         0.00000E+00
    0.20007E-07        -0.84515E-12         0.00000E+00
    0.20313E-07        -0.84394E-12         0.00000E+00
    0.20616E-07        -0.83928E-12         0.00000E+00
    0.20916E-07        -0.83083E-12         0.00000E+00
    0.21211E-07        -0.81827E-12         0.00000E+00
    0.21501E-07        -0.80122E-12         0.00000E+00
    0.21786E-07        -0.77929E-12         0.00000E+00
    0.22066E-07        -0.75207E-12         0.00000E+00
    0.22338E-07        -0.71911E-12         0.00000E+00
    0.22604E-07        -0.67992E-12         0.00000E+00
    0.22862E-07        -0.63397E-12         0.00000E+00
    0.23112E-07        -0.58073E-12         0.00000E+00
    0.23354E-07        -0.51961E-12         0.00000E+00
    0.23586E-07        -0.45001E-12         0.00000E+00
    0.23809E-07        -0.37132E-12         0.00000E+00
    0.24021E-07        -0.28297E-12         0.00000E+00
    0.24223E-07        -0.18445E-12         0.00000E+00
    0.24413E-07        -0.75387E-13         0.00000E+00
    0.24592E-07         0.44339E-13         0.00000E+00
    0.24758E-07         0.17449E-12         0.00000E+00
    0.24912E-07         0.31423E-12         0.00000E+00
    0.25052E-07         0.46191E-12         0.00000E+00
    0.25179E-07         0.61467E-12         0.00000E+00
    0.25293E-07         0.76796E-12         0.00000E+00
    0.25392E-07         0.91495E-12         0.00000E+00
    0.25477E-07         0.10457E-11         0.00000E+00
    0.25547E-07         0.11458E-11         0.00000E+00
    0.25603E-07         0.11940E-11         0.00000E+00
    0.25644E-07         0.11574E-11         0.00000E+00
    0.25672E-07         0.97272E-12         0.00000E+00
    0.25685E-07         0.41629E-12         0.00000E+00
    0.64286E-08         0.26074E-12         0.00000E+00
    0.64332E-08         0.63589E-12         0.00000E+00
    0.64437E-08         0.80240E-12         0.00000E+00
    0.64600E-08         0.87266E-12         0.00000E+00
    0.64823E-08         0.88775E-12         0.00000E+00
    0.65108E-08         0.86844E-12         0.00000E+00
    0.65454E-08         0.82809E-12         0.00000E+00
    0.65863E-08         0.77552E-12         0.00000E+00
    0.66335E-08         0.71679E-12         0.00000E+00
    0.66869E-08         0.65593E-12         0.00000E+00
    0.67467E-08         0.59557E-12         0.00000E+00
    0.68128E-08         0.53733E-12         0.00000E+00
    0.68852E-08         0.48212E-12         0.00000E+00
    0.69640E-08         0.43036E-12         0.00000E+00
    0.70490E-08         0.38213E-12         0.00000E+00
    0.71404E-08         0.33735E-12         0.00000E+00
    0.72381E-08         0.29578E-12         0.00000E+00
    0.73421E-08         0.25712E-12         0.00000E+00
    0.74523E-08         0.22105E-12         0.00000E+00
    0.75689E-08         0.18725E-12         0.00000E+00
    0.76917E-08         0.15541E-12         0.00000E+00
    0.78207E-08         0.12523E-12         0.00000E+00
    0.79560E-08         0.96451E-13         0.00000E+00
    0.80976E-08         0.68822E-13         0.00000E+00
    0.82453E-08         0.42131E-13         0.00000E+00
    0.83992E-08         0.16186E-13         0.00000E+00
    0.85593E-08        -0.91832E-14         0.00000E+00
    0.87256E-08        -0.34128E-13         0.00000E+00
    0.88980E-08        -0.58782E-13         0.00000E+00
    0.90764E-08        -0.83262E-13         0.00000E+00
    0.92609E-08        -0.10767E-12         0.00000E+00
    0.94514E-08        -0.13210E-12         0.00000E+00
    0.96479E-08        -0.15663E-12         0.00000E+00
    0.98503E-08        -0.18134E-12         0.00000E+00
    0.10059E-07        -0.20627E-12         0.00000E+00
    0.10273E-07        -0.23149E-12         0.00000E+00
    0.10493E-07        -0.25703E-12         0.00000E+00
    0.10718E-07        -0.28294E-12         0.00000E+00
    0.10949E-07        -0.30923E-12         0.00000E+00
    0.11186E-07        -0.33593E-12         0.00000E+00
    0.11428E-07        -0.36304E-12         0.00000E+00
    0.11675E-07        -0.39058E-12         0.00000E+00
    0.11928E-07        -0.41854E-12         0.00000E+00
    0.12185E-07        -0.44691E-12         0.00000E+00
    0.12448E-07        -0.47567E-12         0.00000E+00
    0.12715E-07        -0.50478E-12         0.00000E+00
    0.12987E-07        -0.53422E-12         0.00000E+00
    0.13264E-07        -0.56394E-12         0.00000E+00
    0.13545E-07        -0.59389E-12         0.00000E+00
    0.13830E-07        -0.62399E-12         0.00000E+00
    0.14119E-07        -0.65418E-12         0.00000E+00
    0.14412E-07        -0.68438E-12         0.00000E+00
    0.14708E-07        -0.71450E-12         0.00000E+00
    0.15007E-07        -0.74442E-12         0.00000E+00
    0.15310E-07        -0.77403E-12         0.00000E+00
    0.15616E-07        -0.80322E-12         0.00000E+00
    0.15924E-07        -0.83183E-12         0.00000E+00
    0.16234E-07        -0.85973E-12         0.00000E+00
    0.16546E-07        -0.88675E-12         0.00000E+00
    0.16860E-07        -0.91271E-12         0.00000E+00
    0.17175E-07        -0.93743E-12         0.00000E+00
    0.17491E-07        -0.96070E-12         0.00000E+00
    0.17807E-07        -0.98232E-12         0.00000E+00
    0.18124E-07        -0.10020E-11         0.00000E+00
    0.18441E-07        -0.10196E-11         0.00000E+00
    0.18757E-07        -0.10348E-11         0.00000E+00
    0.19072E-07        -0.10473E-11         0.00000E+00
    0.19386E-07        -0.10568E-11         0.00000E+00
    0.19697E-07        -0.10631E-11         0.00000E+00
    0.20007E-07        -0.10657E-11         0.00000E+00
    0.20313E-07        -0.10644E-11         0.00000E+00
    0.20616E-07        -0.10587E-11         0.00000E+00
    0.20916E-07        -0.10482E-11         0.00000E+00
    0.21211E-07        -0.10326E-11         0.00000E+00
    0.21501E-07        -0.10113E-11         0.00000E+00
    0.21786E-07        -0.98393E-12         0.00000E+00
    0.22066E-07        -0.94986E-12         0.00000E+00
    0.22338E-07        -0.90853E-12         0.00000E+00
    0.22604E-07        -0.85935E-12         0.00000E+00
    0.22862E-07        -0.80163E-12         0.00000E+00
    0.23112E-07        -0.73468E-12         0.00000E+00
    0.23354E-07        -0.65774E-12         0.00000E+00
    0.23586E-07        -0.57004E-12         0.00000E+00
    0.23809E-07        -0.47079E-12         0.00000E+00
    0.24021E-07        -0.35923E-12         0.00000E+00
    0.24223E-07        -0.23471E-12         0.00000E+00
    0.24413E-07        -0.96735E-13         0.00000E+00
    0.24592E-07         0.54878E-13         0.00000E+00
    0.24758E-07         0.21982E-12         0.00000E+00
    0.24912E-07         0.39704E-12         0.00000E+00
    0.25052E-07         0.58437E-12         0.00000E+00
    0.25179E-07         0.77808E-12         0.00000E+00
    0.25293E-07         0.97223E-12         0.00000E+00
    0.25392E-07         0.11578E-11         0.00000E+00
    0.25477E-07         0.13217E-11         0.00000E+00
    0.25547E-07         0.14450E-11         0.00000E+00
    0.25603E-07         0.14996E-11         0.00000E+00
    0.25644E-07         0.14426E-11         0.00000E+00
    0.25671E-07         0.11885E-11         0.00000E+00
    0.25684E-07         0.49864E-12         0.00000E+00
    0.64287E-08         0.29971E-12         0.00000E+00
    0.64333E-08         0.74175E-12         0.00000E+00
    0.64437E-08         0.95010E-12         0.00000E+00
    0.64600E-08         0.10400E-11         0.00000E+00
    0.64823E-08         0.10614E-11         0.00000E+00
    0.65108E-08         0.10400E-11         0.00000E+00
    0.65454E-08         0.99232E-12         0.00000E+00
    0.65863E-08         0.92942E-12         0.00000E+00
    0.66335E-08         0.85881E-12         0.00000E+00
    0.66869E-08         0.78551E-12         0.00000E+00
    0.67467E-08         0.71279E-12         0.00000E+00
    0.68128E-08         0.64265E-12         0.00000E+00
    0.68852E-08         0.57621E-12         0.00000E+00
    0.69640E-08         0.51398E-12         0.00000E+00
    0.70490E-08         0.45608E-12         0.00000E+00
    0.71404E-08         0.40237E-12         0.00000E+00
    0.72381E-08         0.35257E-12         0.00000E+00
    0.73421E-08         0.30632E-12         0.00000E+00
    0.74523E-08         0.26321E-12         0.00000E+00
    0.75689E-08         0.22284E-12         0.00000E+00
    0.76917E-08         0.18483E-12         0.00000E+00
    0.78207E-08         0.14883E-12         0.00000E+00
    0.79560E-08         0.11451E-12         0.00000E+00
    0.80976E-08         0.81572E-13         0.00000E+00
    0.82453E-08         0.49755E-13         0.00000E+00
    0.83992E-08         0.18828E-13         0.00000E+00
    0.85593E-08        -0.11416E-13         0.00000E+00
    0.87256E-08        -0.41158E-13         0.00000E+00
    0.88979E-08        -0.70558E-13         0.00000E+00
    0.90764E-08        -0.99757E-13         0.00000E+00
    0.92609E-08        -0.12888E-12         0.00000E+00
    0.94514E-08        -0.15803E-12         0.00000E+00
    0.96479E-08        -0.18732E-12         0.00000E+00
    0.98503E-08        -0.21681E-12         0.00000E+00
    0.10059E-07        -0.24659E-12         0.00000E+00
    0.10273E-07        -0.27671E-12         0.00000E+00
    0.10493E-07        -0.30722E-12         0.00000E+00
    0.10718E-07        -0.33818E-12         0.00000E+00
    0.10949E-07        -0.36960E-12         0.00000E+00
    0.11186E-07        -0.40152E-12         0.00000E+00
    0.11428E-07        -0.43394E-12         0.00000E+00
    0.11675E-07        -0.46687E-12         0.00000E+00
    0.11928E-07        -0.50031E-12         0.00000E+00
    0.12185E-07        -0.53424E-12         0.00000E+00
    0.12448E-07        -0.56865E-12         0.00000E+00
    0.12715E-07        -0.60349E-12         0.00000E+00
    0.12987E-07        -0.63872E-12         0.00000E+00
    0.13264E-07        -0.67429E-12         0.00000E+00
    0.13545E-07        -0.71013E-12         0.00000E+00
    0.13830E-07        -0.74617E-12         0.00000E+00
    0.14119E-07        -0.78233E-12         0.00000E+00
    0.14412E-07        -0.81850E-12         0.00000E+00
    0.14708E-07        -0.85457E-12         0.00000E+00
    0.15007E-07        -0.89042E-12         0.00000E+00
    0.15310E-07        -0.92591E-12         0.00000E+00
    0.15616E-07        -0.96089E-12         0.00000E+00
    0.15924E-07        -0.99520E-12         0.00000E+00
    0.16234E-07        -0.10287E-11         0.00000E+00
    0.16546E-07        -0.10611E-11         0.00000E+00
    0.16860E-07        -0.10922E-11         0.00000E+00
    0.17175E-07        -0.11219E-11         0.00000E+00
    0.17491E-07        -0.11499E-11         0.00000E+00
    0.17807E-07        -0.11758E-11         0.00000E+00
    0.18124E-07        -0.11996E-11         0.00000E+00
    0.18441E-07        -0.12207E-11         0.00000E+00
    0.18757E-07        -0.12391E-11         0.00000E+00
    0.19072E-07        -0.12542E-11         0.00000E+00
    0.19386E-07        -0.12658E-11         0.00000E+00
    0.19697E-07        -0.12734E-11         0.00000E+00
    0.20007E-07        -0.12768E-11         0.00000E+00
    0.20313E-07        -0.12754E-11         0.00000E+00
    0.20616E-07        -0.12688E-11         0.00000E+00
    0.20916E-07        -0.12565E-11         0.00000E+00
    0.21211E-07        -0.12381E-11         0.00000E+00
    0.21501E-07        -0.12129E-11         0.00000E+00
    0.21786E-07        -0.11804E-11         0.00000E+00
    0.22066E-07        -0.11398E-11         0.00000E+00
    0.22338E-07        -0.10906E-11         0.00000E+00
    0.22604E-07        -0.10320E-11         0.00000E+00
    0.22862E-07        -0.96310E-12         0.00000E+00
    0.23112E-07        -0.88312E-12         0.00000E+00
    0.23354E-07        -0.79112E-12         0.00000E+00
    0.23586E-07        -0.68614E-12         0.00000E+00
    0.23809E-07        -0.56721E-12         0.00000E+00
    0.24021E-07        -0.43341E-12         0.00000E+00
    0.24223E-07        -0.28390E-12         0.00000E+00
    0.24413E-07        -0.11807E-12         0.00000E+00
    0.24592E-07         0.64321E-13         0.00000E+00
    0.24758E-07         0.26291E-12         0.00000E+00
    0.24912E-07         0.47640E-12         0.00000E+00
    0.25052E-07         0.70214E-12         0.00000E+00
    0.25179E-07         0.93550E-12         0.00000E+00
    0.25293E-07         0.11691E-11         0.00000E+00
    0.25392E-07         0.13917E-11         0.00000E+00
    0.25477E-07         0.15870E-11         0.00000E+00
    0.25547E-07         0.17311E-11         0.00000E+00
    0.25603E-07         0.17894E-11         0.00000E+00
    0.25644E-07         0.17081E-11         0.00000E+00
    0.25671E-07         0.13830E-11         0.00000E+00
    0.25684E-07         0.57078E-12         0.00000E+00
    0.64288E-08         0.33450E-12         0.00000E+00
    0.64333E-08         0.83807E-12         0.00000E+00
    0.64437E-08         0.10875E-11         0.00000E+00
    0.64600E-08         0.11979E-11         0.00000E+00
    0.64823E-08         0.12263E-11         0.00000E+00
    0.65108E-08         0.12035E-11         0.00000E+00
    0.65454E-08         0.11491E-11         0.00000E+00
    0.65863E-08         0.10763E-11         0.00000E+00
    0.66335E-08         0.99429E-12         0.00000E+00
    0.66869E-08         0.90899E-12         0.00000E+00
    0.67467E-08         0.82433E-12         0.00000E+00
    0.68128E-08         0.74271E-12         0.00000E+00
    0.68852E-08         0.66545E-12         0.00000E+00
    0.69640E-08         0.59316E-12         0.00000E+00
    0.70490E-08         0.52598E-12         0.00000E+00
    0.71404E-08         0.46374E-12         0.00000E+00
    0.72381E-08         0.40610E-12         0.00000E+00
    0.73420E-08         0.35261E-12         0.00000E+00
    0.74523E-08         0.30282E-12         0.00000E+00
    0.75688E-08         0.25623E-12         0.00000E+00
    0.76917E-08         0.21240E-12         0.00000E+00
    0.78207E-08         0.17090E-12         0.00000E+00
    0.79560E-08         0.13135E-12         0.00000E+00
    0.80976E-08         0.93403E-13         0.00000E+00
    0.82453E-08         0.56754E-13         0.00000E+00
    0.83992E-08         0.21129E-13         0.00000E+00
    0.85593E-08        -0.13711E-13         0.00000E+00
    0.87256E-08        -0.47978E-13         0.00000E+00
    0.88979E-08        -0.81858E-13         0.00000E+00
    0.90764E-08        -0.11551E-12         0.00000E+00
    0.92609E-08        -0.14909E-12         0.00000E+00
    0.94514E-08        -0.18271E-12         0.00000E+00
    0.96479E-08        -0.21649E-12         0.00000E+00
    0.98503E-08        -0.25051E-12         0.00000E+00
    0.10059E-07        -0.28488E-12         0.00000E+00
    0.10273E-07        -0.31965E-12         0.00000E+00
    0.10493E-07        -0.35488E-12         0.00000E+00
    0.10718E-07        -0.39062E-12         0.00000E+00
    0.10949E-07        -0.42692E-12         0.00000E+00
    0.11186E-07        -0.46379E-12         0.00000E+00
    0.11428E-07        -0.50125E-12         0.00000E+00
    0.11675E-07        -0.53930E-12         0.00000E+00
    0.11928E-07        -0.57795E-12         0.00000E+00
    0.12185E-07        -0.61718E-12         0.00000E+00
    0.12448E-07        -0.65696E-12         0.00000E+00
    0.12715E-07        -0.69724E-12         0.00000E+00
    0.12987E-07        -0.73799E-12         0.00000E+00
    0.13264E-07        -0.77913E-12         0.00000E+00
    0.13545E-07        -0.82060E-12         0.00000E+00
    0.13830E-07        -0.86230E-12         0.00000E+00
    0.14119E-07        -0.90414E-12         0.00000E+00
    0.14412E-07        -0.94600E-12         0.00000E+00
    0.14708E-07        -0.98776E-12         0.00000E+00
    0.15007E-07        -0.10293E-11         0.00000E+00
    0.15310E-07        -0.10704E-11         0.00000E+00
    0.15616E-07        -0.11109E-11         0.00000E+00
    0.15924E-07        -0.11506E-11         0.00000E+00
    0.16234E-07        -0.11894E-11         0.00000E+00
    0.16546E-07        -0.12270E-11         0.00000E+00
    0.16860E-07        -0.12631E-11         0.00000E+00
    0.17175E-07        -0.12976E-11         0.00000E+00
    0.17491E-07        -0.13300E-11         0.00000E+00
    0.17807E-07        -0.13602E-11         0.00000E+00
    0.18124E-07        -0.13878E-11         0.00000E+00
    0.18441E-07        -0.14125E-11         0.00000E+00
    0.18757E-07        -0.14338E-11         0.00000E+00
    0.19072E-07        -0.14515E-11         0.00000E+00
    0.19386E-07        -0.14651E-11         0.00000E+00
    0.19697E-07        -0.14742E-11         0.00000E+00
    0.20007E-07        -0.14783E-11         0.00000E+00
    0.20313E-07        -0.14770E-11         0.00000E+00
    0.20616E-07        -0.14696E-11         0.00000E+00
    0.20916E-07        -0.14557E-11         0.00000E+00
    0.21211E-07        -0.14347E-11         0.00000E+00
    0.21501E-07        -0.14058E-11         0.00000E+00
    0.21786E-07        -0.13685E-11         0.00000E+00
    0.22066E-07        -0.13219E-11         0.00000E+00
    0.22338E-07        -0.12653E-11         0.00000E+00
    0.22604E-07        -0.11978E-11         0.00000E+00
    0.22862E-07        -0.11183E-11         0.00000E+00
    0.23112E-07        -0.10260E-11         0.00000E+00
    0.23354E-07        -0.91969E-12         0.00000E+00
    0.23586E-07        -0.79826E-12         0.00000E+00
    0.23809E-07        -0.66056E-12         0.00000E+00
    0.24021E-07        -0.50548E-12         0.00000E+00
    0.24223E-07        -0.33201E-12         0.00000E+00
    0.24413E-07        -0.13942E-12         0.00000E+00
    0.24592E-07         0.72598E-13         0.00000E+00
    0.24758E-07         0.30363E-12         0.00000E+00
    0.24912E-07         0.55216E-12         0.00000E+00
    0.25052E-07         0.81501E-12         0.00000E+00
    0.25179E-07         0.10867E-11         0.00000E+00
    0.25293E-07         0.13583E-11         0.00000E+00
    0.25392E-07         0.16164E-11         0.00000E+00
    0.25477E-07         0.18412E-11         0.00000E+00
    0.25547E-07         0.20041E-11         0.00000E+00
    0.25603E-07         0.20635E-11         0.00000E+00
    0.25644E-07         0.19552E-11         0.00000E+00
    0.25671E-07         0.15594E-11         0.00000E+00
    0.25684E-07         0.63477E-12         0.00000E+00
    0.64289E-08         0.36583E-12         0.00000E+00
    0.64334E-08         0.92603E-12         0.00000E+00
    0.64437E-08         0.12153E-11         0.00000E+00
    0.64600E-08         0.13466E-11         0.00000E+00
    0.64823E-08         0.13826E-11         0.00000E+00
    0.65108E-08         0.13589E-11         0.00000E+00
    0.65454E-08         0.12983E-11         0.00000E+00
    0.65863E-08         0.12162E-11         0.00000E+00
    0.66334E-08         0.11232E-11         0.00000E+00
    0.66869E-08         0.10263E-11         0.00000E+00
    0.67467E-08         0.93014E-12         0.00000E+00
    0.68128E-08         0.83746E-12         0.00000E+00
    0.68852E-08         0.74980E-12         0.00000E+00
    0.69639E-08         0.66788E-12         0.00000E+00
    0.70490E-08         0.59183E-12         0.00000E+00
    0.71404E-08         0.52145E-12         0.00000E+00
    0.72381E-08         0.45635E-12         0.00000E+00
    0.73420E-08         0.39602E-12         0.00000E+00
    0.74523E-08         0.33989E-12         0.00000E+00
    0.75688E-08         0.28743E-12         0.00000E+00
    0.76916E-08         0.23811E-12         0.00000E+00
    0.78207E-08         0.19144E-12         0.00000E+00
    0.79560E-08         0.14697E-12         0.00000E+00
    0.80975E-08         0.10432E-12         0.00000E+00
    0.82453E-08         0.63134E-13         0.00000E+00
    0.83992E-08         0.23096E-13         0.00000E+00
    0.85593E-08        -0.16064E-13         0.00000E+00
    0.87256E-08        -0.54586E-13         0.00000E+00
    0.88979E-08        -0.92679E-13         0.00000E+00
    0.90764E-08        -0.13053E-12         0.00000E+00
    0.92609E-08        -0.16830E-12         0.00000E+00
    0.94514E-08        -0.20613E-12         0.00000E+00
    0.96479E-08        -0.24415E-12         0.00000E+00
    0.98503E-08        -0.28245E-12         0.00000E+00
    0.10059E-07        -0.32115E-12         0.00000E+00
    0.10273E-07        -0.36031E-12         0.00000E+00
    0.10492E-07        -0.40000E-12         0.00000E+00
    0.10718E-07        -0.44027E-12         0.00000E+00
    0.10949E-07        -0.48118E-12         0.00000E+00
    0.11186E-07        -0.52274E-12         0.00000E+00
    0.11428E-07        -0.56497E-12         0.00000E+00
    0.11675E-07        -0.60789E-12         0.00000E+00
    0.11928E-07        -0.65148E-12         0.00000E+00
    0.12185E-07        -0.69572E-12         0.00000E+00
    0.12448E-07        -0.74060E-12         0.00000E+00
    0.12715E-07        -0.78605E-12         0.00000E+00
    0.12987E-07        -0.83203E-12         0.00000E+00
    0.13264E-07        -0.87847E-12         0.00000E+00
    0.13545E-07        -0.92528E-12         0.00000E+00
    0.13830E-07        -0.97237E-12         0.00000E+00
    0.14119E-07        -0.10196E-11         0.00000E+00
    0.14412E-07        -0.10669E-11         0.00000E+00
    0.14708E-07        -0.11141E-11         0.00000E+00
    0.15007E-07        -0.11610E-11         0.00000E+00
    0.15310E-07        -0.12074E-11         0.00000E+00
    0.15616E-07        -0.12532E-11         0.00000E+00
    0.15924E-07        -0.12982E-11         0.00000E+00
    0.16234E-07        -0.13420E-11         0.00000E+00
    0.16546E-07        -0.13845E-11         0.00000E+00
    0.16860E-07        -0.14254E-11         0.00000E+00
    0.17175E-07        -0.14644E-11         0.00000E+00
    0.17491E-07        -0.15012E-11         0.00000E+00
    0.17807E-07        -0.15354E-11         0.00000E+00
    0.18124E-07        -0.15668E-11         0.00000E+00
    0.18441E-07        -0.15948E-11         0.00000E+00
    0.18757E-07        -0.16191E-11         0.00000E+00
    0.19072E-07        -0.16393E-11         0.00000E+00
    0.19385E-07        -0.16548E-11         0.00000E+00
    0.19697E-07        -0.16654E-11         0.00000E+00
    0.20007E-07        -0.16703E-11         0.00000E+00
    0.20313E-07        -0.16690E-11         0.00000E+00
    0.20616E-07        -0.16610E-11         0.00000E+00
    0.20916E-07        -0.16457E-11         0.00000E+00
    0.21211E-07        -0.16222E-11         0.00000E+00
    0.21501E-07        -0.15900E-11         0.00000E+00
    0.21786E-07        -0.15483E-11         0.00000E+00
    0.22066E-07        -0.14961E-11         0.00000E+00
    0.22338E-07        -0.14325E-11         0.00000E+00
    0.22604E-07        -0.13566E-11         0.00000E+00
    0.22862E-07        -0.12672E-11         0.00000E+00
    0.23112E-07        -0.11633E-11         0.00000E+00
    0.23354E-07        -0.10434E-11         0.00000E+00
    0.23586E-07        -0.90636E-12         0.00000E+00
    0.23809E-07        -0.75080E-12         0.00000E+00
    0.24021E-07        -0.57542E-12         0.00000E+00
    0.24223E-07        -0.37905E-12         0.00000E+00
    0.24413E-07        -0.16082E-12         0.00000E+00
    0.24592E-07         0.79643E-13         0.00000E+00
    0.24758E-07         0.34188E-12         0.00000E+00
    0.24912E-07         0.62415E-12         0.00000E+00
    0.25053E-07         0.92279E-12         0.00000E+00
    0.25180E-07         0.12313E-11         0.00000E+00
    0.25293E-07         0.15395E-11         0.00000E+00
    0.25392E-07         0.18315E-11         0.00000E+00
    0.25477E-07         0.20841E-11         0.00000E+00
    0.25547E-07         0.22639E-11         0.00000E+00
    0.25603E-07         0.23223E-11         0.00000E+00
    0.25644E-07         0.21850E-11         0.00000E+00
    0.25671E-07         0.17201E-11         0.00000E+00
    0.25684E-07         0.69214E-12         0.00000E+00
    0.64291E-08         0.39423E-12         0.00000E+00
    0.64335E-08         0.10066E-11         0.00000E+00
    0.64438E-08         0.13340E-11         0.00000E+00
    0.64600E-08         0.14862E-11         0.00000E+00
    0.64823E-08         0.15304E-11         0.00000E+00
    0.65107E-08         0.15062E-11         0.00000E+00
    0.65454E-08         0.14398E-11         0.00000E+00
    0.65863E-08         0.13488E-11         0.00000E+00
    0.66334E-08         0.12453E-11         0.00000E+00
    0.66869E-08         0.11374E-11         0.00000E+00
    0.67467E-08         0.10301E-11         0.00000E+00
    0.68128E-08         0.92686E-12         0.00000E+00
    0.68852E-08         0.82925E-12         0.00000E+00
    0.69639E-08         0.73811E-12         0.00000E+00
    0.70490E-08         0.65361E-12         0.00000E+00
    0.71404E-08         0.57551E-12         0.00000E+00
    0.72380E-08         0.50335E-12         0.00000E+00
    0.73420E-08         0.43654E-12         0.00000E+00
    0.74523E-08         0.37445E-12         0.00000E+00
    0.75688E-08         0.31647E-12         0.00000E+00
    0.76916E-08         0.26199E-12         0.00000E+00
    0.78207E-08         0.21047E-12         0.00000E+00
    0.79560E-08         0.16140E-12         0.00000E+00
    0.80975E-08         0.11434E-12         0.00000E+00
    0.82453E-08         0.68904E-13         0.00000E+00
    0.83992E-08         0.24735E-13         0.00000E+00
    0.85593E-08        -0.18469E-13         0.00000E+00
    0.87256E-08        -0.60976E-13         0.00000E+00
    0.88979E-08        -0.10302E-12         0.00000E+00
    0.90764E-08        -0.14480E-12         0.00000E+00
    0.92609E-08        -0.18651E-12         0.00000E+00
    0.94514E-08        -0.22829E-12         0.00000E+00
    0.96479E-08        -0.27029E-12         0.00000E+00
    0.98503E-08        -0.31263E-12         0.00000E+00
    0.10059E-07        -0.35540E-12         0.00000E+00
    0.10273E-07        -0.39869E-12         0.00000E+00
    0.10492E-07        -0.44259E-12         0.00000E+00
    0.10718E-07        -0.48714E-12         0.00000E+00
    0.10949E-07        -0.53239E-12         0.00000E+00
    0.11186E-07        -0.57837E-12         0.00000E+00
    0.11428E-07        -0.62512E-12         0.00000E+00
    0.11675E-07        -0.67262E-12         0.00000E+00
    0.11928E-07        -0.72088E-12         0.00000E+00
    0.12185E-07        -0.76987E-12         0.00000E+00
    0.12448E-07        -0.81957E-12         0.00000E+00
    0.12715E-07        -0.86992E-12         0.00000E+00
    0.12987E-07        -0.92086E-12         0.00000E+00
    0.13264E-07        -0.97231E-12         0.00000E+00
    0.13545E-07        -0.10242E-11         0.00000E+00
    0.13830E-07        -0.10764E-11         0.00000E+00
    0.14119E-07        -0.11288E-11         0.00000E+00
    0.14412E-07        -0.11812E-11         0.00000E+00
    0.14708E-07        -0.12335E-11         0.00000E+00
    0.15007E-07        -0.12855E-11         0.00000E+00
    0.15310E-07        -0.13370E-11         0.00000E+00
    0.15616E-07        -0.13879E-11         0.00000E+00
    0.15924E-07        -0.14378E-11         0.00000E+00
    0.16234E-07        -0.14865E-11         0.00000E+00
    0.16546E-07        -0.15337E-11         0.00000E+00
    0.16860E-07        -0.15791E-11         0.00000E+00
    0.17175E-07        -0.16225E-11         0.00000E+00
    0.17491E-07        -0.16634E-11         0.00000E+00
    0.17807E-07        -0.17015E-11         0.00000E+00
    0.18124E-07        -0.17364E-11         0.00000E+00
    0.18441E-07        -0.17676E-11         0.00000E+00
    0.18757E-07        -0.17948E-11         0.00000E+00
    0.19072E-07        -0.18174E-11         0.00000E+00
    0.19385E-07        -0.18349E-11         0.00000E+00
    0.19697E-07        -0.18468E-11         0.00000E+00
    0.20007E-07        -0.18526E-11         0.00000E+00
    0.20313E-07        -0.18515E-11         0.00000E+00
    0.20616E-07        -0.18430E-11         0.00000E+00
    0.20916E-07        -0.18264E-11         0.00000E+00
    0.21211E-07        -0.18008E-11         0.00000E+00
    0.21501E-07        -0.17655E-11         0.00000E+00
    0.21786E-07        -0.17196E-11         0.00000E+00
    0.22066E-07        -0.16622E-11         0.00000E+00
    0.22338E-07        -0.15922E-11         0.00000E+00
    0.22604E-07        -0.15085E-11         0.00000E+00
    0.22862E-07        -0.14098E-11         0.00000E+00
    0.23112E-07        -0.12948E-11         0.00000E+00
    0.23354E-07        -0.11622E-11         0.00000E+00
    0.23586E-07        -0.10104E-11         0.00000E+00
    0.23809E-07        -0.83789E-12         0.00000E+00
    0.24021E-07        -0.64322E-12         0.00000E+00
    0.24223E-07        -0.42503E-12         0.00000E+00
    0.24413E-07        -0.18230E-12         0.00000E+00
    0.24592E-07         0.85395E-13         0.00000E+00
    0.24758E-07         0.37757E-12         0.00000E+00
    0.24912E-07         0.69225E-12         0.00000E+00
    0.25053E-07         0.10253E-11         0.00000E+00
    0.25180E-07         0.13693E-11         0.00000E+00
    0.25293E-07         0.17125E-11         0.00000E+00
    0.25392E-07         0.20368E-11         0.00000E+00
    0.25477E-07         0.23156E-11         0.00000E+00
    0.25547E-07         0.25106E-11         0.00000E+00
    0.25603E-07         0.25662E-11         0.00000E+00
    0.25644E-07         0.23987E-11         0.00000E+00
    0.25671E-07         0.18672E-11         0.00000E+00
    0.25683E-07         0.74403E-12         0.00000E+00
    0.64293E-08         0.42012E-12         0.00000E+00
    0.64336E-08         0.10806E-11         0.00000E+00
    0.64438E-08         0.14442E-11         0.00000E+00
    0.64600E-08         0.16171E-11         0.00000E+00
    0.64823E-08         0.16696E-11         0.00000E+00
    0.65107E-08         0.16455E-11         0.00000E+00
    0.65454E-08         0.15737E-11         0.00000E+00
    0.65862E-08         0.14743E-11         0.00000E+00
    0.66334E-08         0.13607E-11         0.00000E+00
    0.66869E-08         0.12421E-11         0.00000E+00
    0.67466E-08         0.11243E-11         0.00000E+00
    0.68127E-08         0.10109E-11         0.00000E+00
    0.68852E-08         0.90377E-12         0.00000E+00
    0.69639E-08         0.80386E-12         0.00000E+00
    0.70490E-08         0.71133E-12         0.00000E+00
    0.71403E-08         0.62592E-12         0.00000E+00
    0.72380E-08         0.54709E-12         0.00000E+00
    0.73420E-08         0.47418E-12         0.00000E+00
    0.74523E-08         0.40650E-12         0.00000E+00
    0.75688E-08         0.34334E-12         0.00000E+00
    0.76916E-08         0.28405E-12         0.00000E+00
    0.78207E-08         0.22799E-12         0.00000E+00
    0.79560E-08         0.17463E-12         0.00000E+00
    0.80975E-08         0.12347E-12         0.00000E+00
    0.82453E-08         0.74075E-13         0.00000E+00
    0.83992E-08         0.26056E-13         0.00000E+00
    0.85593E-08        -0.20920E-13         0.00000E+00
    0.87256E-08        -0.67144E-13         0.00000E+00
    0.88979E-08        -0.11287E-12         0.00000E+00
    0.90764E-08        -0.15833E-12         0.00000E+00
    0.92609E-08        -0.20372E-12         0.00000E+00
    0.94514E-08        -0.24920E-12         0.00000E+00
    0.96479E-08        -0.29493E-12         0.00000E+00
    0.98503E-08        -0.34104E-12         0.00000E+00
    0.10059E-07        -0.38763E-12         0.00000E+00
    0.10273E-07        -0.43481E-12         0.00000E+00
    0.10492E-07        -0.48265E-12         0.00000E+00
    0.10718E-07        -0.53121E-12         0.00000E+00
    0.10949E-07        -0.58055E-12         0.00000E+00
    0.11186E-07        -0.63070E-12         0.00000E+00
    0.11428E-07        -0.68169E-12         0.00000E+00
    0.11675E-07        -0.73351E-12         0.00000E+00
    0.11928E-07        -0.78617E-12         0.00000E+00
    0.12185E-07        -0.83964E-12         0.00000E+00
    0.12448E-07        -0.89388E-12         0.00000E+00
    0.12715E-07        -0.94884E-12         0.00000E+00
    0.12987E-07        -0.10045E-11         0.00000E+00
    0.13264E-07        -0.10607E-11         0.00000E+00
    0.13545E-07        -0.11173E-11         0.00000E+00
    0.13830E-07        -0.11743E-11         0.00000E+00
    0.14119E-07        -0.12315E-11         0.00000E+00
    0.14412E-07        -0.12888E-11         0.00000E+00
    0.14708E-07        -0.13460E-11         0.00000E+00
    0.15007E-07        -0.14029E-11         0.00000E+00
    0.15310E-07        -0.14592E-11         0.00000E+00
    0.15616E-07        -0.15148E-11         0.00000E+00
    0.15923E-07        -0.15694E-11         0.00000E+00
    0.16234E-07        -0.16227E-11         0.00000E+00
    0.16546E-07        -0.16744E-11         0.00000E+00
    0.16860E-07        -0.17242E-11         0.00000E+00
    0.17175E-07        -0.17716E-11         0.00000E+00
    0.17491E-07        -0.18165E-11         0.00000E+00
    0.17807E-07        -0.18583E-11         0.00000E+00
    0.18124E-07        -0.18966E-11         0.00000E+00
    0.18441E-07        -0.19309E-11         0.00000E+00
    0.18757E-07        -0.19608E-11         0.00000E+00
    0.19072E-07        -0.19858E-11         0.00000E+00
    0.19385E-07        -0.20052E-11         0.00000E+00
    0.19697E-07        -0.20186E-11         0.00000E+00
    0.20007E-07        -0.20252E-11         0.00000E+00
    0.20313E-07        -0.20244E-11         0.00000E+00
    0.20616E-07        -0.20155E-11         0.00000E+00
    0.20916E-07        -0.19977E-11         0.00000E+00
    0.21211E-07        -0.19702E-11         0.00000E+00
    0.21501E-07        -0.19322E-11         0.00000E+00
    0.21786E-07        -0.18825E-11         0.00000E+00
    0.22066E-07        -0.18203E-11         0.00000E+00
    0.22338E-07        -0.17442E-11         0.00000E+00
    0.22604E-07        -0.16532E-11         0.00000E+00
    0.22862E-07        -0.15458E-11         0.00000E+00
    0.23112E-07        -0.14206E-11         0.00000E+00
    0.23354E-07        -0.12760E-11         0.00000E+00
    0.23586E-07        -0.11103E-11         0.00000E+00
    0.23809E-07        -0.92178E-12         0.00000E+00
    0.24021E-07        -0.70883E-12         0.00000E+00
    0.24223E-07        -0.46992E-12         0.00000E+00
    0.24414E-07        -0.20388E-12         0.00000E+00
    0.24592E-07         0.89802E-13         0.00000E+00
    0.24758E-07         0.41059E-12         0.00000E+00
    0.24912E-07         0.75631E-12         0.00000E+00
    0.25053E-07         0.11223E-11         0.00000E+00
    0.25180E-07         0.15003E-11         0.00000E+00
    0.25293E-07         0.18771E-11         0.00000E+00
    0.25392E-07         0.22321E-11         0.00000E+00
    0.25477E-07         0.25356E-11         0.00000E+00
    0.25547E-07         0.27441E-11         0.00000E+00
    0.25603E-07         0.27957E-11         0.00000E+00
    0.25644E-07         0.25974E-11         0.00000E+00
    0.25671E-07         0.20023E-11         0.00000E+00
    0.25683E-07         0.79135E-12         0.00000E+00
    0.64294E-08         0.44383E-12         0.00000E+00
    0.64337E-08         0.11487E-11         0.00000E+00
    0.64439E-08         0.15464E-11         0.00000E+00
    0.64601E-08         0.17395E-11         0.00000E+00
    0.64823E-08         0.18004E-11         0.00000E+00
    0.65107E-08         0.17766E-11         0.00000E+00
    0.65453E-08         0.16999E-11         0.00000E+00
    0.65862E-08         0.15925E-11         0.00000E+00
    0.66334E-08         0.14693E-11         0.00000E+00
    0.66868E-08         0.13405E-11         0.00000E+00
    0.67466E-08         0.12126E-11         0.00000E+00
    0.68127E-08         0.10895E-11         0.00000E+00
    0.68851E-08         0.97333E-12         0.00000E+00
    0.69639E-08         0.86510E-12         0.00000E+00
    0.70489E-08         0.76499E-12         0.00000E+00
    0.71403E-08         0.67268E-12         0.00000E+00
    0.72380E-08         0.58758E-12         0.00000E+00
    0.73420E-08         0.50897E-12         0.00000E+00
    0.74523E-08         0.43606E-12         0.00000E+00
    0.75688E-08         0.36808E-12         0.00000E+00
    0.76916E-08         0.30430E-12         0.00000E+00
    0.78207E-08         0.24404E-12         0.00000E+00
    0.79560E-08         0.18670E-12         0.00000E+00
    0.80975E-08         0.13173E-12         0.00000E+00
    0.82453E-08         0.78655E-13         0.00000E+00
    0.83992E-08         0.27065E-13         0.00000E+00
    0.85593E-08        -0.23408E-13         0.00000E+00
    0.87255E-08        -0.73084E-13         0.00000E+00
    0.88979E-08        -0.12224E-12         0.00000E+00
    0.90764E-08        -0.17112E-12         0.00000E+00
    0.92609E-08        -0.21993E-12         0.00000E+00
    0.94514E-08        -0.26886E-12         0.00000E+00
    0.96479E-08        -0.31806E-12         0.00000E+00
    0.98503E-08        -0.36769E-12         0.00000E+00
    0.10059E-07        -0.41785E-12         0.00000E+00
    0.10273E-07        -0.46865E-12         0.00000E+00
    0.10492E-07        -0.52018E-12         0.00000E+00
    0.10718E-07        -0.57250E-12         0.00000E+00
    0.10949E-07        -0.62567E-12         0.00000E+00
    0.11186E-07        -0.67972E-12         0.00000E+00
    0.11428E-07        -0.73468E-12         0.00000E+00
    0.11675E-07        -0.79056E-12         0.00000E+00
    0.11928E-07        -0.84734E-12         0.00000E+00
    0.12185E-07        -0.90501E-12         0.00000E+00
    0.12448E-07        -0.96353E-12         0.00000E+00
    0.12715E-07        -0.10228E-11         0.00000E+00
    0.12987E-07        -0.10828E-11         0.00000E+00
    0.13264E-07        -0.11435E-11         0.00000E+00
    0.13545E-07        -0.12046E-11         0.00000E+00
    0.13830E-07        -0.12662E-11         0.00000E+00
    0.14119E-07        -0.13280E-11         0.00000E+00
    0.14411E-07        -0.13899E-11         0.00000E+00
    0.14708E-07        -0.14516E-11         0.00000E+00
    0.15007E-07        -0.15131E-11         0.00000E+00
    0.15310E-07        -0.15740E-11         0.00000E+00
    0.15616E-07        -0.16341E-11         0.00000E+00
    0.15923E-07        -0.16931E-11         0.00000E+00
    0.16234E-07        -0.17507E-11         0.00000E+00
    0.16546E-07        -0.18066E-11         0.00000E+00
    0.16860E-07        -0.18605E-11         0.00000E+00
    0.17175E-07        -0.19119E-11         0.00000E+00
    0.17491E-07        -0.19605E-11         0.00000E+00
    0.17807E-07        -0.20058E-11         0.00000E+00
    0.18124E-07        -0.20474E-11         0.00000E+00
    0.18441E-07        -0.20847E-11         0.00000E+00
    0.18757E-07        -0.21173E-11         0.00000E+00
    0.19072E-07        -0.21445E-11         0.00000E+00
    0.19385E-07        -0.21658E-11         0.00000E+00
    0.19697E-07        -0.21806E-11         0.00000E+00
    0.20007E-07        -0.21881E-11         0.00000E+00
    0.20313E-07        -0.21876E-11         0.00000E+00
    0.20616E-07        -0.21785E-11         0.00000E+00
    0.20916E-07        -0.21597E-11         0.00000E+00
    0.21211E-07        -0.21305E-11         0.00000E+00
    0.21501E-07        -0.20899E-11         0.00000E+00
    0.21787E-07        -0.20368E-11         0.00000E+00
    0.22066E-07        -0.19702E-11         0.00000E+00
    0.22338E-07        -0.18886E-11         0.00000E+00
    0.22604E-07        -0.17909E-11         0.00000E+00
    0.22862E-07        -0.16754E-11         0.00000E+00
    0.23112E-07        -0.15406E-11         0.00000E+00
    0.23354E-07        -0.13847E-11         0.00000E+00
    0.23586E-07        -0.12060E-11         0.00000E+00
    0.23809E-07        -0.10024E-11         0.00000E+00
    0.24022E-07        -0.77222E-12         0.00000E+00
    0.24223E-07        -0.51371E-12         0.00000E+00
    0.24414E-07        -0.22556E-12         0.00000E+00
    0.24592E-07         0.92813E-13         0.00000E+00
    0.24759E-07         0.44086E-12         0.00000E+00
    0.24912E-07         0.81620E-12         0.00000E+00
    0.25053E-07         0.12137E-11         0.00000E+00
    0.25180E-07         0.16242E-11         0.00000E+00
    0.25293E-07         0.20330E-11         0.00000E+00
    0.25392E-07         0.24173E-11         0.00000E+00
    0.25477E-07         0.27439E-11         0.00000E+00
    0.25547E-07         0.29647E-11         0.00000E+00
    0.25603E-07         0.30110E-11         0.00000E+00
    0.25644E-07         0.27823E-11         0.00000E+00
    0.25671E-07         0.21269E-11         0.00000E+00
    0.25683E-07         0.83477E-12         0.00000E+00
    0.64296E-08         0.46562E-12         0.00000E+00
    0.64338E-08         0.12114E-11         0.00000E+00
    0.64439E-08         0.16412E-11         0.00000E+00
    0.64601E-08         0.18537E-11         0.00000E+00
    0.64823E-08         0.19229E-11         0.00000E+00
    0.65107E-08         0.18996E-11         0.00000E+00
    0.65453E-08         0.18183E-11         0.00000E+00
    0.65862E-08         0.17032E-11         0.00000E+00
    0.66333E-08         0.15709E-11         0.00000E+00
    0.66868E-08         0.14325E-11         0.00000E+00
    0.67466E-08         0.12949E-11         0.00000E+00
    0.68127E-08         0.11626E-11         0.00000E+00
    0.68851E-08         0.10379E-11         0.00000E+00
    0.69639E-08         0.92184E-12         0.00000E+00
    0.70489E-08         0.81458E-12         0.00000E+00
    0.71403E-08         0.71580E-12         0.00000E+00
    0.72380E-08         0.62484E-12         0.00000E+00
    0.73420E-08         0.54091E-12         0.00000E+00
    0.74522E-08         0.46314E-12         0.00000E+00
    0.75688E-08         0.39069E-12         0.00000E+00
    0.76916E-08         0.32276E-12         0.00000E+00
    0.78207E-08         0.25862E-12         0.00000E+00
    0.79560E-08         0.19760E-12         0.00000E+00
    0.80975E-08         0.13911E-12         0.00000E+00
    0.82453E-08         0.82658E-13         0.00000E+00
    0.83992E-08         0.27775E-13         0.00000E+00
    0.85593E-08        -0.25927E-13         0.00000E+00
    0.87255E-08        -0.78790E-13         0.00000E+00
    0.88979E-08        -0.13111E-12         0.00000E+00
    0.90763E-08        -0.18315E-12         0.00000E+00
    0.92608E-08        -0.23513E-12         0.00000E+00
    0.94514E-08        -0.28725E-12         0.00000E+00
    0.96479E-08        -0.33968E-12         0.00000E+00
    0.98503E-08        -0.39257E-12         0.00000E+00
    0.10059E-07        -0.44605E-12         0.00000E+00
    0.10273E-07        -0.50023E-12         0.00000E+00
    0.10492E-07        -0.55519E-12         0.00000E+00
    0.10718E-07        -0.61101E-12         0.00000E+00
    0.10949E-07        -0.66774E-12         0.00000E+00
    0.11186E-07        -0.72543E-12         0.00000E+00
    0.11428E-07        -0.78410E-12         0.00000E+00
    0.11675E-07        -0.84377E-12         0.00000E+00
    0.11928E-07        -0.90441E-12         0.00000E+00
    0.12185E-07        -0.96600E-12         0.00000E+00
    0.12448E-07        -0.10285E-11         0.00000E+00
    0.12715E-07        -0.10919E-11         0.00000E+00
    0.12987E-07        -0.11560E-11         0.00000E+00
    0.13264E-07        -0.12208E-11         0.00000E+00
    0.13545E-07        -0.12862E-11         0.00000E+00
    0.13830E-07        -0.13520E-11         0.00000E+00
    0.14119E-07        -0.14181E-11         0.00000E+00
    0.14411E-07        -0.14843E-11         0.00000E+00
    0.14708E-07        -0.15503E-11         0.00000E+00
    0.15007E-07        -0.16161E-11         0.00000E+00
    0.15310E-07        -0.16813E-11         0.00000E+00
    0.15615E-07        -0.17456E-11         0.00000E+00
    0.15923E-07        -0.18088E-11         0.00000E+00
    0.16234E-07        -0.18705E-11         0.00000E+00
    0.16546E-07        -0.19304E-11         0.00000E+00
    0.16860E-07        -0.19882E-11         0.00000E+00
    0.17175E-07        -0.20433E-11         0.00000E+00
    0.17491E-07        -0.20955E-11         0.00000E+00
    0.17807E-07        -0.21441E-11         0.00000E+00
    0.18124E-07        -0.21888E-11         0.00000E+00
    0.18441E-07        -0.22290E-11         0.00000E+00
    0.18757E-07        -0.22641E-11         0.00000E+00
    0.19072E-07        -0.22935E-11         0.00000E+00
    0.19385E-07        -0.23166E-11         0.00000E+00
    0.19697E-07        -0.23328E-11         0.00000E+00
    0.20007E-07        -0.23412E-11         0.00000E+00
    0.20313E-07        -0.23412E-11         0.00000E+00
    0.20616E-07        -0.23318E-11         0.00000E+00
    0.20916E-07        -0.23123E-11         0.00000E+00
    0.21211E-07        -0.22816E-11         0.00000E+00
    0.21502E-07        -0.22387E-11         0.00000E+00
    0.21787E-07        -0.21825E-11         0.00000E+00
    0.22066E-07        -0.21118E-11         0.00000E+00
    0.22338E-07        -0.20252E-11         0.00000E+00
    0.22604E-07        -0.19212E-11         0.00000E+00
    0.22862E-07        -0.17983E-11         0.00000E+00
    0.23113E-07        -0.16546E-11         0.00000E+00
    0.23354E-07        -0.14883E-11         0.00000E+00
    0.23586E-07        -0.12974E-11         0.00000E+00
    0.23809E-07        -0.10797E-11         0.00000E+00
    0.24022E-07        -0.83336E-12         0.00000E+00
    0.24223E-07        -0.55639E-12         0.00000E+00
    0.24414E-07        -0.24737E-12         0.00000E+00
    0.24592E-07         0.94391E-13         0.00000E+00
    0.24759E-07         0.46830E-12         0.00000E+00
    0.24912E-07         0.87179E-12         0.00000E+00
    0.25053E-07         0.12993E-11         0.00000E+00
    0.25180E-07         0.17407E-11         0.00000E+00
    0.25293E-07         0.21800E-11         0.00000E+00
    0.25392E-07         0.25921E-11         0.00000E+00
    0.25477E-07         0.29405E-11         0.00000E+00
    0.25547E-07         0.31723E-11         0.00000E+00
    0.25603E-07         0.32128E-11         0.00000E+00
    0.25644E-07         0.29544E-11         0.00000E+00
    0.25670E-07         0.22421E-11         0.00000E+00
    0.25682E-07         0.87483E-12         0.00000E+00
    0.64298E-08         0.48569E-12         0.00000E+00
    0.64339E-08         0.12693E-11         0.00000E+00
    0.64440E-08         0.17289E-11         0.00000E+00
    0.64601E-08         0.19599E-11         0.00000E+00
    0.64823E-08         0.20372E-11         0.00000E+00
    0.65107E-08         0.20144E-11         0.00000E+00
    0.65453E-08         0.19289E-11         0.00000E+00
    0.65862E-08         0.18066E-11         0.00000E+00
    0.66333E-08         0.16656E-11         0.00000E+00
    0.66868E-08         0.15180E-11         0.00000E+00
    0.67466E-08         0.13713E-11         0.00000E+00
    0.68127E-08         0.12303E-11         0.00000E+00
    0.68851E-08         0.10975E-11         0.00000E+00
    0.69638E-08         0.97405E-12         0.00000E+00
    0.70489E-08         0.86010E-12         0.00000E+00
    0.71403E-08         0.75528E-12         0.00000E+00
    0.72380E-08         0.65888E-12         0.00000E+00
    0.73420E-08         0.57002E-12         0.00000E+00
    0.74522E-08         0.48776E-12         0.00000E+00
    0.75688E-08         0.41119E-12         0.00000E+00
    0.76916E-08         0.33945E-12         0.00000E+00
    0.78207E-08         0.27174E-12         0.00000E+00
    0.79560E-08         0.20735E-12         0.00000E+00
    0.80975E-08         0.14565E-12         0.00000E+00
    0.82452E-08         0.86093E-13         0.00000E+00
    0.83992E-08         0.28193E-13         0.00000E+00
    0.85593E-08        -0.28468E-13         0.00000E+00
    0.87255E-08        -0.84254E-13         0.00000E+00
    0.88979E-08        -0.13948E-12         0.00000E+00
    0.90763E-08        -0.19442E-12         0.00000E+00
    0.92608E-08        -0.24932E-12         0.00000E+00
    0.94514E-08        -0.30438E-12         0.00000E+00
    0.96478E-08        -0.35979E-12         0.00000E+00
    0.98503E-08        -0.41570E-12         0.00000E+00
    0.10059E-07        -0.47224E-12         0.00000E+00
    0.10273E-07        -0.52953E-12         0.00000E+00
    0.10492E-07        -0.58767E-12         0.00000E+00
    0.10718E-07        -0.64673E-12         0.00000E+00
    0.10949E-07        -0.70678E-12         0.00000E+00
    0.11186E-07        -0.76784E-12         0.00000E+00
    0.11428E-07        -0.82996E-12         0.00000E+00
    0.11675E-07        -0.89314E-12         0.00000E+00
    0.11928E-07        -0.95736E-12         0.00000E+00
    0.12185E-07        -0.10226E-11         0.00000E+00
    0.12448E-07        -0.10888E-11         0.00000E+00
    0.12715E-07        -0.11560E-11         0.00000E+00
    0.12987E-07        -0.12239E-11         0.00000E+00
    0.13264E-07        -0.12927E-11         0.00000E+00
    0.13545E-07        -0.13620E-11         0.00000E+00
    0.13830E-07        -0.14317E-11         0.00000E+00
    0.14119E-07        -0.15018E-11         0.00000E+00
    0.14411E-07        -0.15720E-11         0.00000E+00
    0.14708E-07        -0.16421E-11         0.00000E+00
    0.15007E-07        -0.17119E-11         0.00000E+00
    0.15310E-07        -0.17811E-11         0.00000E+00
    0.15615E-07        -0.18494E-11         0.00000E+00
    0.15923E-07        -0.19165E-11         0.00000E+00
    0.16234E-07        -0.19821E-11         0.00000E+00
    0.16546E-07        -0.20458E-11         0.00000E+00
    0.16860E-07        -0.21071E-11         0.00000E+00
    0.17175E-07        -0.21658E-11         0.00000E+00
    0.17491E-07        -0.22213E-11         0.00000E+00
    0.17807E-07        -0.22731E-11         0.00000E+00
    0.18124E-07        -0.23208E-11         0.00000E+00
    0.18441E-07        -0.23636E-11         0.00000E+00
    0.18757E-07        -0.24012E-11         0.00000E+00
    0.19072E-07        -0.24327E-11         0.00000E+00
    0.19385E-07        -0.24576E-11         0.00000E+00
    0.19697E-07        -0.24751E-11         0.00000E+00
    0.20007E-07        -0.24845E-11         0.00000E+00
    0.20313E-07        -0.24849E-11         0.00000E+00
    0.20616E-07        -0.24755E-11         0.00000E+00
    0.20916E-07        -0.24553E-11         0.00000E+00
    0.21211E-07        -0.24233E-11         0.00000E+00
    0.21502E-07        -0.23785E-11         0.00000E+00
    0.21787E-07        -0.23195E-11         0.00000E+00
    0.22066E-07        -0.22451E-11         0.00000E+00
    0.22338E-07        -0.21539E-11         0.00000E+00
    0.22604E-07        -0.20443E-11         0.00000E+00
    0.22862E-07        -0.19145E-11         0.00000E+00
    0.23113E-07        -0.17626E-11         0.00000E+00
    0.23354E-07        -0.15867E-11         0.00000E+00
    0.23586E-07        -0.13844E-11         0.00000E+00
    0.23809E-07        -0.11537E-11         0.00000E+00
    0.24022E-07        -0.89218E-12         0.00000E+00
    0.24223E-07        -0.59792E-12         0.00000E+00
    0.24414E-07        -0.26929E-12         0.00000E+00
    0.24592E-07         0.94501E-13         0.00000E+00
    0.24759E-07         0.49285E-12         0.00000E+00
    0.24912E-07         0.92299E-12         0.00000E+00
    0.25053E-07         0.13789E-11         0.00000E+00
    0.25180E-07         0.18498E-11         0.00000E+00
    0.25293E-07         0.23180E-11         0.00000E+00
    0.25392E-07         0.27564E-11         0.00000E+00
    0.25477E-07         0.31252E-11         0.00000E+00
    0.25547E-07         0.33672E-11         0.00000E+00
    0.25603E-07         0.34015E-11         0.00000E+00
    0.25644E-07         0.31144E-11         0.00000E+00
    0.25670E-07         0.23489E-11         0.00000E+00
    0.25682E-07         0.91197E-12         0.00000E+00
    0.64300E-08         0.50421E-12         0.00000E+00
    0.64340E-08         0.13227E-11         0.00000E+00
    0.64441E-08         0.18100E-11         0.00000E+00
    0.64601E-08         0.20583E-11         0.00000E+00
    0.64823E-08         0.21434E-11         0.00000E+00
    0.65107E-08         0.21212E-11         0.00000E+00
    0.65453E-08         0.20316E-11         0.00000E+00
    0.65861E-08         0.19025E-11         0.00000E+00
    0.66333E-08         0.17533E-11         0.00000E+00
    0.66867E-08         0.15969E-11         0.00000E+00
    0.67465E-08         0.14416E-11         0.00000E+00
    0.68126E-08         0.12925E-11         0.00000E+00
    0.68851E-08         0.11521E-11         0.00000E+00
    0.69638E-08         0.10217E-11         0.00000E+00
    0.70489E-08         0.90157E-12         0.00000E+00
    0.71403E-08         0.79115E-12         0.00000E+00
    0.72380E-08         0.68971E-12         0.00000E+00
    0.73419E-08         0.59631E-12         0.00000E+00
    0.74522E-08         0.50994E-12         0.00000E+00
    0.75688E-08         0.42961E-12         0.00000E+00
    0.76916E-08         0.35439E-12         0.00000E+00
    0.78206E-08         0.28343E-12         0.00000E+00
    0.79560E-08         0.21597E-12         0.00000E+00
    0.80975E-08         0.15135E-12         0.00000E+00
    0.82452E-08         0.88976E-13         0.00000E+00
    0.83992E-08         0.28333E-13         0.00000E+00
    0.85593E-08        -0.31020E-13         0.00000E+00
    0.87255E-08        -0.89469E-13         0.00000E+00
    0.88979E-08        -0.14735E-12         0.00000E+00
    0.90763E-08        -0.20494E-12         0.00000E+00
    0.92608E-08        -0.26250E-12         0.00000E+00
    0.94513E-08        -0.32026E-12         0.00000E+00
    0.96478E-08        -0.37839E-12         0.00000E+00
    0.98502E-08        -0.43706E-12         0.00000E+00
    0.10059E-07        -0.49642E-12         0.00000E+00
    0.10273E-07        -0.55658E-12         0.00000E+00
    0.10492E-07        -0.61764E-12         0.00000E+00
    0.10718E-07        -0.67968E-12         0.00000E+00
    0.10949E-07        -0.74277E-12         0.00000E+00
    0.11186E-07        -0.80695E-12         0.00000E+00
    0.11428E-07        -0.87225E-12         0.00000E+00
    0.11675E-07        -0.93867E-12         0.00000E+00
    0.11928E-07        -0.10062E-11         0.00000E+00
    0.12185E-07        -0.10748E-11         0.00000E+00
    0.12448E-07        -0.11445E-11         0.00000E+00
    0.12715E-07        -0.12151E-11         0.00000E+00
    0.12987E-07        -0.12867E-11         0.00000E+00
    0.13264E-07        -0.13590E-11         0.00000E+00
    0.13545E-07        -0.14319E-11         0.00000E+00
    0.13830E-07        -0.15054E-11         0.00000E+00
    0.14119E-07        -0.15792E-11         0.00000E+00
    0.14411E-07        -0.16531E-11         0.00000E+00
    0.14708E-07        -0.17270E-11         0.00000E+00
    0.15007E-07        -0.18005E-11         0.00000E+00
    0.15310E-07        -0.18734E-11         0.00000E+00
    0.15615E-07        -0.19454E-11         0.00000E+00
    0.15923E-07        -0.20162E-11         0.00000E+00
    0.16234E-07        -0.20854E-11         0.00000E+00
    0.16546E-07        -0.21526E-11         0.00000E+00
    0.16860E-07        -0.22174E-11         0.00000E+00
    0.17175E-07        -0.22793E-11         0.00000E+00
    0.17491E-07        -0.23380E-11         0.00000E+00
    0.17807E-07        -0.23928E-11         0.00000E+00
    0.18124E-07        -0.24432E-11         0.00000E+00
    0.18441E-07        -0.24886E-11         0.00000E+00
    0.18757E-07        -0.25285E-11         0.00000E+00
    0.19072E-07        -0.25621E-11         0.00000E+00
    0.19385E-07        -0.25886E-11         0.00000E+00
    0.19697E-07        -0.26075E-11         0.00000E+00
    0.20007E-07        -0.26178E-11         0.00000E+00
    0.20313E-07        -0.26188E-11         0.00000E+00
    0.20616E-07        -0.26094E-11         0.00000E+00
    0.20916E-07        -0.25887E-11         0.00000E+00
    0.21211E-07        -0.25557E-11         0.00000E+00
    0.21502E-07        -0.25091E-11         0.00000E+00
    0.21787E-07        -0.24477E-11         0.00000E+00
    0.22066E-07        -0.23700E-11         0.00000E+00
    0.22338E-07        -0.22747E-11         0.00000E+00
    0.22604E-07        -0.21599E-11         0.00000E+00
    0.22862E-07        -0.20239E-11         0.00000E+00
    0.23113E-07        -0.18645E-11         0.00000E+00
    0.23354E-07        -0.16797E-11         0.00000E+00
    0.23587E-07        -0.14670E-11         0.00000E+00
    0.23809E-07        -0.12242E-11         0.00000E+00
    0.24022E-07        -0.94864E-12         0.00000E+00
    0.24223E-07        -0.63827E-12         0.00000E+00
    0.24414E-07        -0.29131E-12         0.00000E+00
    0.24592E-07         0.93120E-13         0.00000E+00
    0.24759E-07         0.51443E-12         0.00000E+00
    0.24912E-07         0.96968E-12         0.00000E+00
    0.25053E-07         0.14524E-11         0.00000E+00
    0.25180E-07         0.19511E-11         0.00000E+00
    0.25293E-07         0.24467E-11         0.00000E+00
    0.25392E-07         0.29100E-11         0.00000E+00
    0.25477E-07         0.32981E-11         0.00000E+00
    0.25547E-07         0.35494E-11         0.00000E+00
    0.25603E-07         0.35775E-11         0.00000E+00
    0.25644E-07         0.32633E-11         0.00000E+00
    0.25670E-07         0.24482E-11         0.00000E+00
    0.25682E-07         0.94653E-12         0.00000E+00
    0.64302E-08         0.52132E-12         0.00000E+00
    0.64342E-08         0.13719E-11         0.00000E+00
    0.64441E-08         0.18847E-11         0.00000E+00
    0.64602E-08         0.21491E-11         0.00000E+00
    0.64823E-08         0.22415E-11         0.00000E+00
    0.65107E-08         0.22199E-11         0.00000E+00
    0.65453E-08         0.21264E-11         0.00000E+00
    0.65861E-08         0.19909E-11         0.00000E+00
    0.66333E-08         0.18339E-11         0.00000E+00
    0.66867E-08         0.16693E-11         0.00000E+00
    0.67465E-08         0.15059E-11         0.00000E+00
    0.68126E-08         0.13491E-11         0.00000E+00
    0.68850E-08         0.12017E-11         0.00000E+00
    0.69638E-08         0.10649E-11         0.00000E+00
    0.70489E-08         0.93898E-12         0.00000E+00
    0.71402E-08         0.82341E-12         0.00000E+00
    0.72379E-08         0.71736E-12         0.00000E+00
    0.73419E-08         0.61982E-12         0.00000E+00
    0.74522E-08         0.52970E-12         0.00000E+00
    0.75687E-08         0.44596E-12         0.00000E+00
    0.76916E-08         0.36759E-12         0.00000E+00
    0.78206E-08         0.29370E-12         0.00000E+00
    0.79559E-08         0.22349E-12         0.00000E+00
    0.80975E-08         0.15623E-12         0.00000E+00
    0.82452E-08         0.91319E-13         0.00000E+00
    0.83991E-08         0.28205E-13         0.00000E+00
    0.85593E-08        -0.33575E-13         0.00000E+00
    0.87255E-08        -0.94426E-13         0.00000E+00
    0.88979E-08        -0.15470E-12         0.00000E+00
    0.90763E-08        -0.21469E-12         0.00000E+00
    0.92608E-08        -0.27467E-12         0.00000E+00
    0.94513E-08        -0.33487E-12         0.00000E+00
    0.96478E-08        -0.39547E-12         0.00000E+00
    0.98502E-08        -0.45666E-12         0.00000E+00
    0.10059E-07        -0.51858E-12         0.00000E+00
    0.10273E-07        -0.58136E-12         0.00000E+00
    0.10492E-07        -0.64509E-12         0.00000E+00
    0.10718E-07        -0.70986E-12         0.00000E+00
    0.10949E-07        -0.77573E-12         0.00000E+00
    0.11186E-07        -0.84276E-12         0.00000E+00
    0.11428E-07        -0.91097E-12         0.00000E+00
    0.11675E-07        -0.98037E-12         0.00000E+00
    0.11928E-07        -0.10510E-11         0.00000E+00
    0.12185E-07        -0.11227E-11         0.00000E+00
    0.12448E-07        -0.11955E-11         0.00000E+00
    0.12715E-07        -0.12694E-11         0.00000E+00
    0.12987E-07        -0.13442E-11         0.00000E+00
    0.13264E-07        -0.14198E-11         0.00000E+00
    0.13545E-07        -0.14961E-11         0.00000E+00
    0.13830E-07        -0.15730E-11         0.00000E+00
    0.14119E-07        -0.16502E-11         0.00000E+00
    0.14411E-07        -0.17276E-11         0.00000E+00
    0.14708E-07        -0.18049E-11         0.00000E+00
    0.15007E-07        -0.18819E-11         0.00000E+00
    0.15310E-07        -0.19583E-11         0.00000E+00
    0.15615E-07        -0.20337E-11         0.00000E+00
    0.15923E-07        -0.21079E-11         0.00000E+00
    0.16234E-07        -0.21804E-11         0.00000E+00
    0.16546E-07        -0.22509E-11         0.00000E+00
    0.16860E-07        -0.23188E-11         0.00000E+00
    0.17175E-07        -0.23839E-11         0.00000E+00
    0.17491E-07        -0.24455E-11         0.00000E+00
    0.17807E-07        -0.25031E-11         0.00000E+00
    0.18124E-07        -0.25561E-11         0.00000E+00
    0.18441E-07        -0.26040E-11         0.00000E+00
    0.18757E-07        -0.26460E-11         0.00000E+00
    0.19072E-07        -0.26815E-11         0.00000E+00
    0.19385E-07        -0.27098E-11         0.00000E+00
    0.19697E-07        -0.27300E-11         0.00000E+00
    0.20007E-07        -0.27413E-11         0.00000E+00
    0.20313E-07        -0.27428E-11         0.00000E+00
    0.20616E-07        -0.27335E-11         0.00000E+00
    0.20916E-07        -0.27125E-11         0.00000E+00
    0.21211E-07        -0.26786E-11         0.00000E+00
    0.21502E-07        -0.26305E-11         0.00000E+00
    0.21787E-07        -0.25669E-11         0.00000E+00
    0.22066E-07        -0.24864E-11         0.00000E+00
    0.22338E-07        -0.23874E-11         0.00000E+00
    0.22604E-07        -0.22680E-11         0.00000E+00
    0.22862E-07        -0.21263E-11         0.00000E+00
    0.23113E-07        -0.19602E-11         0.00000E+00
    0.23354E-07        -0.17673E-11         0.00000E+00
    0.23587E-07        -0.15451E-11         0.00000E+00
    0.23809E-07        -0.12911E-11         0.00000E+00
    0.24022E-07        -0.10027E-11         0.00000E+00
    0.24223E-07        -0.67740E-12         0.00000E+00
    0.24414E-07        -0.31343E-12         0.00000E+00
    0.24592E-07         0.90233E-13         0.00000E+00
    0.24759E-07         0.53299E-12         0.00000E+00
    0.24913E-07         0.10118E-11         0.00000E+00
    0.25053E-07         0.15198E-11         0.00000E+00
    0.25180E-07         0.20446E-11         0.00000E+00
    0.25293E-07         0.25660E-11         0.00000E+00
    0.25392E-07         0.30529E-11         0.00000E+00
    0.25477E-07         0.34591E-11         0.00000E+00
    0.25547E-07         0.37190E-11         0.00000E+00
    0.25603E-07         0.37412E-11         0.00000E+00
    0.25644E-07         0.34016E-11         0.00000E+00
    0.25670E-07         0.25406E-11         0.00000E+00
    0.25681E-07         0.97879E-12         0.00000E+00
    0.64304E-08         0.53713E-12         0.00000E+00
    0.64343E-08         0.14172E-11         0.00000E+00
    0.64442E-08         0.19534E-11         0.00000E+00
    0.64602E-08         0.22327E-11         0.00000E+00
    0.64823E-08         0.23317E-11         0.00000E+00
    0.65107E-08         0.23105E-11         0.00000E+00
    0.65452E-08         0.22133E-11         0.00000E+00
    0.65861E-08         0.20716E-11         0.00000E+00
    0.66332E-08         0.19074E-11         0.00000E+00
    0.66867E-08         0.17351E-11         0.00000E+00
    0.67465E-08         0.15641E-11         0.00000E+00
    0.68126E-08         0.14002E-11         0.00000E+00
    0.68850E-08         0.12462E-11         0.00000E+00
    0.69638E-08         0.11036E-11         0.00000E+00
    0.70488E-08         0.97234E-12         0.00000E+00
    0.71402E-08         0.85207E-12         0.00000E+00
    0.72379E-08         0.74184E-12         0.00000E+00
    0.73419E-08         0.64055E-12         0.00000E+00
    0.74522E-08         0.54706E-12         0.00000E+00
    0.75687E-08         0.46026E-12         0.00000E+00
    0.76915E-08         0.37908E-12         0.00000E+00
    0.78206E-08         0.30258E-12         0.00000E+00
    0.79559E-08         0.22991E-12         0.00000E+00
    0.80975E-08         0.16031E-12         0.00000E+00
    0.82452E-08         0.93138E-13         0.00000E+00
    0.83991E-08         0.27823E-13         0.00000E+00
    0.85592E-08        -0.36121E-13         0.00000E+00
    0.87255E-08        -0.99117E-13         0.00000E+00
    0.88978E-08        -0.16153E-12         0.00000E+00
    0.90763E-08        -0.22367E-12         0.00000E+00
    0.92608E-08        -0.28582E-12         0.00000E+00
    0.94513E-08        -0.34821E-12         0.00000E+00
    0.96478E-08        -0.41104E-12         0.00000E+00
    0.98502E-08        -0.47450E-12         0.00000E+00
    0.10058E-07        -0.53873E-12         0.00000E+00
    0.10273E-07        -0.60387E-12         0.00000E+00
    0.10492E-07        -0.67002E-12         0.00000E+00
    0.10718E-07        -0.73726E-12         0.00000E+00
    0.10949E-07        -0.80566E-12         0.00000E+00
    0.11186E-07        -0.87528E-12         0.00000E+00
    0.11428E-07        -0.94614E-12         0.00000E+00
    0.11675E-07        -0.10182E-11         0.00000E+00
    0.11928E-07        -0.10916E-11         0.00000E+00
    0.12185E-07        -0.11661E-11         0.00000E+00
    0.12448E-07        -0.12419E-11         0.00000E+00
    0.12715E-07        -0.13187E-11         0.00000E+00
    0.12987E-07        -0.13964E-11         0.00000E+00
    0.13264E-07        -0.14751E-11         0.00000E+00
    0.13545E-07        -0.15545E-11         0.00000E+00
    0.13830E-07        -0.16345E-11         0.00000E+00
    0.14119E-07        -0.17149E-11         0.00000E+00
    0.14411E-07        -0.17954E-11         0.00000E+00
    0.14708E-07        -0.18759E-11         0.00000E+00
    0.15007E-07        -0.19561E-11         0.00000E+00
    0.15310E-07        -0.20356E-11         0.00000E+00
    0.15615E-07        -0.21142E-11         0.00000E+00
    0.15923E-07        -0.21915E-11         0.00000E+00
    0.16234E-07        -0.22671E-11         0.00000E+00
    0.16546E-07        -0.23406E-11         0.00000E+00
    0.16860E-07        -0.24115E-11         0.00000E+00
    0.17175E-07        -0.24794E-11         0.00000E+00
    0.17491E-07        -0.25438E-11         0.00000E+00
    0.17807E-07        -0.26040E-11         0.00000E+00
    0.18124E-07        -0.26595E-11         0.00000E+00
    0.18441E-07        -0.27096E-11         0.00000E+00
    0.18757E-07        -0.27537E-11         0.00000E+00
    0.19072E-07        -0.27910E-11         0.00000E+00
    0.19385E-07        -0.28209E-11         0.00000E+00
    0.19697E-07        -0.28424E-11         0.00000E+00
    0.20007E-07        -0.28546E-11         0.00000E+00
    0.20313E-07        -0.28568E-11         0.00000E+00
    0.20616E-07        -0.28478E-11         0.00000E+00
    0.20916E-07        -0.28265E-11         0.00000E+00
    0.21211E-07        -0.27919E-11         0.00000E+00
    0.21502E-07        -0.27426E-11         0.00000E+00
    0.21787E-07        -0.26772E-11         0.00000E+00
    0.22066E-07        -0.25942E-11         0.00000E+00
    0.22338E-07        -0.24919E-11         0.00000E+00
    0.22604E-07        -0.23685E-11         0.00000E+00
    0.22862E-07        -0.22218E-11         0.00000E+00
    0.23113E-07        -0.20496E-11         0.00000E+00
    0.23354E-07        -0.18494E-11         0.00000E+00
    0.23587E-07        -0.16186E-11         0.00000E+00
    0.23809E-07        -0.13545E-11         0.00000E+00
    0.24022E-07        -0.10542E-11         0.00000E+00
    0.24223E-07        -0.71525E-12         0.00000E+00
    0.24414E-07        -0.33561E-12         0.00000E+00
    0.24593E-07         0.85837E-13         0.00000E+00
    0.24759E-07         0.54851E-12         0.00000E+00
    0.24913E-07         0.10492E-11         0.00000E+00
    0.25053E-07         0.15808E-11         0.00000E+00
    0.25180E-07         0.21301E-11         0.00000E+00
    0.25293E-07         0.26758E-11         0.00000E+00
    0.25393E-07         0.31847E-11         0.00000E+00
    0.25477E-07         0.36081E-11         0.00000E+00
    0.25547E-07         0.38763E-11         0.00000E+00
    0.25603E-07         0.38930E-11         0.00000E+00
    0.25644E-07         0.35299E-11         0.00000E+00
    0.25670E-07         0.26265E-11         0.00000E+00
    0.25681E-07         0.10090E-11         0.00000E+00
    0.64306E-08         0.55173E-12         0.00000E+00
    0.64344E-08         0.14589E-11         0.00000E+00
    0.64443E-08         0.20164E-11         0.00000E+00
    0.64602E-08         0.23090E-11         0.00000E+00
    0.64823E-08         0.24140E-11         0.00000E+00
    0.65107E-08         0.23930E-11         0.00000E+00
    0.65452E-08         0.22923E-11         0.00000E+00
    0.65860E-08         0.21448E-11         0.00000E+00
    0.66332E-08         0.19736E-11         0.00000E+00
    0.66866E-08         0.17942E-11         0.00000E+00
    0.67464E-08         0.16162E-11         0.00000E+00
    0.68125E-08         0.14457E-11         0.00000E+00
    0.68850E-08         0.12857E-11         0.00000E+00
    0.69637E-08         0.11377E-11         0.00000E+00
    0.70488E-08         0.10017E-11         0.00000E+00
    0.71402E-08         0.87716E-12         0.00000E+00
    0.72379E-08         0.76316E-12         0.00000E+00
    0.73419E-08         0.65853E-12         0.00000E+00
    0.74522E-08         0.56206E-12         0.00000E+00
    0.75687E-08         0.47254E-12         0.00000E+00
    0.76915E-08         0.38889E-12         0.00000E+00
    0.78206E-08         0.31009E-12         0.00000E+00
    0.79559E-08         0.23526E-12         0.00000E+00
    0.80974E-08         0.16360E-12         0.00000E+00
    0.82452E-08         0.94448E-13         0.00000E+00
    0.83991E-08         0.27200E-13         0.00000E+00
    0.85592E-08        -0.38648E-13         0.00000E+00
    0.87255E-08        -0.10353E-12         0.00000E+00
    0.88978E-08        -0.16783E-12         0.00000E+00
    0.90763E-08        -0.23188E-12         0.00000E+00
    0.92608E-08        -0.29595E-12         0.00000E+00
    0.94513E-08        -0.36028E-12         0.00000E+00
    0.96478E-08        -0.42510E-12         0.00000E+00
    0.98502E-08        -0.49058E-12         0.00000E+00
    0.10058E-07        -0.55688E-12         0.00000E+00
    0.10273E-07        -0.62412E-12         0.00000E+00
    0.10492E-07        -0.69243E-12         0.00000E+00
    0.10718E-07        -0.76189E-12         0.00000E+00
    0.10949E-07        -0.83256E-12         0.00000E+00
    0.11186E-07        -0.90451E-12         0.00000E+00
    0.11428E-07        -0.97775E-12         0.00000E+00
    0.11675E-07        -0.10523E-11         0.00000E+00
    0.11927E-07        -0.11281E-11         0.00000E+00
    0.12185E-07        -0.12052E-11         0.00000E+00
    0.12448E-07        -0.12836E-11         0.00000E+00
    0.12715E-07        -0.13630E-11         0.00000E+00
    0.12987E-07        -0.14435E-11         0.00000E+00
    0.13264E-07        -0.15249E-11         0.00000E+00
    0.13545E-07        -0.16071E-11         0.00000E+00
    0.13830E-07        -0.16899E-11         0.00000E+00
    0.14119E-07        -0.17732E-11         0.00000E+00
    0.14411E-07        -0.18566E-11         0.00000E+00
    0.14708E-07        -0.19400E-11         0.00000E+00
    0.15007E-07        -0.20230E-11         0.00000E+00
    0.15310E-07        -0.21055E-11         0.00000E+00
    0.15615E-07        -0.21869E-11         0.00000E+00
    0.15923E-07        -0.22671E-11         0.00000E+00
    0.16234E-07        -0.23455E-11         0.00000E+00
    0.16546E-07        -0.24218E-11         0.00000E+00
    0.16860E-07        -0.24954E-11         0.00000E+00
    0.17175E-07        -0.25659E-11         0.00000E+00
    0.17491E-07        -0.26328E-11         0.00000E+00
    0.17807E-07        -0.26954E-11         0.00000E+00
    0.18124E-07        -0.27532E-11         0.00000E+00
    0.18441E-07        -0.28054E-11         0.00000E+00
    0.18757E-07        -0.28515E-11         0.00000E+00
    0.19072E-07        -0.28906E-11         0.00000E+00
    0.19385E-07        -0.29219E-11         0.00000E+00
    0.19697E-07        -0.29447E-11         0.00000E+00
    0.20007E-07        -0.29579E-11         0.00000E+00
    0.20313E-07        -0.29607E-11         0.00000E+00
    0.20616E-07        -0.29520E-11         0.00000E+00
    0.20916E-07        -0.29307E-11         0.00000E+00
    0.21211E-07        -0.28956E-11         0.00000E+00
    0.21502E-07        -0.28453E-11         0.00000E+00
    0.21787E-07        -0.27784E-11         0.00000E+00
    0.22066E-07        -0.26933E-11         0.00000E+00
    0.22338E-07        -0.25882E-11         0.00000E+00
    0.22604E-07        -0.24612E-11         0.00000E+00
    0.22862E-07        -0.23101E-11         0.00000E+00
    0.23113E-07        -0.21325E-11         0.00000E+00
    0.23354E-07        -0.19259E-11         0.00000E+00
    0.23587E-07        -0.16874E-11         0.00000E+00
    0.23809E-07        -0.14141E-11         0.00000E+00
    0.24022E-07        -0.11031E-11         0.00000E+00
    0.24224E-07        -0.75177E-12         0.00000E+00
    0.24414E-07        -0.35781E-12         0.00000E+00
    0.24593E-07         0.79937E-13         0.00000E+00
    0.24759E-07         0.56094E-12         0.00000E+00
    0.24913E-07         0.10819E-11         0.00000E+00
    0.25053E-07         0.16353E-11         0.00000E+00
    0.25180E-07         0.22075E-11         0.00000E+00
    0.25294E-07         0.27758E-11         0.00000E+00
    0.25393E-07         0.33055E-11         0.00000E+00
    0.25477E-07         0.37451E-11         0.00000E+00
    0.25547E-07         0.40212E-11         0.00000E+00
    0.25603E-07         0.40331E-11         0.00000E+00
    0.25643E-07         0.36487E-11         0.00000E+00
    0.25669E-07         0.27066E-11         0.00000E+00
    0.25681E-07         0.10372E-11         0.00000E+00
    0.64309E-08         0.56518E-12         0.00000E+00
    0.64346E-08         0.14971E-11         0.00000E+00
    0.64444E-08         0.20737E-11         0.00000E+00
    0.64603E-08         0.23783E-11         0.00000E+00
    0.64824E-08         0.24885E-11         0.00000E+00
    0.65106E-08         0.24675E-11         0.00000E+00
    0.65452E-08         0.23632E-11         0.00000E+00
    0.65860E-08         0.22103E-11         0.00000E+00
    0.66331E-08         0.20327E-11         0.00000E+00
    0.66866E-08         0.18466E-11         0.00000E+00
    0.67464E-08         0.16622E-11         0.00000E+00
    0.68125E-08         0.14857E-11         0.00000E+00
    0.68849E-08         0.13202E-11         0.00000E+00
    0.69637E-08         0.11673E-11         0.00000E+00
    0.70488E-08         0.10270E-11         0.00000E+00
    0.71402E-08         0.89869E-12         0.00000E+00
    0.72379E-08         0.78137E-12         0.00000E+00
    0.73419E-08         0.67380E-12         0.00000E+00
    0.74521E-08         0.57470E-12         0.00000E+00
    0.75687E-08         0.48283E-12         0.00000E+00
    0.76915E-08         0.39703E-12         0.00000E+00
    0.78206E-08         0.31625E-12         0.00000E+00
    0.79559E-08         0.23956E-12         0.00000E+00
    0.80974E-08         0.16613E-12         0.00000E+00
    0.82452E-08         0.95265E-13         0.00000E+00
    0.83991E-08         0.26350E-13         0.00000E+00
    0.85592E-08        -0.41142E-13         0.00000E+00
    0.87255E-08        -0.10766E-12         0.00000E+00
    0.88978E-08        -0.17360E-12         0.00000E+00
    0.90763E-08        -0.23930E-12         0.00000E+00
    0.92608E-08        -0.30505E-12         0.00000E+00
    0.94513E-08        -0.37109E-12         0.00000E+00
    0.96478E-08        -0.43764E-12         0.00000E+00
    0.98502E-08        -0.50489E-12         0.00000E+00
    0.10058E-07        -0.57301E-12         0.00000E+00
    0.10273E-07        -0.64212E-12         0.00000E+00
    0.10492E-07        -0.71233E-12         0.00000E+00
    0.10718E-07        -0.78375E-12         0.00000E+00
    0.10949E-07        -0.85644E-12         0.00000E+00
    0.11186E-07        -0.93044E-12         0.00000E+00
    0.11428E-07        -0.10058E-11         0.00000E+00
    0.11675E-07        -0.10825E-11         0.00000E+00
    0.11927E-07        -0.11606E-11         0.00000E+00
    0.12185E-07        -0.12400E-11         0.00000E+00
    0.12448E-07        -0.13206E-11         0.00000E+00
    0.12715E-07        -0.14024E-11         0.00000E+00
    0.12987E-07        -0.14853E-11         0.00000E+00
    0.13264E-07        -0.15692E-11         0.00000E+00
    0.13545E-07        -0.16539E-11         0.00000E+00
    0.13830E-07        -0.17393E-11         0.00000E+00
    0.14119E-07        -0.18251E-11         0.00000E+00
    0.14411E-07        -0.19111E-11         0.00000E+00
    0.14708E-07        -0.19971E-11         0.00000E+00
    0.15007E-07        -0.20827E-11         0.00000E+00
    0.15310E-07        -0.21678E-11         0.00000E+00
    0.15615E-07        -0.22519E-11         0.00000E+00
    0.15923E-07        -0.23346E-11         0.00000E+00
    0.16234E-07        -0.24156E-11         0.00000E+00
    0.16546E-07        -0.24944E-11         0.00000E+00
    0.16860E-07        -0.25705E-11         0.00000E+00
    0.17175E-07        -0.26434E-11         0.00000E+00
    0.17491E-07        -0.27126E-11         0.00000E+00
    0.17807E-07        -0.27774E-11         0.00000E+00
    0.18124E-07        -0.28373E-11         0.00000E+00
    0.18441E-07        -0.28915E-11         0.00000E+00
    0.18757E-07        -0.29393E-11         0.00000E+00
    0.19072E-07        -0.29801E-11         0.00000E+00
    0.19385E-07        -0.30129E-11         0.00000E+00
    0.19697E-07        -0.30368E-11         0.00000E+00
    0.20007E-07        -0.30511E-11         0.00000E+00
    0.20313E-07        -0.30546E-11         0.00000E+00
    0.20616E-07        -0.30463E-11         0.00000E+00
    0.20916E-07        -0.30250E-11         0.00000E+00
    0.21211E-07        -0.29895E-11         0.00000E+00
    0.21502E-07        -0.29385E-11         0.00000E+00
    0.21787E-07        -0.28704E-11         0.00000E+00
    0.22066E-07        -0.27835E-11         0.00000E+00
    0.22338E-07        -0.26761E-11         0.00000E+00
    0.22604E-07        -0.25461E-11         0.00000E+00
    0.22863E-07        -0.23911E-11         0.00000E+00
    0.23113E-07        -0.22089E-11         0.00000E+00
    0.23354E-07        -0.19966E-11         0.00000E+00
    0.23587E-07        -0.17513E-11         0.00000E+00
    0.23809E-07        -0.14699E-11         0.00000E+00
    0.24022E-07        -0.11494E-11         0.00000E+00
    0.24224E-07        -0.78688E-12         0.00000E+00
    0.24414E-07        -0.38000E-12         0.00000E+00
    0.24593E-07         0.72550E-13         0.00000E+00
    0.24759E-07         0.57027E-12         0.00000E+00
    0.24913E-07         0.11098E-11         0.00000E+00
    0.25053E-07         0.16833E-11         0.00000E+00
    0.25180E-07         0.22766E-11         0.00000E+00
    0.25294E-07         0.28660E-11         0.00000E+00
    0.25393E-07         0.34151E-11         0.00000E+00
    0.25477E-07         0.38700E-11         0.00000E+00
    0.25547E-07         0.41538E-11         0.00000E+00
    0.25603E-07         0.41619E-11         0.00000E+00
    0.25643E-07         0.37584E-11         0.00000E+00
    0.25669E-07         0.27811E-11         0.00000E+00
    0.25680E-07         0.10638E-11         0.00000E+00
    0.64311E-08         0.57755E-12         0.00000E+00
    0.64347E-08         0.15320E-11         0.00000E+00
    0.64445E-08         0.21256E-11         0.00000E+00
    0.64603E-08         0.24407E-11         0.00000E+00
    0.64824E-08         0.25552E-11         0.00000E+00
    0.65106E-08         0.25339E-11         0.00000E+00
    0.65452E-08         0.24261E-11         0.00000E+00
    0.65860E-08         0.22680E-11         0.00000E+00
    0.66331E-08         0.20845E-11         0.00000E+00
    0.66866E-08         0.18923E-11         0.00000E+00
    0.67464E-08         0.17020E-11         0.00000E+00
    0.68125E-08         0.15200E-11         0.00000E+00
    0.68849E-08         0.13497E-11         0.00000E+00
    0.69637E-08         0.11924E-11         0.00000E+00
    0.70488E-08         0.10483E-11         0.00000E+00
    0.71402E-08         0.91669E-12         0.00000E+00
    0.72379E-08         0.79647E-12         0.00000E+00
    0.73418E-08         0.68637E-12         0.00000E+00
    0.74521E-08         0.58503E-12         0.00000E+00
    0.75687E-08         0.49116E-12         0.00000E+00
    0.76915E-08         0.40354E-12         0.00000E+00
    0.78206E-08         0.32108E-12         0.00000E+00
    0.79559E-08         0.24282E-12         0.00000E+00
    0.80974E-08         0.16791E-12         0.00000E+00
    0.82452E-08         0.95608E-13         0.00000E+00
    0.83991E-08         0.25289E-13         0.00000E+00
    0.85592E-08        -0.43591E-13         0.00000E+00
    0.87254E-08        -0.11150E-12         0.00000E+00
    0.88978E-08        -0.17883E-12         0.00000E+00
    0.90763E-08        -0.24594E-12         0.00000E+00
    0.92608E-08        -0.31311E-12         0.00000E+00
    0.94513E-08        -0.38061E-12         0.00000E+00
    0.96478E-08        -0.44866E-12         0.00000E+00
    0.98502E-08        -0.51744E-12         0.00000E+00
    0.10058E-07        -0.58713E-12         0.00000E+00
    0.10273E-07        -0.65785E-12         0.00000E+00
    0.10492E-07        -0.72972E-12         0.00000E+00
    0.10718E-07        -0.80284E-12         0.00000E+00
    0.10949E-07        -0.87728E-12         0.00000E+00
    0.11186E-07        -0.95309E-12         0.00000E+00
    0.11428E-07        -0.10303E-11         0.00000E+00
    0.11675E-07        -0.11089E-11         0.00000E+00
    0.11927E-07        -0.11889E-11         0.00000E+00
    0.12185E-07        -0.12703E-11         0.00000E+00
    0.12448E-07        -0.13530E-11         0.00000E+00
    0.12715E-07        -0.14369E-11         0.00000E+00
    0.12987E-07        -0.15220E-11         0.00000E+00
    0.13264E-07        -0.16080E-11         0.00000E+00
    0.13545E-07        -0.16949E-11         0.00000E+00
    0.13830E-07        -0.17825E-11         0.00000E+00
    0.14119E-07        -0.18706E-11         0.00000E+00
    0.14411E-07        -0.19589E-11         0.00000E+00
    0.14708E-07        -0.20472E-11         0.00000E+00
    0.15007E-07        -0.21352E-11         0.00000E+00
    0.15310E-07        -0.22226E-11         0.00000E+00
    0.15615E-07        -0.23090E-11         0.00000E+00
    0.15923E-07        -0.23940E-11         0.00000E+00
    0.16234E-07        -0.24773E-11         0.00000E+00
    0.16546E-07        -0.25584E-11         0.00000E+00
    0.16860E-07        -0.26367E-11         0.00000E+00
    0.17175E-07        -0.27118E-11         0.00000E+00
    0.17491E-07        -0.27830E-11         0.00000E+00
    0.17807E-07        -0.28499E-11         0.00000E+00
    0.18124E-07        -0.29117E-11         0.00000E+00
    0.18441E-07        -0.29677E-11         0.00000E+00
    0.18757E-07        -0.30172E-11         0.00000E+00
    0.19072E-07        -0.30595E-11         0.00000E+00
    0.19385E-07        -0.30936E-11         0.00000E+00
    0.19697E-07        -0.31188E-11         0.00000E+00
    0.20007E-07        -0.31340E-11         0.00000E+00
    0.20313E-07        -0.31382E-11         0.00000E+00
    0.20616E-07        -0.31304E-11         0.00000E+00
    0.20916E-07        -0.31093E-11         0.00000E+00
    0.21211E-07        -0.30737E-11         0.00000E+00
    0.21502E-07        -0.30221E-11         0.00000E+00
    0.21787E-07        -0.29531E-11         0.00000E+00
    0.22066E-07        -0.28648E-11         0.00000E+00
    0.22339E-07        -0.27555E-11         0.00000E+00
    0.22604E-07        -0.26229E-11         0.00000E+00
    0.22863E-07        -0.24648E-11         0.00000E+00
    0.23113E-07        -0.22786E-11         0.00000E+00
    0.23354E-07        -0.20614E-11         0.00000E+00
    0.23587E-07        -0.18102E-11         0.00000E+00
    0.23810E-07        -0.15218E-11         0.00000E+00
    0.24022E-07        -0.11929E-11         0.00000E+00
    0.24224E-07        -0.82049E-12         0.00000E+00
    0.24414E-07        -0.40210E-12         0.00000E+00
    0.24593E-07         0.63706E-13         0.00000E+00
    0.24759E-07         0.57650E-12         0.00000E+00
    0.24913E-07         0.11328E-11         0.00000E+00
    0.25054E-07         0.17247E-11         0.00000E+00
    0.25181E-07         0.23373E-11         0.00000E+00
    0.25294E-07         0.29462E-11         0.00000E+00
    0.25393E-07         0.35134E-11         0.00000E+00
    0.25477E-07         0.39827E-11         0.00000E+00
    0.25547E-07         0.42742E-11         0.00000E+00
    0.25603E-07         0.42795E-11         0.00000E+00
    0.25643E-07         0.38594E-11         0.00000E+00
    0.25669E-07         0.28504E-11         0.00000E+00
    0.25680E-07         0.10886E-11         0.00000E+00
    0.64313E-08         0.58888E-12         0.00000E+00
    0.64349E-08         0.15636E-11         0.00000E+00
    0.64446E-08         0.21722E-11         0.00000E+00
    0.64604E-08         0.24962E-11         0.00000E+00
    0.64824E-08         0.26142E-11         0.00000E+00
    0.65106E-08         0.25921E-11         0.00000E+00
    0.65451E-08         0.24810E-11         0.00000E+00
    0.65859E-08         0.23180E-11         0.00000E+00
    0.66331E-08         0.21290E-11         0.00000E+00
    0.66865E-08         0.19312E-11         0.00000E+00
    0.67463E-08         0.17356E-11         0.00000E+00
    0.68124E-08         0.15488E-11         0.00000E+00
    0.68849E-08         0.13741E-11         0.00000E+00
    0.69636E-08         0.12131E-11         0.00000E+00
    0.70487E-08         0.10657E-11         0.00000E+00
    0.71401E-08         0.93119E-12         0.00000E+00
    0.72378E-08         0.80851E-12         0.00000E+00
    0.73418E-08         0.69627E-12         0.00000E+00
    0.74521E-08         0.59307E-12         0.00000E+00
    0.75687E-08         0.49754E-12         0.00000E+00
    0.76915E-08         0.40844E-12         0.00000E+00
    0.78206E-08         0.32462E-12         0.00000E+00
    0.79559E-08         0.24508E-12         0.00000E+00
    0.80974E-08         0.16896E-12         0.00000E+00
    0.82451E-08         0.95494E-13         0.00000E+00
    0.83991E-08         0.24032E-13         0.00000E+00
    0.85592E-08        -0.45982E-13         0.00000E+00
    0.87254E-08        -0.11502E-12         0.00000E+00
    0.88978E-08        -0.18350E-12         0.00000E+00
    0.90762E-08        -0.25178E-12         0.00000E+00
    0.92608E-08        -0.32014E-12         0.00000E+00
    0.94513E-08        -0.38886E-12         0.00000E+00
    0.96478E-08        -0.45815E-12         0.00000E+00
    0.98502E-08        -0.52822E-12         0.00000E+00
    0.10058E-07        -0.59923E-12         0.00000E+00
    0.10273E-07        -0.67132E-12         0.00000E+00
    0.10492E-07        -0.74460E-12         0.00000E+00
    0.10718E-07        -0.81917E-12         0.00000E+00
    0.10949E-07        -0.89511E-12         0.00000E+00
    0.11186E-07        -0.97245E-12         0.00000E+00
    0.11428E-07        -0.10512E-11         0.00000E+00
    0.11675E-07        -0.11315E-11         0.00000E+00
    0.11927E-07        -0.12132E-11         0.00000E+00
    0.12185E-07        -0.12963E-11         0.00000E+00
    0.12448E-07        -0.13807E-11         0.00000E+00
    0.12715E-07        -0.14664E-11         0.00000E+00
    0.12987E-07        -0.15533E-11         0.00000E+00
    0.13264E-07        -0.16413E-11         0.00000E+00
    0.13545E-07        -0.17301E-11         0.00000E+00
    0.13830E-07        -0.18197E-11         0.00000E+00
    0.14119E-07        -0.19097E-11         0.00000E+00
    0.14411E-07        -0.20000E-11         0.00000E+00
    0.14708E-07        -0.20903E-11         0.00000E+00
    0.15007E-07        -0.21804E-11         0.00000E+00
    0.15310E-07        -0.22698E-11         0.00000E+00
    0.15615E-07        -0.23583E-11         0.00000E+00
    0.15923E-07        -0.24454E-11         0.00000E+00
    0.16234E-07        -0.25307E-11         0.00000E+00
    0.16546E-07        -0.26137E-11         0.00000E+00
    0.16860E-07        -0.26940E-11         0.00000E+00
    0.17175E-07        -0.27710E-11         0.00000E+00
    0.17491E-07        -0.28441E-11         0.00000E+00
    0.17807E-07        -0.29128E-11         0.00000E+00
    0.18124E-07        -0.29763E-11         0.00000E+00
    0.18441E-07        -0.30340E-11         0.00000E+00
    0.18757E-07        -0.30850E-11         0.00000E+00
    0.19072E-07        -0.31287E-11         0.00000E+00
    0.19385E-07        -0.31641E-11         0.00000E+00
    0.19697E-07        -0.31904E-11         0.00000E+00
    0.20007E-07        -0.32066E-11         0.00000E+00
    0.20313E-07        -0.32116E-11         0.00000E+00
    0.20617E-07        -0.32043E-11         0.00000E+00
    0.20916E-07        -0.31835E-11         0.00000E+00
    0.21211E-07        -0.31479E-11         0.00000E+00
    0.21502E-07        -0.30961E-11         0.00000E+00
    0.21787E-07        -0.30264E-11         0.00000E+00
    0.22066E-07        -0.29371E-11         0.00000E+00
    0.22339E-07        -0.28263E-11         0.00000E+00
    0.22604E-07        -0.26917E-11         0.00000E+00
    0.22863E-07        -0.25310E-11         0.00000E+00
    0.23113E-07        -0.23415E-11         0.00000E+00
    0.23354E-07        -0.21203E-11         0.00000E+00
    0.23587E-07        -0.18641E-11         0.00000E+00
    0.23810E-07        -0.15696E-11         0.00000E+00
    0.24022E-07        -0.12335E-11         0.00000E+00
    0.24224E-07        -0.85252E-12         0.00000E+00
    0.24414E-07        -0.42406E-12         0.00000E+00
    0.24593E-07         0.53445E-13         0.00000E+00
    0.24759E-07         0.57962E-12         0.00000E+00
    0.24913E-07         0.11510E-11         0.00000E+00
    0.25054E-07         0.17594E-11         0.00000E+00
    0.25181E-07         0.23896E-11         0.00000E+00
    0.25294E-07         0.30163E-11         0.00000E+00
    0.25393E-07         0.36003E-11         0.00000E+00
    0.25478E-07         0.40831E-11         0.00000E+00
    0.25547E-07         0.43824E-11         0.00000E+00
    0.25603E-07         0.43861E-11         0.00000E+00
    0.25643E-07         0.39517E-11         0.00000E+00
    0.25669E-07         0.29146E-11         0.00000E+00
    0.25679E-07         0.11119E-11         0.00000E+00
    0.64316E-08         0.59920E-12         0.00000E+00
    0.64350E-08         0.15921E-11         0.00000E+00
    0.64446E-08         0.22136E-11         0.00000E+00
    0.64604E-08         0.25450E-11         0.00000E+00
    0.64824E-08         0.26654E-11         0.00000E+00
    0.65106E-08         0.26423E-11         0.00000E+00
    0.65451E-08         0.25278E-11         0.00000E+00
    0.65859E-08         0.23602E-11         0.00000E+00
    0.66330E-08         0.21662E-11         0.00000E+00
    0.66865E-08         0.19634E-11         0.00000E+00
    0.67463E-08         0.17631E-11         0.00000E+00
    0.68124E-08         0.15720E-11         0.00000E+00
    0.68848E-08         0.13936E-11         0.00000E+00
    0.69636E-08         0.12293E-11         0.00000E+00
    0.70487E-08         0.10791E-11         0.00000E+00
    0.71401E-08         0.94221E-12         0.00000E+00
    0.72378E-08         0.81751E-12         0.00000E+00
    0.73418E-08         0.70355E-12         0.00000E+00
    0.74521E-08         0.59885E-12         0.00000E+00
    0.75686E-08         0.50202E-12         0.00000E+00
    0.76915E-08         0.41175E-12         0.00000E+00
    0.78205E-08         0.32688E-12         0.00000E+00
    0.79558E-08         0.24636E-12         0.00000E+00
    0.80974E-08         0.16931E-12         0.00000E+00
    0.82451E-08         0.94942E-13         0.00000E+00
    0.83991E-08         0.22595E-13         0.00000E+00
    0.85592E-08        -0.48301E-13         0.00000E+00
    0.87254E-08        -0.11823E-12         0.00000E+00
    0.88978E-08        -0.18762E-12         0.00000E+00
    0.90762E-08        -0.25681E-12         0.00000E+00
    0.92607E-08        -0.32612E-12         0.00000E+00
    0.94513E-08        -0.39582E-12         0.00000E+00
    0.96477E-08        -0.46613E-12         0.00000E+00
    0.98501E-08        -0.53724E-12         0.00000E+00
    0.10058E-07        -0.60933E-12         0.00000E+00
    0.10273E-07        -0.68253E-12         0.00000E+00
    0.10492E-07        -0.75697E-12         0.00000E+00
    0.10718E-07        -0.83274E-12         0.00000E+00
    0.10949E-07        -0.90991E-12         0.00000E+00
    0.11186E-07        -0.98853E-12         0.00000E+00
    0.11428E-07        -0.10686E-11         0.00000E+00
    0.11675E-07        -0.11502E-11         0.00000E+00
    0.11927E-07        -0.12333E-11         0.00000E+00
    0.12185E-07        -0.13179E-11         0.00000E+00
    0.12448E-07        -0.14038E-11         0.00000E+00
    0.12715E-07        -0.14911E-11         0.00000E+00
    0.12987E-07        -0.15795E-11         0.00000E+00
    0.13264E-07        -0.16690E-11         0.00000E+00
    0.13545E-07        -0.17595E-11         0.00000E+00
    0.13830E-07        -0.18507E-11         0.00000E+00
    0.14119E-07        -0.19424E-11         0.00000E+00
    0.14411E-07        -0.20345E-11         0.00000E+00
    0.14708E-07        -0.21265E-11         0.00000E+00
    0.15007E-07        -0.22183E-11         0.00000E+00
    0.15310E-07        -0.23095E-11         0.00000E+00
    0.15615E-07        -0.23997E-11         0.00000E+00
    0.15923E-07        -0.24885E-11         0.00000E+00
    0.16234E-07        -0.25756E-11         0.00000E+00
    0.16546E-07        -0.26604E-11         0.00000E+00
    0.16860E-07        -0.27424E-11         0.00000E+00
    0.17175E-07        -0.28211E-11         0.00000E+00
    0.17491E-07        -0.28959E-11         0.00000E+00
    0.17807E-07        -0.29661E-11         0.00000E+00
    0.18124E-07        -0.30312E-11         0.00000E+00
    0.18441E-07        -0.30903E-11         0.00000E+00
    0.18757E-07        -0.31428E-11         0.00000E+00
    0.19072E-07        -0.31878E-11         0.00000E+00
    0.19385E-07        -0.32244E-11         0.00000E+00
    0.19697E-07        -0.32517E-11         0.00000E+00
    0.20007E-07        -0.32688E-11         0.00000E+00
    0.20313E-07        -0.32746E-11         0.00000E+00
    0.20617E-07        -0.32679E-11         0.00000E+00
    0.20916E-07        -0.32475E-11         0.00000E+00
    0.21211E-07        -0.32121E-11         0.00000E+00
    0.21502E-07        -0.31602E-11         0.00000E+00
    0.21787E-07        -0.30901E-11         0.00000E+00
    0.22066E-07        -0.30002E-11         0.00000E+00
    0.22339E-07        -0.28883E-11         0.00000E+00
    0.22604E-07        -0.27523E-11         0.00000E+00
    0.22863E-07        -0.25896E-11         0.00000E+00
    0.23113E-07        -0.23975E-11         0.00000E+00
    0.23354E-07        -0.21730E-11         0.00000E+00
    0.23587E-07        -0.19127E-11         0.00000E+00
    0.23810E-07        -0.16133E-11         0.00000E+00
    0.24022E-07        -0.12711E-11         0.00000E+00
    0.24224E-07        -0.88287E-12         0.00000E+00
    0.24414E-07        -0.44579E-12         0.00000E+00
    0.24593E-07         0.41822E-13         0.00000E+00
    0.24759E-07         0.57967E-12         0.00000E+00
    0.24913E-07         0.11643E-11         0.00000E+00
    0.25054E-07         0.17874E-11         0.00000E+00
    0.25181E-07         0.24333E-11         0.00000E+00
    0.25294E-07         0.30762E-11         0.00000E+00
    0.25393E-07         0.36755E-11         0.00000E+00
    0.25478E-07         0.41713E-11         0.00000E+00
    0.25547E-07         0.44783E-11         0.00000E+00
    0.25603E-07         0.44817E-11         0.00000E+00
    0.25643E-07         0.40357E-11         0.00000E+00
    0.25668E-07         0.29739E-11         0.00000E+00
    0.25679E-07         0.11337E-11         0.00000E+00
    0.64318E-08         0.60854E-12         0.00000E+00
    0.64352E-08         0.16176E-11         0.00000E+00
    0.64447E-08         0.22499E-11         0.00000E+00
    0.64604E-08         0.25870E-11         0.00000E+00
    0.64824E-08         0.27090E-11         0.00000E+00
    0.65106E-08         0.26843E-11         0.00000E+00
    0.65451E-08         0.25665E-11         0.00000E+00
    0.65859E-08         0.23946E-11         0.00000E+00
    0.66330E-08         0.21960E-11         0.00000E+00
    0.66864E-08         0.19887E-11         0.00000E+00
    0.67462E-08         0.17843E-11         0.00000E+00
    0.68124E-08         0.15896E-11         0.00000E+00
    0.68848E-08         0.14080E-11         0.00000E+00
    0.69636E-08         0.12410E-11         0.00000E+00
    0.70487E-08         0.10885E-11         0.00000E+00
    0.71401E-08         0.94979E-12         0.00000E+00
    0.72378E-08         0.82352E-12         0.00000E+00
    0.73418E-08         0.70823E-12         0.00000E+00
    0.74521E-08         0.60242E-12         0.00000E+00
    0.75686E-08         0.50463E-12         0.00000E+00
    0.76914E-08         0.41352E-12         0.00000E+00
    0.78205E-08         0.32790E-12         0.00000E+00
    0.79558E-08         0.24669E-12         0.00000E+00
    0.80974E-08         0.16898E-12         0.00000E+00
    0.82451E-08         0.93973E-13         0.00000E+00
    0.83991E-08         0.20996E-13         0.00000E+00
    0.85592E-08        -0.50533E-13         0.00000E+00
    0.87254E-08        -0.12111E-12         0.00000E+00
    0.88978E-08        -0.19116E-12         0.00000E+00
    0.90762E-08        -0.26104E-12         0.00000E+00
    0.92607E-08        -0.33106E-12         0.00000E+00
    0.94512E-08        -0.40150E-12         0.00000E+00
    0.96477E-08        -0.47257E-12         0.00000E+00
    0.98501E-08        -0.54449E-12         0.00000E+00
    0.10058E-07        -0.61741E-12         0.00000E+00
    0.10272E-07        -0.69149E-12         0.00000E+00
    0.10492E-07        -0.76683E-12         0.00000E+00
    0.10718E-07        -0.84354E-12         0.00000E+00
    0.10949E-07        -0.92169E-12         0.00000E+00
    0.11186E-07        -0.10013E-11         0.00000E+00
    0.11428E-07        -0.10825E-11         0.00000E+00
    0.11675E-07        -0.11652E-11         0.00000E+00
    0.11927E-07        -0.12494E-11         0.00000E+00
    0.12185E-07        -0.13351E-11         0.00000E+00
    0.12448E-07        -0.14222E-11         0.00000E+00
    0.12715E-07        -0.15107E-11         0.00000E+00
    0.12987E-07        -0.16004E-11         0.00000E+00
    0.13264E-07        -0.16913E-11         0.00000E+00
    0.13544E-07        -0.17831E-11         0.00000E+00
    0.13830E-07        -0.18756E-11         0.00000E+00
    0.14119E-07        -0.19688E-11         0.00000E+00
    0.14411E-07        -0.20622E-11         0.00000E+00
    0.14708E-07        -0.21557E-11         0.00000E+00
    0.15007E-07        -0.22489E-11         0.00000E+00
    0.15310E-07        -0.23416E-11         0.00000E+00
    0.15615E-07        -0.24333E-11         0.00000E+00
    0.15923E-07        -0.25236E-11         0.00000E+00
    0.16234E-07        -0.26121E-11         0.00000E+00
    0.16546E-07        -0.26984E-11         0.00000E+00
    0.16859E-07        -0.27819E-11         0.00000E+00
    0.17175E-07        -0.28620E-11         0.00000E+00
    0.17491E-07        -0.29382E-11         0.00000E+00
    0.17807E-07        -0.30098E-11         0.00000E+00
    0.18124E-07        -0.30762E-11         0.00000E+00
    0.18441E-07        -0.31367E-11         0.00000E+00
    0.18757E-07        -0.31904E-11         0.00000E+00
    0.19072E-07        -0.32365E-11         0.00000E+00
    0.19385E-07        -0.32742E-11         0.00000E+00
    0.19697E-07        -0.33026E-11         0.00000E+00
    0.20007E-07        -0.33206E-11         0.00000E+00
    0.20313E-07        -0.33271E-11         0.00000E+00
    0.20617E-07        -0.33211E-11         0.00000E+00
    0.20916E-07        -0.33012E-11         0.00000E+00
    0.21211E-07        -0.32661E-11         0.00000E+00
    0.21502E-07        -0.32144E-11         0.00000E+00
    0.21787E-07        -0.31443E-11         0.00000E+00
    0.22066E-07        -0.30540E-11         0.00000E+00
    0.22339E-07        -0.29414E-11         0.00000E+00
    0.22604E-07        -0.28044E-11         0.00000E+00
    0.22863E-07        -0.26403E-11         0.00000E+00
    0.23113E-07        -0.24464E-11         0.00000E+00
    0.23354E-07        -0.22194E-11         0.00000E+00
    0.23587E-07        -0.19560E-11         0.00000E+00
    0.23810E-07        -0.16526E-11         0.00000E+00
    0.24022E-07        -0.13056E-11         0.00000E+00
    0.24224E-07        -0.91142E-12         0.00000E+00
    0.24414E-07        -0.46719E-12         0.00000E+00
    0.24593E-07         0.28906E-13         0.00000E+00
    0.24760E-07         0.57668E-12         0.00000E+00
    0.24913E-07         0.11727E-11         0.00000E+00
    0.25054E-07         0.18085E-11         0.00000E+00
    0.25181E-07         0.24684E-11         0.00000E+00
    0.25294E-07         0.31256E-11         0.00000E+00
    0.25393E-07         0.37390E-11         0.00000E+00
    0.25478E-07         0.42469E-11         0.00000E+00
    0.25548E-07         0.45620E-11         0.00000E+00
    0.25603E-07         0.45663E-11         0.00000E+00
    0.25643E-07         0.41114E-11         0.00000E+00
    0.25668E-07         0.30284E-11         0.00000E+00
    0.25678E-07         0.11540E-11         0.00000E+00
    0.64320E-08         0.61690E-12         0.00000E+00
    0.64354E-08         0.16400E-11         0.00000E+00
    0.64448E-08         0.22811E-11         0.00000E+00
    0.64605E-08         0.26223E-11         0.00000E+00
    0.64824E-08         0.27447E-11         0.00000E+00
    0.65106E-08         0.27181E-11         0.00000E+00
    0.65450E-08         0.25969E-11         0.00000E+00
    0.65858E-08         0.24211E-11         0.00000E+00
    0.66329E-08         0.22184E-11         0.00000E+00
    0.66864E-08         0.20073E-11         0.00000E+00
    0.67462E-08         0.17994E-11         0.00000E+00
    0.68123E-08         0.16016E-11         0.00000E+00
    0.68848E-08         0.14175E-11         0.00000E+00
    0.69635E-08         0.12483E-11         0.00000E+00
    0.70486E-08         0.10941E-11         0.00000E+00
    0.71400E-08         0.95397E-12         0.00000E+00
    0.72378E-08         0.82656E-12         0.00000E+00
    0.73418E-08         0.71035E-12         0.00000E+00
    0.74520E-08         0.60380E-12         0.00000E+00
    0.75686E-08         0.50540E-12         0.00000E+00
    0.76914E-08         0.41378E-12         0.00000E+00
    0.78205E-08         0.32770E-12         0.00000E+00
    0.79558E-08         0.24608E-12         0.00000E+00
    0.80974E-08         0.16799E-12         0.00000E+00
    0.82451E-08         0.92608E-13         0.00000E+00
    0.83990E-08         0.19253E-13         0.00000E+00
    0.85591E-08        -0.52663E-13         0.00000E+00
    0.87254E-08        -0.12364E-12         0.00000E+00
    0.88978E-08        -0.19412E-12         0.00000E+00
    0.90762E-08        -0.26444E-12         0.00000E+00
    0.92607E-08        -0.33494E-12         0.00000E+00
    0.94512E-08        -0.40588E-12         0.00000E+00
    0.96477E-08        -0.47749E-12         0.00000E+00
    0.98501E-08        -0.54997E-12         0.00000E+00
    0.10058E-07        -0.62348E-12         0.00000E+00
    0.10272E-07        -0.69818E-12         0.00000E+00
    0.10492E-07        -0.77419E-12         0.00000E+00
    0.10718E-07        -0.85158E-12         0.00000E+00
    0.10949E-07        -0.93046E-12         0.00000E+00
    0.11186E-07        -0.10109E-11         0.00000E+00
    0.11428E-07        -0.10928E-11         0.00000E+00
    0.11675E-07        -0.11763E-11         0.00000E+00
    0.11927E-07        -0.12614E-11         0.00000E+00
    0.12185E-07        -0.13480E-11         0.00000E+00
    0.12448E-07        -0.14360E-11         0.00000E+00
    0.12715E-07        -0.15255E-11         0.00000E+00
    0.12987E-07        -0.16162E-11         0.00000E+00
    0.13264E-07        -0.17080E-11         0.00000E+00
    0.13544E-07        -0.18008E-11         0.00000E+00
    0.13830E-07        -0.18945E-11         0.00000E+00
    0.14119E-07        -0.19887E-11         0.00000E+00
    0.14411E-07        -0.20832E-11         0.00000E+00
    0.14708E-07        -0.21779E-11         0.00000E+00
    0.15007E-07        -0.22722E-11         0.00000E+00
    0.15310E-07        -0.23661E-11         0.00000E+00
    0.15615E-07        -0.24589E-11         0.00000E+00
    0.15923E-07        -0.25505E-11         0.00000E+00
    0.16234E-07        -0.26402E-11         0.00000E+00
    0.16546E-07        -0.27277E-11         0.00000E+00
    0.16859E-07        -0.28123E-11         0.00000E+00
    0.17175E-07        -0.28937E-11         0.00000E+00
    0.17491E-07        -0.29711E-11         0.00000E+00
    0.17807E-07        -0.30439E-11         0.00000E+00
    0.18124E-07        -0.31114E-11         0.00000E+00
    0.18441E-07        -0.31730E-11         0.00000E+00
    0.18757E-07        -0.32278E-11         0.00000E+00
    0.19072E-07        -0.32749E-11         0.00000E+00
    0.19385E-07        -0.33137E-11         0.00000E+00
    0.19697E-07        -0.33429E-11         0.00000E+00
    0.20007E-07        -0.33618E-11         0.00000E+00
    0.20313E-07        -0.33691E-11         0.00000E+00
    0.20617E-07        -0.33638E-11         0.00000E+00
    0.20916E-07        -0.33446E-11         0.00000E+00
    0.21211E-07        -0.33100E-11         0.00000E+00
    0.21502E-07        -0.32585E-11         0.00000E+00
    0.21787E-07        -0.31886E-11         0.00000E+00
    0.22066E-07        -0.30983E-11         0.00000E+00
    0.22339E-07        -0.29856E-11         0.00000E+00
    0.22604E-07        -0.28481E-11         0.00000E+00
    0.22863E-07        -0.26832E-11         0.00000E+00
    0.23113E-07        -0.24880E-11         0.00000E+00
    0.23355E-07        -0.22594E-11         0.00000E+00
    0.23587E-07        -0.19938E-11         0.00000E+00
    0.23810E-07        -0.16875E-11         0.00000E+00
    0.24022E-07        -0.13368E-11         0.00000E+00
    0.24224E-07        -0.93804E-12         0.00000E+00
    0.24415E-07        -0.48816E-12         0.00000E+00
    0.24593E-07         0.14778E-13         0.00000E+00
    0.24760E-07         0.57069E-12         0.00000E+00
    0.24913E-07         0.11762E-11         0.00000E+00
    0.25054E-07         0.18229E-11         0.00000E+00
    0.25181E-07         0.24947E-11         0.00000E+00
    0.25294E-07         0.31646E-11         0.00000E+00
    0.25393E-07         0.37906E-11         0.00000E+00
    0.25478E-07         0.43099E-11         0.00000E+00
    0.25548E-07         0.46331E-11         0.00000E+00
    0.25603E-07         0.46399E-11         0.00000E+00
    0.25643E-07         0.41787E-11         0.00000E+00
    0.25668E-07         0.30781E-11         0.00000E+00
    0.25678E-07         0.11729E-11         0.00000E+00
    0.64323E-08         0.62430E-12         0.00000E+00
    0.64355E-08         0.16593E-11         0.00000E+00
    0.64449E-08         0.23071E-11         0.00000E+00
    0.64605E-08         0.26508E-11         0.00000E+00
    0.64824E-08         0.27727E-11         0.00000E+00
    0.65105E-08         0.27436E-11         0.00000E+00
    0.65450E-08         0.26191E-11         0.00000E+00
    0.65858E-08         0.24396E-11         0.00000E+00
    0.66329E-08         0.22334E-11         0.00000E+00
    0.66864E-08         0.20190E-11         0.00000E+00
    0.67462E-08         0.18083E-11         0.00000E+00
    0.68123E-08         0.16081E-11         0.00000E+00
    0.68847E-08         0.14220E-11         0.00000E+00
    0.69635E-08         0.12513E-11         0.00000E+00
    0.70486E-08         0.10959E-11         0.00000E+00
    0.71400E-08         0.95478E-12         0.00000E+00
    0.72377E-08         0.82667E-12         0.00000E+00
    0.73417E-08         0.70996E-12         0.00000E+00
    0.74520E-08         0.60304E-12         0.00000E+00
    0.75686E-08         0.50437E-12         0.00000E+00
    0.76914E-08         0.41255E-12         0.00000E+00
    0.78205E-08         0.32632E-12         0.00000E+00
    0.79558E-08         0.24458E-12         0.00000E+00
    0.80973E-08         0.16636E-12         0.00000E+00
    0.82451E-08         0.90867E-13         0.00000E+00
    0.83990E-08         0.17384E-13         0.00000E+00
    0.85591E-08        -0.54676E-13         0.00000E+00
    0.87254E-08        -0.12582E-12         0.00000E+00
    0.88977E-08        -0.19648E-12         0.00000E+00
    0.90762E-08        -0.26702E-12         0.00000E+00
    0.92607E-08        -0.33776E-12         0.00000E+00
    0.94512E-08        -0.40897E-12         0.00000E+00
    0.96477E-08        -0.48087E-12         0.00000E+00
    0.98501E-08        -0.55367E-12         0.00000E+00
    0.10058E-07        -0.62754E-12         0.00000E+00
    0.10272E-07        -0.70262E-12         0.00000E+00
    0.10492E-07        -0.77903E-12         0.00000E+00
    0.10718E-07        -0.85687E-12         0.00000E+00
    0.10949E-07        -0.93621E-12         0.00000E+00
    0.11185E-07        -0.10171E-11         0.00000E+00
    0.11428E-07        -0.10996E-11         0.00000E+00
    0.11675E-07        -0.11836E-11         0.00000E+00
    0.11927E-07        -0.12693E-11         0.00000E+00
    0.12185E-07        -0.13565E-11         0.00000E+00
    0.12448E-07        -0.14452E-11         0.00000E+00
    0.12715E-07        -0.15353E-11         0.00000E+00
    0.12987E-07        -0.16267E-11         0.00000E+00
    0.13264E-07        -0.17192E-11         0.00000E+00
    0.13544E-07        -0.18128E-11         0.00000E+00
    0.13830E-07        -0.19072E-11         0.00000E+00
    0.14119E-07        -0.20022E-11         0.00000E+00
    0.14411E-07        -0.20975E-11         0.00000E+00
    0.14708E-07        -0.21930E-11         0.00000E+00
    0.15007E-07        -0.22883E-11         0.00000E+00
    0.15310E-07        -0.23829E-11         0.00000E+00
    0.15615E-07        -0.24767E-11         0.00000E+00
    0.15923E-07        -0.25691E-11         0.00000E+00
    0.16234E-07        -0.26598E-11         0.00000E+00
    0.16546E-07        -0.27482E-11         0.00000E+00
    0.16859E-07        -0.28338E-11         0.00000E+00
    0.17175E-07        -0.29161E-11         0.00000E+00
    0.17491E-07        -0.29944E-11         0.00000E+00
    0.17807E-07        -0.30682E-11         0.00000E+00
    0.18124E-07        -0.31367E-11         0.00000E+00
    0.18441E-07        -0.31992E-11         0.00000E+00
    0.18757E-07        -0.32549E-11         0.00000E+00
    0.19072E-07        -0.33030E-11         0.00000E+00
    0.19385E-07        -0.33426E-11         0.00000E+00
    0.19697E-07        -0.33727E-11         0.00000E+00
    0.20007E-07        -0.33924E-11         0.00000E+00
    0.20313E-07        -0.34006E-11         0.00000E+00
    0.20617E-07        -0.33960E-11         0.00000E+00
    0.20916E-07        -0.33774E-11         0.00000E+00
    0.21211E-07        -0.33434E-11         0.00000E+00
    0.21502E-07        -0.32926E-11         0.00000E+00
    0.21787E-07        -0.32231E-11         0.00000E+00
    0.22066E-07        -0.31331E-11         0.00000E+00
    0.22339E-07        -0.30206E-11         0.00000E+00
    0.22604E-07        -0.28830E-11         0.00000E+00
    0.22863E-07        -0.27179E-11         0.00000E+00
    0.23113E-07        -0.25222E-11         0.00000E+00
    0.23355E-07        -0.22927E-11         0.00000E+00
    0.23587E-07        -0.20258E-11         0.00000E+00
    0.23810E-07        -0.17177E-11         0.00000E+00
    0.24022E-07        -0.13646E-11         0.00000E+00
    0.24224E-07        -0.96259E-12         0.00000E+00
    0.24415E-07        -0.50857E-12         0.00000E+00
    0.24593E-07        -0.46483E-15         0.00000E+00
    0.24760E-07         0.56178E-12         0.00000E+00
    0.24914E-07         0.11749E-11         0.00000E+00
    0.25054E-07         0.18304E-11         0.00000E+00
    0.25181E-07         0.25122E-11         0.00000E+00
    0.25294E-07         0.31930E-11         0.00000E+00
    0.25393E-07         0.38303E-11         0.00000E+00
    0.25478E-07         0.43601E-11         0.00000E+00
    0.25548E-07         0.46917E-11         0.00000E+00
    0.25602E-07         0.47024E-11         0.00000E+00
    0.25642E-07         0.42377E-11         0.00000E+00
    0.25667E-07         0.31230E-11         0.00000E+00
    0.25677E-07         0.11903E-11         0.00000E+00
    0.64325E-08         0.63073E-12         0.00000E+00
    0.64357E-08         0.16756E-11         0.00000E+00
    0.64450E-08         0.23280E-11         0.00000E+00
    0.64606E-08         0.26724E-11         0.00000E+00
    0.64824E-08         0.27927E-11         0.00000E+00
    0.65105E-08         0.27609E-11         0.00000E+00
    0.65450E-08         0.26330E-11         0.00000E+00
    0.65857E-08         0.24502E-11         0.00000E+00
    0.66329E-08         0.22409E-11         0.00000E+00
    0.66863E-08         0.20239E-11         0.00000E+00
    0.67461E-08         0.18110E-11         0.00000E+00
    0.68122E-08         0.16091E-11         0.00000E+00
    0.68847E-08         0.14216E-11         0.00000E+00
    0.69635E-08         0.12499E-11         0.00000E+00
    0.70486E-08         0.10938E-11         0.00000E+00
    0.71400E-08         0.95227E-12         0.00000E+00
    0.72377E-08         0.82392E-12         0.00000E+00
    0.73417E-08         0.70710E-12         0.00000E+00
    0.74520E-08         0.60018E-12         0.00000E+00
    0.75686E-08         0.50158E-12         0.00000E+00
    0.76914E-08         0.40988E-12         0.00000E+00
    0.78205E-08         0.32379E-12         0.00000E+00
    0.79558E-08         0.24220E-12         0.00000E+00
    0.80973E-08         0.16413E-12         0.00000E+00
    0.82451E-08         0.88773E-13         0.00000E+00
    0.83990E-08         0.15409E-13         0.00000E+00
    0.85591E-08        -0.56556E-13         0.00000E+00
    0.87254E-08        -0.12763E-12         0.00000E+00
    0.88977E-08        -0.19824E-12         0.00000E+00
    0.90762E-08        -0.26877E-12         0.00000E+00
    0.92607E-08        -0.33951E-12         0.00000E+00
    0.94512E-08        -0.41075E-12         0.00000E+00
    0.96477E-08        -0.48272E-12         0.00000E+00
    0.98501E-08        -0.55560E-12         0.00000E+00
    0.10058E-07        -0.62959E-12         0.00000E+00
    0.10272E-07        -0.70480E-12         0.00000E+00
    0.10492E-07        -0.78138E-12         0.00000E+00
    0.10718E-07        -0.85940E-12         0.00000E+00
    0.10949E-07        -0.93895E-12         0.00000E+00
    0.11185E-07        -0.10201E-11         0.00000E+00
    0.11427E-07        -0.11028E-11         0.00000E+00
    0.11675E-07        -0.11872E-11         0.00000E+00
    0.11927E-07        -0.12731E-11         0.00000E+00
    0.12185E-07        -0.13606E-11         0.00000E+00
    0.12448E-07        -0.14497E-11         0.00000E+00
    0.12715E-07        -0.15401E-11         0.00000E+00
    0.12987E-07        -0.16319E-11         0.00000E+00
    0.13264E-07        -0.17249E-11         0.00000E+00
    0.13544E-07        -0.18189E-11         0.00000E+00
    0.13829E-07        -0.19138E-11         0.00000E+00
    0.14118E-07        -0.20093E-11         0.00000E+00
    0.14411E-07        -0.21051E-11         0.00000E+00
    0.14708E-07        -0.22011E-11         0.00000E+00
    0.15007E-07        -0.22969E-11         0.00000E+00
    0.15310E-07        -0.23922E-11         0.00000E+00
    0.15615E-07        -0.24866E-11         0.00000E+00
    0.15923E-07        -0.25796E-11         0.00000E+00
    0.16233E-07        -0.26709E-11         0.00000E+00
    0.16546E-07        -0.27600E-11         0.00000E+00
    0.16859E-07        -0.28463E-11         0.00000E+00
    0.17175E-07        -0.29292E-11         0.00000E+00
    0.17491E-07        -0.30083E-11         0.00000E+00
    0.17807E-07        -0.30828E-11         0.00000E+00
    0.18124E-07        -0.31520E-11         0.00000E+00
    0.18441E-07        -0.32152E-11         0.00000E+00
    0.18757E-07        -0.32717E-11         0.00000E+00
    0.19072E-07        -0.33205E-11         0.00000E+00
    0.19385E-07        -0.33609E-11         0.00000E+00
    0.19697E-07        -0.33918E-11         0.00000E+00
    0.20007E-07        -0.34123E-11         0.00000E+00
    0.20313E-07        -0.34212E-11         0.00000E+00
    0.20617E-07        -0.34175E-11         0.00000E+00
    0.20916E-07        -0.33997E-11         0.00000E+00
    0.21211E-07        -0.33664E-11         0.00000E+00
    0.21502E-07        -0.33163E-11         0.00000E+00
    0.21787E-07        -0.32475E-11         0.00000E+00
    0.22066E-07        -0.31582E-11         0.00000E+00
    0.22339E-07        -0.30462E-11         0.00000E+00
    0.22604E-07        -0.29092E-11         0.00000E+00
    0.22863E-07        -0.27444E-11         0.00000E+00
    0.23113E-07        -0.25489E-11         0.00000E+00
    0.23355E-07        -0.23193E-11         0.00000E+00
    0.23587E-07        -0.20521E-11         0.00000E+00
    0.23810E-07        -0.17432E-11         0.00000E+00
    0.24022E-07        -0.13888E-11         0.00000E+00
    0.24224E-07        -0.98492E-12         0.00000E+00
    0.24415E-07        -0.52830E-12         0.00000E+00
    0.24593E-07        -0.16710E-13         0.00000E+00
    0.24760E-07         0.55002E-12         0.00000E+00
    0.24914E-07         0.11687E-11         0.00000E+00
    0.25054E-07         0.18310E-11         0.00000E+00
    0.25181E-07         0.25208E-11         0.00000E+00
    0.25295E-07         0.32107E-11         0.00000E+00
    0.25394E-07         0.38577E-11         0.00000E+00
    0.25478E-07         0.43973E-11         0.00000E+00
    0.25548E-07         0.47375E-11         0.00000E+00
    0.25602E-07         0.47536E-11         0.00000E+00
    0.25642E-07         0.42882E-11         0.00000E+00
    0.25667E-07         0.31630E-11         0.00000E+00
    0.25677E-07         0.12062E-11         0.00000E+00
    0.64328E-08         0.63618E-12         0.00000E+00
    0.64359E-08         0.16888E-11         0.00000E+00
    0.64451E-08         0.23436E-11         0.00000E+00
    0.64606E-08         0.26872E-11         0.00000E+00
    0.64824E-08         0.28048E-11         0.00000E+00
    0.65105E-08         0.27697E-11         0.00000E+00
    0.65449E-08         0.26386E-11         0.00000E+00
    0.65857E-08         0.24528E-11         0.00000E+00
    0.66328E-08         0.22410E-11         0.00000E+00
    0.66863E-08         0.20220E-11         0.00000E+00
    0.67461E-08         0.18076E-11         0.00000E+00
    0.68122E-08         0.16045E-11         0.00000E+00
    0.68847E-08         0.14164E-11         0.00000E+00
    0.69635E-08         0.12442E-11         0.00000E+00
    0.70486E-08         0.10880E-11         0.00000E+00
    0.71400E-08         0.94649E-12         0.00000E+00
    0.72377E-08         0.81833E-12         0.00000E+00
    0.73417E-08         0.70181E-12         0.00000E+00
    0.74520E-08         0.59525E-12         0.00000E+00
    0.75685E-08         0.49707E-12         0.00000E+00
    0.76914E-08         0.40580E-12         0.00000E+00
    0.78205E-08         0.32014E-12         0.00000E+00
    0.79558E-08         0.23898E-12         0.00000E+00
    0.80973E-08         0.16132E-12         0.00000E+00
    0.82451E-08         0.86349E-13         0.00000E+00
    0.83990E-08         0.13346E-13         0.00000E+00
    0.85591E-08        -0.58285E-13         0.00000E+00
    0.87253E-08        -0.12905E-12         0.00000E+00
    0.88977E-08        -0.19939E-12         0.00000E+00
    0.90762E-08        -0.26966E-12         0.00000E+00
    0.92607E-08        -0.34019E-12         0.00000E+00
    0.94512E-08        -0.41123E-12         0.00000E+00
    0.96477E-08        -0.48302E-12         0.00000E+00
    0.98501E-08        -0.55576E-12         0.00000E+00
    0.10058E-07        -0.62962E-12         0.00000E+00
    0.10272E-07        -0.70473E-12         0.00000E+00
    0.10492E-07        -0.78122E-12         0.00000E+00
    0.10718E-07        -0.85917E-12         0.00000E+00
    0.10949E-07        -0.93867E-12         0.00000E+00
    0.11185E-07        -0.10198E-11         0.00000E+00
    0.11427E-07        -0.11025E-11         0.00000E+00
    0.11675E-07        -0.11869E-11         0.00000E+00
    0.11927E-07        -0.12728E-11         0.00000E+00
    0.12185E-07        -0.13604E-11         0.00000E+00
    0.12448E-07        -0.14495E-11         0.00000E+00
    0.12715E-07        -0.15401E-11         0.00000E+00
    0.12987E-07        -0.16320E-11         0.00000E+00
    0.13264E-07        -0.17251E-11         0.00000E+00
    0.13544E-07        -0.18192E-11         0.00000E+00
    0.13829E-07        -0.19142E-11         0.00000E+00
    0.14118E-07        -0.20099E-11         0.00000E+00
    0.14411E-07        -0.21060E-11         0.00000E+00
    0.14708E-07        -0.22022E-11         0.00000E+00
    0.15007E-07        -0.22983E-11         0.00000E+00
    0.15310E-07        -0.23938E-11         0.00000E+00
    0.15615E-07        -0.24885E-11         0.00000E+00
    0.15923E-07        -0.25819E-11         0.00000E+00
    0.16233E-07        -0.26735E-11         0.00000E+00
    0.16546E-07        -0.27629E-11         0.00000E+00
    0.16859E-07        -0.28496E-11         0.00000E+00
    0.17175E-07        -0.29330E-11         0.00000E+00
    0.17491E-07        -0.30125E-11         0.00000E+00
    0.17807E-07        -0.30875E-11         0.00000E+00
    0.18124E-07        -0.31573E-11         0.00000E+00
    0.18441E-07        -0.32211E-11         0.00000E+00
    0.18757E-07        -0.32781E-11         0.00000E+00
    0.19072E-07        -0.33276E-11         0.00000E+00
    0.19385E-07        -0.33686E-11         0.00000E+00
    0.19697E-07        -0.34002E-11         0.00000E+00
    0.20007E-07        -0.34214E-11         0.00000E+00
    0.20313E-07        -0.34311E-11         0.00000E+00
    0.20617E-07        -0.34282E-11         0.00000E+00
    0.20916E-07        -0.34112E-11         0.00000E+00
    0.21211E-07        -0.33789E-11         0.00000E+00
    0.21502E-07        -0.33297E-11         0.00000E+00
    0.21787E-07        -0.32618E-11         0.00000E+00
    0.22066E-07        -0.31735E-11         0.00000E+00
    0.22339E-07        -0.30625E-11         0.00000E+00
    0.22605E-07        -0.29264E-11         0.00000E+00
    0.22863E-07        -0.27625E-11         0.00000E+00
    0.23113E-07        -0.25679E-11         0.00000E+00
    0.23355E-07        -0.23390E-11         0.00000E+00
    0.23587E-07        -0.20723E-11         0.00000E+00
    0.23810E-07        -0.17637E-11         0.00000E+00
    0.24023E-07        -0.14092E-11         0.00000E+00
    0.24224E-07        -0.10049E-11         0.00000E+00
    0.24415E-07        -0.54719E-12         0.00000E+00
    0.24594E-07        -0.33828E-13         0.00000E+00
    0.24760E-07         0.53552E-12         0.00000E+00
    0.24914E-07         0.11578E-11         0.00000E+00
    0.25054E-07         0.18248E-11         0.00000E+00
    0.25182E-07         0.25206E-11         0.00000E+00
    0.25295E-07         0.32176E-11         0.00000E+00
    0.25394E-07         0.38728E-11         0.00000E+00
    0.25478E-07         0.44214E-11         0.00000E+00
    0.25548E-07         0.47703E-11         0.00000E+00
    0.25602E-07         0.47932E-11         0.00000E+00
    0.25642E-07         0.43300E-11         0.00000E+00
    0.25667E-07         0.31981E-11         0.00000E+00
    0.25676E-07         0.12207E-11         0.00000E+00
    0.64331E-08         0.64062E-12         0.00000E+00
    0.64360E-08         0.16988E-11         0.00000E+00
    0.64452E-08         0.23539E-11         0.00000E+00
    0.64607E-08         0.26949E-11         0.00000E+00
    0.64824E-08         0.28089E-11         0.00000E+00
    0.65105E-08         0.27700E-11         0.00000E+00
    0.65449E-08         0.26357E-11         0.00000E+00
    0.65857E-08         0.24474E-11         0.00000E+00
    0.66328E-08         0.22336E-11         0.00000E+00
    0.66862E-08         0.20133E-11         0.00000E+00
    0.67460E-08         0.17980E-11         0.00000E+00
    0.68122E-08         0.15945E-11         0.00000E+00
    0.68846E-08         0.14063E-11         0.00000E+00
    0.69634E-08         0.12343E-11         0.00000E+00
    0.70485E-08         0.10784E-11         0.00000E+00
    0.71399E-08         0.93749E-12         0.00000E+00
    0.72377E-08         0.80996E-12         0.00000E+00
    0.73417E-08         0.69414E-12         0.00000E+00
    0.74520E-08         0.58832E-12         0.00000E+00
    0.75685E-08         0.49088E-12         0.00000E+00
    0.76914E-08         0.40035E-12         0.00000E+00
    0.78204E-08         0.31542E-12         0.00000E+00
    0.79558E-08         0.23495E-12         0.00000E+00
    0.80973E-08         0.15796E-12         0.00000E+00
    0.82450E-08         0.83620E-13         0.00000E+00
    0.83990E-08         0.11218E-13         0.00000E+00
    0.85591E-08        -0.59846E-13         0.00000E+00
    0.87253E-08        -0.13008E-12         0.00000E+00
    0.88977E-08        -0.19991E-12         0.00000E+00
    0.90761E-08        -0.26971E-12         0.00000E+00
    0.92607E-08        -0.33978E-12         0.00000E+00
    0.94512E-08        -0.41040E-12         0.00000E+00
    0.96477E-08        -0.48179E-12         0.00000E+00
    0.98501E-08        -0.55414E-12         0.00000E+00
    0.10058E-07        -0.62763E-12         0.00000E+00
    0.10272E-07        -0.70240E-12         0.00000E+00
    0.10492E-07        -0.77855E-12         0.00000E+00
    0.10718E-07        -0.85619E-12         0.00000E+00
    0.10949E-07        -0.93540E-12         0.00000E+00
    0.11185E-07        -0.10162E-11         0.00000E+00
    0.11427E-07        -0.10987E-11         0.00000E+00
    0.11675E-07        -0.11828E-11         0.00000E+00
    0.11927E-07        -0.12685E-11         0.00000E+00
    0.12185E-07        -0.13558E-11         0.00000E+00
    0.12448E-07        -0.14447E-11         0.00000E+00
    0.12715E-07        -0.15351E-11         0.00000E+00
    0.12987E-07        -0.16268E-11         0.00000E+00
    0.13264E-07        -0.17197E-11         0.00000E+00
    0.13544E-07        -0.18137E-11         0.00000E+00
    0.13829E-07        -0.19086E-11         0.00000E+00
    0.14118E-07        -0.20041E-11         0.00000E+00
    0.14411E-07        -0.21001E-11         0.00000E+00
    0.14708E-07        -0.21963E-11         0.00000E+00
    0.15007E-07        -0.22923E-11         0.00000E+00
    0.15310E-07        -0.23878E-11         0.00000E+00
    0.15615E-07        -0.24825E-11         0.00000E+00
    0.15923E-07        -0.25759E-11         0.00000E+00
    0.16233E-07        -0.26676E-11         0.00000E+00
    0.16546E-07        -0.27571E-11         0.00000E+00
    0.16859E-07        -0.28439E-11         0.00000E+00
    0.17174E-07        -0.29275E-11         0.00000E+00
    0.17491E-07        -0.30072E-11         0.00000E+00
    0.17807E-07        -0.30824E-11         0.00000E+00
    0.18124E-07        -0.31525E-11         0.00000E+00
    0.18441E-07        -0.32166E-11         0.00000E+00
    0.18757E-07        -0.32741E-11         0.00000E+00
    0.19072E-07        -0.33240E-11         0.00000E+00
    0.19385E-07        -0.33656E-11         0.00000E+00
    0.19697E-07        -0.33978E-11         0.00000E+00
    0.20007E-07        -0.34197E-11         0.00000E+00
    0.20313E-07        -0.34301E-11         0.00000E+00
    0.20617E-07        -0.34280E-11         0.00000E+00
    0.20916E-07        -0.34119E-11         0.00000E+00
    0.21211E-07        -0.33806E-11         0.00000E+00
    0.21502E-07        -0.33325E-11         0.00000E+00
    0.21787E-07        -0.32658E-11         0.00000E+00
    0.22066E-07        -0.31787E-11         0.00000E+00
    0.22339E-07        -0.30691E-11         0.00000E+00
    0.22605E-07        -0.29344E-11         0.00000E+00
    0.22863E-07        -0.27720E-11         0.00000E+00
    0.23113E-07        -0.25789E-11         0.00000E+00
    0.23355E-07        -0.23515E-11         0.00000E+00
    0.23587E-07        -0.20863E-11         0.00000E+00
    0.23810E-07        -0.17790E-11         0.00000E+00
    0.24023E-07        -0.14257E-11         0.00000E+00
    0.24224E-07        -0.10223E-11         0.00000E+00
    0.24415E-07        -0.56506E-12         0.00000E+00
    0.24594E-07        -0.51675E-13         0.00000E+00
    0.24760E-07         0.51838E-12         0.00000E+00
    0.24914E-07         0.11422E-11         0.00000E+00
    0.25055E-07         0.18119E-11         0.00000E+00
    0.25182E-07         0.25114E-11         0.00000E+00
    0.25295E-07         0.32136E-11         0.00000E+00
    0.25394E-07         0.38754E-11         0.00000E+00
    0.25478E-07         0.44319E-11         0.00000E+00
    0.25548E-07         0.47897E-11         0.00000E+00
    0.25602E-07         0.48209E-11         0.00000E+00
    0.25642E-07         0.43627E-11         0.00000E+00
    0.25666E-07         0.32279E-11         0.00000E+00
    0.25676E-07         0.12335E-11         0.00000E+00
    0.64333E-08         0.64402E-12         0.00000E+00
    0.64362E-08         0.17056E-11         0.00000E+00
    0.64453E-08         0.23588E-11         0.00000E+00
    0.64607E-08         0.26954E-11         0.00000E+00
    0.64824E-08         0.28047E-11         0.00000E+00
    0.65105E-08         0.27618E-11         0.00000E+00
    0.65449E-08         0.26244E-11         0.00000E+00
    0.65856E-08         0.24339E-11         0.00000E+00
    0.66327E-08         0.22188E-11         0.00000E+00
    0.66862E-08         0.19977E-11         0.00000E+00
    0.67460E-08         0.17823E-11         0.00000E+00
    0.68121E-08         0.15791E-11         0.00000E+00
    0.68846E-08         0.13914E-11         0.00000E+00
    0.69634E-08         0.12202E-11         0.00000E+00
    0.70485E-08         0.10653E-11         0.00000E+00
    0.71399E-08         0.92533E-12         0.00000E+00
    0.72376E-08         0.79888E-12         0.00000E+00
    0.73416E-08         0.68415E-12         0.00000E+00
    0.74519E-08         0.57942E-12         0.00000E+00
    0.75685E-08         0.48306E-12         0.00000E+00
    0.76913E-08         0.39357E-12         0.00000E+00
    0.78204E-08         0.30965E-12         0.00000E+00
    0.79557E-08         0.23014E-12         0.00000E+00
    0.80973E-08         0.15407E-12         0.00000E+00
    0.82450E-08         0.80610E-13         0.00000E+00
    0.83990E-08         0.90442E-14         0.00000E+00
    0.85591E-08        -0.61221E-13         0.00000E+00
    0.87253E-08        -0.13069E-12         0.00000E+00
    0.88977E-08        -0.19979E-12         0.00000E+00
    0.90761E-08        -0.26889E-12         0.00000E+00
    0.92606E-08        -0.33828E-12         0.00000E+00
    0.94512E-08        -0.40825E-12         0.00000E+00
    0.96476E-08        -0.47900E-12         0.00000E+00
    0.98500E-08        -0.55074E-12         0.00000E+00
    0.10058E-07        -0.62363E-12         0.00000E+00
    0.10272E-07        -0.69781E-12         0.00000E+00
    0.10492E-07        -0.77339E-12         0.00000E+00
    0.10718E-07        -0.85046E-12         0.00000E+00
    0.10949E-07        -0.92911E-12         0.00000E+00
    0.11185E-07        -0.10094E-11         0.00000E+00
    0.11427E-07        -0.10913E-11         0.00000E+00
    0.11675E-07        -0.11749E-11         0.00000E+00
    0.11927E-07        -0.12601E-11         0.00000E+00
    0.12185E-07        -0.13469E-11         0.00000E+00
    0.12447E-07        -0.14353E-11         0.00000E+00
    0.12715E-07        -0.15251E-11         0.00000E+00
    0.12987E-07        -0.16163E-11         0.00000E+00
    0.13263E-07        -0.17088E-11         0.00000E+00
    0.13544E-07        -0.18023E-11         0.00000E+00
    0.13829E-07        -0.18968E-11         0.00000E+00
    0.14118E-07        -0.19919E-11         0.00000E+00
    0.14411E-07        -0.20875E-11         0.00000E+00
    0.14707E-07        -0.21833E-11         0.00000E+00
    0.15007E-07        -0.22789E-11         0.00000E+00
    0.15310E-07        -0.23741E-11         0.00000E+00
    0.15615E-07        -0.24684E-11         0.00000E+00
    0.15923E-07        -0.25616E-11         0.00000E+00
    0.16233E-07        -0.26530E-11         0.00000E+00
    0.16546E-07        -0.27424E-11         0.00000E+00
    0.16859E-07        -0.28291E-11         0.00000E+00
    0.17174E-07        -0.29125E-11         0.00000E+00
    0.17490E-07        -0.29922E-11         0.00000E+00
    0.17807E-07        -0.30674E-11         0.00000E+00
    0.18124E-07        -0.31376E-11         0.00000E+00
    0.18441E-07        -0.32019E-11         0.00000E+00
    0.18757E-07        -0.32595E-11         0.00000E+00
    0.19072E-07        -0.33098E-11         0.00000E+00
    0.19385E-07        -0.33518E-11         0.00000E+00
    0.19697E-07        -0.33845E-11         0.00000E+00
    0.20007E-07        -0.34070E-11         0.00000E+00
    0.20313E-07        -0.34181E-11         0.00000E+00
    0.20617E-07        -0.34168E-11         0.00000E+00
    0.20916E-07        -0.34017E-11         0.00000E+00
    0.21211E-07        -0.33715E-11         0.00000E+00
    0.21502E-07        -0.33246E-11         0.00000E+00
    0.21787E-07        -0.32594E-11         0.00000E+00
    0.22066E-07        -0.31739E-11         0.00000E+00
    0.22339E-07        -0.30659E-11         0.00000E+00
    0.22605E-07        -0.29331E-11         0.00000E+00
    0.22863E-07        -0.27728E-11         0.00000E+00
    0.23113E-07        -0.25818E-11         0.00000E+00
    0.23355E-07        -0.23567E-11         0.00000E+00
    0.23587E-07        -0.20938E-11         0.00000E+00
    0.23810E-07        -0.17890E-11         0.00000E+00
    0.24023E-07        -0.14381E-11         0.00000E+00
    0.24224E-07        -0.10369E-11         0.00000E+00
    0.24415E-07        -0.58176E-12         0.00000E+00
    0.24594E-07        -0.70087E-13         0.00000E+00
    0.24760E-07         0.49875E-12         0.00000E+00
    0.24914E-07         0.11221E-11         0.00000E+00
    0.25055E-07         0.17921E-11         0.00000E+00
    0.25182E-07         0.24933E-11         0.00000E+00
    0.25295E-07         0.31986E-11         0.00000E+00
    0.25394E-07         0.38654E-11         0.00000E+00
    0.25478E-07         0.44288E-11         0.00000E+00
    0.25548E-07         0.47953E-11         0.00000E+00
    0.25602E-07         0.48363E-11         0.00000E+00
    0.25642E-07         0.43862E-11         0.00000E+00
    0.25666E-07         0.32524E-11         0.00000E+00
    0.25675E-07         0.12447E-11         0.00000E+00
    0.64336E-08         0.64634E-12         0.00000E+00
    0.64364E-08         0.17090E-11         0.00000E+00
    0.64454E-08         0.23580E-11         0.00000E+00
    0.64607E-08         0.26885E-11         0.00000E+00
    0.64824E-08         0.27921E-11         0.00000E+00
    0.65104E-08         0.27448E-11         0.00000E+00
    0.65448E-08         0.26044E-11         0.00000E+00
    0.65856E-08         0.24123E-11         0.00000E+00
    0.66327E-08         0.21964E-11         0.00000E+00
    0.66861E-08         0.19754E-11         0.00000E+00
    0.67459E-08         0.17605E-11         0.00000E+00
    0.68121E-08         0.15583E-11         0.00000E+00
    0.68846E-08         0.13718E-11         0.00000E+00
    0.69634E-08         0.12020E-11         0.00000E+00
    0.70485E-08         0.10485E-11         0.00000E+00
    0.71399E-08         0.91007E-12         0.00000E+00
    0.72376E-08         0.78512E-12         0.00000E+00
    0.73416E-08         0.67189E-12         0.00000E+00
    0.74519E-08         0.56862E-12         0.00000E+00
    0.75685E-08         0.47365E-12         0.00000E+00
    0.76913E-08         0.38551E-12         0.00000E+00
    0.78204E-08         0.30287E-12         0.00000E+00
    0.79557E-08         0.22459E-12         0.00000E+00
    0.80973E-08         0.14969E-12         0.00000E+00
    0.82450E-08         0.77344E-13         0.00000E+00
    0.83990E-08         0.68470E-14         0.00000E+00
    0.85591E-08        -0.62393E-13         0.00000E+00
    0.87253E-08        -0.13088E-12         0.00000E+00
    0.88977E-08        -0.19902E-12         0.00000E+00
    0.90761E-08        -0.26719E-12         0.00000E+00
    0.92606E-08        -0.33569E-12         0.00000E+00
    0.94511E-08        -0.40478E-12         0.00000E+00
    0.96476E-08        -0.47467E-12         0.00000E+00
    0.98500E-08        -0.54556E-12         0.00000E+00
    0.10058E-07        -0.61761E-12         0.00000E+00
    0.10272E-07        -0.69096E-12         0.00000E+00
    0.10492E-07        -0.76572E-12         0.00000E+00
    0.10718E-07        -0.84199E-12         0.00000E+00
    0.10949E-07        -0.91982E-12         0.00000E+00
    0.11185E-07        -0.99928E-12         0.00000E+00
    0.11427E-07        -0.10804E-11         0.00000E+00
    0.11675E-07        -0.11632E-11         0.00000E+00
    0.11927E-07        -0.12476E-11         0.00000E+00
    0.12185E-07        -0.13336E-11         0.00000E+00
    0.12447E-07        -0.14212E-11         0.00000E+00
    0.12715E-07        -0.15103E-11         0.00000E+00
    0.12987E-07        -0.16007E-11         0.00000E+00
    0.13263E-07        -0.16924E-11         0.00000E+00
    0.13544E-07        -0.17852E-11         0.00000E+00
    0.13829E-07        -0.18789E-11         0.00000E+00
    0.14118E-07        -0.19733E-11         0.00000E+00
    0.14411E-07        -0.20681E-11         0.00000E+00
    0.14707E-07        -0.21632E-11         0.00000E+00
    0.15007E-07        -0.22582E-11         0.00000E+00
    0.15310E-07        -0.23527E-11         0.00000E+00
    0.15615E-07        -0.24464E-11         0.00000E+00
    0.15923E-07        -0.25390E-11         0.00000E+00
    0.16233E-07        -0.26299E-11         0.00000E+00
    0.16546E-07        -0.27188E-11         0.00000E+00
    0.16859E-07        -0.28050E-11         0.00000E+00
    0.17174E-07        -0.28881E-11         0.00000E+00
    0.17490E-07        -0.29675E-11         0.00000E+00
    0.17807E-07        -0.30425E-11         0.00000E+00
    0.18124E-07        -0.31125E-11         0.00000E+00
    0.18441E-07        -0.31767E-11         0.00000E+00
    0.18757E-07        -0.32344E-11         0.00000E+00
    0.19072E-07        -0.32848E-11         0.00000E+00
    0.19385E-07        -0.33271E-11         0.00000E+00
    0.19697E-07        -0.33602E-11         0.00000E+00
    0.20007E-07        -0.33832E-11         0.00000E+00
    0.20313E-07        -0.33950E-11         0.00000E+00
    0.20617E-07        -0.33945E-11         0.00000E+00
    0.20916E-07        -0.33805E-11         0.00000E+00
    0.21211E-07        -0.33515E-11         0.00000E+00
    0.21502E-07        -0.33060E-11         0.00000E+00
    0.21787E-07        -0.32424E-11         0.00000E+00
    0.22066E-07        -0.31587E-11         0.00000E+00
    0.22339E-07        -0.30528E-11         0.00000E+00
    0.22605E-07        -0.29224E-11         0.00000E+00
    0.22863E-07        -0.27646E-11         0.00000E+00
    0.23113E-07        -0.25764E-11         0.00000E+00
    0.23355E-07        -0.23544E-11         0.00000E+00
    0.23587E-07        -0.20948E-11         0.00000E+00
    0.23810E-07        -0.17934E-11         0.00000E+00
    0.24023E-07        -0.14461E-11         0.00000E+00
    0.24225E-07        -0.10485E-11         0.00000E+00
    0.24415E-07        -0.59706E-12         0.00000E+00
    0.24594E-07        -0.88885E-13         0.00000E+00
    0.24760E-07         0.47678E-12         0.00000E+00
    0.24914E-07         0.10975E-11         0.00000E+00
    0.25055E-07         0.17657E-11         0.00000E+00
    0.25182E-07         0.24662E-11         0.00000E+00
    0.25295E-07         0.31725E-11         0.00000E+00
    0.25394E-07         0.38424E-11         0.00000E+00
    0.25478E-07         0.44116E-11         0.00000E+00
    0.25548E-07         0.47869E-11         0.00000E+00
    0.25602E-07         0.48390E-11         0.00000E+00
    0.25642E-07         0.43998E-11         0.00000E+00
    0.25666E-07         0.32710E-11         0.00000E+00
    0.25675E-07         0.12541E-11         0.00000E+00
    0.64338E-08         0.64752E-12         0.00000E+00
    0.64365E-08         0.17088E-11         0.00000E+00
    0.64455E-08         0.23513E-11         0.00000E+00
    0.64608E-08         0.26741E-11         0.00000E+00
    0.64824E-08         0.27710E-11         0.00000E+00
    0.65104E-08         0.27190E-11         0.00000E+00
    0.65448E-08         0.25759E-11         0.00000E+00
    0.65855E-08         0.23825E-11         0.00000E+00
    0.66326E-08         0.21666E-11         0.00000E+00
    0.66861E-08         0.19463E-11         0.00000E+00
    0.67459E-08         0.17327E-11         0.00000E+00
    0.68120E-08         0.15321E-11         0.00000E+00
    0.68845E-08         0.13475E-11         0.00000E+00
    0.69633E-08         0.11797E-11         0.00000E+00
    0.70484E-08         0.10282E-11         0.00000E+00
    0.71399E-08         0.89176E-12         0.00000E+00
    0.72376E-08         0.76877E-12         0.00000E+00
    0.73416E-08         0.65742E-12         0.00000E+00
    0.74519E-08         0.55595E-12         0.00000E+00
    0.75685E-08         0.46271E-12         0.00000E+00
    0.76913E-08         0.37620E-12         0.00000E+00
    0.78204E-08         0.29512E-12         0.00000E+00
    0.79557E-08         0.21833E-12         0.00000E+00
    0.80973E-08         0.14484E-12         0.00000E+00
    0.82450E-08         0.73848E-13         0.00000E+00
    0.83989E-08         0.46486E-14         0.00000E+00
    0.85590E-08        -0.63343E-13         0.00000E+00
    0.87253E-08        -0.13062E-12         0.00000E+00
    0.88977E-08        -0.19759E-12         0.00000E+00
    0.90761E-08        -0.26462E-12         0.00000E+00
    0.92606E-08        -0.33199E-12         0.00000E+00
    0.94511E-08        -0.39998E-12         0.00000E+00
    0.96476E-08        -0.46878E-12         0.00000E+00
    0.98500E-08        -0.53860E-12         0.00000E+00
    0.10058E-07        -0.60958E-12         0.00000E+00
    0.10272E-07        -0.68186E-12         0.00000E+00
    0.10492E-07        -0.75556E-12         0.00000E+00
    0.10718E-07        -0.83076E-12         0.00000E+00
    0.10949E-07        -0.90753E-12         0.00000E+00
    0.11185E-07        -0.98592E-12         0.00000E+00
    0.11427E-07        -0.10660E-11         0.00000E+00
    0.11675E-07        -0.11477E-11         0.00000E+00
    0.11927E-07        -0.12310E-11         0.00000E+00
    0.12185E-07        -0.13160E-11         0.00000E+00
    0.12447E-07        -0.14025E-11         0.00000E+00
    0.12715E-07        -0.14905E-11         0.00000E+00
    0.12987E-07        -0.15798E-11         0.00000E+00
    0.13263E-07        -0.16704E-11         0.00000E+00
    0.13544E-07        -0.17621E-11         0.00000E+00
    0.13829E-07        -0.18548E-11         0.00000E+00
    0.14118E-07        -0.19481E-11         0.00000E+00
    0.14411E-07        -0.20420E-11         0.00000E+00
    0.14707E-07        -0.21360E-11         0.00000E+00
    0.15007E-07        -0.22300E-11         0.00000E+00
    0.15310E-07        -0.23236E-11         0.00000E+00
    0.15615E-07        -0.24164E-11         0.00000E+00
    0.15923E-07        -0.25081E-11         0.00000E+00
    0.16233E-07        -0.25982E-11         0.00000E+00
    0.16546E-07        -0.26863E-11         0.00000E+00
    0.16859E-07        -0.27718E-11         0.00000E+00
    0.17174E-07        -0.28542E-11         0.00000E+00
    0.17490E-07        -0.29330E-11         0.00000E+00
    0.17807E-07        -0.30076E-11         0.00000E+00
    0.18124E-07        -0.30772E-11         0.00000E+00
    0.18441E-07        -0.31411E-11         0.00000E+00
    0.18757E-07        -0.31987E-11         0.00000E+00
    0.19072E-07        -0.32491E-11         0.00000E+00
    0.19385E-07        -0.32914E-11         0.00000E+00
    0.19697E-07        -0.33248E-11         0.00000E+00
    0.20007E-07        -0.33482E-11         0.00000E+00
    0.20313E-07        -0.33607E-11         0.00000E+00
    0.20617E-07        -0.33611E-11         0.00000E+00
    0.20916E-07        -0.33481E-11         0.00000E+00
    0.21211E-07        -0.33204E-11         0.00000E+00
    0.21502E-07        -0.32764E-11         0.00000E+00
    0.21787E-07        -0.32146E-11         0.00000E+00
    0.22066E-07        -0.31331E-11         0.00000E+00
    0.22339E-07        -0.30296E-11         0.00000E+00
    0.22605E-07        -0.29019E-11         0.00000E+00
    0.22863E-07        -0.27472E-11         0.00000E+00
    0.23113E-07        -0.25625E-11         0.00000E+00
    0.23355E-07        -0.23443E-11         0.00000E+00
    0.23587E-07        -0.20888E-11         0.00000E+00
    0.23810E-07        -0.17920E-11         0.00000E+00
    0.24023E-07        -0.14495E-11         0.00000E+00
    0.24225E-07        -0.10570E-11         0.00000E+00
    0.24415E-07        -0.61077E-12         0.00000E+00
    0.24594E-07        -0.10787E-12         0.00000E+00
    0.24761E-07         0.45265E-12         0.00000E+00
    0.24914E-07         0.10686E-11         0.00000E+00
    0.25055E-07         0.17327E-11         0.00000E+00
    0.25182E-07         0.24302E-11         0.00000E+00
    0.25295E-07         0.31353E-11         0.00000E+00
    0.25394E-07         0.38064E-11         0.00000E+00
    0.25478E-07         0.43801E-11         0.00000E+00
    0.25548E-07         0.47639E-11         0.00000E+00
    0.25602E-07         0.48284E-11         0.00000E+00
    0.25642E-07         0.44031E-11         0.00000E+00
    0.25666E-07         0.32836E-11         0.00000E+00
    0.25674E-07         0.12616E-11         0.00000E+00
    0.64341E-08         0.64751E-12         0.00000E+00
    0.64367E-08         0.17049E-11         0.00000E+00
    0.64456E-08         0.23384E-11         0.00000E+00
    0.64608E-08         0.26517E-11         0.00000E+00
    0.64824E-08         0.27411E-11         0.00000E+00
    0.65104E-08         0.26843E-11         0.00000E+00
    0.65448E-08         0.25386E-11         0.00000E+00
    0.65855E-08         0.23446E-11         0.00000E+00
    0.66326E-08         0.21293E-11         0.00000E+00
    0.66861E-08         0.19105E-11         0.00000E+00
    0.67459E-08         0.16990E-11         0.00000E+00
    0.68120E-08         0.15007E-11         0.00000E+00
    0.68845E-08         0.13186E-11         0.00000E+00
    0.69633E-08         0.11534E-11         0.00000E+00
    0.70484E-08         0.10044E-11         0.00000E+00
    0.71398E-08         0.87049E-12         0.00000E+00
    0.72376E-08         0.74988E-12         0.00000E+00
    0.73416E-08         0.64080E-12         0.00000E+00
    0.74519E-08         0.54148E-12         0.00000E+00
    0.75685E-08         0.45028E-12         0.00000E+00
    0.76913E-08         0.36570E-12         0.00000E+00
    0.78204E-08         0.28645E-12         0.00000E+00
    0.79557E-08         0.21139E-12         0.00000E+00
    0.80972E-08         0.13956E-12         0.00000E+00
    0.82450E-08         0.70150E-13         0.00000E+00
    0.83989E-08         0.24716E-14         0.00000E+00
    0.85590E-08        -0.64050E-13         0.00000E+00
    0.87253E-08        -0.12990E-12         0.00000E+00
    0.88976E-08        -0.19548E-12         0.00000E+00
    0.90761E-08        -0.26115E-12         0.00000E+00
    0.92606E-08        -0.32719E-12         0.00000E+00
    0.94511E-08        -0.39384E-12         0.00000E+00
    0.96476E-08        -0.46134E-12         0.00000E+00
    0.98500E-08        -0.52985E-12         0.00000E+00
    0.10058E-07        -0.59953E-12         0.00000E+00
    0.10272E-07        -0.67051E-12         0.00000E+00
    0.10492E-07        -0.74290E-12         0.00000E+00
    0.10718E-07        -0.81679E-12         0.00000E+00
    0.10949E-07        -0.89224E-12         0.00000E+00
    0.11185E-07        -0.96931E-12         0.00000E+00
    0.11427E-07        -0.10480E-11         0.00000E+00
    0.11675E-07        -0.11284E-11         0.00000E+00
    0.11927E-07        -0.12104E-11         0.00000E+00
    0.12185E-07        -0.12940E-11         0.00000E+00
    0.12447E-07        -0.13791E-11         0.00000E+00
    0.12715E-07        -0.14657E-11         0.00000E+00
    0.12987E-07        -0.15537E-11         0.00000E+00
    0.13263E-07        -0.16430E-11         0.00000E+00
    0.13544E-07        -0.17333E-11         0.00000E+00
    0.13829E-07        -0.18246E-11         0.00000E+00
    0.14118E-07        -0.19166E-11         0.00000E+00
    0.14411E-07        -0.20090E-11         0.00000E+00
    0.14707E-07        -0.21018E-11         0.00000E+00
    0.15007E-07        -0.21945E-11         0.00000E+00
    0.15310E-07        -0.22868E-11         0.00000E+00
    0.15615E-07        -0.23784E-11         0.00000E+00
    0.15923E-07        -0.24688E-11         0.00000E+00
    0.16233E-07        -0.25578E-11         0.00000E+00
    0.16546E-07        -0.26448E-11         0.00000E+00
    0.16859E-07        -0.27293E-11         0.00000E+00
    0.17174E-07        -0.28108E-11         0.00000E+00
    0.17490E-07        -0.28888E-11         0.00000E+00
    0.17807E-07        -0.29626E-11         0.00000E+00
    0.18124E-07        -0.30316E-11         0.00000E+00
    0.18441E-07        -0.30950E-11         0.00000E+00
    0.18757E-07        -0.31522E-11         0.00000E+00
    0.19072E-07        -0.32024E-11         0.00000E+00
    0.19385E-07        -0.32447E-11         0.00000E+00
    0.19697E-07        -0.32782E-11         0.00000E+00
    0.20007E-07        -0.33020E-11         0.00000E+00
    0.20313E-07        -0.33151E-11         0.00000E+00
    0.20617E-07        -0.33163E-11         0.00000E+00
    0.20916E-07        -0.33044E-11         0.00000E+00
    0.21211E-07        -0.32780E-11         0.00000E+00
    0.21502E-07        -0.32358E-11         0.00000E+00
    0.21787E-07        -0.31760E-11         0.00000E+00
    0.22066E-07        -0.30968E-11         0.00000E+00
    0.22339E-07        -0.29961E-11         0.00000E+00
    0.22605E-07        -0.28716E-11         0.00000E+00
    0.22863E-07        -0.27206E-11         0.00000E+00
    0.23113E-07        -0.25399E-11         0.00000E+00
    0.23355E-07        -0.23263E-11         0.00000E+00
    0.23587E-07        -0.20759E-11         0.00000E+00
    0.23810E-07        -0.17846E-11         0.00000E+00
    0.24023E-07        -0.14481E-11         0.00000E+00
    0.24225E-07        -0.10621E-11         0.00000E+00
    0.24415E-07        -0.62264E-12         0.00000E+00
    0.24594E-07        -0.12682E-12         0.00000E+00
    0.24761E-07         0.42654E-12         0.00000E+00
    0.24914E-07         0.10355E-11         0.00000E+00
    0.25055E-07         0.16932E-11         0.00000E+00
    0.25182E-07         0.23853E-11         0.00000E+00
    0.25295E-07         0.30869E-11         0.00000E+00
    0.25394E-07         0.37571E-11         0.00000E+00
    0.25479E-07         0.43339E-11         0.00000E+00
    0.25548E-07         0.47258E-11         0.00000E+00
    0.25602E-07         0.48038E-11         0.00000E+00
    0.25641E-07         0.43954E-11         0.00000E+00
    0.25665E-07         0.32896E-11         0.00000E+00
    0.25674E-07         0.12671E-11         0.00000E+00
    0.64343E-08         0.64622E-12         0.00000E+00
    0.64369E-08         0.16970E-11         0.00000E+00
    0.64457E-08         0.23192E-11         0.00000E+00
    0.64608E-08         0.26212E-11         0.00000E+00
    0.64824E-08         0.27023E-11         0.00000E+00
    0.65104E-08         0.26404E-11         0.00000E+00
    0.65447E-08         0.24926E-11         0.00000E+00
    0.65855E-08         0.22984E-11         0.00000E+00
    0.66326E-08         0.20845E-11         0.00000E+00
    0.66860E-08         0.18680E-11         0.00000E+00
    0.67458E-08         0.16593E-11         0.00000E+00
    0.68120E-08         0.14642E-11         0.00000E+00
    0.68845E-08         0.12852E-11         0.00000E+00
    0.69633E-08         0.11232E-11         0.00000E+00
    0.70484E-08         0.97731E-12         0.00000E+00
    0.71398E-08         0.84632E-12         0.00000E+00
    0.72375E-08         0.72852E-12         0.00000E+00
    0.73416E-08         0.62210E-12         0.00000E+00
    0.74519E-08         0.52527E-12         0.00000E+00
    0.75684E-08         0.43642E-12         0.00000E+00
    0.76913E-08         0.35406E-12         0.00000E+00
    0.78204E-08         0.27689E-12         0.00000E+00
    0.79557E-08         0.20382E-12         0.00000E+00
    0.80972E-08         0.13388E-12         0.00000E+00
    0.82450E-08         0.66276E-13         0.00000E+00
    0.83989E-08         0.33935E-15         0.00000E+00
    0.85590E-08        -0.64497E-13         0.00000E+00
    0.87253E-08        -0.12871E-12         0.00000E+00
    0.88976E-08        -0.19269E-12         0.00000E+00
    0.90761E-08        -0.25678E-12         0.00000E+00
    0.92606E-08        -0.32126E-12         0.00000E+00
    0.94511E-08        -0.38637E-12         0.00000E+00
    0.96476E-08        -0.45233E-12         0.00000E+00
    0.98500E-08        -0.51931E-12         0.00000E+00
    0.10058E-07        -0.58745E-12         0.00000E+00
    0.10272E-07        -0.65690E-12         0.00000E+00
    0.10492E-07        -0.72774E-12         0.00000E+00
    0.10718E-07        -0.80007E-12         0.00000E+00
    0.10949E-07        -0.87396E-12         0.00000E+00
    0.11185E-07        -0.94944E-12         0.00000E+00
    0.11427E-07        -0.10266E-11         0.00000E+00
    0.11675E-07        -0.11053E-11         0.00000E+00
    0.11927E-07        -0.11857E-11         0.00000E+00
    0.12185E-07        -0.12676E-11         0.00000E+00
    0.12447E-07        -0.13511E-11         0.00000E+00
    0.12715E-07        -0.14361E-11         0.00000E+00
    0.12987E-07        -0.15224E-11         0.00000E+00
    0.13263E-07        -0.16099E-11         0.00000E+00
    0.13544E-07        -0.16986E-11         0.00000E+00
    0.13829E-07        -0.17882E-11         0.00000E+00
    0.14118E-07        -0.18785E-11         0.00000E+00
    0.14411E-07        -0.19693E-11         0.00000E+00
    0.14707E-07        -0.20604E-11         0.00000E+00
    0.15007E-07        -0.21515E-11         0.00000E+00
    0.15310E-07        -0.22422E-11         0.00000E+00
    0.15615E-07        -0.23322E-11         0.00000E+00
    0.15923E-07        -0.24212E-11         0.00000E+00
    0.16233E-07        -0.25087E-11         0.00000E+00
    0.16546E-07        -0.25943E-11         0.00000E+00
    0.16859E-07        -0.26776E-11         0.00000E+00
    0.17174E-07        -0.27579E-11         0.00000E+00
    0.17490E-07        -0.28347E-11         0.00000E+00
    0.17807E-07        -0.29075E-11         0.00000E+00
    0.18124E-07        -0.29756E-11         0.00000E+00
    0.18441E-07        -0.30383E-11         0.00000E+00
    0.18757E-07        -0.30950E-11         0.00000E+00
    0.19072E-07        -0.31448E-11         0.00000E+00
    0.19385E-07        -0.31869E-11         0.00000E+00
    0.19697E-07        -0.32204E-11         0.00000E+00
    0.20007E-07        -0.32445E-11         0.00000E+00
    0.20313E-07        -0.32581E-11         0.00000E+00
    0.20617E-07        -0.32600E-11         0.00000E+00
    0.20916E-07        -0.32492E-11         0.00000E+00
    0.21211E-07        -0.32243E-11         0.00000E+00
    0.21502E-07        -0.31839E-11         0.00000E+00
    0.21787E-07        -0.31263E-11         0.00000E+00
    0.22066E-07        -0.30498E-11         0.00000E+00
    0.22339E-07        -0.29522E-11         0.00000E+00
    0.22605E-07        -0.28313E-11         0.00000E+00
    0.22863E-07        -0.26843E-11         0.00000E+00
    0.23113E-07        -0.25084E-11         0.00000E+00
    0.23355E-07        -0.23000E-11         0.00000E+00
    0.23588E-07        -0.20556E-11         0.00000E+00
    0.23810E-07        -0.17708E-11         0.00000E+00
    0.24023E-07        -0.14416E-11         0.00000E+00
    0.24225E-07        -0.10634E-11         0.00000E+00
    0.24415E-07        -0.63243E-12         0.00000E+00
    0.24594E-07        -0.14550E-12         0.00000E+00
    0.24761E-07         0.39867E-12         0.00000E+00
    0.24915E-07         0.99841E-12         0.00000E+00
    0.25055E-07         0.16473E-11         0.00000E+00
    0.25182E-07         0.23316E-11         0.00000E+00
    0.25296E-07         0.30271E-11         0.00000E+00
    0.25394E-07         0.36944E-11         0.00000E+00
    0.25479E-07         0.42726E-11         0.00000E+00
    0.25548E-07         0.46721E-11         0.00000E+00
    0.25602E-07         0.47646E-11         0.00000E+00
    0.25641E-07         0.43759E-11         0.00000E+00
    0.25665E-07         0.32886E-11         0.00000E+00
    0.25673E-07         0.12703E-11         0.00000E+00
    0.64346E-08         0.64355E-12         0.00000E+00
    0.64370E-08         0.16850E-11         0.00000E+00
    0.64458E-08         0.22931E-11         0.00000E+00
    0.64609E-08         0.25823E-11         0.00000E+00
    0.64824E-08         0.26541E-11         0.00000E+00
    0.65104E-08         0.25872E-11         0.00000E+00
    0.65447E-08         0.24376E-11         0.00000E+00
    0.65854E-08         0.22441E-11         0.00000E+00
    0.66325E-08         0.20323E-11         0.00000E+00
    0.66860E-08         0.18189E-11         0.00000E+00
    0.67458E-08         0.16138E-11         0.00000E+00
    0.68119E-08         0.14225E-11         0.00000E+00
    0.68844E-08         0.12474E-11         0.00000E+00
    0.69632E-08         0.10891E-11         0.00000E+00
    0.70484E-08         0.94689E-12         0.00000E+00
    0.71398E-08         0.81934E-12         0.00000E+00
    0.72375E-08         0.70477E-12         0.00000E+00
    0.73415E-08         0.60137E-12         0.00000E+00
    0.74518E-08         0.50738E-12         0.00000E+00
    0.75684E-08         0.42118E-12         0.00000E+00
    0.76913E-08         0.34131E-12         0.00000E+00
    0.78203E-08         0.26650E-12         0.00000E+00
    0.79557E-08         0.19565E-12         0.00000E+00
    0.80972E-08         0.12783E-12         0.00000E+00
    0.82450E-08         0.62255E-13         0.00000E+00
    0.83989E-08        -0.17243E-14         0.00000E+00
    0.85590E-08        -0.64663E-13         0.00000E+00
    0.87253E-08        -0.12702E-12         0.00000E+00
    0.88976E-08        -0.18919E-12         0.00000E+00
    0.90761E-08        -0.25149E-12         0.00000E+00
    0.92606E-08        -0.31420E-12         0.00000E+00
    0.94511E-08        -0.37756E-12         0.00000E+00
    0.96476E-08        -0.44176E-12         0.00000E+00
    0.98500E-08        -0.50698E-12         0.00000E+00
    0.10058E-07        -0.57336E-12         0.00000E+00
    0.10272E-07        -0.64103E-12         0.00000E+00
    0.10492E-07        -0.71009E-12         0.00000E+00
    0.10718E-07        -0.78062E-12         0.00000E+00
    0.10949E-07        -0.85268E-12         0.00000E+00
    0.11185E-07        -0.92632E-12         0.00000E+00
    0.11427E-07        -0.10016E-11         0.00000E+00
    0.11675E-07        -0.10784E-11         0.00000E+00
    0.11927E-07        -0.11569E-11         0.00000E+00
    0.12185E-07        -0.12369E-11         0.00000E+00
    0.12447E-07        -0.13185E-11         0.00000E+00
    0.12715E-07        -0.14015E-11         0.00000E+00
    0.12987E-07        -0.14858E-11         0.00000E+00
    0.13263E-07        -0.15714E-11         0.00000E+00
    0.13544E-07        -0.16580E-11         0.00000E+00
    0.13829E-07        -0.17456E-11         0.00000E+00
    0.14118E-07        -0.18340E-11         0.00000E+00
    0.14411E-07        -0.19228E-11         0.00000E+00
    0.14707E-07        -0.20119E-11         0.00000E+00
    0.15007E-07        -0.21011E-11         0.00000E+00
    0.15310E-07        -0.21899E-11         0.00000E+00
    0.15615E-07        -0.22780E-11         0.00000E+00
    0.15923E-07        -0.23652E-11         0.00000E+00
    0.16233E-07        -0.24510E-11         0.00000E+00
    0.16546E-07        -0.25349E-11         0.00000E+00
    0.16859E-07        -0.26165E-11         0.00000E+00
    0.17174E-07        -0.26953E-11         0.00000E+00
    0.17490E-07        -0.27708E-11         0.00000E+00
    0.17807E-07        -0.28423E-11         0.00000E+00
    0.18124E-07        -0.29093E-11         0.00000E+00
    0.18441E-07        -0.29710E-11         0.00000E+00
    0.18757E-07        -0.30269E-11         0.00000E+00
    0.19072E-07        -0.30761E-11         0.00000E+00
    0.19385E-07        -0.31178E-11         0.00000E+00
    0.19697E-07        -0.31513E-11         0.00000E+00
    0.20007E-07        -0.31755E-11         0.00000E+00
    0.20313E-07        -0.31895E-11         0.00000E+00
    0.20617E-07        -0.31922E-11         0.00000E+00
    0.20916E-07        -0.31825E-11         0.00000E+00
    0.21211E-07        -0.31592E-11         0.00000E+00
    0.21502E-07        -0.31206E-11         0.00000E+00
    0.21787E-07        -0.30654E-11         0.00000E+00
    0.22066E-07        -0.29917E-11         0.00000E+00
    0.22339E-07        -0.28976E-11         0.00000E+00
    0.22605E-07        -0.27806E-11         0.00000E+00
    0.22863E-07        -0.26383E-11         0.00000E+00
    0.23113E-07        -0.24677E-11         0.00000E+00
    0.23355E-07        -0.22654E-11         0.00000E+00
    0.23588E-07        -0.20277E-11         0.00000E+00
    0.23810E-07        -0.17506E-11         0.00000E+00
    0.24023E-07        -0.14297E-11         0.00000E+00
    0.24225E-07        -0.10608E-11         0.00000E+00
    0.24415E-07        -0.63986E-12         0.00000E+00
    0.24594E-07        -0.16365E-12         0.00000E+00
    0.24761E-07         0.36928E-12         0.00000E+00
    0.24915E-07         0.95755E-12         0.00000E+00
    0.25055E-07         0.15952E-11         0.00000E+00
    0.25183E-07         0.22691E-11         0.00000E+00
    0.25296E-07         0.29561E-11         0.00000E+00
    0.25395E-07         0.36181E-11         0.00000E+00
    0.25479E-07         0.41960E-11         0.00000E+00
    0.25548E-07         0.46022E-11         0.00000E+00
    0.25602E-07         0.47099E-11         0.00000E+00
    0.25641E-07         0.43439E-11         0.00000E+00
    0.25665E-07         0.32797E-11         0.00000E+00
    0.25673E-07         0.12711E-11         0.00000E+00
    0.64349E-08         0.63939E-12         0.00000E+00
    0.64372E-08         0.16684E-11         0.00000E+00
    0.64458E-08         0.22598E-11         0.00000E+00
    0.64609E-08         0.25344E-11         0.00000E+00
    0.64824E-08         0.25965E-11         0.00000E+00
    0.65103E-08         0.25246E-11         0.00000E+00
    0.65447E-08         0.23737E-11         0.00000E+00
    0.65854E-08         0.21815E-11         0.00000E+00
    0.66325E-08         0.19727E-11         0.00000E+00
    0.66859E-08         0.17632E-11         0.00000E+00
    0.67457E-08         0.15625E-11         0.00000E+00
    0.68119E-08         0.13757E-11         0.00000E+00
    0.68844E-08         0.12052E-11         0.00000E+00
    0.69632E-08         0.10513E-11         0.00000E+00
    0.70483E-08         0.91326E-12         0.00000E+00
    0.71398E-08         0.78963E-12         0.00000E+00
    0.72375E-08         0.67871E-12         0.00000E+00
    0.73415E-08         0.57870E-12         0.00000E+00
    0.74518E-08         0.48788E-12         0.00000E+00
    0.75684E-08         0.40463E-12         0.00000E+00
    0.76912E-08         0.32752E-12         0.00000E+00
    0.78203E-08         0.25530E-12         0.00000E+00
    0.79557E-08         0.18691E-12         0.00000E+00
    0.80972E-08         0.12144E-12         0.00000E+00
    0.82449E-08         0.58115E-13         0.00000E+00
    0.83989E-08        -0.36953E-14         0.00000E+00
    0.85590E-08        -0.64528E-13         0.00000E+00
    0.87252E-08        -0.12483E-12         0.00000E+00
    0.88976E-08        -0.18497E-12         0.00000E+00
    0.90761E-08        -0.24528E-12         0.00000E+00
    0.92606E-08        -0.30601E-12         0.00000E+00
    0.94511E-08        -0.36739E-12         0.00000E+00
    0.96476E-08        -0.42962E-12         0.00000E+00
    0.98500E-08        -0.49286E-12         0.00000E+00
    0.10058E-07        -0.55725E-12         0.00000E+00
    0.10272E-07        -0.62291E-12         0.00000E+00
    0.10492E-07        -0.68995E-12         0.00000E+00
    0.10718E-07        -0.75842E-12         0.00000E+00
    0.10949E-07        -0.82841E-12         0.00000E+00
    0.11185E-07        -0.89995E-12         0.00000E+00
    0.11427E-07        -0.97307E-12         0.00000E+00
    0.11675E-07        -0.10478E-11         0.00000E+00
    0.11927E-07        -0.11241E-11         0.00000E+00
    0.12185E-07        -0.12019E-11         0.00000E+00
    0.12447E-07        -0.12812E-11         0.00000E+00
    0.12715E-07        -0.13619E-11         0.00000E+00
    0.12987E-07        -0.14440E-11         0.00000E+00
    0.13263E-07        -0.15273E-11         0.00000E+00
    0.13544E-07        -0.16117E-11         0.00000E+00
    0.13829E-07        -0.16969E-11         0.00000E+00
    0.14118E-07        -0.17830E-11         0.00000E+00
    0.14411E-07        -0.18695E-11         0.00000E+00
    0.14707E-07        -0.19563E-11         0.00000E+00
    0.15007E-07        -0.20432E-11         0.00000E+00
    0.15310E-07        -0.21298E-11         0.00000E+00
    0.15615E-07        -0.22158E-11         0.00000E+00
    0.15923E-07        -0.23008E-11         0.00000E+00
    0.16233E-07        -0.23845E-11         0.00000E+00
    0.16545E-07        -0.24664E-11         0.00000E+00
    0.16859E-07        -0.25461E-11         0.00000E+00
    0.17174E-07        -0.26231E-11         0.00000E+00
    0.17490E-07        -0.26969E-11         0.00000E+00
    0.17807E-07        -0.27669E-11         0.00000E+00
    0.18124E-07        -0.28325E-11         0.00000E+00
    0.18441E-07        -0.28930E-11         0.00000E+00
    0.18757E-07        -0.29479E-11         0.00000E+00
    0.19072E-07        -0.29963E-11         0.00000E+00
    0.19385E-07        -0.30375E-11         0.00000E+00
    0.19697E-07        -0.30707E-11         0.00000E+00
    0.20007E-07        -0.30949E-11         0.00000E+00
    0.20313E-07        -0.31093E-11         0.00000E+00
    0.20617E-07        -0.31128E-11         0.00000E+00
    0.20916E-07        -0.31042E-11         0.00000E+00
    0.21211E-07        -0.30823E-11         0.00000E+00
    0.21502E-07        -0.30458E-11         0.00000E+00
    0.21787E-07        -0.29932E-11         0.00000E+00
    0.22066E-07        -0.29226E-11         0.00000E+00
    0.22339E-07        -0.28321E-11         0.00000E+00
    0.22605E-07        -0.27196E-11         0.00000E+00
    0.22863E-07        -0.25824E-11         0.00000E+00
    0.23113E-07        -0.24176E-11         0.00000E+00
    0.23355E-07        -0.22221E-11         0.00000E+00
    0.23588E-07        -0.19920E-11         0.00000E+00
    0.23810E-07        -0.17235E-11         0.00000E+00
    0.24023E-07        -0.14123E-11         0.00000E+00
    0.24225E-07        -0.10540E-11         0.00000E+00
    0.24416E-07        -0.64466E-12         0.00000E+00
    0.24594E-07        -0.18100E-12         0.00000E+00
    0.24761E-07         0.33864E-12         0.00000E+00
    0.24915E-07         0.91315E-12         0.00000E+00
    0.25056E-07         0.15370E-11         0.00000E+00
    0.25183E-07         0.21980E-11         0.00000E+00
    0.25296E-07         0.28738E-11         0.00000E+00
    0.25395E-07         0.35279E-11         0.00000E+00
    0.25479E-07         0.41035E-11         0.00000E+00
    0.25548E-07         0.45153E-11         0.00000E+00
    0.25602E-07         0.46389E-11         0.00000E+00
    0.25641E-07         0.42984E-11         0.00000E+00
    0.25664E-07         0.32624E-11         0.00000E+00
    0.25672E-07         0.12691E-11         0.00000E+00
    0.64351E-08         0.63361E-12         0.00000E+00
    0.64373E-08         0.16469E-11         0.00000E+00
    0.64459E-08         0.22189E-11         0.00000E+00
    0.64609E-08         0.24773E-11         0.00000E+00
    0.64824E-08         0.25291E-11         0.00000E+00
    0.65103E-08         0.24524E-11         0.00000E+00
    0.65446E-08         0.23008E-11         0.00000E+00
    0.65853E-08         0.21107E-11         0.00000E+00
    0.66324E-08         0.19057E-11         0.00000E+00
    0.66859E-08         0.17010E-11         0.00000E+00
    0.67457E-08         0.15055E-11         0.00000E+00
    0.68119E-08         0.13241E-11         0.00000E+00
    0.68844E-08         0.11588E-11         0.00000E+00
    0.69632E-08         0.10099E-11         0.00000E+00
    0.70483E-08         0.87652E-12         0.00000E+00
    0.71397E-08         0.75727E-12         0.00000E+00
    0.72375E-08         0.65041E-12         0.00000E+00
    0.73415E-08         0.55416E-12         0.00000E+00
    0.74518E-08         0.46682E-12         0.00000E+00
    0.75684E-08         0.38681E-12         0.00000E+00
    0.76912E-08         0.31273E-12         0.00000E+00
    0.78203E-08         0.24336E-12         0.00000E+00
    0.79556E-08         0.17766E-12         0.00000E+00
    0.80972E-08         0.11475E-12         0.00000E+00
    0.82449E-08         0.53886E-13         0.00000E+00
    0.83989E-08        -0.55490E-14         0.00000E+00
    0.85590E-08        -0.64071E-13         0.00000E+00
    0.87252E-08        -0.12211E-12         0.00000E+00
    0.88976E-08        -0.18003E-12         0.00000E+00
    0.90760E-08        -0.23813E-12         0.00000E+00
    0.92605E-08        -0.29667E-12         0.00000E+00
    0.94511E-08        -0.35587E-12         0.00000E+00
    0.96475E-08        -0.41590E-12         0.00000E+00
    0.98499E-08        -0.47694E-12         0.00000E+00
    0.10058E-07        -0.53912E-12         0.00000E+00
    0.10272E-07        -0.60254E-12         0.00000E+00
    0.10492E-07        -0.66731E-12         0.00000E+00
    0.10718E-07        -0.73349E-12         0.00000E+00
    0.10949E-07        -0.80116E-12         0.00000E+00
    0.11185E-07        -0.87034E-12         0.00000E+00
    0.11427E-07        -0.94107E-12         0.00000E+00
    0.11675E-07        -0.10133E-11         0.00000E+00
    0.11927E-07        -0.10872E-11         0.00000E+00
    0.12185E-07        -0.11625E-11         0.00000E+00
    0.12447E-07        -0.12393E-11         0.00000E+00
    0.12715E-07        -0.13175E-11         0.00000E+00
    0.12987E-07        -0.13970E-11         0.00000E+00
    0.13263E-07        -0.14777E-11         0.00000E+00
    0.13544E-07        -0.15594E-11         0.00000E+00
    0.13829E-07        -0.16421E-11         0.00000E+00
    0.14118E-07        -0.17255E-11         0.00000E+00
    0.14411E-07        -0.18094E-11         0.00000E+00
    0.14707E-07        -0.18936E-11         0.00000E+00
    0.15007E-07        -0.19779E-11         0.00000E+00
    0.15310E-07        -0.20619E-11         0.00000E+00
    0.15615E-07        -0.21453E-11         0.00000E+00
    0.15923E-07        -0.22279E-11         0.00000E+00
    0.16233E-07        -0.23092E-11         0.00000E+00
    0.16545E-07        -0.23888E-11         0.00000E+00
    0.16859E-07        -0.24663E-11         0.00000E+00
    0.17174E-07        -0.25412E-11         0.00000E+00
    0.17490E-07        -0.26130E-11         0.00000E+00
    0.17807E-07        -0.26812E-11         0.00000E+00
    0.18124E-07        -0.27451E-11         0.00000E+00
    0.18441E-07        -0.28042E-11         0.00000E+00
    0.18757E-07        -0.28579E-11         0.00000E+00
    0.19072E-07        -0.29053E-11         0.00000E+00
    0.19385E-07        -0.29458E-11         0.00000E+00
    0.19697E-07        -0.29786E-11         0.00000E+00
    0.20007E-07        -0.30027E-11         0.00000E+00
    0.20313E-07        -0.30174E-11         0.00000E+00
    0.20617E-07        -0.30215E-11         0.00000E+00
    0.20916E-07        -0.30140E-11         0.00000E+00
    0.21211E-07        -0.29938E-11         0.00000E+00
    0.21502E-07        -0.29594E-11         0.00000E+00
    0.21787E-07        -0.29094E-11         0.00000E+00
    0.22066E-07        -0.28421E-11         0.00000E+00
    0.22339E-07        -0.27556E-11         0.00000E+00
    0.22605E-07        -0.26478E-11         0.00000E+00
    0.22863E-07        -0.25162E-11         0.00000E+00
    0.23113E-07        -0.23579E-11         0.00000E+00
    0.23355E-07        -0.21698E-11         0.00000E+00
    0.23588E-07        -0.19482E-11         0.00000E+00
    0.23811E-07        -0.16893E-11         0.00000E+00
    0.24023E-07        -0.13889E-11         0.00000E+00
    0.24225E-07        -0.10426E-11         0.00000E+00
    0.24416E-07        -0.64651E-12         0.00000E+00
    0.24595E-07        -0.19723E-12         0.00000E+00
    0.24761E-07         0.30702E-12         0.00000E+00
    0.24915E-07         0.86544E-12         0.00000E+00
    0.25056E-07         0.14730E-11         0.00000E+00
    0.25183E-07         0.21182E-11         0.00000E+00
    0.25296E-07         0.27801E-11         0.00000E+00
    0.25395E-07         0.34238E-11         0.00000E+00
    0.25479E-07         0.39949E-11         0.00000E+00
    0.25548E-07         0.44110E-11         0.00000E+00
    0.25602E-07         0.45506E-11         0.00000E+00
    0.25641E-07         0.42382E-11         0.00000E+00
    0.25664E-07         0.32357E-11         0.00000E+00
    0.25672E-07         0.12640E-11         0.00000E+00
    0.64354E-08         0.62604E-12         0.00000E+00
    0.64375E-08         0.16200E-11         0.00000E+00
    0.64460E-08         0.21697E-11         0.00000E+00
    0.64610E-08         0.24105E-11         0.00000E+00
    0.64824E-08         0.24516E-11         0.00000E+00
    0.65103E-08         0.23703E-11         0.00000E+00
    0.65446E-08         0.22188E-11         0.00000E+00
    0.65853E-08         0.20316E-11         0.00000E+00
    0.66324E-08         0.18314E-11         0.00000E+00
    0.66858E-08         0.16324E-11         0.00000E+00
    0.67457E-08         0.14429E-11         0.00000E+00
    0.68118E-08         0.12676E-11         0.00000E+00
    0.68843E-08         0.11082E-11         0.00000E+00
    0.69631E-08         0.96492E-12         0.00000E+00
    0.70483E-08         0.83677E-12         0.00000E+00
    0.71397E-08         0.72235E-12         0.00000E+00
    0.72375E-08         0.61995E-12         0.00000E+00
    0.73415E-08         0.52782E-12         0.00000E+00
    0.74518E-08         0.44428E-12         0.00000E+00
    0.75684E-08         0.36779E-12         0.00000E+00
    0.76912E-08         0.29700E-12         0.00000E+00
    0.78203E-08         0.23071E-12         0.00000E+00
    0.79556E-08         0.16793E-12         0.00000E+00
    0.80972E-08         0.10779E-12         0.00000E+00
    0.82449E-08         0.49597E-13         0.00000E+00
    0.83989E-08        -0.72602E-14         0.00000E+00
    0.85590E-08        -0.63272E-13         0.00000E+00
    0.87252E-08        -0.11885E-12         0.00000E+00
    0.88976E-08        -0.17434E-12         0.00000E+00
    0.90760E-08        -0.23004E-12         0.00000E+00
    0.92605E-08        -0.28618E-12         0.00000E+00
    0.94510E-08        -0.34298E-12         0.00000E+00
    0.96475E-08        -0.40061E-12         0.00000E+00
    0.98499E-08        -0.45923E-12         0.00000E+00
    0.10058E-07        -0.51896E-12         0.00000E+00
    0.10272E-07        -0.57992E-12         0.00000E+00
    0.10492E-07        -0.64218E-12         0.00000E+00
    0.10718E-07        -0.70583E-12         0.00000E+00
    0.10949E-07        -0.77092E-12         0.00000E+00
    0.11185E-07        -0.83749E-12         0.00000E+00
    0.11427E-07        -0.90556E-12         0.00000E+00
    0.11675E-07        -0.97514E-12         0.00000E+00
    0.11927E-07        -0.10462E-11         0.00000E+00
    0.12185E-07        -0.11188E-11         0.00000E+00
    0.12447E-07        -0.11928E-11         0.00000E+00
    0.12715E-07        -0.12681E-11         0.00000E+00
    0.12987E-07        -0.13447E-11         0.00000E+00
    0.13263E-07        -0.14225E-11         0.00000E+00
    0.13544E-07        -0.15013E-11         0.00000E+00
    0.13829E-07        -0.15810E-11         0.00000E+00
    0.14118E-07        -0.16615E-11         0.00000E+00
    0.14411E-07        -0.17424E-11         0.00000E+00
    0.14707E-07        -0.18237E-11         0.00000E+00
    0.15007E-07        -0.19050E-11         0.00000E+00
    0.15310E-07        -0.19862E-11         0.00000E+00
    0.15615E-07        -0.20668E-11         0.00000E+00
    0.15923E-07        -0.21466E-11         0.00000E+00
    0.16233E-07        -0.22251E-11         0.00000E+00
    0.16545E-07        -0.23021E-11         0.00000E+00
    0.16859E-07        -0.23771E-11         0.00000E+00
    0.17174E-07        -0.24496E-11         0.00000E+00
    0.17490E-07        -0.25191E-11         0.00000E+00
    0.17807E-07        -0.25852E-11         0.00000E+00
    0.18124E-07        -0.26472E-11         0.00000E+00
    0.18441E-07        -0.27046E-11         0.00000E+00
    0.18757E-07        -0.27568E-11         0.00000E+00
    0.19072E-07        -0.28030E-11         0.00000E+00
    0.19385E-07        -0.28426E-11         0.00000E+00
    0.19697E-07        -0.28748E-11         0.00000E+00
    0.20007E-07        -0.28987E-11         0.00000E+00
    0.20313E-07        -0.29135E-11         0.00000E+00
    0.20617E-07        -0.29183E-11         0.00000E+00
    0.20916E-07        -0.29119E-11         0.00000E+00
    0.21211E-07        -0.28933E-11         0.00000E+00
    0.21502E-07        -0.28611E-11         0.00000E+00
    0.21787E-07        -0.28139E-11         0.00000E+00
    0.22066E-07        -0.27501E-11         0.00000E+00
    0.22339E-07        -0.26679E-11         0.00000E+00
    0.22605E-07        -0.25652E-11         0.00000E+00
    0.22863E-07        -0.24396E-11         0.00000E+00
    0.23113E-07        -0.22884E-11         0.00000E+00
    0.23355E-07        -0.21083E-11         0.00000E+00
    0.23588E-07        -0.18961E-11         0.00000E+00
    0.23811E-07        -0.16478E-11         0.00000E+00
    0.24023E-07        -0.13593E-11         0.00000E+00
    0.24225E-07        -0.10264E-11         0.00000E+00
    0.24416E-07        -0.64509E-12         0.00000E+00
    0.24595E-07        -0.21203E-12         0.00000E+00
    0.24761E-07         0.27475E-12         0.00000E+00
    0.24915E-07         0.81473E-12         0.00000E+00
    0.25056E-07         0.14034E-11         0.00000E+00
    0.25183E-07         0.20301E-11         0.00000E+00
    0.25296E-07         0.26752E-11         0.00000E+00
    0.25395E-07         0.33056E-11         0.00000E+00
    0.25479E-07         0.38696E-11         0.00000E+00
    0.25548E-07         0.42883E-11         0.00000E+00
    0.25602E-07         0.44438E-11         0.00000E+00
    0.25641E-07         0.41621E-11         0.00000E+00
    0.25664E-07         0.31985E-11         0.00000E+00
    0.25671E-07         0.12555E-11         0.00000E+00
    0.64356E-08         0.61648E-12         0.00000E+00
    0.64376E-08         0.15873E-11         0.00000E+00
    0.64461E-08         0.21118E-11         0.00000E+00
    0.64610E-08         0.23335E-11         0.00000E+00
    0.64824E-08         0.23637E-11         0.00000E+00
    0.65103E-08         0.22784E-11         0.00000E+00
    0.65445E-08         0.21276E-11         0.00000E+00
    0.65853E-08         0.19444E-11         0.00000E+00
    0.66323E-08         0.17498E-11         0.00000E+00
    0.66858E-08         0.15574E-11         0.00000E+00
    0.67456E-08         0.13749E-11         0.00000E+00
    0.68118E-08         0.12064E-11         0.00000E+00
    0.68843E-08         0.10536E-11         0.00000E+00
    0.69631E-08         0.91652E-12         0.00000E+00
    0.70483E-08         0.79412E-12         0.00000E+00
    0.71397E-08         0.68499E-12         0.00000E+00
    0.72374E-08         0.58744E-12         0.00000E+00
    0.73415E-08         0.49977E-12         0.00000E+00
    0.74518E-08         0.42033E-12         0.00000E+00
    0.75684E-08         0.34764E-12         0.00000E+00
    0.76912E-08         0.28038E-12         0.00000E+00
    0.78203E-08         0.21741E-12         0.00000E+00
    0.79556E-08         0.15776E-12         0.00000E+00
    0.80972E-08         0.10061E-12         0.00000E+00
    0.82449E-08         0.45278E-13         0.00000E+00
    0.83989E-08        -0.88037E-14         0.00000E+00
    0.85590E-08        -0.62109E-13         0.00000E+00
    0.87252E-08        -0.11503E-12         0.00000E+00
    0.88976E-08        -0.16790E-12         0.00000E+00
    0.90760E-08        -0.22099E-12         0.00000E+00
    0.92605E-08        -0.27453E-12         0.00000E+00
    0.94510E-08        -0.32873E-12         0.00000E+00
    0.96475E-08        -0.38375E-12         0.00000E+00
    0.98499E-08        -0.43973E-12         0.00000E+00
    0.10058E-07        -0.49679E-12         0.00000E+00
    0.10272E-07        -0.55504E-12         0.00000E+00
    0.10492E-07        -0.61457E-12         0.00000E+00
    0.10718E-07        -0.67544E-12         0.00000E+00
    0.10949E-07        -0.73770E-12         0.00000E+00
    0.11185E-07        -0.80140E-12         0.00000E+00
    0.11427E-07        -0.86655E-12         0.00000E+00
    0.11675E-07        -0.93316E-12         0.00000E+00
    0.11927E-07        -0.10012E-11         0.00000E+00
    0.12185E-07        -0.10707E-11         0.00000E+00
    0.12447E-07        -0.11416E-11         0.00000E+00
    0.12715E-07        -0.12138E-11         0.00000E+00
    0.12987E-07        -0.12872E-11         0.00000E+00
    0.13263E-07        -0.13618E-11         0.00000E+00
    0.13544E-07        -0.14373E-11         0.00000E+00
    0.13829E-07        -0.15138E-11         0.00000E+00
    0.14118E-07        -0.15910E-11         0.00000E+00
    0.14411E-07        -0.16687E-11         0.00000E+00
    0.14707E-07        -0.17467E-11         0.00000E+00
    0.15007E-07        -0.18247E-11         0.00000E+00
    0.15310E-07        -0.19026E-11         0.00000E+00
    0.15615E-07        -0.19801E-11         0.00000E+00
    0.15923E-07        -0.20567E-11         0.00000E+00
    0.16233E-07        -0.21322E-11         0.00000E+00
    0.16545E-07        -0.22062E-11         0.00000E+00
    0.16859E-07        -0.22784E-11         0.00000E+00
    0.17174E-07        -0.23481E-11         0.00000E+00
    0.17490E-07        -0.24151E-11         0.00000E+00
    0.17807E-07        -0.24788E-11         0.00000E+00
    0.18124E-07        -0.25387E-11         0.00000E+00
    0.18440E-07        -0.25941E-11         0.00000E+00
    0.18757E-07        -0.26446E-11         0.00000E+00
    0.19072E-07        -0.26894E-11         0.00000E+00
    0.19385E-07        -0.27279E-11         0.00000E+00
    0.19697E-07        -0.27593E-11         0.00000E+00
    0.20007E-07        -0.27829E-11         0.00000E+00
    0.20313E-07        -0.27977E-11         0.00000E+00
    0.20617E-07        -0.28030E-11         0.00000E+00
    0.20916E-07        -0.27977E-11         0.00000E+00
    0.21211E-07        -0.27807E-11         0.00000E+00
    0.21502E-07        -0.27507E-11         0.00000E+00
    0.21787E-07        -0.27065E-11         0.00000E+00
    0.22066E-07        -0.26464E-11         0.00000E+00
    0.22339E-07        -0.25688E-11         0.00000E+00
    0.22605E-07        -0.24715E-11         0.00000E+00
    0.22863E-07        -0.23524E-11         0.00000E+00
    0.23113E-07        -0.22087E-11         0.00000E+00
    0.23355E-07        -0.20374E-11         0.00000E+00
    0.23588E-07        -0.18353E-11         0.00000E+00
    0.23811E-07        -0.15985E-11         0.00000E+00
    0.24023E-07        -0.13231E-11         0.00000E+00
    0.24225E-07        -0.10050E-11         0.00000E+00
    0.24416E-07        -0.64005E-12         0.00000E+00
    0.24595E-07        -0.22504E-12         0.00000E+00
    0.24761E-07         0.24215E-12         0.00000E+00
    0.24915E-07         0.76130E-12         0.00000E+00
    0.25056E-07         0.13284E-11         0.00000E+00
    0.25183E-07         0.19338E-11         0.00000E+00
    0.25296E-07         0.25590E-11         0.00000E+00
    0.25395E-07         0.31731E-11         0.00000E+00
    0.25479E-07         0.37273E-11         0.00000E+00
    0.25548E-07         0.41465E-11         0.00000E+00
    0.25602E-07         0.43174E-11         0.00000E+00
    0.25641E-07         0.40686E-11         0.00000E+00
    0.25664E-07         0.31498E-11         0.00000E+00
    0.25671E-07         0.12431E-11         0.00000E+00
    0.64359E-08         0.60470E-12         0.00000E+00
    0.64378E-08         0.15482E-11         0.00000E+00
    0.64461E-08         0.20444E-11         0.00000E+00
    0.64610E-08         0.22457E-11         0.00000E+00
    0.64824E-08         0.22650E-11         0.00000E+00
    0.65102E-08         0.21763E-11         0.00000E+00
    0.65445E-08         0.20273E-11         0.00000E+00
    0.65852E-08         0.18489E-11         0.00000E+00
    0.66323E-08         0.16610E-11         0.00000E+00
    0.66858E-08         0.14762E-11         0.00000E+00
    0.67456E-08         0.13015E-11         0.00000E+00
    0.68118E-08         0.11407E-11         0.00000E+00
    0.68843E-08         0.99515E-12         0.00000E+00
    0.69631E-08         0.86481E-12         0.00000E+00
    0.70482E-08         0.74867E-12         0.00000E+00
    0.71397E-08         0.64527E-12         0.00000E+00
    0.72374E-08         0.55296E-12         0.00000E+00
    0.73415E-08         0.47008E-12         0.00000E+00
    0.74518E-08         0.39505E-12         0.00000E+00
    0.75683E-08         0.32642E-12         0.00000E+00
    0.76912E-08         0.26293E-12         0.00000E+00
    0.78203E-08         0.20350E-12         0.00000E+00
    0.79556E-08         0.14719E-12         0.00000E+00
    0.80971E-08         0.93228E-13         0.00000E+00
    0.82449E-08         0.40960E-13         0.00000E+00
    0.83988E-08        -0.10154E-13         0.00000E+00
    0.85589E-08        -0.60561E-13         0.00000E+00
    0.87252E-08        -0.11063E-12         0.00000E+00
    0.88976E-08        -0.16068E-12         0.00000E+00
    0.90760E-08        -0.21097E-12         0.00000E+00
    0.92605E-08        -0.26172E-12         0.00000E+00
    0.94510E-08        -0.31310E-12         0.00000E+00
    0.96475E-08        -0.36529E-12         0.00000E+00
    0.98499E-08        -0.41842E-12         0.00000E+00
    0.10058E-07        -0.47259E-12         0.00000E+00
    0.10272E-07        -0.52792E-12         0.00000E+00
    0.10492E-07        -0.58447E-12         0.00000E+00
    0.10718E-07        -0.64231E-12         0.00000E+00
    0.10949E-07        -0.70150E-12         0.00000E+00
    0.11185E-07        -0.76207E-12         0.00000E+00
    0.11427E-07        -0.82404E-12         0.00000E+00
    0.11675E-07        -0.88742E-12         0.00000E+00
    0.11927E-07        -0.95219E-12         0.00000E+00
    0.12185E-07        -0.10183E-11         0.00000E+00
    0.12447E-07        -0.10858E-11         0.00000E+00
    0.12715E-07        -0.11545E-11         0.00000E+00
    0.12987E-07        -0.12245E-11         0.00000E+00
    0.13263E-07        -0.12955E-11         0.00000E+00
    0.13544E-07        -0.13675E-11         0.00000E+00
    0.13829E-07        -0.14404E-11         0.00000E+00
    0.14118E-07        -0.15140E-11         0.00000E+00
    0.14411E-07        -0.15880E-11         0.00000E+00
    0.14707E-07        -0.16624E-11         0.00000E+00
    0.15007E-07        -0.17369E-11         0.00000E+00
    0.15310E-07        -0.18113E-11         0.00000E+00
    0.15615E-07        -0.18852E-11         0.00000E+00
    0.15923E-07        -0.19583E-11         0.00000E+00
    0.16233E-07        -0.20305E-11         0.00000E+00
    0.16545E-07        -0.21012E-11         0.00000E+00
    0.16859E-07        -0.21702E-11         0.00000E+00
    0.17174E-07        -0.22369E-11         0.00000E+00
    0.17490E-07        -0.23010E-11         0.00000E+00
    0.17807E-07        -0.23620E-11         0.00000E+00
    0.18124E-07        -0.24194E-11         0.00000E+00
    0.18440E-07        -0.24726E-11         0.00000E+00
    0.18757E-07        -0.25211E-11         0.00000E+00
    0.19072E-07        -0.25643E-11         0.00000E+00
    0.19385E-07        -0.26015E-11         0.00000E+00
    0.19697E-07        -0.26320E-11         0.00000E+00
    0.20007E-07        -0.26550E-11         0.00000E+00
    0.20313E-07        -0.26698E-11         0.00000E+00
    0.20617E-07        -0.26756E-11         0.00000E+00
    0.20916E-07        -0.26713E-11         0.00000E+00
    0.21211E-07        -0.26559E-11         0.00000E+00
    0.21502E-07        -0.26282E-11         0.00000E+00
    0.21787E-07        -0.25870E-11         0.00000E+00
    0.22066E-07        -0.25308E-11         0.00000E+00
    0.22339E-07        -0.24580E-11         0.00000E+00
    0.22605E-07        -0.23665E-11         0.00000E+00
    0.22863E-07        -0.22542E-11         0.00000E+00
    0.23114E-07        -0.21186E-11         0.00000E+00
    0.23355E-07        -0.19568E-11         0.00000E+00
    0.23588E-07        -0.17655E-11         0.00000E+00
    0.23811E-07        -0.15412E-11         0.00000E+00
    0.24023E-07        -0.12801E-11         0.00000E+00
    0.24225E-07        -0.97796E-12         0.00000E+00
    0.24416E-07        -0.63103E-12         0.00000E+00
    0.24595E-07        -0.23591E-12         0.00000E+00
    0.24761E-07         0.20959E-12         0.00000E+00
    0.24915E-07         0.70552E-12         0.00000E+00
    0.25056E-07         0.12484E-11         0.00000E+00
    0.25183E-07         0.18294E-11         0.00000E+00
    0.25296E-07         0.24316E-11         0.00000E+00
    0.25395E-07         0.30262E-11         0.00000E+00
    0.25479E-07         0.35675E-11         0.00000E+00
    0.25548E-07         0.39849E-11         0.00000E+00
    0.25602E-07         0.41702E-11         0.00000E+00
    0.25641E-07         0.39561E-11         0.00000E+00
    0.25663E-07         0.30880E-11         0.00000E+00
    0.25670E-07         0.12262E-11         0.00000E+00
    0.64361E-08         0.59041E-12         0.00000E+00
    0.64379E-08         0.15019E-11         0.00000E+00
    0.64462E-08         0.19667E-11         0.00000E+00
    0.64610E-08         0.21466E-11         0.00000E+00
    0.64824E-08         0.21552E-11         0.00000E+00
    0.65102E-08         0.20639E-11         0.00000E+00
    0.65445E-08         0.19176E-11         0.00000E+00
    0.65852E-08         0.17452E-11         0.00000E+00
    0.66323E-08         0.15652E-11         0.00000E+00
    0.66857E-08         0.13888E-11         0.00000E+00
    0.67456E-08         0.12228E-11         0.00000E+00
    0.68117E-08         0.10705E-11         0.00000E+00
    0.68842E-08         0.93289E-12         0.00000E+00
    0.69631E-08         0.80992E-12         0.00000E+00
    0.70482E-08         0.70054E-12         0.00000E+00
    0.71397E-08         0.60331E-12         0.00000E+00
    0.72374E-08         0.51661E-12         0.00000E+00
    0.73414E-08         0.43885E-12         0.00000E+00
    0.74518E-08         0.36850E-12         0.00000E+00
    0.75683E-08         0.30419E-12         0.00000E+00
    0.76912E-08         0.24471E-12         0.00000E+00
    0.78203E-08         0.18903E-12         0.00000E+00
    0.79556E-08         0.13627E-12         0.00000E+00
    0.80971E-08         0.85690E-13         0.00000E+00
    0.82449E-08         0.36674E-13         0.00000E+00
    0.83988E-08        -0.11284E-13         0.00000E+00
    0.85589E-08        -0.58607E-13         0.00000E+00
    0.87252E-08        -0.10564E-12         0.00000E+00
    0.88976E-08        -0.15269E-12         0.00000E+00
    0.90760E-08        -0.19998E-12         0.00000E+00
    0.92605E-08        -0.24772E-12         0.00000E+00
    0.94510E-08        -0.29610E-12         0.00000E+00
    0.96475E-08        -0.34525E-12         0.00000E+00
    0.98499E-08        -0.39531E-12         0.00000E+00
    0.10058E-07        -0.44637E-12         0.00000E+00
    0.10272E-07        -0.49854E-12         0.00000E+00
    0.10492E-07        -0.55189E-12         0.00000E+00
    0.10718E-07        -0.60647E-12         0.00000E+00
    0.10949E-07        -0.66233E-12         0.00000E+00
    0.11185E-07        -0.71952E-12         0.00000E+00
    0.11427E-07        -0.77804E-12         0.00000E+00
    0.11675E-07        -0.83790E-12         0.00000E+00
    0.11927E-07        -0.89910E-12         0.00000E+00
    0.12185E-07        -0.96161E-12         0.00000E+00
    0.12447E-07        -0.10254E-11         0.00000E+00
    0.12715E-07        -0.10904E-11         0.00000E+00
    0.12987E-07        -0.11565E-11         0.00000E+00
    0.13263E-07        -0.12237E-11         0.00000E+00
    0.13544E-07        -0.12918E-11         0.00000E+00
    0.13829E-07        -0.13608E-11         0.00000E+00
    0.14118E-07        -0.14304E-11         0.00000E+00
    0.14411E-07        -0.15006E-11         0.00000E+00
    0.14707E-07        -0.15710E-11         0.00000E+00
    0.15007E-07        -0.16416E-11         0.00000E+00
    0.15310E-07        -0.17120E-11         0.00000E+00
    0.15615E-07        -0.17821E-11         0.00000E+00
    0.15923E-07        -0.18514E-11         0.00000E+00
    0.16233E-07        -0.19199E-11         0.00000E+00
    0.16545E-07        -0.19870E-11         0.00000E+00
    0.16859E-07        -0.20524E-11         0.00000E+00
    0.17174E-07        -0.21158E-11         0.00000E+00
    0.17490E-07        -0.21767E-11         0.00000E+00
    0.17807E-07        -0.22347E-11         0.00000E+00
    0.18124E-07        -0.22894E-11         0.00000E+00
    0.18440E-07        -0.23401E-11         0.00000E+00
    0.18757E-07        -0.23864E-11         0.00000E+00
    0.19072E-07        -0.24277E-11         0.00000E+00
    0.19385E-07        -0.24633E-11         0.00000E+00
    0.19697E-07        -0.24927E-11         0.00000E+00
    0.20007E-07        -0.25151E-11         0.00000E+00
    0.20313E-07        -0.25297E-11         0.00000E+00
    0.20617E-07        -0.25358E-11         0.00000E+00
    0.20916E-07        -0.25325E-11         0.00000E+00
    0.21211E-07        -0.25187E-11         0.00000E+00
    0.21502E-07        -0.24934E-11         0.00000E+00
    0.21787E-07        -0.24553E-11         0.00000E+00
    0.22066E-07        -0.24032E-11         0.00000E+00
    0.22339E-07        -0.23353E-11         0.00000E+00
    0.22605E-07        -0.22499E-11         0.00000E+00
    0.22863E-07        -0.21448E-11         0.00000E+00
    0.23114E-07        -0.20178E-11         0.00000E+00
    0.23355E-07        -0.18661E-11         0.00000E+00
    0.23588E-07        -0.16865E-11         0.00000E+00
    0.23811E-07        -0.14756E-11         0.00000E+00
    0.24023E-07        -0.12298E-11         0.00000E+00
    0.24225E-07        -0.94504E-12         0.00000E+00
    0.24416E-07        -0.61764E-12         0.00000E+00
    0.24595E-07        -0.24422E-12         0.00000E+00
    0.24761E-07         0.17746E-12         0.00000E+00
    0.24915E-07         0.64773E-12         0.00000E+00
    0.25056E-07         0.11637E-11         0.00000E+00
    0.25183E-07         0.17173E-11         0.00000E+00
    0.25296E-07         0.22932E-11         0.00000E+00
    0.25395E-07         0.28649E-11         0.00000E+00
    0.25479E-07         0.33901E-11         0.00000E+00
    0.25548E-07         0.38027E-11         0.00000E+00
    0.25602E-07         0.40008E-11         0.00000E+00
    0.25640E-07         0.38228E-11         0.00000E+00
    0.25663E-07         0.30116E-11         0.00000E+00
    0.25670E-07         0.12041E-11         0.00000E+00
    0.64363E-08         0.57328E-12         0.00000E+00
    0.64380E-08         0.14476E-11         0.00000E+00
    0.64462E-08         0.18779E-11         0.00000E+00
    0.64610E-08         0.20356E-11         0.00000E+00
    0.64824E-08         0.20341E-11         0.00000E+00
    0.65102E-08         0.19411E-11         0.00000E+00
    0.65444E-08         0.17987E-11         0.00000E+00
    0.65851E-08         0.16335E-11         0.00000E+00
    0.66322E-08         0.14623E-11         0.00000E+00
    0.66857E-08         0.12955E-11         0.00000E+00
    0.67455E-08         0.11391E-11         0.00000E+00
    0.68117E-08         0.99593E-12         0.00000E+00
    0.68842E-08         0.86700E-12         0.00000E+00
    0.69630E-08         0.75198E-12         0.00000E+00
    0.70482E-08         0.64986E-12         0.00000E+00
    0.71396E-08         0.55921E-12         0.00000E+00
    0.72374E-08         0.47849E-12         0.00000E+00
    0.73414E-08         0.40616E-12         0.00000E+00
    0.74517E-08         0.34077E-12         0.00000E+00
    0.75683E-08         0.28103E-12         0.00000E+00
    0.76912E-08         0.22578E-12         0.00000E+00
    0.78203E-08         0.17406E-12         0.00000E+00
    0.79556E-08         0.12504E-12         0.00000E+00
    0.80971E-08         0.78031E-13         0.00000E+00
    0.82449E-08         0.32452E-13         0.00000E+00
    0.83988E-08        -0.12169E-13         0.00000E+00
    0.85589E-08        -0.56226E-13         0.00000E+00
    0.87252E-08        -0.10004E-12         0.00000E+00
    0.88975E-08        -0.14389E-12         0.00000E+00
    0.90760E-08        -0.18799E-12         0.00000E+00
    0.92605E-08        -0.23255E-12         0.00000E+00
    0.94510E-08        -0.27771E-12         0.00000E+00
    0.96475E-08        -0.32362E-12         0.00000E+00
    0.98499E-08        -0.37040E-12         0.00000E+00
    0.10058E-07        -0.41813E-12         0.00000E+00
    0.10272E-07        -0.46692E-12         0.00000E+00
    0.10492E-07        -0.51682E-12         0.00000E+00
    0.10718E-07        -0.56790E-12         0.00000E+00
    0.10949E-07        -0.62019E-12         0.00000E+00
    0.11185E-07        -0.67374E-12         0.00000E+00
    0.11427E-07        -0.72855E-12         0.00000E+00
    0.11675E-07        -0.78463E-12         0.00000E+00
    0.11927E-07        -0.84197E-12         0.00000E+00
    0.12185E-07        -0.90056E-12         0.00000E+00
    0.12447E-07        -0.96035E-12         0.00000E+00
    0.12715E-07        -0.10213E-11         0.00000E+00
    0.12987E-07        -0.10833E-11         0.00000E+00
    0.13263E-07        -0.11464E-11         0.00000E+00
    0.13544E-07        -0.12103E-11         0.00000E+00
    0.13829E-07        -0.12750E-11         0.00000E+00
    0.14118E-07        -0.13404E-11         0.00000E+00
    0.14411E-07        -0.14062E-11         0.00000E+00
    0.14707E-07        -0.14724E-11         0.00000E+00
    0.15007E-07        -0.15387E-11         0.00000E+00
    0.15310E-07        -0.16049E-11         0.00000E+00
    0.15615E-07        -0.16707E-11         0.00000E+00
    0.15923E-07        -0.17360E-11         0.00000E+00
    0.16233E-07        -0.18003E-11         0.00000E+00
    0.16545E-07        -0.18635E-11         0.00000E+00
    0.16859E-07        -0.19251E-11         0.00000E+00
    0.17174E-07        -0.19848E-11         0.00000E+00
    0.17490E-07        -0.20422E-11         0.00000E+00
    0.17807E-07        -0.20969E-11         0.00000E+00
    0.18124E-07        -0.21485E-11         0.00000E+00
    0.18440E-07        -0.21965E-11         0.00000E+00
    0.18757E-07        -0.22403E-11         0.00000E+00
    0.19072E-07        -0.22794E-11         0.00000E+00
    0.19385E-07        -0.23133E-11         0.00000E+00
    0.19697E-07        -0.23414E-11         0.00000E+00
    0.20007E-07        -0.23629E-11         0.00000E+00
    0.20313E-07        -0.23772E-11         0.00000E+00
    0.20617E-07        -0.23836E-11         0.00000E+00
    0.20916E-07        -0.23811E-11         0.00000E+00
    0.21211E-07        -0.23690E-11         0.00000E+00
    0.21502E-07        -0.23460E-11         0.00000E+00
    0.21787E-07        -0.23112E-11         0.00000E+00
    0.22066E-07        -0.22632E-11         0.00000E+00
    0.22339E-07        -0.22005E-11         0.00000E+00
    0.22605E-07        -0.21215E-11         0.00000E+00
    0.22863E-07        -0.20241E-11         0.00000E+00
    0.23114E-07        -0.19061E-11         0.00000E+00
    0.23355E-07        -0.17650E-11         0.00000E+00
    0.23588E-07        -0.15978E-11         0.00000E+00
    0.23811E-07        -0.14013E-11         0.00000E+00
    0.24023E-07        -0.11718E-11         0.00000E+00
    0.24225E-07        -0.90579E-12         0.00000E+00
    0.24416E-07        -0.59946E-12         0.00000E+00
    0.24595E-07        -0.24957E-12         0.00000E+00
    0.24762E-07         0.14619E-12         0.00000E+00
    0.24915E-07         0.58836E-12         0.00000E+00
    0.25056E-07         0.10745E-11         0.00000E+00
    0.25183E-07         0.15977E-11         0.00000E+00
    0.25297E-07         0.21439E-11         0.00000E+00
    0.25395E-07         0.26891E-11         0.00000E+00
    0.25479E-07         0.31944E-11         0.00000E+00
    0.25549E-07         0.35990E-11         0.00000E+00
    0.25602E-07         0.38078E-11         0.00000E+00
    0.25640E-07         0.36667E-11         0.00000E+00
    0.25663E-07         0.29185E-11         0.00000E+00
    0.25669E-07         0.11761E-11         0.00000E+00
    0.64366E-08         0.55287E-12         0.00000E+00
    0.64381E-08         0.13844E-11         0.00000E+00
    0.64463E-08         0.17771E-11         0.00000E+00
    0.64610E-08         0.19121E-11         0.00000E+00
    0.64823E-08         0.19011E-11         0.00000E+00
    0.65102E-08         0.18077E-11         0.00000E+00
    0.65444E-08         0.16705E-11         0.00000E+00
    0.65851E-08         0.15137E-11         0.00000E+00
    0.66322E-08         0.13525E-11         0.00000E+00
    0.66857E-08         0.11963E-11         0.00000E+00
    0.67455E-08         0.10504E-11         0.00000E+00
    0.68117E-08         0.91726E-12         0.00000E+00
    0.68842E-08         0.79763E-12         0.00000E+00
    0.69630E-08         0.69114E-12         0.00000E+00
    0.70482E-08         0.59675E-12         0.00000E+00
    0.71396E-08         0.51310E-12         0.00000E+00
    0.72374E-08         0.43871E-12         0.00000E+00
    0.73414E-08         0.37211E-12         0.00000E+00
    0.74517E-08         0.31195E-12         0.00000E+00
    0.75683E-08         0.25700E-12         0.00000E+00
    0.76912E-08         0.20620E-12         0.00000E+00
    0.78202E-08         0.15864E-12         0.00000E+00
    0.79556E-08         0.11355E-12         0.00000E+00
    0.80971E-08         0.70290E-13         0.00000E+00
    0.82449E-08         0.28325E-13         0.00000E+00
    0.83988E-08        -0.12782E-13         0.00000E+00
    0.85589E-08        -0.53394E-13         0.00000E+00
    0.87252E-08        -0.93811E-13         0.00000E+00
    0.88975E-08        -0.13428E-12         0.00000E+00
    0.90760E-08        -0.17501E-12         0.00000E+00
    0.92605E-08        -0.21618E-12         0.00000E+00
    0.94510E-08        -0.25793E-12         0.00000E+00
    0.96475E-08        -0.30040E-12         0.00000E+00
    0.98499E-08        -0.34368E-12         0.00000E+00
    0.10058E-07        -0.38787E-12         0.00000E+00
    0.10272E-07        -0.43305E-12         0.00000E+00
    0.10492E-07        -0.47928E-12         0.00000E+00
    0.10718E-07        -0.52661E-12         0.00000E+00
    0.10949E-07        -0.57509E-12         0.00000E+00
    0.11185E-07        -0.62474E-12         0.00000E+00
    0.11427E-07        -0.67557E-12         0.00000E+00
    0.11675E-07        -0.72760E-12         0.00000E+00
    0.11927E-07        -0.78081E-12         0.00000E+00
    0.12185E-07        -0.83519E-12         0.00000E+00
    0.12447E-07        -0.89070E-12         0.00000E+00
    0.12715E-07        -0.94729E-12         0.00000E+00
    0.12987E-07        -0.10049E-11         0.00000E+00
    0.13263E-07        -0.10635E-11         0.00000E+00
    0.13544E-07        -0.11229E-11         0.00000E+00
    0.13829E-07        -0.11830E-11         0.00000E+00
    0.14118E-07        -0.12438E-11         0.00000E+00
    0.14411E-07        -0.13050E-11         0.00000E+00
    0.14707E-07        -0.13666E-11         0.00000E+00
    0.15007E-07        -0.14282E-11         0.00000E+00
    0.15310E-07        -0.14898E-11         0.00000E+00
    0.15615E-07        -0.15511E-11         0.00000E+00
    0.15923E-07        -0.16119E-11         0.00000E+00
    0.16233E-07        -0.16718E-11         0.00000E+00
    0.16545E-07        -0.17307E-11         0.00000E+00
    0.16859E-07        -0.17881E-11         0.00000E+00
    0.17174E-07        -0.18438E-11         0.00000E+00
    0.17490E-07        -0.18974E-11         0.00000E+00
    0.17807E-07        -0.19485E-11         0.00000E+00
    0.18124E-07        -0.19967E-11         0.00000E+00
    0.18440E-07        -0.20416E-11         0.00000E+00
    0.18757E-07        -0.20827E-11         0.00000E+00
    0.19072E-07        -0.21195E-11         0.00000E+00
    0.19385E-07        -0.21514E-11         0.00000E+00
    0.19697E-07        -0.21779E-11         0.00000E+00
    0.20007E-07        -0.21984E-11         0.00000E+00
    0.20313E-07        -0.22123E-11         0.00000E+00
    0.20617E-07        -0.22188E-11         0.00000E+00
    0.20916E-07        -0.22172E-11         0.00000E+00
    0.21211E-07        -0.22065E-11         0.00000E+00
    0.21502E-07        -0.21860E-11         0.00000E+00
    0.21787E-07        -0.21545E-11         0.00000E+00
    0.22066E-07        -0.21107E-11         0.00000E+00
    0.22339E-07        -0.20535E-11         0.00000E+00
    0.22605E-07        -0.19810E-11         0.00000E+00
    0.22863E-07        -0.18917E-11         0.00000E+00
    0.23114E-07        -0.17832E-11         0.00000E+00
    0.23355E-07        -0.16534E-11         0.00000E+00
    0.23588E-07        -0.14993E-11         0.00000E+00
    0.23811E-07        -0.13179E-11         0.00000E+00
    0.24023E-07        -0.11059E-11         0.00000E+00
    0.24225E-07        -0.85982E-12         0.00000E+00
    0.24416E-07        -0.57608E-12         0.00000E+00
    0.24595E-07        -0.25151E-12         0.00000E+00
    0.24762E-07         0.11621E-12         0.00000E+00
    0.24916E-07         0.52784E-12         0.00000E+00
    0.25056E-07         0.98144E-12         0.00000E+00
    0.25184E-07         0.14709E-11         0.00000E+00
    0.25297E-07         0.19839E-11         0.00000E+00
    0.25395E-07         0.24988E-11         0.00000E+00
    0.25480E-07         0.29803E-11         0.00000E+00
    0.25549E-07         0.33731E-11         0.00000E+00
    0.25602E-07         0.35897E-11         0.00000E+00
    0.25640E-07         0.34855E-11         0.00000E+00
    0.25663E-07         0.28065E-11         0.00000E+00
    0.25669E-07         0.11412E-11         0.00000E+00
    0.64368E-08         0.52867E-12         0.00000E+00
    0.64382E-08         0.13111E-11         0.00000E+00
    0.64463E-08         0.16631E-11         0.00000E+00
    0.64610E-08         0.17754E-11         0.00000E+00
    0.64823E-08         0.17561E-11         0.00000E+00
    0.65101E-08         0.16636E-11         0.00000E+00
    0.65444E-08         0.15330E-11         0.00000E+00
    0.65851E-08         0.13859E-11         0.00000E+00
    0.66322E-08         0.12360E-11         0.00000E+00
    0.66856E-08         0.10915E-11         0.00000E+00
    0.67455E-08         0.95696E-12         0.00000E+00
    0.68117E-08         0.83460E-12         0.00000E+00
    0.68842E-08         0.72494E-12         0.00000E+00
    0.69630E-08         0.62754E-12         0.00000E+00
    0.70482E-08         0.54136E-12         0.00000E+00
    0.71396E-08         0.46510E-12         0.00000E+00
    0.72374E-08         0.39737E-12         0.00000E+00
    0.73414E-08         0.33679E-12         0.00000E+00
    0.74517E-08         0.28210E-12         0.00000E+00
    0.75683E-08         0.23218E-12         0.00000E+00
    0.76911E-08         0.18603E-12         0.00000E+00
    0.78202E-08         0.14282E-12         0.00000E+00
    0.79556E-08         0.10184E-12         0.00000E+00
    0.80971E-08         0.62504E-13         0.00000E+00
    0.82449E-08         0.24325E-13         0.00000E+00
    0.83988E-08        -0.13097E-13         0.00000E+00
    0.85589E-08        -0.50092E-13         0.00000E+00
    0.87252E-08        -0.86933E-13         0.00000E+00
    0.88975E-08        -0.12385E-12         0.00000E+00
    0.90760E-08        -0.16102E-12         0.00000E+00
    0.92605E-08        -0.19861E-12         0.00000E+00
    0.94510E-08        -0.23676E-12         0.00000E+00
    0.96475E-08        -0.27558E-12         0.00000E+00
    0.98499E-08        -0.31516E-12         0.00000E+00
    0.10058E-07        -0.35559E-12         0.00000E+00
    0.10272E-07        -0.39694E-12         0.00000E+00
    0.10492E-07        -0.43926E-12         0.00000E+00
    0.10718E-07        -0.48261E-12         0.00000E+00
    0.10949E-07        -0.52702E-12         0.00000E+00
    0.11185E-07        -0.57252E-12         0.00000E+00
    0.11427E-07        -0.61912E-12         0.00000E+00
    0.11675E-07        -0.66682E-12         0.00000E+00
    0.11927E-07        -0.71562E-12         0.00000E+00
    0.12185E-07        -0.76550E-12         0.00000E+00
    0.12447E-07        -0.81643E-12         0.00000E+00
    0.12715E-07        -0.86837E-12         0.00000E+00
    0.12987E-07        -0.92125E-12         0.00000E+00
    0.13263E-07        -0.97502E-12         0.00000E+00
    0.13544E-07        -0.10296E-11         0.00000E+00
    0.13829E-07        -0.10848E-11         0.00000E+00
    0.14118E-07        -0.11406E-11         0.00000E+00
    0.14411E-07        -0.11969E-11         0.00000E+00
    0.14707E-07        -0.12535E-11         0.00000E+00
    0.15007E-07        -0.13102E-11         0.00000E+00
    0.15310E-07        -0.13668E-11         0.00000E+00
    0.15615E-07        -0.14232E-11         0.00000E+00
    0.15923E-07        -0.14792E-11         0.00000E+00
    0.16233E-07        -0.15343E-11         0.00000E+00
    0.16545E-07        -0.15886E-11         0.00000E+00
    0.16859E-07        -0.16415E-11         0.00000E+00
    0.17174E-07        -0.16928E-11         0.00000E+00
    0.17490E-07        -0.17423E-11         0.00000E+00
    0.17807E-07        -0.17895E-11         0.00000E+00
    0.18124E-07        -0.18340E-11         0.00000E+00
    0.18440E-07        -0.18755E-11         0.00000E+00
    0.18757E-07        -0.19136E-11         0.00000E+00
    0.19072E-07        -0.19477E-11         0.00000E+00
    0.19385E-07        -0.19774E-11         0.00000E+00
    0.19697E-07        -0.20022E-11         0.00000E+00
    0.20007E-07        -0.20215E-11         0.00000E+00
    0.20313E-07        -0.20347E-11         0.00000E+00
    0.20617E-07        -0.20413E-11         0.00000E+00
    0.20916E-07        -0.20403E-11         0.00000E+00
    0.21211E-07        -0.20312E-11         0.00000E+00
    0.21502E-07        -0.20131E-11         0.00000E+00
    0.21787E-07        -0.19849E-11         0.00000E+00
    0.22066E-07        -0.19456E-11         0.00000E+00
    0.22339E-07        -0.18939E-11         0.00000E+00
    0.22605E-07        -0.18283E-11         0.00000E+00
    0.22863E-07        -0.17473E-11         0.00000E+00
    0.23114E-07        -0.16488E-11         0.00000E+00
    0.23355E-07        -0.15307E-11         0.00000E+00
    0.23588E-07        -0.13904E-11         0.00000E+00
    0.23811E-07        -0.12251E-11         0.00000E+00
    0.24024E-07        -0.10316E-11         0.00000E+00
    0.24225E-07        -0.80669E-12         0.00000E+00
    0.24416E-07        -0.54703E-12         0.00000E+00
    0.24595E-07        -0.24956E-12         0.00000E+00
    0.24762E-07         0.88015E-13         0.00000E+00
    0.24916E-07         0.46662E-12         0.00000E+00
    0.25056E-07         0.88481E-12         0.00000E+00
    0.25184E-07         0.13374E-11         0.00000E+00
    0.25297E-07         0.18135E-11         0.00000E+00
    0.25396E-07         0.22940E-11         0.00000E+00
    0.25480E-07         0.27475E-11         0.00000E+00
    0.25549E-07         0.31242E-11         0.00000E+00
    0.25602E-07         0.33450E-11         0.00000E+00
    0.25640E-07         0.32768E-11         0.00000E+00
    0.25662E-07         0.26728E-11         0.00000E+00
    0.25669E-07         0.10981E-11         0.00000E+00
    0.64370E-08         0.50002E-12         0.00000E+00
    0.64383E-08         0.12263E-11         0.00000E+00
    0.64464E-08         0.15350E-11         0.00000E+00
    0.64611E-08         0.16249E-11         0.00000E+00
    0.64823E-08         0.15986E-11         0.00000E+00
    0.65101E-08         0.15087E-11         0.00000E+00
    0.65444E-08         0.13862E-11         0.00000E+00
    0.65850E-08         0.12503E-11         0.00000E+00
    0.66321E-08         0.11128E-11         0.00000E+00
    0.66856E-08         0.98109E-12         0.00000E+00
    0.67454E-08         0.85893E-12         0.00000E+00
    0.68116E-08         0.74814E-12         0.00000E+00
    0.68841E-08         0.64911E-12         0.00000E+00
    0.69630E-08         0.56133E-12         0.00000E+00
    0.70481E-08         0.48382E-12         0.00000E+00
    0.71396E-08         0.41533E-12         0.00000E+00
    0.72373E-08         0.35458E-12         0.00000E+00
    0.73414E-08         0.30030E-12         0.00000E+00
    0.74517E-08         0.25133E-12         0.00000E+00
    0.75683E-08         0.20664E-12         0.00000E+00
    0.76911E-08         0.16534E-12         0.00000E+00
    0.78202E-08         0.12665E-12         0.00000E+00
    0.79556E-08         0.89955E-13         0.00000E+00
    0.80971E-08         0.54712E-13         0.00000E+00
    0.82449E-08         0.20485E-13         0.00000E+00
    0.83988E-08        -0.13086E-13         0.00000E+00
    0.85589E-08        -0.46296E-13         0.00000E+00
    0.87252E-08        -0.79390E-13         0.00000E+00
    0.88975E-08        -0.11257E-12         0.00000E+00
    0.90760E-08        -0.14601E-12         0.00000E+00
    0.92605E-08        -0.17984E-12         0.00000E+00
    0.94510E-08        -0.21419E-12         0.00000E+00
    0.96475E-08        -0.24916E-12         0.00000E+00
    0.98499E-08        -0.28483E-12         0.00000E+00
    0.10058E-07        -0.32129E-12         0.00000E+00
    0.10272E-07        -0.35858E-12         0.00000E+00
    0.10492E-07        -0.39677E-12         0.00000E+00
    0.10718E-07        -0.43590E-12         0.00000E+00
    0.10949E-07        -0.47600E-12         0.00000E+00
    0.11185E-07        -0.51709E-12         0.00000E+00
    0.11427E-07        -0.55919E-12         0.00000E+00
    0.11675E-07        -0.60229E-12         0.00000E+00
    0.11927E-07        -0.64640E-12         0.00000E+00
    0.12185E-07        -0.69150E-12         0.00000E+00
    0.12447E-07        -0.73756E-12         0.00000E+00
    0.12715E-07        -0.78453E-12         0.00000E+00
    0.12987E-07        -0.83238E-12         0.00000E+00
    0.13263E-07        -0.88103E-12         0.00000E+00
    0.13544E-07        -0.93041E-12         0.00000E+00
    0.13829E-07        -0.98042E-12         0.00000E+00
    0.14118E-07        -0.10310E-11         0.00000E+00
    0.14411E-07        -0.10819E-11         0.00000E+00
    0.14707E-07        -0.11332E-11         0.00000E+00
    0.15007E-07        -0.11846E-11         0.00000E+00
    0.15310E-07        -0.12359E-11         0.00000E+00
    0.15615E-07        -0.12871E-11         0.00000E+00
    0.15923E-07        -0.13378E-11         0.00000E+00
    0.16233E-07        -0.13879E-11         0.00000E+00
    0.16545E-07        -0.14371E-11         0.00000E+00
    0.16859E-07        -0.14851E-11         0.00000E+00
    0.17174E-07        -0.15318E-11         0.00000E+00
    0.17490E-07        -0.15768E-11         0.00000E+00
    0.17807E-07        -0.16197E-11         0.00000E+00
    0.18124E-07        -0.16603E-11         0.00000E+00
    0.18440E-07        -0.16981E-11         0.00000E+00
    0.18757E-07        -0.17328E-11         0.00000E+00
    0.19072E-07        -0.17640E-11         0.00000E+00
    0.19385E-07        -0.17913E-11         0.00000E+00
    0.19697E-07        -0.18141E-11         0.00000E+00
    0.20007E-07        -0.18320E-11         0.00000E+00
    0.20313E-07        -0.18445E-11         0.00000E+00
    0.20617E-07        -0.18509E-11         0.00000E+00
    0.20916E-07        -0.18506E-11         0.00000E+00
    0.21211E-07        -0.18429E-11         0.00000E+00
    0.21502E-07        -0.18271E-11         0.00000E+00
    0.21787E-07        -0.18023E-11         0.00000E+00
    0.22066E-07        -0.17675E-11         0.00000E+00
    0.22339E-07        -0.17215E-11         0.00000E+00
    0.22605E-07        -0.16631E-11         0.00000E+00
    0.22863E-07        -0.15907E-11         0.00000E+00
    0.23114E-07        -0.15026E-11         0.00000E+00
    0.23355E-07        -0.13968E-11         0.00000E+00
    0.23588E-07        -0.12709E-11         0.00000E+00
    0.23811E-07        -0.11225E-11         0.00000E+00
    0.24024E-07        -0.94847E-12         0.00000E+00
    0.24226E-07        -0.74597E-12         0.00000E+00
    0.24416E-07        -0.51184E-12         0.00000E+00
    0.24595E-07        -0.24324E-12         0.00000E+00
    0.24762E-07         0.62109E-13         0.00000E+00
    0.24916E-07         0.40524E-12         0.00000E+00
    0.25057E-07         0.78512E-12         0.00000E+00
    0.25184E-07         0.11974E-11         0.00000E+00
    0.25297E-07         0.16329E-11         0.00000E+00
    0.25396E-07         0.20748E-11         0.00000E+00
    0.25480E-07         0.24957E-11         0.00000E+00
    0.25549E-07         0.28517E-11         0.00000E+00
    0.25602E-07         0.30722E-11         0.00000E+00
    0.25640E-07         0.30378E-11         0.00000E+00
    0.25662E-07         0.25141E-11         0.00000E+00
    0.25668E-07         0.10452E-11         0.00000E+00
    0.64372E-08         0.46608E-12         0.00000E+00
    0.64384E-08         0.11284E-11         0.00000E+00
    0.64464E-08         0.13913E-11         0.00000E+00
    0.64611E-08         0.14599E-11         0.00000E+00
    0.64823E-08         0.14285E-11         0.00000E+00
    0.65101E-08         0.13429E-11         0.00000E+00
    0.65443E-08         0.12302E-11         0.00000E+00
    0.65850E-08         0.11069E-11         0.00000E+00
    0.66321E-08         0.98328E-12         0.00000E+00
    0.66856E-08         0.86538E-12         0.00000E+00
    0.67454E-08         0.75650E-12         0.00000E+00
    0.68116E-08         0.65807E-12         0.00000E+00
    0.68841E-08         0.57031E-12         0.00000E+00
    0.69630E-08         0.49270E-12         0.00000E+00
    0.70481E-08         0.42428E-12         0.00000E+00
    0.71396E-08         0.36393E-12         0.00000E+00
    0.72373E-08         0.31047E-12         0.00000E+00
    0.73414E-08         0.26274E-12         0.00000E+00
    0.74517E-08         0.21971E-12         0.00000E+00
    0.75683E-08         0.18046E-12         0.00000E+00
    0.76911E-08         0.14418E-12         0.00000E+00
    0.78202E-08         0.11020E-12         0.00000E+00
    0.79555E-08         0.77944E-13         0.00000E+00
    0.80971E-08         0.46953E-13         0.00000E+00
    0.82449E-08         0.16837E-13         0.00000E+00
    0.83988E-08        -0.12722E-13         0.00000E+00
    0.85589E-08        -0.41985E-13         0.00000E+00
    0.87251E-08        -0.71166E-13         0.00000E+00
    0.88975E-08        -0.10044E-12         0.00000E+00
    0.90760E-08        -0.12996E-12         0.00000E+00
    0.92605E-08        -0.15985E-12         0.00000E+00
    0.94510E-08        -0.19021E-12         0.00000E+00
    0.96475E-08        -0.22114E-12         0.00000E+00
    0.98499E-08        -0.25270E-12         0.00000E+00
    0.10058E-07        -0.28496E-12         0.00000E+00
    0.10272E-07        -0.31799E-12         0.00000E+00
    0.10492E-07        -0.35182E-12         0.00000E+00
    0.10718E-07        -0.38649E-12         0.00000E+00
    0.10949E-07        -0.42203E-12         0.00000E+00
    0.11185E-07        -0.45846E-12         0.00000E+00
    0.11427E-07        -0.49579E-12         0.00000E+00
    0.11675E-07        -0.53403E-12         0.00000E+00
    0.11927E-07        -0.57317E-12         0.00000E+00
    0.12185E-07        -0.61319E-12         0.00000E+00
    0.12447E-07        -0.65407E-12         0.00000E+00
    0.12715E-07        -0.69578E-12         0.00000E+00
    0.12987E-07        -0.73827E-12         0.00000E+00
    0.13263E-07        -0.78149E-12         0.00000E+00
    0.13544E-07        -0.82536E-12         0.00000E+00
    0.13829E-07        -0.86981E-12         0.00000E+00
    0.14118E-07        -0.91475E-12         0.00000E+00
    0.14411E-07        -0.96007E-12         0.00000E+00
    0.14707E-07        -0.10057E-11         0.00000E+00
    0.15007E-07        -0.10514E-11         0.00000E+00
    0.15310E-07        -0.10971E-11         0.00000E+00
    0.15615E-07        -0.11426E-11         0.00000E+00
    0.15923E-07        -0.11877E-11         0.00000E+00
    0.16233E-07        -0.12323E-11         0.00000E+00
    0.16545E-07        -0.12762E-11         0.00000E+00
    0.16859E-07        -0.13190E-11         0.00000E+00
    0.17174E-07        -0.13607E-11         0.00000E+00
    0.17490E-07        -0.14008E-11         0.00000E+00
    0.17807E-07        -0.14391E-11         0.00000E+00
    0.18124E-07        -0.14754E-11         0.00000E+00
    0.18440E-07        -0.15093E-11         0.00000E+00
    0.18757E-07        -0.15404E-11         0.00000E+00
    0.19072E-07        -0.15684E-11         0.00000E+00
    0.19385E-07        -0.15930E-11         0.00000E+00
    0.19697E-07        -0.16136E-11         0.00000E+00
    0.20007E-07        -0.16299E-11         0.00000E+00
    0.20313E-07        -0.16413E-11         0.00000E+00
    0.20617E-07        -0.16475E-11         0.00000E+00
    0.20916E-07        -0.16477E-11         0.00000E+00
    0.21211E-07        -0.16414E-11         0.00000E+00
    0.21502E-07        -0.16280E-11         0.00000E+00
    0.21787E-07        -0.16065E-11         0.00000E+00
    0.22066E-07        -0.15763E-11         0.00000E+00
    0.22339E-07        -0.15362E-11         0.00000E+00
    0.22605E-07        -0.14851E-11         0.00000E+00
    0.22863E-07        -0.14216E-11         0.00000E+00
    0.23114E-07        -0.13443E-11         0.00000E+00
    0.23355E-07        -0.12513E-11         0.00000E+00
    0.23588E-07        -0.11405E-11         0.00000E+00
    0.23811E-07        -0.10096E-11         0.00000E+00
    0.24024E-07        -0.85610E-12         0.00000E+00
    0.24226E-07        -0.67717E-12         0.00000E+00
    0.24416E-07        -0.47003E-12         0.00000E+00
    0.24595E-07        -0.23201E-12         0.00000E+00
    0.24762E-07         0.39036E-13         0.00000E+00
    0.24916E-07         0.34422E-12         0.00000E+00
    0.25057E-07         0.68289E-12         0.00000E+00
    0.25184E-07         0.10516E-11         0.00000E+00
    0.25297E-07         0.14424E-11         0.00000E+00
    0.25396E-07         0.18413E-11         0.00000E+00
    0.25480E-07         0.22247E-11         0.00000E+00
    0.25549E-07         0.25547E-11         0.00000E+00
    0.25602E-07         0.27699E-11         0.00000E+00
    0.25640E-07         0.27656E-11         0.00000E+00
    0.25662E-07         0.23267E-11         0.00000E+00
    0.25668E-07         0.98063E-12         0.00000E+00
    0.64373E-08         0.42579E-12         0.00000E+00
    0.64385E-08         0.10154E-11         0.00000E+00
    0.64464E-08         0.12308E-11         0.00000E+00
    0.64611E-08         0.12800E-11         0.00000E+00
    0.64823E-08         0.12454E-11         0.00000E+00
    0.65101E-08         0.11661E-11         0.00000E+00
    0.65443E-08         0.10650E-11         0.00000E+00
    0.65850E-08         0.95595E-12         0.00000E+00
    0.66321E-08         0.84746E-12         0.00000E+00
    0.66856E-08         0.74455E-12         0.00000E+00
    0.67454E-08         0.64989E-12         0.00000E+00
    0.68116E-08         0.56459E-12         0.00000E+00
    0.68841E-08         0.48874E-12         0.00000E+00
    0.69630E-08         0.42180E-12         0.00000E+00
    0.70481E-08         0.36291E-12         0.00000E+00
    0.71396E-08         0.31104E-12         0.00000E+00
    0.72373E-08         0.26514E-12         0.00000E+00
    0.73414E-08         0.22422E-12         0.00000E+00
    0.74517E-08         0.18734E-12         0.00000E+00
    0.75683E-08         0.15371E-12         0.00000E+00
    0.76911E-08         0.12263E-12         0.00000E+00
    0.78202E-08         0.93503E-13         0.00000E+00
    0.79555E-08         0.65852E-13         0.00000E+00
    0.80971E-08         0.39266E-13         0.00000E+00
    0.82448E-08         0.13413E-13         0.00000E+00
    0.83988E-08        -0.11980E-13         0.00000E+00
    0.85589E-08        -0.37137E-13         0.00000E+00
    0.87251E-08        -0.62242E-13         0.00000E+00
    0.88975E-08        -0.87447E-13         0.00000E+00
    0.90760E-08        -0.11288E-12         0.00000E+00
    0.92605E-08        -0.13864E-12         0.00000E+00
    0.94510E-08        -0.16483E-12         0.00000E+00
    0.96475E-08        -0.19151E-12         0.00000E+00
    0.98499E-08        -0.21876E-12         0.00000E+00
    0.10058E-07        -0.24662E-12         0.00000E+00
    0.10272E-07        -0.27516E-12         0.00000E+00
    0.10492E-07        -0.30439E-12         0.00000E+00
    0.10718E-07        -0.33437E-12         0.00000E+00
    0.10949E-07        -0.36511E-12         0.00000E+00
    0.11185E-07        -0.39662E-12         0.00000E+00
    0.11427E-07        -0.42893E-12         0.00000E+00
    0.11675E-07        -0.46203E-12         0.00000E+00
    0.11927E-07        -0.49591E-12         0.00000E+00
    0.12185E-07        -0.53057E-12         0.00000E+00
    0.12447E-07        -0.56599E-12         0.00000E+00
    0.12715E-07        -0.60212E-12         0.00000E+00
    0.12987E-07        -0.63895E-12         0.00000E+00
    0.13263E-07        -0.67640E-12         0.00000E+00
    0.13544E-07        -0.71444E-12         0.00000E+00
    0.13829E-07        -0.75299E-12         0.00000E+00
    0.14118E-07        -0.79197E-12         0.00000E+00
    0.14411E-07        -0.83129E-12         0.00000E+00
    0.14707E-07        -0.87084E-12         0.00000E+00
    0.15007E-07        -0.91053E-12         0.00000E+00
    0.15310E-07        -0.95020E-12         0.00000E+00
    0.15615E-07        -0.98974E-12         0.00000E+00
    0.15923E-07        -0.10290E-11         0.00000E+00
    0.16233E-07        -0.10677E-11         0.00000E+00
    0.16545E-07        -0.11059E-11         0.00000E+00
    0.16859E-07        -0.11432E-11         0.00000E+00
    0.17174E-07        -0.11794E-11         0.00000E+00
    0.17490E-07        -0.12143E-11         0.00000E+00
    0.17807E-07        -0.12478E-11         0.00000E+00
    0.18124E-07        -0.12794E-11         0.00000E+00
    0.18440E-07        -0.13090E-11         0.00000E+00
    0.18757E-07        -0.13362E-11         0.00000E+00
    0.19072E-07        -0.13607E-11         0.00000E+00
    0.19385E-07        -0.13823E-11         0.00000E+00
    0.19697E-07        -0.14005E-11         0.00000E+00
    0.20007E-07        -0.14149E-11         0.00000E+00
    0.20313E-07        -0.14252E-11         0.00000E+00
    0.20617E-07        -0.14309E-11         0.00000E+00
    0.20916E-07        -0.14315E-11         0.00000E+00
    0.21211E-07        -0.14266E-11         0.00000E+00
    0.21502E-07        -0.14154E-11         0.00000E+00
    0.21787E-07        -0.13974E-11         0.00000E+00
    0.22066E-07        -0.13717E-11         0.00000E+00
    0.22339E-07        -0.13376E-11         0.00000E+00
    0.22605E-07        -0.12940E-11         0.00000E+00
    0.22863E-07        -0.12398E-11         0.00000E+00
    0.23114E-07        -0.11736E-11         0.00000E+00
    0.23355E-07        -0.10938E-11         0.00000E+00
    0.23588E-07        -0.99868E-12         0.00000E+00
    0.23811E-07        -0.88618E-12         0.00000E+00
    0.24024E-07        -0.75404E-12         0.00000E+00
    0.24226E-07        -0.59983E-12         0.00000E+00
    0.24416E-07        -0.42106E-12         0.00000E+00
    0.24595E-07        -0.21532E-12         0.00000E+00
    0.24762E-07         0.19369E-13         0.00000E+00
    0.24916E-07         0.28415E-12         0.00000E+00
    0.25057E-07         0.57870E-12         0.00000E+00
    0.25184E-07         0.90029E-12         0.00000E+00
    0.25297E-07         0.12426E-11         0.00000E+00
    0.25396E-07         0.15939E-11         0.00000E+00
    0.25480E-07         0.19345E-11         0.00000E+00
    0.25549E-07         0.22327E-11         0.00000E+00
    0.25602E-07         0.24365E-11         0.00000E+00
    0.25640E-07         0.24573E-11         0.00000E+00
    0.25662E-07         0.21058E-11         0.00000E+00
    0.25667E-07         0.90184E-12         0.00000E+00
    0.64375E-08         0.37773E-12         0.00000E+00
    0.64385E-08         0.88491E-12         0.00000E+00
    0.64464E-08         0.10523E-11         0.00000E+00
    0.64611E-08         0.10844E-11         0.00000E+00
    0.64823E-08         0.10490E-11         0.00000E+00
    0.65100E-08         0.97831E-12         0.00000E+00
    0.65443E-08         0.89077E-12         0.00000E+00
    0.65850E-08         0.79759E-12         0.00000E+00
    0.66321E-08         0.70561E-12         0.00000E+00
    0.66856E-08         0.61883E-12         0.00000E+00
    0.67454E-08         0.53933E-12         0.00000E+00
    0.68116E-08         0.46792E-12         0.00000E+00
    0.68841E-08         0.40458E-12         0.00000E+00
    0.69629E-08         0.34882E-12         0.00000E+00
    0.70481E-08         0.29985E-12         0.00000E+00
    0.71396E-08         0.25679E-12         0.00000E+00
    0.72373E-08         0.21874E-12         0.00000E+00
    0.73414E-08         0.18483E-12         0.00000E+00
    0.74517E-08         0.15431E-12         0.00000E+00
    0.75683E-08         0.12647E-12         0.00000E+00
    0.76911E-08         0.10074E-12         0.00000E+00
    0.78202E-08         0.76632E-13         0.00000E+00
    0.79555E-08         0.53727E-13         0.00000E+00
    0.80971E-08         0.31691E-13         0.00000E+00
    0.82448E-08         0.10247E-13         0.00000E+00
    0.83988E-08        -0.10832E-13         0.00000E+00
    0.85589E-08        -0.31731E-13         0.00000E+00
    0.87251E-08        -0.52602E-13         0.00000E+00
    0.88975E-08        -0.73571E-13         0.00000E+00
    0.90760E-08        -0.94741E-13         0.00000E+00
    0.92605E-08        -0.11620E-12         0.00000E+00
    0.94510E-08        -0.13803E-12         0.00000E+00
    0.96474E-08        -0.16028E-12         0.00000E+00
    0.98499E-08        -0.18301E-12         0.00000E+00
    0.10058E-07        -0.20627E-12         0.00000E+00
    0.10272E-07        -0.23009E-12         0.00000E+00
    0.10492E-07        -0.25451E-12         0.00000E+00
    0.10718E-07        -0.27955E-12         0.00000E+00
    0.10949E-07        -0.30524E-12         0.00000E+00
    0.11185E-07        -0.33159E-12         0.00000E+00
    0.11427E-07        -0.35861E-12         0.00000E+00
    0.11675E-07        -0.38630E-12         0.00000E+00
    0.11927E-07        -0.41465E-12         0.00000E+00
    0.12185E-07        -0.44365E-12         0.00000E+00
    0.12447E-07        -0.47330E-12         0.00000E+00
    0.12715E-07        -0.50356E-12         0.00000E+00
    0.12987E-07        -0.53439E-12         0.00000E+00
    0.13263E-07        -0.56577E-12         0.00000E+00
    0.13544E-07        -0.59764E-12         0.00000E+00
    0.13829E-07        -0.62995E-12         0.00000E+00
    0.14118E-07        -0.66262E-12         0.00000E+00
    0.14411E-07        -0.69559E-12         0.00000E+00
    0.14707E-07        -0.72876E-12         0.00000E+00
    0.15007E-07        -0.76205E-12         0.00000E+00
    0.15309E-07        -0.79535E-12         0.00000E+00
    0.15615E-07        -0.82853E-12         0.00000E+00
    0.15923E-07        -0.86148E-12         0.00000E+00
    0.16233E-07        -0.89404E-12         0.00000E+00
    0.16545E-07        -0.92608E-12         0.00000E+00
    0.16859E-07        -0.95743E-12         0.00000E+00
    0.17174E-07        -0.98790E-12         0.00000E+00
    0.17490E-07        -0.10173E-11         0.00000E+00
    0.17807E-07        -0.10455E-11         0.00000E+00
    0.18124E-07        -0.10721E-11         0.00000E+00
    0.18440E-07        -0.10971E-11         0.00000E+00
    0.18757E-07        -0.11201E-11         0.00000E+00
    0.19072E-07        -0.11409E-11         0.00000E+00
    0.19385E-07        -0.11591E-11         0.00000E+00
    0.19697E-07        -0.11746E-11         0.00000E+00
    0.20007E-07        -0.11870E-11         0.00000E+00
    0.20313E-07        -0.11959E-11         0.00000E+00
    0.20617E-07        -0.12010E-11         0.00000E+00
    0.20916E-07        -0.12019E-11         0.00000E+00
    0.21211E-07        -0.11982E-11         0.00000E+00
    0.21502E-07        -0.11892E-11         0.00000E+00
    0.21787E-07        -0.11746E-11         0.00000E+00
    0.22066E-07        -0.11536E-11         0.00000E+00
    0.22339E-07        -0.11256E-11         0.00000E+00
    0.22605E-07        -0.10897E-11         0.00000E+00
    0.22863E-07        -0.10449E-11         0.00000E+00
    0.23114E-07        -0.99010E-12         0.00000E+00
    0.23355E-07        -0.92402E-12         0.00000E+00
    0.23588E-07        -0.84513E-12         0.00000E+00
    0.23811E-07        -0.75170E-12         0.00000E+00
    0.24024E-07        -0.64184E-12         0.00000E+00
    0.24226E-07        -0.51345E-12         0.00000E+00
    0.24416E-07        -0.36440E-12         0.00000E+00
    0.24595E-07        -0.19260E-12         0.00000E+00
    0.24762E-07         0.37183E-14         0.00000E+00
    0.24916E-07         0.22566E-12         0.00000E+00
    0.25057E-07         0.47315E-12         0.00000E+00
    0.25184E-07         0.74417E-12         0.00000E+00
    0.25297E-07         0.10338E-11         0.00000E+00
    0.25396E-07         0.13326E-11         0.00000E+00
    0.25480E-07         0.16249E-11         0.00000E+00
    0.25549E-07         0.18852E-11         0.00000E+00
    0.25602E-07         0.20709E-11         0.00000E+00
    0.25640E-07         0.21096E-11         0.00000E+00
    0.25662E-07         0.18459E-11         0.00000E+00
    0.25667E-07         0.80550E-12         0.00000E+00
    0.64376E-08         0.32005E-12         0.00000E+00
    0.64386E-08         0.73421E-12         0.00000E+00
    0.64465E-08         0.85442E-12         0.00000E+00
    0.64611E-08         0.87268E-12         0.00000E+00
    0.64823E-08         0.83932E-12         0.00000E+00
    0.65100E-08         0.77957E-12         0.00000E+00
    0.65443E-08         0.70762E-12         0.00000E+00
    0.65850E-08         0.63201E-12         0.00000E+00
    0.66321E-08         0.55796E-12         0.00000E+00
    0.66855E-08         0.48847E-12         0.00000E+00
    0.67454E-08         0.42505E-12         0.00000E+00
    0.68116E-08         0.36828E-12         0.00000E+00
    0.68841E-08         0.31806E-12         0.00000E+00
    0.69629E-08         0.27394E-12         0.00000E+00
    0.70481E-08         0.23528E-12         0.00000E+00
    0.71396E-08         0.20133E-12         0.00000E+00
    0.72373E-08         0.17137E-12         0.00000E+00
    0.73414E-08         0.14470E-12         0.00000E+00
    0.74517E-08         0.12070E-12         0.00000E+00
    0.75683E-08         0.98822E-13         0.00000E+00
    0.76911E-08         0.78598E-13         0.00000E+00
    0.78202E-08         0.59637E-13         0.00000E+00
    0.79555E-08         0.41616E-13         0.00000E+00
    0.80971E-08         0.24267E-13         0.00000E+00
    0.82448E-08         0.73704E-14         0.00000E+00
    0.83988E-08        -0.92515E-14         0.00000E+00
    0.85589E-08        -0.25744E-13         0.00000E+00
    0.87251E-08        -0.42228E-13         0.00000E+00
    0.88975E-08        -0.58801E-13         0.00000E+00
    0.90760E-08        -0.75544E-13         0.00000E+00
    0.92605E-08        -0.92527E-13         0.00000E+00
    0.94510E-08        -0.10981E-12         0.00000E+00
    0.96474E-08        -0.12743E-12         0.00000E+00
    0.98498E-08        -0.14545E-12         0.00000E+00
    0.10058E-07        -0.16389E-12         0.00000E+00
    0.10272E-07        -0.18279E-12         0.00000E+00
    0.10492E-07        -0.20217E-12         0.00000E+00
    0.10718E-07        -0.22205E-12         0.00000E+00
    0.10949E-07        -0.24245E-12         0.00000E+00
    0.11185E-07        -0.26338E-12         0.00000E+00
    0.11427E-07        -0.28484E-12         0.00000E+00
    0.11675E-07        -0.30684E-12         0.00000E+00
    0.11927E-07        -0.32938E-12         0.00000E+00
    0.12185E-07        -0.35244E-12         0.00000E+00
    0.12447E-07        -0.37602E-12         0.00000E+00
    0.12715E-07        -0.40009E-12         0.00000E+00
    0.12987E-07        -0.42462E-12         0.00000E+00
    0.13263E-07        -0.44960E-12         0.00000E+00
    0.13544E-07        -0.47496E-12         0.00000E+00
    0.13829E-07        -0.50069E-12         0.00000E+00
    0.14118E-07        -0.52671E-12         0.00000E+00
    0.14411E-07        -0.55297E-12         0.00000E+00
    0.14707E-07        -0.57940E-12         0.00000E+00
    0.15007E-07        -0.60593E-12         0.00000E+00
    0.15309E-07        -0.63247E-12         0.00000E+00
    0.15615E-07        -0.65893E-12         0.00000E+00
    0.15923E-07        -0.68522E-12         0.00000E+00
    0.16233E-07        -0.71121E-12         0.00000E+00
    0.16545E-07        -0.73678E-12         0.00000E+00
    0.16859E-07        -0.76182E-12         0.00000E+00
    0.17174E-07        -0.78617E-12         0.00000E+00
    0.17490E-07        -0.80969E-12         0.00000E+00
    0.17807E-07        -0.83221E-12         0.00000E+00
    0.18124E-07        -0.85356E-12         0.00000E+00
    0.18440E-07        -0.87357E-12         0.00000E+00
    0.18757E-07        -0.89203E-12         0.00000E+00
    0.19072E-07        -0.90874E-12         0.00000E+00
    0.19385E-07        -0.92348E-12         0.00000E+00
    0.19697E-07        -0.93601E-12         0.00000E+00
    0.20007E-07        -0.94608E-12         0.00000E+00
    0.20313E-07        -0.95343E-12         0.00000E+00
    0.20617E-07        -0.95775E-12         0.00000E+00
    0.20916E-07        -0.95874E-12         0.00000E+00
    0.21211E-07        -0.95605E-12         0.00000E+00
    0.21502E-07        -0.94928E-12         0.00000E+00
    0.21787E-07        -0.93800E-12         0.00000E+00
    0.22066E-07        -0.92171E-12         0.00000E+00
    0.22339E-07        -0.89984E-12         0.00000E+00
    0.22605E-07        -0.87173E-12         0.00000E+00
    0.22863E-07        -0.83661E-12         0.00000E+00
    0.23114E-07        -0.79358E-12         0.00000E+00
    0.23355E-07        -0.74160E-12         0.00000E+00
    0.23588E-07        -0.67945E-12         0.00000E+00
    0.23811E-07        -0.60577E-12         0.00000E+00
    0.24024E-07        -0.51901E-12         0.00000E+00
    0.24226E-07        -0.41750E-12         0.00000E+00
    0.24416E-07        -0.29948E-12         0.00000E+00
    0.24595E-07        -0.16324E-12         0.00000E+00
    0.24762E-07        -0.72759E-14         0.00000E+00
    0.24916E-07         0.16941E-12         0.00000E+00
    0.25057E-07         0.36691E-12         0.00000E+00
    0.25184E-07         0.58384E-12         0.00000E+00
    0.25297E-07         0.81656E-12         0.00000E+00
    0.25396E-07         0.10580E-11         0.00000E+00
    0.25480E-07         0.12962E-11         0.00000E+00
    0.25549E-07         0.15116E-11         0.00000E+00
    0.25602E-07         0.16719E-11         0.00000E+00
    0.25640E-07         0.17197E-11         0.00000E+00
    0.25662E-07         0.15403E-11         0.00000E+00
    0.25667E-07         0.68721E-12         0.00000E+00
    0.64378E-08         0.25020E-12         0.00000E+00
    0.64386E-08         0.55996E-12         0.00000E+00
    0.64465E-08         0.63613E-12         0.00000E+00
    0.64610E-08         0.64441E-12         0.00000E+00
    0.64823E-08         0.61602E-12         0.00000E+00
    0.65100E-08         0.56992E-12         0.00000E+00
    0.65443E-08         0.51570E-12         0.00000E+00
    0.65849E-08         0.45945E-12         0.00000E+00
    0.66320E-08         0.40477E-12         0.00000E+00
    0.66855E-08         0.35372E-12         0.00000E+00
    0.67454E-08         0.30732E-12         0.00000E+00
    0.68116E-08         0.26591E-12         0.00000E+00
    0.68841E-08         0.22938E-12         0.00000E+00
    0.69629E-08         0.19737E-12         0.00000E+00
    0.70481E-08         0.16937E-12         0.00000E+00
    0.71396E-08         0.14482E-12         0.00000E+00
    0.72373E-08         0.12318E-12         0.00000E+00
    0.73414E-08         0.10393E-12         0.00000E+00
    0.74517E-08         0.86622E-13         0.00000E+00
    0.75683E-08         0.70844E-13         0.00000E+00
    0.76911E-08         0.56258E-13         0.00000E+00
    0.78202E-08         0.42578E-13         0.00000E+00
    0.79555E-08         0.29567E-13         0.00000E+00
    0.80971E-08         0.17033E-13         0.00000E+00
    0.82448E-08         0.48163E-14         0.00000E+00
    0.83988E-08        -0.72118E-14         0.00000E+00
    0.85589E-08        -0.19156E-13         0.00000E+00
    0.87251E-08        -0.31103E-13         0.00000E+00
    0.88975E-08        -0.43124E-13         0.00000E+00
    0.90759E-08        -0.55276E-13         0.00000E+00
    0.92604E-08        -0.67610E-13         0.00000E+00
    0.94510E-08        -0.80167E-13         0.00000E+00
    0.96474E-08        -0.92983E-13         0.00000E+00
    0.98498E-08        -0.10609E-12         0.00000E+00
    0.10058E-07        -0.11951E-12         0.00000E+00
    0.10272E-07        -0.13326E-12         0.00000E+00
    0.10492E-07        -0.14738E-12         0.00000E+00
    0.10718E-07        -0.16186E-12         0.00000E+00
    0.10949E-07        -0.17672E-12         0.00000E+00
    0.11185E-07        -0.19198E-12         0.00000E+00
    0.11427E-07        -0.20763E-12         0.00000E+00
    0.11675E-07        -0.22367E-12         0.00000E+00
    0.11927E-07        -0.24011E-12         0.00000E+00
    0.12185E-07        -0.25694E-12         0.00000E+00
    0.12447E-07        -0.27415E-12         0.00000E+00
    0.12715E-07        -0.29172E-12         0.00000E+00
    0.12987E-07        -0.30963E-12         0.00000E+00
    0.13263E-07        -0.32787E-12         0.00000E+00
    0.13544E-07        -0.34640E-12         0.00000E+00
    0.13829E-07        -0.36520E-12         0.00000E+00
    0.14118E-07        -0.38421E-12         0.00000E+00
    0.14411E-07        -0.40341E-12         0.00000E+00
    0.14707E-07        -0.42274E-12         0.00000E+00
    0.15007E-07        -0.44214E-12         0.00000E+00
    0.15309E-07        -0.46156E-12         0.00000E+00
    0.15615E-07        -0.48092E-12         0.00000E+00
    0.15923E-07        -0.50016E-12         0.00000E+00
    0.16233E-07        -0.51920E-12         0.00000E+00
    0.16545E-07        -0.53793E-12         0.00000E+00
    0.16859E-07        -0.55628E-12         0.00000E+00
    0.17174E-07        -0.57414E-12         0.00000E+00
    0.17490E-07        -0.59139E-12         0.00000E+00
    0.17807E-07        -0.60793E-12         0.00000E+00
    0.18124E-07        -0.62363E-12         0.00000E+00
    0.18440E-07        -0.63834E-12         0.00000E+00
    0.18757E-07        -0.65194E-12         0.00000E+00
    0.19072E-07        -0.66427E-12         0.00000E+00
    0.19385E-07        -0.67517E-12         0.00000E+00
    0.19697E-07        -0.68447E-12         0.00000E+00
    0.20007E-07        -0.69199E-12         0.00000E+00
    0.20313E-07        -0.69752E-12         0.00000E+00
    0.20617E-07        -0.70087E-12         0.00000E+00
    0.20916E-07        -0.70180E-12         0.00000E+00
    0.21211E-07        -0.70006E-12         0.00000E+00
    0.21502E-07        -0.69536E-12         0.00000E+00
    0.21787E-07        -0.68739E-12         0.00000E+00
    0.22066E-07        -0.67578E-12         0.00000E+00
    0.22339E-07        -0.66013E-12         0.00000E+00
    0.22605E-07        -0.63995E-12         0.00000E+00
    0.22863E-07        -0.61469E-12         0.00000E+00
    0.23114E-07        -0.58368E-12         0.00000E+00
    0.23355E-07        -0.54616E-12         0.00000E+00
    0.23588E-07        -0.50125E-12         0.00000E+00
    0.23811E-07        -0.44794E-12         0.00000E+00
    0.24024E-07        -0.38509E-12         0.00000E+00
    0.24226E-07        -0.31146E-12         0.00000E+00
    0.24416E-07        -0.22573E-12         0.00000E+00
    0.24595E-07        -0.12661E-12         0.00000E+00
    0.24762E-07        -0.12937E-13         0.00000E+00
    0.24916E-07         0.11610E-12         0.00000E+00
    0.25057E-07         0.26069E-12         0.00000E+00
    0.25184E-07         0.41998E-12         0.00000E+00
    0.25297E-07         0.59153E-12         0.00000E+00
    0.25396E-07         0.77047E-12         0.00000E+00
    0.25480E-07         0.94852E-12         0.00000E+00
    0.25549E-07         0.11117E-11         0.00000E+00
    0.25602E-07         0.12383E-11         0.00000E+00
    0.25640E-07         0.12851E-11         0.00000E+00
    0.25662E-07         0.11814E-11         0.00000E+00
    0.25666E-07         0.54095E-12         0.00000E+00
    0.64378E-08         0.16471E-12         0.00000E+00
    0.64386E-08         0.35833E-12         0.00000E+00
    0.64465E-08         0.39667E-12         0.00000E+00
    0.64610E-08         0.39907E-12         0.00000E+00
    0.64823E-08         0.37908E-12         0.00000E+00
    0.65100E-08         0.34946E-12         0.00000E+00
    0.65443E-08         0.31521E-12         0.00000E+00
    0.65849E-08         0.28017E-12         0.00000E+00
    0.66320E-08         0.24631E-12         0.00000E+00
    0.66855E-08         0.21487E-12         0.00000E+00
    0.67454E-08         0.18640E-12         0.00000E+00
    0.68116E-08         0.16108E-12         0.00000E+00
    0.68841E-08         0.13879E-12         0.00000E+00
    0.69629E-08         0.11931E-12         0.00000E+00
    0.70481E-08         0.10229E-12         0.00000E+00
    0.71395E-08         0.87403E-13         0.00000E+00
    0.72373E-08         0.74292E-13         0.00000E+00
    0.73413E-08         0.62641E-13         0.00000E+00
    0.74517E-08         0.52165E-13         0.00000E+00
    0.75683E-08         0.42618E-13         0.00000E+00
    0.76911E-08         0.33792E-13         0.00000E+00
    0.78202E-08         0.25509E-13         0.00000E+00
    0.79555E-08         0.17628E-13         0.00000E+00
    0.80971E-08         0.10029E-13         0.00000E+00
    0.82448E-08         0.26171E-14         0.00000E+00
    0.83988E-08        -0.46866E-14         0.00000E+00
    0.85589E-08        -0.11946E-13         0.00000E+00
    0.87251E-08        -0.19211E-13         0.00000E+00
    0.88975E-08        -0.26527E-13         0.00000E+00
    0.90759E-08        -0.33928E-13         0.00000E+00
    0.92604E-08        -0.41444E-13         0.00000E+00
    0.94510E-08        -0.49101E-13         0.00000E+00
    0.96474E-08        -0.56919E-13         0.00000E+00
    0.98498E-08        -0.64917E-13         0.00000E+00
    0.10058E-07        -0.73110E-13         0.00000E+00
    0.10272E-07        -0.81512E-13         0.00000E+00
    0.10492E-07        -0.90135E-13         0.00000E+00
    0.10718E-07        -0.98986E-13         0.00000E+00
    0.10949E-07        -0.10807E-12         0.00000E+00
    0.11185E-07        -0.11740E-12         0.00000E+00
    0.11427E-07        -0.12698E-12         0.00000E+00
    0.11675E-07        -0.13679E-12         0.00000E+00
    0.11927E-07        -0.14686E-12         0.00000E+00
    0.12185E-07        -0.15716E-12         0.00000E+00
    0.12447E-07        -0.16769E-12         0.00000E+00
    0.12715E-07        -0.17845E-12         0.00000E+00
    0.12987E-07        -0.18943E-12         0.00000E+00
    0.13263E-07        -0.20060E-12         0.00000E+00
    0.13544E-07        -0.21196E-12         0.00000E+00
    0.13829E-07        -0.22348E-12         0.00000E+00
    0.14118E-07        -0.23514E-12         0.00000E+00
    0.14411E-07        -0.24691E-12         0.00000E+00
    0.14707E-07        -0.25877E-12         0.00000E+00
    0.15007E-07        -0.27067E-12         0.00000E+00
    0.15309E-07        -0.28259E-12         0.00000E+00
    0.15615E-07        -0.29448E-12         0.00000E+00
    0.15923E-07        -0.30629E-12         0.00000E+00
    0.16233E-07        -0.31798E-12         0.00000E+00
    0.16545E-07        -0.32950E-12         0.00000E+00
    0.16859E-07        -0.34078E-12         0.00000E+00
    0.17174E-07        -0.35176E-12         0.00000E+00
    0.17490E-07        -0.36238E-12         0.00000E+00
    0.17807E-07        -0.37257E-12         0.00000E+00
    0.18124E-07        -0.38224E-12         0.00000E+00
    0.18440E-07        -0.39132E-12         0.00000E+00
    0.18757E-07        -0.39972E-12         0.00000E+00
    0.19072E-07        -0.40735E-12         0.00000E+00
    0.19385E-07        -0.41411E-12         0.00000E+00
    0.19697E-07        -0.41989E-12         0.00000E+00
    0.20007E-07        -0.42459E-12         0.00000E+00
    0.20313E-07        -0.42809E-12         0.00000E+00
    0.20617E-07        -0.43025E-12         0.00000E+00
    0.20916E-07        -0.43094E-12         0.00000E+00
    0.21211E-07        -0.43001E-12         0.00000E+00
    0.21502E-07        -0.42727E-12         0.00000E+00
    0.21787E-07        -0.42255E-12         0.00000E+00
    0.22066E-07        -0.41561E-12         0.00000E+00
    0.22339E-07        -0.40622E-12         0.00000E+00
    0.22605E-07        -0.39406E-12         0.00000E+00
    0.22863E-07        -0.37881E-12         0.00000E+00
    0.23114E-07        -0.36006E-12         0.00000E+00
    0.23355E-07        -0.33734E-12         0.00000E+00
    0.23588E-07        -0.31012E-12         0.00000E+00
    0.23811E-07        -0.27776E-12         0.00000E+00
    0.24024E-07        -0.23956E-12         0.00000E+00
    0.24226E-07        -0.19476E-12         0.00000E+00
    0.24416E-07        -0.14252E-12         0.00000E+00
    0.24595E-07        -0.82038E-13         0.00000E+00
    0.24762E-07        -0.12553E-13         0.00000E+00
    0.24916E-07         0.66478E-13         0.00000E+00
    0.25057E-07         0.15525E-12         0.00000E+00
    0.25184E-07         0.25332E-12         0.00000E+00
    0.25297E-07         0.35936E-12         0.00000E+00
    0.25396E-07         0.47047E-12         0.00000E+00
    0.25480E-07         0.58206E-12         0.00000E+00
    0.25549E-07         0.68535E-12         0.00000E+00
    0.25602E-07         0.76906E-12         0.00000E+00
    0.25640E-07         0.80392E-12         0.00000E+00
    0.25662E-07         0.76003E-12         0.00000E+00
    0.25666E-07         0.35850E-12         0.00000E+00
    0.64379E-08         0.58771E-13         0.00000E+00
    0.64386E-08         0.12508E-12         0.00000E+00
    0.64465E-08         0.13579E-12         0.00000E+00
    0.64610E-08         0.13603E-12         0.00000E+00
    0.64823E-08         0.12860E-12         0.00000E+00
    0.65100E-08         0.11827E-12         0.00000E+00
    0.65442E-08         0.10643E-12         0.00000E+00
    0.65849E-08         0.94441E-13         0.00000E+00
    0.66320E-08         0.82900E-13         0.00000E+00
    0.66855E-08         0.72230E-13         0.00000E+00
    0.67454E-08         0.62591E-13         0.00000E+00
    0.68115E-08         0.54036E-13         0.00000E+00
    0.68841E-08         0.46523E-13         0.00000E+00
    0.69629E-08         0.39964E-13         0.00000E+00
    0.70481E-08         0.34245E-13         0.00000E+00
    0.71395E-08         0.29245E-13         0.00000E+00
    0.72373E-08         0.24845E-13         0.00000E+00
    0.73413E-08         0.20939E-13         0.00000E+00
    0.74517E-08         0.17427E-13         0.00000E+00
    0.75683E-08         0.14227E-13         0.00000E+00
    0.76911E-08         0.11268E-13         0.00000E+00
    0.78202E-08         0.84902E-14         0.00000E+00
    0.79555E-08         0.58459E-14         0.00000E+00
    0.80971E-08         0.32949E-14         0.00000E+00
    0.82448E-08         0.80516E-15         0.00000E+00
    0.83988E-08        -0.16497E-14         0.00000E+00
    0.85589E-08        -0.40909E-14         0.00000E+00
    0.87251E-08        -0.65358E-14         0.00000E+00
    0.88975E-08        -0.89988E-14         0.00000E+00
    0.90759E-08        -0.11492E-13         0.00000E+00
    0.92604E-08        -0.14024E-13         0.00000E+00
    0.94510E-08        -0.16605E-13         0.00000E+00
    0.96474E-08        -0.19242E-13         0.00000E+00
    0.98498E-08        -0.21940E-13         0.00000E+00
    0.10058E-07        -0.24704E-13         0.00000E+00
    0.10272E-07        -0.27541E-13         0.00000E+00
    0.10492E-07        -0.30452E-13         0.00000E+00
    0.10718E-07        -0.33441E-13         0.00000E+00
    0.10949E-07        -0.36510E-13         0.00000E+00
    0.11185E-07        -0.39662E-13         0.00000E+00
    0.11427E-07        -0.42896E-13         0.00000E+00
    0.11675E-07        -0.46214E-13         0.00000E+00
    0.11927E-07        -0.49616E-13         0.00000E+00
    0.12185E-07        -0.53098E-13         0.00000E+00
    0.12447E-07        -0.56660E-13         0.00000E+00
    0.12715E-07        -0.60299E-13         0.00000E+00
    0.12987E-07        -0.64011E-13         0.00000E+00
    0.13263E-07        -0.67791E-13         0.00000E+00
    0.13544E-07        -0.71634E-13         0.00000E+00
    0.13829E-07        -0.75532E-13         0.00000E+00
    0.14118E-07        -0.79478E-13         0.00000E+00
    0.14411E-07        -0.83463E-13         0.00000E+00
    0.14707E-07        -0.87476E-13         0.00000E+00
    0.15007E-07        -0.91508E-13         0.00000E+00
    0.15309E-07        -0.95544E-13         0.00000E+00
    0.15615E-07        -0.99571E-13         0.00000E+00
    0.15923E-07        -0.10357E-12         0.00000E+00
    0.16233E-07        -0.10754E-12         0.00000E+00
    0.16545E-07        -0.11144E-12         0.00000E+00
    0.16859E-07        -0.11527E-12         0.00000E+00
    0.17174E-07        -0.11899E-12         0.00000E+00
    0.17490E-07        -0.12260E-12         0.00000E+00
    0.17807E-07        -0.12605E-12         0.00000E+00
    0.18124E-07        -0.12934E-12         0.00000E+00
    0.18440E-07        -0.13243E-12         0.00000E+00
    0.18757E-07        -0.13528E-12         0.00000E+00
    0.19072E-07        -0.13788E-12         0.00000E+00
    0.19385E-07        -0.14019E-12         0.00000E+00
    0.19697E-07        -0.14217E-12         0.00000E+00
    0.20007E-07        -0.14378E-12         0.00000E+00
    0.20313E-07        -0.14499E-12         0.00000E+00
    0.20617E-07        -0.14575E-12         0.00000E+00
    0.20916E-07        -0.14601E-12         0.00000E+00
    0.21211E-07        -0.14572E-12         0.00000E+00
    0.21502E-07        -0.14483E-12         0.00000E+00
    0.21787E-07        -0.14327E-12         0.00000E+00
    0.22066E-07        -0.14097E-12         0.00000E+00
    0.22339E-07        -0.13784E-12         0.00000E+00
    0.22605E-07        -0.13378E-12         0.00000E+00
    0.22863E-07        -0.12867E-12         0.00000E+00
    0.23114E-07        -0.12239E-12         0.00000E+00
    0.23355E-07        -0.11477E-12         0.00000E+00
    0.23588E-07        -0.10563E-12         0.00000E+00
    0.23811E-07        -0.94761E-13         0.00000E+00
    0.24024E-07        -0.81918E-13         0.00000E+00
    0.24226E-07        -0.66838E-13         0.00000E+00
    0.24416E-07        -0.49241E-13         0.00000E+00
    0.24595E-07        -0.28842E-13         0.00000E+00
    0.24762E-07        -0.53794E-14         0.00000E+00
    0.24916E-07         0.21343E-13         0.00000E+00
    0.25057E-07         0.51415E-13         0.00000E+00
    0.25184E-07         0.84695E-13         0.00000E+00
    0.25297E-07         0.12079E-12         0.00000E+00
    0.25396E-07         0.15871E-12         0.00000E+00
    0.25480E-07         0.19709E-12         0.00000E+00
    0.25549E-07         0.23277E-12         0.00000E+00
    0.25602E-07         0.26268E-12         0.00000E+00
    0.25640E-07         0.27579E-12         0.00000E+00
    0.25662E-07         0.26627E-12         0.00000E+00
    0.25666E-07         0.12852E-12         0.00000E+00
POINT_DATA       5151
VECTORS vDarcyNodal double 
    0.32142E-08         0.00000E+00         0.00000E+00
    0.32154E-08         0.37808E-13         0.00000E+00
    0.32192E-08         0.47060E-13         0.00000E+00
    0.32259E-08         0.52343E-13         0.00000E+00
    0.32356E-08         0.53511E-13         0.00000E+00
    0.32483E-08         0.52765E-13         0.00000E+00
    0.32641E-08         0.50616E-13         0.00000E+00
    0.32830E-08         0.47702E-13         0.00000E+00
    0.33050E-08         0.44345E-13         0.00000E+00
    0.33301E-08         0.40809E-13         0.00000E+00
    0.33584E-08         0.37252E-13         0.00000E+00
    0.33899E-08         0.33782E-13         0.00000E+00
    0.34245E-08         0.30463E-13         0.00000E+00
    0.34623E-08         0.27327E-13         0.00000E+00
    0.35033E-08         0.24387E-13         0.00000E+00
    0.35474E-08         0.21642E-13         0.00000E+00
    0.35946E-08         0.19084E-13         0.00000E+00
    0.36450E-08         0.16699E-13         0.00000E+00
    0.36986E-08         0.14469E-13         0.00000E+00
    0.37553E-08         0.12378E-13         0.00000E+00
    0.38151E-08         0.10407E-13         0.00000E+00
    0.38781E-08         0.85415E-14         0.00000E+00
    0.39442E-08         0.67647E-14         0.00000E+00
    0.40134E-08         0.50626E-14         0.00000E+00
    0.40857E-08         0.34225E-14         0.00000E+00
    0.41611E-08         0.18326E-14         0.00000E+00
    0.42397E-08         0.28260E-15         0.00000E+00
    0.43212E-08        -0.12369E-14         0.00000E+00
    0.44059E-08        -0.27341E-14         0.00000E+00
    0.44936E-08        -0.42165E-14         0.00000E+00
    0.45843E-08        -0.56906E-14         0.00000E+00
    0.46781E-08        -0.71622E-14         0.00000E+00
    0.47748E-08        -0.86364E-14         0.00000E+00
    0.48746E-08        -0.10118E-13         0.00000E+00
    0.49772E-08        -0.11610E-13         0.00000E+00
    0.50828E-08        -0.13117E-13         0.00000E+00
    0.51913E-08        -0.14641E-13         0.00000E+00
    0.53026E-08        -0.16185E-13         0.00000E+00
    0.54168E-08        -0.17750E-13         0.00000E+00
    0.55337E-08        -0.19338E-13         0.00000E+00
    0.56534E-08        -0.20950E-13         0.00000E+00
    0.57757E-08        -0.22587E-13         0.00000E+00
    0.59007E-08        -0.24248E-13         0.00000E+00
    0.60282E-08        -0.25933E-13         0.00000E+00
    0.61583E-08        -0.27640E-13         0.00000E+00
    0.62908E-08        -0.29370E-13         0.00000E+00
    0.64256E-08        -0.31119E-13         0.00000E+00
    0.65628E-08        -0.32885E-13         0.00000E+00
    0.67021E-08        -0.34666E-13         0.00000E+00
    0.68436E-08        -0.36457E-13         0.00000E+00
    0.69871E-08        -0.38255E-13         0.00000E+00
    0.71326E-08        -0.40055E-13         0.00000E+00
    0.72799E-08        -0.41852E-13         0.00000E+00
    0.74288E-08        -0.43639E-13         0.00000E+00
    0.75794E-08        -0.45410E-13         0.00000E+00
    0.77314E-08        -0.47159E-13         0.00000E+00
    0.78848E-08        -0.48876E-13         0.00000E+00
    0.80393E-08        -0.50554E-13         0.00000E+00
    0.81949E-08        -0.52183E-13         0.00000E+00
    0.83514E-08        -0.53753E-13         0.00000E+00
    0.85086E-08        -0.55253E-13         0.00000E+00
    0.86664E-08        -0.56672E-13         0.00000E+00
    0.88245E-08        -0.57996E-13         0.00000E+00
    0.89829E-08        -0.59212E-13         0.00000E+00
    0.91412E-08        -0.60307E-13         0.00000E+00
    0.92994E-08        -0.61264E-13         0.00000E+00
    0.94572E-08        -0.62069E-13         0.00000E+00
    0.96144E-08        -0.62702E-13         0.00000E+00
    0.97707E-08        -0.63147E-13         0.00000E+00
    0.99260E-08        -0.63384E-13         0.00000E+00
    0.10080E-07        -0.63393E-13         0.00000E+00
    0.10232E-07        -0.63151E-13         0.00000E+00
    0.10383E-07        -0.62636E-13         0.00000E+00
    0.10532E-07        -0.61822E-13         0.00000E+00
    0.10678E-07        -0.60685E-13         0.00000E+00
    0.10822E-07        -0.59196E-13         0.00000E+00
    0.10963E-07        -0.57325E-13         0.00000E+00
    0.11101E-07        -0.55040E-13         0.00000E+00
    0.11236E-07        -0.52307E-13         0.00000E+00
    0.11367E-07        -0.49091E-13         0.00000E+00
    0.11494E-07        -0.45353E-13         0.00000E+00
    0.11617E-07        -0.41052E-13         0.00000E+00
    0.11735E-07        -0.36147E-13         0.00000E+00
    0.11849E-07        -0.30596E-13         0.00000E+00
    0.11958E-07        -0.24357E-13         0.00000E+00
    0.12061E-07        -0.17393E-13         0.00000E+00
    0.12159E-07        -0.96741E-14         0.00000E+00
    0.12251E-07        -0.11827E-14         0.00000E+00
    0.12337E-07         0.80773E-14         0.00000E+00
    0.12417E-07         0.18072E-13         0.00000E+00
    0.12491E-07         0.28717E-13         0.00000E+00
    0.12558E-07         0.39867E-13         0.00000E+00
    0.12618E-07         0.51274E-13         0.00000E+00
    0.12671E-07         0.62586E-13         0.00000E+00
    0.12717E-07         0.73219E-13         0.00000E+00
    0.12756E-07         0.82504E-13         0.00000E+00
    0.12787E-07         0.89070E-13         0.00000E+00
    0.12812E-07         0.91976E-13         0.00000E+00
    0.12829E-07         0.86496E-13         0.00000E+00
    0.12839E-07         0.73797E-13         0.00000E+00
    0.12842E-07         0.00000E+00         0.00000E+00
    0.32142E-08         0.00000E+00         0.00000E+00
    0.32154E-08         0.72565E-13         0.00000E+00
    0.32192E-08         0.92692E-13         0.00000E+00
    0.32259E-08         0.10325E-12         0.00000E+00
    0.32356E-08         0.10592E-12         0.00000E+00
    0.32483E-08         0.10451E-12         0.00000E+00
    0.32641E-08         0.10033E-12         0.00000E+00
    0.32829E-08         0.94562E-13         0.00000E+00
    0.33050E-08         0.87904E-13         0.00000E+00
    0.33301E-08         0.80876E-13         0.00000E+00
    0.33584E-08         0.73805E-13         0.00000E+00
    0.33899E-08         0.66909E-13         0.00000E+00
    0.34245E-08         0.60314E-13         0.00000E+00
    0.34623E-08         0.54085E-13         0.00000E+00
    0.35033E-08         0.48250E-13         0.00000E+00
    0.35474E-08         0.42806E-13         0.00000E+00
    0.35946E-08         0.37736E-13         0.00000E+00
    0.36450E-08         0.33009E-13         0.00000E+00
    0.36986E-08         0.28594E-13         0.00000E+00
    0.37553E-08         0.24455E-13         0.00000E+00
    0.38151E-08         0.20557E-13         0.00000E+00
    0.38781E-08         0.16867E-13         0.00000E+00
    0.39442E-08         0.13353E-13         0.00000E+00
    0.40134E-08         0.99880E-14         0.00000E+00
    0.40857E-08         0.67455E-14         0.00000E+00
    0.41611E-08         0.36025E-14         0.00000E+00
    0.42397E-08         0.53824E-15         0.00000E+00
    0.43212E-08        -0.24658E-14         0.00000E+00
    0.44059E-08        -0.54261E-14         0.00000E+00
    0.44936E-08        -0.83573E-14         0.00000E+00
    0.45843E-08        -0.11272E-13         0.00000E+00
    0.46781E-08        -0.14183E-13         0.00000E+00
    0.47748E-08        -0.17099E-13         0.00000E+00
    0.48746E-08        -0.20029E-13         0.00000E+00
    0.49772E-08        -0.22982E-13         0.00000E+00
    0.50828E-08        -0.25963E-13         0.00000E+00
    0.51913E-08        -0.28979E-13         0.00000E+00
    0.53026E-08        -0.32034E-13         0.00000E+00
    0.54168E-08        -0.35132E-13         0.00000E+00
    0.55337E-08        -0.38276E-13         0.00000E+00
    0.56534E-08        -0.41467E-13         0.00000E+00
    0.57757E-08        -0.44707E-13         0.00000E+00
    0.59007E-08        -0.47995E-13         0.00000E+00
    0.60282E-08        -0.51331E-13         0.00000E+00
    0.61583E-08        -0.54713E-13         0.00000E+00
    0.62908E-08        -0.58138E-13         0.00000E+00
    0.64256E-08        -0.61602E-13         0.00000E+00
    0.65628E-08        -0.65100E-13         0.00000E+00
    0.67021E-08        -0.68627E-13         0.00000E+00
    0.68436E-08        -0.72175E-13         0.00000E+00
    0.69871E-08        -0.75737E-13         0.00000E+00
    0.71326E-08        -0.79303E-13         0.00000E+00
    0.72799E-08        -0.82862E-13         0.00000E+00
    0.74288E-08        -0.86403E-13         0.00000E+00
    0.75794E-08        -0.89914E-13         0.00000E+00
    0.77314E-08        -0.93379E-13         0.00000E+00
    0.78848E-08        -0.96783E-13         0.00000E+00
    0.80393E-08        -0.10011E-12         0.00000E+00
    0.81949E-08        -0.10334E-12         0.00000E+00
    0.83514E-08        -0.10645E-12         0.00000E+00
    0.85086E-08        -0.10943E-12         0.00000E+00
    0.86664E-08        -0.11224E-12         0.00000E+00
    0.88245E-08        -0.11487E-12         0.00000E+00
    0.89829E-08        -0.11728E-12         0.00000E+00
    0.91412E-08        -0.11946E-12         0.00000E+00
    0.92994E-08        -0.12136E-12         0.00000E+00
    0.94572E-08        -0.12296E-12         0.00000E+00
    0.96144E-08        -0.12422E-12         0.00000E+00
    0.97707E-08        -0.12511E-12         0.00000E+00
    0.99260E-08        -0.12559E-12         0.00000E+00
    0.10080E-07        -0.12562E-12         0.00000E+00
    0.10232E-07        -0.12515E-12         0.00000E+00
    0.10383E-07        -0.12414E-12         0.00000E+00
    0.10532E-07        -0.12254E-12         0.00000E+00
    0.10678E-07        -0.12030E-12         0.00000E+00
    0.10822E-07        -0.11736E-12         0.00000E+00
    0.10963E-07        -0.11367E-12         0.00000E+00
    0.11101E-07        -0.10915E-12         0.00000E+00
    0.11236E-07        -0.10375E-12         0.00000E+00
    0.11367E-07        -0.97392E-13         0.00000E+00
    0.11494E-07        -0.89995E-13         0.00000E+00
    0.11617E-07        -0.81482E-13         0.00000E+00
    0.11735E-07        -0.71767E-13         0.00000E+00
    0.11849E-07        -0.60767E-13         0.00000E+00
    0.11958E-07        -0.48399E-13         0.00000E+00
    0.12061E-07        -0.34586E-13         0.00000E+00
    0.12159E-07        -0.19267E-13         0.00000E+00
    0.12251E-07        -0.24066E-14         0.00000E+00
    0.12337E-07         0.15989E-13         0.00000E+00
    0.12417E-07         0.35850E-13         0.00000E+00
    0.12491E-07         0.57012E-13         0.00000E+00
    0.12558E-07         0.79177E-13         0.00000E+00
    0.12618E-07         0.10185E-12         0.00000E+00
    0.12671E-07         0.12430E-12         0.00000E+00
    0.12717E-07         0.14539E-12         0.00000E+00
    0.12756E-07         0.16364E-12         0.00000E+00
    0.12787E-07         0.17651E-12         0.00000E+00
    0.12812E-07         0.18147E-12         0.00000E+00
    0.12829E-07         0.17045E-12         0.00000E+00
    0.12839E-07         0.14119E-12         0.00000E+00
    0.12842E-07         0.00000E+00         0.00000E+00
    0.32142E-08         0.00000E+00         0.00000E+00
    0.32154E-08         0.13671E-12         0.00000E+00
    0.32192E-08         0.18094E-12         0.00000E+00
    0.32259E-08         0.20227E-12         0.00000E+00
    0.32356E-08         0.20848E-12         0.00000E+00
    0.32483E-08         0.20599E-12         0.00000E+00
    0.32641E-08         0.19793E-12         0.00000E+00
    0.32829E-08         0.18658E-12         0.00000E+00
    0.33050E-08         0.17343E-12         0.00000E+00
    0.33301E-08         0.15952E-12         0.00000E+00
    0.33584E-08         0.14551E-12         0.00000E+00
    0.33899E-08         0.13185E-12         0.00000E+00
    0.34245E-08         0.11879E-12         0.00000E+00
    0.34623E-08         0.10646E-12         0.00000E+00
    0.35033E-08         0.94928E-13         0.00000E+00
    0.35474E-08         0.84177E-13         0.00000E+00
    0.35946E-08         0.74172E-13         0.00000E+00
    0.36450E-08         0.64854E-13         0.00000E+00
    0.36986E-08         0.56157E-13         0.00000E+00
    0.37553E-08         0.48010E-13         0.00000E+00
    0.38151E-08         0.40341E-13         0.00000E+00
    0.38781E-08         0.33084E-13         0.00000E+00
    0.39442E-08         0.26178E-13         0.00000E+00
    0.40134E-08         0.19565E-13         0.00000E+00
    0.40857E-08         0.13193E-13         0.00000E+00
    0.41611E-08         0.70171E-14         0.00000E+00
    0.42397E-08         0.99583E-15         0.00000E+00
    0.43212E-08        -0.49076E-14         0.00000E+00
    0.44059E-08        -0.10726E-13         0.00000E+00
    0.44936E-08        -0.16487E-13         0.00000E+00
    0.45843E-08        -0.22218E-13         0.00000E+00
    0.46781E-08        -0.27941E-13         0.00000E+00
    0.47748E-08        -0.33676E-13         0.00000E+00
    0.48746E-08        -0.39440E-13         0.00000E+00
    0.49772E-08        -0.45248E-13         0.00000E+00
    0.50828E-08        -0.51114E-13         0.00000E+00
    0.51913E-08        -0.57049E-13         0.00000E+00
    0.53026E-08        -0.63062E-13         0.00000E+00
    0.54168E-08        -0.69161E-13         0.00000E+00
    0.55337E-08        -0.75350E-13         0.00000E+00
    0.56534E-08        -0.81633E-13         0.00000E+00
    0.57757E-08        -0.88013E-13         0.00000E+00
    0.59007E-08        -0.94489E-13         0.00000E+00
    0.60282E-08        -0.10106E-12         0.00000E+00
    0.61583E-08        -0.10772E-12         0.00000E+00
    0.62908E-08        -0.11447E-12         0.00000E+00
    0.64256E-08        -0.12129E-12         0.00000E+00
    0.65628E-08        -0.12819E-12         0.00000E+00
    0.67021E-08        -0.13514E-12         0.00000E+00
    0.68436E-08        -0.14213E-12         0.00000E+00
    0.69871E-08        -0.14915E-12         0.00000E+00
    0.71326E-08        -0.15618E-12         0.00000E+00
    0.72799E-08        -0.16320E-12         0.00000E+00
    0.74288E-08        -0.17018E-12         0.00000E+00
    0.75794E-08        -0.17711E-12         0.00000E+00
    0.77314E-08        -0.18394E-12         0.00000E+00
    0.78848E-08        -0.19066E-12         0.00000E+00
    0.80393E-08        -0.19722E-12         0.00000E+00
    0.81949E-08        -0.20360E-12         0.00000E+00
    0.83514E-08        -0.20974E-12         0.00000E+00
    0.85086E-08        -0.21562E-12         0.00000E+00
    0.86664E-08        -0.22117E-12         0.00000E+00
    0.88245E-08        -0.22637E-12         0.00000E+00
    0.89829E-08        -0.23114E-12         0.00000E+00
    0.91412E-08        -0.23545E-12         0.00000E+00
    0.92994E-08        -0.23921E-12         0.00000E+00
    0.94572E-08        -0.24239E-12         0.00000E+00
    0.96144E-08        -0.24490E-12         0.00000E+00
    0.97707E-08        -0.24668E-12         0.00000E+00
    0.99260E-08        -0.24765E-12         0.00000E+00
    0.10080E-07        -0.24773E-12         0.00000E+00
    0.10232E-07        -0.24683E-12         0.00000E+00
    0.10383E-07        -0.24488E-12         0.00000E+00
    0.10532E-07        -0.24176E-12         0.00000E+00
    0.10678E-07        -0.23738E-12         0.00000E+00
    0.10822E-07        -0.23162E-12         0.00000E+00
    0.10963E-07        -0.22438E-12         0.00000E+00
    0.11101E-07        -0.21552E-12         0.00000E+00
    0.11236E-07        -0.20491E-12         0.00000E+00
    0.11367E-07        -0.19241E-12         0.00000E+00
    0.11494E-07        -0.17785E-12         0.00000E+00
    0.11617E-07        -0.16109E-12         0.00000E+00
    0.11735E-07        -0.14195E-12         0.00000E+00
    0.11849E-07        -0.12026E-12         0.00000E+00
    0.11958E-07        -0.95852E-13         0.00000E+00
    0.12061E-07        -0.68572E-13         0.00000E+00
    0.12159E-07        -0.38294E-13         0.00000E+00
    0.12251E-07        -0.49442E-14         0.00000E+00
    0.12337E-07         0.31468E-13         0.00000E+00
    0.12417E-07         0.70805E-13         0.00000E+00
    0.12491E-07         0.11273E-12         0.00000E+00
    0.12558E-07         0.15665E-12         0.00000E+00
    0.12618E-07         0.20156E-12         0.00000E+00
    0.12671E-07         0.24595E-12         0.00000E+00
    0.12717E-07         0.28754E-12         0.00000E+00
    0.12756E-07         0.32316E-12         0.00000E+00
    0.12787E-07         0.34801E-12         0.00000E+00
    0.12812E-07         0.35570E-12         0.00000E+00
    0.12829E-07         0.33289E-12         0.00000E+00
    0.12839E-07         0.26474E-12         0.00000E+00
    0.12842E-07         0.00000E+00         0.00000E+00
    0.32142E-08         0.00000E+00         0.00000E+00
    0.32154E-08         0.19136E-12         0.00000E+00
    0.32192E-08         0.26300E-12         0.00000E+00
    0.32259E-08         0.29590E-12         0.00000E+00
    0.32356E-08         0.30648E-12         0.00000E+00
    0.32483E-08         0.30339E-12         0.00000E+00
    0.32641E-08         0.29183E-12         0.00000E+00
    0.32829E-08         0.27518E-12         0.00000E+00
    0.33050E-08         0.25576E-12         0.00000E+00
    0.33301E-08         0.23515E-12         0.00000E+00
    0.33584E-08         0.21438E-12         0.00000E+00
    0.33899E-08         0.19414E-12         0.00000E+00
    0.34245E-08         0.17479E-12         0.00000E+00
    0.34623E-08         0.15656E-12         0.00000E+00
    0.35033E-08         0.13950E-12         0.00000E+00
    0.35474E-08         0.12363E-12         0.00000E+00
    0.35946E-08         0.10888E-12         0.00000E+00
    0.36450E-08         0.95149E-13         0.00000E+00
    0.36986E-08         0.82348E-13         0.00000E+00
    0.37553E-08         0.70367E-13         0.00000E+00
    0.38151E-08         0.59098E-13         0.00000E+00
    0.38781E-08         0.48440E-13         0.00000E+00
    0.39442E-08         0.38301E-13         0.00000E+00
    0.40134E-08         0.28594E-13         0.00000E+00
    0.40857E-08         0.19245E-13         0.00000E+00
    0.41611E-08         0.10182E-13         0.00000E+00
    0.42396E-08         0.13467E-14         0.00000E+00
    0.43212E-08        -0.73168E-14         0.00000E+00
    0.44059E-08        -0.15856E-13         0.00000E+00
    0.44936E-08        -0.24315E-13         0.00000E+00
    0.45843E-08        -0.32729E-13         0.00000E+00
    0.46781E-08        -0.41134E-13         0.00000E+00
    0.47748E-08        -0.49558E-13         0.00000E+00
    0.48746E-08        -0.58026E-13         0.00000E+00
    0.49772E-08        -0.66562E-13         0.00000E+00
    0.50828E-08        -0.75185E-13         0.00000E+00
    0.51913E-08        -0.83910E-13         0.00000E+00
    0.53026E-08        -0.92751E-13         0.00000E+00
    0.54168E-08        -0.10172E-12         0.00000E+00
    0.55337E-08        -0.11082E-12         0.00000E+00
    0.56534E-08        -0.12007E-12         0.00000E+00
    0.57757E-08        -0.12945E-12         0.00000E+00
    0.59007E-08        -0.13898E-12         0.00000E+00
    0.60282E-08        -0.14866E-12         0.00000E+00
    0.61583E-08        -0.15846E-12         0.00000E+00
    0.62908E-08        -0.16839E-12         0.00000E+00
    0.64256E-08        -0.17844E-12         0.00000E+00
    0.65628E-08        -0.18859E-12         0.00000E+00
    0.67021E-08        -0.19883E-12         0.00000E+00
    0.68436E-08        -0.20913E-12         0.00000E+00
    0.69871E-08        -0.21947E-12         0.00000E+00
    0.71326E-08        -0.22983E-12         0.00000E+00
    0.72799E-08        -0.24017E-12         0.00000E+00
    0.74288E-08        -0.25046E-12         0.00000E+00
    0.75794E-08        -0.26067E-12         0.00000E+00
    0.77314E-08        -0.27075E-12         0.00000E+00
    0.78848E-08        -0.28065E-12         0.00000E+00
    0.80393E-08        -0.29033E-12         0.00000E+00
    0.81949E-08        -0.29974E-12         0.00000E+00
    0.83514E-08        -0.30881E-12         0.00000E+00
    0.85086E-08        -0.31748E-12         0.00000E+00
    0.86664E-08        -0.32569E-12         0.00000E+00
    0.88245E-08        -0.33337E-12         0.00000E+00
    0.89829E-08        -0.34043E-12         0.00000E+00
    0.91412E-08        -0.34680E-12         0.00000E+00
    0.92994E-08        -0.35239E-12         0.00000E+00
    0.94572E-08        -0.35710E-12         0.00000E+00
    0.96144E-08        -0.36084E-12         0.00000E+00
    0.97707E-08        -0.36350E-12         0.00000E+00
    0.99260E-08        -0.36498E-12         0.00000E+00
    0.10080E-07        -0.36515E-12         0.00000E+00
    0.10232E-07        -0.36389E-12         0.00000E+00
    0.10383E-07        -0.36107E-12         0.00000E+00
    0.10532E-07        -0.35654E-12         0.00000E+00
    0.10678E-07        -0.35015E-12         0.00000E+00
    0.10822E-07        -0.34174E-12         0.00000E+00
    0.10963E-07        -0.33114E-12         0.00000E+00
    0.11101E-07        -0.31816E-12         0.00000E+00
    0.11236E-07        -0.30260E-12         0.00000E+00
    0.11367E-07        -0.28423E-12         0.00000E+00
    0.11494E-07        -0.26285E-12         0.00000E+00
    0.11617E-07        -0.23819E-12         0.00000E+00
    0.11735E-07        -0.21001E-12         0.00000E+00
    0.11849E-07        -0.17804E-12         0.00000E+00
    0.11958E-07        -0.14204E-12         0.00000E+00
    0.12061E-07        -0.10176E-12         0.00000E+00
    0.12159E-07        -0.57010E-13         0.00000E+00
    0.12251E-07        -0.76761E-14         0.00000E+00
    0.12337E-07         0.46235E-13         0.00000E+00
    0.12417E-07         0.10452E-12         0.00000E+00
    0.12491E-07         0.16667E-12         0.00000E+00
    0.12558E-07         0.23178E-12         0.00000E+00
    0.12618E-07         0.29832E-12         0.00000E+00
    0.12671E-07         0.36395E-12         0.00000E+00
    0.12717E-07         0.42523E-12         0.00000E+00
    0.12756E-07         0.47714E-12         0.00000E+00
    0.12787E-07         0.51255E-12         0.00000E+00
    0.12812E-07         0.52071E-12         0.00000E+00
    0.12829E-07         0.48389E-12         0.00000E+00
    0.12839E-07         0.36860E-12         0.00000E+00
    0.12842E-07         0.00000E+00         0.00000E+00
    0.32143E-08         0.00000E+00         0.00000E+00
    0.32154E-08         0.23868E-12         0.00000E+00
    0.32192E-08         0.33880E-12         0.00000E+00
    0.32259E-08         0.38432E-12         0.00000E+00
    0.32356E-08         0.39987E-12         0.00000E+00
    0.32483E-08         0.39671E-12         0.00000E+00
    0.32641E-08         0.38198E-12         0.00000E+00
    0.32829E-08         0.36030E-12         0.00000E+00
    0.33050E-08         0.33483E-12         0.00000E+00
    0.33301E-08         0.30772E-12         0.00000E+00
    0.33584E-08         0.28040E-12         0.00000E+00
    0.33899E-08         0.25375E-12         0.00000E+00
    0.34245E-08         0.22831E-12         0.00000E+00
    0.34623E-08         0.20435E-12         0.00000E+00
    0.35033E-08         0.18197E-12         0.00000E+00
    0.35474E-08         0.16117E-12         0.00000E+00
    0.35946E-08         0.14185E-12         0.00000E+00
    0.36450E-08         0.12389E-12         0.00000E+00
    0.36986E-08         0.10717E-12         0.00000E+00
    0.37553E-08         0.91530E-13         0.00000E+00
    0.38151E-08         0.76830E-13         0.00000E+00
    0.38781E-08         0.62937E-13         0.00000E+00
    0.39442E-08         0.49725E-13         0.00000E+00
    0.40134E-08         0.37081E-13         0.00000E+00
    0.40857E-08         0.24903E-13         0.00000E+00
    0.41611E-08         0.13100E-13         0.00000E+00
    0.42396E-08         0.15922E-14         0.00000E+00
    0.43212E-08        -0.96926E-14         0.00000E+00
    0.44059E-08        -0.20818E-13         0.00000E+00
    0.44936E-08        -0.31839E-13         0.00000E+00
    0.45843E-08        -0.42806E-13         0.00000E+00
    0.46781E-08        -0.53762E-13         0.00000E+00
    0.47748E-08        -0.64746E-13         0.00000E+00
    0.48746E-08        -0.75791E-13         0.00000E+00
    0.49772E-08        -0.86926E-13         0.00000E+00
    0.50828E-08        -0.98176E-13         0.00000E+00
    0.51913E-08        -0.10956E-12         0.00000E+00
    0.53026E-08        -0.12110E-12         0.00000E+00
    0.54168E-08        -0.13281E-12         0.00000E+00
    0.55337E-08        -0.14470E-12         0.00000E+00
    0.56534E-08        -0.15677E-12         0.00000E+00
    0.57757E-08        -0.16903E-12         0.00000E+00
    0.59007E-08        -0.18148E-12         0.00000E+00
    0.60282E-08        -0.19412E-12         0.00000E+00
    0.61583E-08        -0.20693E-12         0.00000E+00
    0.62908E-08        -0.21991E-12         0.00000E+00
    0.64256E-08        -0.23305E-12         0.00000E+00
    0.65628E-08        -0.24632E-12         0.00000E+00
    0.67021E-08        -0.25970E-12         0.00000E+00
    0.68436E-08        -0.27317E-12         0.00000E+00
    0.69871E-08        -0.28670E-12         0.00000E+00
    0.71326E-08        -0.30025E-12         0.00000E+00
    0.72799E-08        -0.31378E-12         0.00000E+00
    0.74288E-08        -0.32724E-12         0.00000E+00
    0.75794E-08        -0.34060E-12         0.00000E+00
    0.77314E-08        -0.35379E-12         0.00000E+00
    0.78848E-08        -0.36676E-12         0.00000E+00
    0.80393E-08        -0.37944E-12         0.00000E+00
    0.81949E-08        -0.39176E-12         0.00000E+00
    0.83514E-08        -0.40365E-12         0.00000E+00
    0.85086E-08        -0.41502E-12         0.00000E+00
    0.86664E-08        -0.42579E-12         0.00000E+00
    0.88245E-08        -0.43586E-12         0.00000E+00
    0.89829E-08        -0.44513E-12         0.00000E+00
    0.91412E-08        -0.45351E-12         0.00000E+00
    0.92994E-08        -0.46086E-12         0.00000E+00
    0.94572E-08        -0.46708E-12         0.00000E+00
    0.96144E-08        -0.47203E-12         0.00000E+00
    0.97707E-08        -0.47557E-12         0.00000E+00
    0.99260E-08        -0.47757E-12         0.00000E+00
    0.10080E-07        -0.47787E-12         0.00000E+00
    0.10232E-07        -0.47630E-12         0.00000E+00
    0.10383E-07        -0.47269E-12         0.00000E+00
    0.10532E-07        -0.46685E-12         0.00000E+00
    0.10678E-07        -0.45859E-12         0.00000E+00
    0.10822E-07        -0.44769E-12         0.00000E+00
    0.10963E-07        -0.43392E-12         0.00000E+00
    0.11101E-07        -0.41704E-12         0.00000E+00
    0.11236E-07        -0.39678E-12         0.00000E+00
    0.11367E-07        -0.37285E-12         0.00000E+00
    0.11494E-07        -0.34495E-12         0.00000E+00
    0.11617E-07        -0.31276E-12         0.00000E+00
    0.11735E-07        -0.27592E-12         0.00000E+00
    0.11849E-07        -0.23410E-12         0.00000E+00
    0.11958E-07        -0.18695E-12         0.00000E+00
    0.12061E-07        -0.13415E-12         0.00000E+00
    0.12159E-07        -0.75430E-13         0.00000E+00
    0.12251E-07        -0.10631E-13         0.00000E+00
    0.12338E-07         0.60240E-13         0.00000E+00
    0.12417E-07         0.13691E-12         0.00000E+00
    0.12491E-07         0.21872E-12         0.00000E+00
    0.12558E-07         0.30442E-12         0.00000E+00
    0.12618E-07         0.39196E-12         0.00000E+00
    0.12671E-07         0.47814E-12         0.00000E+00
    0.12717E-07         0.55825E-12         0.00000E+00
    0.12756E-07         0.62544E-12         0.00000E+00
    0.12787E-07         0.66994E-12         0.00000E+00
    0.12812E-07         0.67686E-12         0.00000E+00
    0.12829E-07         0.62313E-12         0.00000E+00
    0.12839E-07         0.45747E-12         0.00000E+00
    0.12842E-07         0.00000E+00         0.00000E+00
    0.32143E-08         0.00000E+00         0.00000E+00
    0.32155E-08         0.28022E-12         0.00000E+00
    0.32192E-08         0.40860E-12         0.00000E+00
    0.32259E-08         0.46765E-12         0.00000E+00
    0.32356E-08         0.48867E-12         0.00000E+00
    0.32483E-08         0.48589E-12         0.00000E+00
    0.32641E-08         0.46832E-12         0.00000E+00
    0.32829E-08         0.44188E-12         0.00000E+00
    0.33049E-08         0.41059E-12         0.00000E+00
    0.33301E-08         0.37721E-12         0.00000E+00
    0.33584E-08         0.34352E-12         0.00000E+00
    0.33899E-08         0.31067E-12         0.00000E+00
    0.34245E-08         0.27933E-12         0.00000E+00
    0.34623E-08         0.24984E-12         0.00000E+00
    0.35033E-08         0.22233E-12         0.00000E+00
    0.35474E-08         0.19678E-12         0.00000E+00
    0.35946E-08         0.17308E-12         0.00000E+00
    0.36450E-08         0.15109E-12         0.00000E+00
    0.36986E-08         0.13063E-12         0.00000E+00
    0.37553E-08         0.11150E-12         0.00000E+00
    0.38151E-08         0.93544E-13         0.00000E+00
    0.38781E-08         0.76579E-13         0.00000E+00
    0.39442E-08         0.60454E-13         0.00000E+00
    0.40134E-08         0.45026E-13         0.00000E+00
    0.40857E-08         0.30170E-13         0.00000E+00
    0.41611E-08         0.15773E-13         0.00000E+00
    0.42396E-08         0.17343E-14         0.00000E+00
    0.43212E-08        -0.12034E-13         0.00000E+00
    0.44059E-08        -0.25609E-13         0.00000E+00
    0.44936E-08        -0.39061E-13         0.00000E+00
    0.45843E-08        -0.52449E-13         0.00000E+00
    0.46781E-08        -0.65827E-13         0.00000E+00
    0.47748E-08        -0.79241E-13         0.00000E+00
    0.48746E-08        -0.92734E-13         0.00000E+00
    0.49772E-08        -0.10634E-12         0.00000E+00
    0.50828E-08        -0.12009E-12         0.00000E+00
    0.51913E-08        -0.13401E-12         0.00000E+00
    0.53026E-08        -0.14812E-12         0.00000E+00
    0.54168E-08        -0.16244E-12         0.00000E+00
    0.55337E-08        -0.17698E-12         0.00000E+00
    0.56534E-08        -0.19174E-12         0.00000E+00
    0.57757E-08        -0.20675E-12         0.00000E+00
    0.59007E-08        -0.22198E-12         0.00000E+00
    0.60282E-08        -0.23745E-12         0.00000E+00
    0.61583E-08        -0.25313E-12         0.00000E+00
    0.62908E-08        -0.26903E-12         0.00000E+00
    0.64256E-08        -0.28511E-12         0.00000E+00
    0.65628E-08        -0.30136E-12         0.00000E+00
    0.67021E-08        -0.31775E-12         0.00000E+00
    0.68436E-08        -0.33426E-12         0.00000E+00
    0.69871E-08        -0.35083E-12         0.00000E+00
    0.71326E-08        -0.36743E-12         0.00000E+00
    0.72798E-08        -0.38401E-12         0.00000E+00
    0.74288E-08        -0.40052E-12         0.00000E+00
    0.75794E-08        -0.41690E-12         0.00000E+00
    0.77314E-08        -0.43307E-12         0.00000E+00
    0.78848E-08        -0.44898E-12         0.00000E+00
    0.80393E-08        -0.46454E-12         0.00000E+00
    0.81949E-08        -0.47966E-12         0.00000E+00
    0.83514E-08        -0.49425E-12         0.00000E+00
    0.85086E-08        -0.50822E-12         0.00000E+00
    0.86664E-08        -0.52145E-12         0.00000E+00
    0.88245E-08        -0.53383E-12         0.00000E+00
    0.89829E-08        -0.54525E-12         0.00000E+00
    0.91412E-08        -0.55556E-12         0.00000E+00
    0.92994E-08        -0.56463E-12         0.00000E+00
    0.94572E-08        -0.57231E-12         0.00000E+00
    0.96144E-08        -0.57844E-12         0.00000E+00
    0.97707E-08        -0.58287E-12         0.00000E+00
    0.99260E-08        -0.58540E-12         0.00000E+00
    0.10080E-07        -0.58586E-12         0.00000E+00
    0.10232E-07        -0.58403E-12         0.00000E+00
    0.10383E-07        -0.57972E-12         0.00000E+00
    0.10532E-07        -0.57268E-12         0.00000E+00
    0.10678E-07        -0.56267E-12         0.00000E+00
    0.10822E-07        -0.54944E-12         0.00000E+00
    0.10963E-07        -0.53270E-12         0.00000E+00
    0.11101E-07        -0.51214E-12         0.00000E+00
    0.11236E-07        -0.48743E-12         0.00000E+00
    0.11367E-07        -0.45823E-12         0.00000E+00
    0.11494E-07        -0.42414E-12         0.00000E+00
    0.11617E-07        -0.38476E-12         0.00000E+00
    0.11735E-07        -0.33967E-12         0.00000E+00
    0.11849E-07        -0.28842E-12         0.00000E+00
    0.11958E-07        -0.23058E-12         0.00000E+00
    0.12061E-07        -0.16574E-12         0.00000E+00
    0.12159E-07        -0.93564E-13         0.00000E+00
    0.12251E-07        -0.13838E-13         0.00000E+00
    0.12338E-07         0.73437E-13         0.00000E+00
    0.12418E-07         0.16793E-12         0.00000E+00
    0.12491E-07         0.26879E-12         0.00000E+00
    0.12558E-07         0.37446E-12         0.00000E+00
    0.12618E-07         0.48233E-12         0.00000E+00
    0.12671E-07         0.58833E-12         0.00000E+00
    0.12717E-07         0.68644E-12         0.00000E+00
    0.12756E-07         0.76790E-12         0.00000E+00
    0.12787E-07         0.82016E-12         0.00000E+00
    0.12812E-07         0.82432E-12         0.00000E+00
    0.12829E-07         0.75104E-12         0.00000E+00
    0.12839E-07         0.53471E-12         0.00000E+00
    0.12842E-07         0.00000E+00         0.00000E+00
    0.32144E-08         0.00000E+00         0.00000E+00
    0.32155E-08         0.31710E-12         0.00000E+00
    0.32193E-08         0.47281E-12         0.00000E+00
    0.32259E-08         0.54601E-12         0.00000E+00
    0.32356E-08         0.57293E-12         0.00000E+00
    0.32483E-08         0.57091E-12         0.00000E+00
    0.32640E-08         0.55082E-12         0.00000E+00
    0.32829E-08         0.51987E-12         0.00000E+00
    0.33049E-08         0.48300E-12         0.00000E+00
    0.33301E-08         0.44355E-12         0.00000E+00
    0.33584E-08         0.40370E-12         0.00000E+00
    0.33899E-08         0.36486E-12         0.00000E+00
    0.34245E-08         0.32782E-12         0.00000E+00
    0.34623E-08         0.29301E-12         0.00000E+00
    0.35032E-08         0.26056E-12         0.00000E+00
    0.35474E-08         0.23047E-12         0.00000E+00
    0.35946E-08         0.20259E-12         0.00000E+00
    0.36450E-08         0.17675E-12         0.00000E+00
    0.36986E-08         0.15272E-12         0.00000E+00
    0.37553E-08         0.13029E-12         0.00000E+00
    0.38151E-08         0.10924E-12         0.00000E+00
    0.38781E-08         0.89372E-13         0.00000E+00
    0.39442E-08         0.70493E-13         0.00000E+00
    0.40134E-08         0.52436E-13         0.00000E+00
    0.40857E-08         0.35051E-13         0.00000E+00
    0.41611E-08         0.18203E-13         0.00000E+00
    0.42396E-08         0.17751E-14         0.00000E+00
    0.43212E-08        -0.14339E-13         0.00000E+00
    0.44059E-08        -0.30229E-13         0.00000E+00
    0.44936E-08        -0.45978E-13         0.00000E+00
    0.45843E-08        -0.61657E-13         0.00000E+00
    0.46781E-08        -0.77327E-13         0.00000E+00
    0.47748E-08        -0.93045E-13         0.00000E+00
    0.48746E-08        -0.10886E-12         0.00000E+00
    0.49772E-08        -0.12481E-12         0.00000E+00
    0.50828E-08        -0.14093E-12         0.00000E+00
    0.51913E-08        -0.15725E-12         0.00000E+00
    0.53026E-08        -0.17380E-12         0.00000E+00
    0.54168E-08        -0.19060E-12         0.00000E+00
    0.55337E-08        -0.20766E-12         0.00000E+00
    0.56534E-08        -0.22499E-12         0.00000E+00
    0.57757E-08        -0.24260E-12         0.00000E+00
    0.59007E-08        -0.26049E-12         0.00000E+00
    0.60282E-08        -0.27865E-12         0.00000E+00
    0.61583E-08        -0.29707E-12         0.00000E+00
    0.62908E-08        -0.31573E-12         0.00000E+00
    0.64256E-08        -0.33463E-12         0.00000E+00
    0.65628E-08        -0.35372E-12         0.00000E+00
    0.67021E-08        -0.37299E-12         0.00000E+00
    0.68436E-08        -0.39238E-12         0.00000E+00
    0.69871E-08        -0.41186E-12         0.00000E+00
    0.71326E-08        -0.43138E-12         0.00000E+00
    0.72798E-08        -0.45087E-12         0.00000E+00
    0.74288E-08        -0.47029E-12         0.00000E+00
    0.75794E-08        -0.48955E-12         0.00000E+00
    0.77314E-08        -0.50859E-12         0.00000E+00
    0.78848E-08        -0.52731E-12         0.00000E+00
    0.80393E-08        -0.54562E-12         0.00000E+00
    0.81949E-08        -0.56342E-12         0.00000E+00
    0.83514E-08        -0.58061E-12         0.00000E+00
    0.85086E-08        -0.59707E-12         0.00000E+00
    0.86664E-08        -0.61267E-12         0.00000E+00
    0.88245E-08        -0.62728E-12         0.00000E+00
    0.89829E-08        -0.64075E-12         0.00000E+00
    0.91412E-08        -0.65294E-12         0.00000E+00
    0.92994E-08        -0.66367E-12         0.00000E+00
    0.94572E-08        -0.67278E-12         0.00000E+00
    0.96143E-08        -0.68008E-12         0.00000E+00
    0.97707E-08        -0.68537E-12         0.00000E+00
    0.99260E-08        -0.68846E-12         0.00000E+00
    0.10080E-07        -0.68910E-12         0.00000E+00
    0.10232E-07        -0.68708E-12         0.00000E+00
    0.10383E-07        -0.68213E-12         0.00000E+00
    0.10532E-07        -0.67400E-12         0.00000E+00
    0.10678E-07        -0.66238E-12         0.00000E+00
    0.10822E-07        -0.64697E-12         0.00000E+00
    0.10963E-07        -0.62744E-12         0.00000E+00
    0.11101E-07        -0.60343E-12         0.00000E+00
    0.11236E-07        -0.57453E-12         0.00000E+00
    0.11367E-07        -0.54034E-12         0.00000E+00
    0.11494E-07        -0.50038E-12         0.00000E+00
    0.11617E-07        -0.45418E-12         0.00000E+00
    0.11735E-07        -0.40122E-12         0.00000E+00
    0.11849E-07        -0.34098E-12         0.00000E+00
    0.11958E-07        -0.27291E-12         0.00000E+00
    0.12061E-07        -0.19653E-12         0.00000E+00
    0.12159E-07        -0.11142E-12         0.00000E+00
    0.12251E-07        -0.17321E-13         0.00000E+00
    0.12338E-07         0.85781E-13         0.00000E+00
    0.12418E-07         0.19749E-12         0.00000E+00
    0.12491E-07         0.31679E-12         0.00000E+00
    0.12558E-07         0.44179E-12         0.00000E+00
    0.12618E-07         0.56930E-12         0.00000E+00
    0.12671E-07         0.69439E-12         0.00000E+00
    0.12717E-07         0.80966E-12         0.00000E+00
    0.12756E-07         0.90441E-12         0.00000E+00
    0.12787E-07         0.96321E-12         0.00000E+00
    0.12812E-07         0.96322E-12         0.00000E+00
    0.12829E-07         0.86847E-12         0.00000E+00
    0.12839E-07         0.60278E-12         0.00000E+00
    0.12842E-07         0.00000E+00         0.00000E+00
    0.32144E-08         0.00000E+00         0.00000E+00
    0.32156E-08         0.35016E-12         0.00000E+00
    0.32193E-08         0.53189E-12         0.00000E+00
    0.32259E-08         0.61952E-12         0.00000E+00
    0.32356E-08         0.65270E-12         0.00000E+00
    0.32483E-08         0.65177E-12         0.00000E+00
    0.32640E-08         0.62943E-12         0.00000E+00
    0.32829E-08         0.59424E-12         0.00000E+00
    0.33049E-08         0.55201E-12         0.00000E+00
    0.33301E-08         0.50671E-12         0.00000E+00
    0.33584E-08         0.46093E-12         0.00000E+00
    0.33899E-08         0.41630E-12         0.00000E+00
    0.34245E-08         0.37378E-12         0.00000E+00
    0.34623E-08         0.33385E-12         0.00000E+00
    0.35032E-08         0.29667E-12         0.00000E+00
    0.35473E-08         0.26223E-12         0.00000E+00
    0.35946E-08         0.23037E-12         0.00000E+00
    0.36450E-08         0.20086E-12         0.00000E+00
    0.36986E-08         0.17346E-12         0.00000E+00
    0.37553E-08         0.14790E-12         0.00000E+00
    0.38151E-08         0.12393E-12         0.00000E+00
    0.38781E-08         0.10132E-12         0.00000E+00
    0.39442E-08         0.79847E-13         0.00000E+00
    0.40134E-08         0.59314E-13         0.00000E+00
    0.40857E-08         0.39549E-13         0.00000E+00
    0.41611E-08         0.20395E-13         0.00000E+00
    0.42396E-08         0.17173E-14         0.00000E+00
    0.43212E-08        -0.16605E-13         0.00000E+00
    0.44059E-08        -0.34677E-13         0.00000E+00
    0.44936E-08        -0.52592E-13         0.00000E+00
    0.45843E-08        -0.70430E-13         0.00000E+00
    0.46781E-08        -0.88264E-13         0.00000E+00
    0.47748E-08        -0.10616E-12         0.00000E+00
    0.48745E-08        -0.12416E-12         0.00000E+00
    0.49772E-08        -0.14232E-12         0.00000E+00
    0.50828E-08        -0.16069E-12         0.00000E+00
    0.51913E-08        -0.17929E-12         0.00000E+00
    0.53026E-08        -0.19815E-12         0.00000E+00
    0.54168E-08        -0.21730E-12         0.00000E+00
    0.55337E-08        -0.23675E-12         0.00000E+00
    0.56534E-08        -0.25651E-12         0.00000E+00
    0.57757E-08        -0.27660E-12         0.00000E+00
    0.59007E-08        -0.29700E-12         0.00000E+00
    0.60282E-08        -0.31772E-12         0.00000E+00
    0.61583E-08        -0.33874E-12         0.00000E+00
    0.62907E-08        -0.36004E-12         0.00000E+00
    0.64256E-08        -0.38161E-12         0.00000E+00
    0.65628E-08        -0.40340E-12         0.00000E+00
    0.67021E-08        -0.42540E-12         0.00000E+00
    0.68436E-08        -0.44754E-12         0.00000E+00
    0.69871E-08        -0.46979E-12         0.00000E+00
    0.71326E-08        -0.49209E-12         0.00000E+00
    0.72798E-08        -0.51436E-12         0.00000E+00
    0.74288E-08        -0.53655E-12         0.00000E+00
    0.75794E-08        -0.55857E-12         0.00000E+00
    0.77314E-08        -0.58033E-12         0.00000E+00
    0.78848E-08        -0.60173E-12         0.00000E+00
    0.80393E-08        -0.62268E-12         0.00000E+00
    0.81949E-08        -0.64305E-12         0.00000E+00
    0.83514E-08        -0.66273E-12         0.00000E+00
    0.85086E-08        -0.68157E-12         0.00000E+00
    0.86664E-08        -0.69944E-12         0.00000E+00
    0.88245E-08        -0.71619E-12         0.00000E+00
    0.89829E-08        -0.73165E-12         0.00000E+00
    0.91412E-08        -0.74564E-12         0.00000E+00
    0.92994E-08        -0.75798E-12         0.00000E+00
    0.94572E-08        -0.76848E-12         0.00000E+00
    0.96143E-08        -0.77692E-12         0.00000E+00
    0.97707E-08        -0.78307E-12         0.00000E+00
    0.99260E-08        -0.78671E-12         0.00000E+00
    0.10080E-07        -0.78758E-12         0.00000E+00
    0.10232E-07        -0.78541E-12         0.00000E+00
    0.10383E-07        -0.77991E-12         0.00000E+00
    0.10532E-07        -0.77077E-12         0.00000E+00
    0.10678E-07        -0.75767E-12         0.00000E+00
    0.10822E-07        -0.74025E-12         0.00000E+00
    0.10963E-07        -0.71812E-12         0.00000E+00
    0.11101E-07        -0.69087E-12         0.00000E+00
    0.11236E-07        -0.65804E-12         0.00000E+00
    0.11367E-07        -0.61914E-12         0.00000E+00
    0.11494E-07        -0.57365E-12         0.00000E+00
    0.11617E-07        -0.52099E-12         0.00000E+00
    0.11735E-07        -0.46056E-12         0.00000E+00
    0.11849E-07        -0.39175E-12         0.00000E+00
    0.11958E-07        -0.31393E-12         0.00000E+00
    0.12061E-07        -0.22652E-12         0.00000E+00
    0.12159E-07        -0.12902E-12         0.00000E+00
    0.12251E-07        -0.21107E-13         0.00000E+00
    0.12338E-07         0.97227E-13         0.00000E+00
    0.12418E-07         0.22553E-12         0.00000E+00
    0.12491E-07         0.36263E-12         0.00000E+00
    0.12558E-07         0.50628E-12         0.00000E+00
    0.12618E-07         0.65273E-12         0.00000E+00
    0.12671E-07         0.79615E-12         0.00000E+00
    0.12717E-07         0.92776E-12         0.00000E+00
    0.12756E-07         0.10349E-11         0.00000E+00
    0.12787E-07         0.10991E-11         0.00000E+00
    0.12812E-07         0.10938E-11         0.00000E+00
    0.12829E-07         0.97633E-12         0.00000E+00
    0.12839E-07         0.66345E-12         0.00000E+00
    0.12842E-07         0.00000E+00         0.00000E+00
    0.32145E-08         0.00000E+00         0.00000E+00
    0.32156E-08         0.38003E-12         0.00000E+00
    0.32193E-08         0.58629E-12         0.00000E+00
    0.32259E-08         0.68834E-12         0.00000E+00
    0.32356E-08         0.72804E-12         0.00000E+00
    0.32483E-08         0.72845E-12         0.00000E+00
    0.32640E-08         0.70413E-12         0.00000E+00
    0.32829E-08         0.66493E-12         0.00000E+00
    0.33049E-08         0.61758E-12         0.00000E+00
    0.33301E-08         0.56666E-12         0.00000E+00
    0.33584E-08         0.51517E-12         0.00000E+00
    0.33899E-08         0.46498E-12         0.00000E+00
    0.34245E-08         0.41718E-12         0.00000E+00
    0.34623E-08         0.37234E-12         0.00000E+00
    0.35032E-08         0.33065E-12         0.00000E+00
    0.35473E-08         0.29207E-12         0.00000E+00
    0.35946E-08         0.25641E-12         0.00000E+00
    0.36450E-08         0.22344E-12         0.00000E+00
    0.36986E-08         0.19284E-12         0.00000E+00
    0.37553E-08         0.16433E-12         0.00000E+00
    0.38151E-08         0.13762E-12         0.00000E+00
    0.38781E-08         0.11243E-12         0.00000E+00
    0.39442E-08         0.88521E-13         0.00000E+00
    0.40134E-08         0.65666E-13         0.00000E+00
    0.40857E-08         0.43667E-13         0.00000E+00
    0.41611E-08         0.22352E-13         0.00000E+00
    0.42396E-08         0.15639E-14         0.00000E+00
    0.43212E-08        -0.18831E-13         0.00000E+00
    0.44059E-08        -0.38950E-13         0.00000E+00
    0.44936E-08        -0.58899E-13         0.00000E+00
    0.45843E-08        -0.78768E-13         0.00000E+00
    0.46781E-08        -0.98637E-13         0.00000E+00
    0.47748E-08        -0.11858E-12         0.00000E+00
    0.48745E-08        -0.13864E-12         0.00000E+00
    0.49772E-08        -0.15890E-12         0.00000E+00
    0.50828E-08        -0.17938E-12         0.00000E+00
    0.51913E-08        -0.20012E-12         0.00000E+00
    0.53026E-08        -0.22117E-12         0.00000E+00
    0.54168E-08        -0.24254E-12         0.00000E+00
    0.55337E-08        -0.26425E-12         0.00000E+00
    0.56534E-08        -0.28631E-12         0.00000E+00
    0.57757E-08        -0.30873E-12         0.00000E+00
    0.59007E-08        -0.33152E-12         0.00000E+00
    0.60282E-08        -0.35466E-12         0.00000E+00
    0.61583E-08        -0.37814E-12         0.00000E+00
    0.62907E-08        -0.40194E-12         0.00000E+00
    0.64256E-08        -0.42604E-12         0.00000E+00
    0.65628E-08        -0.45040E-12         0.00000E+00
    0.67021E-08        -0.47499E-12         0.00000E+00
    0.68436E-08        -0.49975E-12         0.00000E+00
    0.69871E-08        -0.52463E-12         0.00000E+00
    0.71326E-08        -0.54956E-12         0.00000E+00
    0.72798E-08        -0.57448E-12         0.00000E+00
    0.74288E-08        -0.59930E-12         0.00000E+00
    0.75794E-08        -0.62394E-12         0.00000E+00
    0.77314E-08        -0.64829E-12         0.00000E+00
    0.78848E-08        -0.67226E-12         0.00000E+00
    0.80393E-08        -0.69571E-12         0.00000E+00
    0.81949E-08        -0.71853E-12         0.00000E+00
    0.83514E-08        -0.74058E-12         0.00000E+00
    0.85086E-08        -0.76171E-12         0.00000E+00
    0.86664E-08        -0.78175E-12         0.00000E+00
    0.88245E-08        -0.80055E-12         0.00000E+00
    0.89829E-08        -0.81791E-12         0.00000E+00
    0.91412E-08        -0.83364E-12         0.00000E+00
    0.92994E-08        -0.84754E-12         0.00000E+00
    0.94572E-08        -0.85938E-12         0.00000E+00
    0.96143E-08        -0.86893E-12         0.00000E+00
    0.97707E-08        -0.87594E-12         0.00000E+00
    0.99260E-08        -0.88015E-12         0.00000E+00
    0.10080E-07        -0.88127E-12         0.00000E+00
    0.10232E-07        -0.87900E-12         0.00000E+00
    0.10383E-07        -0.87302E-12         0.00000E+00
    0.10532E-07        -0.86299E-12         0.00000E+00
    0.10678E-07        -0.84853E-12         0.00000E+00
    0.10822E-07        -0.82925E-12         0.00000E+00
    0.10963E-07        -0.80470E-12         0.00000E+00
    0.11101E-07        -0.77443E-12         0.00000E+00
    0.11236E-07        -0.73792E-12         0.00000E+00
    0.11367E-07        -0.69461E-12         0.00000E+00
    0.11494E-07        -0.64390E-12         0.00000E+00
    0.11617E-07        -0.58514E-12         0.00000E+00
    0.11735E-07        -0.51766E-12         0.00000E+00
    0.11849E-07        -0.44072E-12         0.00000E+00
    0.11958E-07        -0.35363E-12         0.00000E+00
    0.12061E-07        -0.25569E-12         0.00000E+00
    0.12159E-07        -0.14635E-12         0.00000E+00
    0.12251E-07        -0.25216E-13         0.00000E+00
    0.12338E-07         0.10774E-12         0.00000E+00
    0.12418E-07         0.25199E-12         0.00000E+00
    0.12491E-07         0.40621E-12         0.00000E+00
    0.12558E-07         0.56782E-12         0.00000E+00
    0.12618E-07         0.73250E-12         0.00000E+00
    0.12671E-07         0.89349E-12         0.00000E+00
    0.12717E-07         0.10406E-11         0.00000E+00
    0.12756E-07         0.11592E-11         0.00000E+00
    0.12787E-07         0.12280E-11         0.00000E+00
    0.12812E-07         0.12163E-11         0.00000E+00
    0.12829E-07         0.10756E-11         0.00000E+00
    0.12839E-07         0.71809E-12         0.00000E+00
    0.12842E-07         0.00000E+00         0.00000E+00
    0.32146E-08         0.00000E+00         0.00000E+00
    0.32157E-08         0.40717E-12         0.00000E+00
    0.32193E-08         0.63643E-12         0.00000E+00
    0.32260E-08         0.75265E-12         0.00000E+00
    0.32356E-08         0.79901E-12         0.00000E+00
    0.32483E-08         0.80097E-12         0.00000E+00
    0.32640E-08         0.77489E-12         0.00000E+00
    0.32829E-08         0.73191E-12         0.00000E+00
    0.33049E-08         0.67967E-12         0.00000E+00
    0.33301E-08         0.62336E-12         0.00000E+00
    0.33584E-08         0.56638E-12         0.00000E+00
    0.33898E-08         0.51085E-12         0.00000E+00
    0.34245E-08         0.45802E-12         0.00000E+00
    0.34623E-08         0.40849E-12         0.00000E+00
    0.35032E-08         0.36250E-12         0.00000E+00
    0.35473E-08         0.31998E-12         0.00000E+00
    0.35946E-08         0.28074E-12         0.00000E+00
    0.36450E-08         0.24448E-12         0.00000E+00
    0.36986E-08         0.21088E-12         0.00000E+00
    0.37553E-08         0.17960E-12         0.00000E+00
    0.38151E-08         0.15031E-12         0.00000E+00
    0.38781E-08         0.12271E-12         0.00000E+00
    0.39442E-08         0.96521E-13         0.00000E+00
    0.40134E-08         0.71496E-13         0.00000E+00
    0.40857E-08         0.47413E-13         0.00000E+00
    0.41611E-08         0.24077E-13         0.00000E+00
    0.42396E-08         0.13184E-14         0.00000E+00
    0.43212E-08        -0.21013E-13         0.00000E+00
    0.44059E-08        -0.43047E-13         0.00000E+00
    0.44936E-08        -0.64900E-13         0.00000E+00
    0.45843E-08        -0.86670E-13         0.00000E+00
    0.46781E-08        -0.10845E-12         0.00000E+00
    0.47748E-08        -0.13030E-12         0.00000E+00
    0.48745E-08        -0.15231E-12         0.00000E+00
    0.49772E-08        -0.17452E-12         0.00000E+00
    0.50828E-08        -0.19699E-12         0.00000E+00
    0.51913E-08        -0.21976E-12         0.00000E+00
    0.53026E-08        -0.24286E-12         0.00000E+00
    0.54168E-08        -0.26632E-12         0.00000E+00
    0.55337E-08        -0.29015E-12         0.00000E+00
    0.56534E-08        -0.31438E-12         0.00000E+00
    0.57757E-08        -0.33902E-12         0.00000E+00
    0.59007E-08        -0.36405E-12         0.00000E+00
    0.60282E-08        -0.38948E-12         0.00000E+00
    0.61582E-08        -0.41528E-12         0.00000E+00
    0.62907E-08        -0.44144E-12         0.00000E+00
    0.64256E-08        -0.46794E-12         0.00000E+00
    0.65628E-08        -0.49472E-12         0.00000E+00
    0.67021E-08        -0.52176E-12         0.00000E+00
    0.68436E-08        -0.54899E-12         0.00000E+00
    0.69871E-08        -0.57636E-12         0.00000E+00
    0.71326E-08        -0.60379E-12         0.00000E+00
    0.72798E-08        -0.63121E-12         0.00000E+00
    0.74288E-08        -0.65853E-12         0.00000E+00
    0.75794E-08        -0.68566E-12         0.00000E+00
    0.77314E-08        -0.71247E-12         0.00000E+00
    0.78848E-08        -0.73887E-12         0.00000E+00
    0.80393E-08        -0.76471E-12         0.00000E+00
    0.81949E-08        -0.78986E-12         0.00000E+00
    0.83514E-08        -0.81417E-12         0.00000E+00
    0.85086E-08        -0.83747E-12         0.00000E+00
    0.86664E-08        -0.85959E-12         0.00000E+00
    0.88245E-08        -0.88035E-12         0.00000E+00
    0.89829E-08        -0.89953E-12         0.00000E+00
    0.91412E-08        -0.91694E-12         0.00000E+00
    0.92994E-08        -0.93233E-12         0.00000E+00
    0.94572E-08        -0.94548E-12         0.00000E+00
    0.96143E-08        -0.95611E-12         0.00000E+00
    0.97707E-08        -0.96396E-12         0.00000E+00
    0.99260E-08        -0.96874E-12         0.00000E+00
    0.10080E-07        -0.97014E-12         0.00000E+00
    0.10232E-07        -0.96782E-12         0.00000E+00
    0.10383E-07        -0.96144E-12         0.00000E+00
    0.10532E-07        -0.95061E-12         0.00000E+00
    0.10678E-07        -0.93491E-12         0.00000E+00
    0.10822E-07        -0.91392E-12         0.00000E+00
    0.10963E-07        -0.88715E-12         0.00000E+00
    0.11101E-07        -0.85408E-12         0.00000E+00
    0.11236E-07        -0.81414E-12         0.00000E+00
    0.11367E-07        -0.76670E-12         0.00000E+00
    0.11494E-07        -0.71111E-12         0.00000E+00
    0.11617E-07        -0.64662E-12         0.00000E+00
    0.11735E-07        -0.57247E-12         0.00000E+00
    0.11849E-07        -0.48786E-12         0.00000E+00
    0.11958E-07        -0.39197E-12         0.00000E+00
    0.12061E-07        -0.28405E-12         0.00000E+00
    0.12159E-07        -0.16342E-12         0.00000E+00
    0.12251E-07        -0.29668E-13         0.00000E+00
    0.12338E-07         0.11727E-12         0.00000E+00
    0.12418E-07         0.27681E-12         0.00000E+00
    0.12491E-07         0.44747E-12         0.00000E+00
    0.12558E-07         0.62632E-12         0.00000E+00
    0.12618E-07         0.80849E-12         0.00000E+00
    0.12671E-07         0.98629E-12         0.00000E+00
    0.12717E-07         0.11482E-11         0.00000E+00
    0.12756E-07         0.12774E-11         0.00000E+00
    0.12787E-07         0.13499E-11         0.00000E+00
    0.12812E-07         0.13310E-11         0.00000E+00
    0.12829E-07         0.11670E-11         0.00000E+00
    0.12839E-07         0.76769E-12         0.00000E+00
    0.12842E-07         0.93132E-21         0.00000E+00
    0.32147E-08         0.00000E+00         0.00000E+00
    0.32157E-08         0.43197E-12         0.00000E+00
    0.32194E-08         0.68266E-12         0.00000E+00
    0.32260E-08         0.81264E-12         0.00000E+00
    0.32356E-08         0.86567E-12         0.00000E+00
    0.32483E-08         0.86933E-12         0.00000E+00
    0.32640E-08         0.84168E-12         0.00000E+00
    0.32829E-08         0.79514E-12         0.00000E+00
    0.33049E-08         0.73824E-12         0.00000E+00
    0.33301E-08         0.67677E-12         0.00000E+00
    0.33584E-08         0.61454E-12         0.00000E+00
    0.33898E-08         0.55391E-12         0.00000E+00
    0.34245E-08         0.49626E-12         0.00000E+00
    0.34623E-08         0.44228E-12         0.00000E+00
    0.35032E-08         0.39220E-12         0.00000E+00
    0.35473E-08         0.34596E-12         0.00000E+00
    0.35946E-08         0.30334E-12         0.00000E+00
    0.36450E-08         0.26400E-12         0.00000E+00
    0.36986E-08         0.22758E-12         0.00000E+00
    0.37553E-08         0.19370E-12         0.00000E+00
    0.38151E-08         0.16201E-12         0.00000E+00
    0.38781E-08         0.13216E-12         0.00000E+00
    0.39442E-08         0.10385E-12         0.00000E+00
    0.40134E-08         0.76811E-13         0.00000E+00
    0.40857E-08         0.50789E-13         0.00000E+00
    0.41611E-08         0.25576E-13         0.00000E+00
    0.42396E-08         0.98448E-15         0.00000E+00
    0.43212E-08        -0.23149E-13         0.00000E+00
    0.44059E-08        -0.46966E-13         0.00000E+00
    0.44936E-08        -0.70591E-13         0.00000E+00
    0.45843E-08        -0.94134E-13         0.00000E+00
    0.46781E-08        -0.11769E-12         0.00000E+00
    0.47748E-08        -0.14134E-12         0.00000E+00
    0.48745E-08        -0.16516E-12         0.00000E+00
    0.49772E-08        -0.18921E-12         0.00000E+00
    0.50828E-08        -0.21354E-12         0.00000E+00
    0.51913E-08        -0.23819E-12         0.00000E+00
    0.53026E-08        -0.26322E-12         0.00000E+00
    0.54168E-08        -0.28864E-12         0.00000E+00
    0.55337E-08        -0.31447E-12         0.00000E+00
    0.56533E-08        -0.34074E-12         0.00000E+00
    0.57757E-08        -0.36744E-12         0.00000E+00
    0.59007E-08        -0.39459E-12         0.00000E+00
    0.60282E-08        -0.42217E-12         0.00000E+00
    0.61582E-08        -0.45016E-12         0.00000E+00
    0.62907E-08        -0.47854E-12         0.00000E+00
    0.64256E-08        -0.50729E-12         0.00000E+00
    0.65627E-08        -0.53636E-12         0.00000E+00
    0.67021E-08        -0.56571E-12         0.00000E+00
    0.68436E-08        -0.59527E-12         0.00000E+00
    0.69871E-08        -0.62499E-12         0.00000E+00
    0.71326E-08        -0.65478E-12         0.00000E+00
    0.72798E-08        -0.68457E-12         0.00000E+00
    0.74288E-08        -0.71425E-12         0.00000E+00
    0.75794E-08        -0.74372E-12         0.00000E+00
    0.77314E-08        -0.77287E-12         0.00000E+00
    0.78848E-08        -0.80157E-12         0.00000E+00
    0.80393E-08        -0.82967E-12         0.00000E+00
    0.81949E-08        -0.85703E-12         0.00000E+00
    0.83514E-08        -0.88348E-12         0.00000E+00
    0.85086E-08        -0.90885E-12         0.00000E+00
    0.86664E-08        -0.93295E-12         0.00000E+00
    0.88245E-08        -0.95557E-12         0.00000E+00
    0.89829E-08        -0.97650E-12         0.00000E+00
    0.91412E-08        -0.99550E-12         0.00000E+00
    0.92994E-08        -0.10123E-11         0.00000E+00
    0.94572E-08        -0.10267E-11         0.00000E+00
    0.96143E-08        -0.10384E-11         0.00000E+00
    0.97707E-08        -0.10471E-11         0.00000E+00
    0.99260E-08        -0.10525E-11         0.00000E+00
    0.10080E-07        -0.10542E-11         0.00000E+00
    0.10232E-07        -0.10519E-11         0.00000E+00
    0.10383E-07        -0.10451E-11         0.00000E+00
    0.10532E-07        -0.10336E-11         0.00000E+00
    0.10678E-07        -0.10168E-11         0.00000E+00
    0.10822E-07        -0.99425E-12         0.00000E+00
    0.10963E-07        -0.96543E-12         0.00000E+00
    0.11101E-07        -0.92978E-12         0.00000E+00
    0.11236E-07        -0.88665E-12         0.00000E+00
    0.11367E-07        -0.83539E-12         0.00000E+00
    0.11494E-07        -0.77523E-12         0.00000E+00
    0.11617E-07        -0.70538E-12         0.00000E+00
    0.11735E-07        -0.62498E-12         0.00000E+00
    0.11849E-07        -0.53314E-12         0.00000E+00
    0.11958E-07        -0.42896E-12         0.00000E+00
    0.12061E-07        -0.31157E-12         0.00000E+00
    0.12159E-07        -0.18024E-12         0.00000E+00
    0.12251E-07        -0.34480E-13         0.00000E+00
    0.12338E-07         0.12579E-12         0.00000E+00
    0.12418E-07         0.29994E-12         0.00000E+00
    0.12491E-07         0.48631E-12         0.00000E+00
    0.12558E-07         0.68168E-12         0.00000E+00
    0.12618E-07         0.88058E-12         0.00000E+00
    0.12671E-07         0.10744E-11         0.00000E+00
    0.12717E-07         0.12503E-11         0.00000E+00
    0.12756E-07         0.13894E-11         0.00000E+00
    0.12788E-07         0.14650E-11         0.00000E+00
    0.12812E-07         0.14384E-11         0.00000E+00
    0.12829E-07         0.12515E-11         0.00000E+00
    0.12838E-07         0.81306E-12         0.00000E+00
    0.12841E-07         0.74287E-21         0.00000E+00
    0.32148E-08         0.00000E+00         0.00000E+00
    0.32158E-08         0.45472E-12         0.00000E+00
    0.32194E-08         0.72532E-12         0.00000E+00
    0.32260E-08         0.86848E-12         0.00000E+00
    0.32356E-08         0.92812E-12         0.00000E+00
    0.32483E-08         0.93356E-12         0.00000E+00
    0.32640E-08         0.90450E-12         0.00000E+00
    0.32829E-08         0.85459E-12         0.00000E+00
    0.33049E-08         0.79325E-12         0.00000E+00
    0.33300E-08         0.72687E-12         0.00000E+00
    0.33584E-08         0.65963E-12         0.00000E+00
    0.33898E-08         0.59414E-12         0.00000E+00
    0.34245E-08         0.53191E-12         0.00000E+00
    0.34622E-08         0.47371E-12         0.00000E+00
    0.35032E-08         0.41976E-12         0.00000E+00
    0.35473E-08         0.37002E-12         0.00000E+00
    0.35946E-08         0.32422E-12         0.00000E+00
    0.36450E-08         0.28199E-12         0.00000E+00
    0.36986E-08         0.24294E-12         0.00000E+00
    0.37553E-08         0.20666E-12         0.00000E+00
    0.38151E-08         0.17273E-12         0.00000E+00
    0.38781E-08         0.14080E-12         0.00000E+00
    0.39442E-08         0.11053E-12         0.00000E+00
    0.40134E-08         0.81617E-13         0.00000E+00
    0.40857E-08         0.53803E-13         0.00000E+00
    0.41611E-08         0.26853E-13         0.00000E+00
    0.42396E-08         0.56647E-15         0.00000E+00
    0.43212E-08        -0.25234E-13         0.00000E+00
    0.44059E-08        -0.50703E-13         0.00000E+00
    0.44936E-08        -0.75972E-13         0.00000E+00
    0.45843E-08        -0.10116E-12         0.00000E+00
    0.46781E-08        -0.12637E-12         0.00000E+00
    0.47748E-08        -0.15168E-12         0.00000E+00
    0.48745E-08        -0.17719E-12         0.00000E+00
    0.49772E-08        -0.20294E-12         0.00000E+00
    0.50828E-08        -0.22901E-12         0.00000E+00
    0.51913E-08        -0.25543E-12         0.00000E+00
    0.53026E-08        -0.28225E-12         0.00000E+00
    0.54168E-08        -0.30950E-12         0.00000E+00
    0.55337E-08        -0.33720E-12         0.00000E+00
    0.56533E-08        -0.36537E-12         0.00000E+00
    0.57757E-08        -0.39402E-12         0.00000E+00
    0.59007E-08        -0.42314E-12         0.00000E+00
    0.60282E-08        -0.45273E-12         0.00000E+00
    0.61582E-08        -0.48277E-12         0.00000E+00
    0.62907E-08        -0.51324E-12         0.00000E+00
    0.64256E-08        -0.54411E-12         0.00000E+00
    0.65627E-08        -0.57532E-12         0.00000E+00
    0.67021E-08        -0.60684E-12         0.00000E+00
    0.68436E-08        -0.63859E-12         0.00000E+00
    0.69871E-08        -0.67051E-12         0.00000E+00
    0.71326E-08        -0.70253E-12         0.00000E+00
    0.72798E-08        -0.73454E-12         0.00000E+00
    0.74288E-08        -0.76644E-12         0.00000E+00
    0.75794E-08        -0.79813E-12         0.00000E+00
    0.77314E-08        -0.82948E-12         0.00000E+00
    0.78847E-08        -0.86034E-12         0.00000E+00
    0.80393E-08        -0.89058E-12         0.00000E+00
    0.81949E-08        -0.92003E-12         0.00000E+00
    0.83514E-08        -0.94851E-12         0.00000E+00
    0.85086E-08        -0.97584E-12         0.00000E+00
    0.86664E-08        -0.10018E-11         0.00000E+00
    0.88245E-08        -0.10262E-11         0.00000E+00
    0.89829E-08        -0.10488E-11         0.00000E+00
    0.91412E-08        -0.10693E-11         0.00000E+00
    0.92994E-08        -0.10875E-11         0.00000E+00
    0.94572E-08        -0.11032E-11         0.00000E+00
    0.96143E-08        -0.11159E-11         0.00000E+00
    0.97707E-08        -0.11254E-11         0.00000E+00
    0.99260E-08        -0.11313E-11         0.00000E+00
    0.10080E-07        -0.11333E-11         0.00000E+00
    0.10232E-07        -0.11311E-11         0.00000E+00
    0.10383E-07        -0.11241E-11         0.00000E+00
    0.10532E-07        -0.11119E-11         0.00000E+00
    0.10678E-07        -0.10941E-11         0.00000E+00
    0.10822E-07        -0.10702E-11         0.00000E+00
    0.10963E-07        -0.10395E-11         0.00000E+00
    0.11101E-07        -0.10015E-11         0.00000E+00
    0.11236E-07        -0.95543E-12         0.00000E+00
    0.11367E-07        -0.90061E-12         0.00000E+00
    0.11494E-07        -0.83622E-12         0.00000E+00
    0.11617E-07        -0.76137E-12         0.00000E+00
    0.11735E-07        -0.67514E-12         0.00000E+00
    0.11849E-07        -0.57652E-12         0.00000E+00
    0.11958E-07        -0.46455E-12         0.00000E+00
    0.12061E-07        -0.33825E-12         0.00000E+00
    0.12159E-07        -0.19680E-12         0.00000E+00
    0.12251E-07        -0.39663E-13         0.00000E+00
    0.12338E-07         0.13327E-12         0.00000E+00
    0.12418E-07         0.32132E-12         0.00000E+00
    0.12491E-07         0.52268E-12         0.00000E+00
    0.12558E-07         0.73380E-12         0.00000E+00
    0.12618E-07         0.94867E-12         0.00000E+00
    0.12671E-07         0.11578E-11         0.00000E+00
    0.12717E-07         0.13469E-11         0.00000E+00
    0.12756E-07         0.14953E-11         0.00000E+00
    0.12788E-07         0.15732E-11         0.00000E+00
    0.12812E-07         0.15387E-11         0.00000E+00
    0.12829E-07         0.13297E-11         0.00000E+00
    0.12838E-07         0.85480E-12         0.00000E+00
    0.12841E-07        -0.74287E-21         0.00000E+00
    0.32149E-08         0.00000E+00         0.00000E+00
    0.32159E-08         0.47565E-12         0.00000E+00
    0.32195E-08         0.76469E-12         0.00000E+00
    0.32260E-08         0.92036E-12         0.00000E+00
    0.32356E-08         0.98641E-12         0.00000E+00
    0.32483E-08         0.99366E-12         0.00000E+00
    0.32640E-08         0.96333E-12         0.00000E+00
    0.32829E-08         0.91025E-12         0.00000E+00
    0.33049E-08         0.84468E-12         0.00000E+00
    0.33300E-08         0.77361E-12         0.00000E+00
    0.33583E-08         0.70161E-12         0.00000E+00
    0.33898E-08         0.63151E-12         0.00000E+00
    0.34244E-08         0.56496E-12         0.00000E+00
    0.34622E-08         0.50276E-12         0.00000E+00
    0.35032E-08         0.44518E-12         0.00000E+00
    0.35473E-08         0.39216E-12         0.00000E+00
    0.35946E-08         0.34338E-12         0.00000E+00
    0.36450E-08         0.29848E-12         0.00000E+00
    0.36986E-08         0.25699E-12         0.00000E+00
    0.37553E-08         0.21846E-12         0.00000E+00
    0.38151E-08         0.18248E-12         0.00000E+00
    0.38781E-08         0.14863E-12         0.00000E+00
    0.39442E-08         0.11655E-12         0.00000E+00
    0.40134E-08         0.85923E-13         0.00000E+00
    0.40857E-08         0.56461E-13         0.00000E+00
    0.41611E-08         0.27915E-13         0.00000E+00
    0.42396E-08         0.68897E-16         0.00000E+00
    0.43212E-08        -0.27266E-13         0.00000E+00
    0.44059E-08        -0.54255E-13         0.00000E+00
    0.44936E-08        -0.81040E-13         0.00000E+00
    0.45843E-08        -0.10775E-12         0.00000E+00
    0.46781E-08        -0.13448E-12         0.00000E+00
    0.47748E-08        -0.16134E-12         0.00000E+00
    0.48745E-08        -0.18840E-12         0.00000E+00
    0.49772E-08        -0.21574E-12         0.00000E+00
    0.50828E-08        -0.24341E-12         0.00000E+00
    0.51913E-08        -0.27147E-12         0.00000E+00
    0.53026E-08        -0.29996E-12         0.00000E+00
    0.54168E-08        -0.32891E-12         0.00000E+00
    0.55337E-08        -0.35835E-12         0.00000E+00
    0.56533E-08        -0.38829E-12         0.00000E+00
    0.57757E-08        -0.41874E-12         0.00000E+00
    0.59006E-08        -0.44971E-12         0.00000E+00
    0.60282E-08        -0.48118E-12         0.00000E+00
    0.61582E-08        -0.51313E-12         0.00000E+00
    0.62907E-08        -0.54554E-12         0.00000E+00
    0.64256E-08        -0.57838E-12         0.00000E+00
    0.65627E-08        -0.61160E-12         0.00000E+00
    0.67021E-08        -0.64514E-12         0.00000E+00
    0.68436E-08        -0.67894E-12         0.00000E+00
    0.69871E-08        -0.71293E-12         0.00000E+00
    0.71325E-08        -0.74703E-12         0.00000E+00
    0.72798E-08        -0.78112E-12         0.00000E+00
    0.74288E-08        -0.81511E-12         0.00000E+00
    0.75794E-08        -0.84888E-12         0.00000E+00
    0.77314E-08        -0.88228E-12         0.00000E+00
    0.78847E-08        -0.91519E-12         0.00000E+00
    0.80393E-08        -0.94744E-12         0.00000E+00
    0.81949E-08        -0.97885E-12         0.00000E+00
    0.83514E-08        -0.10092E-11         0.00000E+00
    0.85086E-08        -0.10384E-11         0.00000E+00
    0.86664E-08        -0.10662E-11         0.00000E+00
    0.88245E-08        -0.10922E-11         0.00000E+00
    0.89829E-08        -0.11164E-11         0.00000E+00
    0.91412E-08        -0.11384E-11         0.00000E+00
    0.92994E-08        -0.11579E-11         0.00000E+00
    0.94572E-08        -0.11747E-11         0.00000E+00
    0.96143E-08        -0.11884E-11         0.00000E+00
    0.97707E-08        -0.11987E-11         0.00000E+00
    0.99260E-08        -0.12052E-11         0.00000E+00
    0.10080E-07        -0.12076E-11         0.00000E+00
    0.10232E-07        -0.12054E-11         0.00000E+00
    0.10383E-07        -0.11982E-11         0.00000E+00
    0.10532E-07        -0.11856E-11         0.00000E+00
    0.10678E-07        -0.11669E-11         0.00000E+00
    0.10822E-07        -0.11417E-11         0.00000E+00
    0.10963E-07        -0.11093E-11         0.00000E+00
    0.11101E-07        -0.10691E-11         0.00000E+00
    0.11236E-07        -0.10204E-11         0.00000E+00
    0.11367E-07        -0.96234E-12         0.00000E+00
    0.11494E-07        -0.89404E-12         0.00000E+00
    0.11617E-07        -0.81457E-12         0.00000E+00
    0.11735E-07        -0.72291E-12         0.00000E+00
    0.11849E-07        -0.61798E-12         0.00000E+00
    0.11958E-07        -0.49872E-12         0.00000E+00
    0.12061E-07        -0.36405E-12         0.00000E+00
    0.12159E-07        -0.21310E-12         0.00000E+00
    0.12251E-07        -0.45228E-13         0.00000E+00
    0.12338E-07         0.13967E-12         0.00000E+00
    0.12418E-07         0.34090E-12         0.00000E+00
    0.12491E-07         0.55649E-12         0.00000E+00
    0.12558E-07         0.78259E-12         0.00000E+00
    0.12618E-07         0.10127E-11         0.00000E+00
    0.12671E-07         0.12363E-11         0.00000E+00
    0.12717E-07         0.14380E-11         0.00000E+00
    0.12756E-07         0.15949E-11         0.00000E+00
    0.12788E-07         0.16748E-11         0.00000E+00
    0.12812E-07         0.16323E-11         0.00000E+00
    0.12829E-07         0.14021E-11         0.00000E+00
    0.12838E-07         0.89340E-12         0.00000E+00
    0.12841E-07         0.00000E+00         0.00000E+00
    0.32149E-08         0.93132E-21         0.00000E+00
    0.32160E-08         0.49495E-12         0.00000E+00
    0.32195E-08         0.80102E-12         0.00000E+00
    0.32260E-08         0.96843E-12         0.00000E+00
    0.32356E-08         0.10406E-11         0.00000E+00
    0.32483E-08         0.10497E-11         0.00000E+00
    0.32640E-08         0.10182E-11         0.00000E+00
    0.32829E-08         0.96206E-12         0.00000E+00
    0.33049E-08         0.89249E-12         0.00000E+00
    0.33300E-08         0.81698E-12         0.00000E+00
    0.33583E-08         0.74046E-12         0.00000E+00
    0.33898E-08         0.66601E-12         0.00000E+00
    0.34244E-08         0.59537E-12         0.00000E+00
    0.34622E-08         0.52943E-12         0.00000E+00
    0.35032E-08         0.46846E-12         0.00000E+00
    0.35473E-08         0.41237E-12         0.00000E+00
    0.35946E-08         0.36085E-12         0.00000E+00
    0.36450E-08         0.31345E-12         0.00000E+00
    0.36985E-08         0.26971E-12         0.00000E+00
    0.37552E-08         0.22914E-12         0.00000E+00
    0.38151E-08         0.19126E-12         0.00000E+00
    0.38781E-08         0.15566E-12         0.00000E+00
    0.39442E-08         0.12193E-12         0.00000E+00
    0.40134E-08         0.89734E-13         0.00000E+00
    0.40857E-08         0.58768E-13         0.00000E+00
    0.41611E-08         0.28766E-13         0.00000E+00
    0.42396E-08        -0.50330E-15         0.00000E+00
    0.43212E-08        -0.29241E-13         0.00000E+00
    0.44058E-08        -0.57620E-13         0.00000E+00
    0.44936E-08        -0.85793E-13         0.00000E+00
    0.45843E-08        -0.11389E-12         0.00000E+00
    0.46780E-08        -0.14202E-12         0.00000E+00
    0.47748E-08        -0.17030E-12         0.00000E+00
    0.48745E-08        -0.19879E-12         0.00000E+00
    0.49772E-08        -0.22759E-12         0.00000E+00
    0.50828E-08        -0.25674E-12         0.00000E+00
    0.51913E-08        -0.28631E-12         0.00000E+00
    0.53026E-08        -0.31634E-12         0.00000E+00
    0.54167E-08        -0.34687E-12         0.00000E+00
    0.55337E-08        -0.37791E-12         0.00000E+00
    0.56533E-08        -0.40949E-12         0.00000E+00
    0.57757E-08        -0.44162E-12         0.00000E+00
    0.59006E-08        -0.47429E-12         0.00000E+00
    0.60282E-08        -0.50750E-12         0.00000E+00
    0.61582E-08        -0.54122E-12         0.00000E+00
    0.62907E-08        -0.57544E-12         0.00000E+00
    0.64256E-08        -0.61012E-12         0.00000E+00
    0.65627E-08        -0.64519E-12         0.00000E+00
    0.67021E-08        -0.68062E-12         0.00000E+00
    0.68436E-08        -0.71633E-12         0.00000E+00
    0.69871E-08        -0.75225E-12         0.00000E+00
    0.71325E-08        -0.78827E-12         0.00000E+00
    0.72798E-08        -0.82431E-12         0.00000E+00
    0.74288E-08        -0.86025E-12         0.00000E+00
    0.75793E-08        -0.89595E-12         0.00000E+00
    0.77314E-08        -0.93129E-12         0.00000E+00
    0.78847E-08        -0.96610E-12         0.00000E+00
    0.80393E-08        -0.10002E-11         0.00000E+00
    0.81949E-08        -0.10335E-11         0.00000E+00
    0.83514E-08        -0.10657E-11         0.00000E+00
    0.85086E-08        -0.10966E-11         0.00000E+00
    0.86663E-08        -0.11260E-11         0.00000E+00
    0.88245E-08        -0.11537E-11         0.00000E+00
    0.89829E-08        -0.11793E-11         0.00000E+00
    0.91412E-08        -0.12027E-11         0.00000E+00
    0.92994E-08        -0.12235E-11         0.00000E+00
    0.94572E-08        -0.12414E-11         0.00000E+00
    0.96143E-08        -0.12560E-11         0.00000E+00
    0.97707E-08        -0.12671E-11         0.00000E+00
    0.99260E-08        -0.12742E-11         0.00000E+00
    0.10080E-07        -0.12770E-11         0.00000E+00
    0.10232E-07        -0.12749E-11         0.00000E+00
    0.10383E-07        -0.12676E-11         0.00000E+00
    0.10532E-07        -0.12545E-11         0.00000E+00
    0.10678E-07        -0.12350E-11         0.00000E+00
    0.10822E-07        -0.12087E-11         0.00000E+00
    0.10963E-07        -0.11749E-11         0.00000E+00
    0.11101E-07        -0.11327E-11         0.00000E+00
    0.11236E-07        -0.10816E-11         0.00000E+00
    0.11367E-07        -0.10205E-11         0.00000E+00
    0.11494E-07        -0.94864E-12         0.00000E+00
    0.11617E-07        -0.86492E-12         0.00000E+00
    0.11735E-07        -0.76825E-12         0.00000E+00
    0.11849E-07        -0.65748E-12         0.00000E+00
    0.11958E-07        -0.53143E-12         0.00000E+00
    0.12061E-07        -0.38898E-12         0.00000E+00
    0.12159E-07        -0.22912E-12         0.00000E+00
    0.12252E-07        -0.51179E-13         0.00000E+00
    0.12338E-07         0.14499E-12         0.00000E+00
    0.12418E-07         0.35865E-12         0.00000E+00
    0.12491E-07         0.58769E-12         0.00000E+00
    0.12558E-07         0.82798E-12         0.00000E+00
    0.12618E-07         0.10724E-11         0.00000E+00
    0.12671E-07         0.13099E-11         0.00000E+00
    0.12717E-07         0.15234E-11         0.00000E+00
    0.12756E-07         0.16883E-11         0.00000E+00
    0.12788E-07         0.17699E-11         0.00000E+00
    0.12812E-07         0.17195E-11         0.00000E+00
    0.12828E-07         0.14693E-11         0.00000E+00
    0.12838E-07         0.92925E-12         0.00000E+00
    0.12841E-07         0.00000E+00         0.00000E+00
    0.32151E-08         0.00000E+00         0.00000E+00
    0.32161E-08         0.51277E-12         0.00000E+00
    0.32196E-08         0.83451E-12         0.00000E+00
    0.32261E-08         0.10129E-11         0.00000E+00
    0.32356E-08         0.10909E-11         0.00000E+00
    0.32483E-08         0.11016E-11         0.00000E+00
    0.32640E-08         0.10690E-11         0.00000E+00
    0.32828E-08         0.10100E-11         0.00000E+00
    0.33048E-08         0.93666E-12         0.00000E+00
    0.33300E-08         0.85694E-12         0.00000E+00
    0.33583E-08         0.77617E-12         0.00000E+00
    0.33898E-08         0.69762E-12         0.00000E+00
    0.34244E-08         0.62316E-12         0.00000E+00
    0.34622E-08         0.55373E-12         0.00000E+00
    0.35032E-08         0.48960E-12         0.00000E+00
    0.35473E-08         0.43067E-12         0.00000E+00
    0.35946E-08         0.37661E-12         0.00000E+00
    0.36450E-08         0.32693E-12         0.00000E+00
    0.36985E-08         0.28113E-12         0.00000E+00
    0.37552E-08         0.23869E-12         0.00000E+00
    0.38151E-08         0.19909E-12         0.00000E+00
    0.38781E-08         0.16189E-12         0.00000E+00
    0.39441E-08         0.12667E-12         0.00000E+00
    0.40134E-08         0.93060E-13         0.00000E+00
    0.40857E-08         0.60734E-13         0.00000E+00
    0.41611E-08         0.29414E-13         0.00000E+00
    0.42396E-08        -0.11448E-14         0.00000E+00
    0.43212E-08        -0.31153E-13         0.00000E+00
    0.44058E-08        -0.60794E-13         0.00000E+00
    0.44935E-08        -0.90227E-13         0.00000E+00
    0.45843E-08        -0.11959E-12         0.00000E+00
    0.46780E-08        -0.14900E-12         0.00000E+00
    0.47748E-08        -0.17856E-12         0.00000E+00
    0.48745E-08        -0.20837E-12         0.00000E+00
    0.49772E-08        -0.23849E-12         0.00000E+00
    0.50828E-08        -0.26901E-12         0.00000E+00
    0.51913E-08        -0.29996E-12         0.00000E+00
    0.53026E-08        -0.33140E-12         0.00000E+00
    0.54167E-08        -0.36337E-12         0.00000E+00
    0.55337E-08        -0.39589E-12         0.00000E+00
    0.56533E-08        -0.42897E-12         0.00000E+00
    0.57757E-08        -0.46264E-12         0.00000E+00
    0.59006E-08        -0.49688E-12         0.00000E+00
    0.60282E-08        -0.53170E-12         0.00000E+00
    0.61582E-08        -0.56706E-12         0.00000E+00
    0.62907E-08        -0.60294E-12         0.00000E+00
    0.64256E-08        -0.63931E-12         0.00000E+00
    0.65627E-08        -0.67611E-12         0.00000E+00
    0.67021E-08        -0.71328E-12         0.00000E+00
    0.68436E-08        -0.75076E-12         0.00000E+00
    0.69871E-08        -0.78845E-12         0.00000E+00
    0.71325E-08        -0.82627E-12         0.00000E+00
    0.72798E-08        -0.86411E-12         0.00000E+00
    0.74288E-08        -0.90185E-12         0.00000E+00
    0.75793E-08        -0.93936E-12         0.00000E+00
    0.77314E-08        -0.97648E-12         0.00000E+00
    0.78847E-08        -0.10131E-11         0.00000E+00
    0.80393E-08        -0.10489E-11         0.00000E+00
    0.81949E-08        -0.10839E-11         0.00000E+00
    0.83514E-08        -0.11178E-11         0.00000E+00
    0.85086E-08        -0.11503E-11         0.00000E+00
    0.86663E-08        -0.11813E-11         0.00000E+00
    0.88245E-08        -0.12104E-11         0.00000E+00
    0.89829E-08        -0.12375E-11         0.00000E+00
    0.91412E-08        -0.12622E-11         0.00000E+00
    0.92994E-08        -0.12841E-11         0.00000E+00
    0.94572E-08        -0.13031E-11         0.00000E+00
    0.96143E-08        -0.13187E-11         0.00000E+00
    0.97707E-08        -0.13305E-11         0.00000E+00
    0.99260E-08        -0.13382E-11         0.00000E+00
    0.10080E-07        -0.13413E-11         0.00000E+00
    0.10232E-07        -0.13394E-11         0.00000E+00
    0.10383E-07        -0.13320E-11         0.00000E+00
    0.10532E-07        -0.13186E-11         0.00000E+00
    0.10678E-07        -0.12985E-11         0.00000E+00
    0.10822E-07        -0.12712E-11         0.00000E+00
    0.10963E-07        -0.12360E-11         0.00000E+00
    0.11101E-07        -0.11922E-11         0.00000E+00
    0.11236E-07        -0.11388E-11         0.00000E+00
    0.11367E-07        -0.10751E-11         0.00000E+00
    0.11494E-07        -0.99998E-12         0.00000E+00
    0.11617E-07        -0.91238E-12         0.00000E+00
    0.11735E-07        -0.81112E-12         0.00000E+00
    0.11849E-07        -0.69497E-12         0.00000E+00
    0.11958E-07        -0.56267E-12         0.00000E+00
    0.12061E-07        -0.41299E-12         0.00000E+00
    0.12159E-07        -0.24485E-12         0.00000E+00
    0.12252E-07        -0.57518E-13         0.00000E+00
    0.12338E-07         0.14919E-12         0.00000E+00
    0.12418E-07         0.37452E-12         0.00000E+00
    0.12491E-07         0.61622E-12         0.00000E+00
    0.12558E-07         0.86989E-12         0.00000E+00
    0.12618E-07         0.11280E-11         0.00000E+00
    0.12671E-07         0.13784E-11         0.00000E+00
    0.12717E-07         0.16031E-11         0.00000E+00
    0.12756E-07         0.17756E-11         0.00000E+00
    0.12788E-07         0.18586E-11         0.00000E+00
    0.12812E-07         0.18007E-11         0.00000E+00
    0.12828E-07         0.15317E-11         0.00000E+00
    0.12838E-07         0.96266E-12         0.00000E+00
    0.12841E-07         0.00000E+00         0.00000E+00
    0.32152E-08        -0.93132E-21         0.00000E+00
    0.32161E-08         0.52923E-12         0.00000E+00
    0.32196E-08         0.86533E-12         0.00000E+00
    0.32261E-08         0.10538E-11         0.00000E+00
    0.32356E-08         0.11372E-11         0.00000E+00
    0.32483E-08         0.11494E-11         0.00000E+00
    0.32640E-08         0.11158E-11         0.00000E+00
    0.32828E-08         0.10541E-11         0.00000E+00
    0.33048E-08         0.97714E-12         0.00000E+00
    0.33300E-08         0.89348E-12         0.00000E+00
    0.33583E-08         0.80871E-12         0.00000E+00
    0.33898E-08         0.72633E-12         0.00000E+00
    0.34244E-08         0.64832E-12         0.00000E+00
    0.34622E-08         0.57564E-12         0.00000E+00
    0.35032E-08         0.50859E-12         0.00000E+00
    0.35473E-08         0.44706E-12         0.00000E+00
    0.35945E-08         0.39067E-12         0.00000E+00
    0.36450E-08         0.33892E-12         0.00000E+00
    0.36985E-08         0.29126E-12         0.00000E+00
    0.37552E-08         0.24712E-12         0.00000E+00
    0.38151E-08         0.20598E-12         0.00000E+00
    0.38780E-08         0.16735E-12         0.00000E+00
    0.39441E-08         0.13079E-12         0.00000E+00
    0.40133E-08         0.95908E-13         0.00000E+00
    0.40857E-08         0.62365E-13         0.00000E+00
    0.41611E-08         0.29864E-13         0.00000E+00
    0.42396E-08        -0.18499E-14         0.00000E+00
    0.43212E-08        -0.32998E-13         0.00000E+00
    0.44058E-08        -0.63773E-13         0.00000E+00
    0.44935E-08        -0.94340E-13         0.00000E+00
    0.45843E-08        -0.12484E-12         0.00000E+00
    0.46780E-08        -0.15540E-12         0.00000E+00
    0.47748E-08        -0.18613E-12         0.00000E+00
    0.48745E-08        -0.21713E-12         0.00000E+00
    0.49772E-08        -0.24846E-12         0.00000E+00
    0.50828E-08        -0.28020E-12         0.00000E+00
    0.51913E-08        -0.31241E-12         0.00000E+00
    0.53026E-08        -0.34514E-12         0.00000E+00
    0.54167E-08        -0.37842E-12         0.00000E+00
    0.55337E-08        -0.41228E-12         0.00000E+00
    0.56533E-08        -0.44674E-12         0.00000E+00
    0.57757E-08        -0.48181E-12         0.00000E+00
    0.59006E-08        -0.51750E-12         0.00000E+00
    0.60282E-08        -0.55378E-12         0.00000E+00
    0.61582E-08        -0.59064E-12         0.00000E+00
    0.62907E-08        -0.62805E-12         0.00000E+00
    0.64256E-08        -0.66597E-12         0.00000E+00
    0.65627E-08        -0.70434E-12         0.00000E+00
    0.67021E-08        -0.74312E-12         0.00000E+00
    0.68436E-08        -0.78221E-12         0.00000E+00
    0.69871E-08        -0.82154E-12         0.00000E+00
    0.71325E-08        -0.86101E-12         0.00000E+00
    0.72798E-08        -0.90051E-12         0.00000E+00
    0.74288E-08        -0.93991E-12         0.00000E+00
    0.75793E-08        -0.97908E-12         0.00000E+00
    0.77314E-08        -0.10179E-11         0.00000E+00
    0.78847E-08        -0.10561E-11         0.00000E+00
    0.80393E-08        -0.10936E-11         0.00000E+00
    0.81949E-08        -0.11302E-11         0.00000E+00
    0.83513E-08        -0.11656E-11         0.00000E+00
    0.85086E-08        -0.11996E-11         0.00000E+00
    0.86663E-08        -0.12320E-11         0.00000E+00
    0.88245E-08        -0.12626E-11         0.00000E+00
    0.89828E-08        -0.12909E-11         0.00000E+00
    0.91412E-08        -0.13168E-11         0.00000E+00
    0.92994E-08        -0.13399E-11         0.00000E+00
    0.94572E-08        -0.13599E-11         0.00000E+00
    0.96143E-08        -0.13764E-11         0.00000E+00
    0.97707E-08        -0.13889E-11         0.00000E+00
    0.99260E-08        -0.13972E-11         0.00000E+00
    0.10080E-07        -0.14007E-11         0.00000E+00
    0.10232E-07        -0.13990E-11         0.00000E+00
    0.10383E-07        -0.13916E-11         0.00000E+00
    0.10532E-07        -0.13779E-11         0.00000E+00
    0.10678E-07        -0.13573E-11         0.00000E+00
    0.10822E-07        -0.13292E-11         0.00000E+00
    0.10963E-07        -0.12929E-11         0.00000E+00
    0.11101E-07        -0.12475E-11         0.00000E+00
    0.11236E-07        -0.11922E-11         0.00000E+00
    0.11367E-07        -0.11260E-11         0.00000E+00
    0.11494E-07        -0.10480E-11         0.00000E+00
    0.11617E-07        -0.95689E-12         0.00000E+00
    0.11735E-07        -0.85146E-12         0.00000E+00
    0.11849E-07        -0.73041E-12         0.00000E+00
    0.11958E-07        -0.59238E-12         0.00000E+00
    0.12061E-07        -0.43605E-12         0.00000E+00
    0.12159E-07        -0.26028E-12         0.00000E+00
    0.12252E-07        -0.64239E-13         0.00000E+00
    0.12338E-07         0.15227E-12         0.00000E+00
    0.12418E-07         0.38848E-12         0.00000E+00
    0.12491E-07         0.64202E-12         0.00000E+00
    0.12558E-07         0.90824E-12         0.00000E+00
    0.12618E-07         0.11791E-11         0.00000E+00
    0.12671E-07         0.14418E-11         0.00000E+00
    0.12717E-07         0.16770E-11         0.00000E+00
    0.12756E-07         0.18566E-11         0.00000E+00
    0.12788E-07         0.19410E-11         0.00000E+00
    0.12812E-07         0.18760E-11         0.00000E+00
    0.12828E-07         0.15897E-11         0.00000E+00
    0.12838E-07         0.99388E-12         0.00000E+00
    0.12841E-07         0.00000E+00         0.00000E+00
    0.32153E-08         0.00000E+00         0.00000E+00
    0.32162E-08         0.54443E-12         0.00000E+00
    0.32197E-08         0.89364E-12         0.00000E+00
    0.32261E-08         0.10913E-11         0.00000E+00
    0.32356E-08         0.11796E-11         0.00000E+00
    0.32483E-08         0.11933E-11         0.00000E+00
    0.32640E-08         0.11585E-11         0.00000E+00
    0.32828E-08         0.10943E-11         0.00000E+00
    0.33048E-08         0.10139E-11         0.00000E+00
    0.33300E-08         0.92656E-12         0.00000E+00
    0.33583E-08         0.83807E-12         0.00000E+00
    0.33897E-08         0.75213E-12         0.00000E+00
    0.34244E-08         0.67082E-12         0.00000E+00
    0.34622E-08         0.59517E-12         0.00000E+00
    0.35031E-08         0.52545E-12         0.00000E+00
    0.35473E-08         0.46155E-12         0.00000E+00
    0.35945E-08         0.40306E-12         0.00000E+00
    0.36450E-08         0.34944E-12         0.00000E+00
    0.36985E-08         0.30010E-12         0.00000E+00
    0.37552E-08         0.25446E-12         0.00000E+00
    0.38151E-08         0.21194E-12         0.00000E+00
    0.38780E-08         0.17204E-12         0.00000E+00
    0.39441E-08         0.13429E-12         0.00000E+00
    0.40133E-08         0.98289E-13         0.00000E+00
    0.40857E-08         0.63669E-13         0.00000E+00
    0.41611E-08         0.30124E-13         0.00000E+00
    0.42396E-08        -0.26125E-14         0.00000E+00
    0.43212E-08        -0.34772E-13         0.00000E+00
    0.44058E-08        -0.66553E-13         0.00000E+00
    0.44935E-08        -0.98129E-13         0.00000E+00
    0.45843E-08        -0.12965E-12         0.00000E+00
    0.46780E-08        -0.16124E-12         0.00000E+00
    0.47748E-08        -0.19301E-12         0.00000E+00
    0.48745E-08        -0.22506E-12         0.00000E+00
    0.49772E-08        -0.25748E-12         0.00000E+00
    0.50828E-08        -0.29033E-12         0.00000E+00
    0.51912E-08        -0.32367E-12         0.00000E+00
    0.53026E-08        -0.35755E-12         0.00000E+00
    0.54167E-08        -0.39202E-12         0.00000E+00
    0.55337E-08        -0.42710E-12         0.00000E+00
    0.56533E-08        -0.46280E-12         0.00000E+00
    0.57756E-08        -0.49914E-12         0.00000E+00
    0.59006E-08        -0.53613E-12         0.00000E+00
    0.60282E-08        -0.57374E-12         0.00000E+00
    0.61582E-08        -0.61196E-12         0.00000E+00
    0.62907E-08        -0.65075E-12         0.00000E+00
    0.64256E-08        -0.69008E-12         0.00000E+00
    0.65627E-08        -0.72989E-12         0.00000E+00
    0.67021E-08        -0.77013E-12         0.00000E+00
    0.68436E-08        -0.81070E-12         0.00000E+00
    0.69871E-08        -0.85152E-12         0.00000E+00
    0.71325E-08        -0.89250E-12         0.00000E+00
    0.72798E-08        -0.93351E-12         0.00000E+00
    0.74288E-08        -0.97444E-12         0.00000E+00
    0.75793E-08        -0.10151E-11         0.00000E+00
    0.77313E-08        -0.10554E-11         0.00000E+00
    0.78847E-08        -0.10952E-11         0.00000E+00
    0.80393E-08        -0.11341E-11         0.00000E+00
    0.81949E-08        -0.11722E-11         0.00000E+00
    0.83513E-08        -0.12090E-11         0.00000E+00
    0.85086E-08        -0.12445E-11         0.00000E+00
    0.86663E-08        -0.12782E-11         0.00000E+00
    0.88245E-08        -0.13101E-11         0.00000E+00
    0.89828E-08        -0.13396E-11         0.00000E+00
    0.91412E-08        -0.13667E-11         0.00000E+00
    0.92994E-08        -0.13908E-11         0.00000E+00
    0.94572E-08        -0.14118E-11         0.00000E+00
    0.96143E-08        -0.14291E-11         0.00000E+00
    0.97707E-08        -0.14423E-11         0.00000E+00
    0.99260E-08        -0.14512E-11         0.00000E+00
    0.10080E-07        -0.14551E-11         0.00000E+00
    0.10232E-07        -0.14536E-11         0.00000E+00
    0.10383E-07        -0.14463E-11         0.00000E+00
    0.10532E-07        -0.14324E-11         0.00000E+00
    0.10678E-07        -0.14114E-11         0.00000E+00
    0.10822E-07        -0.13826E-11         0.00000E+00
    0.10963E-07        -0.13452E-11         0.00000E+00
    0.11101E-07        -0.12985E-11         0.00000E+00
    0.11236E-07        -0.12415E-11         0.00000E+00
    0.11367E-07        -0.11733E-11         0.00000E+00
    0.11494E-07        -0.10926E-11         0.00000E+00
    0.11617E-07        -0.99840E-12         0.00000E+00
    0.11735E-07        -0.88923E-12         0.00000E+00
    0.11849E-07        -0.76375E-12         0.00000E+00
    0.11958E-07        -0.62052E-12         0.00000E+00
    0.12061E-07        -0.45814E-12         0.00000E+00
    0.12159E-07        -0.27537E-12         0.00000E+00
    0.12252E-07        -0.71336E-13         0.00000E+00
    0.12338E-07         0.15422E-12         0.00000E+00
    0.12418E-07         0.40050E-12         0.00000E+00
    0.12491E-07         0.66505E-12         0.00000E+00
    0.12558E-07         0.94298E-12         0.00000E+00
    0.12618E-07         0.12258E-11         0.00000E+00
    0.12672E-07         0.15000E-11         0.00000E+00
    0.12717E-07         0.17451E-11         0.00000E+00
    0.12756E-07         0.19315E-11         0.00000E+00
    0.12788E-07         0.20173E-11         0.00000E+00
    0.12812E-07         0.19458E-11         0.00000E+00
    0.12828E-07         0.16435E-11         0.00000E+00
    0.12838E-07         0.10231E-11         0.00000E+00
    0.12840E-07         0.00000E+00         0.00000E+00
    0.32154E-08         0.00000E+00         0.00000E+00
    0.32163E-08         0.55846E-12         0.00000E+00
    0.32197E-08         0.91955E-12         0.00000E+00
    0.32262E-08         0.11255E-11         0.00000E+00
    0.32357E-08         0.12182E-11         0.00000E+00
    0.32482E-08         0.12331E-11         0.00000E+00
    0.32640E-08         0.11972E-11         0.00000E+00
    0.32828E-08         0.11305E-11         0.00000E+00
    0.33048E-08         0.10470E-11         0.00000E+00
    0.33299E-08         0.95616E-12         0.00000E+00
    0.33583E-08         0.86422E-12         0.00000E+00
    0.33897E-08         0.77500E-12         0.00000E+00
    0.34244E-08         0.69068E-12         0.00000E+00
    0.34622E-08         0.61231E-12         0.00000E+00
    0.35031E-08         0.54018E-12         0.00000E+00
    0.35472E-08         0.47415E-12         0.00000E+00
    0.35945E-08         0.41377E-12         0.00000E+00
    0.36449E-08         0.35849E-12         0.00000E+00
    0.36985E-08         0.30767E-12         0.00000E+00
    0.37552E-08         0.26070E-12         0.00000E+00
    0.38151E-08         0.21698E-12         0.00000E+00
    0.38780E-08         0.17598E-12         0.00000E+00
    0.39441E-08         0.13719E-12         0.00000E+00
    0.40133E-08         0.10021E-12         0.00000E+00
    0.40857E-08         0.64655E-13         0.00000E+00
    0.41611E-08         0.30202E-13         0.00000E+00
    0.42396E-08        -0.34264E-14         0.00000E+00
    0.43212E-08        -0.36468E-13         0.00000E+00
    0.44058E-08        -0.69130E-13         0.00000E+00
    0.44935E-08        -0.10159E-12         0.00000E+00
    0.45843E-08        -0.13400E-12         0.00000E+00
    0.46780E-08        -0.16650E-12         0.00000E+00
    0.47748E-08        -0.19919E-12         0.00000E+00
    0.48745E-08        -0.23218E-12         0.00000E+00
    0.49772E-08        -0.26556E-12         0.00000E+00
    0.50828E-08        -0.29939E-12         0.00000E+00
    0.51912E-08        -0.33373E-12         0.00000E+00
    0.53026E-08        -0.36865E-12         0.00000E+00
    0.54167E-08        -0.40417E-12         0.00000E+00
    0.55336E-08        -0.44033E-12         0.00000E+00
    0.56533E-08        -0.47715E-12         0.00000E+00
    0.57756E-08        -0.51463E-12         0.00000E+00
    0.59006E-08        -0.55278E-12         0.00000E+00
    0.60281E-08        -0.59158E-12         0.00000E+00
    0.61582E-08        -0.63102E-12         0.00000E+00
    0.62907E-08        -0.67106E-12         0.00000E+00
    0.64255E-08        -0.71166E-12         0.00000E+00
    0.65627E-08        -0.75276E-12         0.00000E+00
    0.67021E-08        -0.79431E-12         0.00000E+00
    0.68435E-08        -0.83621E-12         0.00000E+00
    0.69871E-08        -0.87839E-12         0.00000E+00
    0.71325E-08        -0.92072E-12         0.00000E+00
    0.72798E-08        -0.96311E-12         0.00000E+00
    0.74287E-08        -0.10054E-11         0.00000E+00
    0.75793E-08        -0.10475E-11         0.00000E+00
    0.77313E-08        -0.10892E-11         0.00000E+00
    0.78847E-08        -0.11303E-11         0.00000E+00
    0.80393E-08        -0.11706E-11         0.00000E+00
    0.81948E-08        -0.12100E-11         0.00000E+00
    0.83513E-08        -0.12481E-11         0.00000E+00
    0.85085E-08        -0.12848E-11         0.00000E+00
    0.86663E-08        -0.13198E-11         0.00000E+00
    0.88245E-08        -0.13528E-11         0.00000E+00
    0.89828E-08        -0.13836E-11         0.00000E+00
    0.91412E-08        -0.14117E-11         0.00000E+00
    0.92994E-08        -0.14368E-11         0.00000E+00
    0.94572E-08        -0.14586E-11         0.00000E+00
    0.96143E-08        -0.14767E-11         0.00000E+00
    0.97707E-08        -0.14907E-11         0.00000E+00
    0.99260E-08        -0.15001E-11         0.00000E+00
    0.10080E-07        -0.15044E-11         0.00000E+00
    0.10232E-07        -0.15032E-11         0.00000E+00
    0.10383E-07        -0.14959E-11         0.00000E+00
    0.10532E-07        -0.14819E-11         0.00000E+00
    0.10678E-07        -0.14606E-11         0.00000E+00
    0.10822E-07        -0.14313E-11         0.00000E+00
    0.10963E-07        -0.13931E-11         0.00000E+00
    0.11101E-07        -0.13453E-11         0.00000E+00
    0.11236E-07        -0.12869E-11         0.00000E+00
    0.11367E-07        -0.12168E-11         0.00000E+00
    0.11494E-07        -0.11339E-11         0.00000E+00
    0.11617E-07        -0.10368E-11         0.00000E+00
    0.11735E-07        -0.92437E-12         0.00000E+00
    0.11849E-07        -0.79494E-12         0.00000E+00
    0.11958E-07        -0.64705E-12         0.00000E+00
    0.12061E-07        -0.47921E-12         0.00000E+00
    0.12159E-07        -0.29011E-12         0.00000E+00
    0.12252E-07        -0.78793E-13         0.00000E+00
    0.12338E-07         0.15504E-12         0.00000E+00
    0.12418E-07         0.41057E-12         0.00000E+00
    0.12492E-07         0.68528E-12         0.00000E+00
    0.12558E-07         0.97404E-12         0.00000E+00
    0.12619E-07         0.12680E-11         0.00000E+00
    0.12672E-07         0.15529E-11         0.00000E+00
    0.12717E-07         0.18074E-11         0.00000E+00
    0.12756E-07         0.20001E-11         0.00000E+00
    0.12788E-07         0.20874E-11         0.00000E+00
    0.12812E-07         0.20102E-11         0.00000E+00
    0.12828E-07         0.16934E-11         0.00000E+00
    0.12837E-07         0.10505E-11         0.00000E+00
    0.12840E-07        -0.93132E-21         0.00000E+00
    0.32155E-08         0.00000E+00         0.00000E+00
    0.32164E-08         0.57137E-12         0.00000E+00
    0.32198E-08         0.94317E-12         0.00000E+00
    0.32262E-08         0.11565E-11         0.00000E+00
    0.32357E-08         0.12530E-11         0.00000E+00
    0.32482E-08         0.12688E-11         0.00000E+00
    0.32639E-08         0.12319E-11         0.00000E+00
    0.32828E-08         0.11628E-11         0.00000E+00
    0.33048E-08         0.10763E-11         0.00000E+00
    0.33299E-08         0.98227E-12         0.00000E+00
    0.33582E-08         0.88715E-12         0.00000E+00
    0.33897E-08         0.79494E-12         0.00000E+00
    0.34244E-08         0.70789E-12         0.00000E+00
    0.34622E-08         0.62708E-12         0.00000E+00
    0.35031E-08         0.55279E-12         0.00000E+00
    0.35472E-08         0.48486E-12         0.00000E+00
    0.35945E-08         0.42283E-12         0.00000E+00
    0.36449E-08         0.36609E-12         0.00000E+00
    0.36985E-08         0.31399E-12         0.00000E+00
    0.37552E-08         0.26587E-12         0.00000E+00
    0.38150E-08         0.22112E-12         0.00000E+00
    0.38780E-08         0.17916E-12         0.00000E+00
    0.39441E-08         0.13950E-12         0.00000E+00
    0.40133E-08         0.10169E-12         0.00000E+00
    0.40856E-08         0.65332E-13         0.00000E+00
    0.41611E-08         0.30104E-13         0.00000E+00
    0.42396E-08        -0.42846E-14         0.00000E+00
    0.43212E-08        -0.38081E-13         0.00000E+00
    0.44058E-08        -0.71499E-13         0.00000E+00
    0.44935E-08        -0.10472E-12         0.00000E+00
    0.45843E-08        -0.13790E-12         0.00000E+00
    0.46780E-08        -0.17118E-12         0.00000E+00
    0.47748E-08        -0.20467E-12         0.00000E+00
    0.48745E-08        -0.23848E-12         0.00000E+00
    0.49772E-08        -0.27269E-12         0.00000E+00
    0.50828E-08        -0.30738E-12         0.00000E+00
    0.51912E-08        -0.34260E-12         0.00000E+00
    0.53026E-08        -0.37842E-12         0.00000E+00
    0.54167E-08        -0.41487E-12         0.00000E+00
    0.55336E-08        -0.45199E-12         0.00000E+00
    0.56533E-08        -0.48978E-12         0.00000E+00
    0.57756E-08        -0.52827E-12         0.00000E+00
    0.59006E-08        -0.56745E-12         0.00000E+00
    0.60281E-08        -0.60731E-12         0.00000E+00
    0.61582E-08        -0.64782E-12         0.00000E+00
    0.62907E-08        -0.68897E-12         0.00000E+00
    0.64255E-08        -0.73070E-12         0.00000E+00
    0.65627E-08        -0.77295E-12         0.00000E+00
    0.67021E-08        -0.81566E-12         0.00000E+00
    0.68435E-08        -0.85875E-12         0.00000E+00
    0.69871E-08        -0.90213E-12         0.00000E+00
    0.71325E-08        -0.94569E-12         0.00000E+00
    0.72798E-08        -0.98930E-12         0.00000E+00
    0.74287E-08        -0.10328E-11         0.00000E+00
    0.75793E-08        -0.10761E-11         0.00000E+00
    0.77313E-08        -0.11190E-11         0.00000E+00
    0.78847E-08        -0.11614E-11         0.00000E+00
    0.80392E-08        -0.12029E-11         0.00000E+00
    0.81948E-08        -0.12435E-11         0.00000E+00
    0.83513E-08        -0.12829E-11         0.00000E+00
    0.85085E-08        -0.13207E-11         0.00000E+00
    0.86663E-08        -0.13569E-11         0.00000E+00
    0.88245E-08        -0.13909E-11         0.00000E+00
    0.89828E-08        -0.14227E-11         0.00000E+00
    0.91412E-08        -0.14518E-11         0.00000E+00
    0.92994E-08        -0.14778E-11         0.00000E+00
    0.94571E-08        -0.15005E-11         0.00000E+00
    0.96143E-08        -0.15193E-11         0.00000E+00
    0.97707E-08        -0.15339E-11         0.00000E+00
    0.99260E-08        -0.15439E-11         0.00000E+00
    0.10080E-07        -0.15486E-11         0.00000E+00
    0.10232E-07        -0.15477E-11         0.00000E+00
    0.10383E-07        -0.15406E-11         0.00000E+00
    0.10532E-07        -0.15266E-11         0.00000E+00
    0.10678E-07        -0.15050E-11         0.00000E+00
    0.10822E-07        -0.14753E-11         0.00000E+00
    0.10963E-07        -0.14365E-11         0.00000E+00
    0.11101E-07        -0.13877E-11         0.00000E+00
    0.11236E-07        -0.13281E-11         0.00000E+00
    0.11367E-07        -0.12564E-11         0.00000E+00
    0.11494E-07        -0.11716E-11         0.00000E+00
    0.11617E-07        -0.10722E-11         0.00000E+00
    0.11735E-07        -0.95681E-12         0.00000E+00
    0.11849E-07        -0.82392E-12         0.00000E+00
    0.11958E-07        -0.67191E-12         0.00000E+00
    0.12061E-07        -0.49922E-12         0.00000E+00
    0.12159E-07        -0.30446E-12         0.00000E+00
    0.12252E-07        -0.86591E-13         0.00000E+00
    0.12338E-07         0.15472E-12         0.00000E+00
    0.12418E-07         0.41866E-12         0.00000E+00
    0.12492E-07         0.70265E-12         0.00000E+00
    0.12559E-07         0.10014E-11         0.00000E+00
    0.12619E-07         0.13056E-11         0.00000E+00
    0.12672E-07         0.16005E-11         0.00000E+00
    0.12718E-07         0.18637E-11         0.00000E+00
    0.12756E-07         0.20626E-11         0.00000E+00
    0.12788E-07         0.21514E-11         0.00000E+00
    0.12811E-07         0.20693E-11         0.00000E+00
    0.12828E-07         0.17396E-11         0.00000E+00
    0.12837E-07         0.10762E-11         0.00000E+00
    0.12840E-07         0.11198E-20         0.00000E+00
    0.32156E-08         0.00000E+00         0.00000E+00
    0.32165E-08         0.58322E-12         0.00000E+00
    0.32198E-08         0.96458E-12         0.00000E+00
    0.32262E-08         0.11843E-11         0.00000E+00
    0.32357E-08         0.12841E-11         0.00000E+00
    0.32482E-08         0.13006E-11         0.00000E+00
    0.32639E-08         0.12624E-11         0.00000E+00
    0.32828E-08         0.11912E-11         0.00000E+00
    0.33048E-08         0.11019E-11         0.00000E+00
    0.33299E-08         0.10049E-11         0.00000E+00
    0.33582E-08         0.90686E-12         0.00000E+00
    0.33897E-08         0.81195E-12         0.00000E+00
    0.34243E-08         0.72246E-12         0.00000E+00
    0.34621E-08         0.63947E-12         0.00000E+00
    0.35031E-08         0.56328E-12         0.00000E+00
    0.35472E-08         0.49370E-12         0.00000E+00
    0.35945E-08         0.43024E-12         0.00000E+00
    0.36449E-08         0.37225E-12         0.00000E+00
    0.36985E-08         0.31906E-12         0.00000E+00
    0.37552E-08         0.26998E-12         0.00000E+00
    0.38150E-08         0.22437E-12         0.00000E+00
    0.38780E-08         0.18162E-12         0.00000E+00
    0.39441E-08         0.14123E-12         0.00000E+00
    0.40133E-08         0.10272E-12         0.00000E+00
    0.40856E-08         0.65710E-13         0.00000E+00
    0.41611E-08         0.29841E-13         0.00000E+00
    0.42396E-08        -0.51802E-14         0.00000E+00
    0.43212E-08        -0.39606E-13         0.00000E+00
    0.44058E-08        -0.73655E-13         0.00000E+00
    0.44935E-08        -0.10751E-12         0.00000E+00
    0.45843E-08        -0.14134E-12         0.00000E+00
    0.46780E-08        -0.17528E-12         0.00000E+00
    0.47748E-08        -0.20945E-12         0.00000E+00
    0.48745E-08        -0.24395E-12         0.00000E+00
    0.49772E-08        -0.27888E-12         0.00000E+00
    0.50827E-08        -0.31430E-12         0.00000E+00
    0.51912E-08        -0.35028E-12         0.00000E+00
    0.53026E-08        -0.38688E-12         0.00000E+00
    0.54167E-08        -0.42413E-12         0.00000E+00
    0.55336E-08        -0.46207E-12         0.00000E+00
    0.56533E-08        -0.50071E-12         0.00000E+00
    0.57756E-08        -0.54006E-12         0.00000E+00
    0.59006E-08        -0.58014E-12         0.00000E+00
    0.60281E-08        -0.62091E-12         0.00000E+00
    0.61582E-08        -0.66237E-12         0.00000E+00
    0.62907E-08        -0.70448E-12         0.00000E+00
    0.64255E-08        -0.74719E-12         0.00000E+00
    0.65627E-08        -0.79045E-12         0.00000E+00
    0.67020E-08        -0.83419E-12         0.00000E+00
    0.68435E-08        -0.87832E-12         0.00000E+00
    0.69870E-08        -0.92276E-12         0.00000E+00
    0.71325E-08        -0.96738E-12         0.00000E+00
    0.72798E-08        -0.10121E-11         0.00000E+00
    0.74287E-08        -0.10567E-11         0.00000E+00
    0.75793E-08        -0.11011E-11         0.00000E+00
    0.77313E-08        -0.11451E-11         0.00000E+00
    0.78847E-08        -0.11885E-11         0.00000E+00
    0.80392E-08        -0.12312E-11         0.00000E+00
    0.81948E-08        -0.12728E-11         0.00000E+00
    0.83513E-08        -0.13132E-11         0.00000E+00
    0.85085E-08        -0.13521E-11         0.00000E+00
    0.86663E-08        -0.13893E-11         0.00000E+00
    0.88245E-08        -0.14243E-11         0.00000E+00
    0.89828E-08        -0.14570E-11         0.00000E+00
    0.91412E-08        -0.14870E-11         0.00000E+00
    0.92994E-08        -0.15139E-11         0.00000E+00
    0.94571E-08        -0.15373E-11         0.00000E+00
    0.96143E-08        -0.15568E-11         0.00000E+00
    0.97707E-08        -0.15721E-11         0.00000E+00
    0.99260E-08        -0.15825E-11         0.00000E+00
    0.10080E-07        -0.15877E-11         0.00000E+00
    0.10232E-07        -0.15871E-11         0.00000E+00
    0.10383E-07        -0.15802E-11         0.00000E+00
    0.10532E-07        -0.15662E-11         0.00000E+00
    0.10678E-07        -0.15446E-11         0.00000E+00
    0.10822E-07        -0.15145E-11         0.00000E+00
    0.10963E-07        -0.14752E-11         0.00000E+00
    0.11101E-07        -0.14257E-11         0.00000E+00
    0.11236E-07        -0.13651E-11         0.00000E+00
    0.11367E-07        -0.12922E-11         0.00000E+00
    0.11494E-07        -0.12057E-11         0.00000E+00
    0.11617E-07        -0.11043E-11         0.00000E+00
    0.11735E-07        -0.98651E-12         0.00000E+00
    0.11849E-07        -0.85064E-12         0.00000E+00
    0.11958E-07        -0.69506E-12         0.00000E+00
    0.12061E-07        -0.51813E-12         0.00000E+00
    0.12159E-07        -0.31838E-12         0.00000E+00
    0.12252E-07        -0.94704E-13         0.00000E+00
    0.12338E-07         0.15328E-12         0.00000E+00
    0.12418E-07         0.42478E-12         0.00000E+00
    0.12492E-07         0.71714E-12         0.00000E+00
    0.12559E-07         0.10249E-11         0.00000E+00
    0.12619E-07         0.13386E-11         0.00000E+00
    0.12672E-07         0.16427E-11         0.00000E+00
    0.12718E-07         0.19141E-11         0.00000E+00
    0.12756E-07         0.21188E-11         0.00000E+00
    0.12788E-07         0.22095E-11         0.00000E+00
    0.12811E-07         0.21233E-11         0.00000E+00
    0.12828E-07         0.17822E-11         0.00000E+00
    0.12837E-07         0.11003E-11         0.00000E+00
    0.12840E-07        -0.18850E-21         0.00000E+00
    0.32157E-08         0.00000E+00         0.00000E+00
    0.32166E-08         0.59404E-12         0.00000E+00
    0.32199E-08         0.98384E-12         0.00000E+00
    0.32262E-08         0.12091E-11         0.00000E+00
    0.32357E-08         0.13115E-11         0.00000E+00
    0.32482E-08         0.13283E-11         0.00000E+00
    0.32639E-08         0.12889E-11         0.00000E+00
    0.32828E-08         0.12155E-11         0.00000E+00
    0.33047E-08         0.11236E-11         0.00000E+00
    0.33299E-08         0.10239E-11         0.00000E+00
    0.33582E-08         0.92333E-12         0.00000E+00
    0.33897E-08         0.82602E-12         0.00000E+00
    0.34243E-08         0.73437E-12         0.00000E+00
    0.34621E-08         0.64949E-12         0.00000E+00
    0.35031E-08         0.57167E-12         0.00000E+00
    0.35472E-08         0.50068E-12         0.00000E+00
    0.35945E-08         0.43602E-12         0.00000E+00
    0.36449E-08         0.37700E-12         0.00000E+00
    0.36985E-08         0.32291E-12         0.00000E+00
    0.37552E-08         0.27305E-12         0.00000E+00
    0.38150E-08         0.22673E-12         0.00000E+00
    0.38780E-08         0.18336E-12         0.00000E+00
    0.39441E-08         0.14239E-12         0.00000E+00
    0.40133E-08         0.10334E-12         0.00000E+00
    0.40856E-08         0.65799E-13         0.00000E+00
    0.41611E-08         0.29419E-13         0.00000E+00
    0.42396E-08        -0.61057E-14         0.00000E+00
    0.43212E-08        -0.41036E-13         0.00000E+00
    0.44058E-08        -0.75593E-13         0.00000E+00
    0.44935E-08        -0.10997E-12         0.00000E+00
    0.45842E-08        -0.14433E-12         0.00000E+00
    0.46780E-08        -0.17881E-12         0.00000E+00
    0.47748E-08        -0.21353E-12         0.00000E+00
    0.48745E-08        -0.24861E-12         0.00000E+00
    0.49771E-08        -0.28412E-12         0.00000E+00
    0.50827E-08        -0.32016E-12         0.00000E+00
    0.51912E-08        -0.35677E-12         0.00000E+00
    0.53025E-08        -0.39402E-12         0.00000E+00
    0.54167E-08        -0.43194E-12         0.00000E+00
    0.55336E-08        -0.47057E-12         0.00000E+00
    0.56533E-08        -0.50992E-12         0.00000E+00
    0.57756E-08        -0.55002E-12         0.00000E+00
    0.59006E-08        -0.59085E-12         0.00000E+00
    0.60281E-08        -0.63241E-12         0.00000E+00
    0.61582E-08        -0.67467E-12         0.00000E+00
    0.62907E-08        -0.71760E-12         0.00000E+00
    0.64255E-08        -0.76115E-12         0.00000E+00
    0.65627E-08        -0.80527E-12         0.00000E+00
    0.67020E-08        -0.84989E-12         0.00000E+00
    0.68435E-08        -0.89491E-12         0.00000E+00
    0.69870E-08        -0.94026E-12         0.00000E+00
    0.71325E-08        -0.98581E-12         0.00000E+00
    0.72797E-08        -0.10314E-11         0.00000E+00
    0.74287E-08        -0.10770E-11         0.00000E+00
    0.75793E-08        -0.11223E-11         0.00000E+00
    0.77313E-08        -0.11673E-11         0.00000E+00
    0.78847E-08        -0.12117E-11         0.00000E+00
    0.80392E-08        -0.12553E-11         0.00000E+00
    0.81948E-08        -0.12979E-11         0.00000E+00
    0.83513E-08        -0.13392E-11         0.00000E+00
    0.85085E-08        -0.13790E-11         0.00000E+00
    0.86663E-08        -0.14170E-11         0.00000E+00
    0.88245E-08        -0.14530E-11         0.00000E+00
    0.89828E-08        -0.14865E-11         0.00000E+00
    0.91412E-08        -0.15173E-11         0.00000E+00
    0.92994E-08        -0.15449E-11         0.00000E+00
    0.94571E-08        -0.15690E-11         0.00000E+00
    0.96143E-08        -0.15892E-11         0.00000E+00
    0.97707E-08        -0.16050E-11         0.00000E+00
    0.99259E-08        -0.16160E-11         0.00000E+00
    0.10080E-07        -0.16217E-11         0.00000E+00
    0.10232E-07        -0.16214E-11         0.00000E+00
    0.10383E-07        -0.16147E-11         0.00000E+00
    0.10532E-07        -0.16008E-11         0.00000E+00
    0.10678E-07        -0.15792E-11         0.00000E+00
    0.10822E-07        -0.15489E-11         0.00000E+00
    0.10963E-07        -0.15093E-11         0.00000E+00
    0.11101E-07        -0.14593E-11         0.00000E+00
    0.11236E-07        -0.13980E-11         0.00000E+00
    0.11367E-07        -0.13240E-11         0.00000E+00
    0.11494E-07        -0.12363E-11         0.00000E+00
    0.11617E-07        -0.11332E-11         0.00000E+00
    0.11735E-07        -0.10134E-11         0.00000E+00
    0.11849E-07        -0.87502E-12         0.00000E+00
    0.11958E-07        -0.71642E-12         0.00000E+00
    0.12061E-07        -0.53587E-12         0.00000E+00
    0.12160E-07        -0.33182E-12         0.00000E+00
    0.12252E-07        -0.10310E-12         0.00000E+00
    0.12338E-07         0.15073E-12         0.00000E+00
    0.12418E-07         0.42891E-12         0.00000E+00
    0.12492E-07         0.72874E-12         0.00000E+00
    0.12559E-07         0.10446E-11         0.00000E+00
    0.12619E-07         0.13668E-11         0.00000E+00
    0.12672E-07         0.16794E-11         0.00000E+00
    0.12718E-07         0.19584E-11         0.00000E+00
    0.12756E-07         0.21688E-11         0.00000E+00
    0.12788E-07         0.22616E-11         0.00000E+00
    0.12811E-07         0.21723E-11         0.00000E+00
    0.12828E-07         0.18214E-11         0.00000E+00
    0.12837E-07         0.11228E-11         0.00000E+00
    0.12840E-07         0.00000E+00         0.00000E+00
    0.32158E-08         0.00000E+00         0.00000E+00
    0.32167E-08         0.60387E-12         0.00000E+00
    0.32200E-08         0.10010E-11         0.00000E+00
    0.32263E-08         0.12308E-11         0.00000E+00
    0.32357E-08         0.13352E-11         0.00000E+00
    0.32482E-08         0.13520E-11         0.00000E+00
    0.32639E-08         0.13113E-11         0.00000E+00
    0.32827E-08         0.12358E-11         0.00000E+00
    0.33047E-08         0.11416E-11         0.00000E+00
    0.33299E-08         0.10395E-11         0.00000E+00
    0.33582E-08         0.93656E-12         0.00000E+00
    0.33897E-08         0.83715E-12         0.00000E+00
    0.34243E-08         0.74364E-12         0.00000E+00
    0.34621E-08         0.65716E-12         0.00000E+00
    0.35031E-08         0.57797E-12         0.00000E+00
    0.35472E-08         0.50582E-12         0.00000E+00
    0.35945E-08         0.44018E-12         0.00000E+00
    0.36449E-08         0.38034E-12         0.00000E+00
    0.36985E-08         0.32555E-12         0.00000E+00
    0.37552E-08         0.27508E-12         0.00000E+00
    0.38150E-08         0.22824E-12         0.00000E+00
    0.38780E-08         0.18440E-12         0.00000E+00
    0.39441E-08         0.14299E-12         0.00000E+00
    0.40133E-08         0.10354E-12         0.00000E+00
    0.40856E-08         0.65609E-13         0.00000E+00
    0.41610E-08         0.28849E-13         0.00000E+00
    0.42396E-08        -0.70533E-14         0.00000E+00
    0.43211E-08        -0.42363E-13         0.00000E+00
    0.44058E-08        -0.77308E-13         0.00000E+00
    0.44935E-08        -0.11208E-12         0.00000E+00
    0.45842E-08        -0.14685E-12         0.00000E+00
    0.46780E-08        -0.18175E-12         0.00000E+00
    0.47747E-08        -0.21691E-12         0.00000E+00
    0.48745E-08        -0.25244E-12         0.00000E+00
    0.49771E-08        -0.28843E-12         0.00000E+00
    0.50827E-08        -0.32495E-12         0.00000E+00
    0.51912E-08        -0.36206E-12         0.00000E+00
    0.53025E-08        -0.39984E-12         0.00000E+00
    0.54167E-08        -0.43830E-12         0.00000E+00
    0.55336E-08        -0.47750E-12         0.00000E+00
    0.56533E-08        -0.51744E-12         0.00000E+00
    0.57756E-08        -0.55813E-12         0.00000E+00
    0.59006E-08        -0.59959E-12         0.00000E+00
    0.60281E-08        -0.64179E-12         0.00000E+00
    0.61582E-08        -0.68471E-12         0.00000E+00
    0.62907E-08        -0.72832E-12         0.00000E+00
    0.64255E-08        -0.77257E-12         0.00000E+00
    0.65627E-08        -0.81741E-12         0.00000E+00
    0.67020E-08        -0.86275E-12         0.00000E+00
    0.68435E-08        -0.90853E-12         0.00000E+00
    0.69870E-08        -0.95463E-12         0.00000E+00
    0.71325E-08        -0.10010E-11         0.00000E+00
    0.72797E-08        -0.10474E-11         0.00000E+00
    0.74287E-08        -0.10937E-11         0.00000E+00
    0.75793E-08        -0.11399E-11         0.00000E+00
    0.77313E-08        -0.11856E-11         0.00000E+00
    0.78847E-08        -0.12308E-11         0.00000E+00
    0.80392E-08        -0.12752E-11         0.00000E+00
    0.81948E-08        -0.13186E-11         0.00000E+00
    0.83513E-08        -0.13608E-11         0.00000E+00
    0.85085E-08        -0.14014E-11         0.00000E+00
    0.86663E-08        -0.14402E-11         0.00000E+00
    0.88245E-08        -0.14769E-11         0.00000E+00
    0.89828E-08        -0.15111E-11         0.00000E+00
    0.91412E-08        -0.15426E-11         0.00000E+00
    0.92994E-08        -0.15709E-11         0.00000E+00
    0.94571E-08        -0.15957E-11         0.00000E+00
    0.96143E-08        -0.16165E-11         0.00000E+00
    0.97707E-08        -0.16328E-11         0.00000E+00
    0.99259E-08        -0.16443E-11         0.00000E+00
    0.10080E-07        -0.16504E-11         0.00000E+00
    0.10232E-07        -0.16505E-11         0.00000E+00
    0.10383E-07        -0.16440E-11         0.00000E+00
    0.10532E-07        -0.16303E-11         0.00000E+00
    0.10678E-07        -0.16088E-11         0.00000E+00
    0.10822E-07        -0.15785E-11         0.00000E+00
    0.10963E-07        -0.15387E-11         0.00000E+00
    0.11101E-07        -0.14884E-11         0.00000E+00
    0.11236E-07        -0.14265E-11         0.00000E+00
    0.11367E-07        -0.13518E-11         0.00000E+00
    0.11494E-07        -0.12631E-11         0.00000E+00
    0.11617E-07        -0.11588E-11         0.00000E+00
    0.11735E-07        -0.10374E-11         0.00000E+00
    0.11849E-07        -0.89700E-12         0.00000E+00
    0.11958E-07        -0.73594E-12         0.00000E+00
    0.12062E-07        -0.55240E-12         0.00000E+00
    0.12160E-07        -0.34474E-12         0.00000E+00
    0.12252E-07        -0.11174E-12         0.00000E+00
    0.12338E-07         0.14711E-12         0.00000E+00
    0.12418E-07         0.43107E-12         0.00000E+00
    0.12492E-07         0.73743E-12         0.00000E+00
    0.12559E-07         0.10605E-11         0.00000E+00
    0.12619E-07         0.13903E-11         0.00000E+00
    0.12672E-07         0.17106E-11         0.00000E+00
    0.12718E-07         0.19966E-11         0.00000E+00
    0.12756E-07         0.22124E-11         0.00000E+00
    0.12788E-07         0.23077E-11         0.00000E+00
    0.12811E-07         0.22163E-11         0.00000E+00
    0.12828E-07         0.18573E-11         0.00000E+00
    0.12837E-07         0.11439E-11         0.00000E+00
    0.12839E-07         0.00000E+00         0.00000E+00
    0.32160E-08         0.00000E+00         0.00000E+00
    0.32168E-08         0.61272E-12         0.00000E+00
    0.32200E-08         0.10160E-11         0.00000E+00
    0.32263E-08         0.12494E-11         0.00000E+00
    0.32357E-08         0.13552E-11         0.00000E+00
    0.32482E-08         0.13716E-11         0.00000E+00
    0.32639E-08         0.13296E-11         0.00000E+00
    0.32827E-08         0.12521E-11         0.00000E+00
    0.33047E-08         0.11557E-11         0.00000E+00
    0.33298E-08         0.10515E-11         0.00000E+00
    0.33582E-08         0.94654E-12         0.00000E+00
    0.33896E-08         0.84533E-12         0.00000E+00
    0.34243E-08         0.75028E-12         0.00000E+00
    0.34621E-08         0.66248E-12         0.00000E+00
    0.35031E-08         0.58219E-12         0.00000E+00
    0.35472E-08         0.50914E-12         0.00000E+00
    0.35945E-08         0.44274E-12         0.00000E+00
    0.36449E-08         0.38229E-12         0.00000E+00
    0.36985E-08         0.32700E-12         0.00000E+00
    0.37552E-08         0.27611E-12         0.00000E+00
    0.38150E-08         0.22891E-12         0.00000E+00
    0.38780E-08         0.18474E-12         0.00000E+00
    0.39441E-08         0.14305E-12         0.00000E+00
    0.40133E-08         0.10333E-12         0.00000E+00
    0.40856E-08         0.65150E-13         0.00000E+00
    0.41610E-08         0.28140E-13         0.00000E+00
    0.42395E-08        -0.80150E-14         0.00000E+00
    0.43211E-08        -0.43583E-13         0.00000E+00
    0.44058E-08        -0.78794E-13         0.00000E+00
    0.44935E-08        -0.11384E-12         0.00000E+00
    0.45842E-08        -0.14890E-12         0.00000E+00
    0.46780E-08        -0.18410E-12         0.00000E+00
    0.47747E-08        -0.21958E-12         0.00000E+00
    0.48745E-08        -0.25545E-12         0.00000E+00
    0.49771E-08        -0.29178E-12         0.00000E+00
    0.50827E-08        -0.32867E-12         0.00000E+00
    0.51912E-08        -0.36617E-12         0.00000E+00
    0.53025E-08        -0.40434E-12         0.00000E+00
    0.54167E-08        -0.44322E-12         0.00000E+00
    0.55336E-08        -0.48285E-12         0.00000E+00
    0.56533E-08        -0.52324E-12         0.00000E+00
    0.57756E-08        -0.56441E-12         0.00000E+00
    0.59006E-08        -0.60635E-12         0.00000E+00
    0.60281E-08        -0.64905E-12         0.00000E+00
    0.61582E-08        -0.69250E-12         0.00000E+00
    0.62906E-08        -0.73664E-12         0.00000E+00
    0.64255E-08        -0.78145E-12         0.00000E+00
    0.65627E-08        -0.82686E-12         0.00000E+00
    0.67020E-08        -0.87279E-12         0.00000E+00
    0.68435E-08        -0.91916E-12         0.00000E+00
    0.69870E-08        -0.96588E-12         0.00000E+00
    0.71325E-08        -0.10128E-11         0.00000E+00
    0.72797E-08        -0.10599E-11         0.00000E+00
    0.74287E-08        -0.11069E-11         0.00000E+00
    0.75793E-08        -0.11537E-11         0.00000E+00
    0.77313E-08        -0.12001E-11         0.00000E+00
    0.78847E-08        -0.12460E-11         0.00000E+00
    0.80392E-08        -0.12910E-11         0.00000E+00
    0.81948E-08        -0.13351E-11         0.00000E+00
    0.83513E-08        -0.13779E-11         0.00000E+00
    0.85085E-08        -0.14192E-11         0.00000E+00
    0.86663E-08        -0.14586E-11         0.00000E+00
    0.88244E-08        -0.14960E-11         0.00000E+00
    0.89828E-08        -0.15309E-11         0.00000E+00
    0.91412E-08        -0.15630E-11         0.00000E+00
    0.92993E-08        -0.15919E-11         0.00000E+00
    0.94571E-08        -0.16172E-11         0.00000E+00
    0.96143E-08        -0.16385E-11         0.00000E+00
    0.97707E-08        -0.16554E-11         0.00000E+00
    0.99259E-08        -0.16673E-11         0.00000E+00
    0.10080E-07        -0.16738E-11         0.00000E+00
    0.10232E-07        -0.16743E-11         0.00000E+00
    0.10383E-07        -0.16682E-11         0.00000E+00
    0.10532E-07        -0.16547E-11         0.00000E+00
    0.10678E-07        -0.16333E-11         0.00000E+00
    0.10822E-07        -0.16031E-11         0.00000E+00
    0.10963E-07        -0.15633E-11         0.00000E+00
    0.11101E-07        -0.15128E-11         0.00000E+00
    0.11236E-07        -0.14507E-11         0.00000E+00
    0.11367E-07        -0.13756E-11         0.00000E+00
    0.11494E-07        -0.12862E-11         0.00000E+00
    0.11617E-07        -0.11810E-11         0.00000E+00
    0.11735E-07        -0.10584E-11         0.00000E+00
    0.11849E-07        -0.91650E-12         0.00000E+00
    0.11958E-07        -0.75355E-12         0.00000E+00
    0.12062E-07        -0.56764E-12         0.00000E+00
    0.12160E-07        -0.35709E-12         0.00000E+00
    0.12252E-07        -0.12059E-12         0.00000E+00
    0.12338E-07         0.14243E-12         0.00000E+00
    0.12418E-07         0.43126E-12         0.00000E+00
    0.12492E-07         0.74319E-12         0.00000E+00
    0.12559E-07         0.10725E-11         0.00000E+00
    0.12619E-07         0.14090E-11         0.00000E+00
    0.12672E-07         0.17361E-11         0.00000E+00
    0.12718E-07         0.20287E-11         0.00000E+00
    0.12756E-07         0.22497E-11         0.00000E+00
    0.12788E-07         0.23478E-11         0.00000E+00
    0.12811E-07         0.22553E-11         0.00000E+00
    0.12828E-07         0.18898E-11         0.00000E+00
    0.12836E-07         0.11635E-11         0.00000E+00
    0.12839E-07         0.00000E+00         0.00000E+00
    0.32161E-08         0.00000E+00         0.00000E+00
    0.32169E-08         0.62060E-12         0.00000E+00
    0.32201E-08         0.10290E-11         0.00000E+00
    0.32263E-08         0.12650E-11         0.00000E+00
    0.32357E-08         0.13715E-11         0.00000E+00
    0.32482E-08         0.13872E-11         0.00000E+00
    0.32639E-08         0.13436E-11         0.00000E+00
    0.32827E-08         0.12644E-11         0.00000E+00
    0.33047E-08         0.11660E-11         0.00000E+00
    0.33298E-08         0.10599E-11         0.00000E+00
    0.33581E-08         0.95326E-12         0.00000E+00
    0.33896E-08         0.85059E-12         0.00000E+00
    0.34243E-08         0.75429E-12         0.00000E+00
    0.34621E-08         0.66546E-12         0.00000E+00
    0.35030E-08         0.58435E-12         0.00000E+00
    0.35472E-08         0.51064E-12         0.00000E+00
    0.35944E-08         0.44373E-12         0.00000E+00
    0.36449E-08         0.38288E-12         0.00000E+00
    0.36984E-08         0.32728E-12         0.00000E+00
    0.37552E-08         0.27614E-12         0.00000E+00
    0.38150E-08         0.22874E-12         0.00000E+00
    0.38780E-08         0.18442E-12         0.00000E+00
    0.39441E-08         0.14259E-12         0.00000E+00
    0.40133E-08         0.10274E-12         0.00000E+00
    0.40856E-08         0.64436E-13         0.00000E+00
    0.41610E-08         0.27301E-13         0.00000E+00
    0.42395E-08        -0.89825E-14         0.00000E+00
    0.43211E-08        -0.44687E-13         0.00000E+00
    0.44058E-08        -0.80045E-13         0.00000E+00
    0.44935E-08        -0.11525E-12         0.00000E+00
    0.45842E-08        -0.15048E-12         0.00000E+00
    0.46780E-08        -0.18587E-12         0.00000E+00
    0.47747E-08        -0.22155E-12         0.00000E+00
    0.48745E-08        -0.25763E-12         0.00000E+00
    0.49771E-08        -0.29419E-12         0.00000E+00
    0.50827E-08        -0.33132E-12         0.00000E+00
    0.51912E-08        -0.36908E-12         0.00000E+00
    0.53025E-08        -0.40753E-12         0.00000E+00
    0.54167E-08        -0.44670E-12         0.00000E+00
    0.55336E-08        -0.48663E-12         0.00000E+00
    0.56533E-08        -0.52734E-12         0.00000E+00
    0.57756E-08        -0.56885E-12         0.00000E+00
    0.59006E-08        -0.61114E-12         0.00000E+00
    0.60281E-08        -0.65421E-12         0.00000E+00
    0.61581E-08        -0.69803E-12         0.00000E+00
    0.62906E-08        -0.74257E-12         0.00000E+00
    0.64255E-08        -0.78779E-12         0.00000E+00
    0.65626E-08        -0.83362E-12         0.00000E+00
    0.67020E-08        -0.87999E-12         0.00000E+00
    0.68435E-08        -0.92682E-12         0.00000E+00
    0.69870E-08        -0.97400E-12         0.00000E+00
    0.71325E-08        -0.10214E-11         0.00000E+00
    0.72797E-08        -0.10690E-11         0.00000E+00
    0.74287E-08        -0.11165E-11         0.00000E+00
    0.75793E-08        -0.11638E-11         0.00000E+00
    0.77313E-08        -0.12107E-11         0.00000E+00
    0.78846E-08        -0.12571E-11         0.00000E+00
    0.80392E-08        -0.13027E-11         0.00000E+00
    0.81948E-08        -0.13473E-11         0.00000E+00
    0.83513E-08        -0.13906E-11         0.00000E+00
    0.85085E-08        -0.14324E-11         0.00000E+00
    0.86663E-08        -0.14724E-11         0.00000E+00
    0.88244E-08        -0.15103E-11         0.00000E+00
    0.89828E-08        -0.15457E-11         0.00000E+00
    0.91412E-08        -0.15783E-11         0.00000E+00
    0.92993E-08        -0.16077E-11         0.00000E+00
    0.94571E-08        -0.16336E-11         0.00000E+00
    0.96143E-08        -0.16554E-11         0.00000E+00
    0.97706E-08        -0.16727E-11         0.00000E+00
    0.99259E-08        -0.16851E-11         0.00000E+00
    0.10080E-07        -0.16920E-11         0.00000E+00
    0.10232E-07        -0.16928E-11         0.00000E+00
    0.10383E-07        -0.16870E-11         0.00000E+00
    0.10532E-07        -0.16739E-11         0.00000E+00
    0.10678E-07        -0.16528E-11         0.00000E+00
    0.10822E-07        -0.16228E-11         0.00000E+00
    0.10963E-07        -0.15831E-11         0.00000E+00
    0.11101E-07        -0.15326E-11         0.00000E+00
    0.11236E-07        -0.14704E-11         0.00000E+00
    0.11367E-07        -0.13951E-11         0.00000E+00
    0.11494E-07        -0.13054E-11         0.00000E+00
    0.11617E-07        -0.11997E-11         0.00000E+00
    0.11735E-07        -0.10763E-11         0.00000E+00
    0.11849E-07        -0.93346E-12         0.00000E+00
    0.11958E-07        -0.76916E-12         0.00000E+00
    0.12062E-07        -0.58152E-12         0.00000E+00
    0.12160E-07        -0.36879E-12         0.00000E+00
    0.12252E-07        -0.12958E-12         0.00000E+00
    0.12338E-07         0.13673E-12         0.00000E+00
    0.12418E-07         0.42950E-12         0.00000E+00
    0.12492E-07         0.74604E-12         0.00000E+00
    0.12559E-07         0.10806E-11         0.00000E+00
    0.12619E-07         0.14228E-11         0.00000E+00
    0.12672E-07         0.17560E-11         0.00000E+00
    0.12718E-07         0.20545E-11         0.00000E+00
    0.12756E-07         0.22806E-11         0.00000E+00
    0.12788E-07         0.23819E-11         0.00000E+00
    0.12811E-07         0.22893E-11         0.00000E+00
    0.12828E-07         0.19189E-11         0.00000E+00
    0.12836E-07         0.11816E-11         0.00000E+00
    0.12839E-07         0.00000E+00         0.00000E+00
    0.32162E-08         0.00000E+00         0.00000E+00
    0.32170E-08         0.62752E-12         0.00000E+00
    0.32201E-08         0.10399E-11         0.00000E+00
    0.32264E-08         0.12776E-11         0.00000E+00
    0.32357E-08         0.13840E-11         0.00000E+00
    0.32482E-08         0.13987E-11         0.00000E+00
    0.32639E-08         0.13536E-11         0.00000E+00
    0.32827E-08         0.12725E-11         0.00000E+00
    0.33047E-08         0.11724E-11         0.00000E+00
    0.33298E-08         0.10647E-11         0.00000E+00
    0.33581E-08         0.95674E-12         0.00000E+00
    0.33896E-08         0.85291E-12         0.00000E+00
    0.34242E-08         0.75568E-12         0.00000E+00
    0.34621E-08         0.66613E-12         0.00000E+00
    0.35030E-08         0.58447E-12         0.00000E+00
    0.35472E-08         0.51036E-12         0.00000E+00
    0.35944E-08         0.44317E-12         0.00000E+00
    0.36449E-08         0.38213E-12         0.00000E+00
    0.36984E-08         0.32640E-12         0.00000E+00
    0.37551E-08         0.27520E-12         0.00000E+00
    0.38150E-08         0.22777E-12         0.00000E+00
    0.38780E-08         0.18344E-12         0.00000E+00
    0.39441E-08         0.14161E-12         0.00000E+00
    0.40133E-08         0.10177E-12         0.00000E+00
    0.40856E-08         0.63476E-13         0.00000E+00
    0.41610E-08         0.26344E-13         0.00000E+00
    0.42395E-08        -0.99470E-14         0.00000E+00
    0.43211E-08        -0.45669E-13         0.00000E+00
    0.44058E-08        -0.81056E-13         0.00000E+00
    0.44935E-08        -0.11631E-12         0.00000E+00
    0.45842E-08        -0.15159E-12         0.00000E+00
    0.46780E-08        -0.18705E-12         0.00000E+00
    0.47747E-08        -0.22281E-12         0.00000E+00
    0.48744E-08        -0.25898E-12         0.00000E+00
    0.49771E-08        -0.29566E-12         0.00000E+00
    0.50827E-08        -0.33291E-12         0.00000E+00
    0.51912E-08        -0.37080E-12         0.00000E+00
    0.53025E-08        -0.40940E-12         0.00000E+00
    0.54167E-08        -0.44873E-12         0.00000E+00
    0.55336E-08        -0.48884E-12         0.00000E+00
    0.56532E-08        -0.52974E-12         0.00000E+00
    0.57756E-08        -0.57145E-12         0.00000E+00
    0.59006E-08        -0.61395E-12         0.00000E+00
    0.60281E-08        -0.65725E-12         0.00000E+00
    0.61581E-08        -0.70131E-12         0.00000E+00
    0.62906E-08        -0.74611E-12         0.00000E+00
    0.64255E-08        -0.79159E-12         0.00000E+00
    0.65626E-08        -0.83770E-12         0.00000E+00
    0.67020E-08        -0.88436E-12         0.00000E+00
    0.68435E-08        -0.93149E-12         0.00000E+00
    0.69870E-08        -0.97898E-12         0.00000E+00
    0.71324E-08        -0.10267E-11         0.00000E+00
    0.72797E-08        -0.10746E-11         0.00000E+00
    0.74287E-08        -0.11225E-11         0.00000E+00
    0.75792E-08        -0.11701E-11         0.00000E+00
    0.77313E-08        -0.12174E-11         0.00000E+00
    0.78846E-08        -0.12642E-11         0.00000E+00
    0.80392E-08        -0.13102E-11         0.00000E+00
    0.81948E-08        -0.13552E-11         0.00000E+00
    0.83513E-08        -0.13989E-11         0.00000E+00
    0.85085E-08        -0.14411E-11         0.00000E+00
    0.86663E-08        -0.14815E-11         0.00000E+00
    0.88244E-08        -0.15198E-11         0.00000E+00
    0.89828E-08        -0.15557E-11         0.00000E+00
    0.91412E-08        -0.15887E-11         0.00000E+00
    0.92993E-08        -0.16185E-11         0.00000E+00
    0.94571E-08        -0.16448E-11         0.00000E+00
    0.96143E-08        -0.16670E-11         0.00000E+00
    0.97706E-08        -0.16847E-11         0.00000E+00
    0.99259E-08        -0.16975E-11         0.00000E+00
    0.10080E-07        -0.17048E-11         0.00000E+00
    0.10232E-07        -0.17061E-11         0.00000E+00
    0.10383E-07        -0.17006E-11         0.00000E+00
    0.10532E-07        -0.16879E-11         0.00000E+00
    0.10678E-07        -0.16671E-11         0.00000E+00
    0.10822E-07        -0.16374E-11         0.00000E+00
    0.10963E-07        -0.15979E-11         0.00000E+00
    0.11101E-07        -0.15477E-11         0.00000E+00
    0.11236E-07        -0.14857E-11         0.00000E+00
    0.11367E-07        -0.14105E-11         0.00000E+00
    0.11494E-07        -0.13207E-11         0.00000E+00
    0.11617E-07        -0.12149E-11         0.00000E+00
    0.11735E-07        -0.10912E-11         0.00000E+00
    0.11849E-07        -0.94778E-12         0.00000E+00
    0.11958E-07        -0.78270E-12         0.00000E+00
    0.12062E-07        -0.59398E-12         0.00000E+00
    0.12160E-07        -0.37978E-12         0.00000E+00
    0.12252E-07        -0.13866E-12         0.00000E+00
    0.12338E-07         0.13007E-12         0.00000E+00
    0.12418E-07         0.42583E-12         0.00000E+00
    0.12492E-07         0.74597E-12         0.00000E+00
    0.12559E-07         0.10847E-11         0.00000E+00
    0.12619E-07         0.14318E-11         0.00000E+00
    0.12672E-07         0.17701E-11         0.00000E+00
    0.12718E-07         0.20739E-11         0.00000E+00
    0.12756E-07         0.23049E-11         0.00000E+00
    0.12788E-07         0.24098E-11         0.00000E+00
    0.12811E-07         0.23182E-11         0.00000E+00
    0.12827E-07         0.19447E-11         0.00000E+00
    0.12836E-07         0.11983E-11         0.00000E+00
    0.12839E-07         0.00000E+00         0.00000E+00
    0.32163E-08         0.00000E+00         0.00000E+00
    0.32171E-08         0.63346E-12         0.00000E+00
    0.32202E-08         0.10487E-11         0.00000E+00
    0.32264E-08         0.12871E-11         0.00000E+00
    0.32357E-08         0.13928E-11         0.00000E+00
    0.32482E-08         0.14060E-11         0.00000E+00
    0.32639E-08         0.13592E-11         0.00000E+00
    0.32827E-08         0.12766E-11         0.00000E+00
    0.33046E-08         0.11750E-11         0.00000E+00
    0.33298E-08         0.10660E-11         0.00000E+00
    0.33581E-08         0.95696E-12         0.00000E+00
    0.33896E-08         0.85232E-12         0.00000E+00
    0.34242E-08         0.75448E-12         0.00000E+00
    0.34620E-08         0.66451E-12         0.00000E+00
    0.35030E-08         0.58257E-12         0.00000E+00
    0.35471E-08         0.50831E-12         0.00000E+00
    0.35944E-08         0.44107E-12         0.00000E+00
    0.36448E-08         0.38005E-12         0.00000E+00
    0.36984E-08         0.32440E-12         0.00000E+00
    0.37551E-08         0.27331E-12         0.00000E+00
    0.38150E-08         0.22601E-12         0.00000E+00
    0.38780E-08         0.18182E-12         0.00000E+00
    0.39441E-08         0.14014E-12         0.00000E+00
    0.40133E-08         0.10045E-12         0.00000E+00
    0.40856E-08         0.62284E-13         0.00000E+00
    0.41610E-08         0.25277E-13         0.00000E+00
    0.42395E-08        -0.10899E-13         0.00000E+00
    0.43211E-08        -0.46521E-13         0.00000E+00
    0.44058E-08        -0.81820E-13         0.00000E+00
    0.44935E-08        -0.11700E-12         0.00000E+00
    0.45842E-08        -0.15222E-12         0.00000E+00
    0.46780E-08        -0.18763E-12         0.00000E+00
    0.47747E-08        -0.22336E-12         0.00000E+00
    0.48744E-08        -0.25951E-12         0.00000E+00
    0.49771E-08        -0.29617E-12         0.00000E+00
    0.50827E-08        -0.33343E-12         0.00000E+00
    0.51912E-08        -0.37134E-12         0.00000E+00
    0.53025E-08        -0.40996E-12         0.00000E+00
    0.54167E-08        -0.44933E-12         0.00000E+00
    0.55336E-08        -0.48948E-12         0.00000E+00
    0.56532E-08        -0.53044E-12         0.00000E+00
    0.57756E-08        -0.57221E-12         0.00000E+00
    0.59005E-08        -0.61479E-12         0.00000E+00
    0.60281E-08        -0.65818E-12         0.00000E+00
    0.61581E-08        -0.70234E-12         0.00000E+00
    0.62906E-08        -0.74725E-12         0.00000E+00
    0.64255E-08        -0.79285E-12         0.00000E+00
    0.65626E-08        -0.83909E-12         0.00000E+00
    0.67020E-08        -0.88589E-12         0.00000E+00
    0.68435E-08        -0.93317E-12         0.00000E+00
    0.69870E-08        -0.98083E-12         0.00000E+00
    0.71324E-08        -0.10288E-11         0.00000E+00
    0.72797E-08        -0.10768E-11         0.00000E+00
    0.74287E-08        -0.11249E-11         0.00000E+00
    0.75792E-08        -0.11727E-11         0.00000E+00
    0.77313E-08        -0.12203E-11         0.00000E+00
    0.78846E-08        -0.12673E-11         0.00000E+00
    0.80392E-08        -0.13135E-11         0.00000E+00
    0.81948E-08        -0.13587E-11         0.00000E+00
    0.83513E-08        -0.14027E-11         0.00000E+00
    0.85085E-08        -0.14452E-11         0.00000E+00
    0.86663E-08        -0.14859E-11         0.00000E+00
    0.88244E-08        -0.15245E-11         0.00000E+00
    0.89828E-08        -0.15606E-11         0.00000E+00
    0.91412E-08        -0.15940E-11         0.00000E+00
    0.92993E-08        -0.16242E-11         0.00000E+00
    0.94571E-08        -0.16507E-11         0.00000E+00
    0.96143E-08        -0.16733E-11         0.00000E+00
    0.97706E-08        -0.16914E-11         0.00000E+00
    0.99259E-08        -0.17046E-11         0.00000E+00
    0.10080E-07        -0.17123E-11         0.00000E+00
    0.10232E-07        -0.17139E-11         0.00000E+00
    0.10383E-07        -0.17089E-11         0.00000E+00
    0.10532E-07        -0.16965E-11         0.00000E+00
    0.10678E-07        -0.16761E-11         0.00000E+00
    0.10822E-07        -0.16469E-11         0.00000E+00
    0.10963E-07        -0.16078E-11         0.00000E+00
    0.11101E-07        -0.15580E-11         0.00000E+00
    0.11236E-07        -0.14963E-11         0.00000E+00
    0.11367E-07        -0.14215E-11         0.00000E+00
    0.11494E-07        -0.13320E-11         0.00000E+00
    0.11617E-07        -0.12264E-11         0.00000E+00
    0.11735E-07        -0.11028E-11         0.00000E+00
    0.11849E-07        -0.95937E-12         0.00000E+00
    0.11958E-07        -0.79408E-12         0.00000E+00
    0.12062E-07        -0.60492E-12         0.00000E+00
    0.12160E-07        -0.38998E-12         0.00000E+00
    0.12252E-07        -0.14776E-12         0.00000E+00
    0.12338E-07         0.12249E-12         0.00000E+00
    0.12418E-07         0.42027E-12         0.00000E+00
    0.12492E-07         0.74299E-12         0.00000E+00
    0.12559E-07         0.10849E-11         0.00000E+00
    0.12619E-07         0.14357E-11         0.00000E+00
    0.12672E-07         0.17784E-11         0.00000E+00
    0.12718E-07         0.20868E-11         0.00000E+00
    0.12756E-07         0.23225E-11         0.00000E+00
    0.12788E-07         0.24314E-11         0.00000E+00
    0.12811E-07         0.23420E-11         0.00000E+00
    0.12827E-07         0.19671E-11         0.00000E+00
    0.12836E-07         0.12134E-11         0.00000E+00
    0.12838E-07         0.00000E+00         0.00000E+00
    0.32165E-08         0.00000E+00         0.00000E+00
    0.32172E-08         0.63840E-12         0.00000E+00
    0.32203E-08         0.10554E-11         0.00000E+00
    0.32264E-08         0.12934E-11         0.00000E+00
    0.32358E-08         0.13977E-11         0.00000E+00
    0.32482E-08         0.14092E-11         0.00000E+00
    0.32639E-08         0.13607E-11         0.00000E+00
    0.32827E-08         0.12765E-11         0.00000E+00
    0.33046E-08         0.11736E-11         0.00000E+00
    0.33298E-08         0.10637E-11         0.00000E+00
    0.33581E-08         0.95394E-12         0.00000E+00
    0.33896E-08         0.84882E-12         0.00000E+00
    0.34242E-08         0.75070E-12         0.00000E+00
    0.34620E-08         0.66061E-12         0.00000E+00
    0.35030E-08         0.57868E-12         0.00000E+00
    0.35471E-08         0.50453E-12         0.00000E+00
    0.35944E-08         0.43747E-12         0.00000E+00
    0.36448E-08         0.37668E-12         0.00000E+00
    0.36984E-08         0.32130E-12         0.00000E+00
    0.37551E-08         0.27049E-12         0.00000E+00
    0.38150E-08         0.22348E-12         0.00000E+00
    0.38780E-08         0.17959E-12         0.00000E+00
    0.39441E-08         0.13819E-12         0.00000E+00
    0.40133E-08         0.98770E-13         0.00000E+00
    0.40856E-08         0.60872E-13         0.00000E+00
    0.41610E-08         0.24113E-13         0.00000E+00
    0.42395E-08        -0.11831E-13         0.00000E+00
    0.43211E-08        -0.47234E-13         0.00000E+00
    0.44058E-08        -0.82331E-13         0.00000E+00
    0.44935E-08        -0.11732E-12         0.00000E+00
    0.45842E-08        -0.15237E-12         0.00000E+00
    0.46780E-08        -0.18762E-12         0.00000E+00
    0.47747E-08        -0.22320E-12         0.00000E+00
    0.48744E-08        -0.25921E-12         0.00000E+00
    0.49771E-08        -0.29574E-12         0.00000E+00
    0.50827E-08        -0.33288E-12         0.00000E+00
    0.51912E-08        -0.37068E-12         0.00000E+00
    0.53025E-08        -0.40920E-12         0.00000E+00
    0.54167E-08        -0.44848E-12         0.00000E+00
    0.55336E-08        -0.48855E-12         0.00000E+00
    0.56532E-08        -0.52944E-12         0.00000E+00
    0.57756E-08        -0.57114E-12         0.00000E+00
    0.59005E-08        -0.61367E-12         0.00000E+00
    0.60281E-08        -0.65700E-12         0.00000E+00
    0.61581E-08        -0.70112E-12         0.00000E+00
    0.62906E-08        -0.74599E-12         0.00000E+00
    0.64255E-08        -0.79157E-12         0.00000E+00
    0.65626E-08        -0.83779E-12         0.00000E+00
    0.67020E-08        -0.88459E-12         0.00000E+00
    0.68435E-08        -0.93187E-12         0.00000E+00
    0.69870E-08        -0.97954E-12         0.00000E+00
    0.71324E-08        -0.10275E-11         0.00000E+00
    0.72797E-08        -0.10756E-11         0.00000E+00
    0.74287E-08        -0.11237E-11         0.00000E+00
    0.75792E-08        -0.11716E-11         0.00000E+00
    0.77313E-08        -0.12192E-11         0.00000E+00
    0.78846E-08        -0.12663E-11         0.00000E+00
    0.80392E-08        -0.13126E-11         0.00000E+00
    0.81948E-08        -0.13579E-11         0.00000E+00
    0.83513E-08        -0.14021E-11         0.00000E+00
    0.85085E-08        -0.14447E-11         0.00000E+00
    0.86663E-08        -0.14856E-11         0.00000E+00
    0.88244E-08        -0.15243E-11         0.00000E+00
    0.89828E-08        -0.15607E-11         0.00000E+00
    0.91411E-08        -0.15942E-11         0.00000E+00
    0.92993E-08        -0.16246E-11         0.00000E+00
    0.94571E-08        -0.16515E-11         0.00000E+00
    0.96143E-08        -0.16743E-11         0.00000E+00
    0.97706E-08        -0.16928E-11         0.00000E+00
    0.99259E-08        -0.17063E-11         0.00000E+00
    0.10080E-07        -0.17143E-11         0.00000E+00
    0.10232E-07        -0.17163E-11         0.00000E+00
    0.10383E-07        -0.17117E-11         0.00000E+00
    0.10532E-07        -0.16998E-11         0.00000E+00
    0.10678E-07        -0.16799E-11         0.00000E+00
    0.10822E-07        -0.16512E-11         0.00000E+00
    0.10963E-07        -0.16127E-11         0.00000E+00
    0.11101E-07        -0.15634E-11         0.00000E+00
    0.11236E-07        -0.15023E-11         0.00000E+00
    0.11367E-07        -0.14281E-11         0.00000E+00
    0.11494E-07        -0.13392E-11         0.00000E+00
    0.11617E-07        -0.12342E-11         0.00000E+00
    0.11735E-07        -0.11111E-11         0.00000E+00
    0.11849E-07        -0.96815E-12         0.00000E+00
    0.11958E-07        -0.80322E-12         0.00000E+00
    0.12062E-07        -0.61425E-12         0.00000E+00
    0.12160E-07        -0.39931E-12         0.00000E+00
    0.12252E-07        -0.15682E-12         0.00000E+00
    0.12338E-07         0.11406E-12         0.00000E+00
    0.12419E-07         0.41289E-12         0.00000E+00
    0.12492E-07         0.73715E-12         0.00000E+00
    0.12559E-07         0.10812E-11         0.00000E+00
    0.12619E-07         0.14348E-11         0.00000E+00
    0.12672E-07         0.17809E-11         0.00000E+00
    0.12718E-07         0.20933E-11         0.00000E+00
    0.12756E-07         0.23334E-11         0.00000E+00
    0.12788E-07         0.24466E-11         0.00000E+00
    0.12811E-07         0.23604E-11         0.00000E+00
    0.12827E-07         0.19859E-11         0.00000E+00
    0.12836E-07         0.12271E-11         0.00000E+00
    0.12838E-07         0.00000E+00         0.00000E+00
    0.32166E-08         0.00000E+00         0.00000E+00
    0.32173E-08         0.64232E-12         0.00000E+00
    0.32203E-08         0.10599E-11         0.00000E+00
    0.32265E-08         0.12965E-11         0.00000E+00
    0.32358E-08         0.13987E-11         0.00000E+00
    0.32482E-08         0.14081E-11         0.00000E+00
    0.32638E-08         0.13578E-11         0.00000E+00
    0.32826E-08         0.12722E-11         0.00000E+00
    0.33046E-08         0.11684E-11         0.00000E+00
    0.33297E-08         0.10578E-11         0.00000E+00
    0.33581E-08         0.94770E-12         0.00000E+00
    0.33895E-08         0.84244E-12         0.00000E+00
    0.34242E-08         0.74437E-12         0.00000E+00
    0.34620E-08         0.65446E-12         0.00000E+00
    0.35030E-08         0.57282E-12         0.00000E+00
    0.35471E-08         0.49903E-12         0.00000E+00
    0.35944E-08         0.43238E-12         0.00000E+00
    0.36448E-08         0.37204E-12         0.00000E+00
    0.36984E-08         0.31711E-12         0.00000E+00
    0.37551E-08         0.26676E-12         0.00000E+00
    0.38150E-08         0.22021E-12         0.00000E+00
    0.38779E-08         0.17675E-12         0.00000E+00
    0.39440E-08         0.13578E-12         0.00000E+00
    0.40133E-08         0.96764E-13         0.00000E+00
    0.40856E-08         0.59253E-13         0.00000E+00
    0.41610E-08         0.22862E-13         0.00000E+00
    0.42395E-08        -0.12731E-13         0.00000E+00
    0.43211E-08        -0.47802E-13         0.00000E+00
    0.44058E-08        -0.82583E-13         0.00000E+00
    0.44935E-08        -0.11727E-12         0.00000E+00
    0.45842E-08        -0.15203E-12         0.00000E+00
    0.46780E-08        -0.18700E-12         0.00000E+00
    0.47747E-08        -0.22232E-12         0.00000E+00
    0.48744E-08        -0.25808E-12         0.00000E+00
    0.49771E-08        -0.29437E-12         0.00000E+00
    0.50827E-08        -0.33127E-12         0.00000E+00
    0.51912E-08        -0.36884E-12         0.00000E+00
    0.53025E-08        -0.40713E-12         0.00000E+00
    0.54166E-08        -0.44620E-12         0.00000E+00
    0.55336E-08        -0.48606E-12         0.00000E+00
    0.56532E-08        -0.52673E-12         0.00000E+00
    0.57756E-08        -0.56824E-12         0.00000E+00
    0.59005E-08        -0.61057E-12         0.00000E+00
    0.60281E-08        -0.65371E-12         0.00000E+00
    0.61581E-08        -0.69765E-12         0.00000E+00
    0.62906E-08        -0.74234E-12         0.00000E+00
    0.64255E-08        -0.78775E-12         0.00000E+00
    0.65626E-08        -0.83381E-12         0.00000E+00
    0.67020E-08        -0.88044E-12         0.00000E+00
    0.68435E-08        -0.92758E-12         0.00000E+00
    0.69870E-08        -0.97511E-12         0.00000E+00
    0.71324E-08        -0.10229E-11         0.00000E+00
    0.72797E-08        -0.10709E-11         0.00000E+00
    0.74287E-08        -0.11189E-11         0.00000E+00
    0.75792E-08        -0.11667E-11         0.00000E+00
    0.77312E-08        -0.12142E-11         0.00000E+00
    0.78846E-08        -0.12612E-11         0.00000E+00
    0.80392E-08        -0.13075E-11         0.00000E+00
    0.81948E-08        -0.13528E-11         0.00000E+00
    0.83513E-08        -0.13969E-11         0.00000E+00
    0.85085E-08        -0.14396E-11         0.00000E+00
    0.86662E-08        -0.14804E-11         0.00000E+00
    0.88244E-08        -0.15193E-11         0.00000E+00
    0.89828E-08        -0.15557E-11         0.00000E+00
    0.91411E-08        -0.15893E-11         0.00000E+00
    0.92993E-08        -0.16199E-11         0.00000E+00
    0.94571E-08        -0.16469E-11         0.00000E+00
    0.96143E-08        -0.16700E-11         0.00000E+00
    0.97706E-08        -0.16887E-11         0.00000E+00
    0.99259E-08        -0.17025E-11         0.00000E+00
    0.10080E-07        -0.17109E-11         0.00000E+00
    0.10232E-07        -0.17133E-11         0.00000E+00
    0.10383E-07        -0.17091E-11         0.00000E+00
    0.10532E-07        -0.16977E-11         0.00000E+00
    0.10678E-07        -0.16784E-11         0.00000E+00
    0.10822E-07        -0.16502E-11         0.00000E+00
    0.10963E-07        -0.16124E-11         0.00000E+00
    0.11101E-07        -0.15639E-11         0.00000E+00
    0.11236E-07        -0.15036E-11         0.00000E+00
    0.11367E-07        -0.14302E-11         0.00000E+00
    0.11494E-07        -0.13422E-11         0.00000E+00
    0.11617E-07        -0.12381E-11         0.00000E+00
    0.11736E-07        -0.11160E-11         0.00000E+00
    0.11849E-07        -0.97401E-12         0.00000E+00
    0.11958E-07        -0.81001E-12         0.00000E+00
    0.12062E-07        -0.62189E-12         0.00000E+00
    0.12160E-07        -0.40768E-12         0.00000E+00
    0.12252E-07        -0.16573E-12         0.00000E+00
    0.12338E-07         0.10485E-12         0.00000E+00
    0.12419E-07         0.40372E-12         0.00000E+00
    0.12492E-07         0.72846E-12         0.00000E+00
    0.12559E-07         0.10735E-11         0.00000E+00
    0.12619E-07         0.14288E-11         0.00000E+00
    0.12672E-07         0.17773E-11         0.00000E+00
    0.12718E-07         0.20931E-11         0.00000E+00
    0.12756E-07         0.23373E-11         0.00000E+00
    0.12788E-07         0.24552E-11         0.00000E+00
    0.12811E-07         0.23734E-11         0.00000E+00
    0.12827E-07         0.20010E-11         0.00000E+00
    0.12836E-07         0.12391E-11         0.00000E+00
    0.12838E-07         0.00000E+00         0.00000E+00
    0.32167E-08         0.00000E+00         0.00000E+00
    0.32174E-08         0.64518E-12         0.00000E+00
    0.32204E-08         0.10621E-11         0.00000E+00
    0.32265E-08         0.12963E-11         0.00000E+00
    0.32358E-08         0.13957E-11         0.00000E+00
    0.32482E-08         0.14027E-11         0.00000E+00
    0.32638E-08         0.13506E-11         0.00000E+00
    0.32826E-08         0.12638E-11         0.00000E+00
    0.33046E-08         0.11593E-11         0.00000E+00
    0.33297E-08         0.10483E-11         0.00000E+00
    0.33580E-08         0.93823E-12         0.00000E+00
    0.33895E-08         0.83319E-12         0.00000E+00
    0.34242E-08         0.73550E-12         0.00000E+00
    0.34620E-08         0.64608E-12         0.00000E+00
    0.35030E-08         0.56502E-12         0.00000E+00
    0.35471E-08         0.49185E-12         0.00000E+00
    0.35944E-08         0.42585E-12         0.00000E+00
    0.36448E-08         0.36615E-12         0.00000E+00
    0.36984E-08         0.31187E-12         0.00000E+00
    0.37551E-08         0.26215E-12         0.00000E+00
    0.38150E-08         0.21621E-12         0.00000E+00
    0.38779E-08         0.17333E-12         0.00000E+00
    0.39440E-08         0.13292E-12         0.00000E+00
    0.40133E-08         0.94441E-13         0.00000E+00
    0.40856E-08         0.57440E-13         0.00000E+00
    0.41610E-08         0.21537E-13         0.00000E+00
    0.42395E-08        -0.13591E-13         0.00000E+00
    0.43211E-08        -0.48216E-13         0.00000E+00
    0.44057E-08        -0.82568E-13         0.00000E+00
    0.44935E-08        -0.11684E-12         0.00000E+00
    0.45842E-08        -0.15120E-12         0.00000E+00
    0.46779E-08        -0.18579E-12         0.00000E+00
    0.47747E-08        -0.22072E-12         0.00000E+00
    0.48744E-08        -0.25611E-12         0.00000E+00
    0.49771E-08        -0.29204E-12         0.00000E+00
    0.50827E-08        -0.32858E-12         0.00000E+00
    0.51912E-08        -0.36580E-12         0.00000E+00
    0.53025E-08        -0.40375E-12         0.00000E+00
    0.54166E-08        -0.44247E-12         0.00000E+00
    0.55336E-08        -0.48199E-12         0.00000E+00
    0.56532E-08        -0.52233E-12         0.00000E+00
    0.57756E-08        -0.56350E-12         0.00000E+00
    0.59005E-08        -0.60550E-12         0.00000E+00
    0.60281E-08        -0.64832E-12         0.00000E+00
    0.61581E-08        -0.69193E-12         0.00000E+00
    0.62906E-08        -0.73630E-12         0.00000E+00
    0.64254E-08        -0.78139E-12         0.00000E+00
    0.65626E-08        -0.82713E-12         0.00000E+00
    0.67020E-08        -0.87346E-12         0.00000E+00
    0.68434E-08        -0.92029E-12         0.00000E+00
    0.69870E-08        -0.96753E-12         0.00000E+00
    0.71324E-08        -0.10151E-11         0.00000E+00
    0.72797E-08        -0.10628E-11         0.00000E+00
    0.74286E-08        -0.11105E-11         0.00000E+00
    0.75792E-08        -0.11581E-11         0.00000E+00
    0.77312E-08        -0.12053E-11         0.00000E+00
    0.78846E-08        -0.12521E-11         0.00000E+00
    0.80392E-08        -0.12982E-11         0.00000E+00
    0.81948E-08        -0.13433E-11         0.00000E+00
    0.83512E-08        -0.13873E-11         0.00000E+00
    0.85085E-08        -0.14298E-11         0.00000E+00
    0.86662E-08        -0.14706E-11         0.00000E+00
    0.88244E-08        -0.15093E-11         0.00000E+00
    0.89828E-08        -0.15457E-11         0.00000E+00
    0.91411E-08        -0.15793E-11         0.00000E+00
    0.92993E-08        -0.16099E-11         0.00000E+00
    0.94571E-08        -0.16371E-11         0.00000E+00
    0.96143E-08        -0.16603E-11         0.00000E+00
    0.97706E-08        -0.16791E-11         0.00000E+00
    0.99259E-08        -0.16932E-11         0.00000E+00
    0.10080E-07        -0.17019E-11         0.00000E+00
    0.10232E-07        -0.17047E-11         0.00000E+00
    0.10383E-07        -0.17010E-11         0.00000E+00
    0.10532E-07        -0.16901E-11         0.00000E+00
    0.10678E-07        -0.16714E-11         0.00000E+00
    0.10822E-07        -0.16439E-11         0.00000E+00
    0.10963E-07        -0.16069E-11         0.00000E+00
    0.11101E-07        -0.15593E-11         0.00000E+00
    0.11236E-07        -0.15000E-11         0.00000E+00
    0.11367E-07        -0.14277E-11         0.00000E+00
    0.11494E-07        -0.13410E-11         0.00000E+00
    0.11617E-07        -0.12381E-11         0.00000E+00
    0.11736E-07        -0.11174E-11         0.00000E+00
    0.11849E-07        -0.97686E-12         0.00000E+00
    0.11958E-07        -0.81434E-12         0.00000E+00
    0.12062E-07        -0.62773E-12         0.00000E+00
    0.12160E-07        -0.41499E-12         0.00000E+00
    0.12252E-07        -0.17442E-12         0.00000E+00
    0.12339E-07         0.94938E-13         0.00000E+00
    0.12419E-07         0.39283E-12         0.00000E+00
    0.12492E-07         0.71697E-12         0.00000E+00
    0.12559E-07         0.10620E-11         0.00000E+00
    0.12619E-07         0.14178E-11         0.00000E+00
    0.12672E-07         0.17678E-11         0.00000E+00
    0.12718E-07         0.20861E-11         0.00000E+00
    0.12757E-07         0.23341E-11         0.00000E+00
    0.12788E-07         0.24570E-11         0.00000E+00
    0.12811E-07         0.23807E-11         0.00000E+00
    0.12827E-07         0.20123E-11         0.00000E+00
    0.12835E-07         0.12494E-11         0.00000E+00
    0.12838E-07         0.00000E+00         0.00000E+00
    0.32168E-08         0.00000E+00         0.00000E+00
    0.32175E-08         0.64693E-12         0.00000E+00
    0.32205E-08         0.10619E-11         0.00000E+00
    0.32265E-08         0.12927E-11         0.00000E+00
    0.32358E-08         0.13886E-11         0.00000E+00
    0.32482E-08         0.13929E-11         0.00000E+00
    0.32638E-08         0.13390E-11         0.00000E+00
    0.32826E-08         0.12512E-11         0.00000E+00
    0.33046E-08         0.11462E-11         0.00000E+00
    0.33297E-08         0.10353E-11         0.00000E+00
    0.33580E-08         0.92555E-12         0.00000E+00
    0.33895E-08         0.82109E-12         0.00000E+00
    0.34242E-08         0.72412E-12         0.00000E+00
    0.34620E-08         0.63552E-12         0.00000E+00
    0.35029E-08         0.55531E-12         0.00000E+00
    0.35471E-08         0.48302E-12         0.00000E+00
    0.35944E-08         0.41789E-12         0.00000E+00
    0.36448E-08         0.35905E-12         0.00000E+00
    0.36984E-08         0.30560E-12         0.00000E+00
    0.37551E-08         0.25668E-12         0.00000E+00
    0.38149E-08         0.21150E-12         0.00000E+00
    0.38779E-08         0.16936E-12         0.00000E+00
    0.39440E-08         0.12964E-12         0.00000E+00
    0.40132E-08         0.91818E-13         0.00000E+00
    0.40856E-08         0.55448E-13         0.00000E+00
    0.41610E-08         0.20148E-13         0.00000E+00
    0.42395E-08        -0.14400E-13         0.00000E+00
    0.43211E-08        -0.48467E-13         0.00000E+00
    0.44057E-08        -0.82279E-13         0.00000E+00
    0.44934E-08        -0.11603E-12         0.00000E+00
    0.45842E-08        -0.14988E-12         0.00000E+00
    0.46779E-08        -0.18397E-12         0.00000E+00
    0.47747E-08        -0.21841E-12         0.00000E+00
    0.48744E-08        -0.25331E-12         0.00000E+00
    0.49771E-08        -0.28876E-12         0.00000E+00
    0.50827E-08        -0.32483E-12         0.00000E+00
    0.51911E-08        -0.36158E-12         0.00000E+00
    0.53025E-08        -0.39906E-12         0.00000E+00
    0.54166E-08        -0.43731E-12         0.00000E+00
    0.55336E-08        -0.47636E-12         0.00000E+00
    0.56532E-08        -0.51624E-12         0.00000E+00
    0.57755E-08        -0.55694E-12         0.00000E+00
    0.59005E-08        -0.59847E-12         0.00000E+00
    0.60280E-08        -0.64082E-12         0.00000E+00
    0.61581E-08        -0.68396E-12         0.00000E+00
    0.62906E-08        -0.72787E-12         0.00000E+00
    0.64254E-08        -0.77249E-12         0.00000E+00
    0.65626E-08        -0.81777E-12         0.00000E+00
    0.67020E-08        -0.86364E-12         0.00000E+00
    0.68434E-08        -0.91002E-12         0.00000E+00
    0.69870E-08        -0.95680E-12         0.00000E+00
    0.71324E-08        -0.10039E-11         0.00000E+00
    0.72797E-08        -0.10512E-11         0.00000E+00
    0.74286E-08        -0.10985E-11         0.00000E+00
    0.75792E-08        -0.11456E-11         0.00000E+00
    0.77312E-08        -0.11925E-11         0.00000E+00
    0.78846E-08        -0.12389E-11         0.00000E+00
    0.80391E-08        -0.12846E-11         0.00000E+00
    0.81947E-08        -0.13294E-11         0.00000E+00
    0.83512E-08        -0.13731E-11         0.00000E+00
    0.85085E-08        -0.14153E-11         0.00000E+00
    0.86662E-08        -0.14559E-11         0.00000E+00
    0.88244E-08        -0.14944E-11         0.00000E+00
    0.89828E-08        -0.15306E-11         0.00000E+00
    0.91411E-08        -0.15642E-11         0.00000E+00
    0.92993E-08        -0.15947E-11         0.00000E+00
    0.94571E-08        -0.16218E-11         0.00000E+00
    0.96143E-08        -0.16451E-11         0.00000E+00
    0.97706E-08        -0.16641E-11         0.00000E+00
    0.99259E-08        -0.16784E-11         0.00000E+00
    0.10080E-07        -0.16873E-11         0.00000E+00
    0.10232E-07        -0.16905E-11         0.00000E+00
    0.10383E-07        -0.16873E-11         0.00000E+00
    0.10532E-07        -0.16770E-11         0.00000E+00
    0.10678E-07        -0.16589E-11         0.00000E+00
    0.10822E-07        -0.16323E-11         0.00000E+00
    0.10963E-07        -0.15962E-11         0.00000E+00
    0.11101E-07        -0.15497E-11         0.00000E+00
    0.11236E-07        -0.14916E-11         0.00000E+00
    0.11367E-07        -0.14206E-11         0.00000E+00
    0.11494E-07        -0.13353E-11         0.00000E+00
    0.11617E-07        -0.12341E-11         0.00000E+00
    0.11736E-07        -0.11152E-11         0.00000E+00
    0.11849E-07        -0.97658E-12         0.00000E+00
    0.11958E-07        -0.81612E-12         0.00000E+00
    0.12062E-07        -0.63165E-12         0.00000E+00
    0.12160E-07        -0.42113E-12         0.00000E+00
    0.12252E-07        -0.18279E-12         0.00000E+00
    0.12339E-07         0.84411E-13         0.00000E+00
    0.12419E-07         0.38030E-12         0.00000E+00
    0.12492E-07         0.70273E-12         0.00000E+00
    0.12559E-07         0.10465E-11         0.00000E+00
    0.12619E-07         0.14017E-11         0.00000E+00
    0.12672E-07         0.17522E-11         0.00000E+00
    0.12718E-07         0.20722E-11         0.00000E+00
    0.12757E-07         0.23236E-11         0.00000E+00
    0.12788E-07         0.24518E-11         0.00000E+00
    0.12811E-07         0.23819E-11         0.00000E+00
    0.12827E-07         0.20195E-11         0.00000E+00
    0.12835E-07         0.12579E-11         0.00000E+00
    0.12837E-07         0.00000E+00         0.00000E+00
    0.32170E-08         0.00000E+00         0.00000E+00
    0.32176E-08         0.64751E-12         0.00000E+00
    0.32205E-08         0.10593E-11         0.00000E+00
    0.32266E-08         0.12855E-11         0.00000E+00
    0.32358E-08         0.13774E-11         0.00000E+00
    0.32482E-08         0.13787E-11         0.00000E+00
    0.32638E-08         0.13230E-11         0.00000E+00
    0.32826E-08         0.12343E-11         0.00000E+00
    0.33045E-08         0.11292E-11         0.00000E+00
    0.33297E-08         0.10187E-11         0.00000E+00
    0.33580E-08         0.90970E-12         0.00000E+00
    0.33895E-08         0.80617E-12         0.00000E+00
    0.34241E-08         0.71027E-12         0.00000E+00
    0.34620E-08         0.62279E-12         0.00000E+00
    0.35029E-08         0.54373E-12         0.00000E+00
    0.35471E-08         0.47258E-12         0.00000E+00
    0.35944E-08         0.40855E-12         0.00000E+00
    0.36448E-08         0.35077E-12         0.00000E+00
    0.36984E-08         0.29834E-12         0.00000E+00
    0.37551E-08         0.25038E-12         0.00000E+00
    0.38149E-08         0.20611E-12         0.00000E+00
    0.38779E-08         0.16484E-12         0.00000E+00
    0.39440E-08         0.12595E-12         0.00000E+00
    0.40132E-08         0.88911E-13         0.00000E+00
    0.40856E-08         0.53290E-13         0.00000E+00
    0.41610E-08         0.18709E-13         0.00000E+00
    0.42395E-08        -0.15149E-13         0.00000E+00
    0.43211E-08        -0.48548E-13         0.00000E+00
    0.44057E-08        -0.81711E-13         0.00000E+00
    0.44934E-08        -0.11483E-12         0.00000E+00
    0.45842E-08        -0.14806E-12         0.00000E+00
    0.46779E-08        -0.18153E-12         0.00000E+00
    0.47747E-08        -0.21538E-12         0.00000E+00
    0.48744E-08        -0.24968E-12         0.00000E+00
    0.49771E-08        -0.28454E-12         0.00000E+00
    0.50827E-08        -0.32001E-12         0.00000E+00
    0.51911E-08        -0.35617E-12         0.00000E+00
    0.53025E-08        -0.39306E-12         0.00000E+00
    0.54166E-08        -0.43072E-12         0.00000E+00
    0.55335E-08        -0.46917E-12         0.00000E+00
    0.56532E-08        -0.50844E-12         0.00000E+00
    0.57755E-08        -0.54854E-12         0.00000E+00
    0.59005E-08        -0.58947E-12         0.00000E+00
    0.60280E-08        -0.63121E-12         0.00000E+00
    0.61581E-08        -0.67375E-12         0.00000E+00
    0.62906E-08        -0.71704E-12         0.00000E+00
    0.64254E-08        -0.76105E-12         0.00000E+00
    0.65626E-08        -0.80572E-12         0.00000E+00
    0.67019E-08        -0.85098E-12         0.00000E+00
    0.68434E-08        -0.89674E-12         0.00000E+00
    0.69869E-08        -0.94293E-12         0.00000E+00
    0.71324E-08        -0.98942E-12         0.00000E+00
    0.72797E-08        -0.10361E-11         0.00000E+00
    0.74286E-08        -0.10828E-11         0.00000E+00
    0.75792E-08        -0.11294E-11         0.00000E+00
    0.77312E-08        -0.11758E-11         0.00000E+00
    0.78846E-08        -0.12216E-11         0.00000E+00
    0.80391E-08        -0.12668E-11         0.00000E+00
    0.81947E-08        -0.13112E-11         0.00000E+00
    0.83512E-08        -0.13544E-11         0.00000E+00
    0.85084E-08        -0.13962E-11         0.00000E+00
    0.86662E-08        -0.14364E-11         0.00000E+00
    0.88244E-08        -0.14746E-11         0.00000E+00
    0.89827E-08        -0.15105E-11         0.00000E+00
    0.91411E-08        -0.15438E-11         0.00000E+00
    0.92993E-08        -0.15742E-11         0.00000E+00
    0.94571E-08        -0.16012E-11         0.00000E+00
    0.96143E-08        -0.16245E-11         0.00000E+00
    0.97706E-08        -0.16436E-11         0.00000E+00
    0.99259E-08        -0.16580E-11         0.00000E+00
    0.10080E-07        -0.16672E-11         0.00000E+00
    0.10232E-07        -0.16707E-11         0.00000E+00
    0.10383E-07        -0.16680E-11         0.00000E+00
    0.10532E-07        -0.16583E-11         0.00000E+00
    0.10678E-07        -0.16409E-11         0.00000E+00
    0.10822E-07        -0.16152E-11         0.00000E+00
    0.10963E-07        -0.15801E-11         0.00000E+00
    0.11101E-07        -0.15348E-11         0.00000E+00
    0.11236E-07        -0.14781E-11         0.00000E+00
    0.11367E-07        -0.14087E-11         0.00000E+00
    0.11494E-07        -0.13252E-11         0.00000E+00
    0.11617E-07        -0.12260E-11         0.00000E+00
    0.11736E-07        -0.11093E-11         0.00000E+00
    0.11849E-07        -0.97306E-12         0.00000E+00
    0.11958E-07        -0.81521E-12         0.00000E+00
    0.12062E-07        -0.63355E-12         0.00000E+00
    0.12160E-07        -0.42598E-12         0.00000E+00
    0.12252E-07        -0.19072E-12         0.00000E+00
    0.12339E-07         0.73372E-13         0.00000E+00
    0.12419E-07         0.36622E-12         0.00000E+00
    0.12492E-07         0.68581E-12         0.00000E+00
    0.12559E-07         0.10271E-11         0.00000E+00
    0.12619E-07         0.13807E-11         0.00000E+00
    0.12672E-07         0.17304E-11         0.00000E+00
    0.12718E-07         0.20513E-11         0.00000E+00
    0.12757E-07         0.23057E-11         0.00000E+00
    0.12788E-07         0.24392E-11         0.00000E+00
    0.12811E-07         0.23769E-11         0.00000E+00
    0.12827E-07         0.20223E-11         0.00000E+00
    0.12835E-07         0.12644E-11         0.00000E+00
    0.12837E-07         0.00000E+00         0.00000E+00
    0.32171E-08         0.00000E+00         0.00000E+00
    0.32177E-08         0.64686E-12         0.00000E+00
    0.32206E-08         0.10541E-11         0.00000E+00
    0.32266E-08         0.12747E-11         0.00000E+00
    0.32358E-08         0.13618E-11         0.00000E+00
    0.32482E-08         0.13599E-11         0.00000E+00
    0.32638E-08         0.13024E-11         0.00000E+00
    0.32826E-08         0.12132E-11         0.00000E+00
    0.33045E-08         0.11083E-11         0.00000E+00
    0.33297E-08         0.99860E-12         0.00000E+00
    0.33580E-08         0.89068E-12         0.00000E+00
    0.33895E-08         0.78847E-12         0.00000E+00
    0.34241E-08         0.69398E-12         0.00000E+00
    0.34619E-08         0.60795E-12         0.00000E+00
    0.35029E-08         0.53032E-12         0.00000E+00
    0.35471E-08         0.46055E-12         0.00000E+00
    0.35943E-08         0.39786E-12         0.00000E+00
    0.36448E-08         0.34134E-12         0.00000E+00
    0.36984E-08         0.29010E-12         0.00000E+00
    0.37551E-08         0.24328E-12         0.00000E+00
    0.38149E-08         0.20007E-12         0.00000E+00
    0.38779E-08         0.15981E-12         0.00000E+00
    0.39440E-08         0.12187E-12         0.00000E+00
    0.40132E-08         0.85737E-13         0.00000E+00
    0.40856E-08         0.50982E-13         0.00000E+00
    0.41610E-08         0.17231E-13         0.00000E+00
    0.42395E-08        -0.15826E-13         0.00000E+00
    0.43211E-08        -0.48448E-13         0.00000E+00
    0.44057E-08        -0.80855E-13         0.00000E+00
    0.44934E-08        -0.11323E-12         0.00000E+00
    0.45842E-08        -0.14573E-12         0.00000E+00
    0.46779E-08        -0.17849E-12         0.00000E+00
    0.47747E-08        -0.21162E-12         0.00000E+00
    0.48744E-08        -0.24521E-12         0.00000E+00
    0.49771E-08        -0.27936E-12         0.00000E+00
    0.50827E-08        -0.31413E-12         0.00000E+00
    0.51911E-08        -0.34957E-12         0.00000E+00
    0.53025E-08        -0.38575E-12         0.00000E+00
    0.54166E-08        -0.42268E-12         0.00000E+00
    0.55335E-08        -0.46042E-12         0.00000E+00
    0.56532E-08        -0.49896E-12         0.00000E+00
    0.57755E-08        -0.53832E-12         0.00000E+00
    0.59005E-08        -0.57851E-12         0.00000E+00
    0.60280E-08        -0.61950E-12         0.00000E+00
    0.61581E-08        -0.66128E-12         0.00000E+00
    0.62906E-08        -0.70382E-12         0.00000E+00
    0.64254E-08        -0.74707E-12         0.00000E+00
    0.65626E-08        -0.79097E-12         0.00000E+00
    0.67019E-08        -0.83547E-12         0.00000E+00
    0.68434E-08        -0.88047E-12         0.00000E+00
    0.69869E-08        -0.92590E-12         0.00000E+00
    0.71324E-08        -0.97163E-12         0.00000E+00
    0.72796E-08        -0.10176E-11         0.00000E+00
    0.74286E-08        -0.10635E-11         0.00000E+00
    0.75792E-08        -0.11094E-11         0.00000E+00
    0.77312E-08        -0.11551E-11         0.00000E+00
    0.78846E-08        -0.12002E-11         0.00000E+00
    0.80391E-08        -0.12448E-11         0.00000E+00
    0.81947E-08        -0.12885E-11         0.00000E+00
    0.83512E-08        -0.13311E-11         0.00000E+00
    0.85084E-08        -0.13724E-11         0.00000E+00
    0.86662E-08        -0.14120E-11         0.00000E+00
    0.88244E-08        -0.14498E-11         0.00000E+00
    0.89827E-08        -0.14853E-11         0.00000E+00
    0.91411E-08        -0.15183E-11         0.00000E+00
    0.92993E-08        -0.15484E-11         0.00000E+00
    0.94571E-08        -0.15752E-11         0.00000E+00
    0.96143E-08        -0.15984E-11         0.00000E+00
    0.97706E-08        -0.16174E-11         0.00000E+00
    0.99259E-08        -0.16319E-11         0.00000E+00
    0.10080E-07        -0.16414E-11         0.00000E+00
    0.10232E-07        -0.16452E-11         0.00000E+00
    0.10383E-07        -0.16429E-11         0.00000E+00
    0.10532E-07        -0.16339E-11         0.00000E+00
    0.10678E-07        -0.16173E-11         0.00000E+00
    0.10822E-07        -0.15925E-11         0.00000E+00
    0.10963E-07        -0.15586E-11         0.00000E+00
    0.11101E-07        -0.15147E-11         0.00000E+00
    0.11236E-07        -0.14595E-11         0.00000E+00
    0.11367E-07        -0.13919E-11         0.00000E+00
    0.11494E-07        -0.13105E-11         0.00000E+00
    0.11617E-07        -0.12136E-11         0.00000E+00
    0.11736E-07        -0.10995E-11         0.00000E+00
    0.11849E-07        -0.96619E-12         0.00000E+00
    0.11958E-07        -0.81151E-12         0.00000E+00
    0.12062E-07        -0.63330E-12         0.00000E+00
    0.12160E-07        -0.42944E-12         0.00000E+00
    0.12252E-07        -0.19809E-12         0.00000E+00
    0.12339E-07         0.61931E-13         0.00000E+00
    0.12419E-07         0.35067E-12         0.00000E+00
    0.12492E-07         0.66627E-12         0.00000E+00
    0.12559E-07         0.10040E-11         0.00000E+00
    0.12619E-07         0.13545E-11         0.00000E+00
    0.12672E-07         0.17025E-11         0.00000E+00
    0.12718E-07         0.20233E-11         0.00000E+00
    0.12757E-07         0.22800E-11         0.00000E+00
    0.12788E-07         0.24190E-11         0.00000E+00
    0.12811E-07         0.23653E-11         0.00000E+00
    0.12827E-07         0.20204E-11         0.00000E+00
    0.12835E-07         0.12687E-11         0.00000E+00
    0.12837E-07         0.00000E+00         0.00000E+00
    0.32172E-08         0.00000E+00         0.00000E+00
    0.32179E-08         0.64488E-12         0.00000E+00
    0.32207E-08         0.10461E-11         0.00000E+00
    0.32266E-08         0.12600E-11         0.00000E+00
    0.32358E-08         0.13418E-11         0.00000E+00
    0.32482E-08         0.13364E-11         0.00000E+00
    0.32638E-08         0.12773E-11         0.00000E+00
    0.32825E-08         0.11878E-11         0.00000E+00
    0.33045E-08         0.10835E-11         0.00000E+00
    0.33296E-08         0.97494E-12         0.00000E+00
    0.33579E-08         0.86853E-12         0.00000E+00
    0.33894E-08         0.76802E-12         0.00000E+00
    0.34241E-08         0.67529E-12         0.00000E+00
    0.34619E-08         0.59103E-12         0.00000E+00
    0.35029E-08         0.51511E-12         0.00000E+00
    0.35470E-08         0.44699E-12         0.00000E+00
    0.35943E-08         0.38585E-12         0.00000E+00
    0.36448E-08         0.33080E-12         0.00000E+00
    0.36984E-08         0.28093E-12         0.00000E+00
    0.37551E-08         0.23540E-12         0.00000E+00
    0.38149E-08         0.19341E-12         0.00000E+00
    0.38779E-08         0.15428E-12         0.00000E+00
    0.39440E-08         0.11742E-12         0.00000E+00
    0.40132E-08         0.82314E-13         0.00000E+00
    0.40855E-08         0.48538E-13         0.00000E+00
    0.41610E-08         0.15728E-13         0.00000E+00
    0.42395E-08        -0.16420E-13         0.00000E+00
    0.43211E-08        -0.48160E-13         0.00000E+00
    0.44057E-08        -0.79704E-13         0.00000E+00
    0.44934E-08        -0.11123E-12         0.00000E+00
    0.45842E-08        -0.14290E-12         0.00000E+00
    0.46779E-08        -0.17483E-12         0.00000E+00
    0.47747E-08        -0.20713E-12         0.00000E+00
    0.48744E-08        -0.23991E-12         0.00000E+00
    0.49771E-08        -0.27323E-12         0.00000E+00
    0.50826E-08        -0.30717E-12         0.00000E+00
    0.51911E-08        -0.34179E-12         0.00000E+00
    0.53025E-08        -0.37713E-12         0.00000E+00
    0.54166E-08        -0.41322E-12         0.00000E+00
    0.55335E-08        -0.45010E-12         0.00000E+00
    0.56532E-08        -0.48778E-12         0.00000E+00
    0.57755E-08        -0.52628E-12         0.00000E+00
    0.59005E-08        -0.56558E-12         0.00000E+00
    0.60280E-08        -0.60569E-12         0.00000E+00
    0.61581E-08        -0.64658E-12         0.00000E+00
    0.62906E-08        -0.68821E-12         0.00000E+00
    0.64254E-08        -0.73055E-12         0.00000E+00
    0.65626E-08        -0.77354E-12         0.00000E+00
    0.67019E-08        -0.81712E-12         0.00000E+00
    0.68434E-08        -0.86120E-12         0.00000E+00
    0.69869E-08        -0.90571E-12         0.00000E+00
    0.71324E-08        -0.95053E-12         0.00000E+00
    0.72796E-08        -0.99555E-12         0.00000E+00
    0.74286E-08        -0.10406E-11         0.00000E+00
    0.75792E-08        -0.10856E-11         0.00000E+00
    0.77312E-08        -0.11304E-11         0.00000E+00
    0.78846E-08        -0.11747E-11         0.00000E+00
    0.80391E-08        -0.12185E-11         0.00000E+00
    0.81947E-08        -0.12614E-11         0.00000E+00
    0.83512E-08        -0.13032E-11         0.00000E+00
    0.85084E-08        -0.13438E-11         0.00000E+00
    0.86662E-08        -0.13828E-11         0.00000E+00
    0.88244E-08        -0.14199E-11         0.00000E+00
    0.89827E-08        -0.14550E-11         0.00000E+00
    0.91411E-08        -0.14875E-11         0.00000E+00
    0.92993E-08        -0.15172E-11         0.00000E+00
    0.94571E-08        -0.15437E-11         0.00000E+00
    0.96143E-08        -0.15667E-11         0.00000E+00
    0.97706E-08        -0.15857E-11         0.00000E+00
    0.99259E-08        -0.16002E-11         0.00000E+00
    0.10080E-07        -0.16098E-11         0.00000E+00
    0.10232E-07        -0.16140E-11         0.00000E+00
    0.10383E-07        -0.16122E-11         0.00000E+00
    0.10532E-07        -0.16037E-11         0.00000E+00
    0.10678E-07        -0.15880E-11         0.00000E+00
    0.10822E-07        -0.15643E-11         0.00000E+00
    0.10963E-07        -0.15316E-11         0.00000E+00
    0.11101E-07        -0.14891E-11         0.00000E+00
    0.11236E-07        -0.14357E-11         0.00000E+00
    0.11367E-07        -0.13702E-11         0.00000E+00
    0.11494E-07        -0.12911E-11         0.00000E+00
    0.11617E-07        -0.11969E-11         0.00000E+00
    0.11736E-07        -0.10858E-11         0.00000E+00
    0.11849E-07        -0.95583E-12         0.00000E+00
    0.11958E-07        -0.80488E-12         0.00000E+00
    0.12062E-07        -0.63077E-12         0.00000E+00
    0.12160E-07        -0.43136E-12         0.00000E+00
    0.12252E-07        -0.20479E-12         0.00000E+00
    0.12339E-07         0.50207E-13         0.00000E+00
    0.12419E-07         0.33377E-12         0.00000E+00
    0.12493E-07         0.64421E-12         0.00000E+00
    0.12559E-07         0.97701E-12         0.00000E+00
    0.12620E-07         0.13234E-11         0.00000E+00
    0.12673E-07         0.16683E-11         0.00000E+00
    0.12718E-07         0.19880E-11         0.00000E+00
    0.12757E-07         0.22464E-11         0.00000E+00
    0.12788E-07         0.23908E-11         0.00000E+00
    0.12811E-07         0.23465E-11         0.00000E+00
    0.12826E-07         0.20134E-11         0.00000E+00
    0.12834E-07         0.12707E-11         0.00000E+00
    0.12837E-07         0.00000E+00         0.00000E+00
    0.32174E-08         0.00000E+00         0.00000E+00
    0.32180E-08         0.64147E-12         0.00000E+00
    0.32207E-08         0.10352E-11         0.00000E+00
    0.32267E-08         0.12413E-11         0.00000E+00
    0.32358E-08         0.13171E-11         0.00000E+00
    0.32482E-08         0.13082E-11         0.00000E+00
    0.32638E-08         0.12476E-11         0.00000E+00
    0.32825E-08         0.11580E-11         0.00000E+00
    0.33045E-08         0.10548E-11         0.00000E+00
    0.33296E-08         0.94777E-12         0.00000E+00
    0.33579E-08         0.84329E-12         0.00000E+00
    0.33894E-08         0.74485E-12         0.00000E+00
    0.34241E-08         0.65425E-12         0.00000E+00
    0.34619E-08         0.57207E-12         0.00000E+00
    0.35029E-08         0.49815E-12         0.00000E+00
    0.35470E-08         0.43192E-12         0.00000E+00
    0.35943E-08         0.37256E-12         0.00000E+00
    0.36448E-08         0.31918E-12         0.00000E+00
    0.36983E-08         0.27086E-12         0.00000E+00
    0.37551E-08         0.22677E-12         0.00000E+00
    0.38149E-08         0.18613E-12         0.00000E+00
    0.38779E-08         0.14828E-12         0.00000E+00
    0.39440E-08         0.11262E-12         0.00000E+00
    0.40132E-08         0.78659E-13         0.00000E+00
    0.40855E-08         0.45973E-13         0.00000E+00
    0.41610E-08         0.14212E-13         0.00000E+00
    0.42395E-08        -0.16922E-13         0.00000E+00
    0.43211E-08        -0.47674E-13         0.00000E+00
    0.44057E-08        -0.78252E-13         0.00000E+00
    0.44934E-08        -0.10883E-12         0.00000E+00
    0.45842E-08        -0.13955E-12         0.00000E+00
    0.46779E-08        -0.17055E-12         0.00000E+00
    0.47747E-08        -0.20192E-12         0.00000E+00
    0.48744E-08        -0.23377E-12         0.00000E+00
    0.49771E-08        -0.26615E-12         0.00000E+00
    0.50826E-08        -0.29915E-12         0.00000E+00
    0.51911E-08        -0.33282E-12         0.00000E+00
    0.53025E-08        -0.36720E-12         0.00000E+00
    0.54166E-08        -0.40232E-12         0.00000E+00
    0.55335E-08        -0.43822E-12         0.00000E+00
    0.56532E-08        -0.47492E-12         0.00000E+00
    0.57755E-08        -0.51241E-12         0.00000E+00
    0.59005E-08        -0.55070E-12         0.00000E+00
    0.60280E-08        -0.58978E-12         0.00000E+00
    0.61581E-08        -0.62962E-12         0.00000E+00
    0.62905E-08        -0.67021E-12         0.00000E+00
    0.64254E-08        -0.71149E-12         0.00000E+00
    0.65626E-08        -0.75341E-12         0.00000E+00
    0.67019E-08        -0.79592E-12         0.00000E+00
    0.68434E-08        -0.83893E-12         0.00000E+00
    0.69869E-08        -0.88236E-12         0.00000E+00
    0.71324E-08        -0.92611E-12         0.00000E+00
    0.72796E-08        -0.97006E-12         0.00000E+00
    0.74286E-08        -0.10141E-11         0.00000E+00
    0.75792E-08        -0.10580E-11         0.00000E+00
    0.77312E-08        -0.11018E-11         0.00000E+00
    0.78846E-08        -0.11451E-11         0.00000E+00
    0.80391E-08        -0.11879E-11         0.00000E+00
    0.81947E-08        -0.12298E-11         0.00000E+00
    0.83512E-08        -0.12708E-11         0.00000E+00
    0.85084E-08        -0.13105E-11         0.00000E+00
    0.86662E-08        -0.13487E-11         0.00000E+00
    0.88244E-08        -0.13851E-11         0.00000E+00
    0.89827E-08        -0.14195E-11         0.00000E+00
    0.91411E-08        -0.14514E-11         0.00000E+00
    0.92993E-08        -0.14806E-11         0.00000E+00
    0.94571E-08        -0.15068E-11         0.00000E+00
    0.96143E-08        -0.15294E-11         0.00000E+00
    0.97706E-08        -0.15482E-11         0.00000E+00
    0.99259E-08        -0.15627E-11         0.00000E+00
    0.10080E-07        -0.15725E-11         0.00000E+00
    0.10232E-07        -0.15769E-11         0.00000E+00
    0.10383E-07        -0.15756E-11         0.00000E+00
    0.10532E-07        -0.15678E-11         0.00000E+00
    0.10678E-07        -0.15529E-11         0.00000E+00
    0.10822E-07        -0.15303E-11         0.00000E+00
    0.10963E-07        -0.14990E-11         0.00000E+00
    0.11101E-07        -0.14582E-11         0.00000E+00
    0.11236E-07        -0.14067E-11         0.00000E+00
    0.11367E-07        -0.13434E-11         0.00000E+00
    0.11494E-07        -0.12669E-11         0.00000E+00
    0.11617E-07        -0.11757E-11         0.00000E+00
    0.11736E-07        -0.10680E-11         0.00000E+00
    0.11850E-07        -0.94186E-12         0.00000E+00
    0.11958E-07        -0.79519E-12         0.00000E+00
    0.12062E-07        -0.62581E-12         0.00000E+00
    0.12160E-07        -0.43160E-12         0.00000E+00
    0.12252E-07        -0.21066E-12         0.00000E+00
    0.12339E-07         0.38332E-13         0.00000E+00
    0.12419E-07         0.31563E-12         0.00000E+00
    0.12493E-07         0.61972E-12         0.00000E+00
    0.12560E-07         0.94637E-12         0.00000E+00
    0.12620E-07         0.12872E-11         0.00000E+00
    0.12673E-07         0.16278E-11         0.00000E+00
    0.12718E-07         0.19452E-11         0.00000E+00
    0.12757E-07         0.22045E-11         0.00000E+00
    0.12788E-07         0.23542E-11         0.00000E+00
    0.12811E-07         0.23202E-11         0.00000E+00
    0.12826E-07         0.20010E-11         0.00000E+00
    0.12834E-07         0.12701E-11         0.00000E+00
    0.12836E-07         0.00000E+00         0.00000E+00
    0.32175E-08         0.00000E+00         0.00000E+00
    0.32181E-08         0.63650E-12         0.00000E+00
    0.32208E-08         0.10211E-11         0.00000E+00
    0.32267E-08         0.12182E-11         0.00000E+00
    0.32358E-08         0.12876E-11         0.00000E+00
    0.32482E-08         0.12752E-11         0.00000E+00
    0.32637E-08         0.12133E-11         0.00000E+00
    0.32825E-08         0.11240E-11         0.00000E+00
    0.33044E-08         0.10221E-11         0.00000E+00
    0.33296E-08         0.91712E-12         0.00000E+00
    0.33579E-08         0.81498E-12         0.00000E+00
    0.33894E-08         0.71902E-12         0.00000E+00
    0.34241E-08         0.63090E-12         0.00000E+00
    0.34619E-08         0.55112E-12         0.00000E+00
    0.35029E-08         0.47949E-12         0.00000E+00
    0.35470E-08         0.41540E-12         0.00000E+00
    0.35943E-08         0.35804E-12         0.00000E+00
    0.36448E-08         0.30651E-12         0.00000E+00
    0.36983E-08         0.25992E-12         0.00000E+00
    0.37551E-08         0.21743E-12         0.00000E+00
    0.38149E-08         0.17829E-12         0.00000E+00
    0.38779E-08         0.14183E-12         0.00000E+00
    0.39440E-08         0.10750E-12         0.00000E+00
    0.40132E-08         0.74790E-13         0.00000E+00
    0.40855E-08         0.43304E-13         0.00000E+00
    0.41610E-08         0.12697E-13         0.00000E+00
    0.42395E-08        -0.17319E-13         0.00000E+00
    0.43211E-08        -0.46981E-13         0.00000E+00
    0.44057E-08        -0.76489E-13         0.00000E+00
    0.44934E-08        -0.10601E-12         0.00000E+00
    0.45842E-08        -0.13569E-12         0.00000E+00
    0.46779E-08        -0.16565E-12         0.00000E+00
    0.47747E-08        -0.19598E-12         0.00000E+00
    0.48744E-08        -0.22678E-12         0.00000E+00
    0.49770E-08        -0.25812E-12         0.00000E+00
    0.50826E-08        -0.29006E-12         0.00000E+00
    0.51911E-08        -0.32266E-12         0.00000E+00
    0.53024E-08        -0.35596E-12         0.00000E+00
    0.54166E-08        -0.39000E-12         0.00000E+00
    0.55335E-08        -0.42479E-12         0.00000E+00
    0.56532E-08        -0.46036E-12         0.00000E+00
    0.57755E-08        -0.49671E-12         0.00000E+00
    0.59005E-08        -0.53385E-12         0.00000E+00
    0.60280E-08        -0.57176E-12         0.00000E+00
    0.61580E-08        -0.61043E-12         0.00000E+00
    0.62905E-08        -0.64981E-12         0.00000E+00
    0.64254E-08        -0.68989E-12         0.00000E+00
    0.65625E-08        -0.73059E-12         0.00000E+00
    0.67019E-08        -0.77187E-12         0.00000E+00
    0.68434E-08        -0.81365E-12         0.00000E+00
    0.69869E-08        -0.85585E-12         0.00000E+00
    0.71323E-08        -0.89836E-12         0.00000E+00
    0.72796E-08        -0.94108E-12         0.00000E+00
    0.74286E-08        -0.98389E-12         0.00000E+00
    0.75792E-08        -0.10266E-11         0.00000E+00
    0.77312E-08        -0.10692E-11         0.00000E+00
    0.78845E-08        -0.11114E-11         0.00000E+00
    0.80391E-08        -0.11530E-11         0.00000E+00
    0.81947E-08        -0.11938E-11         0.00000E+00
    0.83512E-08        -0.12337E-11         0.00000E+00
    0.85084E-08        -0.12724E-11         0.00000E+00
    0.86662E-08        -0.13097E-11         0.00000E+00
    0.88244E-08        -0.13452E-11         0.00000E+00
    0.89827E-08        -0.13788E-11         0.00000E+00
    0.91411E-08        -0.14100E-11         0.00000E+00
    0.92993E-08        -0.14386E-11         0.00000E+00
    0.94571E-08        -0.14643E-11         0.00000E+00
    0.96143E-08        -0.14865E-11         0.00000E+00
    0.97706E-08        -0.15051E-11         0.00000E+00
    0.99259E-08        -0.15195E-11         0.00000E+00
    0.10080E-07        -0.15293E-11         0.00000E+00
    0.10232E-07        -0.15340E-11         0.00000E+00
    0.10383E-07        -0.15331E-11         0.00000E+00
    0.10532E-07        -0.15260E-11         0.00000E+00
    0.10678E-07        -0.15121E-11         0.00000E+00
    0.10822E-07        -0.14906E-11         0.00000E+00
    0.10963E-07        -0.14607E-11         0.00000E+00
    0.11101E-07        -0.14216E-11         0.00000E+00
    0.11236E-07        -0.13723E-11         0.00000E+00
    0.11367E-07        -0.13114E-11         0.00000E+00
    0.11494E-07        -0.12378E-11         0.00000E+00
    0.11617E-07        -0.11499E-11         0.00000E+00
    0.11736E-07        -0.10460E-11         0.00000E+00
    0.11850E-07        -0.92414E-12         0.00000E+00
    0.11958E-07        -0.78229E-12         0.00000E+00
    0.12062E-07        -0.61829E-12         0.00000E+00
    0.12160E-07        -0.43002E-12         0.00000E+00
    0.12253E-07        -0.21556E-12         0.00000E+00
    0.12339E-07         0.26449E-13         0.00000E+00
    0.12419E-07         0.29638E-12         0.00000E+00
    0.12493E-07         0.59291E-12         0.00000E+00
    0.12560E-07         0.91210E-12         0.00000E+00
    0.12620E-07         0.12460E-11         0.00000E+00
    0.12673E-07         0.15809E-11         0.00000E+00
    0.12718E-07         0.18949E-11         0.00000E+00
    0.12757E-07         0.21543E-11         0.00000E+00
    0.12788E-07         0.23089E-11         0.00000E+00
    0.12811E-07         0.22859E-11         0.00000E+00
    0.12826E-07         0.19825E-11         0.00000E+00
    0.12834E-07         0.12666E-11         0.00000E+00
    0.12836E-07         0.00000E+00         0.00000E+00
    0.32176E-08         0.00000E+00         0.00000E+00
    0.32182E-08         0.62982E-12         0.00000E+00
    0.32208E-08         0.10036E-11         0.00000E+00
    0.32267E-08         0.11907E-11         0.00000E+00
    0.32358E-08         0.12532E-11         0.00000E+00
    0.32482E-08         0.12372E-11         0.00000E+00
    0.32637E-08         0.11742E-11         0.00000E+00
    0.32825E-08         0.10856E-11         0.00000E+00
    0.33044E-08         0.98553E-12         0.00000E+00
    0.33296E-08         0.88302E-12         0.00000E+00
    0.33579E-08         0.78365E-12         0.00000E+00
    0.33894E-08         0.69057E-12         0.00000E+00
    0.34240E-08         0.60529E-12         0.00000E+00
    0.34619E-08         0.52823E-12         0.00000E+00
    0.35029E-08         0.45917E-12         0.00000E+00
    0.35470E-08         0.39748E-12         0.00000E+00
    0.35943E-08         0.34233E-12         0.00000E+00
    0.36447E-08         0.29285E-12         0.00000E+00
    0.36983E-08         0.24814E-12         0.00000E+00
    0.37550E-08         0.20741E-12         0.00000E+00
    0.38149E-08         0.16990E-12         0.00000E+00
    0.38779E-08         0.13497E-12         0.00000E+00
    0.39440E-08         0.10207E-12         0.00000E+00
    0.40132E-08         0.70726E-13         0.00000E+00
    0.40855E-08         0.40546E-13         0.00000E+00
    0.41609E-08         0.11196E-13         0.00000E+00
    0.42395E-08        -0.17600E-13         0.00000E+00
    0.43211E-08        -0.46071E-13         0.00000E+00
    0.44057E-08        -0.74409E-13         0.00000E+00
    0.44934E-08        -0.10278E-12         0.00000E+00
    0.45841E-08        -0.13131E-12         0.00000E+00
    0.46779E-08        -0.16012E-12         0.00000E+00
    0.47746E-08        -0.18931E-12         0.00000E+00
    0.48744E-08        -0.21895E-12         0.00000E+00
    0.49770E-08        -0.24913E-12         0.00000E+00
    0.50826E-08        -0.27991E-12         0.00000E+00
    0.51911E-08        -0.31132E-12         0.00000E+00
    0.53024E-08        -0.34342E-12         0.00000E+00
    0.54166E-08        -0.37624E-12         0.00000E+00
    0.55335E-08        -0.40980E-12         0.00000E+00
    0.56532E-08        -0.44412E-12         0.00000E+00
    0.57755E-08        -0.47920E-12         0.00000E+00
    0.59005E-08        -0.51505E-12         0.00000E+00
    0.60280E-08        -0.55165E-12         0.00000E+00
    0.61580E-08        -0.58899E-12         0.00000E+00
    0.62905E-08        -0.62703E-12         0.00000E+00
    0.64254E-08        -0.66575E-12         0.00000E+00
    0.65625E-08        -0.70508E-12         0.00000E+00
    0.67019E-08        -0.74498E-12         0.00000E+00
    0.68434E-08        -0.78537E-12         0.00000E+00
    0.69869E-08        -0.82617E-12         0.00000E+00
    0.71323E-08        -0.86729E-12         0.00000E+00
    0.72796E-08        -0.90862E-12         0.00000E+00
    0.74286E-08        -0.95004E-12         0.00000E+00
    0.75791E-08        -0.99142E-12         0.00000E+00
    0.77312E-08        -0.10326E-11         0.00000E+00
    0.78845E-08        -0.10735E-11         0.00000E+00
    0.80391E-08        -0.11138E-11         0.00000E+00
    0.81947E-08        -0.11534E-11         0.00000E+00
    0.83512E-08        -0.11921E-11         0.00000E+00
    0.85084E-08        -0.12296E-11         0.00000E+00
    0.86662E-08        -0.12658E-11         0.00000E+00
    0.88243E-08        -0.13003E-11         0.00000E+00
    0.89827E-08        -0.13329E-11         0.00000E+00
    0.91411E-08        -0.13633E-11         0.00000E+00
    0.92993E-08        -0.13912E-11         0.00000E+00
    0.94571E-08        -0.14162E-11         0.00000E+00
    0.96143E-08        -0.14380E-11         0.00000E+00
    0.97706E-08        -0.14562E-11         0.00000E+00
    0.99259E-08        -0.14705E-11         0.00000E+00
    0.10080E-07        -0.14803E-11         0.00000E+00
    0.10232E-07        -0.14852E-11         0.00000E+00
    0.10383E-07        -0.14847E-11         0.00000E+00
    0.10532E-07        -0.14783E-11         0.00000E+00
    0.10678E-07        -0.14652E-11         0.00000E+00
    0.10822E-07        -0.14450E-11         0.00000E+00
    0.10963E-07        -0.14167E-11         0.00000E+00
    0.11101E-07        -0.13794E-11         0.00000E+00
    0.11236E-07        -0.13323E-11         0.00000E+00
    0.11367E-07        -0.12742E-11         0.00000E+00
    0.11494E-07        -0.12037E-11         0.00000E+00
    0.11617E-07        -0.11194E-11         0.00000E+00
    0.11736E-07        -0.10196E-11         0.00000E+00
    0.11850E-07        -0.90253E-12         0.00000E+00
    0.11958E-07        -0.76604E-12         0.00000E+00
    0.12062E-07        -0.60805E-12         0.00000E+00
    0.12160E-07        -0.42646E-12         0.00000E+00
    0.12253E-07        -0.21934E-12         0.00000E+00
    0.12339E-07         0.14713E-13         0.00000E+00
    0.12419E-07         0.27617E-12         0.00000E+00
    0.12493E-07         0.56391E-12         0.00000E+00
    0.12560E-07         0.87429E-12         0.00000E+00
    0.12620E-07         0.11999E-11         0.00000E+00
    0.12673E-07         0.15278E-11         0.00000E+00
    0.12718E-07         0.18369E-11         0.00000E+00
    0.12757E-07         0.20953E-11         0.00000E+00
    0.12788E-07         0.22543E-11         0.00000E+00
    0.12811E-07         0.22428E-11         0.00000E+00
    0.12826E-07         0.19573E-11         0.00000E+00
    0.12834E-07         0.12598E-11         0.00000E+00
    0.12836E-07         0.00000E+00         0.00000E+00
    0.32177E-08         0.00000E+00         0.00000E+00
    0.32183E-08         0.62126E-12         0.00000E+00
    0.32209E-08         0.98241E-12         0.00000E+00
    0.32267E-08         0.11584E-11         0.00000E+00
    0.32358E-08         0.12136E-11         0.00000E+00
    0.32482E-08         0.11940E-11         0.00000E+00
    0.32637E-08         0.11303E-11         0.00000E+00
    0.32825E-08         0.10429E-11         0.00000E+00
    0.33044E-08         0.94510E-12         0.00000E+00
    0.33295E-08         0.84551E-12         0.00000E+00
    0.33579E-08         0.74936E-12         0.00000E+00
    0.33894E-08         0.65956E-12         0.00000E+00
    0.34240E-08         0.57747E-12         0.00000E+00
    0.34619E-08         0.50347E-12         0.00000E+00
    0.35028E-08         0.43725E-12         0.00000E+00
    0.35470E-08         0.37819E-12         0.00000E+00
    0.35943E-08         0.32548E-12         0.00000E+00
    0.36447E-08         0.27822E-12         0.00000E+00
    0.36983E-08         0.23557E-12         0.00000E+00
    0.37550E-08         0.19673E-12         0.00000E+00
    0.38149E-08         0.16098E-12         0.00000E+00
    0.38779E-08         0.12770E-12         0.00000E+00
    0.39440E-08         0.96356E-13         0.00000E+00
    0.40132E-08         0.66487E-13         0.00000E+00
    0.40855E-08         0.37715E-13         0.00000E+00
    0.41609E-08         0.97224E-14         0.00000E+00
    0.42395E-08        -0.17754E-13         0.00000E+00
    0.43210E-08        -0.44936E-13         0.00000E+00
    0.44057E-08        -0.72005E-13         0.00000E+00
    0.44934E-08        -0.99116E-13         0.00000E+00
    0.45841E-08        -0.12640E-12         0.00000E+00
    0.46779E-08        -0.15396E-12         0.00000E+00
    0.47746E-08        -0.18190E-12         0.00000E+00
    0.48744E-08        -0.21028E-12         0.00000E+00
    0.49770E-08        -0.23919E-12         0.00000E+00
    0.50826E-08        -0.26868E-12         0.00000E+00
    0.51911E-08        -0.29880E-12         0.00000E+00
    0.53024E-08        -0.32958E-12         0.00000E+00
    0.54166E-08        -0.36106E-12         0.00000E+00
    0.55335E-08        -0.39325E-12         0.00000E+00
    0.56532E-08        -0.42619E-12         0.00000E+00
    0.57755E-08        -0.45987E-12         0.00000E+00
    0.59005E-08        -0.49429E-12         0.00000E+00
    0.60280E-08        -0.52944E-12         0.00000E+00
    0.61580E-08        -0.56531E-12         0.00000E+00
    0.62905E-08        -0.60186E-12         0.00000E+00
    0.64254E-08        -0.63907E-12         0.00000E+00
    0.65625E-08        -0.67688E-12         0.00000E+00
    0.67019E-08        -0.71524E-12         0.00000E+00
    0.68434E-08        -0.75408E-12         0.00000E+00
    0.69869E-08        -0.79333E-12         0.00000E+00
    0.71323E-08        -0.83289E-12         0.00000E+00
    0.72796E-08        -0.87266E-12         0.00000E+00
    0.74286E-08        -0.91253E-12         0.00000E+00
    0.75791E-08        -0.95237E-12         0.00000E+00
    0.77312E-08        -0.99204E-12         0.00000E+00
    0.78845E-08        -0.10314E-11         0.00000E+00
    0.80391E-08        -0.10702E-11         0.00000E+00
    0.81947E-08        -0.11084E-11         0.00000E+00
    0.83512E-08        -0.11457E-11         0.00000E+00
    0.85084E-08        -0.11820E-11         0.00000E+00
    0.86662E-08        -0.12169E-11         0.00000E+00
    0.88243E-08        -0.12502E-11         0.00000E+00
    0.89827E-08        -0.12818E-11         0.00000E+00
    0.91411E-08        -0.13112E-11         0.00000E+00
    0.92993E-08        -0.13382E-11         0.00000E+00
    0.94571E-08        -0.13625E-11         0.00000E+00
    0.96142E-08        -0.13837E-11         0.00000E+00
    0.97706E-08        -0.14015E-11         0.00000E+00
    0.99259E-08        -0.14155E-11         0.00000E+00
    0.10080E-07        -0.14253E-11         0.00000E+00
    0.10232E-07        -0.14304E-11         0.00000E+00
    0.10383E-07        -0.14303E-11         0.00000E+00
    0.10532E-07        -0.14245E-11         0.00000E+00
    0.10678E-07        -0.14124E-11         0.00000E+00
    0.10822E-07        -0.13934E-11         0.00000E+00
    0.10963E-07        -0.13667E-11         0.00000E+00
    0.11101E-07        -0.13315E-11         0.00000E+00
    0.11236E-07        -0.12868E-11         0.00000E+00
    0.11367E-07        -0.12315E-11         0.00000E+00
    0.11494E-07        -0.11644E-11         0.00000E+00
    0.11617E-07        -0.10841E-11         0.00000E+00
    0.11736E-07        -0.98882E-12         0.00000E+00
    0.11850E-07        -0.87688E-12         0.00000E+00
    0.11958E-07        -0.74628E-12         0.00000E+00
    0.12062E-07        -0.59493E-12         0.00000E+00
    0.12160E-07        -0.42075E-12         0.00000E+00
    0.12253E-07        -0.22182E-12         0.00000E+00
    0.12339E-07         0.32885E-14         0.00000E+00
    0.12419E-07         0.25516E-12         0.00000E+00
    0.12493E-07         0.53285E-12         0.00000E+00
    0.12560E-07         0.83307E-12         0.00000E+00
    0.12620E-07         0.11489E-11         0.00000E+00
    0.12673E-07         0.14682E-11         0.00000E+00
    0.12719E-07         0.17712E-11         0.00000E+00
    0.12757E-07         0.20272E-11         0.00000E+00
    0.12788E-07         0.21901E-11         0.00000E+00
    0.12811E-07         0.21905E-11         0.00000E+00
    0.12826E-07         0.19249E-11         0.00000E+00
    0.12834E-07         0.12493E-11         0.00000E+00
    0.12836E-07         0.00000E+00         0.00000E+00
    0.32179E-08         0.00000E+00         0.00000E+00
    0.32184E-08         0.61059E-12         0.00000E+00
    0.32209E-08         0.95716E-12         0.00000E+00
    0.32268E-08         0.11209E-11         0.00000E+00
    0.32358E-08         0.11686E-11         0.00000E+00
    0.32482E-08         0.11457E-11         0.00000E+00
    0.32637E-08         0.10816E-11         0.00000E+00
    0.32824E-08         0.99581E-12         0.00000E+00
    0.33044E-08         0.90080E-12         0.00000E+00
    0.33295E-08         0.80463E-12         0.00000E+00
    0.33578E-08         0.71214E-12         0.00000E+00
    0.33893E-08         0.62603E-12         0.00000E+00
    0.34240E-08         0.54752E-12         0.00000E+00
    0.34618E-08         0.47688E-12         0.00000E+00
    0.35028E-08         0.41379E-12         0.00000E+00
    0.35470E-08         0.35761E-12         0.00000E+00
    0.35943E-08         0.30752E-12         0.00000E+00
    0.36447E-08         0.26268E-12         0.00000E+00
    0.36983E-08         0.22224E-12         0.00000E+00
    0.37550E-08         0.18544E-12         0.00000E+00
    0.38149E-08         0.15159E-12         0.00000E+00
    0.38779E-08         0.12007E-12         0.00000E+00
    0.39440E-08         0.90384E-13         0.00000E+00
    0.40132E-08         0.62091E-13         0.00000E+00
    0.40855E-08         0.34828E-13         0.00000E+00
    0.41609E-08         0.82912E-14         0.00000E+00
    0.42395E-08        -0.17770E-13         0.00000E+00
    0.43210E-08        -0.43565E-13         0.00000E+00
    0.44057E-08        -0.69268E-13         0.00000E+00
    0.44934E-08        -0.95024E-13         0.00000E+00
    0.45841E-08        -0.12096E-12         0.00000E+00
    0.46779E-08        -0.14717E-12         0.00000E+00
    0.47746E-08        -0.17375E-12         0.00000E+00
    0.48744E-08        -0.20077E-12         0.00000E+00
    0.49770E-08        -0.22830E-12         0.00000E+00
    0.50826E-08        -0.25639E-12         0.00000E+00
    0.51911E-08        -0.28509E-12         0.00000E+00
    0.53024E-08        -0.31443E-12         0.00000E+00
    0.54166E-08        -0.34445E-12         0.00000E+00
    0.55335E-08        -0.37516E-12         0.00000E+00
    0.56531E-08        -0.40658E-12         0.00000E+00
    0.57755E-08        -0.43872E-12         0.00000E+00
    0.59004E-08        -0.47157E-12         0.00000E+00
    0.60280E-08        -0.50514E-12         0.00000E+00
    0.61580E-08        -0.53939E-12         0.00000E+00
    0.62905E-08        -0.57431E-12         0.00000E+00
    0.64254E-08        -0.60985E-12         0.00000E+00
    0.65625E-08        -0.64599E-12         0.00000E+00
    0.67019E-08        -0.68265E-12         0.00000E+00
    0.68434E-08        -0.71978E-12         0.00000E+00
    0.69869E-08        -0.75731E-12         0.00000E+00
    0.71323E-08        -0.79515E-12         0.00000E+00
    0.72796E-08        -0.83319E-12         0.00000E+00
    0.74286E-08        -0.87135E-12         0.00000E+00
    0.75791E-08        -0.90948E-12         0.00000E+00
    0.77312E-08        -0.94746E-12         0.00000E+00
    0.78845E-08        -0.98515E-12         0.00000E+00
    0.80391E-08        -0.10224E-11         0.00000E+00
    0.81947E-08        -0.10590E-11         0.00000E+00
    0.83512E-08        -0.10948E-11         0.00000E+00
    0.85084E-08        -0.11295E-11         0.00000E+00
    0.86662E-08        -0.11630E-11         0.00000E+00
    0.88243E-08        -0.11951E-11         0.00000E+00
    0.89827E-08        -0.12254E-11         0.00000E+00
    0.91411E-08        -0.12537E-11         0.00000E+00
    0.92993E-08        -0.12797E-11         0.00000E+00
    0.94571E-08        -0.13031E-11         0.00000E+00
    0.96142E-08        -0.13237E-11         0.00000E+00
    0.97706E-08        -0.13410E-11         0.00000E+00
    0.99259E-08        -0.13546E-11         0.00000E+00
    0.10080E-07        -0.13643E-11         0.00000E+00
    0.10232E-07        -0.13695E-11         0.00000E+00
    0.10383E-07        -0.13698E-11         0.00000E+00
    0.10532E-07        -0.13647E-11         0.00000E+00
    0.10678E-07        -0.13536E-11         0.00000E+00
    0.10822E-07        -0.13359E-11         0.00000E+00
    0.10963E-07        -0.13109E-11         0.00000E+00
    0.11101E-07        -0.12778E-11         0.00000E+00
    0.11236E-07        -0.12356E-11         0.00000E+00
    0.11367E-07        -0.11834E-11         0.00000E+00
    0.11494E-07        -0.11199E-11         0.00000E+00
    0.11617E-07        -0.10437E-11         0.00000E+00
    0.11736E-07        -0.95337E-12         0.00000E+00
    0.11850E-07        -0.84704E-12         0.00000E+00
    0.11958E-07        -0.72284E-12         0.00000E+00
    0.12062E-07        -0.57875E-12         0.00000E+00
    0.12160E-07        -0.41271E-12         0.00000E+00
    0.12253E-07        -0.22283E-12         0.00000E+00
    0.12339E-07        -0.76438E-14         0.00000E+00
    0.12419E-07         0.23351E-12         0.00000E+00
    0.12493E-07         0.49990E-12         0.00000E+00
    0.12560E-07         0.78853E-12         0.00000E+00
    0.12620E-07         0.10931E-11         0.00000E+00
    0.12673E-07         0.14022E-11         0.00000E+00
    0.12719E-07         0.16975E-11         0.00000E+00
    0.12757E-07         0.19500E-11         0.00000E+00
    0.12788E-07         0.21158E-11         0.00000E+00
    0.12811E-07         0.21280E-11         0.00000E+00
    0.12826E-07         0.18843E-11         0.00000E+00
    0.12834E-07         0.12346E-11         0.00000E+00
    0.12835E-07         0.00000E+00         0.00000E+00
    0.32180E-08         0.00000E+00         0.00000E+00
    0.32185E-08         0.59755E-12         0.00000E+00
    0.32210E-08         0.92748E-12         0.00000E+00
    0.32268E-08         0.10781E-11         0.00000E+00
    0.32358E-08         0.11181E-11         0.00000E+00
    0.32481E-08         0.10920E-11         0.00000E+00
    0.32637E-08         0.10281E-11         0.00000E+00
    0.32824E-08         0.94437E-12         0.00000E+00
    0.33044E-08         0.85268E-12         0.00000E+00
    0.33295E-08         0.76042E-12         0.00000E+00
    0.33578E-08         0.67208E-12         0.00000E+00
    0.33893E-08         0.59007E-12         0.00000E+00
    0.34240E-08         0.51549E-12         0.00000E+00
    0.34618E-08         0.44853E-12         0.00000E+00
    0.35028E-08         0.38884E-12         0.00000E+00
    0.35470E-08         0.33577E-12         0.00000E+00
    0.35943E-08         0.28852E-12         0.00000E+00
    0.36447E-08         0.24627E-12         0.00000E+00
    0.36983E-08         0.20820E-12         0.00000E+00
    0.37550E-08         0.17357E-12         0.00000E+00
    0.38149E-08         0.14173E-12         0.00000E+00
    0.38779E-08         0.11209E-12         0.00000E+00
    0.39440E-08         0.84174E-13         0.00000E+00
    0.40132E-08         0.57558E-13         0.00000E+00
    0.40855E-08         0.31901E-13         0.00000E+00
    0.41609E-08         0.69159E-14         0.00000E+00
    0.42394E-08        -0.17635E-13         0.00000E+00
    0.43210E-08        -0.41949E-13         0.00000E+00
    0.44057E-08        -0.66190E-13         0.00000E+00
    0.44934E-08        -0.90495E-13         0.00000E+00
    0.45841E-08        -0.11498E-12         0.00000E+00
    0.46779E-08        -0.13974E-12         0.00000E+00
    0.47746E-08        -0.16486E-12         0.00000E+00
    0.48744E-08        -0.19041E-12         0.00000E+00
    0.49770E-08        -0.21645E-12         0.00000E+00
    0.50826E-08        -0.24303E-12         0.00000E+00
    0.51911E-08        -0.27020E-12         0.00000E+00
    0.53024E-08        -0.29798E-12         0.00000E+00
    0.54166E-08        -0.32641E-12         0.00000E+00
    0.55335E-08        -0.35551E-12         0.00000E+00
    0.56531E-08        -0.38529E-12         0.00000E+00
    0.57755E-08        -0.41575E-12         0.00000E+00
    0.59004E-08        -0.44691E-12         0.00000E+00
    0.60280E-08        -0.47874E-12         0.00000E+00
    0.61580E-08        -0.51123E-12         0.00000E+00
    0.62905E-08        -0.54436E-12         0.00000E+00
    0.64254E-08        -0.57810E-12         0.00000E+00
    0.65625E-08        -0.61240E-12         0.00000E+00
    0.67019E-08        -0.64721E-12         0.00000E+00
    0.68434E-08        -0.68247E-12         0.00000E+00
    0.69869E-08        -0.71812E-12         0.00000E+00
    0.71323E-08        -0.75407E-12         0.00000E+00
    0.72796E-08        -0.79022E-12         0.00000E+00
    0.74286E-08        -0.82649E-12         0.00000E+00
    0.75791E-08        -0.86275E-12         0.00000E+00
    0.77312E-08        -0.89888E-12         0.00000E+00
    0.78845E-08        -0.93473E-12         0.00000E+00
    0.80391E-08        -0.97016E-12         0.00000E+00
    0.81947E-08        -0.10050E-11         0.00000E+00
    0.83512E-08        -0.10391E-11         0.00000E+00
    0.85084E-08        -0.10722E-11         0.00000E+00
    0.86662E-08        -0.11042E-11         0.00000E+00
    0.88243E-08        -0.11347E-11         0.00000E+00
    0.89827E-08        -0.11637E-11         0.00000E+00
    0.91411E-08        -0.11907E-11         0.00000E+00
    0.92993E-08        -0.12156E-11         0.00000E+00
    0.94571E-08        -0.12381E-11         0.00000E+00
    0.96142E-08        -0.12579E-11         0.00000E+00
    0.97706E-08        -0.12745E-11         0.00000E+00
    0.99259E-08        -0.12878E-11         0.00000E+00
    0.10080E-07        -0.12973E-11         0.00000E+00
    0.10232E-07        -0.13025E-11         0.00000E+00
    0.10383E-07        -0.13032E-11         0.00000E+00
    0.10532E-07        -0.12987E-11         0.00000E+00
    0.10678E-07        -0.12886E-11         0.00000E+00
    0.10822E-07        -0.12722E-11         0.00000E+00
    0.10963E-07        -0.12490E-11         0.00000E+00
    0.11101E-07        -0.12180E-11         0.00000E+00
    0.11236E-07        -0.11786E-11         0.00000E+00
    0.11367E-07        -0.11296E-11         0.00000E+00
    0.11494E-07        -0.10699E-11         0.00000E+00
    0.11617E-07        -0.99827E-12         0.00000E+00
    0.11736E-07        -0.91314E-12         0.00000E+00
    0.11850E-07        -0.81286E-12         0.00000E+00
    0.11959E-07        -0.69558E-12         0.00000E+00
    0.12062E-07        -0.55934E-12         0.00000E+00
    0.12160E-07        -0.40216E-12         0.00000E+00
    0.12253E-07        -0.22217E-12         0.00000E+00
    0.12339E-07        -0.17893E-13         0.00000E+00
    0.12419E-07         0.21142E-12         0.00000E+00
    0.12493E-07         0.46521E-12         0.00000E+00
    0.12560E-07         0.74084E-12         0.00000E+00
    0.12620E-07         0.10325E-11         0.00000E+00
    0.12673E-07         0.13299E-11         0.00000E+00
    0.12719E-07         0.16157E-11         0.00000E+00
    0.12757E-07         0.18631E-11         0.00000E+00
    0.12788E-07         0.20307E-11         0.00000E+00
    0.12811E-07         0.20548E-11         0.00000E+00
    0.12826E-07         0.18347E-11         0.00000E+00
    0.12833E-07         0.12152E-11         0.00000E+00
    0.12835E-07         0.00000E+00         0.00000E+00
    0.32181E-08         0.00000E+00         0.00000E+00
    0.32185E-08         0.58184E-12         0.00000E+00
    0.32210E-08         0.89291E-12         0.00000E+00
    0.32268E-08         0.10294E-11         0.00000E+00
    0.32358E-08         0.10617E-11         0.00000E+00
    0.32481E-08         0.10329E-11         0.00000E+00
    0.32637E-08         0.96960E-12         0.00000E+00
    0.32824E-08         0.88859E-12         0.00000E+00
    0.33044E-08         0.80077E-12         0.00000E+00
    0.33295E-08         0.71296E-12         0.00000E+00
    0.33578E-08         0.62922E-12         0.00000E+00
    0.33893E-08         0.55174E-12         0.00000E+00
    0.34240E-08         0.48145E-12         0.00000E+00
    0.34618E-08         0.41849E-12         0.00000E+00
    0.35028E-08         0.36246E-12         0.00000E+00
    0.35470E-08         0.31273E-12         0.00000E+00
    0.35943E-08         0.26852E-12         0.00000E+00
    0.36447E-08         0.22903E-12         0.00000E+00
    0.36983E-08         0.19348E-12         0.00000E+00
    0.37550E-08         0.16116E-12         0.00000E+00
    0.38149E-08         0.13145E-12         0.00000E+00
    0.38779E-08         0.10380E-12         0.00000E+00
    0.39440E-08         0.77749E-13         0.00000E+00
    0.40132E-08         0.52908E-13         0.00000E+00
    0.40855E-08         0.28952E-13         0.00000E+00
    0.41609E-08         0.56108E-14         0.00000E+00
    0.42394E-08        -0.17338E-13         0.00000E+00
    0.43210E-08        -0.40079E-13         0.00000E+00
    0.44057E-08        -0.62764E-13         0.00000E+00
    0.44934E-08        -0.85523E-13         0.00000E+00
    0.45841E-08        -0.10846E-12         0.00000E+00
    0.46779E-08        -0.13167E-12         0.00000E+00
    0.47746E-08        -0.15523E-12         0.00000E+00
    0.48743E-08        -0.17920E-12         0.00000E+00
    0.49770E-08        -0.20365E-12         0.00000E+00
    0.50826E-08        -0.22861E-12         0.00000E+00
    0.51911E-08        -0.25412E-12         0.00000E+00
    0.53024E-08        -0.28023E-12         0.00000E+00
    0.54166E-08        -0.30695E-12         0.00000E+00
    0.55335E-08        -0.33431E-12         0.00000E+00
    0.56531E-08        -0.36232E-12         0.00000E+00
    0.57755E-08        -0.39098E-12         0.00000E+00
    0.59004E-08        -0.42029E-12         0.00000E+00
    0.60280E-08        -0.45025E-12         0.00000E+00
    0.61580E-08        -0.48084E-12         0.00000E+00
    0.62905E-08        -0.51203E-12         0.00000E+00
    0.64254E-08        -0.54380E-12         0.00000E+00
    0.65625E-08        -0.57611E-12         0.00000E+00
    0.67019E-08        -0.60891E-12         0.00000E+00
    0.68434E-08        -0.64215E-12         0.00000E+00
    0.69869E-08        -0.67575E-12         0.00000E+00
    0.71323E-08        -0.70964E-12         0.00000E+00
    0.72796E-08        -0.74374E-12         0.00000E+00
    0.74286E-08        -0.77795E-12         0.00000E+00
    0.75791E-08        -0.81217E-12         0.00000E+00
    0.77311E-08        -0.84626E-12         0.00000E+00
    0.78845E-08        -0.88012E-12         0.00000E+00
    0.80391E-08        -0.91358E-12         0.00000E+00
    0.81947E-08        -0.94650E-12         0.00000E+00
    0.83512E-08        -0.97871E-12         0.00000E+00
    0.85084E-08        -0.10100E-11         0.00000E+00
    0.86662E-08        -0.10403E-11         0.00000E+00
    0.88243E-08        -0.10692E-11         0.00000E+00
    0.89827E-08        -0.10966E-11         0.00000E+00
    0.91411E-08        -0.11223E-11         0.00000E+00
    0.92993E-08        -0.11460E-11         0.00000E+00
    0.94570E-08        -0.11674E-11         0.00000E+00
    0.96142E-08        -0.11862E-11         0.00000E+00
    0.97706E-08        -0.12021E-11         0.00000E+00
    0.99259E-08        -0.12149E-11         0.00000E+00
    0.10080E-07        -0.12241E-11         0.00000E+00
    0.10232E-07        -0.12294E-11         0.00000E+00
    0.10383E-07        -0.12303E-11         0.00000E+00
    0.10532E-07        -0.12265E-11         0.00000E+00
    0.10678E-07        -0.12173E-11         0.00000E+00
    0.10822E-07        -0.12024E-11         0.00000E+00
    0.10963E-07        -0.11809E-11         0.00000E+00
    0.11101E-07        -0.11523E-11         0.00000E+00
    0.11236E-07        -0.11156E-11         0.00000E+00
    0.11367E-07        -0.10700E-11         0.00000E+00
    0.11494E-07        -0.10144E-11         0.00000E+00
    0.11617E-07        -0.94755E-12         0.00000E+00
    0.11736E-07        -0.86799E-12         0.00000E+00
    0.11850E-07        -0.77416E-12         0.00000E+00
    0.11959E-07        -0.66429E-12         0.00000E+00
    0.12062E-07        -0.53651E-12         0.00000E+00
    0.12160E-07        -0.38890E-12         0.00000E+00
    0.12253E-07        -0.21965E-12         0.00000E+00
    0.12339E-07        -0.27253E-13         0.00000E+00
    0.12419E-07         0.18908E-12         0.00000E+00
    0.12493E-07         0.42897E-12         0.00000E+00
    0.12560E-07         0.69013E-12         0.00000E+00
    0.12620E-07         0.96737E-12         0.00000E+00
    0.12673E-07         0.12512E-11         0.00000E+00
    0.12719E-07         0.15258E-11         0.00000E+00
    0.12757E-07         0.17664E-11         0.00000E+00
    0.12788E-07         0.19344E-11         0.00000E+00
    0.12811E-07         0.19698E-11         0.00000E+00
    0.12826E-07         0.17749E-11         0.00000E+00
    0.12833E-07         0.11901E-11         0.00000E+00
    0.12835E-07         0.93132E-21         0.00000E+00
    0.32182E-08         0.00000E+00         0.00000E+00
    0.32186E-08         0.56307E-12         0.00000E+00
    0.32211E-08         0.85295E-12         0.00000E+00
    0.32268E-08         0.97456E-12         0.00000E+00
    0.32358E-08         0.99929E-12         0.00000E+00
    0.32481E-08         0.96828E-12         0.00000E+00
    0.32636E-08         0.90615E-12         0.00000E+00
    0.32824E-08         0.82846E-12         0.00000E+00
    0.33043E-08         0.74511E-12         0.00000E+00
    0.33295E-08         0.66228E-12         0.00000E+00
    0.33578E-08         0.58364E-12         0.00000E+00
    0.33893E-08         0.51111E-12         0.00000E+00
    0.34240E-08         0.44549E-12         0.00000E+00
    0.34618E-08         0.38683E-12         0.00000E+00
    0.35028E-08         0.33473E-12         0.00000E+00
    0.35470E-08         0.28857E-12         0.00000E+00
    0.35943E-08         0.24759E-12         0.00000E+00
    0.36447E-08         0.21101E-12         0.00000E+00
    0.36983E-08         0.17812E-12         0.00000E+00
    0.37550E-08         0.14824E-12         0.00000E+00
    0.38149E-08         0.12077E-12         0.00000E+00
    0.38779E-08         0.95218E-13         0.00000E+00
    0.39440E-08         0.71135E-13         0.00000E+00
    0.40132E-08         0.48162E-13         0.00000E+00
    0.40855E-08         0.25998E-13         0.00000E+00
    0.41609E-08         0.43904E-14         0.00000E+00
    0.42394E-08        -0.16866E-13         0.00000E+00
    0.43210E-08        -0.37944E-13         0.00000E+00
    0.44057E-08        -0.58983E-13         0.00000E+00
    0.44934E-08        -0.80102E-13         0.00000E+00
    0.45841E-08        -0.10140E-12         0.00000E+00
    0.46779E-08        -0.12296E-12         0.00000E+00
    0.47746E-08        -0.14486E-12         0.00000E+00
    0.48743E-08        -0.16715E-12         0.00000E+00
    0.49770E-08        -0.18989E-12         0.00000E+00
    0.50826E-08        -0.21312E-12         0.00000E+00
    0.51911E-08        -0.23687E-12         0.00000E+00
    0.53024E-08        -0.26118E-12         0.00000E+00
    0.54166E-08        -0.28607E-12         0.00000E+00
    0.55335E-08        -0.31157E-12         0.00000E+00
    0.56531E-08        -0.33767E-12         0.00000E+00
    0.57755E-08        -0.36439E-12         0.00000E+00
    0.59004E-08        -0.39173E-12         0.00000E+00
    0.60280E-08        -0.41967E-12         0.00000E+00
    0.61580E-08        -0.44821E-12         0.00000E+00
    0.62905E-08        -0.47732E-12         0.00000E+00
    0.64254E-08        -0.50697E-12         0.00000E+00
    0.65625E-08        -0.53714E-12         0.00000E+00
    0.67019E-08        -0.56777E-12         0.00000E+00
    0.68433E-08        -0.59881E-12         0.00000E+00
    0.69869E-08        -0.63020E-12         0.00000E+00
    0.71323E-08        -0.66187E-12         0.00000E+00
    0.72796E-08        -0.69374E-12         0.00000E+00
    0.74285E-08        -0.72573E-12         0.00000E+00
    0.75791E-08        -0.75772E-12         0.00000E+00
    0.77311E-08        -0.78962E-12         0.00000E+00
    0.78845E-08        -0.82129E-12         0.00000E+00
    0.80391E-08        -0.85262E-12         0.00000E+00
    0.81947E-08        -0.88344E-12         0.00000E+00
    0.83511E-08        -0.91362E-12         0.00000E+00
    0.85084E-08        -0.94298E-12         0.00000E+00
    0.86662E-08        -0.97133E-12         0.00000E+00
    0.88243E-08        -0.99849E-12         0.00000E+00
    0.89827E-08        -0.10242E-11         0.00000E+00
    0.91411E-08        -0.10484E-11         0.00000E+00
    0.92993E-08        -0.10707E-11         0.00000E+00
    0.94570E-08        -0.10908E-11         0.00000E+00
    0.96142E-08        -0.11086E-11         0.00000E+00
    0.97706E-08        -0.11237E-11         0.00000E+00
    0.99259E-08        -0.11359E-11         0.00000E+00
    0.10080E-07        -0.11448E-11         0.00000E+00
    0.10232E-07        -0.11500E-11         0.00000E+00
    0.10383E-07        -0.11512E-11         0.00000E+00
    0.10532E-07        -0.11479E-11         0.00000E+00
    0.10678E-07        -0.11398E-11         0.00000E+00
    0.10822E-07        -0.11262E-11         0.00000E+00
    0.10963E-07        -0.11066E-11         0.00000E+00
    0.11101E-07        -0.10803E-11         0.00000E+00
    0.11236E-07        -0.10466E-11         0.00000E+00
    0.11367E-07        -0.10046E-11         0.00000E+00
    0.11494E-07        -0.95327E-12         0.00000E+00
    0.11617E-07        -0.89143E-12         0.00000E+00
    0.11736E-07        -0.81776E-12         0.00000E+00
    0.11850E-07        -0.73078E-12         0.00000E+00
    0.11959E-07        -0.62881E-12         0.00000E+00
    0.12062E-07        -0.51007E-12         0.00000E+00
    0.12160E-07        -0.37273E-12         0.00000E+00
    0.12253E-07        -0.21503E-12         0.00000E+00
    0.12339E-07        -0.35507E-13         0.00000E+00
    0.12419E-07         0.16671E-12         0.00000E+00
    0.12493E-07         0.39139E-12         0.00000E+00
    0.12560E-07         0.63660E-12         0.00000E+00
    0.12620E-07         0.89772E-12         0.00000E+00
    0.12673E-07         0.11662E-11         0.00000E+00
    0.12719E-07         0.14277E-11         0.00000E+00
    0.12757E-07         0.16596E-11         0.00000E+00
    0.12788E-07         0.18264E-11         0.00000E+00
    0.12811E-07         0.18723E-11         0.00000E+00
    0.12826E-07         0.17038E-11         0.00000E+00
    0.12833E-07         0.11587E-11         0.00000E+00
    0.12835E-07         0.74268E-21         0.00000E+00
    0.32183E-08         0.00000E+00         0.00000E+00
    0.32187E-08         0.54077E-12         0.00000E+00
    0.32211E-08         0.80699E-12         0.00000E+00
    0.32268E-08         0.91312E-12         0.00000E+00
    0.32358E-08         0.93061E-12         0.00000E+00
    0.32481E-08         0.89796E-12         0.00000E+00
    0.32636E-08         0.83773E-12         0.00000E+00
    0.32824E-08         0.76402E-12         0.00000E+00
    0.33043E-08         0.68576E-12         0.00000E+00
    0.33295E-08         0.60848E-12         0.00000E+00
    0.33578E-08         0.53542E-12         0.00000E+00
    0.33893E-08         0.46826E-12         0.00000E+00
    0.34240E-08         0.40767E-12         0.00000E+00
    0.34618E-08         0.35362E-12         0.00000E+00
    0.35028E-08         0.30572E-12         0.00000E+00
    0.35469E-08         0.26334E-12         0.00000E+00
    0.35942E-08         0.22576E-12         0.00000E+00
    0.36447E-08         0.19227E-12         0.00000E+00
    0.36983E-08         0.16218E-12         0.00000E+00
    0.37550E-08         0.13485E-12         0.00000E+00
    0.38149E-08         0.10974E-12         0.00000E+00
    0.38778E-08         0.86376E-13         0.00000E+00
    0.39440E-08         0.64355E-13         0.00000E+00
    0.40132E-08         0.43341E-13         0.00000E+00
    0.40855E-08         0.23056E-13         0.00000E+00
    0.41609E-08         0.32691E-14         0.00000E+00
    0.42394E-08        -0.16209E-13         0.00000E+00
    0.43210E-08        -0.35534E-13         0.00000E+00
    0.44057E-08        -0.54837E-13         0.00000E+00
    0.44934E-08        -0.74226E-13         0.00000E+00
    0.45841E-08        -0.93790E-13         0.00000E+00
    0.46779E-08        -0.11361E-12         0.00000E+00
    0.47746E-08        -0.13374E-12         0.00000E+00
    0.48743E-08        -0.15425E-12         0.00000E+00
    0.49770E-08        -0.17517E-12         0.00000E+00
    0.50826E-08        -0.19656E-12         0.00000E+00
    0.51911E-08        -0.21844E-12         0.00000E+00
    0.53024E-08        -0.24084E-12         0.00000E+00
    0.54166E-08        -0.26378E-12         0.00000E+00
    0.55335E-08        -0.28728E-12         0.00000E+00
    0.56531E-08        -0.31135E-12         0.00000E+00
    0.57755E-08        -0.33600E-12         0.00000E+00
    0.59004E-08        -0.36122E-12         0.00000E+00
    0.60280E-08        -0.38700E-12         0.00000E+00
    0.61580E-08        -0.41334E-12         0.00000E+00
    0.62905E-08        -0.44022E-12         0.00000E+00
    0.64253E-08        -0.46761E-12         0.00000E+00
    0.65625E-08        -0.49547E-12         0.00000E+00
    0.67019E-08        -0.52377E-12         0.00000E+00
    0.68433E-08        -0.55245E-12         0.00000E+00
    0.69869E-08        -0.58147E-12         0.00000E+00
    0.71323E-08        -0.61075E-12         0.00000E+00
    0.72796E-08        -0.64022E-12         0.00000E+00
    0.74285E-08        -0.66980E-12         0.00000E+00
    0.75791E-08        -0.69941E-12         0.00000E+00
    0.77311E-08        -0.72892E-12         0.00000E+00
    0.78845E-08        -0.75825E-12         0.00000E+00
    0.80391E-08        -0.78726E-12         0.00000E+00
    0.81947E-08        -0.81582E-12         0.00000E+00
    0.83511E-08        -0.84379E-12         0.00000E+00
    0.85084E-08        -0.87101E-12         0.00000E+00
    0.86661E-08        -0.89732E-12         0.00000E+00
    0.88243E-08        -0.92254E-12         0.00000E+00
    0.89827E-08        -0.94647E-12         0.00000E+00
    0.91411E-08        -0.96892E-12         0.00000E+00
    0.92992E-08        -0.98966E-12         0.00000E+00
    0.94570E-08        -0.10085E-11         0.00000E+00
    0.96142E-08        -0.10251E-11         0.00000E+00
    0.97706E-08        -0.10393E-11         0.00000E+00
    0.99259E-08        -0.10508E-11         0.00000E+00
    0.10080E-07        -0.10592E-11         0.00000E+00
    0.10232E-07        -0.10643E-11         0.00000E+00
    0.10383E-07        -0.10657E-11         0.00000E+00
    0.10532E-07        -0.10630E-11         0.00000E+00
    0.10678E-07        -0.10559E-11         0.00000E+00
    0.10822E-07        -0.10437E-11         0.00000E+00
    0.10963E-07        -0.10260E-11         0.00000E+00
    0.11101E-07        -0.10022E-11         0.00000E+00
    0.11236E-07        -0.97150E-12         0.00000E+00
    0.11367E-07        -0.93319E-12         0.00000E+00
    0.11494E-07        -0.88630E-12         0.00000E+00
    0.11617E-07        -0.82974E-12         0.00000E+00
    0.11736E-07        -0.76229E-12         0.00000E+00
    0.11850E-07        -0.68254E-12         0.00000E+00
    0.11959E-07        -0.58894E-12         0.00000E+00
    0.12062E-07        -0.47982E-12         0.00000E+00
    0.12160E-07        -0.35344E-12         0.00000E+00
    0.12253E-07        -0.20811E-12         0.00000E+00
    0.12339E-07        -0.42422E-13         0.00000E+00
    0.12419E-07         0.14454E-12         0.00000E+00
    0.12493E-07         0.35269E-12         0.00000E+00
    0.12560E-07         0.58043E-12         0.00000E+00
    0.12620E-07         0.82372E-12         0.00000E+00
    0.12673E-07         0.10750E-11         0.00000E+00
    0.12719E-07         0.13214E-11         0.00000E+00
    0.12757E-07         0.15425E-11         0.00000E+00
    0.12788E-07         0.17062E-11         0.00000E+00
    0.12811E-07         0.17612E-11         0.00000E+00
    0.12826E-07         0.16200E-11         0.00000E+00
    0.12833E-07         0.11196E-11         0.00000E+00
    0.12834E-07        -0.93132E-21         0.00000E+00
    0.32184E-08         0.00000E+00         0.00000E+00
    0.32188E-08         0.51434E-12         0.00000E+00
    0.32212E-08         0.75436E-12         0.00000E+00
    0.32269E-08         0.84469E-12         0.00000E+00
    0.32358E-08         0.85545E-12         0.00000E+00
    0.32481E-08         0.82188E-12         0.00000E+00
    0.32636E-08         0.76429E-12         0.00000E+00
    0.32824E-08         0.69530E-12         0.00000E+00
    0.33043E-08         0.62279E-12         0.00000E+00
    0.33294E-08         0.55163E-12         0.00000E+00
    0.33578E-08         0.48465E-12         0.00000E+00
    0.33893E-08         0.42329E-12         0.00000E+00
    0.34239E-08         0.36808E-12         0.00000E+00
    0.34618E-08         0.31895E-12         0.00000E+00
    0.35028E-08         0.27549E-12         0.00000E+00
    0.35469E-08         0.23710E-12         0.00000E+00
    0.35942E-08         0.20312E-12         0.00000E+00
    0.36447E-08         0.17286E-12         0.00000E+00
    0.36983E-08         0.14569E-12         0.00000E+00
    0.37550E-08         0.12103E-12         0.00000E+00
    0.38149E-08         0.98380E-13         0.00000E+00
    0.38778E-08         0.77303E-13         0.00000E+00
    0.39439E-08         0.57433E-13         0.00000E+00
    0.40132E-08         0.38464E-13         0.00000E+00
    0.40855E-08         0.20143E-13         0.00000E+00
    0.41609E-08         0.22616E-14         0.00000E+00
    0.42394E-08        -0.15353E-13         0.00000E+00
    0.43210E-08        -0.32841E-13         0.00000E+00
    0.44057E-08        -0.50320E-13         0.00000E+00
    0.44934E-08        -0.67888E-13         0.00000E+00
    0.45841E-08        -0.85625E-13         0.00000E+00
    0.46779E-08        -0.10360E-12         0.00000E+00
    0.47746E-08        -0.12187E-12         0.00000E+00
    0.48743E-08        -0.14049E-12         0.00000E+00
    0.49770E-08        -0.15950E-12         0.00000E+00
    0.50826E-08        -0.17894E-12         0.00000E+00
    0.51911E-08        -0.19882E-12         0.00000E+00
    0.53024E-08        -0.21919E-12         0.00000E+00
    0.54165E-08        -0.24006E-12         0.00000E+00
    0.55335E-08        -0.26145E-12         0.00000E+00
    0.56531E-08        -0.28336E-12         0.00000E+00
    0.57755E-08        -0.30580E-12         0.00000E+00
    0.59004E-08        -0.32876E-12         0.00000E+00
    0.60280E-08        -0.35225E-12         0.00000E+00
    0.61580E-08        -0.37625E-12         0.00000E+00
    0.62905E-08        -0.40074E-12         0.00000E+00
    0.64253E-08        -0.42571E-12         0.00000E+00
    0.65625E-08        -0.45111E-12         0.00000E+00
    0.67019E-08        -0.47691E-12         0.00000E+00
    0.68433E-08        -0.50308E-12         0.00000E+00
    0.69869E-08        -0.52955E-12         0.00000E+00
    0.71323E-08        -0.55627E-12         0.00000E+00
    0.72796E-08        -0.58317E-12         0.00000E+00
    0.74285E-08        -0.61018E-12         0.00000E+00
    0.75791E-08        -0.63721E-12         0.00000E+00
    0.77311E-08        -0.66418E-12         0.00000E+00
    0.78845E-08        -0.69098E-12         0.00000E+00
    0.80390E-08        -0.71749E-12         0.00000E+00
    0.81946E-08        -0.74361E-12         0.00000E+00
    0.83511E-08        -0.76920E-12         0.00000E+00
    0.85084E-08        -0.79411E-12         0.00000E+00
    0.86661E-08        -0.81821E-12         0.00000E+00
    0.88243E-08        -0.84132E-12         0.00000E+00
    0.89827E-08        -0.86327E-12         0.00000E+00
    0.91411E-08        -0.88388E-12         0.00000E+00
    0.92992E-08        -0.90294E-12         0.00000E+00
    0.94570E-08        -0.92026E-12         0.00000E+00
    0.96142E-08        -0.93561E-12         0.00000E+00
    0.97706E-08        -0.94874E-12         0.00000E+00
    0.99259E-08        -0.95941E-12         0.00000E+00
    0.10080E-07        -0.96735E-12         0.00000E+00
    0.10232E-07        -0.97225E-12         0.00000E+00
    0.10383E-07        -0.97381E-12         0.00000E+00
    0.10532E-07        -0.97166E-12         0.00000E+00
    0.10678E-07        -0.96543E-12         0.00000E+00
    0.10822E-07        -0.95468E-12         0.00000E+00
    0.10963E-07        -0.93893E-12         0.00000E+00
    0.11101E-07        -0.91761E-12         0.00000E+00
    0.11236E-07        -0.89009E-12         0.00000E+00
    0.11367E-07        -0.85563E-12         0.00000E+00
    0.11494E-07        -0.81338E-12         0.00000E+00
    0.11617E-07        -0.76235E-12         0.00000E+00
    0.11736E-07        -0.70141E-12         0.00000E+00
    0.11850E-07        -0.62927E-12         0.00000E+00
    0.11959E-07        -0.54450E-12         0.00000E+00
    0.12062E-07        -0.44554E-12         0.00000E+00
    0.12160E-07        -0.33079E-12         0.00000E+00
    0.12253E-07        -0.19865E-12         0.00000E+00
    0.12339E-07        -0.47752E-13         0.00000E+00
    0.12419E-07         0.12281E-12         0.00000E+00
    0.12493E-07         0.31312E-12         0.00000E+00
    0.12560E-07         0.52185E-12         0.00000E+00
    0.12620E-07         0.74555E-12         0.00000E+00
    0.12673E-07         0.97761E-12         0.00000E+00
    0.12719E-07         0.12067E-11         0.00000E+00
    0.12757E-07         0.14148E-11         0.00000E+00
    0.12788E-07         0.15731E-11         0.00000E+00
    0.12811E-07         0.16355E-11         0.00000E+00
    0.12826E-07         0.15218E-11         0.00000E+00
    0.12833E-07         0.10716E-11         0.00000E+00
    0.12834E-07        -0.74266E-21         0.00000E+00
    0.32185E-08         0.00000E+00         0.00000E+00
    0.32189E-08         0.48305E-12         0.00000E+00
    0.32212E-08         0.69430E-12         0.00000E+00
    0.32269E-08         0.76882E-12         0.00000E+00
    0.32358E-08         0.77359E-12         0.00000E+00
    0.32481E-08         0.73994E-12         0.00000E+00
    0.32636E-08         0.68585E-12         0.00000E+00
    0.32823E-08         0.62233E-12         0.00000E+00
    0.33043E-08         0.55625E-12         0.00000E+00
    0.33294E-08         0.49181E-12         0.00000E+00
    0.33578E-08         0.43142E-12         0.00000E+00
    0.33893E-08         0.37629E-12         0.00000E+00
    0.34239E-08         0.32682E-12         0.00000E+00
    0.34618E-08         0.28290E-12         0.00000E+00
    0.35028E-08         0.24412E-12         0.00000E+00
    0.35469E-08         0.20993E-12         0.00000E+00
    0.35942E-08         0.17970E-12         0.00000E+00
    0.36447E-08         0.15282E-12         0.00000E+00
    0.36983E-08         0.12870E-12         0.00000E+00
    0.37550E-08         0.10682E-12         0.00000E+00
    0.38149E-08         0.86728E-13         0.00000E+00
    0.38778E-08         0.68029E-13         0.00000E+00
    0.39439E-08         0.50395E-13         0.00000E+00
    0.40132E-08         0.33554E-13         0.00000E+00
    0.40855E-08         0.17278E-13         0.00000E+00
    0.41609E-08         0.13825E-14         0.00000E+00
    0.42394E-08        -0.14286E-13         0.00000E+00
    0.43210E-08        -0.29854E-13         0.00000E+00
    0.44057E-08        -0.45424E-13         0.00000E+00
    0.44934E-08        -0.61083E-13         0.00000E+00
    0.45841E-08        -0.76902E-13         0.00000E+00
    0.46779E-08        -0.92943E-13         0.00000E+00
    0.47746E-08        -0.10926E-12         0.00000E+00
    0.48743E-08        -0.12589E-12         0.00000E+00
    0.49770E-08        -0.14288E-12         0.00000E+00
    0.50826E-08        -0.16025E-12         0.00000E+00
    0.51911E-08        -0.17804E-12         0.00000E+00
    0.53024E-08        -0.19626E-12         0.00000E+00
    0.54165E-08        -0.21494E-12         0.00000E+00
    0.55335E-08        -0.23408E-12         0.00000E+00
    0.56531E-08        -0.25370E-12         0.00000E+00
    0.57755E-08        -0.27379E-12         0.00000E+00
    0.59004E-08        -0.29437E-12         0.00000E+00
    0.60279E-08        -0.31542E-12         0.00000E+00
    0.61580E-08        -0.33693E-12         0.00000E+00
    0.62905E-08        -0.35889E-12         0.00000E+00
    0.64253E-08        -0.38127E-12         0.00000E+00
    0.65625E-08        -0.40405E-12         0.00000E+00
    0.67018E-08        -0.42720E-12         0.00000E+00
    0.68433E-08        -0.45068E-12         0.00000E+00
    0.69868E-08        -0.47444E-12         0.00000E+00
    0.71323E-08        -0.49843E-12         0.00000E+00
    0.72796E-08        -0.52258E-12         0.00000E+00
    0.74285E-08        -0.54684E-12         0.00000E+00
    0.75791E-08        -0.57113E-12         0.00000E+00
    0.77311E-08        -0.59537E-12         0.00000E+00
    0.78845E-08        -0.61946E-12         0.00000E+00
    0.80390E-08        -0.64330E-12         0.00000E+00
    0.81946E-08        -0.66680E-12         0.00000E+00
    0.83511E-08        -0.68983E-12         0.00000E+00
    0.85084E-08        -0.71227E-12         0.00000E+00
    0.86661E-08        -0.73397E-12         0.00000E+00
    0.88243E-08        -0.75481E-12         0.00000E+00
    0.89827E-08        -0.77461E-12         0.00000E+00
    0.91411E-08        -0.79323E-12         0.00000E+00
    0.92992E-08        -0.81047E-12         0.00000E+00
    0.94570E-08        -0.82615E-12         0.00000E+00
    0.96142E-08        -0.84008E-12         0.00000E+00
    0.97706E-08        -0.85204E-12         0.00000E+00
    0.99259E-08        -0.86181E-12         0.00000E+00
    0.10080E-07        -0.86913E-12         0.00000E+00
    0.10232E-07        -0.87376E-12         0.00000E+00
    0.10383E-07        -0.87540E-12         0.00000E+00
    0.10532E-07        -0.87374E-12         0.00000E+00
    0.10678E-07        -0.86844E-12         0.00000E+00
    0.10822E-07        -0.85911E-12         0.00000E+00
    0.10963E-07        -0.84532E-12         0.00000E+00
    0.11101E-07        -0.82657E-12         0.00000E+00
    0.11236E-07        -0.80229E-12         0.00000E+00
    0.11367E-07        -0.77181E-12         0.00000E+00
    0.11494E-07        -0.73437E-12         0.00000E+00
    0.11617E-07        -0.68909E-12         0.00000E+00
    0.11736E-07        -0.63494E-12         0.00000E+00
    0.11850E-07        -0.57077E-12         0.00000E+00
    0.11959E-07        -0.49527E-12         0.00000E+00
    0.12062E-07        -0.40702E-12         0.00000E+00
    0.12160E-07        -0.30455E-12         0.00000E+00
    0.12253E-07        -0.18639E-12         0.00000E+00
    0.12339E-07        -0.51235E-13         0.00000E+00
    0.12419E-07         0.10181E-12         0.00000E+00
    0.12493E-07         0.27292E-12         0.00000E+00
    0.12560E-07         0.46108E-12         0.00000E+00
    0.12620E-07         0.66341E-12         0.00000E+00
    0.12673E-07         0.87423E-12         0.00000E+00
    0.12719E-07         0.10838E-11         0.00000E+00
    0.12757E-07         0.12764E-11         0.00000E+00
    0.12788E-07         0.14268E-11         0.00000E+00
    0.12811E-07         0.14942E-11         0.00000E+00
    0.12826E-07         0.14075E-11         0.00000E+00
    0.12832E-07         0.10129E-11         0.00000E+00
    0.12834E-07         0.00000E+00         0.00000E+00
    0.32186E-08         0.00000E+00         0.00000E+00
    0.32189E-08         0.44593E-12         0.00000E+00
    0.32212E-08         0.62594E-12         0.00000E+00
    0.32269E-08         0.68511E-12         0.00000E+00
    0.32358E-08         0.68483E-12         0.00000E+00
    0.32481E-08         0.65208E-12         0.00000E+00
    0.32636E-08         0.60241E-12         0.00000E+00
    0.32823E-08         0.54519E-12         0.00000E+00
    0.33043E-08         0.48624E-12         0.00000E+00
    0.33294E-08         0.42913E-12         0.00000E+00
    0.33577E-08         0.37584E-12         0.00000E+00
    0.33893E-08         0.32736E-12         0.00000E+00
    0.34239E-08         0.28397E-12         0.00000E+00
    0.34618E-08         0.24555E-12         0.00000E+00
    0.35028E-08         0.21170E-12         0.00000E+00
    0.35469E-08         0.18190E-12         0.00000E+00
    0.35942E-08         0.15559E-12         0.00000E+00
    0.36447E-08         0.13222E-12         0.00000E+00
    0.36983E-08         0.11126E-12         0.00000E+00
    0.37550E-08         0.92264E-13         0.00000E+00
    0.38149E-08         0.74819E-13         0.00000E+00
    0.38778E-08         0.58583E-13         0.00000E+00
    0.39439E-08         0.43267E-13         0.00000E+00
    0.40132E-08         0.28631E-13         0.00000E+00
    0.40855E-08         0.14478E-13         0.00000E+00
    0.41609E-08         0.64651E-15         0.00000E+00
    0.42394E-08        -0.12998E-13         0.00000E+00
    0.43210E-08        -0.26563E-13         0.00000E+00
    0.44057E-08        -0.40141E-13         0.00000E+00
    0.44934E-08        -0.53804E-13         0.00000E+00
    0.45841E-08        -0.67616E-13         0.00000E+00
    0.46779E-08        -0.81630E-13         0.00000E+00
    0.47746E-08        -0.95890E-13         0.00000E+00
    0.48743E-08        -0.11043E-12         0.00000E+00
    0.49770E-08        -0.12529E-12         0.00000E+00
    0.50826E-08        -0.14050E-12         0.00000E+00
    0.51911E-08        -0.15607E-12         0.00000E+00
    0.53024E-08        -0.17203E-12         0.00000E+00
    0.54165E-08        -0.18840E-12         0.00000E+00
    0.55335E-08        -0.20517E-12         0.00000E+00
    0.56531E-08        -0.22237E-12         0.00000E+00
    0.57754E-08        -0.23999E-12         0.00000E+00
    0.59004E-08        -0.25804E-12         0.00000E+00
    0.60279E-08        -0.27650E-12         0.00000E+00
    0.61580E-08        -0.29538E-12         0.00000E+00
    0.62905E-08        -0.31465E-12         0.00000E+00
    0.64253E-08        -0.33430E-12         0.00000E+00
    0.65625E-08        -0.35431E-12         0.00000E+00
    0.67018E-08        -0.37464E-12         0.00000E+00
    0.68433E-08        -0.39526E-12         0.00000E+00
    0.69868E-08        -0.41614E-12         0.00000E+00
    0.71323E-08        -0.43722E-12         0.00000E+00
    0.72795E-08        -0.45846E-12         0.00000E+00
    0.74285E-08        -0.47979E-12         0.00000E+00
    0.75791E-08        -0.50115E-12         0.00000E+00
    0.77311E-08        -0.52248E-12         0.00000E+00
    0.78845E-08        -0.54368E-12         0.00000E+00
    0.80390E-08        -0.56467E-12         0.00000E+00
    0.81946E-08        -0.58537E-12         0.00000E+00
    0.83511E-08        -0.60566E-12         0.00000E+00
    0.85084E-08        -0.62544E-12         0.00000E+00
    0.86661E-08        -0.64459E-12         0.00000E+00
    0.88243E-08        -0.66298E-12         0.00000E+00
    0.89827E-08        -0.68047E-12         0.00000E+00
    0.91410E-08        -0.69693E-12         0.00000E+00
    0.92992E-08        -0.71219E-12         0.00000E+00
    0.94570E-08        -0.72610E-12         0.00000E+00
    0.96142E-08        -0.73847E-12         0.00000E+00
    0.97706E-08        -0.74913E-12         0.00000E+00
    0.99259E-08        -0.75788E-12         0.00000E+00
    0.10080E-07        -0.76450E-12         0.00000E+00
    0.10232E-07        -0.76876E-12         0.00000E+00
    0.10383E-07        -0.77042E-12         0.00000E+00
    0.10532E-07        -0.76920E-12         0.00000E+00
    0.10678E-07        -0.76480E-12         0.00000E+00
    0.10822E-07        -0.75688E-12         0.00000E+00
    0.10963E-07        -0.74508E-12         0.00000E+00
    0.11101E-07        -0.72894E-12         0.00000E+00
    0.11236E-07        -0.70797E-12         0.00000E+00
    0.11367E-07        -0.68159E-12         0.00000E+00
    0.11494E-07        -0.64913E-12         0.00000E+00
    0.11617E-07        -0.60981E-12         0.00000E+00
    0.11736E-07        -0.56273E-12         0.00000E+00
    0.11850E-07        -0.50685E-12         0.00000E+00
    0.11959E-07        -0.44104E-12         0.00000E+00
    0.12062E-07        -0.36403E-12         0.00000E+00
    0.12160E-07        -0.27448E-12         0.00000E+00
    0.12253E-07        -0.17107E-12         0.00000E+00
    0.12339E-07        -0.52597E-13         0.00000E+00
    0.12419E-07         0.81800E-13         0.00000E+00
    0.12493E-07         0.23239E-12         0.00000E+00
    0.12560E-07         0.39841E-12         0.00000E+00
    0.12620E-07         0.57752E-12         0.00000E+00
    0.12673E-07         0.76499E-12         0.00000E+00
    0.12719E-07         0.95260E-12         0.00000E+00
    0.12757E-07         0.11270E-11         0.00000E+00
    0.12788E-07         0.12667E-11         0.00000E+00
    0.12811E-07         0.13365E-11         0.00000E+00
    0.12826E-07         0.12750E-11         0.00000E+00
    0.12832E-07         0.94123E-12         0.00000E+00
    0.12834E-07         0.00000E+00         0.00000E+00
    0.32187E-08         0.00000E+00         0.00000E+00
    0.32190E-08         0.40176E-12         0.00000E+00
    0.32212E-08         0.54838E-12         0.00000E+00
    0.32269E-08         0.59318E-12         0.00000E+00
    0.32358E-08         0.58898E-12         0.00000E+00
    0.32481E-08         0.55823E-12         0.00000E+00
    0.32636E-08         0.51397E-12         0.00000E+00
    0.32823E-08         0.46392E-12         0.00000E+00
    0.33043E-08         0.41286E-12         0.00000E+00
    0.33294E-08         0.36368E-12         0.00000E+00
    0.33577E-08         0.31801E-12         0.00000E+00
    0.33892E-08         0.27660E-12         0.00000E+00
    0.34239E-08         0.23965E-12         0.00000E+00
    0.34618E-08         0.20701E-12         0.00000E+00
    0.35028E-08         0.17830E-12         0.00000E+00
    0.35469E-08         0.15308E-12         0.00000E+00
    0.35942E-08         0.13084E-12         0.00000E+00
    0.36447E-08         0.11110E-12         0.00000E+00
    0.36983E-08         0.93423E-13         0.00000E+00
    0.37550E-08         0.77400E-13         0.00000E+00
    0.38148E-08         0.62689E-13         0.00000E+00
    0.38778E-08         0.48995E-13         0.00000E+00
    0.39439E-08         0.36072E-13         0.00000E+00
    0.40132E-08         0.23717E-13         0.00000E+00
    0.40855E-08         0.11762E-13         0.00000E+00
    0.41609E-08         0.68477E-16         0.00000E+00
    0.42394E-08        -0.11475E-13         0.00000E+00
    0.43210E-08        -0.22960E-13         0.00000E+00
    0.44057E-08        -0.34462E-13         0.00000E+00
    0.44934E-08        -0.46046E-13         0.00000E+00
    0.45841E-08        -0.57763E-13         0.00000E+00
    0.46779E-08        -0.69658E-13         0.00000E+00
    0.47746E-08        -0.81768E-13         0.00000E+00
    0.48743E-08        -0.94125E-13         0.00000E+00
    0.49770E-08        -0.10676E-12         0.00000E+00
    0.50826E-08        -0.11969E-12         0.00000E+00
    0.51911E-08        -0.13294E-12         0.00000E+00
    0.53024E-08        -0.14652E-12         0.00000E+00
    0.54165E-08        -0.16045E-12         0.00000E+00
    0.55335E-08        -0.17473E-12         0.00000E+00
    0.56531E-08        -0.18938E-12         0.00000E+00
    0.57754E-08        -0.20439E-12         0.00000E+00
    0.59004E-08        -0.21977E-12         0.00000E+00
    0.60279E-08        -0.23551E-12         0.00000E+00
    0.61580E-08        -0.25160E-12         0.00000E+00
    0.62905E-08        -0.26804E-12         0.00000E+00
    0.64253E-08        -0.28480E-12         0.00000E+00
    0.65625E-08        -0.30187E-12         0.00000E+00
    0.67018E-08        -0.31922E-12         0.00000E+00
    0.68433E-08        -0.33682E-12         0.00000E+00
    0.69868E-08        -0.35465E-12         0.00000E+00
    0.71323E-08        -0.37265E-12         0.00000E+00
    0.72795E-08        -0.39079E-12         0.00000E+00
    0.74285E-08        -0.40902E-12         0.00000E+00
    0.75791E-08        -0.42727E-12         0.00000E+00
    0.77311E-08        -0.44550E-12         0.00000E+00
    0.78845E-08        -0.46363E-12         0.00000E+00
    0.80390E-08        -0.48159E-12         0.00000E+00
    0.81946E-08        -0.49930E-12         0.00000E+00
    0.83511E-08        -0.51668E-12         0.00000E+00
    0.85083E-08        -0.53362E-12         0.00000E+00
    0.86661E-08        -0.55003E-12         0.00000E+00
    0.88243E-08        -0.56580E-12         0.00000E+00
    0.89827E-08        -0.58081E-12         0.00000E+00
    0.91410E-08        -0.59495E-12         0.00000E+00
    0.92992E-08        -0.60808E-12         0.00000E+00
    0.94570E-08        -0.62006E-12         0.00000E+00
    0.96142E-08        -0.63074E-12         0.00000E+00
    0.97706E-08        -0.63997E-12         0.00000E+00
    0.99259E-08        -0.64757E-12         0.00000E+00
    0.10080E-07        -0.65338E-12         0.00000E+00
    0.10232E-07        -0.65719E-12         0.00000E+00
    0.10383E-07        -0.65879E-12         0.00000E+00
    0.10532E-07        -0.65795E-12         0.00000E+00
    0.10678E-07        -0.65441E-12         0.00000E+00
    0.10822E-07        -0.64790E-12         0.00000E+00
    0.10963E-07        -0.63808E-12         0.00000E+00
    0.11101E-07        -0.62459E-12         0.00000E+00
    0.11236E-07        -0.60701E-12         0.00000E+00
    0.11367E-07        -0.58484E-12         0.00000E+00
    0.11494E-07        -0.55750E-12         0.00000E+00
    0.11617E-07        -0.52434E-12         0.00000E+00
    0.11736E-07        -0.48457E-12         0.00000E+00
    0.11850E-07        -0.43733E-12         0.00000E+00
    0.11959E-07        -0.38161E-12         0.00000E+00
    0.12062E-07        -0.31633E-12         0.00000E+00
    0.12160E-07        -0.24032E-12         0.00000E+00
    0.12253E-07        -0.15241E-12         0.00000E+00
    0.12339E-07        -0.51547E-13         0.00000E+00
    0.12419E-07         0.63091E-13         0.00000E+00
    0.12493E-07         0.19182E-12         0.00000E+00
    0.12560E-07         0.33411E-12         0.00000E+00
    0.12620E-07         0.48812E-12         0.00000E+00
    0.12673E-07         0.65006E-12         0.00000E+00
    0.12719E-07         0.81319E-12         0.00000E+00
    0.12757E-07         0.96651E-12         0.00000E+00
    0.12788E-07         0.10924E-11         0.00000E+00
    0.12811E-07         0.11613E-11         0.00000E+00
    0.12825E-07         0.11221E-11         0.00000E+00
    0.12832E-07         0.85367E-12         0.00000E+00
    0.12834E-07         0.00000E+00         0.00000E+00
    0.32188E-08         0.00000E+00         0.00000E+00
    0.32190E-08         0.34889E-12         0.00000E+00
    0.32213E-08         0.46067E-12         0.00000E+00
    0.32269E-08         0.49269E-12         0.00000E+00
    0.32358E-08         0.48583E-12         0.00000E+00
    0.32481E-08         0.45835E-12         0.00000E+00
    0.32636E-08         0.42059E-12         0.00000E+00
    0.32823E-08         0.37861E-12         0.00000E+00
    0.33043E-08         0.33619E-12         0.00000E+00
    0.33294E-08         0.29559E-12         0.00000E+00
    0.33577E-08         0.25806E-12         0.00000E+00
    0.33892E-08         0.22414E-12         0.00000E+00
    0.34239E-08         0.19396E-12         0.00000E+00
    0.34618E-08         0.16736E-12         0.00000E+00
    0.35028E-08         0.14402E-12         0.00000E+00
    0.35469E-08         0.12354E-12         0.00000E+00
    0.35942E-08         0.10552E-12         0.00000E+00
    0.36447E-08         0.89537E-13         0.00000E+00
    0.36983E-08         0.75232E-13         0.00000E+00
    0.37550E-08         0.62272E-13         0.00000E+00
    0.38148E-08         0.50374E-13         0.00000E+00
    0.38778E-08         0.39296E-13         0.00000E+00
    0.39439E-08         0.28838E-13         0.00000E+00
    0.40132E-08         0.18833E-13         0.00000E+00
    0.40855E-08         0.91455E-14         0.00000E+00
    0.41609E-08        -0.33691E-15         0.00000E+00
    0.42394E-08        -0.97049E-14         0.00000E+00
    0.43210E-08        -0.19033E-13         0.00000E+00
    0.44057E-08        -0.28382E-13         0.00000E+00
    0.44934E-08        -0.37803E-13         0.00000E+00
    0.45841E-08        -0.47339E-13         0.00000E+00
    0.46779E-08        -0.57025E-13         0.00000E+00
    0.47746E-08        -0.66892E-13         0.00000E+00
    0.48743E-08        -0.76964E-13         0.00000E+00
    0.49770E-08        -0.87266E-13         0.00000E+00
    0.50826E-08        -0.97814E-13         0.00000E+00
    0.51911E-08        -0.10863E-12         0.00000E+00
    0.53024E-08        -0.11971E-12         0.00000E+00
    0.54165E-08        -0.13109E-12         0.00000E+00
    0.55335E-08        -0.14276E-12         0.00000E+00
    0.56531E-08        -0.15473E-12         0.00000E+00
    0.57754E-08        -0.16700E-12         0.00000E+00
    0.59004E-08        -0.17957E-12         0.00000E+00
    0.60279E-08        -0.19244E-12         0.00000E+00
    0.61580E-08        -0.20561E-12         0.00000E+00
    0.62905E-08        -0.21905E-12         0.00000E+00
    0.64253E-08        -0.23277E-12         0.00000E+00
    0.65625E-08        -0.24674E-12         0.00000E+00
    0.67018E-08        -0.26094E-12         0.00000E+00
    0.68433E-08        -0.27536E-12         0.00000E+00
    0.69868E-08        -0.28996E-12         0.00000E+00
    0.71323E-08        -0.30471E-12         0.00000E+00
    0.72795E-08        -0.31957E-12         0.00000E+00
    0.74285E-08        -0.33451E-12         0.00000E+00
    0.75791E-08        -0.34948E-12         0.00000E+00
    0.77311E-08        -0.36443E-12         0.00000E+00
    0.78845E-08        -0.37930E-12         0.00000E+00
    0.80390E-08        -0.39404E-12         0.00000E+00
    0.81946E-08        -0.40858E-12         0.00000E+00
    0.83511E-08        -0.42285E-12         0.00000E+00
    0.85083E-08        -0.43677E-12         0.00000E+00
    0.86661E-08        -0.45026E-12         0.00000E+00
    0.88243E-08        -0.46324E-12         0.00000E+00
    0.89827E-08        -0.47560E-12         0.00000E+00
    0.91410E-08        -0.48725E-12         0.00000E+00
    0.92992E-08        -0.49808E-12         0.00000E+00
    0.94570E-08        -0.50798E-12         0.00000E+00
    0.96142E-08        -0.51682E-12         0.00000E+00
    0.97706E-08        -0.52449E-12         0.00000E+00
    0.99259E-08        -0.53083E-12         0.00000E+00
    0.10080E-07        -0.53571E-12         0.00000E+00
    0.10232E-07        -0.53897E-12         0.00000E+00
    0.10383E-07        -0.54043E-12         0.00000E+00
    0.10532E-07        -0.53991E-12         0.00000E+00
    0.10678E-07        -0.53719E-12         0.00000E+00
    0.10822E-07        -0.53206E-12         0.00000E+00
    0.10963E-07        -0.52424E-12         0.00000E+00
    0.11101E-07        -0.51343E-12         0.00000E+00
    0.11236E-07        -0.49929E-12         0.00000E+00
    0.11367E-07        -0.48141E-12         0.00000E+00
    0.11494E-07        -0.45933E-12         0.00000E+00
    0.11617E-07        -0.43251E-12         0.00000E+00
    0.11736E-07        -0.40030E-12         0.00000E+00
    0.11850E-07        -0.36199E-12         0.00000E+00
    0.11959E-07        -0.31675E-12         0.00000E+00
    0.12062E-07        -0.26368E-12         0.00000E+00
    0.12161E-07        -0.20180E-12         0.00000E+00
    0.12253E-07        -0.13014E-12         0.00000E+00
    0.12339E-07        -0.47780E-13         0.00000E+00
    0.12419E-07         0.46001E-13         0.00000E+00
    0.12493E-07         0.15153E-12         0.00000E+00
    0.12560E-07         0.26849E-12         0.00000E+00
    0.12620E-07         0.39551E-12         0.00000E+00
    0.12673E-07         0.52965E-12         0.00000E+00
    0.12719E-07         0.66569E-12         0.00000E+00
    0.12757E-07         0.79491E-12         0.00000E+00
    0.12788E-07         0.90349E-12         0.00000E+00
    0.12811E-07         0.96792E-12         0.00000E+00
    0.12825E-07         0.94675E-12         0.00000E+00
    0.12832E-07         0.74636E-12         0.00000E+00
    0.12833E-07         0.00000E+00         0.00000E+00
    0.32189E-08         0.00000E+00         0.00000E+00
    0.32191E-08         0.28512E-12         0.00000E+00
    0.32213E-08         0.36196E-12         0.00000E+00
    0.32269E-08         0.38331E-12         0.00000E+00
    0.32358E-08         0.37523E-12         0.00000E+00
    0.32481E-08         0.35244E-12         0.00000E+00
    0.32636E-08         0.32230E-12         0.00000E+00
    0.32823E-08         0.28936E-12         0.00000E+00
    0.33043E-08         0.25637E-12         0.00000E+00
    0.33294E-08         0.22499E-12         0.00000E+00
    0.33577E-08         0.19610E-12         0.00000E+00
    0.33892E-08         0.17009E-12         0.00000E+00
    0.34239E-08         0.14701E-12         0.00000E+00
    0.34618E-08         0.12671E-12         0.00000E+00
    0.35028E-08         0.10894E-12         0.00000E+00
    0.35469E-08         0.93379E-13         0.00000E+00
    0.35942E-08         0.79697E-13         0.00000E+00
    0.36447E-08         0.67579E-13         0.00000E+00
    0.36983E-08         0.56739E-13         0.00000E+00
    0.37550E-08         0.46923E-13         0.00000E+00
    0.38148E-08         0.37910E-13         0.00000E+00
    0.38778E-08         0.29517E-13         0.00000E+00
    0.39439E-08         0.21590E-13         0.00000E+00
    0.40132E-08         0.14002E-13         0.00000E+00
    0.40855E-08         0.66483E-14         0.00000E+00
    0.41609E-08        -0.55492E-15         0.00000E+00
    0.42394E-08        -0.76768E-14         0.00000E+00
    0.43210E-08        -0.14774E-13         0.00000E+00
    0.44057E-08        -0.21892E-13         0.00000E+00
    0.44934E-08        -0.29070E-13         0.00000E+00
    0.45841E-08        -0.36340E-13         0.00000E+00
    0.46779E-08        -0.43729E-13         0.00000E+00
    0.47746E-08        -0.51259E-13         0.00000E+00
    0.48743E-08        -0.58950E-13         0.00000E+00
    0.49770E-08        -0.66819E-13         0.00000E+00
    0.50826E-08        -0.74881E-13         0.00000E+00
    0.51911E-08        -0.83146E-13         0.00000E+00
    0.53024E-08        -0.91626E-13         0.00000E+00
    0.54165E-08        -0.10033E-12         0.00000E+00
    0.55335E-08        -0.10926E-12         0.00000E+00
    0.56531E-08        -0.11842E-12         0.00000E+00
    0.57754E-08        -0.12781E-12         0.00000E+00
    0.59004E-08        -0.13744E-12         0.00000E+00
    0.60279E-08        -0.14730E-12         0.00000E+00
    0.61580E-08        -0.15739E-12         0.00000E+00
    0.62905E-08        -0.16769E-12         0.00000E+00
    0.64253E-08        -0.17821E-12         0.00000E+00
    0.65625E-08        -0.18892E-12         0.00000E+00
    0.67018E-08        -0.19981E-12         0.00000E+00
    0.68433E-08        -0.21087E-12         0.00000E+00
    0.69868E-08        -0.22207E-12         0.00000E+00
    0.71323E-08        -0.23339E-12         0.00000E+00
    0.72795E-08        -0.24480E-12         0.00000E+00
    0.74285E-08        -0.25627E-12         0.00000E+00
    0.75791E-08        -0.26777E-12         0.00000E+00
    0.77311E-08        -0.27925E-12         0.00000E+00
    0.78845E-08        -0.29068E-12         0.00000E+00
    0.80390E-08        -0.30201E-12         0.00000E+00
    0.81946E-08        -0.31319E-12         0.00000E+00
    0.83511E-08        -0.32417E-12         0.00000E+00
    0.85083E-08        -0.33488E-12         0.00000E+00
    0.86661E-08        -0.34527E-12         0.00000E+00
    0.88243E-08        -0.35527E-12         0.00000E+00
    0.89827E-08        -0.36480E-12         0.00000E+00
    0.91410E-08        -0.37379E-12         0.00000E+00
    0.92992E-08        -0.38216E-12         0.00000E+00
    0.94570E-08        -0.38982E-12         0.00000E+00
    0.96142E-08        -0.39668E-12         0.00000E+00
    0.97706E-08        -0.40264E-12         0.00000E+00
    0.99259E-08        -0.40760E-12         0.00000E+00
    0.10080E-07        -0.41144E-12         0.00000E+00
    0.10232E-07        -0.41404E-12         0.00000E+00
    0.10383E-07        -0.41527E-12         0.00000E+00
    0.10532E-07        -0.41500E-12         0.00000E+00
    0.10678E-07        -0.41305E-12         0.00000E+00
    0.10822E-07        -0.40926E-12         0.00000E+00
    0.10963E-07        -0.40343E-12         0.00000E+00
    0.11101E-07        -0.39532E-12         0.00000E+00
    0.11236E-07        -0.38467E-12         0.00000E+00
    0.11367E-07        -0.37117E-12         0.00000E+00
    0.11494E-07        -0.35447E-12         0.00000E+00
    0.11617E-07        -0.33415E-12         0.00000E+00
    0.11736E-07        -0.30972E-12         0.00000E+00
    0.11850E-07        -0.28063E-12         0.00000E+00
    0.11959E-07        -0.24623E-12         0.00000E+00
    0.12062E-07        -0.20582E-12         0.00000E+00
    0.12161E-07        -0.15866E-12         0.00000E+00
    0.12253E-07        -0.10395E-12         0.00000E+00
    0.12339E-07        -0.40973E-13         0.00000E+00
    0.12419E-07         0.30867E-13         0.00000E+00
    0.12493E-07         0.11189E-12         0.00000E+00
    0.12560E-07         0.20191E-12         0.00000E+00
    0.12620E-07         0.30000E-12         0.00000E+00
    0.12673E-07         0.40404E-12         0.00000E+00
    0.12719E-07         0.51021E-12         0.00000E+00
    0.12757E-07         0.61217E-12         0.00000E+00
    0.12788E-07         0.69951E-12         0.00000E+00
    0.12811E-07         0.75559E-12         0.00000E+00
    0.12825E-07         0.74680E-12         0.00000E+00
    0.12832E-07         0.61408E-12         0.00000E+00
    0.12833E-07        -0.93132E-21         0.00000E+00
    0.32189E-08         0.00000E+00         0.00000E+00
    0.32191E-08         0.20745E-12         0.00000E+00
    0.32213E-08         0.25170E-12         0.00000E+00
    0.32269E-08         0.26470E-12         0.00000E+00
    0.32358E-08         0.25704E-12         0.00000E+00
    0.32481E-08         0.24052E-12         0.00000E+00
    0.32636E-08         0.21917E-12         0.00000E+00
    0.32823E-08         0.19628E-12         0.00000E+00
    0.33042E-08         0.17353E-12         0.00000E+00
    0.33294E-08         0.15201E-12         0.00000E+00
    0.33577E-08         0.13228E-12         0.00000E+00
    0.33892E-08         0.11458E-12         0.00000E+00
    0.34239E-08         0.98915E-13         0.00000E+00
    0.34618E-08         0.85174E-13         0.00000E+00
    0.35028E-08         0.73165E-13         0.00000E+00
    0.35469E-08         0.62665E-13         0.00000E+00
    0.35942E-08         0.53446E-13         0.00000E+00
    0.36447E-08         0.45290E-13         0.00000E+00
    0.36983E-08         0.37998E-13         0.00000E+00
    0.37550E-08         0.31396E-13         0.00000E+00
    0.38148E-08         0.25335E-13         0.00000E+00
    0.38778E-08         0.19689E-13         0.00000E+00
    0.39439E-08         0.14354E-13         0.00000E+00
    0.40132E-08         0.92436E-14         0.00000E+00
    0.40855E-08         0.42876E-14         0.00000E+00
    0.41609E-08        -0.57089E-15         0.00000E+00
    0.42394E-08        -0.53783E-14         0.00000E+00
    0.43210E-08        -0.10173E-13         0.00000E+00
    0.44057E-08        -0.14985E-13         0.00000E+00
    0.44934E-08        -0.19841E-13         0.00000E+00
    0.45841E-08        -0.24762E-13         0.00000E+00
    0.46779E-08        -0.29766E-13         0.00000E+00
    0.47746E-08        -0.34868E-13         0.00000E+00
    0.48743E-08        -0.40082E-13         0.00000E+00
    0.49770E-08        -0.45420E-13         0.00000E+00
    0.50826E-08        -0.50889E-13         0.00000E+00
    0.51911E-08        -0.56499E-13         0.00000E+00
    0.53024E-08        -0.62256E-13         0.00000E+00
    0.54165E-08        -0.68166E-13         0.00000E+00
    0.55335E-08        -0.74232E-13         0.00000E+00
    0.56531E-08        -0.80458E-13         0.00000E+00
    0.57754E-08        -0.86844E-13         0.00000E+00
    0.59004E-08        -0.93390E-13         0.00000E+00
    0.60279E-08        -0.10009E-12         0.00000E+00
    0.61580E-08        -0.10695E-12         0.00000E+00
    0.62905E-08        -0.11397E-12         0.00000E+00
    0.64253E-08        -0.12112E-12         0.00000E+00
    0.65625E-08        -0.12841E-12         0.00000E+00
    0.67018E-08        -0.13583E-12         0.00000E+00
    0.68433E-08        -0.14336E-12         0.00000E+00
    0.69868E-08        -0.15098E-12         0.00000E+00
    0.71323E-08        -0.15869E-12         0.00000E+00
    0.72795E-08        -0.16647E-12         0.00000E+00
    0.74285E-08        -0.17428E-12         0.00000E+00
    0.75791E-08        -0.18212E-12         0.00000E+00
    0.77311E-08        -0.18995E-12         0.00000E+00
    0.78845E-08        -0.19775E-12         0.00000E+00
    0.80390E-08        -0.20548E-12         0.00000E+00
    0.81946E-08        -0.21311E-12         0.00000E+00
    0.83511E-08        -0.22061E-12         0.00000E+00
    0.85083E-08        -0.22793E-12         0.00000E+00
    0.86661E-08        -0.23503E-12         0.00000E+00
    0.88243E-08        -0.24186E-12         0.00000E+00
    0.89827E-08        -0.24839E-12         0.00000E+00
    0.91410E-08        -0.25455E-12         0.00000E+00
    0.92992E-08        -0.26029E-12         0.00000E+00
    0.94570E-08        -0.26555E-12         0.00000E+00
    0.96142E-08        -0.27026E-12         0.00000E+00
    0.97706E-08        -0.27437E-12         0.00000E+00
    0.99259E-08        -0.27781E-12         0.00000E+00
    0.10080E-07        -0.28048E-12         0.00000E+00
    0.10232E-07        -0.28232E-12         0.00000E+00
    0.10383E-07        -0.28324E-12         0.00000E+00
    0.10532E-07        -0.28313E-12         0.00000E+00
    0.10678E-07        -0.28190E-12         0.00000E+00
    0.10822E-07        -0.27942E-12         0.00000E+00
    0.10963E-07        -0.27555E-12         0.00000E+00
    0.11101E-07        -0.27015E-12         0.00000E+00
    0.11236E-07        -0.26303E-12         0.00000E+00
    0.11367E-07        -0.25398E-12         0.00000E+00
    0.11494E-07        -0.24277E-12         0.00000E+00
    0.11617E-07        -0.22910E-12         0.00000E+00
    0.11736E-07        -0.21265E-12         0.00000E+00
    0.11850E-07        -0.19303E-12         0.00000E+00
    0.11959E-07        -0.16982E-12         0.00000E+00
    0.12062E-07        -0.14251E-12         0.00000E+00
    0.12161E-07        -0.11060E-12         0.00000E+00
    0.12253E-07        -0.73529E-13         0.00000E+00
    0.12339E-07        -0.30793E-13         0.00000E+00
    0.12420E-07         0.18048E-13         0.00000E+00
    0.12493E-07         0.73240E-13         0.00000E+00
    0.12560E-07         0.13473E-12         0.00000E+00
    0.12620E-07         0.20192E-12         0.00000E+00
    0.12673E-07         0.27352E-12         0.00000E+00
    0.12719E-07         0.34695E-12         0.00000E+00
    0.12757E-07         0.41835E-12         0.00000E+00
    0.12788E-07         0.48020E-12         0.00000E+00
    0.12811E-07         0.52349E-12         0.00000E+00
    0.12825E-07         0.52100E-12         0.00000E+00
    0.12832E-07         0.44972E-12         0.00000E+00
    0.12833E-07         0.18869E-21         0.00000E+00
    0.32189E-08        -0.93132E-21         0.00000E+00
    0.32191E-08         0.11174E-12         0.00000E+00
    0.32213E-08         0.12997E-12         0.00000E+00
    0.32269E-08         0.13626E-12         0.00000E+00
    0.32358E-08         0.13129E-12         0.00000E+00
    0.32481E-08         0.12255E-12         0.00000E+00
    0.32636E-08         0.11132E-12         0.00000E+00
    0.32823E-08         0.99504E-13         0.00000E+00
    0.33042E-08         0.87801E-13         0.00000E+00
    0.33294E-08         0.76803E-13         0.00000E+00
    0.33577E-08         0.66746E-13         0.00000E+00
    0.33892E-08         0.57750E-13         0.00000E+00
    0.34239E-08         0.49806E-13         0.00000E+00
    0.34617E-08         0.42852E-13         0.00000E+00
    0.35028E-08         0.36784E-13         0.00000E+00
    0.35469E-08         0.31485E-13         0.00000E+00
    0.35942E-08         0.26838E-13         0.00000E+00
    0.36447E-08         0.22730E-13         0.00000E+00
    0.36983E-08         0.19059E-13         0.00000E+00
    0.37550E-08         0.15737E-13         0.00000E+00
    0.38148E-08         0.12686E-13         0.00000E+00
    0.38778E-08         0.98436E-14         0.00000E+00
    0.39439E-08         0.71563E-14         0.00000E+00
    0.40132E-08         0.45807E-14         0.00000E+00
    0.40855E-08         0.20814E-14         0.00000E+00
    0.41609E-08        -0.37030E-15         0.00000E+00
    0.42394E-08        -0.27979E-14         0.00000E+00
    0.43210E-08        -0.52203E-14         0.00000E+00
    0.44057E-08        -0.76533E-14         0.00000E+00
    0.44934E-08        -0.10110E-13         0.00000E+00
    0.45841E-08        -0.12600E-13         0.00000E+00
    0.46779E-08        -0.15134E-13         0.00000E+00
    0.47746E-08        -0.17719E-13         0.00000E+00
    0.48743E-08        -0.20361E-13         0.00000E+00
    0.49770E-08        -0.23067E-13         0.00000E+00
    0.50826E-08        -0.25840E-13         0.00000E+00
    0.51911E-08        -0.28686E-13         0.00000E+00
    0.53024E-08        -0.31607E-13         0.00000E+00
    0.54165E-08        -0.34606E-13         0.00000E+00
    0.55335E-08        -0.37686E-13         0.00000E+00
    0.56531E-08        -0.40847E-13         0.00000E+00
    0.57754E-08        -0.44090E-13         0.00000E+00
    0.59004E-08        -0.47415E-13         0.00000E+00
    0.60279E-08        -0.50821E-13         0.00000E+00
    0.61580E-08        -0.54307E-13         0.00000E+00
    0.62905E-08        -0.57870E-13         0.00000E+00
    0.64253E-08        -0.61507E-13         0.00000E+00
    0.65625E-08        -0.65213E-13         0.00000E+00
    0.67018E-08        -0.68984E-13         0.00000E+00
    0.68433E-08        -0.72813E-13         0.00000E+00
    0.69868E-08        -0.76693E-13         0.00000E+00
    0.71323E-08        -0.80615E-13         0.00000E+00
    0.72795E-08        -0.84571E-13         0.00000E+00
    0.74285E-08        -0.88550E-13         0.00000E+00
    0.75791E-08        -0.92540E-13         0.00000E+00
    0.77311E-08        -0.96527E-13         0.00000E+00
    0.78845E-08        -0.10050E-12         0.00000E+00
    0.80390E-08        -0.10444E-12         0.00000E+00
    0.81946E-08        -0.10832E-12         0.00000E+00
    0.83511E-08        -0.11215E-12         0.00000E+00
    0.85083E-08        -0.11588E-12         0.00000E+00
    0.86661E-08        -0.11950E-12         0.00000E+00
    0.88243E-08        -0.12299E-12         0.00000E+00
    0.89827E-08        -0.12632E-12         0.00000E+00
    0.91410E-08        -0.12947E-12         0.00000E+00
    0.92992E-08        -0.13240E-12         0.00000E+00
    0.94570E-08        -0.13510E-12         0.00000E+00
    0.96142E-08        -0.13752E-12         0.00000E+00
    0.97706E-08        -0.13963E-12         0.00000E+00
    0.99259E-08        -0.14140E-12         0.00000E+00
    0.10080E-07        -0.14279E-12         0.00000E+00
    0.10232E-07        -0.14375E-12         0.00000E+00
    0.10383E-07        -0.14425E-12         0.00000E+00
    0.10532E-07        -0.14423E-12         0.00000E+00
    0.10678E-07        -0.14364E-12         0.00000E+00
    0.10822E-07        -0.14242E-12         0.00000E+00
    0.10963E-07        -0.14050E-12         0.00000E+00
    0.11101E-07        -0.13780E-12         0.00000E+00
    0.11236E-07        -0.13423E-12         0.00000E+00
    0.11367E-07        -0.12969E-12         0.00000E+00
    0.11494E-07        -0.12405E-12         0.00000E+00
    0.11617E-07        -0.11717E-12         0.00000E+00
    0.11736E-07        -0.10888E-12         0.00000E+00
    0.11850E-07        -0.98990E-13         0.00000E+00
    0.11959E-07        -0.87269E-13         0.00000E+00
    0.12062E-07        -0.73471E-13         0.00000E+00
    0.12161E-07        -0.57327E-13         0.00000E+00
    0.12253E-07        -0.38555E-13         0.00000E+00
    0.12339E-07        -0.16885E-13         0.00000E+00
    0.12420E-07         0.79185E-14         0.00000E+00
    0.12493E-07         0.35992E-13         0.00000E+00
    0.12560E-07         0.67341E-13         0.00000E+00
    0.12620E-07         0.10167E-12         0.00000E+00
    0.12673E-07         0.13841E-12         0.00000E+00
    0.12719E-07         0.17618E-12         0.00000E+00
    0.12757E-07         0.21340E-12         0.00000E+00
    0.12788E-07         0.24566E-12         0.00000E+00
    0.12811E-07         0.27021E-12         0.00000E+00
    0.12825E-07         0.26964E-12         0.00000E+00
    0.12832E-07         0.24351E-12         0.00000E+00
    0.12833E-07        -0.18869E-21         0.00000E+00
    0.32190E-08        -0.18626E-20         0.00000E+00
    0.32191E-08         0.58771E-13         0.00000E+00
    0.32213E-08         0.66309E-13         0.00000E+00
    0.32269E-08         0.69479E-13         0.00000E+00
    0.32358E-08         0.66555E-13         0.00000E+00
    0.32481E-08         0.62043E-13         0.00000E+00
    0.32636E-08         0.56226E-13         0.00000E+00
    0.32823E-08         0.50202E-13         0.00000E+00
    0.33042E-08         0.44239E-13         0.00000E+00
    0.33294E-08         0.38661E-13         0.00000E+00
    0.33577E-08         0.33568E-13         0.00000E+00
    0.33892E-08         0.29022E-13         0.00000E+00
    0.34239E-08         0.25014E-13         0.00000E+00
    0.34617E-08         0.21509E-13         0.00000E+00
    0.35028E-08         0.18455E-13         0.00000E+00
    0.35469E-08         0.15790E-13         0.00000E+00
    0.35942E-08         0.13455E-13         0.00000E+00
    0.36447E-08         0.11391E-13         0.00000E+00
    0.36983E-08         0.95476E-14         0.00000E+00
    0.37550E-08         0.78793E-14         0.00000E+00
    0.38148E-08         0.63476E-14         0.00000E+00
    0.38778E-08         0.49201E-14         0.00000E+00
    0.39439E-08         0.35701E-14         0.00000E+00
    0.40132E-08         0.22757E-14         0.00000E+00
    0.40855E-08         0.10192E-14         0.00000E+00
    0.41609E-08        -0.21404E-15         0.00000E+00
    0.42394E-08        -0.14357E-14         0.00000E+00
    0.43210E-08        -0.26552E-14         0.00000E+00
    0.44057E-08        -0.38806E-14         0.00000E+00
    0.44934E-08        -0.51182E-14         0.00000E+00
    0.45841E-08        -0.63735E-14         0.00000E+00
    0.46779E-08        -0.76509E-14         0.00000E+00
    0.47746E-08        -0.89544E-14         0.00000E+00
    0.48743E-08        -0.10287E-13         0.00000E+00
    0.49770E-08        -0.11652E-13         0.00000E+00
    0.50826E-08        -0.13052E-13         0.00000E+00
    0.51911E-08        -0.14488E-13         0.00000E+00
    0.53024E-08        -0.15963E-13         0.00000E+00
    0.54165E-08        -0.17477E-13         0.00000E+00
    0.55335E-08        -0.19033E-13         0.00000E+00
    0.56531E-08        -0.20629E-13         0.00000E+00
    0.57754E-08        -0.22267E-13         0.00000E+00
    0.59004E-08        -0.23947E-13         0.00000E+00
    0.60279E-08        -0.25668E-13         0.00000E+00
    0.61580E-08        -0.27430E-13         0.00000E+00
    0.62905E-08        -0.29231E-13         0.00000E+00
    0.64253E-08        -0.31069E-13         0.00000E+00
    0.65625E-08        -0.32942E-13         0.00000E+00
    0.67018E-08        -0.34849E-13         0.00000E+00
    0.68433E-08        -0.36785E-13         0.00000E+00
    0.69868E-08        -0.38747E-13         0.00000E+00
    0.71323E-08        -0.40731E-13         0.00000E+00
    0.72795E-08        -0.42732E-13         0.00000E+00
    0.74285E-08        -0.44745E-13         0.00000E+00
    0.75791E-08        -0.46763E-13         0.00000E+00
    0.77311E-08        -0.48781E-13         0.00000E+00
    0.78845E-08        -0.50790E-13         0.00000E+00
    0.80390E-08        -0.52784E-13         0.00000E+00
    0.81946E-08        -0.54753E-13         0.00000E+00
    0.83511E-08        -0.56688E-13         0.00000E+00
    0.85083E-08        -0.58578E-13         0.00000E+00
    0.86661E-08        -0.60413E-13         0.00000E+00
    0.88243E-08        -0.62182E-13         0.00000E+00
    0.89827E-08        -0.63871E-13         0.00000E+00
    0.91410E-08        -0.65468E-13         0.00000E+00
    0.92992E-08        -0.66958E-13         0.00000E+00
    0.94570E-08        -0.68326E-13         0.00000E+00
    0.96142E-08        -0.69556E-13         0.00000E+00
    0.97706E-08        -0.70631E-13         0.00000E+00
    0.99259E-08        -0.71534E-13         0.00000E+00
    0.10080E-07        -0.72244E-13         0.00000E+00
    0.10232E-07        -0.72742E-13         0.00000E+00
    0.10383E-07        -0.73003E-13         0.00000E+00
    0.10532E-07        -0.73005E-13         0.00000E+00
    0.10678E-07        -0.72719E-13         0.00000E+00
    0.10822E-07        -0.72115E-13         0.00000E+00
    0.10963E-07        -0.71159E-13         0.00000E+00
    0.11101E-07        -0.69811E-13         0.00000E+00
    0.11236E-07        -0.68026E-13         0.00000E+00
    0.11367E-07        -0.65750E-13         0.00000E+00
    0.11494E-07        -0.62922E-13         0.00000E+00
    0.11617E-07        -0.59468E-13         0.00000E+00
    0.11736E-07        -0.55303E-13         0.00000E+00
    0.11850E-07        -0.50329E-13         0.00000E+00
    0.11959E-07        -0.44432E-13         0.00000E+00
    0.12062E-07        -0.37486E-13         0.00000E+00
    0.12161E-07        -0.29353E-13         0.00000E+00
    0.12253E-07        -0.19888E-13         0.00000E+00
    0.12339E-07        -0.89540E-14         0.00000E+00
    0.12420E-07         0.35746E-14         0.00000E+00
    0.12493E-07         0.17769E-13         0.00000E+00
    0.12560E-07         0.33646E-13         0.00000E+00
    0.12620E-07         0.51049E-13         0.00000E+00
    0.12673E-07         0.69745E-13         0.00000E+00
    0.12719E-07         0.88968E-13         0.00000E+00
    0.12757E-07         0.10812E-12         0.00000E+00
    0.12788E-07         0.12465E-12         0.00000E+00
    0.12811E-07         0.13804E-12         0.00000E+00
    0.12825E-07         0.13775E-12         0.00000E+00
    0.12832E-07         0.12852E-12         0.00000E+00
    0.12833E-07         0.37738E-21         0.00000E+00
CELL_DATA       5000
TENSORS stressef double 
   -0.28312E+08         0.18310E+05         0.00000E+00
    0.18310E+05        -0.66087E+08         0.00000E+00
    0.00000E+00         0.00000E+00        -0.28320E+08
 
   -0.28327E+08         0.47879E+05         0.00000E+00
    0.47879E+05        -0.66110E+08         0.00000E+00
    0.00000E+00         0.00000E+00        -0.28331E+08
 
   -0.28341E+08         0.68026E+05         0.00000E+00
    0.68026E+05        -0.66140E+08         0.00000E+00
    0.00000E+00         0.00000E+00        -0.28344E+08
 
   -0.28356E+08         0.84378E+05         0.00000E+00
    0.84378E+05        -0.66173E+08         0.00000E+00
    0.00000E+00         0.00000E+00        -0.28359E+08
 
   -0.28372E+08         0.98437E+05         0.00000E+00
    0.98437E+05        -0.66209E+08         0.00000E+00
    0.00000E+00         0.00000E+00        -0.28374E+08
 
   -0.28388E+08         0.11110E+06         0.00000E+00
    0.11110E+06        -0.66248E+08         0.00000E+00
    0.00000E+00         0.00000E+00        -0.28391E+08
 
   -0.28406E+08         0.12290E+06         0.00000E+00
    0.12290E+06        -0.66288E+08         0.00000E+00
    0.00000E+00         0.00000E+00        -0.28408E+08
 
   -0.28424E+08         0.13413E+06         0.00000E+00
    0.13413E+06        -0.66331E+08         0.00000E+00
    0.00000E+00         0.00000E+00        -0.28426E+08
 
   -0.28443E+08         0.14497E+06         0.00000E+00
    0.14497E+06        -0.66374E+08         0.00000E+00
    0.00000E+00         0.00000E+00        -0.28445E+08
 
   -0.28462E+08         0.15552E+06         0.00000E+00
    0.15552E+06        -0.66419E+08         0.00000E+00
    0.00000E+00         0.00000E+00        -0.28464E+08
 
   -0.28482E+08         0.16582E+06         0.00000E+00
    0.16582E+06        -0.66464E+08         0.00000E+00
    0.00000E+00         0.00000E+00        -0.28484E+08
 
   -0.28501E+08         0.17588E+06         0.00000E+00
    0.17588E+06        -0.66510E+08         0.00000E+00
    0.00000E+00         0.00000E+00        -0.28503E+08
 
   -0.28521E+08         0.18572E+06         0.00000E+00
    0.18572E+06        -0.66556E+08         0.00000E+00
    0.00000E+00         0.00000E+00        -0.28523E+08
 
   -0.28541E+08         0.19533E+06         0.00000E+00
    0.19533E+06        -0.66602E+08         0.00000E+00
    0.00000E+00         0.00000E+00        -0.28543E+08
 
   -0.28561E+08         0.20473E+06         0.00000E+00
    0.20473E+06        -0.66649E+08         0.00000E+00
    0.00000E+00         0.00000E+00        -0.28563E+08
 
   -0.28582E+08         0.21391E+06         0.00000E+00
    0.21391E+06        -0.66697E+08         0.00000E+00
    0.00000E+00         0.00000E+00        -0.28584E+08
 
   -0.28602E+08         0.22287E+06         0.00000E+00
    0.22287E+06        -0.66744E+08         0.00000E+00
    0.00000E+00         0.00000E+00        -0.28604E+08
 
   -0.28623E+08         0.23164E+06         0.00000E+00
    0.23164E+06        -0.66792E+08         0.00000E+00
    0.00000E+00         0.00000E+00        -0.28625E+08
 
   -0.28644E+08         0.24022E+06         0.00000E+00
    0.24022E+06        -0.66841E+08         0.00000E+00
    0.00000E+00         0.00000E+00        -0.28645E+08
 
   -0.28665E+08         0.24863E+06         0.00000E+00
    0.24863E+06        -0.66890E+08         0.00000E+00
    0.00000E+00         0.00000E+00        -0.28666E+08
 
   -0.28686E+08         0.25690E+06         0.00000E+00
    0.25690E+06        -0.66939E+08         0.00000E+00
    0.00000E+00         0.00000E+00        -0.28688E+08
 
   -0.28707E+08         0.26503E+06         0.00000E+00
    0.26503E+06        -0.66989E+08         0.00000E+00
    0.00000E+00         0.00000E+00        -0.28709E+08
 
   -0.28729E+08         0.27305E+06         0.00000E+00
    0.27305E+06        -0.67040E+08         0.00000E+00
    0.00000E+00         0.00000E+00        -0.28731E+08
 
   -0.28751E+08         0.28098E+06         0.00000E+00
    0.28098E+06        -0.67092E+08         0.00000E+00
    0.00000E+00         0.00000E+00        -0.28753E+08
 
   -0.28774E+08         0.28884E+06         0.00000E+00
    0.28884E+06        -0.67144E+08         0.00000E+00
    0.00000E+00         0.00000E+00        -0.28775E+08
 
   -0.28796E+08         0.29665E+06         0.00000E+00
    0.29665E+06        -0.67197E+08         0.00000E+00
    0.00000E+00         0.00000E+00        -0.28798E+08
 
   -0.28819E+08         0.30442E+06         0.00000E+00
    0.30442E+06        -0.67251E+08         0.00000E+00
    0.00000E+00         0.00000E+00        -0.28821E+08
 
   -0.28843E+08         0.31218E+06         0.00000E+00
    0.31218E+06        -0.67305E+08         0.00000E+00
    0.00000E+00         0.00000E+00        -0.28844E+08
 
   -0.28867E+08         0.31993E+06         0.00000E+00
    0.31993E+06        -0.67361E+08         0.00000E+00
    0.00000E+00         0.00000E+00        -0.28868E+08
 
   -0.28891E+08         0.32768E+06         0.00000E+00
    0.32768E+06        -0.67418E+08         0.00000E+00
    0.00000E+00         0.00000E+00        -0.28893E+08
 
   -0.28916E+08         0.33546E+06         0.00000E+00
    0.33546E+06        -0.67476E+08         0.00000E+00
    0.00000E+00         0.00000E+00        -0.28917E+08
 
   -0.28941E+08         0.34327E+06         0.00000E+00
    0.34327E+06        -0.67535E+08         0.00000E+00
    0.00000E+00         0.00000E+00        -0.28943E+08
 
   -0.28967E+08         0.35111E+06         0.00000E+00
    0.35111E+06        -0.67595E+08         0.00000E+00
    0.00000E+00         0.00000E+00        -0.28968E+08
 
   -0.28993E+08         0.35901E+06         0.00000E+00
    0.35901E+06        -0.67656E+08         0.00000E+00
    0.00000E+00         0.00000E+00        -0.28995E+08
 
   -0.29020E+08         0.36695E+06         0.00000E+00
    0.36695E+06        -0.67719E+08         0.00000E+00
    0.00000E+00         0.00000E+00        -0.29022E+08
 
   -0.29047E+08         0.37496E+06         0.00000E+00
    0.37496E+06        -0.67783E+08         0.00000E+00
    0.00000E+00         0.00000E+00        -0.29049E+08
 
   -0.29075E+08         0.38302E+06         0.00000E+00
    0.38302E+06        -0.67848E+08         0.00000E+00
    0.00000E+00         0.00000E+00        -0.29077E+08
 
   -0.29104E+08         0.39115E+06         0.00000E+00
    0.39115E+06        -0.67914E+08         0.00000E+00
    0.00000E+00         0.00000E+00        -0.29105E+08
 
   -0.29133E+08         0.39935E+06         0.00000E+00
    0.39935E+06        -0.67982E+08         0.00000E+00
    0.00000E+00         0.00000E+00        -0.29135E+08
 
   -0.29163E+08         0.40761E+06         0.00000E+00
    0.40761E+06        -0.68052E+08         0.00000E+00
    0.00000E+00         0.00000E+00        -0.29164E+08
 
   -0.29193E+08         0.41593E+06         0.00000E+00
    0.41593E+06        -0.68123E+08         0.00000E+00
    0.00000E+00         0.00000E+00        -0.29195E+08
 
   -0.29224E+08         0.42431E+06         0.00000E+00
    0.42431E+06        -0.68196E+08         0.00000E+00
    0.00000E+00         0.00000E+00        -0.29226E+08
 
   -0.29256E+08         0.43275E+06         0.00000E+00
    0.43275E+06        -0.68270E+08         0.00000E+00
    0.00000E+00         0.00000E+00        -0.29258E+08
 
   -0.29289E+08         0.44125E+06         0.00000E+00
    0.44125E+06        -0.68346E+08         0.00000E+00
    0.00000E+00         0.00000E+00        -0.29290E+08
 
   -0.29322E+08         0.44979E+06         0.00000E+00
    0.44979E+06        -0.68423E+08         0.00000E+00
    0.00000E+00         0.00000E+00        -0.29324E+08
 
   -0.29356E+08         0.45838E+06         0.00000E+00
    0.45838E+06        -0.68502E+08         0.00000E+00
    0.00000E+00         0.00000E+00        -0.29357E+08
 
   -0.29390E+08         0.46700E+06         0.00000E+00
    0.46700E+06        -0.68583E+08         0.00000E+00
    0.00000E+00         0.00000E+00        -0.29392E+08
 
   -0.29426E+08         0.47565E+06         0.00000E+00
    0.47565E+06        -0.68666E+08         0.00000E+00
    0.00000E+00         0.00000E+00        -0.29428E+08
 
   -0.29462E+08         0.48432E+06         0.00000E+00
    0.48432E+06        -0.68751E+08         0.00000E+00
    0.00000E+00         0.00000E+00        -0.29464E+08
 
   -0.29499E+08         0.49299E+06         0.00000E+00
    0.49299E+06        -0.68837E+08         0.00000E+00
    0.00000E+00         0.00000E+00        -0.29501E+08
 
   -0.29537E+08         0.50165E+06         0.00000E+00
    0.50165E+06        -0.68925E+08         0.00000E+00
    0.00000E+00         0.00000E+00        -0.29539E+08
 
   -0.29576E+08         0.51030E+06         0.00000E+00
    0.51030E+06        -0.69015E+08         0.00000E+00
    0.00000E+00         0.00000E+00        -0.29577E+08
 
   -0.29615E+08         0.51891E+06         0.00000E+00
    0.51891E+06        -0.69108E+08         0.00000E+00
    0.00000E+00         0.00000E+00        -0.29617E+08
 
   -0.29655E+08         0.52747E+06         0.00000E+00
    0.52747E+06        -0.69202E+08         0.00000E+00
    0.00000E+00         0.00000E+00        -0.29657E+08
 
   -0.29697E+08         0.53597E+06         0.00000E+00
    0.53597E+06        -0.69298E+08         0.00000E+00
    0.00000E+00         0.00000E+00        -0.29698E+08
 
   -0.29739E+08         0.54438E+06         0.00000E+00
    0.54438E+06        -0.69396E+08         0.00000E+00
    0.00000E+00         0.00000E+00        -0.29740E+08
 
   -0.29782E+08         0.55269E+06         0.00000E+00
    0.55269E+06        -0.69496E+08         0.00000E+00
    0.00000E+00         0.00000E+00        -0.29783E+08
 
   -0.29825E+08         0.56087E+06         0.00000E+00
    0.56087E+06        -0.69598E+08         0.00000E+00
    0.00000E+00         0.00000E+00        -0.29827E+08
 
   -0.29870E+08         0.56890E+06         0.00000E+00
    0.56890E+06        -0.69702E+08         0.00000E+00
    0.00000E+00         0.00000E+00        -0.29872E+08
 
   -0.29916E+08         0.57675E+06         0.00000E+00
    0.57675E+06        -0.69809E+08         0.00000E+00
    0.00000E+00         0.00000E+00        -0.29917E+08
 
   -0.29962E+08         0.58440E+06         0.00000E+00
    0.58440E+06        -0.69917E+08         0.00000E+00
    0.00000E+00         0.00000E+00        -0.29964E+08
 
   -0.30010E+08         0.59182E+06         0.00000E+00
    0.59182E+06        -0.70028E+08         0.00000E+00
    0.00000E+00         0.00000E+00        -0.30011E+08
 
   -0.30058E+08         0.59898E+06         0.00000E+00
    0.59898E+06        -0.70141E+08         0.00000E+00
    0.00000E+00         0.00000E+00        -0.30060E+08
 
   -0.30108E+08         0.60584E+06         0.00000E+00
    0.60584E+06        -0.70256E+08         0.00000E+00
    0.00000E+00         0.00000E+00        -0.30109E+08
 
   -0.30158E+08         0.61236E+06         0.00000E+00
    0.61236E+06        -0.70373E+08         0.00000E+00
    0.00000E+00         0.00000E+00        -0.30159E+08
 
   -0.30209E+08         0.61851E+06         0.00000E+00
    0.61851E+06        -0.70493E+08         0.00000E+00
    0.00000E+00         0.00000E+00        -0.30211E+08
 
   -0.30262E+08         0.62424E+06         0.00000E+00
    0.62424E+06        -0.70615E+08         0.00000E+00
    0.00000E+00         0.00000E+00        -0.30263E+08
 
   -0.30315E+08         0.62951E+06         0.00000E+00
    0.62951E+06        -0.70739E+08         0.00000E+00
    0.00000E+00         0.00000E+00        -0.30316E+08
 
   -0.30369E+08         0.63427E+06         0.00000E+00
    0.63427E+06        -0.70865E+08         0.00000E+00
    0.00000E+00         0.00000E+00        -0.30370E+08
 
   -0.30425E+08         0.63847E+06         0.00000E+00
    0.63847E+06        -0.70993E+08         0.00000E+00
    0.00000E+00         0.00000E+00        -0.30425E+08
 
   -0.30481E+08         0.64204E+06         0.00000E+00
    0.64204E+06        -0.71124E+08         0.00000E+00
    0.00000E+00         0.00000E+00        -0.30481E+08
 
   -0.30538E+08         0.64493E+06         0.00000E+00
    0.64493E+06        -0.71257E+08         0.00000E+00
    0.00000E+00         0.00000E+00        -0.30539E+08
 
   -0.30596E+08         0.64707E+06         0.00000E+00
    0.64707E+06        -0.71393E+08         0.00000E+00
    0.00000E+00         0.00000E+00        -0.30597E+08
 
   -0.30656E+08         0.64839E+06         0.00000E+00
    0.64839E+06        -0.71530E+08         0.00000E+00
    0.00000E+00         0.00000E+00        -0.30656E+08
 
   -0.30716E+08         0.64883E+06         0.00000E+00
    0.64883E+06        -0.71670E+08         0.00000E+00
    0.00000E+00         0.00000E+00        -0.30716E+08
 
   -0.30777E+08         0.64830E+06         0.00000E+00
    0.64830E+06        -0.71813E+08         0.00000E+00
    0.00000E+00         0.00000E+00        -0.30777E+08
 
   -0.30840E+08         0.64673E+06         0.00000E+00
    0.64673E+06        -0.71958E+08         0.00000E+00
    0.00000E+00         0.00000E+00        -0.30839E+08
 
   -0.30903E+08         0.64402E+06         0.00000E+00
    0.64402E+06        -0.72105E+08         0.00000E+00
    0.00000E+00         0.00000E+00        -0.30902E+08
 
   -0.30967E+08         0.64011E+06         0.00000E+00
    0.64011E+06        -0.72254E+08         0.00000E+00
    0.00000E+00         0.00000E+00        -0.30966E+08
 
   -0.31033E+08         0.63490E+06         0.00000E+00
    0.63490E+06        -0.72406E+08         0.00000E+00
    0.00000E+00         0.00000E+00        -0.31032E+08
 
   -0.31099E+08         0.62832E+06         0.00000E+00
    0.62832E+06        -0.72561E+08         0.00000E+00
    0.00000E+00         0.00000E+00        -0.31098E+08
 
   -0.31167E+08         0.62028E+06         0.00000E+00
    0.62028E+06        -0.72717E+08         0.00000E+00
    0.00000E+00         0.00000E+00        -0.31165E+08
 
   -0.31236E+08         0.61073E+06         0.00000E+00
    0.61073E+06        -0.72876E+08         0.00000E+00
    0.00000E+00         0.00000E+00        -0.31234E+08
 
   -0.31305E+08         0.59959E+06         0.00000E+00
    0.59959E+06        -0.73038E+08         0.00000E+00
    0.00000E+00         0.00000E+00        -0.31303E+08
 
   -0.31376E+08         0.58682E+06         0.00000E+00
    0.58682E+06        -0.73202E+08         0.00000E+00
    0.00000E+00         0.00000E+00        -0.31373E+08
 
   -0.31448E+08         0.57238E+06         0.00000E+00
    0.57238E+06        -0.73368E+08         0.00000E+00
    0.00000E+00         0.00000E+00        -0.31445E+08
 
   -0.31520E+08         0.55627E+06         0.00000E+00
    0.55627E+06        -0.73535E+08         0.00000E+00
    0.00000E+00         0.00000E+00        -0.31517E+08
 
   -0.31593E+08         0.53848E+06         0.00000E+00
    0.53848E+06        -0.73705E+08         0.00000E+00
    0.00000E+00         0.00000E+00        -0.31589E+08
 
   -0.31667E+08         0.51903E+06         0.00000E+00
    0.51903E+06        -0.73876E+08         0.00000E+00
    0.00000E+00         0.00000E+00        -0.31663E+08
 
   -0.31741E+08         0.49792E+06         0.00000E+00
    0.49792E+06        -0.74047E+08         0.00000E+00
    0.00000E+00         0.00000E+00        -0.31736E+08
 
   -0.31815E+08         0.47518E+06         0.00000E+00
    0.47518E+06        -0.74218E+08         0.00000E+00
    0.00000E+00         0.00000E+00        -0.31810E+08
 
   -0.31888E+08         0.45074E+06         0.00000E+00
    0.45074E+06        -0.74389E+08         0.00000E+00
    0.00000E+00         0.00000E+00        -0.31883E+08
 
   -0.31961E+08         0.42446E+06         0.00000E+00
    0.42446E+06        -0.74558E+08         0.00000E+00
    0.00000E+00         0.00000E+00        -0.31956E+08
 
   -0.32032E+08         0.39600E+06         0.00000E+00
    0.39600E+06        -0.74722E+08         0.00000E+00
    0.00000E+00         0.00000E+00        -0.32026E+08
 
   -0.32102E+08         0.36470E+06         0.00000E+00
    0.36470E+06        -0.74882E+08         0.00000E+00
    0.00000E+00         0.00000E+00        -0.32095E+08
 
   -0.32168E+08         0.32939E+06         0.00000E+00
    0.32939E+06        -0.75034E+08         0.00000E+00
    0.00000E+00         0.00000E+00        -0.32161E+08
 
   -0.32232E+08         0.28803E+06         0.00000E+00
    0.28803E+06        -0.75178E+08         0.00000E+00
    0.00000E+00         0.00000E+00        -0.32223E+08
 
   -0.32291E+08         0.23709E+06         0.00000E+00
    0.23709E+06        -0.75308E+08         0.00000E+00
    0.00000E+00         0.00000E+00        -0.32280E+08
 
   -0.32348E+08         0.17063E+06         0.00000E+00
    0.17063E+06        -0.75427E+08         0.00000E+00
    0.00000E+00         0.00000E+00        -0.32333E+08
 
   -0.32405E+08         0.66301E+05         0.00000E+00
    0.66301E+05        -0.75522E+08         0.00000E+00
    0.00000E+00         0.00000E+00        -0.32378E+08
 
   -0.28295E+08         0.15432E+05         0.00000E+00
    0.15432E+05        -0.66093E+08         0.00000E+00
    0.00000E+00         0.00000E+00        -0.28316E+08
 
   -0.28316E+08         0.42547E+05         0.00000E+00
    0.42547E+05        -0.66115E+08         0.00000E+00
    0.00000E+00         0.00000E+00        -0.28329E+08
 
   -0.28332E+08         0.63042E+05         0.00000E+00
    0.63042E+05        -0.66144E+08         0.00000E+00
    0.00000E+00         0.00000E+00        -0.28343E+08
 
   -0.28348E+08         0.79414E+05         0.00000E+00
    0.79414E+05        -0.66176E+08         0.00000E+00
    0.00000E+00         0.00000E+00        -0.28357E+08
 
   -0.28365E+08         0.93621E+05         0.00000E+00
    0.93621E+05        -0.66212E+08         0.00000E+00
    0.00000E+00         0.00000E+00        -0.28373E+08
 
   -0.28382E+08         0.10639E+06         0.00000E+00
    0.10639E+06        -0.66250E+08         0.00000E+00
    0.00000E+00         0.00000E+00        -0.28390E+08
 
   -0.28400E+08         0.11827E+06         0.00000E+00
    0.11827E+06        -0.66291E+08         0.00000E+00
    0.00000E+00         0.00000E+00        -0.28407E+08
 
   -0.28419E+08         0.12955E+06         0.00000E+00
    0.12955E+06        -0.66333E+08         0.00000E+00
    0.00000E+00         0.00000E+00        -0.28425E+08
 
   -0.28438E+08         0.14042E+06         0.00000E+00
    0.14042E+06        -0.66376E+08         0.00000E+00
    0.00000E+00         0.00000E+00        -0.28444E+08
 
   -0.28457E+08         0.15097E+06         0.00000E+00
    0.15097E+06        -0.66421E+08         0.00000E+00
    0.00000E+00         0.00000E+00        -0.28463E+08
 
   -0.28477E+08         0.16124E+06         0.00000E+00
    0.16124E+06        -0.66466E+08         0.00000E+00
    0.00000E+00         0.00000E+00        -0.28483E+08
 
   -0.28496E+08         0.17126E+06         0.00000E+00
    0.17126E+06        -0.66512E+08         0.00000E+00
    0.00000E+00         0.00000E+00        -0.28502E+08
 
   -0.28516E+08         0.18105E+06         0.00000E+00
    0.18105E+06        -0.66558E+08         0.00000E+00
    0.00000E+00         0.00000E+00        -0.28522E+08
 
   -0.28537E+08         0.19059E+06         0.00000E+00
    0.19059E+06        -0.66604E+08         0.00000E+00
    0.00000E+00         0.00000E+00        -0.28542E+08
 
   -0.28557E+08         0.19991E+06         0.00000E+00
    0.19991E+06        -0.66651E+08         0.00000E+00
    0.00000E+00         0.00000E+00        -0.28562E+08
 
   -0.28577E+08         0.20900E+06         0.00000E+00
    0.20900E+06        -0.66699E+08         0.00000E+00
    0.00000E+00         0.00000E+00        -0.28583E+08
 
   -0.28598E+08         0.21787E+06         0.00000E+00
    0.21787E+06        -0.66746E+08         0.00000E+00
    0.00000E+00         0.00000E+00        -0.28603E+08
 
   -0.28619E+08         0.22654E+06         0.00000E+00
    0.22654E+06        -0.66794E+08         0.00000E+00
    0.00000E+00         0.00000E+00        -0.28624E+08
 
   -0.28640E+08         0.23502E+06         0.00000E+00
    0.23502E+06        -0.66843E+08         0.00000E+00
    0.00000E+00         0.00000E+00        -0.28645E+08
 
   -0.28661E+08         0.24333E+06         0.00000E+00
    0.24333E+06        -0.66892E+08         0.00000E+00
    0.00000E+00         0.00000E+00        -0.28666E+08
 
   -0.28682E+08         0.25148E+06         0.00000E+00
    0.25148E+06        -0.66941E+08         0.00000E+00
    0.00000E+00         0.00000E+00        -0.28687E+08
 
   -0.28704E+08         0.25950E+06         0.00000E+00
    0.25950E+06        -0.66991E+08         0.00000E+00
    0.00000E+00         0.00000E+00        -0.28708E+08
 
   -0.28725E+08         0.26741E+06         0.00000E+00
    0.26741E+06        -0.67042E+08         0.00000E+00
    0.00000E+00         0.00000E+00        -0.28730E+08
 
   -0.28747E+08         0.27523E+06         0.00000E+00
    0.27523E+06        -0.67093E+08         0.00000E+00
    0.00000E+00         0.00000E+00        -0.28752E+08
 
   -0.28770E+08         0.28297E+06         0.00000E+00
    0.28297E+06        -0.67145E+08         0.00000E+00
    0.00000E+00         0.00000E+00        -0.28775E+08
 
   -0.28793E+08         0.29065E+06         0.00000E+00
    0.29065E+06        -0.67198E+08         0.00000E+00
    0.00000E+00         0.00000E+00        -0.28797E+08
 
   -0.28816E+08         0.29830E+06         0.00000E+00
    0.29830E+06        -0.67252E+08         0.00000E+00
    0.00000E+00         0.00000E+00        -0.28820E+08
 
   -0.28839E+08         0.30592E+06         0.00000E+00
    0.30592E+06        -0.67307E+08         0.00000E+00
    0.00000E+00         0.00000E+00        -0.28844E+08
 
   -0.28863E+08         0.31353E+06         0.00000E+00
    0.31353E+06        -0.67363E+08         0.00000E+00
    0.00000E+00         0.00000E+00        -0.28868E+08
 
   -0.28887E+08         0.32115E+06         0.00000E+00
    0.32115E+06        -0.67419E+08         0.00000E+00
    0.00000E+00         0.00000E+00        -0.28892E+08
 
   -0.28912E+08         0.32879E+06         0.00000E+00
    0.32879E+06        -0.67477E+08         0.00000E+00
    0.00000E+00         0.00000E+00        -0.28917E+08
 
   -0.28937E+08         0.33646E+06         0.00000E+00
    0.33646E+06        -0.67536E+08         0.00000E+00
    0.00000E+00         0.00000E+00        -0.28942E+08
 
   -0.28963E+08         0.34416E+06         0.00000E+00
    0.34416E+06        -0.67596E+08         0.00000E+00
    0.00000E+00         0.00000E+00        -0.28968E+08
 
   -0.28989E+08         0.35190E+06         0.00000E+00
    0.35190E+06        -0.67658E+08         0.00000E+00
    0.00000E+00         0.00000E+00        -0.28994E+08
 
   -0.29016E+08         0.35969E+06         0.00000E+00
    0.35969E+06        -0.67720E+08         0.00000E+00
    0.00000E+00         0.00000E+00        -0.29021E+08
 
   -0.29043E+08         0.36754E+06         0.00000E+00
    0.36754E+06        -0.67784E+08         0.00000E+00
    0.00000E+00         0.00000E+00        -0.29048E+08
 
   -0.29071E+08         0.37545E+06         0.00000E+00
    0.37545E+06        -0.67849E+08         0.00000E+00
    0.00000E+00         0.00000E+00        -0.29076E+08
 
   -0.29100E+08         0.38341E+06         0.00000E+00
    0.38341E+06        -0.67916E+08         0.00000E+00
    0.00000E+00         0.00000E+00        -0.29105E+08
 
   -0.29129E+08         0.39144E+06         0.00000E+00
    0.39144E+06        -0.67984E+08         0.00000E+00
    0.00000E+00         0.00000E+00        -0.29134E+08
 
   -0.29159E+08         0.39953E+06         0.00000E+00
    0.39953E+06        -0.68054E+08         0.00000E+00
    0.00000E+00         0.00000E+00        -0.29164E+08
 
   -0.29189E+08         0.40768E+06         0.00000E+00
    0.40768E+06        -0.68125E+08         0.00000E+00
    0.00000E+00         0.00000E+00        -0.29194E+08
 
   -0.29220E+08         0.41589E+06         0.00000E+00
    0.41589E+06        -0.68197E+08         0.00000E+00
    0.00000E+00         0.00000E+00        -0.29225E+08
 
   -0.29252E+08         0.42415E+06         0.00000E+00
    0.42415E+06        -0.68272E+08         0.00000E+00
    0.00000E+00         0.00000E+00        -0.29257E+08
 
   -0.29284E+08         0.43246E+06         0.00000E+00
    0.43246E+06        -0.68347E+08         0.00000E+00
    0.00000E+00         0.00000E+00        -0.29290E+08
 
   -0.29318E+08         0.44082E+06         0.00000E+00
    0.44082E+06        -0.68425E+08         0.00000E+00
    0.00000E+00         0.00000E+00        -0.29323E+08
 
   -0.29352E+08         0.44922E+06         0.00000E+00
    0.44922E+06        -0.68504E+08         0.00000E+00
    0.00000E+00         0.00000E+00        -0.29357E+08
 
   -0.29386E+08         0.45765E+06         0.00000E+00
    0.45765E+06        -0.68585E+08         0.00000E+00
    0.00000E+00         0.00000E+00        -0.29391E+08
 
   -0.29422E+08         0.46611E+06         0.00000E+00
    0.46611E+06        -0.68668E+08         0.00000E+00
    0.00000E+00         0.00000E+00        -0.29427E+08
 
   -0.29458E+08         0.47457E+06         0.00000E+00
    0.47457E+06        -0.68752E+08         0.00000E+00
    0.00000E+00         0.00000E+00        -0.29463E+08
 
   -0.29495E+08         0.48305E+06         0.00000E+00
    0.48305E+06        -0.68839E+08         0.00000E+00
    0.00000E+00         0.00000E+00        -0.29500E+08
 
   -0.29533E+08         0.49151E+06         0.00000E+00
    0.49151E+06        -0.68927E+08         0.00000E+00
    0.00000E+00         0.00000E+00        -0.29538E+08
 
   -0.29571E+08         0.49995E+06         0.00000E+00
    0.49995E+06        -0.69017E+08         0.00000E+00
    0.00000E+00         0.00000E+00        -0.29577E+08
 
   -0.29611E+08         0.50836E+06         0.00000E+00
    0.50836E+06        -0.69109E+08         0.00000E+00
    0.00000E+00         0.00000E+00        -0.29616E+08
 
   -0.29651E+08         0.51672E+06         0.00000E+00
    0.51672E+06        -0.69203E+08         0.00000E+00
    0.00000E+00         0.00000E+00        -0.29656E+08
 
   -0.29692E+08         0.52501E+06         0.00000E+00
    0.52501E+06        -0.69299E+08         0.00000E+00
    0.00000E+00         0.00000E+00        -0.29698E+08
 
   -0.29735E+08         0.53321E+06         0.00000E+00
    0.53321E+06        -0.69397E+08         0.00000E+00
    0.00000E+00         0.00000E+00        -0.29740E+08
 
   -0.29778E+08         0.54131E+06         0.00000E+00
    0.54131E+06        -0.69498E+08         0.00000E+00
    0.00000E+00         0.00000E+00        -0.29783E+08
 
   -0.29821E+08         0.54928E+06         0.00000E+00
    0.54928E+06        -0.69600E+08         0.00000E+00
    0.00000E+00         0.00000E+00        -0.29826E+08
 
   -0.29866E+08         0.55710E+06         0.00000E+00
    0.55710E+06        -0.69704E+08         0.00000E+00
    0.00000E+00         0.00000E+00        -0.29871E+08
 
   -0.29912E+08         0.56474E+06         0.00000E+00
    0.56474E+06        -0.69810E+08         0.00000E+00
    0.00000E+00         0.00000E+00        -0.29917E+08
 
   -0.29959E+08         0.57218E+06         0.00000E+00
    0.57218E+06        -0.69919E+08         0.00000E+00
    0.00000E+00         0.00000E+00        -0.29963E+08
 
   -0.30006E+08         0.57939E+06         0.00000E+00
    0.57939E+06        -0.70030E+08         0.00000E+00
    0.00000E+00         0.00000E+00        -0.30011E+08
 
   -0.30055E+08         0.58634E+06         0.00000E+00
    0.58634E+06        -0.70142E+08         0.00000E+00
    0.00000E+00         0.00000E+00        -0.30059E+08
 
   -0.30105E+08         0.59299E+06         0.00000E+00
    0.59299E+06        -0.70257E+08         0.00000E+00
    0.00000E+00         0.00000E+00        -0.30109E+08
 
   -0.30155E+08         0.59931E+06         0.00000E+00
    0.59931E+06        -0.70375E+08         0.00000E+00
    0.00000E+00         0.00000E+00        -0.30159E+08
 
   -0.30207E+08         0.60526E+06         0.00000E+00
    0.60526E+06        -0.70494E+08         0.00000E+00
    0.00000E+00         0.00000E+00        -0.30210E+08
 
   -0.30259E+08         0.61079E+06         0.00000E+00
    0.61079E+06        -0.70616E+08         0.00000E+00
    0.00000E+00         0.00000E+00        -0.30262E+08
 
   -0.30313E+08         0.61587E+06         0.00000E+00
    0.61587E+06        -0.70740E+08         0.00000E+00
    0.00000E+00         0.00000E+00        -0.30316E+08
 
   -0.30367E+08         0.62043E+06         0.00000E+00
    0.62043E+06        -0.70866E+08         0.00000E+00
    0.00000E+00         0.00000E+00        -0.30370E+08
 
   -0.30423E+08         0.62444E+06         0.00000E+00
    0.62444E+06        -0.70994E+08         0.00000E+00
    0.00000E+00         0.00000E+00        -0.30425E+08
 
   -0.30479E+08         0.62783E+06         0.00000E+00
    0.62783E+06        -0.71125E+08         0.00000E+00
    0.00000E+00         0.00000E+00        -0.30481E+08
 
   -0.30537E+08         0.63054E+06         0.00000E+00
    0.63054E+06        -0.71258E+08         0.00000E+00
    0.00000E+00         0.00000E+00        -0.30538E+08
 
   -0.30595E+08         0.63251E+06         0.00000E+00
    0.63251E+06        -0.71393E+08         0.00000E+00
    0.00000E+00         0.00000E+00        -0.30596E+08
 
   -0.30655E+08         0.63367E+06         0.00000E+00
    0.63367E+06        -0.71530E+08         0.00000E+00
    0.00000E+00         0.00000E+00        -0.30656E+08
 
   -0.30716E+08         0.63395E+06         0.00000E+00
    0.63395E+06        -0.71670E+08         0.00000E+00
    0.00000E+00         0.00000E+00        -0.30716E+08
 
   -0.30778E+08         0.63327E+06         0.00000E+00
    0.63327E+06        -0.71813E+08         0.00000E+00
    0.00000E+00         0.00000E+00        -0.30777E+08
 
   -0.30841E+08         0.63155E+06         0.00000E+00
    0.63155E+06        -0.71957E+08         0.00000E+00
    0.00000E+00         0.00000E+00        -0.30839E+08
 
   -0.30904E+08         0.62872E+06         0.00000E+00
    0.62872E+06        -0.72104E+08         0.00000E+00
    0.00000E+00         0.00000E+00        -0.30903E+08
 
   -0.30970E+08         0.62469E+06         0.00000E+00
    0.62469E+06        -0.72253E+08         0.00000E+00
    0.00000E+00         0.00000E+00        -0.30967E+08
 
   -0.31036E+08         0.61937E+06         0.00000E+00
    0.61937E+06        -0.72405E+08         0.00000E+00
    0.00000E+00         0.00000E+00        -0.31032E+08
 
   -0.31103E+08         0.61269E+06         0.00000E+00
    0.61269E+06        -0.72559E+08         0.00000E+00
    0.00000E+00         0.00000E+00        -0.31099E+08
 
   -0.31171E+08         0.60456E+06         0.00000E+00
    0.60456E+06        -0.72716E+08         0.00000E+00
    0.00000E+00         0.00000E+00        -0.31166E+08
 
   -0.31241E+08         0.59492E+06         0.00000E+00
    0.59492E+06        -0.72874E+08         0.00000E+00
    0.00000E+00         0.00000E+00        -0.31235E+08
 
   -0.31311E+08         0.58370E+06         0.00000E+00
    0.58370E+06        -0.73036E+08         0.00000E+00
    0.00000E+00         0.00000E+00        -0.31304E+08
 
   -0.31383E+08         0.57086E+06         0.00000E+00
    0.57086E+06        -0.73199E+08         0.00000E+00
    0.00000E+00         0.00000E+00        -0.31374E+08
 
   -0.31455E+08         0.55635E+06         0.00000E+00
    0.55635E+06        -0.73364E+08         0.00000E+00
    0.00000E+00         0.00000E+00        -0.31446E+08
 
   -0.31528E+08         0.54015E+06         0.00000E+00
    0.54015E+06        -0.73532E+08         0.00000E+00
    0.00000E+00         0.00000E+00        -0.31518E+08
 
   -0.31602E+08         0.52226E+06         0.00000E+00
    0.52226E+06        -0.73701E+08         0.00000E+00
    0.00000E+00         0.00000E+00        -0.31591E+08
 
   -0.31677E+08         0.50268E+06         0.00000E+00
    0.50268E+06        -0.73871E+08         0.00000E+00
    0.00000E+00         0.00000E+00        -0.31664E+08
 
   -0.31751E+08         0.48142E+06         0.00000E+00
    0.48142E+06        -0.74043E+08         0.00000E+00
    0.00000E+00         0.00000E+00        -0.31738E+08
 
   -0.31826E+08         0.45847E+06         0.00000E+00
    0.45847E+06        -0.74214E+08         0.00000E+00
    0.00000E+00         0.00000E+00        -0.31812E+08
 
   -0.31901E+08         0.43376E+06         0.00000E+00
    0.43376E+06        -0.74384E+08         0.00000E+00
    0.00000E+00         0.00000E+00        -0.31885E+08
 
   -0.31974E+08         0.40713E+06         0.00000E+00
    0.40713E+06        -0.74552E+08         0.00000E+00
    0.00000E+00         0.00000E+00        -0.31958E+08
 
   -0.32047E+08         0.37824E+06         0.00000E+00
    0.37824E+06        -0.74716E+08         0.00000E+00
    0.00000E+00         0.00000E+00        -0.32029E+08
 
   -0.32118E+08         0.34641E+06         0.00000E+00
    0.34641E+06        -0.74875E+08         0.00000E+00
    0.00000E+00         0.00000E+00        -0.32098E+08
 
   -0.32187E+08         0.31053E+06         0.00000E+00
    0.31053E+06        -0.75027E+08         0.00000E+00
    0.00000E+00         0.00000E+00        -0.32164E+08
 
   -0.32254E+08         0.26844E+06         0.00000E+00
    0.26844E+06        -0.75168E+08         0.00000E+00
    0.00000E+00         0.00000E+00        -0.32227E+08
 
   -0.32320E+08         0.21731E+06         0.00000E+00
    0.21731E+06        -0.75297E+08         0.00000E+00
    0.00000E+00         0.00000E+00        -0.32285E+08
 
   -0.32385E+08         0.14940E+06         0.00000E+00
    0.14940E+06        -0.75410E+08         0.00000E+00
    0.00000E+00         0.00000E+00        -0.32339E+08
 
   -0.32468E+08         0.54817E+05         0.00000E+00
    0.54817E+05        -0.75499E+08         0.00000E+00
    0.00000E+00         0.00000E+00        -0.32390E+08
 
   -0.28279E+08         0.13376E+05         0.00000E+00
    0.13376E+05        -0.66099E+08         0.00000E+00
    0.00000E+00         0.00000E+00        -0.28313E+08
 
   -0.28304E+08         0.38113E+05         0.00000E+00
    0.38113E+05        -0.66120E+08         0.00000E+00
    0.00000E+00         0.00000E+00        -0.28327E+08
 
   -0.28323E+08         0.58316E+05         0.00000E+00
    0.58316E+05        -0.66147E+08         0.00000E+00
    0.00000E+00         0.00000E+00        -0.28341E+08
 
   -0.28341E+08         0.74697E+05         0.00000E+00
    0.74697E+05        -0.66179E+08         0.00000E+00
    0.00000E+00         0.00000E+00        -0.28356E+08
 
   -0.28358E+08         0.88929E+05         0.00000E+00
    0.88929E+05        -0.66214E+08         0.00000E+00
    0.00000E+00         0.00000E+00        -0.28372E+08
 
   -0.28376E+08         0.10177E+06         0.00000E+00
    0.10177E+06        -0.66253E+08         0.00000E+00
    0.00000E+00         0.00000E+00        -0.28389E+08
 
   -0.28395E+08         0.11370E+06         0.00000E+00
    0.11370E+06        -0.66293E+08         0.00000E+00
    0.00000E+00         0.00000E+00        -0.28406E+08
 
   -0.28413E+08         0.12502E+06         0.00000E+00
    0.12502E+06        -0.66335E+08         0.00000E+00
    0.00000E+00         0.00000E+00        -0.28424E+08
 
   -0.28432E+08         0.13590E+06         0.00000E+00
    0.13590E+06        -0.66378E+08         0.00000E+00
    0.00000E+00         0.00000E+00        -0.28443E+08
 
   -0.28452E+08         0.14644E+06         0.00000E+00
    0.14644E+06        -0.66423E+08         0.00000E+00
    0.00000E+00         0.00000E+00        -0.28462E+08
 
   -0.28472E+08         0.15669E+06         0.00000E+00
    0.15669E+06        -0.66468E+08         0.00000E+00
    0.00000E+00         0.00000E+00        -0.28482E+08
 
   -0.28492E+08         0.16667E+06         0.00000E+00
    0.16667E+06        -0.66514E+08         0.00000E+00
    0.00000E+00         0.00000E+00        -0.28502E+08
 
   -0.28512E+08         0.17640E+06         0.00000E+00
    0.17640E+06        -0.66560E+08         0.00000E+00
    0.00000E+00         0.00000E+00        -0.28521E+08
 
   -0.28532E+08         0.18588E+06         0.00000E+00
    0.18588E+06        -0.66606E+08         0.00000E+00
    0.00000E+00         0.00000E+00        -0.28541E+08
 
   -0.28552E+08         0.19511E+06         0.00000E+00
    0.19511E+06        -0.66653E+08         0.00000E+00
    0.00000E+00         0.00000E+00        -0.28562E+08
 
   -0.28573E+08         0.20412E+06         0.00000E+00
    0.20412E+06        -0.66700E+08         0.00000E+00
    0.00000E+00         0.00000E+00        -0.28582E+08
 
   -0.28594E+08         0.21290E+06         0.00000E+00
    0.21290E+06        -0.66748E+08         0.00000E+00
    0.00000E+00         0.00000E+00        -0.28602E+08
 
   -0.28614E+08         0.22147E+06         0.00000E+00
    0.22147E+06        -0.66796E+08         0.00000E+00
    0.00000E+00         0.00000E+00        -0.28623E+08
 
   -0.28635E+08         0.22984E+06         0.00000E+00
    0.22984E+06        -0.66844E+08         0.00000E+00
    0.00000E+00         0.00000E+00        -0.28644E+08
 
   -0.28657E+08         0.23804E+06         0.00000E+00
    0.23804E+06        -0.66893E+08         0.00000E+00
    0.00000E+00         0.00000E+00        -0.28665E+08
 
   -0.28678E+08         0.24608E+06         0.00000E+00
    0.24608E+06        -0.66943E+08         0.00000E+00
    0.00000E+00         0.00000E+00        -0.28686E+08
 
   -0.28700E+08         0.25399E+06         0.00000E+00
    0.25399E+06        -0.66993E+08         0.00000E+00
    0.00000E+00         0.00000E+00        -0.28708E+08
 
   -0.28722E+08         0.26178E+06         0.00000E+00
    0.26178E+06        -0.67043E+08         0.00000E+00
    0.00000E+00         0.00000E+00        -0.28729E+08
 
   -0.28744E+08         0.26948E+06         0.00000E+00
    0.26948E+06        -0.67095E+08         0.00000E+00
    0.00000E+00         0.00000E+00        -0.28751E+08
 
   -0.28766E+08         0.27709E+06         0.00000E+00
    0.27709E+06        -0.67147E+08         0.00000E+00
    0.00000E+00         0.00000E+00        -0.28774E+08
 
   -0.28789E+08         0.28465E+06         0.00000E+00
    0.28465E+06        -0.67200E+08         0.00000E+00
    0.00000E+00         0.00000E+00        -0.28797E+08
 
   -0.28812E+08         0.29217E+06         0.00000E+00
    0.29217E+06        -0.67254E+08         0.00000E+00
    0.00000E+00         0.00000E+00        -0.28820E+08
 
   -0.28835E+08         0.29966E+06         0.00000E+00
    0.29966E+06        -0.67308E+08         0.00000E+00
    0.00000E+00         0.00000E+00        -0.28843E+08
 
   -0.28859E+08         0.30714E+06         0.00000E+00
    0.30714E+06        -0.67364E+08         0.00000E+00
    0.00000E+00         0.00000E+00        -0.28867E+08
 
   -0.28884E+08         0.31462E+06         0.00000E+00
    0.31462E+06        -0.67421E+08         0.00000E+00
    0.00000E+00         0.00000E+00        -0.28891E+08
 
   -0.28908E+08         0.32212E+06         0.00000E+00
    0.32212E+06        -0.67479E+08         0.00000E+00
    0.00000E+00         0.00000E+00        -0.28916E+08
 
   -0.28934E+08         0.32964E+06         0.00000E+00
    0.32964E+06        -0.67538E+08         0.00000E+00
    0.00000E+00         0.00000E+00        -0.28941E+08
 
   -0.28959E+08         0.33719E+06         0.00000E+00
    0.33719E+06        -0.67598E+08         0.00000E+00
    0.00000E+00         0.00000E+00        -0.28967E+08
 
   -0.28986E+08         0.34479E+06         0.00000E+00
    0.34479E+06        -0.67659E+08         0.00000E+00
    0.00000E+00         0.00000E+00        -0.28993E+08
 
   -0.29012E+08         0.35243E+06         0.00000E+00
    0.35243E+06        -0.67722E+08         0.00000E+00
    0.00000E+00         0.00000E+00        -0.29020E+08
 
   -0.29040E+08         0.36012E+06         0.00000E+00
    0.36012E+06        -0.67786E+08         0.00000E+00
    0.00000E+00         0.00000E+00        -0.29048E+08
 
   -0.29067E+08         0.36787E+06         0.00000E+00
    0.36787E+06        -0.67851E+08         0.00000E+00
    0.00000E+00         0.00000E+00        -0.29076E+08
 
   -0.29096E+08         0.37567E+06         0.00000E+00
    0.37567E+06        -0.67918E+08         0.00000E+00
    0.00000E+00         0.00000E+00        -0.29104E+08
 
   -0.29125E+08         0.38353E+06         0.00000E+00
    0.38353E+06        -0.67986E+08         0.00000E+00
    0.00000E+00         0.00000E+00        -0.29133E+08
 
   -0.29155E+08         0.39145E+06         0.00000E+00
    0.39145E+06        -0.68055E+08         0.00000E+00
    0.00000E+00         0.00000E+00        -0.29163E+08
 
   -0.29185E+08         0.39942E+06         0.00000E+00
    0.39942E+06        -0.68126E+08         0.00000E+00
    0.00000E+00         0.00000E+00        -0.29193E+08
 
   -0.29216E+08         0.40745E+06         0.00000E+00
    0.40745E+06        -0.68199E+08         0.00000E+00
    0.00000E+00         0.00000E+00        -0.29225E+08
 
   -0.29248E+08         0.41554E+06         0.00000E+00
    0.41554E+06        -0.68273E+08         0.00000E+00
    0.00000E+00         0.00000E+00        -0.29256E+08
 
   -0.29280E+08         0.42367E+06         0.00000E+00
    0.42367E+06        -0.68349E+08         0.00000E+00
    0.00000E+00         0.00000E+00        -0.29289E+08
 
   -0.29313E+08         0.43184E+06         0.00000E+00
    0.43184E+06        -0.68427E+08         0.00000E+00
    0.00000E+00         0.00000E+00        -0.29322E+08
 
   -0.29347E+08         0.44006E+06         0.00000E+00
    0.44006E+06        -0.68506E+08         0.00000E+00
    0.00000E+00         0.00000E+00        -0.29356E+08
 
   -0.29382E+08         0.44830E+06         0.00000E+00
    0.44830E+06        -0.68587E+08         0.00000E+00
    0.00000E+00         0.00000E+00        -0.29391E+08
 
   -0.29417E+08         0.45656E+06         0.00000E+00
    0.45656E+06        -0.68670E+08         0.00000E+00
    0.00000E+00         0.00000E+00        -0.29426E+08
 
   -0.29454E+08         0.46483E+06         0.00000E+00
    0.46483E+06        -0.68754E+08         0.00000E+00
    0.00000E+00         0.00000E+00        -0.29462E+08
 
   -0.29491E+08         0.47311E+06         0.00000E+00
    0.47311E+06        -0.68840E+08         0.00000E+00
    0.00000E+00         0.00000E+00        -0.29499E+08
 
   -0.29529E+08         0.48137E+06         0.00000E+00
    0.48137E+06        -0.68929E+08         0.00000E+00
    0.00000E+00         0.00000E+00        -0.29537E+08
 
   -0.29567E+08         0.48961E+06         0.00000E+00
    0.48961E+06        -0.69019E+08         0.00000E+00
    0.00000E+00         0.00000E+00        -0.29576E+08
 
   -0.29607E+08         0.49782E+06         0.00000E+00
    0.49782E+06        -0.69111E+08         0.00000E+00
    0.00000E+00         0.00000E+00        -0.29615E+08
 
   -0.29647E+08         0.50597E+06         0.00000E+00
    0.50597E+06        -0.69205E+08         0.00000E+00
    0.00000E+00         0.00000E+00        -0.29656E+08
 
   -0.29688E+08         0.51405E+06         0.00000E+00
    0.51405E+06        -0.69301E+08         0.00000E+00
    0.00000E+00         0.00000E+00        -0.29697E+08
 
   -0.29731E+08         0.52205E+06         0.00000E+00
    0.52205E+06        -0.69399E+08         0.00000E+00
    0.00000E+00         0.00000E+00        -0.29739E+08
 
   -0.29774E+08         0.52994E+06         0.00000E+00
    0.52994E+06        -0.69499E+08         0.00000E+00
    0.00000E+00         0.00000E+00        -0.29782E+08
 
   -0.29818E+08         0.53770E+06         0.00000E+00
    0.53770E+06        -0.69601E+08         0.00000E+00
    0.00000E+00         0.00000E+00        -0.29826E+08
 
   -0.29862E+08         0.54532E+06         0.00000E+00
    0.54532E+06        -0.69706E+08         0.00000E+00
    0.00000E+00         0.00000E+00        -0.29870E+08
 
   -0.29908E+08         0.55275E+06         0.00000E+00
    0.55275E+06        -0.69812E+08         0.00000E+00
    0.00000E+00         0.00000E+00        -0.29916E+08
 
   -0.29955E+08         0.55999E+06         0.00000E+00
    0.55999E+06        -0.69920E+08         0.00000E+00
    0.00000E+00         0.00000E+00        -0.29963E+08
 
   -0.30003E+08         0.56699E+06         0.00000E+00
    0.56699E+06        -0.70031E+08         0.00000E+00
    0.00000E+00         0.00000E+00        -0.30010E+08
 
   -0.30052E+08         0.57374E+06         0.00000E+00
    0.57374E+06        -0.70144E+08         0.00000E+00
    0.00000E+00         0.00000E+00        -0.30059E+08
 
   -0.30101E+08         0.58018E+06         0.00000E+00
    0.58018E+06        -0.70259E+08         0.00000E+00
    0.00000E+00         0.00000E+00        -0.30108E+08
 
   -0.30152E+08         0.58630E+06         0.00000E+00
    0.58630E+06        -0.70376E+08         0.00000E+00
    0.00000E+00         0.00000E+00        -0.30158E+08
 
   -0.30204E+08         0.59205E+06         0.00000E+00
    0.59205E+06        -0.70495E+08         0.00000E+00
    0.00000E+00         0.00000E+00        -0.30210E+08
 
   -0.30256E+08         0.59739E+06         0.00000E+00
    0.59739E+06        -0.70617E+08         0.00000E+00
    0.00000E+00         0.00000E+00        -0.30262E+08
 
   -0.30310E+08         0.60227E+06         0.00000E+00
    0.60227E+06        -0.70740E+08         0.00000E+00
    0.00000E+00         0.00000E+00        -0.30315E+08
 
   -0.30365E+08         0.60665E+06         0.00000E+00
    0.60665E+06        -0.70866E+08         0.00000E+00
    0.00000E+00         0.00000E+00        -0.30369E+08
 
   -0.30421E+08         0.61047E+06         0.00000E+00
    0.61047E+06        -0.70995E+08         0.00000E+00
    0.00000E+00         0.00000E+00        -0.30425E+08
 
   -0.30478E+08         0.61368E+06         0.00000E+00
    0.61368E+06        -0.71125E+08         0.00000E+00
    0.00000E+00         0.00000E+00        -0.30481E+08
 
   -0.30536E+08         0.61622E+06         0.00000E+00
    0.61622E+06        -0.71258E+08         0.00000E+00
    0.00000E+00         0.00000E+00        -0.30538E+08
 
   -0.30595E+08         0.61802E+06         0.00000E+00
    0.61802E+06        -0.71393E+08         0.00000E+00
    0.00000E+00         0.00000E+00        -0.30596E+08
 
   -0.30655E+08         0.61903E+06         0.00000E+00
    0.61903E+06        -0.71531E+08         0.00000E+00
    0.00000E+00         0.00000E+00        -0.30656E+08
 
   -0.30716E+08         0.61916E+06         0.00000E+00
    0.61916E+06        -0.71670E+08         0.00000E+00
    0.00000E+00         0.00000E+00        -0.30716E+08
 
   -0.30778E+08         0.61834E+06         0.00000E+00
    0.61834E+06        -0.71812E+08         0.00000E+00
    0.00000E+00         0.00000E+00        -0.30777E+08
 
   -0.30841E+08         0.61649E+06         0.00000E+00
    0.61649E+06        -0.71957E+08         0.00000E+00
    0.00000E+00         0.00000E+00        -0.30839E+08
 
   -0.30906E+08         0.61354E+06         0.00000E+00
    0.61354E+06        -0.72103E+08         0.00000E+00
    0.00000E+00         0.00000E+00        -0.30903E+08
 
   -0.30972E+08         0.60939E+06         0.00000E+00
    0.60939E+06        -0.72252E+08         0.00000E+00
    0.00000E+00         0.00000E+00        -0.30967E+08
 
   -0.31038E+08         0.60397E+06         0.00000E+00
    0.60397E+06        -0.72404E+08         0.00000E+00
    0.00000E+00         0.00000E+00        -0.31033E+08
 
   -0.31106E+08         0.59720E+06         0.00000E+00
    0.59720E+06        -0.72558E+08         0.00000E+00
    0.00000E+00         0.00000E+00        -0.31099E+08
 
   -0.31175E+08         0.58899E+06         0.00000E+00
    0.58899E+06        -0.72714E+08         0.00000E+00
    0.00000E+00         0.00000E+00        -0.31167E+08
 
   -0.31246E+08         0.57927E+06         0.00000E+00
    0.57927E+06        -0.72872E+08         0.00000E+00
    0.00000E+00         0.00000E+00        -0.31235E+08
 
   -0.31317E+08         0.56798E+06         0.00000E+00
    0.56798E+06        -0.73033E+08         0.00000E+00
    0.00000E+00         0.00000E+00        -0.31305E+08
 
   -0.31389E+08         0.55506E+06         0.00000E+00
    0.55506E+06        -0.73196E+08         0.00000E+00
    0.00000E+00         0.00000E+00        -0.31376E+08
 
   -0.31462E+08         0.54048E+06         0.00000E+00
    0.54048E+06        -0.73361E+08         0.00000E+00
    0.00000E+00         0.00000E+00        -0.31447E+08
 
   -0.31536E+08         0.52420E+06         0.00000E+00
    0.52420E+06        -0.73529E+08         0.00000E+00
    0.00000E+00         0.00000E+00        -0.31519E+08
 
   -0.31611E+08         0.50621E+06         0.00000E+00
    0.50621E+06        -0.73697E+08         0.00000E+00
    0.00000E+00         0.00000E+00        -0.31593E+08
 
   -0.31687E+08         0.48651E+06         0.00000E+00
    0.48651E+06        -0.73867E+08         0.00000E+00
    0.00000E+00         0.00000E+00        -0.31666E+08
 
   -0.31762E+08         0.46509E+06         0.00000E+00
    0.46509E+06        -0.74038E+08         0.00000E+00
    0.00000E+00         0.00000E+00        -0.31740E+08
 
   -0.31838E+08         0.44193E+06         0.00000E+00
    0.44193E+06        -0.74209E+08         0.00000E+00
    0.00000E+00         0.00000E+00        -0.31814E+08
 
   -0.31913E+08         0.41697E+06         0.00000E+00
    0.41697E+06        -0.74379E+08         0.00000E+00
    0.00000E+00         0.00000E+00        -0.31888E+08
 
   -0.31988E+08         0.39003E+06         0.00000E+00
    0.39003E+06        -0.74546E+08         0.00000E+00
    0.00000E+00         0.00000E+00        -0.31960E+08
 
   -0.32062E+08         0.36077E+06         0.00000E+00
    0.36077E+06        -0.74710E+08         0.00000E+00
    0.00000E+00         0.00000E+00        -0.32032E+08
 
   -0.32135E+08         0.32854E+06         0.00000E+00
    0.32854E+06        -0.74869E+08         0.00000E+00
    0.00000E+00         0.00000E+00        -0.32101E+08
 
   -0.32207E+08         0.29221E+06         0.00000E+00
    0.29221E+06        -0.75019E+08         0.00000E+00
    0.00000E+00         0.00000E+00        -0.32168E+08
 
   -0.32277E+08         0.24988E+06         0.00000E+00
    0.24988E+06        -0.75159E+08         0.00000E+00
    0.00000E+00         0.00000E+00        -0.32231E+08
 
   -0.32348E+08         0.19860E+06         0.00000E+00
    0.19860E+06        -0.75286E+08         0.00000E+00
    0.00000E+00         0.00000E+00        -0.32290E+08
 
   -0.32424E+08         0.13177E+06         0.00000E+00
    0.13177E+06        -0.75394E+08         0.00000E+00
    0.00000E+00         0.00000E+00        -0.32345E+08
 
   -0.32524E+08         0.46625E+05         0.00000E+00
    0.46625E+05        -0.75479E+08         0.00000E+00
    0.00000E+00         0.00000E+00        -0.32401E+08
 
   -0.28265E+08         0.11814E+05         0.00000E+00
    0.11814E+05        -0.66104E+08         0.00000E+00
    0.00000E+00         0.00000E+00        -0.28311E+08
 
   -0.28293E+08         0.34385E+05         0.00000E+00
    0.34385E+05        -0.66124E+08         0.00000E+00
    0.00000E+00         0.00000E+00        -0.28325E+08
 
   -0.28314E+08         0.53921E+05         0.00000E+00
    0.53921E+05        -0.66151E+08         0.00000E+00
    0.00000E+00         0.00000E+00        -0.28339E+08
 
   -0.28333E+08         0.70191E+05         0.00000E+00
    0.70191E+05        -0.66182E+08         0.00000E+00
    0.00000E+00         0.00000E+00        -0.28355E+08
 
   -0.28352E+08         0.84381E+05         0.00000E+00
    0.84381E+05        -0.66217E+08         0.00000E+00
    0.00000E+00         0.00000E+00        -0.28371E+08
 
   -0.28370E+08         0.97236E+05         0.00000E+00
    0.97236E+05        -0.66255E+08         0.00000E+00
    0.00000E+00         0.00000E+00        -0.28388E+08
 
   -0.28389E+08         0.10919E+06         0.00000E+00
    0.10919E+06        -0.66295E+08         0.00000E+00
    0.00000E+00         0.00000E+00        -0.28405E+08
 
   -0.28408E+08         0.12053E+06         0.00000E+00
    0.12053E+06        -0.66337E+08         0.00000E+00
    0.00000E+00         0.00000E+00        -0.28424E+08
 
   -0.28427E+08         0.13142E+06         0.00000E+00
    0.13142E+06        -0.66380E+08         0.00000E+00
    0.00000E+00         0.00000E+00        -0.28442E+08
 
   -0.28447E+08         0.14195E+06         0.00000E+00
    0.14195E+06        -0.66425E+08         0.00000E+00
    0.00000E+00         0.00000E+00        -0.28461E+08
 
   -0.28467E+08         0.15217E+06         0.00000E+00
    0.15217E+06        -0.66470E+08         0.00000E+00
    0.00000E+00         0.00000E+00        -0.28481E+08
 
   -0.28487E+08         0.16211E+06         0.00000E+00
    0.16211E+06        -0.66515E+08         0.00000E+00
    0.00000E+00         0.00000E+00        -0.28501E+08
 
   -0.28507E+08         0.17178E+06         0.00000E+00
    0.17178E+06        -0.66562E+08         0.00000E+00
    0.00000E+00         0.00000E+00        -0.28521E+08
 
   -0.28527E+08         0.18118E+06         0.00000E+00
    0.18118E+06        -0.66608E+08         0.00000E+00
    0.00000E+00         0.00000E+00        -0.28541E+08
 
   -0.28548E+08         0.19034E+06         0.00000E+00
    0.19034E+06        -0.66655E+08         0.00000E+00
    0.00000E+00         0.00000E+00        -0.28561E+08
 
   -0.28569E+08         0.19925E+06         0.00000E+00
    0.19925E+06        -0.66702E+08         0.00000E+00
    0.00000E+00         0.00000E+00        -0.28581E+08
 
   -0.28589E+08         0.20794E+06         0.00000E+00
    0.20794E+06        -0.66750E+08         0.00000E+00
    0.00000E+00         0.00000E+00        -0.28602E+08
 
   -0.28610E+08         0.21641E+06         0.00000E+00
    0.21641E+06        -0.66798E+08         0.00000E+00
    0.00000E+00         0.00000E+00        -0.28622E+08
 
   -0.28631E+08         0.22468E+06         0.00000E+00
    0.22468E+06        -0.66846E+08         0.00000E+00
    0.00000E+00         0.00000E+00        -0.28643E+08
 
   -0.28653E+08         0.23277E+06         0.00000E+00
    0.23277E+06        -0.66895E+08         0.00000E+00
    0.00000E+00         0.00000E+00        -0.28664E+08
 
   -0.28674E+08         0.24070E+06         0.00000E+00
    0.24070E+06        -0.66944E+08         0.00000E+00
    0.00000E+00         0.00000E+00        -0.28685E+08
 
   -0.28696E+08         0.24849E+06         0.00000E+00
    0.24849E+06        -0.66994E+08         0.00000E+00
    0.00000E+00         0.00000E+00        -0.28707E+08
 
   -0.28718E+08         0.25616E+06         0.00000E+00
    0.25616E+06        -0.67045E+08         0.00000E+00
    0.00000E+00         0.00000E+00        -0.28729E+08
 
   -0.28740E+08         0.26373E+06         0.00000E+00
    0.26373E+06        -0.67096E+08         0.00000E+00
    0.00000E+00         0.00000E+00        -0.28751E+08
 
   -0.28762E+08         0.27122E+06         0.00000E+00
    0.27122E+06        -0.67148E+08         0.00000E+00
    0.00000E+00         0.00000E+00        -0.28773E+08
 
   -0.28785E+08         0.27866E+06         0.00000E+00
    0.27866E+06        -0.67201E+08         0.00000E+00
    0.00000E+00         0.00000E+00        -0.28796E+08
 
   -0.28808E+08         0.28604E+06         0.00000E+00
    0.28604E+06        -0.67255E+08         0.00000E+00
    0.00000E+00         0.00000E+00        -0.28819E+08
 
   -0.28832E+08         0.29340E+06         0.00000E+00
    0.29340E+06        -0.67310E+08         0.00000E+00
    0.00000E+00         0.00000E+00        -0.28842E+08
 
   -0.28856E+08         0.30075E+06         0.00000E+00
    0.30075E+06        -0.67366E+08         0.00000E+00
    0.00000E+00         0.00000E+00        -0.28866E+08
 
   -0.28880E+08         0.30809E+06         0.00000E+00
    0.30809E+06        -0.67422E+08         0.00000E+00
    0.00000E+00         0.00000E+00        -0.28891E+08
 
   -0.28905E+08         0.31545E+06         0.00000E+00
    0.31545E+06        -0.67480E+08         0.00000E+00
    0.00000E+00         0.00000E+00        -0.28915E+08
 
   -0.28930E+08         0.32282E+06         0.00000E+00
    0.32282E+06        -0.67539E+08         0.00000E+00
    0.00000E+00         0.00000E+00        -0.28941E+08
 
   -0.28956E+08         0.33023E+06         0.00000E+00
    0.33023E+06        -0.67599E+08         0.00000E+00
    0.00000E+00         0.00000E+00        -0.28966E+08
 
   -0.28982E+08         0.33767E+06         0.00000E+00
    0.33767E+06        -0.67661E+08         0.00000E+00
    0.00000E+00         0.00000E+00        -0.28993E+08
 
   -0.29008E+08         0.34516E+06         0.00000E+00
    0.34516E+06        -0.67723E+08         0.00000E+00
    0.00000E+00         0.00000E+00        -0.29020E+08
 
   -0.29036E+08         0.35269E+06         0.00000E+00
    0.35269E+06        -0.67787E+08         0.00000E+00
    0.00000E+00         0.00000E+00        -0.29047E+08
 
   -0.29064E+08         0.36028E+06         0.00000E+00
    0.36028E+06        -0.67852E+08         0.00000E+00
    0.00000E+00         0.00000E+00        -0.29075E+08
 
   -0.29092E+08         0.36792E+06         0.00000E+00
    0.36792E+06        -0.67919E+08         0.00000E+00
    0.00000E+00         0.00000E+00        -0.29103E+08
 
   -0.29121E+08         0.37561E+06         0.00000E+00
    0.37561E+06        -0.67987E+08         0.00000E+00
    0.00000E+00         0.00000E+00        -0.29133E+08
 
   -0.29151E+08         0.38336E+06         0.00000E+00
    0.38336E+06        -0.68057E+08         0.00000E+00
    0.00000E+00         0.00000E+00        -0.29162E+08
 
   -0.29181E+08         0.39116E+06         0.00000E+00
    0.39116E+06        -0.68128E+08         0.00000E+00
    0.00000E+00         0.00000E+00        -0.29193E+08
 
   -0.29212E+08         0.39902E+06         0.00000E+00
    0.39902E+06        -0.68201E+08         0.00000E+00
    0.00000E+00         0.00000E+00        -0.29224E+08
 
   -0.29244E+08         0.40692E+06         0.00000E+00
    0.40692E+06        -0.68275E+08         0.00000E+00
    0.00000E+00         0.00000E+00        -0.29256E+08
 
   -0.29276E+08         0.41487E+06         0.00000E+00
    0.41487E+06        -0.68351E+08         0.00000E+00
    0.00000E+00         0.00000E+00        -0.29288E+08
 
   -0.29309E+08         0.42286E+06         0.00000E+00
    0.42286E+06        -0.68428E+08         0.00000E+00
    0.00000E+00         0.00000E+00        -0.29321E+08
 
   -0.29343E+08         0.43089E+06         0.00000E+00
    0.43089E+06        -0.68507E+08         0.00000E+00
    0.00000E+00         0.00000E+00        -0.29355E+08
 
   -0.29378E+08         0.43894E+06         0.00000E+00
    0.43894E+06        -0.68588E+08         0.00000E+00
    0.00000E+00         0.00000E+00        -0.29390E+08
 
   -0.29413E+08         0.44701E+06         0.00000E+00
    0.44701E+06        -0.68671E+08         0.00000E+00
    0.00000E+00         0.00000E+00        -0.29425E+08
 
   -0.29450E+08         0.45509E+06         0.00000E+00
    0.45509E+06        -0.68756E+08         0.00000E+00
    0.00000E+00         0.00000E+00        -0.29462E+08
 
   -0.29487E+08         0.46317E+06         0.00000E+00
    0.46317E+06        -0.68842E+08         0.00000E+00
    0.00000E+00         0.00000E+00        -0.29499E+08
 
   -0.29524E+08         0.47123E+06         0.00000E+00
    0.47123E+06        -0.68930E+08         0.00000E+00
    0.00000E+00         0.00000E+00        -0.29536E+08
 
   -0.29563E+08         0.47928E+06         0.00000E+00
    0.47928E+06        -0.69020E+08         0.00000E+00
    0.00000E+00         0.00000E+00        -0.29575E+08
 
   -0.29603E+08         0.48728E+06         0.00000E+00
    0.48728E+06        -0.69113E+08         0.00000E+00
    0.00000E+00         0.00000E+00        -0.29615E+08
 
   -0.29643E+08         0.49523E+06         0.00000E+00
    0.49523E+06        -0.69207E+08         0.00000E+00
    0.00000E+00         0.00000E+00        -0.29655E+08
 
   -0.29684E+08         0.50311E+06         0.00000E+00
    0.50311E+06        -0.69303E+08         0.00000E+00
    0.00000E+00         0.00000E+00        -0.29696E+08
 
   -0.29727E+08         0.51090E+06         0.00000E+00
    0.51090E+06        -0.69401E+08         0.00000E+00
    0.00000E+00         0.00000E+00        -0.29738E+08
 
   -0.29770E+08         0.51859E+06         0.00000E+00
    0.51859E+06        -0.69501E+08         0.00000E+00
    0.00000E+00         0.00000E+00        -0.29781E+08
 
   -0.29814E+08         0.52614E+06         0.00000E+00
    0.52614E+06        -0.69603E+08         0.00000E+00
    0.00000E+00         0.00000E+00        -0.29825E+08
 
   -0.29859E+08         0.53355E+06         0.00000E+00
    0.53355E+06        -0.69707E+08         0.00000E+00
    0.00000E+00         0.00000E+00        -0.29870E+08
 
   -0.29905E+08         0.54078E+06         0.00000E+00
    0.54078E+06        -0.69813E+08         0.00000E+00
    0.00000E+00         0.00000E+00        -0.29915E+08
 
   -0.29951E+08         0.54781E+06         0.00000E+00
    0.54781E+06        -0.69922E+08         0.00000E+00
    0.00000E+00         0.00000E+00        -0.29962E+08
 
   -0.29999E+08         0.55461E+06         0.00000E+00
    0.55461E+06        -0.70032E+08         0.00000E+00
    0.00000E+00         0.00000E+00        -0.30009E+08
 
   -0.30048E+08         0.56116E+06         0.00000E+00
    0.56116E+06        -0.70145E+08         0.00000E+00
    0.00000E+00         0.00000E+00        -0.30058E+08
 
   -0.30098E+08         0.56740E+06         0.00000E+00
    0.56740E+06        -0.70260E+08         0.00000E+00
    0.00000E+00         0.00000E+00        -0.30107E+08
 
   -0.30149E+08         0.57332E+06         0.00000E+00
    0.57332E+06        -0.70377E+08         0.00000E+00
    0.00000E+00         0.00000E+00        -0.30158E+08
 
   -0.30201E+08         0.57888E+06         0.00000E+00
    0.57888E+06        -0.70496E+08         0.00000E+00
    0.00000E+00         0.00000E+00        -0.30209E+08
 
   -0.30254E+08         0.58402E+06         0.00000E+00
    0.58402E+06        -0.70618E+08         0.00000E+00
    0.00000E+00         0.00000E+00        -0.30261E+08
 
   -0.30308E+08         0.58872E+06         0.00000E+00
    0.58872E+06        -0.70741E+08         0.00000E+00
    0.00000E+00         0.00000E+00        -0.30315E+08
 
   -0.30363E+08         0.59291E+06         0.00000E+00
    0.59291E+06        -0.70867E+08         0.00000E+00
    0.00000E+00         0.00000E+00        -0.30369E+08
 
   -0.30419E+08         0.59656E+06         0.00000E+00
    0.59656E+06        -0.70995E+08         0.00000E+00
    0.00000E+00         0.00000E+00        -0.30424E+08
 
   -0.30476E+08         0.59960E+06         0.00000E+00
    0.59960E+06        -0.71126E+08         0.00000E+00
    0.00000E+00         0.00000E+00        -0.30481E+08
 
   -0.30534E+08         0.60197E+06         0.00000E+00
    0.60197E+06        -0.71259E+08         0.00000E+00
    0.00000E+00         0.00000E+00        -0.30538E+08
 
   -0.30594E+08         0.60362E+06         0.00000E+00
    0.60362E+06        -0.71393E+08         0.00000E+00
    0.00000E+00         0.00000E+00        -0.30596E+08
 
   -0.30654E+08         0.60447E+06         0.00000E+00
    0.60447E+06        -0.71531E+08         0.00000E+00
    0.00000E+00         0.00000E+00        -0.30655E+08
 
   -0.30716E+08         0.60446E+06         0.00000E+00
    0.60446E+06        -0.71670E+08         0.00000E+00
    0.00000E+00         0.00000E+00        -0.30716E+08
 
   -0.30779E+08         0.60351E+06         0.00000E+00
    0.60351E+06        -0.71812E+08         0.00000E+00
    0.00000E+00         0.00000E+00        -0.30777E+08
 
   -0.30842E+08         0.60154E+06         0.00000E+00
    0.60154E+06        -0.71956E+08         0.00000E+00
    0.00000E+00         0.00000E+00        -0.30840E+08
 
   -0.30908E+08         0.59847E+06         0.00000E+00
    0.59847E+06        -0.72103E+08         0.00000E+00
    0.00000E+00         0.00000E+00        -0.30903E+08
 
   -0.30974E+08         0.59422E+06         0.00000E+00
    0.59422E+06        -0.72251E+08         0.00000E+00
    0.00000E+00         0.00000E+00        -0.30968E+08
 
   -0.31041E+08         0.58870E+06         0.00000E+00
    0.58870E+06        -0.72403E+08         0.00000E+00
    0.00000E+00         0.00000E+00        -0.31033E+08
 
   -0.31110E+08         0.58184E+06         0.00000E+00
    0.58184E+06        -0.72556E+08         0.00000E+00
    0.00000E+00         0.00000E+00        -0.31100E+08
 
   -0.31180E+08         0.57356E+06         0.00000E+00
    0.57356E+06        -0.72712E+08         0.00000E+00
    0.00000E+00         0.00000E+00        -0.31167E+08
 
   -0.31250E+08         0.56377E+06         0.00000E+00
    0.56377E+06        -0.72870E+08         0.00000E+00
    0.00000E+00         0.00000E+00        -0.31236E+08
 
   -0.31322E+08         0.55241E+06         0.00000E+00
    0.55241E+06        -0.73031E+08         0.00000E+00
    0.00000E+00         0.00000E+00        -0.31306E+08
 
   -0.31396E+08         0.53943E+06         0.00000E+00
    0.53943E+06        -0.73193E+08         0.00000E+00
    0.00000E+00         0.00000E+00        -0.31377E+08
 
   -0.31470E+08         0.52477E+06         0.00000E+00
    0.52477E+06        -0.73358E+08         0.00000E+00
    0.00000E+00         0.00000E+00        -0.31448E+08
 
   -0.31545E+08         0.50841E+06         0.00000E+00
    0.50841E+06        -0.73525E+08         0.00000E+00
    0.00000E+00         0.00000E+00        -0.31521E+08
 
   -0.31620E+08         0.49033E+06         0.00000E+00
    0.49033E+06        -0.73694E+08         0.00000E+00
    0.00000E+00         0.00000E+00        -0.31594E+08
 
   -0.31696E+08         0.47051E+06         0.00000E+00
    0.47051E+06        -0.73863E+08         0.00000E+00
    0.00000E+00         0.00000E+00        -0.31668E+08
 
   -0.31773E+08         0.44894E+06         0.00000E+00
    0.44894E+06        -0.74034E+08         0.00000E+00
    0.00000E+00         0.00000E+00        -0.31742E+08
 
   -0.31850E+08         0.42559E+06         0.00000E+00
    0.42559E+06        -0.74204E+08         0.00000E+00
    0.00000E+00         0.00000E+00        -0.31816E+08
 
   -0.31926E+08         0.40040E+06         0.00000E+00
    0.40040E+06        -0.74374E+08         0.00000E+00
    0.00000E+00         0.00000E+00        -0.31890E+08
 
   -0.32002E+08         0.37318E+06         0.00000E+00
    0.37318E+06        -0.74541E+08         0.00000E+00
    0.00000E+00         0.00000E+00        -0.31963E+08
 
   -0.32078E+08         0.34361E+06         0.00000E+00
    0.34361E+06        -0.74704E+08         0.00000E+00
    0.00000E+00         0.00000E+00        -0.32035E+08
 
   -0.32152E+08         0.31108E+06         0.00000E+00
    0.31108E+06        -0.74862E+08         0.00000E+00
    0.00000E+00         0.00000E+00        -0.32104E+08
 
   -0.32227E+08         0.27451E+06         0.00000E+00
    0.27451E+06        -0.75011E+08         0.00000E+00
    0.00000E+00         0.00000E+00        -0.32171E+08
 
   -0.32301E+08         0.23220E+06         0.00000E+00
    0.23220E+06        -0.75150E+08         0.00000E+00
    0.00000E+00         0.00000E+00        -0.32235E+08
 
   -0.32378E+08         0.18124E+06         0.00000E+00
    0.18124E+06        -0.75274E+08         0.00000E+00
    0.00000E+00         0.00000E+00        -0.32296E+08
 
   -0.32462E+08         0.11698E+06         0.00000E+00
    0.11698E+06        -0.75379E+08         0.00000E+00
    0.00000E+00         0.00000E+00        -0.32353E+08
 
   -0.32574E+08         0.40419E+05         0.00000E+00
    0.40419E+05        -0.75462E+08         0.00000E+00
    0.00000E+00         0.00000E+00        -0.32411E+08
 
   -0.28252E+08         0.10572E+05         0.00000E+00
    0.10572E+05        -0.66108E+08         0.00000E+00
    0.00000E+00         0.00000E+00        -0.28308E+08
 
   -0.28282E+08         0.31205E+05         0.00000E+00
    0.31205E+05        -0.66128E+08         0.00000E+00
    0.00000E+00         0.00000E+00        -0.28323E+08
 
   -0.28305E+08         0.49870E+05         0.00000E+00
    0.49870E+05        -0.66154E+08         0.00000E+00
    0.00000E+00         0.00000E+00        -0.28338E+08
 
   -0.28325E+08         0.65891E+05         0.00000E+00
    0.65891E+05        -0.66185E+08         0.00000E+00
    0.00000E+00         0.00000E+00        -0.28353E+08
 
   -0.28345E+08         0.79977E+05         0.00000E+00
    0.79977E+05        -0.66220E+08         0.00000E+00
    0.00000E+00         0.00000E+00        -0.28369E+08
 
   -0.28364E+08         0.92801E+05         0.00000E+00
    0.92801E+05        -0.66257E+08         0.00000E+00
    0.00000E+00         0.00000E+00        -0.28386E+08
 
   -0.28383E+08         0.10476E+06         0.00000E+00
    0.10476E+06        -0.66298E+08         0.00000E+00
    0.00000E+00         0.00000E+00        -0.28404E+08
 
   -0.28402E+08         0.11610E+06         0.00000E+00
    0.11610E+06        -0.66339E+08         0.00000E+00
    0.00000E+00         0.00000E+00        -0.28423E+08
 
   -0.28422E+08         0.12698E+06         0.00000E+00
    0.12698E+06        -0.66383E+08         0.00000E+00
    0.00000E+00         0.00000E+00        -0.28441E+08
 
   -0.28442E+08         0.13749E+06         0.00000E+00
    0.13749E+06        -0.66427E+08         0.00000E+00
    0.00000E+00         0.00000E+00        -0.28461E+08
 
   -0.28462E+08         0.14768E+06         0.00000E+00
    0.14768E+06        -0.66472E+08         0.00000E+00
    0.00000E+00         0.00000E+00        -0.28480E+08
 
   -0.28482E+08         0.15757E+06         0.00000E+00
    0.15757E+06        -0.66517E+08         0.00000E+00
    0.00000E+00         0.00000E+00        -0.28500E+08
 
   -0.28502E+08         0.16718E+06         0.00000E+00
    0.16718E+06        -0.66563E+08         0.00000E+00
    0.00000E+00         0.00000E+00        -0.28520E+08
 
   -0.28523E+08         0.17651E+06         0.00000E+00
    0.17651E+06        -0.66610E+08         0.00000E+00
    0.00000E+00         0.00000E+00        -0.28540E+08
 
   -0.28544E+08         0.18559E+06         0.00000E+00
    0.18559E+06        -0.66657E+08         0.00000E+00
    0.00000E+00         0.00000E+00        -0.28560E+08
 
   -0.28564E+08         0.19441E+06         0.00000E+00
    0.19441E+06        -0.66704E+08         0.00000E+00
    0.00000E+00         0.00000E+00        -0.28580E+08
 
   -0.28585E+08         0.20300E+06         0.00000E+00
    0.20300E+06        -0.66751E+08         0.00000E+00
    0.00000E+00         0.00000E+00        -0.28601E+08
 
   -0.28606E+08         0.21137E+06         0.00000E+00
    0.21137E+06        -0.66799E+08         0.00000E+00
    0.00000E+00         0.00000E+00        -0.28622E+08
 
   -0.28627E+08         0.21953E+06         0.00000E+00
    0.21953E+06        -0.66848E+08         0.00000E+00
    0.00000E+00         0.00000E+00        -0.28642E+08
 
   -0.28649E+08         0.22751E+06         0.00000E+00
    0.22751E+06        -0.66896E+08         0.00000E+00
    0.00000E+00         0.00000E+00        -0.28664E+08
 
   -0.28670E+08         0.23532E+06         0.00000E+00
    0.23532E+06        -0.66946E+08         0.00000E+00
    0.00000E+00         0.00000E+00        -0.28685E+08
 
   -0.28692E+08         0.24300E+06         0.00000E+00
    0.24300E+06        -0.66996E+08         0.00000E+00
    0.00000E+00         0.00000E+00        -0.28706E+08
 
   -0.28714E+08         0.25055E+06         0.00000E+00
    0.25055E+06        -0.67046E+08         0.00000E+00
    0.00000E+00         0.00000E+00        -0.28728E+08
 
   -0.28736E+08         0.25799E+06         0.00000E+00
    0.25799E+06        -0.67098E+08         0.00000E+00
    0.00000E+00         0.00000E+00        -0.28750E+08
 
   -0.28759E+08         0.26536E+06         0.00000E+00
    0.26536E+06        -0.67150E+08         0.00000E+00
    0.00000E+00         0.00000E+00        -0.28773E+08
 
   -0.28781E+08         0.27266E+06         0.00000E+00
    0.27266E+06        -0.67203E+08         0.00000E+00
    0.00000E+00         0.00000E+00        -0.28795E+08
 
   -0.28805E+08         0.27992E+06         0.00000E+00
    0.27992E+06        -0.67257E+08         0.00000E+00
    0.00000E+00         0.00000E+00        -0.28818E+08
 
   -0.28828E+08         0.28714E+06         0.00000E+00
    0.28714E+06        -0.67311E+08         0.00000E+00
    0.00000E+00         0.00000E+00        -0.28842E+08
 
   -0.28852E+08         0.29435E+06         0.00000E+00
    0.29435E+06        -0.67367E+08         0.00000E+00
    0.00000E+00         0.00000E+00        -0.28866E+08
 
   -0.28876E+08         0.30156E+06         0.00000E+00
    0.30156E+06        -0.67424E+08         0.00000E+00
    0.00000E+00         0.00000E+00        -0.28890E+08
 
   -0.28901E+08         0.30877E+06         0.00000E+00
    0.30877E+06        -0.67482E+08         0.00000E+00
    0.00000E+00         0.00000E+00        -0.28915E+08
 
   -0.28926E+08         0.31600E+06         0.00000E+00
    0.31600E+06        -0.67541E+08         0.00000E+00
    0.00000E+00         0.00000E+00        -0.28940E+08
 
   -0.28952E+08         0.32326E+06         0.00000E+00
    0.32326E+06        -0.67601E+08         0.00000E+00
    0.00000E+00         0.00000E+00        -0.28966E+08
 
   -0.28978E+08         0.33055E+06         0.00000E+00
    0.33055E+06        -0.67662E+08         0.00000E+00
    0.00000E+00         0.00000E+00        -0.28992E+08
 
   -0.29005E+08         0.33788E+06         0.00000E+00
    0.33788E+06        -0.67725E+08         0.00000E+00
    0.00000E+00         0.00000E+00        -0.29019E+08
 
   -0.29032E+08         0.34526E+06         0.00000E+00
    0.34526E+06        -0.67789E+08         0.00000E+00
    0.00000E+00         0.00000E+00        -0.29046E+08
 
   -0.29060E+08         0.35268E+06         0.00000E+00
    0.35268E+06        -0.67854E+08         0.00000E+00
    0.00000E+00         0.00000E+00        -0.29074E+08
 
   -0.29088E+08         0.36016E+06         0.00000E+00
    0.36016E+06        -0.67921E+08         0.00000E+00
    0.00000E+00         0.00000E+00        -0.29103E+08
 
   -0.29117E+08         0.36768E+06         0.00000E+00
    0.36768E+06        -0.67989E+08         0.00000E+00
    0.00000E+00         0.00000E+00        -0.29132E+08
 
   -0.29147E+08         0.37526E+06         0.00000E+00
    0.37526E+06        -0.68058E+08         0.00000E+00
    0.00000E+00         0.00000E+00        -0.29162E+08
 
   -0.29177E+08         0.38290E+06         0.00000E+00
    0.38290E+06        -0.68129E+08         0.00000E+00
    0.00000E+00         0.00000E+00        -0.29192E+08
 
   -0.29208E+08         0.39058E+06         0.00000E+00
    0.39058E+06        -0.68202E+08         0.00000E+00
    0.00000E+00         0.00000E+00        -0.29223E+08
 
   -0.29240E+08         0.39830E+06         0.00000E+00
    0.39830E+06        -0.68276E+08         0.00000E+00
    0.00000E+00         0.00000E+00        -0.29255E+08
 
   -0.29272E+08         0.40607E+06         0.00000E+00
    0.40607E+06        -0.68352E+08         0.00000E+00
    0.00000E+00         0.00000E+00        -0.29287E+08
 
   -0.29305E+08         0.41388E+06         0.00000E+00
    0.41388E+06        -0.68430E+08         0.00000E+00
    0.00000E+00         0.00000E+00        -0.29321E+08
 
   -0.29339E+08         0.42172E+06         0.00000E+00
    0.42172E+06        -0.68509E+08         0.00000E+00
    0.00000E+00         0.00000E+00        -0.29354E+08
 
   -0.29374E+08         0.42958E+06         0.00000E+00
    0.42958E+06        -0.68590E+08         0.00000E+00
    0.00000E+00         0.00000E+00        -0.29389E+08
 
   -0.29409E+08         0.43746E+06         0.00000E+00
    0.43746E+06        -0.68673E+08         0.00000E+00
    0.00000E+00         0.00000E+00        -0.29425E+08
 
   -0.29445E+08         0.44534E+06         0.00000E+00
    0.44534E+06        -0.68757E+08         0.00000E+00
    0.00000E+00         0.00000E+00        -0.29461E+08
 
   -0.29482E+08         0.45323E+06         0.00000E+00
    0.45323E+06        -0.68844E+08         0.00000E+00
    0.00000E+00         0.00000E+00        -0.29498E+08
 
   -0.29520E+08         0.46110E+06         0.00000E+00
    0.46110E+06        -0.68932E+08         0.00000E+00
    0.00000E+00         0.00000E+00        -0.29536E+08
 
   -0.29559E+08         0.46894E+06         0.00000E+00
    0.46894E+06        -0.69022E+08         0.00000E+00
    0.00000E+00         0.00000E+00        -0.29574E+08
 
   -0.29599E+08         0.47675E+06         0.00000E+00
    0.47675E+06        -0.69114E+08         0.00000E+00
    0.00000E+00         0.00000E+00        -0.29614E+08
 
   -0.29639E+08         0.48449E+06         0.00000E+00
    0.48449E+06        -0.69208E+08         0.00000E+00
    0.00000E+00         0.00000E+00        -0.29654E+08
 
   -0.29680E+08         0.49217E+06         0.00000E+00
    0.49217E+06        -0.69304E+08         0.00000E+00
    0.00000E+00         0.00000E+00        -0.29695E+08
 
   -0.29723E+08         0.49976E+06         0.00000E+00
    0.49976E+06        -0.69402E+08         0.00000E+00
    0.00000E+00         0.00000E+00        -0.29737E+08
 
   -0.29766E+08         0.50724E+06         0.00000E+00
    0.50724E+06        -0.69502E+08         0.00000E+00
    0.00000E+00         0.00000E+00        -0.29780E+08
 
   -0.29810E+08         0.51460E+06         0.00000E+00
    0.51460E+06        -0.69604E+08         0.00000E+00
    0.00000E+00         0.00000E+00        -0.29824E+08
 
   -0.29855E+08         0.52180E+06         0.00000E+00
    0.52180E+06        -0.69708E+08         0.00000E+00
    0.00000E+00         0.00000E+00        -0.29869E+08
 
   -0.29901E+08         0.52883E+06         0.00000E+00
    0.52883E+06        -0.69815E+08         0.00000E+00
    0.00000E+00         0.00000E+00        -0.29915E+08
 
   -0.29948E+08         0.53566E+06         0.00000E+00
    0.53566E+06        -0.69923E+08         0.00000E+00
    0.00000E+00         0.00000E+00        -0.29961E+08
 
   -0.29996E+08         0.54226E+06         0.00000E+00
    0.54226E+06        -0.70034E+08         0.00000E+00
    0.00000E+00         0.00000E+00        -0.30009E+08
 
   -0.30045E+08         0.54860E+06         0.00000E+00
    0.54860E+06        -0.70146E+08         0.00000E+00
    0.00000E+00         0.00000E+00        -0.30057E+08
 
   -0.30095E+08         0.55466E+06         0.00000E+00
    0.55466E+06        -0.70261E+08         0.00000E+00
    0.00000E+00         0.00000E+00        -0.30107E+08
 
   -0.30146E+08         0.56038E+06         0.00000E+00
    0.56038E+06        -0.70378E+08         0.00000E+00
    0.00000E+00         0.00000E+00        -0.30157E+08
 
   -0.30198E+08         0.56575E+06         0.00000E+00
    0.56575E+06        -0.70497E+08         0.00000E+00
    0.00000E+00         0.00000E+00        -0.30209E+08
 
   -0.30251E+08         0.57071E+06         0.00000E+00
    0.57071E+06        -0.70619E+08         0.00000E+00
    0.00000E+00         0.00000E+00        -0.30261E+08
 
   -0.30305E+08         0.57522E+06         0.00000E+00
    0.57522E+06        -0.70742E+08         0.00000E+00
    0.00000E+00         0.00000E+00        -0.30314E+08
 
   -0.30361E+08         0.57923E+06         0.00000E+00
    0.57923E+06        -0.70868E+08         0.00000E+00
    0.00000E+00         0.00000E+00        -0.30369E+08
 
   -0.30417E+08         0.58271E+06         0.00000E+00
    0.58271E+06        -0.70996E+08         0.00000E+00
    0.00000E+00         0.00000E+00        -0.30424E+08
 
   -0.30474E+08         0.58558E+06         0.00000E+00
    0.58558E+06        -0.71126E+08         0.00000E+00
    0.00000E+00         0.00000E+00        -0.30480E+08
 
   -0.30533E+08         0.58779E+06         0.00000E+00
    0.58779E+06        -0.71259E+08         0.00000E+00
    0.00000E+00         0.00000E+00        -0.30538E+08
 
   -0.30593E+08         0.58929E+06         0.00000E+00
    0.58929E+06        -0.71394E+08         0.00000E+00
    0.00000E+00         0.00000E+00        -0.30596E+08
 
   -0.30654E+08         0.59000E+06         0.00000E+00
    0.59000E+06        -0.71531E+08         0.00000E+00
    0.00000E+00         0.00000E+00        -0.30655E+08
 
   -0.30716E+08         0.58985E+06         0.00000E+00
    0.58985E+06        -0.71670E+08         0.00000E+00
    0.00000E+00         0.00000E+00        -0.30716E+08
 
   -0.30779E+08         0.58877E+06         0.00000E+00
    0.58877E+06        -0.71812E+08         0.00000E+00
    0.00000E+00         0.00000E+00        -0.30777E+08
 
   -0.30843E+08         0.58669E+06         0.00000E+00
    0.58669E+06        -0.71956E+08         0.00000E+00
    0.00000E+00         0.00000E+00        -0.30840E+08
 
   -0.30909E+08         0.58351E+06         0.00000E+00
    0.58351E+06        -0.72102E+08         0.00000E+00
    0.00000E+00         0.00000E+00        -0.30903E+08
 
   -0.30976E+08         0.57917E+06         0.00000E+00
    0.57917E+06        -0.72250E+08         0.00000E+00
    0.00000E+00         0.00000E+00        -0.30968E+08
 
   -0.31044E+08         0.57357E+06         0.00000E+00
    0.57357E+06        -0.72401E+08         0.00000E+00
    0.00000E+00         0.00000E+00        -0.31034E+08
 
   -0.31113E+08         0.56663E+06         0.00000E+00
    0.56663E+06        -0.72555E+08         0.00000E+00
    0.00000E+00         0.00000E+00        -0.31100E+08
 
   -0.31184E+08         0.55827E+06         0.00000E+00
    0.55827E+06        -0.72710E+08         0.00000E+00
    0.00000E+00         0.00000E+00        -0.31168E+08
 
   -0.31255E+08         0.54842E+06         0.00000E+00
    0.54842E+06        -0.72868E+08         0.00000E+00
    0.00000E+00         0.00000E+00        -0.31237E+08
 
   -0.31328E+08         0.53701E+06         0.00000E+00
    0.53701E+06        -0.73028E+08         0.00000E+00
    0.00000E+00         0.00000E+00        -0.31307E+08
 
   -0.31402E+08         0.52396E+06         0.00000E+00
    0.52396E+06        -0.73191E+08         0.00000E+00
    0.00000E+00         0.00000E+00        -0.31378E+08
 
   -0.31477E+08         0.50924E+06         0.00000E+00
    0.50924E+06        -0.73355E+08         0.00000E+00
    0.00000E+00         0.00000E+00        -0.31450E+08
 
   -0.31553E+08         0.49281E+06         0.00000E+00
    0.49281E+06        -0.73522E+08         0.00000E+00
    0.00000E+00         0.00000E+00        -0.31522E+08
 
   -0.31629E+08         0.47463E+06         0.00000E+00
    0.47463E+06        -0.73690E+08         0.00000E+00
    0.00000E+00         0.00000E+00        -0.31596E+08
 
   -0.31706E+08         0.45469E+06         0.00000E+00
    0.45469E+06        -0.73859E+08         0.00000E+00
    0.00000E+00         0.00000E+00        -0.31670E+08
 
   -0.31784E+08         0.43298E+06         0.00000E+00
    0.43298E+06        -0.74029E+08         0.00000E+00
    0.00000E+00         0.00000E+00        -0.31744E+08
 
   -0.31862E+08         0.40945E+06         0.00000E+00
    0.40945E+06        -0.74199E+08         0.00000E+00
    0.00000E+00         0.00000E+00        -0.31818E+08
 
   -0.31939E+08         0.38405E+06         0.00000E+00
    0.38405E+06        -0.74368E+08         0.00000E+00
    0.00000E+00         0.00000E+00        -0.31892E+08
 
   -0.32017E+08         0.35660E+06         0.00000E+00
    0.35660E+06        -0.74535E+08         0.00000E+00
    0.00000E+00         0.00000E+00        -0.31966E+08
 
   -0.32093E+08         0.32679E+06         0.00000E+00
    0.32679E+06        -0.74698E+08         0.00000E+00
    0.00000E+00         0.00000E+00        -0.32037E+08
 
   -0.32170E+08         0.29406E+06         0.00000E+00
    0.29406E+06        -0.74855E+08         0.00000E+00
    0.00000E+00         0.00000E+00        -0.32108E+08
 
   -0.32247E+08         0.25743E+06         0.00000E+00
    0.25743E+06        -0.75003E+08         0.00000E+00
    0.00000E+00         0.00000E+00        -0.32175E+08
 
   -0.32325E+08         0.21539E+06         0.00000E+00
    0.21539E+06        -0.75141E+08         0.00000E+00
    0.00000E+00         0.00000E+00        -0.32240E+08
 
   -0.32407E+08         0.16530E+06         0.00000E+00
    0.16530E+06        -0.75263E+08         0.00000E+00
    0.00000E+00         0.00000E+00        -0.32301E+08
 
   -0.32500E+08         0.10440E+06         0.00000E+00
    0.10440E+06        -0.75366E+08         0.00000E+00
    0.00000E+00         0.00000E+00        -0.32360E+08
 
   -0.32620E+08         0.35494E+05         0.00000E+00
    0.35494E+05        -0.75447E+08         0.00000E+00
    0.00000E+00         0.00000E+00        -0.32420E+08
 
   -0.28239E+08         0.95461E+04         0.00000E+00
    0.95461E+04        -0.66112E+08         0.00000E+00
    0.00000E+00         0.00000E+00        -0.28305E+08
 
   -0.28271E+08         0.28451E+05         0.00000E+00
    0.28451E+05        -0.66132E+08         0.00000E+00
    0.00000E+00         0.00000E+00        -0.28321E+08
 
   -0.28296E+08         0.46148E+05         0.00000E+00
    0.46148E+05        -0.66158E+08         0.00000E+00
    0.00000E+00         0.00000E+00        -0.28336E+08
 
   -0.28317E+08         0.61794E+05         0.00000E+00
    0.61794E+05        -0.66188E+08         0.00000E+00
    0.00000E+00         0.00000E+00        -0.28352E+08
 
   -0.28338E+08         0.75717E+05         0.00000E+00
    0.75717E+05        -0.66222E+08         0.00000E+00
    0.00000E+00         0.00000E+00        -0.28368E+08
 
   -0.28357E+08         0.88467E+05         0.00000E+00
    0.88467E+05        -0.66260E+08         0.00000E+00
    0.00000E+00         0.00000E+00        -0.28385E+08
 
   -0.28377E+08         0.10039E+06         0.00000E+00
    0.10039E+06        -0.66300E+08         0.00000E+00
    0.00000E+00         0.00000E+00        -0.28403E+08
 
   -0.28397E+08         0.11172E+06         0.00000E+00
    0.11172E+06        -0.66342E+08         0.00000E+00
    0.00000E+00         0.00000E+00        -0.28421E+08
 
   -0.28417E+08         0.12259E+06         0.00000E+00
    0.12259E+06        -0.66385E+08         0.00000E+00
    0.00000E+00         0.00000E+00        -0.28440E+08
 
   -0.28437E+08         0.13307E+06         0.00000E+00
    0.13307E+06        -0.66429E+08         0.00000E+00
    0.00000E+00         0.00000E+00        -0.28460E+08
 
   -0.28457E+08         0.14322E+06         0.00000E+00
    0.14322E+06        -0.66474E+08         0.00000E+00
    0.00000E+00         0.00000E+00        -0.28479E+08
 
   -0.28477E+08         0.15306E+06         0.00000E+00
    0.15306E+06        -0.66519E+08         0.00000E+00
    0.00000E+00         0.00000E+00        -0.28499E+08
 
   -0.28498E+08         0.16261E+06         0.00000E+00
    0.16261E+06        -0.66565E+08         0.00000E+00
    0.00000E+00         0.00000E+00        -0.28519E+08
 
   -0.28518E+08         0.17187E+06         0.00000E+00
    0.17187E+06        -0.66612E+08         0.00000E+00
    0.00000E+00         0.00000E+00        -0.28539E+08
 
   -0.28539E+08         0.18086E+06         0.00000E+00
    0.18086E+06        -0.66658E+08         0.00000E+00
    0.00000E+00         0.00000E+00        -0.28559E+08
 
   -0.28560E+08         0.18959E+06         0.00000E+00
    0.18959E+06        -0.66706E+08         0.00000E+00
    0.00000E+00         0.00000E+00        -0.28580E+08
 
   -0.28581E+08         0.19808E+06         0.00000E+00
    0.19808E+06        -0.66753E+08         0.00000E+00
    0.00000E+00         0.00000E+00        -0.28600E+08
 
   -0.28602E+08         0.20634E+06         0.00000E+00
    0.20634E+06        -0.66801E+08         0.00000E+00
    0.00000E+00         0.00000E+00        -0.28621E+08
 
   -0.28623E+08         0.21440E+06         0.00000E+00
    0.21440E+06        -0.66849E+08         0.00000E+00
    0.00000E+00         0.00000E+00        -0.28642E+08
 
   -0.28645E+08         0.22226E+06         0.00000E+00
    0.22226E+06        -0.66898E+08         0.00000E+00
    0.00000E+00         0.00000E+00        -0.28663E+08
 
   -0.28666E+08         0.22996E+06         0.00000E+00
    0.22996E+06        -0.66947E+08         0.00000E+00
    0.00000E+00         0.00000E+00        -0.28684E+08
 
   -0.28688E+08         0.23751E+06         0.00000E+00
    0.23751E+06        -0.66997E+08         0.00000E+00
    0.00000E+00         0.00000E+00        -0.28706E+08
 
   -0.28710E+08         0.24494E+06         0.00000E+00
    0.24494E+06        -0.67048E+08         0.00000E+00
    0.00000E+00         0.00000E+00        -0.28727E+08
 
   -0.28732E+08         0.25226E+06         0.00000E+00
    0.25226E+06        -0.67099E+08         0.00000E+00
    0.00000E+00         0.00000E+00        -0.28749E+08
 
   -0.28755E+08         0.25950E+06         0.00000E+00
    0.25950E+06        -0.67151E+08         0.00000E+00
    0.00000E+00         0.00000E+00        -0.28772E+08
 
   -0.28778E+08         0.26667E+06         0.00000E+00
    0.26667E+06        -0.67204E+08         0.00000E+00
    0.00000E+00         0.00000E+00        -0.28795E+08
 
   -0.28801E+08         0.27380E+06         0.00000E+00
    0.27380E+06        -0.67258E+08         0.00000E+00
    0.00000E+00         0.00000E+00        -0.28818E+08
 
   -0.28824E+08         0.28088E+06         0.00000E+00
    0.28088E+06        -0.67313E+08         0.00000E+00
    0.00000E+00         0.00000E+00        -0.28841E+08
 
   -0.28848E+08         0.28795E+06         0.00000E+00
    0.28795E+06        -0.67368E+08         0.00000E+00
    0.00000E+00         0.00000E+00        -0.28865E+08
 
   -0.28873E+08         0.29502E+06         0.00000E+00
    0.29502E+06        -0.67425E+08         0.00000E+00
    0.00000E+00         0.00000E+00        -0.28889E+08
 
   -0.28897E+08         0.30209E+06         0.00000E+00
    0.30209E+06        -0.67483E+08         0.00000E+00
    0.00000E+00         0.00000E+00        -0.28914E+08
 
   -0.28922E+08         0.30917E+06         0.00000E+00
    0.30917E+06        -0.67542E+08         0.00000E+00
    0.00000E+00         0.00000E+00        -0.28939E+08
 
   -0.28948E+08         0.31628E+06         0.00000E+00
    0.31628E+06        -0.67602E+08         0.00000E+00
    0.00000E+00         0.00000E+00        -0.28965E+08
 
   -0.28974E+08         0.32342E+06         0.00000E+00
    0.32342E+06        -0.67664E+08         0.00000E+00
    0.00000E+00         0.00000E+00        -0.28991E+08
 
   -0.29001E+08         0.33060E+06         0.00000E+00
    0.33060E+06        -0.67726E+08         0.00000E+00
    0.00000E+00         0.00000E+00        -0.29018E+08
 
   -0.29028E+08         0.33782E+06         0.00000E+00
    0.33782E+06        -0.67790E+08         0.00000E+00
    0.00000E+00         0.00000E+00        -0.29045E+08
 
   -0.29056E+08         0.34508E+06         0.00000E+00
    0.34508E+06        -0.67855E+08         0.00000E+00
    0.00000E+00         0.00000E+00        -0.29073E+08
 
   -0.29084E+08         0.35239E+06         0.00000E+00
    0.35239E+06        -0.67922E+08         0.00000E+00
    0.00000E+00         0.00000E+00        -0.29102E+08
 
   -0.29113E+08         0.35975E+06         0.00000E+00
    0.35975E+06        -0.67990E+08         0.00000E+00
    0.00000E+00         0.00000E+00        -0.29131E+08
 
   -0.29143E+08         0.36716E+06         0.00000E+00
    0.36716E+06        -0.68060E+08         0.00000E+00
    0.00000E+00         0.00000E+00        -0.29161E+08
 
   -0.29173E+08         0.37462E+06         0.00000E+00
    0.37462E+06        -0.68131E+08         0.00000E+00
    0.00000E+00         0.00000E+00        -0.29191E+08
 
   -0.29204E+08         0.38213E+06         0.00000E+00
    0.38213E+06        -0.68204E+08         0.00000E+00
    0.00000E+00         0.00000E+00        -0.29222E+08
 
   -0.29236E+08         0.38968E+06         0.00000E+00
    0.38968E+06        -0.68278E+08         0.00000E+00
    0.00000E+00         0.00000E+00        -0.29254E+08
 
   -0.29268E+08         0.39726E+06         0.00000E+00
    0.39726E+06        -0.68354E+08         0.00000E+00
    0.00000E+00         0.00000E+00        -0.29287E+08
 
   -0.29301E+08         0.40489E+06         0.00000E+00
    0.40489E+06        -0.68431E+08         0.00000E+00
    0.00000E+00         0.00000E+00        -0.29320E+08
 
   -0.29335E+08         0.41254E+06         0.00000E+00
    0.41254E+06        -0.68511E+08         0.00000E+00
    0.00000E+00         0.00000E+00        -0.29354E+08
 
   -0.29370E+08         0.42022E+06         0.00000E+00
    0.42022E+06        -0.68592E+08         0.00000E+00
    0.00000E+00         0.00000E+00        -0.29388E+08
 
   -0.29405E+08         0.42790E+06         0.00000E+00
    0.42790E+06        -0.68674E+08         0.00000E+00
    0.00000E+00         0.00000E+00        -0.29424E+08
 
   -0.29441E+08         0.43560E+06         0.00000E+00
    0.43560E+06        -0.68759E+08         0.00000E+00
    0.00000E+00         0.00000E+00        -0.29460E+08
 
   -0.29478E+08         0.44329E+06         0.00000E+00
    0.44329E+06        -0.68845E+08         0.00000E+00
    0.00000E+00         0.00000E+00        -0.29497E+08
 
   -0.29516E+08         0.45096E+06         0.00000E+00
    0.45096E+06        -0.68933E+08         0.00000E+00
    0.00000E+00         0.00000E+00        -0.29535E+08
 
   -0.29555E+08         0.45861E+06         0.00000E+00
    0.45861E+06        -0.69024E+08         0.00000E+00
    0.00000E+00         0.00000E+00        -0.29574E+08
 
   -0.29594E+08         0.46622E+06         0.00000E+00
    0.46622E+06        -0.69116E+08         0.00000E+00
    0.00000E+00         0.00000E+00        -0.29613E+08
 
   -0.29635E+08         0.47377E+06         0.00000E+00
    0.47377E+06        -0.69210E+08         0.00000E+00
    0.00000E+00         0.00000E+00        -0.29653E+08
 
   -0.29676E+08         0.48124E+06         0.00000E+00
    0.48124E+06        -0.69306E+08         0.00000E+00
    0.00000E+00         0.00000E+00        -0.29695E+08
 
   -0.29719E+08         0.48863E+06         0.00000E+00
    0.48863E+06        -0.69404E+08         0.00000E+00
    0.00000E+00         0.00000E+00        -0.29737E+08
 
   -0.29762E+08         0.49591E+06         0.00000E+00
    0.49591E+06        -0.69504E+08         0.00000E+00
    0.00000E+00         0.00000E+00        -0.29780E+08
 
   -0.29806E+08         0.50307E+06         0.00000E+00
    0.50307E+06        -0.69606E+08         0.00000E+00
    0.00000E+00         0.00000E+00        -0.29824E+08
 
   -0.29851E+08         0.51007E+06         0.00000E+00
    0.51007E+06        -0.69710E+08         0.00000E+00
    0.00000E+00         0.00000E+00        -0.29868E+08
 
   -0.29897E+08         0.51690E+06         0.00000E+00
    0.51690E+06        -0.69816E+08         0.00000E+00
    0.00000E+00         0.00000E+00        -0.29914E+08
 
   -0.29944E+08         0.52353E+06         0.00000E+00
    0.52353E+06        -0.69924E+08         0.00000E+00
    0.00000E+00         0.00000E+00        -0.29961E+08
 
   -0.29992E+08         0.52993E+06         0.00000E+00
    0.52993E+06        -0.70035E+08         0.00000E+00
    0.00000E+00         0.00000E+00        -0.30008E+08
 
   -0.30042E+08         0.53608E+06         0.00000E+00
    0.53608E+06        -0.70147E+08         0.00000E+00
    0.00000E+00         0.00000E+00        -0.30057E+08
 
   -0.30092E+08         0.54194E+06         0.00000E+00
    0.54194E+06        -0.70262E+08         0.00000E+00
    0.00000E+00         0.00000E+00        -0.30106E+08
 
   -0.30143E+08         0.54748E+06         0.00000E+00
    0.54748E+06        -0.70379E+08         0.00000E+00
    0.00000E+00         0.00000E+00        -0.30157E+08
 
   -0.30195E+08         0.55265E+06         0.00000E+00
    0.55265E+06        -0.70498E+08         0.00000E+00
    0.00000E+00         0.00000E+00        -0.30208E+08
 
   -0.30248E+08         0.55743E+06         0.00000E+00
    0.55743E+06        -0.70620E+08         0.00000E+00
    0.00000E+00         0.00000E+00        -0.30260E+08
 
   -0.30303E+08         0.56176E+06         0.00000E+00
    0.56176E+06        -0.70743E+08         0.00000E+00
    0.00000E+00         0.00000E+00        -0.30314E+08
 
   -0.30358E+08         0.56561E+06         0.00000E+00
    0.56561E+06        -0.70869E+08         0.00000E+00
    0.00000E+00         0.00000E+00        -0.30368E+08
 
   -0.30415E+08         0.56891E+06         0.00000E+00
    0.56891E+06        -0.70997E+08         0.00000E+00
    0.00000E+00         0.00000E+00        -0.30424E+08
 
   -0.30473E+08         0.57162E+06         0.00000E+00
    0.57162E+06        -0.71127E+08         0.00000E+00
    0.00000E+00         0.00000E+00        -0.30480E+08
 
   -0.30532E+08         0.57369E+06         0.00000E+00
    0.57369E+06        -0.71259E+08         0.00000E+00
    0.00000E+00         0.00000E+00        -0.30537E+08
 
   -0.30592E+08         0.57504E+06         0.00000E+00
    0.57504E+06        -0.71394E+08         0.00000E+00
    0.00000E+00         0.00000E+00        -0.30596E+08
 
   -0.30653E+08         0.57561E+06         0.00000E+00
    0.57561E+06        -0.71531E+08         0.00000E+00
    0.00000E+00         0.00000E+00        -0.30655E+08
 
   -0.30716E+08         0.57533E+06         0.00000E+00
    0.57533E+06        -0.71670E+08         0.00000E+00
    0.00000E+00         0.00000E+00        -0.30716E+08
 
   -0.30779E+08         0.57414E+06         0.00000E+00
    0.57414E+06        -0.71811E+08         0.00000E+00
    0.00000E+00         0.00000E+00        -0.30777E+08
 
   -0.30844E+08         0.57194E+06         0.00000E+00
    0.57194E+06        -0.71955E+08         0.00000E+00
    0.00000E+00         0.00000E+00        -0.30840E+08
 
   -0.30910E+08         0.56867E+06         0.00000E+00
    0.56867E+06        -0.72101E+08         0.00000E+00
    0.00000E+00         0.00000E+00        -0.30903E+08
 
   -0.30978E+08         0.56424E+06         0.00000E+00
    0.56424E+06        -0.72249E+08         0.00000E+00
    0.00000E+00         0.00000E+00        -0.30968E+08
 
   -0.31047E+08         0.55856E+06         0.00000E+00
    0.55856E+06        -0.72400E+08         0.00000E+00
    0.00000E+00         0.00000E+00        -0.31034E+08
 
   -0.31117E+08         0.55156E+06         0.00000E+00
    0.55156E+06        -0.72553E+08         0.00000E+00
    0.00000E+00         0.00000E+00        -0.31101E+08
 
   -0.31188E+08         0.54314E+06         0.00000E+00
    0.54314E+06        -0.72708E+08         0.00000E+00
    0.00000E+00         0.00000E+00        -0.31169E+08
 
   -0.31260E+08         0.53323E+06         0.00000E+00
    0.53323E+06        -0.72866E+08         0.00000E+00
    0.00000E+00         0.00000E+00        -0.31238E+08
 
   -0.31334E+08         0.52176E+06         0.00000E+00
    0.52176E+06        -0.73026E+08         0.00000E+00
    0.00000E+00         0.00000E+00        -0.31308E+08
 
   -0.31408E+08         0.50866E+06         0.00000E+00
    0.50866E+06        -0.73188E+08         0.00000E+00
    0.00000E+00         0.00000E+00        -0.31379E+08
 
   -0.31484E+08         0.49388E+06         0.00000E+00
    0.49388E+06        -0.73352E+08         0.00000E+00
    0.00000E+00         0.00000E+00        -0.31451E+08
 
   -0.31561E+08         0.47738E+06         0.00000E+00
    0.47738E+06        -0.73518E+08         0.00000E+00
    0.00000E+00         0.00000E+00        -0.31524E+08
 
   -0.31638E+08         0.45911E+06         0.00000E+00
    0.45911E+06        -0.73686E+08         0.00000E+00
    0.00000E+00         0.00000E+00        -0.31597E+08
 
   -0.31716E+08         0.43907E+06         0.00000E+00
    0.43907E+06        -0.73855E+08         0.00000E+00
    0.00000E+00         0.00000E+00        -0.31671E+08
 
   -0.31795E+08         0.41722E+06         0.00000E+00
    0.41722E+06        -0.74025E+08         0.00000E+00
    0.00000E+00         0.00000E+00        -0.31746E+08
 
   -0.31874E+08         0.39353E+06         0.00000E+00
    0.39353E+06        -0.74194E+08         0.00000E+00
    0.00000E+00         0.00000E+00        -0.31820E+08
 
   -0.31952E+08         0.36794E+06         0.00000E+00
    0.36794E+06        -0.74363E+08         0.00000E+00
    0.00000E+00         0.00000E+00        -0.31895E+08
 
   -0.32031E+08         0.34029E+06         0.00000E+00
    0.34029E+06        -0.74529E+08         0.00000E+00
    0.00000E+00         0.00000E+00        -0.31968E+08
 
   -0.32110E+08         0.31031E+06         0.00000E+00
    0.31031E+06        -0.74692E+08         0.00000E+00
    0.00000E+00         0.00000E+00        -0.32040E+08
 
   -0.32188E+08         0.27749E+06         0.00000E+00
    0.27749E+06        -0.74848E+08         0.00000E+00
    0.00000E+00         0.00000E+00        -0.32111E+08
 
   -0.32268E+08         0.24098E+06         0.00000E+00
    0.24098E+06        -0.74996E+08         0.00000E+00
    0.00000E+00         0.00000E+00        -0.32179E+08
 
   -0.32350E+08         0.19942E+06         0.00000E+00
    0.19942E+06        -0.75132E+08         0.00000E+00
    0.00000E+00         0.00000E+00        -0.32244E+08
 
   -0.32437E+08         0.15069E+06         0.00000E+00
    0.15069E+06        -0.75252E+08         0.00000E+00
    0.00000E+00         0.00000E+00        -0.32307E+08
 
   -0.32537E+08         0.93541E+05         0.00000E+00
    0.93541E+05        -0.75353E+08         0.00000E+00
    0.00000E+00         0.00000E+00        -0.32367E+08
 
   -0.32663E+08         0.31443E+05         0.00000E+00
    0.31443E+05        -0.75434E+08         0.00000E+00
    0.00000E+00         0.00000E+00        -0.32429E+08
 
   -0.28228E+08         0.86743E+04         0.00000E+00
    0.86743E+04        -0.66116E+08         0.00000E+00
    0.00000E+00         0.00000E+00        -0.28303E+08
 
   -0.28260E+08         0.26031E+05         0.00000E+00
    0.26031E+05        -0.66136E+08         0.00000E+00
    0.00000E+00         0.00000E+00        -0.28319E+08
 
   -0.28287E+08         0.42724E+05         0.00000E+00
    0.42724E+05        -0.66161E+08         0.00000E+00
    0.00000E+00         0.00000E+00        -0.28334E+08
 
   -0.28309E+08         0.57897E+05         0.00000E+00
    0.57897E+05        -0.66191E+08         0.00000E+00
    0.00000E+00         0.00000E+00        -0.28350E+08
 
   -0.28331E+08         0.71599E+05         0.00000E+00
    0.71599E+05        -0.66225E+08         0.00000E+00
    0.00000E+00         0.00000E+00        -0.28367E+08
 
   -0.28351E+08         0.84235E+05         0.00000E+00
    0.84235E+05        -0.66262E+08         0.00000E+00
    0.00000E+00         0.00000E+00        -0.28384E+08
 
   -0.28371E+08         0.96103E+05         0.00000E+00
    0.96103E+05        -0.66302E+08         0.00000E+00
    0.00000E+00         0.00000E+00        -0.28402E+08
 
   -0.28391E+08         0.10740E+06         0.00000E+00
    0.10740E+06        -0.66344E+08         0.00000E+00
    0.00000E+00         0.00000E+00        -0.28420E+08
 
   -0.28411E+08         0.11824E+06         0.00000E+00
    0.11824E+06        -0.66387E+08         0.00000E+00
    0.00000E+00         0.00000E+00        -0.28439E+08
 
   -0.28431E+08         0.12869E+06         0.00000E+00
    0.12869E+06        -0.66431E+08         0.00000E+00
    0.00000E+00         0.00000E+00        -0.28459E+08
 
   -0.28452E+08         0.13880E+06         0.00000E+00
    0.13880E+06        -0.66476E+08         0.00000E+00
    0.00000E+00         0.00000E+00        -0.28478E+08
 
   -0.28472E+08         0.14859E+06         0.00000E+00
    0.14859E+06        -0.66521E+08         0.00000E+00
    0.00000E+00         0.00000E+00        -0.28498E+08
 
   -0.28493E+08         0.15807E+06         0.00000E+00
    0.15807E+06        -0.66567E+08         0.00000E+00
    0.00000E+00         0.00000E+00        -0.28518E+08
 
   -0.28514E+08         0.16726E+06         0.00000E+00
    0.16726E+06        -0.66614E+08         0.00000E+00
    0.00000E+00         0.00000E+00        -0.28538E+08
 
   -0.28535E+08         0.17616E+06         0.00000E+00
    0.17616E+06        -0.66660E+08         0.00000E+00
    0.00000E+00         0.00000E+00        -0.28559E+08
 
   -0.28556E+08         0.18480E+06         0.00000E+00
    0.18480E+06        -0.66707E+08         0.00000E+00
    0.00000E+00         0.00000E+00        -0.28579E+08
 
   -0.28577E+08         0.19319E+06         0.00000E+00
    0.19319E+06        -0.66755E+08         0.00000E+00
    0.00000E+00         0.00000E+00        -0.28599E+08
 
   -0.28598E+08         0.20134E+06         0.00000E+00
    0.20134E+06        -0.66802E+08         0.00000E+00
    0.00000E+00         0.00000E+00        -0.28620E+08
 
   -0.28620E+08         0.20928E+06         0.00000E+00
    0.20928E+06        -0.66851E+08         0.00000E+00
    0.00000E+00         0.00000E+00        -0.28641E+08
 
   -0.28641E+08         0.21703E+06         0.00000E+00
    0.21703E+06        -0.66899E+08         0.00000E+00
    0.00000E+00         0.00000E+00        -0.28662E+08
 
   -0.28663E+08         0.22461E+06         0.00000E+00
    0.22461E+06        -0.66949E+08         0.00000E+00
    0.00000E+00         0.00000E+00        -0.28683E+08
 
   -0.28684E+08         0.23204E+06         0.00000E+00
    0.23204E+06        -0.66999E+08         0.00000E+00
    0.00000E+00         0.00000E+00        -0.28705E+08
 
   -0.28707E+08         0.23934E+06         0.00000E+00
    0.23934E+06        -0.67049E+08         0.00000E+00
    0.00000E+00         0.00000E+00        -0.28727E+08
 
   -0.28729E+08         0.24654E+06         0.00000E+00
    0.24654E+06        -0.67101E+08         0.00000E+00
    0.00000E+00         0.00000E+00        -0.28749E+08
 
   -0.28751E+08         0.25365E+06         0.00000E+00
    0.25365E+06        -0.67153E+08         0.00000E+00
    0.00000E+00         0.00000E+00        -0.28771E+08
 
   -0.28774E+08         0.26069E+06         0.00000E+00
    0.26069E+06        -0.67206E+08         0.00000E+00
    0.00000E+00         0.00000E+00        -0.28794E+08
 
   -0.28797E+08         0.26767E+06         0.00000E+00
    0.26767E+06        -0.67259E+08         0.00000E+00
    0.00000E+00         0.00000E+00        -0.28817E+08
 
   -0.28821E+08         0.27463E+06         0.00000E+00
    0.27463E+06        -0.67314E+08         0.00000E+00
    0.00000E+00         0.00000E+00        -0.28840E+08
 
   -0.28845E+08         0.28156E+06         0.00000E+00
    0.28156E+06        -0.67370E+08         0.00000E+00
    0.00000E+00         0.00000E+00        -0.28864E+08
 
   -0.28869E+08         0.28848E+06         0.00000E+00
    0.28848E+06        -0.67427E+08         0.00000E+00
    0.00000E+00         0.00000E+00        -0.28889E+08
 
   -0.28894E+08         0.29540E+06         0.00000E+00
    0.29540E+06        -0.67484E+08         0.00000E+00
    0.00000E+00         0.00000E+00        -0.28913E+08
 
   -0.28919E+08         0.30234E+06         0.00000E+00
    0.30234E+06        -0.67543E+08         0.00000E+00
    0.00000E+00         0.00000E+00        -0.28939E+08
 
   -0.28944E+08         0.30930E+06         0.00000E+00
    0.30930E+06        -0.67604E+08         0.00000E+00
    0.00000E+00         0.00000E+00        -0.28964E+08
 
   -0.28971E+08         0.31629E+06         0.00000E+00
    0.31629E+06        -0.67665E+08         0.00000E+00
    0.00000E+00         0.00000E+00        -0.28991E+08
 
   -0.28997E+08         0.32331E+06         0.00000E+00
    0.32331E+06        -0.67728E+08         0.00000E+00
    0.00000E+00         0.00000E+00        -0.29017E+08
 
   -0.29024E+08         0.33037E+06         0.00000E+00
    0.33037E+06        -0.67792E+08         0.00000E+00
    0.00000E+00         0.00000E+00        -0.29045E+08
 
   -0.29052E+08         0.33747E+06         0.00000E+00
    0.33747E+06        -0.67857E+08         0.00000E+00
    0.00000E+00         0.00000E+00        -0.29073E+08
 
   -0.29081E+08         0.34462E+06         0.00000E+00
    0.34462E+06        -0.67924E+08         0.00000E+00
    0.00000E+00         0.00000E+00        -0.29101E+08
 
   -0.29109E+08         0.35182E+06         0.00000E+00
    0.35182E+06        -0.67992E+08         0.00000E+00
    0.00000E+00         0.00000E+00        -0.29130E+08
 
   -0.29139E+08         0.35906E+06         0.00000E+00
    0.35906E+06        -0.68061E+08         0.00000E+00
    0.00000E+00         0.00000E+00        -0.29160E+08
 
   -0.29169E+08         0.36634E+06         0.00000E+00
    0.36634E+06        -0.68132E+08         0.00000E+00
    0.00000E+00         0.00000E+00        -0.29191E+08
 
   -0.29200E+08         0.37367E+06         0.00000E+00
    0.37367E+06        -0.68205E+08         0.00000E+00
    0.00000E+00         0.00000E+00        -0.29222E+08
 
   -0.29232E+08         0.38105E+06         0.00000E+00
    0.38105E+06        -0.68279E+08         0.00000E+00
    0.00000E+00         0.00000E+00        -0.29253E+08
 
   -0.29264E+08         0.38845E+06         0.00000E+00
    0.38845E+06        -0.68355E+08         0.00000E+00
    0.00000E+00         0.00000E+00        -0.29286E+08
 
   -0.29297E+08         0.39589E+06         0.00000E+00
    0.39589E+06        -0.68433E+08         0.00000E+00
    0.00000E+00         0.00000E+00        -0.29319E+08
 
   -0.29331E+08         0.40336E+06         0.00000E+00
    0.40336E+06        -0.68512E+08         0.00000E+00
    0.00000E+00         0.00000E+00        -0.29353E+08
 
   -0.29366E+08         0.41085E+06         0.00000E+00
    0.41085E+06        -0.68593E+08         0.00000E+00
    0.00000E+00         0.00000E+00        -0.29388E+08
 
   -0.29401E+08         0.41835E+06         0.00000E+00
    0.41835E+06        -0.68676E+08         0.00000E+00
    0.00000E+00         0.00000E+00        -0.29423E+08
 
   -0.29437E+08         0.42585E+06         0.00000E+00
    0.42585E+06        -0.68760E+08         0.00000E+00
    0.00000E+00         0.00000E+00        -0.29459E+08
 
   -0.29474E+08         0.43335E+06         0.00000E+00
    0.43335E+06        -0.68847E+08         0.00000E+00
    0.00000E+00         0.00000E+00        -0.29496E+08
 
   -0.29512E+08         0.44083E+06         0.00000E+00
    0.44083E+06        -0.68935E+08         0.00000E+00
    0.00000E+00         0.00000E+00        -0.29534E+08
 
   -0.29551E+08         0.44828E+06         0.00000E+00
    0.44828E+06        -0.69025E+08         0.00000E+00
    0.00000E+00         0.00000E+00        -0.29573E+08
 
   -0.29590E+08         0.45569E+06         0.00000E+00
    0.45569E+06        -0.69117E+08         0.00000E+00
    0.00000E+00         0.00000E+00        -0.29612E+08
 
   -0.29631E+08         0.46304E+06         0.00000E+00
    0.46304E+06        -0.69211E+08         0.00000E+00
    0.00000E+00         0.00000E+00        -0.29653E+08
 
   -0.29672E+08         0.47032E+06         0.00000E+00
    0.47032E+06        -0.69307E+08         0.00000E+00
    0.00000E+00         0.00000E+00        -0.29694E+08
 
   -0.29715E+08         0.47751E+06         0.00000E+00
    0.47751E+06        -0.69405E+08         0.00000E+00
    0.00000E+00         0.00000E+00        -0.29736E+08
 
   -0.29758E+08         0.48459E+06         0.00000E+00
    0.48459E+06        -0.69505E+08         0.00000E+00
    0.00000E+00         0.00000E+00        -0.29779E+08
 
   -0.29802E+08         0.49155E+06         0.00000E+00
    0.49155E+06        -0.69607E+08         0.00000E+00
    0.00000E+00         0.00000E+00        -0.29823E+08
 
   -0.29847E+08         0.49835E+06         0.00000E+00
    0.49835E+06        -0.69711E+08         0.00000E+00
    0.00000E+00         0.00000E+00        -0.29868E+08
 
   -0.29894E+08         0.50499E+06         0.00000E+00
    0.50499E+06        -0.69817E+08         0.00000E+00
    0.00000E+00         0.00000E+00        -0.29913E+08
 
   -0.29941E+08         0.51142E+06         0.00000E+00
    0.51142E+06        -0.69926E+08         0.00000E+00
    0.00000E+00         0.00000E+00        -0.29960E+08
 
   -0.29989E+08         0.51763E+06         0.00000E+00
    0.51763E+06        -0.70036E+08         0.00000E+00
    0.00000E+00         0.00000E+00        -0.30008E+08
 
   -0.30038E+08         0.52358E+06         0.00000E+00
    0.52358E+06        -0.70149E+08         0.00000E+00
    0.00000E+00         0.00000E+00        -0.30056E+08
 
   -0.30089E+08         0.52925E+06         0.00000E+00
    0.52925E+06        -0.70263E+08         0.00000E+00
    0.00000E+00         0.00000E+00        -0.30106E+08
 
   -0.30140E+08         0.53460E+06         0.00000E+00
    0.53460E+06        -0.70380E+08         0.00000E+00
    0.00000E+00         0.00000E+00        -0.30156E+08
 
   -0.30192E+08         0.53960E+06         0.00000E+00
    0.53960E+06        -0.70499E+08         0.00000E+00
    0.00000E+00         0.00000E+00        -0.30207E+08
 
   -0.30246E+08         0.54420E+06         0.00000E+00
    0.54420E+06        -0.70620E+08         0.00000E+00
    0.00000E+00         0.00000E+00        -0.30260E+08
 
   -0.30301E+08         0.54836E+06         0.00000E+00
    0.54836E+06        -0.70744E+08         0.00000E+00
    0.00000E+00         0.00000E+00        -0.30313E+08
 
   -0.30356E+08         0.55203E+06         0.00000E+00
    0.55203E+06        -0.70869E+08         0.00000E+00
    0.00000E+00         0.00000E+00        -0.30368E+08
 
   -0.30413E+08         0.55518E+06         0.00000E+00
    0.55518E+06        -0.70997E+08         0.00000E+00
    0.00000E+00         0.00000E+00        -0.30423E+08
 
   -0.30471E+08         0.55773E+06         0.00000E+00
    0.55773E+06        -0.71127E+08         0.00000E+00
    0.00000E+00         0.00000E+00        -0.30480E+08
 
   -0.30531E+08         0.55965E+06         0.00000E+00
    0.55965E+06        -0.71260E+08         0.00000E+00
    0.00000E+00         0.00000E+00        -0.30537E+08
 
   -0.30591E+08         0.56086E+06         0.00000E+00
    0.56086E+06        -0.71394E+08         0.00000E+00
    0.00000E+00         0.00000E+00        -0.30596E+08
 
   -0.30653E+08         0.56130E+06         0.00000E+00
    0.56130E+06        -0.71531E+08         0.00000E+00
    0.00000E+00         0.00000E+00        -0.30655E+08
 
   -0.30716E+08         0.56090E+06         0.00000E+00
    0.56090E+06        -0.71670E+08         0.00000E+00
    0.00000E+00         0.00000E+00        -0.30716E+08
 
   -0.30780E+08         0.55960E+06         0.00000E+00
    0.55960E+06        -0.71811E+08         0.00000E+00
    0.00000E+00         0.00000E+00        -0.30777E+08
 
   -0.30845E+08         0.55730E+06         0.00000E+00
    0.55730E+06        -0.71955E+08         0.00000E+00
    0.00000E+00         0.00000E+00        -0.30840E+08
 
   -0.30912E+08         0.55394E+06         0.00000E+00
    0.55394E+06        -0.72100E+08         0.00000E+00
    0.00000E+00         0.00000E+00        -0.30904E+08
 
   -0.30980E+08         0.54943E+06         0.00000E+00
    0.54943E+06        -0.72248E+08         0.00000E+00
    0.00000E+00         0.00000E+00        -0.30968E+08
 
   -0.31049E+08         0.54368E+06         0.00000E+00
    0.54368E+06        -0.72399E+08         0.00000E+00
    0.00000E+00         0.00000E+00        -0.31034E+08
 
   -0.31120E+08         0.53662E+06         0.00000E+00
    0.53662E+06        -0.72551E+08         0.00000E+00
    0.00000E+00         0.00000E+00        -0.31101E+08
 
   -0.31192E+08         0.52815E+06         0.00000E+00
    0.52815E+06        -0.72706E+08         0.00000E+00
    0.00000E+00         0.00000E+00        -0.31169E+08
 
   -0.31265E+08         0.51819E+06         0.00000E+00
    0.51819E+06        -0.72864E+08         0.00000E+00
    0.00000E+00         0.00000E+00        -0.31239E+08
 
   -0.31339E+08         0.50668E+06         0.00000E+00
    0.50668E+06        -0.73023E+08         0.00000E+00
    0.00000E+00         0.00000E+00        -0.31309E+08
 
   -0.31415E+08         0.49353E+06         0.00000E+00
    0.49353E+06        -0.73185E+08         0.00000E+00
    0.00000E+00         0.00000E+00        -0.31380E+08
 
   -0.31491E+08         0.47870E+06         0.00000E+00
    0.47870E+06        -0.73349E+08         0.00000E+00
    0.00000E+00         0.00000E+00        -0.31452E+08
 
   -0.31569E+08         0.46213E+06         0.00000E+00
    0.46213E+06        -0.73515E+08         0.00000E+00
    0.00000E+00         0.00000E+00        -0.31525E+08
 
   -0.31647E+08         0.44379E+06         0.00000E+00
    0.44379E+06        -0.73682E+08         0.00000E+00
    0.00000E+00         0.00000E+00        -0.31599E+08
 
   -0.31726E+08         0.42364E+06         0.00000E+00
    0.42364E+06        -0.73851E+08         0.00000E+00
    0.00000E+00         0.00000E+00        -0.31673E+08
 
   -0.31806E+08         0.40167E+06         0.00000E+00
    0.40167E+06        -0.74020E+08         0.00000E+00
    0.00000E+00         0.00000E+00        -0.31748E+08
 
   -0.31886E+08         0.37783E+06         0.00000E+00
    0.37783E+06        -0.74189E+08         0.00000E+00
    0.00000E+00         0.00000E+00        -0.31823E+08
 
   -0.31966E+08         0.35208E+06         0.00000E+00
    0.35208E+06        -0.74358E+08         0.00000E+00
    0.00000E+00         0.00000E+00        -0.31897E+08
 
   -0.32046E+08         0.32427E+06         0.00000E+00
    0.32427E+06        -0.74524E+08         0.00000E+00
    0.00000E+00         0.00000E+00        -0.31971E+08
 
   -0.32126E+08         0.29419E+06         0.00000E+00
    0.29419E+06        -0.74685E+08         0.00000E+00
    0.00000E+00         0.00000E+00        -0.32043E+08
 
   -0.32207E+08         0.26138E+06         0.00000E+00
    0.26138E+06        -0.74841E+08         0.00000E+00
    0.00000E+00         0.00000E+00        -0.32114E+08
 
   -0.32289E+08         0.22512E+06         0.00000E+00
    0.22512E+06        -0.74988E+08         0.00000E+00
    0.00000E+00         0.00000E+00        -0.32183E+08
 
   -0.32374E+08         0.18428E+06         0.00000E+00
    0.18428E+06        -0.75123E+08         0.00000E+00
    0.00000E+00         0.00000E+00        -0.32249E+08
 
   -0.32466E+08         0.13729E+06         0.00000E+00
    0.13729E+06        -0.75242E+08         0.00000E+00
    0.00000E+00         0.00000E+00        -0.32312E+08
 
   -0.32573E+08         0.84036E+05         0.00000E+00
    0.84036E+05        -0.75341E+08         0.00000E+00
    0.00000E+00         0.00000E+00        -0.32374E+08
 
   -0.32704E+08         0.28012E+05         0.00000E+00
    0.28012E+05        -0.75422E+08         0.00000E+00
    0.00000E+00         0.00000E+00        -0.32438E+08
 
   -0.28216E+08         0.79157E+04         0.00000E+00
    0.79157E+04        -0.66119E+08         0.00000E+00
    0.00000E+00         0.00000E+00        -0.28301E+08
 
   -0.28250E+08         0.23875E+05         0.00000E+00
    0.23875E+05        -0.66139E+08         0.00000E+00
    0.00000E+00         0.00000E+00        -0.28317E+08
 
   -0.28278E+08         0.39565E+05         0.00000E+00
    0.39565E+05        -0.66164E+08         0.00000E+00
    0.00000E+00         0.00000E+00        -0.28332E+08
 
   -0.28302E+08         0.54195E+05         0.00000E+00
    0.54195E+05        -0.66194E+08         0.00000E+00
    0.00000E+00         0.00000E+00        -0.28349E+08
 
   -0.28324E+08         0.67621E+05         0.00000E+00
    0.67621E+05        -0.66228E+08         0.00000E+00
    0.00000E+00         0.00000E+00        -0.28365E+08
 
   -0.28344E+08         0.80107E+05         0.00000E+00
    0.80107E+05        -0.66265E+08         0.00000E+00
    0.00000E+00         0.00000E+00        -0.28383E+08
 
   -0.28365E+08         0.91894E+05         0.00000E+00
    0.91894E+05        -0.66304E+08         0.00000E+00
    0.00000E+00         0.00000E+00        -0.28401E+08
 
   -0.28385E+08         0.10314E+06         0.00000E+00
    0.10314E+06        -0.66346E+08         0.00000E+00
    0.00000E+00         0.00000E+00        -0.28419E+08
 
   -0.28406E+08         0.11394E+06         0.00000E+00
    0.11394E+06        -0.66389E+08         0.00000E+00
    0.00000E+00         0.00000E+00        -0.28438E+08
 
   -0.28426E+08         0.12435E+06         0.00000E+00
    0.12435E+06        -0.66433E+08         0.00000E+00
    0.00000E+00         0.00000E+00        -0.28458E+08
 
   -0.28447E+08         0.13442E+06         0.00000E+00
    0.13442E+06        -0.66478E+08         0.00000E+00
    0.00000E+00         0.00000E+00        -0.28477E+08
 
   -0.28468E+08         0.14415E+06         0.00000E+00
    0.14415E+06        -0.66523E+08         0.00000E+00
    0.00000E+00         0.00000E+00        -0.28497E+08
 
   -0.28488E+08         0.15356E+06         0.00000E+00
    0.15356E+06        -0.66569E+08         0.00000E+00
    0.00000E+00         0.00000E+00        -0.28517E+08
 
   -0.28509E+08         0.16267E+06         0.00000E+00
    0.16267E+06        -0.66615E+08         0.00000E+00
    0.00000E+00         0.00000E+00        -0.28537E+08
 
   -0.28530E+08         0.17148E+06         0.00000E+00
    0.17148E+06        -0.66662E+08         0.00000E+00
    0.00000E+00         0.00000E+00        -0.28558E+08
 
   -0.28552E+08         0.18003E+06         0.00000E+00
    0.18003E+06        -0.66709E+08         0.00000E+00
    0.00000E+00         0.00000E+00        -0.28578E+08
 
   -0.28573E+08         0.18831E+06         0.00000E+00
    0.18831E+06        -0.66756E+08         0.00000E+00
    0.00000E+00         0.00000E+00        -0.28599E+08
 
   -0.28594E+08         0.19636E+06         0.00000E+00
    0.19636E+06        -0.66804E+08         0.00000E+00
    0.00000E+00         0.00000E+00        -0.28619E+08
 
   -0.28616E+08         0.20418E+06         0.00000E+00
    0.20418E+06        -0.66852E+08         0.00000E+00
    0.00000E+00         0.00000E+00        -0.28640E+08
 
   -0.28637E+08         0.21181E+06         0.00000E+00
    0.21181E+06        -0.66901E+08         0.00000E+00
    0.00000E+00         0.00000E+00        -0.28661E+08
 
   -0.28659E+08         0.21927E+06         0.00000E+00
    0.21927E+06        -0.66950E+08         0.00000E+00
    0.00000E+00         0.00000E+00        -0.28683E+08
 
   -0.28681E+08         0.22658E+06         0.00000E+00
    0.22658E+06        -0.67000E+08         0.00000E+00
    0.00000E+00         0.00000E+00        -0.28704E+08
 
   -0.28703E+08         0.23375E+06         0.00000E+00
    0.23375E+06        -0.67051E+08         0.00000E+00
    0.00000E+00         0.00000E+00        -0.28726E+08
 
   -0.28725E+08         0.24082E+06         0.00000E+00
    0.24082E+06        -0.67102E+08         0.00000E+00
    0.00000E+00         0.00000E+00        -0.28748E+08
 
   -0.28748E+08         0.24780E+06         0.00000E+00
    0.24780E+06        -0.67154E+08         0.00000E+00
    0.00000E+00         0.00000E+00        -0.28771E+08
 
   -0.28771E+08         0.25470E+06         0.00000E+00
    0.25470E+06        -0.67207E+08         0.00000E+00
    0.00000E+00         0.00000E+00        -0.28793E+08
 
   -0.28794E+08         0.26155E+06         0.00000E+00
    0.26155E+06        -0.67261E+08         0.00000E+00
    0.00000E+00         0.00000E+00        -0.28816E+08
 
   -0.28817E+08         0.26837E+06         0.00000E+00
    0.26837E+06        -0.67316E+08         0.00000E+00
    0.00000E+00         0.00000E+00        -0.28840E+08
 
   -0.28841E+08         0.27516E+06         0.00000E+00
    0.27516E+06        -0.67371E+08         0.00000E+00
    0.00000E+00         0.00000E+00        -0.28864E+08
 
   -0.28865E+08         0.28194E+06         0.00000E+00
    0.28194E+06        -0.67428E+08         0.00000E+00
    0.00000E+00         0.00000E+00        -0.28888E+08
 
   -0.28890E+08         0.28872E+06         0.00000E+00
    0.28872E+06        -0.67486E+08         0.00000E+00
    0.00000E+00         0.00000E+00        -0.28913E+08
 
   -0.28915E+08         0.29551E+06         0.00000E+00
    0.29551E+06        -0.67545E+08         0.00000E+00
    0.00000E+00         0.00000E+00        -0.28938E+08
 
   -0.28941E+08         0.30232E+06         0.00000E+00
    0.30232E+06        -0.67605E+08         0.00000E+00
    0.00000E+00         0.00000E+00        -0.28964E+08
 
   -0.28967E+08         0.30915E+06         0.00000E+00
    0.30915E+06        -0.67666E+08         0.00000E+00
    0.00000E+00         0.00000E+00        -0.28990E+08
 
   -0.28994E+08         0.31602E+06         0.00000E+00
    0.31602E+06        -0.67729E+08         0.00000E+00
    0.00000E+00         0.00000E+00        -0.29017E+08
 
   -0.29021E+08         0.32292E+06         0.00000E+00
    0.32292E+06        -0.67793E+08         0.00000E+00
    0.00000E+00         0.00000E+00        -0.29044E+08
 
   -0.29048E+08         0.32986E+06         0.00000E+00
    0.32986E+06        -0.67858E+08         0.00000E+00
    0.00000E+00         0.00000E+00        -0.29072E+08
 
   -0.29077E+08         0.33684E+06         0.00000E+00
    0.33684E+06        -0.67925E+08         0.00000E+00
    0.00000E+00         0.00000E+00        -0.29101E+08
 
   -0.29106E+08         0.34387E+06         0.00000E+00
    0.34387E+06        -0.67993E+08         0.00000E+00
    0.00000E+00         0.00000E+00        -0.29130E+08
 
   -0.29135E+08         0.35094E+06         0.00000E+00
    0.35094E+06        -0.68063E+08         0.00000E+00
    0.00000E+00         0.00000E+00        -0.29159E+08
 
   -0.29165E+08         0.35806E+06         0.00000E+00
    0.35806E+06        -0.68134E+08         0.00000E+00
    0.00000E+00         0.00000E+00        -0.29190E+08
 
   -0.29196E+08         0.36521E+06         0.00000E+00
    0.36521E+06        -0.68207E+08         0.00000E+00
    0.00000E+00         0.00000E+00        -0.29221E+08
 
   -0.29228E+08         0.37241E+06         0.00000E+00
    0.37241E+06        -0.68281E+08         0.00000E+00
    0.00000E+00         0.00000E+00        -0.29253E+08
 
   -0.29260E+08         0.37964E+06         0.00000E+00
    0.37964E+06        -0.68357E+08         0.00000E+00
    0.00000E+00         0.00000E+00        -0.29285E+08
 
   -0.29293E+08         0.38690E+06         0.00000E+00
    0.38690E+06        -0.68434E+08         0.00000E+00
    0.00000E+00         0.00000E+00        -0.29318E+08
 
   -0.29327E+08         0.39418E+06         0.00000E+00
    0.39418E+06        -0.68514E+08         0.00000E+00
    0.00000E+00         0.00000E+00        -0.29352E+08
 
   -0.29362E+08         0.40148E+06         0.00000E+00
    0.40148E+06        -0.68595E+08         0.00000E+00
    0.00000E+00         0.00000E+00        -0.29387E+08
 
   -0.29397E+08         0.40879E+06         0.00000E+00
    0.40879E+06        -0.68677E+08         0.00000E+00
    0.00000E+00         0.00000E+00        -0.29422E+08
 
   -0.29433E+08         0.41611E+06         0.00000E+00
    0.41611E+06        -0.68762E+08         0.00000E+00
    0.00000E+00         0.00000E+00        -0.29459E+08
 
   -0.29470E+08         0.42341E+06         0.00000E+00
    0.42341E+06        -0.68848E+08         0.00000E+00
    0.00000E+00         0.00000E+00        -0.29496E+08
 
   -0.29508E+08         0.43070E+06         0.00000E+00
    0.43070E+06        -0.68936E+08         0.00000E+00
    0.00000E+00         0.00000E+00        -0.29533E+08
 
   -0.29547E+08         0.43796E+06         0.00000E+00
    0.43796E+06        -0.69027E+08         0.00000E+00
    0.00000E+00         0.00000E+00        -0.29572E+08
 
   -0.29586E+08         0.44517E+06         0.00000E+00
    0.44517E+06        -0.69119E+08         0.00000E+00
    0.00000E+00         0.00000E+00        -0.29612E+08
 
   -0.29627E+08         0.45233E+06         0.00000E+00
    0.45233E+06        -0.69213E+08         0.00000E+00
    0.00000E+00         0.00000E+00        -0.29652E+08
 
   -0.29668E+08         0.45941E+06         0.00000E+00
    0.45941E+06        -0.69309E+08         0.00000E+00
    0.00000E+00         0.00000E+00        -0.29693E+08
 
   -0.29711E+08         0.46640E+06         0.00000E+00
    0.46640E+06        -0.69407E+08         0.00000E+00
    0.00000E+00         0.00000E+00        -0.29735E+08
 
   -0.29754E+08         0.47329E+06         0.00000E+00
    0.47329E+06        -0.69506E+08         0.00000E+00
    0.00000E+00         0.00000E+00        -0.29778E+08
 
   -0.29798E+08         0.48004E+06         0.00000E+00
    0.48004E+06        -0.69608E+08         0.00000E+00
    0.00000E+00         0.00000E+00        -0.29822E+08
 
   -0.29844E+08         0.48665E+06         0.00000E+00
    0.48665E+06        -0.69713E+08         0.00000E+00
    0.00000E+00         0.00000E+00        -0.29867E+08
 
   -0.29890E+08         0.49309E+06         0.00000E+00
    0.49309E+06        -0.69819E+08         0.00000E+00
    0.00000E+00         0.00000E+00        -0.29913E+08
 
   -0.29937E+08         0.49933E+06         0.00000E+00
    0.49933E+06        -0.69927E+08         0.00000E+00
    0.00000E+00         0.00000E+00        -0.29959E+08
 
   -0.29986E+08         0.50535E+06         0.00000E+00
    0.50535E+06        -0.70037E+08         0.00000E+00
    0.00000E+00         0.00000E+00        -0.30007E+08
 
   -0.30035E+08         0.51112E+06         0.00000E+00
    0.51112E+06        -0.70150E+08         0.00000E+00
    0.00000E+00         0.00000E+00        -0.30055E+08
 
   -0.30085E+08         0.51660E+06         0.00000E+00
    0.51660E+06        -0.70264E+08         0.00000E+00
    0.00000E+00         0.00000E+00        -0.30105E+08
 
   -0.30137E+08         0.52177E+06         0.00000E+00
    0.52177E+06        -0.70381E+08         0.00000E+00
    0.00000E+00         0.00000E+00        -0.30155E+08
 
   -0.30190E+08         0.52658E+06         0.00000E+00
    0.52658E+06        -0.70500E+08         0.00000E+00
    0.00000E+00         0.00000E+00        -0.30207E+08
 
   -0.30243E+08         0.53101E+06         0.00000E+00
    0.53101E+06        -0.70621E+08         0.00000E+00
    0.00000E+00         0.00000E+00        -0.30259E+08
 
   -0.30298E+08         0.53500E+06         0.00000E+00
    0.53500E+06        -0.70745E+08         0.00000E+00
    0.00000E+00         0.00000E+00        -0.30313E+08
 
   -0.30354E+08         0.53851E+06         0.00000E+00
    0.53851E+06        -0.70870E+08         0.00000E+00
    0.00000E+00         0.00000E+00        -0.30367E+08
 
   -0.30411E+08         0.54150E+06         0.00000E+00
    0.54150E+06        -0.70998E+08         0.00000E+00
    0.00000E+00         0.00000E+00        -0.30423E+08
 
   -0.30470E+08         0.54390E+06         0.00000E+00
    0.54390E+06        -0.71128E+08         0.00000E+00
    0.00000E+00         0.00000E+00        -0.30479E+08
 
   -0.30529E+08         0.54568E+06         0.00000E+00
    0.54568E+06        -0.71260E+08         0.00000E+00
    0.00000E+00         0.00000E+00        -0.30537E+08
 
   -0.30590E+08         0.54676E+06         0.00000E+00
    0.54676E+06        -0.71394E+08         0.00000E+00
    0.00000E+00         0.00000E+00        -0.30595E+08
 
   -0.30652E+08         0.54707E+06         0.00000E+00
    0.54707E+06        -0.71531E+08         0.00000E+00
    0.00000E+00         0.00000E+00        -0.30655E+08
 
   -0.30716E+08         0.54656E+06         0.00000E+00
    0.54656E+06        -0.71670E+08         0.00000E+00
    0.00000E+00         0.00000E+00        -0.30716E+08
 
   -0.30780E+08         0.54515E+06         0.00000E+00
    0.54515E+06        -0.71811E+08         0.00000E+00
    0.00000E+00         0.00000E+00        -0.30777E+08
 
   -0.30846E+08         0.54277E+06         0.00000E+00
    0.54277E+06        -0.71954E+08         0.00000E+00
    0.00000E+00         0.00000E+00        -0.30840E+08
 
   -0.30913E+08         0.53933E+06         0.00000E+00
    0.53933E+06        -0.72100E+08         0.00000E+00
    0.00000E+00         0.00000E+00        -0.30904E+08
 
   -0.30982E+08         0.53474E+06         0.00000E+00
    0.53474E+06        -0.72247E+08         0.00000E+00
    0.00000E+00         0.00000E+00        -0.30969E+08
 
   -0.31052E+08         0.52893E+06         0.00000E+00
    0.52893E+06        -0.72397E+08         0.00000E+00
    0.00000E+00         0.00000E+00        -0.31035E+08
 
   -0.31123E+08         0.52182E+06         0.00000E+00
    0.52182E+06        -0.72550E+08         0.00000E+00
    0.00000E+00         0.00000E+00        -0.31102E+08
 
   -0.31196E+08         0.51330E+06         0.00000E+00
    0.51330E+06        -0.72705E+08         0.00000E+00
    0.00000E+00         0.00000E+00        -0.31170E+08
 
   -0.31270E+08         0.50331E+06         0.00000E+00
    0.50331E+06        -0.72862E+08         0.00000E+00
    0.00000E+00         0.00000E+00        -0.31239E+08
 
   -0.31345E+08         0.49176E+06         0.00000E+00
    0.49176E+06        -0.73021E+08         0.00000E+00
    0.00000E+00         0.00000E+00        -0.31310E+08
 
   -0.31421E+08         0.47857E+06         0.00000E+00
    0.47857E+06        -0.73182E+08         0.00000E+00
    0.00000E+00         0.00000E+00        -0.31381E+08
 
   -0.31499E+08         0.46370E+06         0.00000E+00
    0.46370E+06        -0.73346E+08         0.00000E+00
    0.00000E+00         0.00000E+00        -0.31453E+08
 
   -0.31577E+08         0.44707E+06         0.00000E+00
    0.44707E+06        -0.73511E+08         0.00000E+00
    0.00000E+00         0.00000E+00        -0.31526E+08
 
   -0.31656E+08         0.42866E+06         0.00000E+00
    0.42866E+06        -0.73678E+08         0.00000E+00
    0.00000E+00         0.00000E+00        -0.31600E+08
 
   -0.31737E+08         0.40842E+06         0.00000E+00
    0.40842E+06        -0.73847E+08         0.00000E+00
    0.00000E+00         0.00000E+00        -0.31675E+08
 
   -0.31817E+08         0.38633E+06         0.00000E+00
    0.38633E+06        -0.74015E+08         0.00000E+00
    0.00000E+00         0.00000E+00        -0.31750E+08
 
   -0.31898E+08         0.36237E+06         0.00000E+00
    0.36237E+06        -0.74184E+08         0.00000E+00
    0.00000E+00         0.00000E+00        -0.31825E+08
 
   -0.31979E+08         0.33648E+06         0.00000E+00
    0.33648E+06        -0.74352E+08         0.00000E+00
    0.00000E+00         0.00000E+00        -0.31900E+08
 
   -0.32061E+08         0.30856E+06         0.00000E+00
    0.30856E+06        -0.74518E+08         0.00000E+00
    0.00000E+00         0.00000E+00        -0.31974E+08
 
   -0.32143E+08         0.27843E+06         0.00000E+00
    0.27843E+06        -0.74679E+08         0.00000E+00
    0.00000E+00         0.00000E+00        -0.32047E+08
 
   -0.32226E+08         0.24573E+06         0.00000E+00
    0.24573E+06        -0.74834E+08         0.00000E+00
    0.00000E+00         0.00000E+00        -0.32118E+08
 
   -0.32310E+08         0.20987E+06         0.00000E+00
    0.20987E+06        -0.74980E+08         0.00000E+00
    0.00000E+00         0.00000E+00        -0.32187E+08
 
   -0.32399E+08         0.16996E+06         0.00000E+00
    0.16996E+06        -0.75114E+08         0.00000E+00
    0.00000E+00         0.00000E+00        -0.32254E+08
 
   -0.32496E+08         0.12499E+06         0.00000E+00
    0.12499E+06        -0.75232E+08         0.00000E+00
    0.00000E+00         0.00000E+00        -0.32318E+08
 
   -0.32607E+08         0.75605E+05         0.00000E+00
    0.75605E+05        -0.75331E+08         0.00000E+00
    0.00000E+00         0.00000E+00        -0.32381E+08
 
   -0.32742E+08         0.25040E+05         0.00000E+00
    0.25040E+05        -0.75412E+08         0.00000E+00
    0.00000E+00         0.00000E+00        -0.32446E+08
 
   -0.28206E+08         0.72426E+04         0.00000E+00
    0.72426E+04        -0.66122E+08         0.00000E+00
    0.00000E+00         0.00000E+00        -0.28298E+08
 
   -0.28240E+08         0.21932E+05         0.00000E+00
    0.21932E+05        -0.66142E+08         0.00000E+00
    0.00000E+00         0.00000E+00        -0.28315E+08
 
   -0.28269E+08         0.36639E+05         0.00000E+00
    0.36639E+05        -0.66167E+08         0.00000E+00
    0.00000E+00         0.00000E+00        -0.28331E+08
 
   -0.28294E+08         0.50676E+05         0.00000E+00
    0.50676E+05        -0.66197E+08         0.00000E+00
    0.00000E+00         0.00000E+00        -0.28347E+08
 
   -0.28316E+08         0.63779E+05         0.00000E+00
    0.63779E+05        -0.66230E+08         0.00000E+00
    0.00000E+00         0.00000E+00        -0.28364E+08
 
   -0.28338E+08         0.76084E+05         0.00000E+00
    0.76084E+05        -0.66267E+08         0.00000E+00
    0.00000E+00         0.00000E+00        -0.28382E+08
 
   -0.28359E+08         0.87765E+05         0.00000E+00
    0.87765E+05        -0.66307E+08         0.00000E+00
    0.00000E+00         0.00000E+00        -0.28400E+08
 
   -0.28380E+08         0.98943E+05         0.00000E+00
    0.98943E+05        -0.66348E+08         0.00000E+00
    0.00000E+00         0.00000E+00        -0.28418E+08
 
   -0.28400E+08         0.10969E+06         0.00000E+00
    0.10969E+06        -0.66391E+08         0.00000E+00
    0.00000E+00         0.00000E+00        -0.28437E+08
 
   -0.28421E+08         0.12006E+06         0.00000E+00
    0.12006E+06        -0.66435E+08         0.00000E+00
    0.00000E+00         0.00000E+00        -0.28457E+08
 
   -0.28442E+08         0.13007E+06         0.00000E+00
    0.13007E+06        -0.66480E+08         0.00000E+00
    0.00000E+00         0.00000E+00        -0.28477E+08
 
   -0.28463E+08         0.13974E+06         0.00000E+00
    0.13974E+06        -0.66525E+08         0.00000E+00
    0.00000E+00         0.00000E+00        -0.28496E+08
 
   -0.28484E+08         0.14908E+06         0.00000E+00
    0.14908E+06        -0.66571E+08         0.00000E+00
    0.00000E+00         0.00000E+00        -0.28516E+08
 
   -0.28505E+08         0.15811E+06         0.00000E+00
    0.15811E+06        -0.66617E+08         0.00000E+00
    0.00000E+00         0.00000E+00        -0.28537E+08
 
   -0.28526E+08         0.16684E+06         0.00000E+00
    0.16684E+06        -0.66664E+08         0.00000E+00
    0.00000E+00         0.00000E+00        -0.28557E+08
 
   -0.28547E+08         0.17528E+06         0.00000E+00
    0.17528E+06        -0.66711E+08         0.00000E+00
    0.00000E+00         0.00000E+00        -0.28577E+08
 
   -0.28569E+08         0.18346E+06         0.00000E+00
    0.18346E+06        -0.66758E+08         0.00000E+00
    0.00000E+00         0.00000E+00        -0.28598E+08
 
   -0.28590E+08         0.19139E+06         0.00000E+00
    0.19139E+06        -0.66806E+08         0.00000E+00
    0.00000E+00         0.00000E+00        -0.28619E+08
 
   -0.28612E+08         0.19910E+06         0.00000E+00
    0.19910E+06        -0.66854E+08         0.00000E+00
    0.00000E+00         0.00000E+00        -0.28640E+08
 
   -0.28633E+08         0.20661E+06         0.00000E+00
    0.20661E+06        -0.66902E+08         0.00000E+00
    0.00000E+00         0.00000E+00        -0.28661E+08
 
   -0.28655E+08         0.21395E+06         0.00000E+00
    0.21395E+06        -0.66952E+08         0.00000E+00
    0.00000E+00         0.00000E+00        -0.28682E+08
 
   -0.28677E+08         0.22112E+06         0.00000E+00
    0.22112E+06        -0.67002E+08         0.00000E+00
    0.00000E+00         0.00000E+00        -0.28704E+08
 
   -0.28699E+08         0.22817E+06         0.00000E+00
    0.22817E+06        -0.67052E+08         0.00000E+00
    0.00000E+00         0.00000E+00        -0.28725E+08
 
   -0.28722E+08         0.23511E+06         0.00000E+00
    0.23511E+06        -0.67103E+08         0.00000E+00
    0.00000E+00         0.00000E+00        -0.28748E+08
 
   -0.28744E+08         0.24195E+06         0.00000E+00
    0.24195E+06        -0.67155E+08         0.00000E+00
    0.00000E+00         0.00000E+00        -0.28770E+08
 
   -0.28767E+08         0.24872E+06         0.00000E+00
    0.24872E+06        -0.67208E+08         0.00000E+00
    0.00000E+00         0.00000E+00        -0.28793E+08
 
   -0.28790E+08         0.25543E+06         0.00000E+00
    0.25543E+06        -0.67262E+08         0.00000E+00
    0.00000E+00         0.00000E+00        -0.28816E+08
 
   -0.28814E+08         0.26211E+06         0.00000E+00
    0.26211E+06        -0.67317E+08         0.00000E+00
    0.00000E+00         0.00000E+00        -0.28839E+08
 
   -0.28838E+08         0.26876E+06         0.00000E+00
    0.26876E+06        -0.67373E+08         0.00000E+00
    0.00000E+00         0.00000E+00        -0.28863E+08
 
   -0.28862E+08         0.27539E+06         0.00000E+00
    0.27539E+06        -0.67429E+08         0.00000E+00
    0.00000E+00         0.00000E+00        -0.28887E+08
 
   -0.28887E+08         0.28203E+06         0.00000E+00
    0.28203E+06        -0.67487E+08         0.00000E+00
    0.00000E+00         0.00000E+00        -0.28912E+08
 
   -0.28912E+08         0.28867E+06         0.00000E+00
    0.28867E+06        -0.67546E+08         0.00000E+00
    0.00000E+00         0.00000E+00        -0.28937E+08
 
   -0.28937E+08         0.29533E+06         0.00000E+00
    0.29533E+06        -0.67606E+08         0.00000E+00
    0.00000E+00         0.00000E+00        -0.28963E+08
 
   -0.28963E+08         0.30201E+06         0.00000E+00
    0.30201E+06        -0.67668E+08         0.00000E+00
    0.00000E+00         0.00000E+00        -0.28989E+08
 
   -0.28990E+08         0.30872E+06         0.00000E+00
    0.30872E+06        -0.67730E+08         0.00000E+00
    0.00000E+00         0.00000E+00        -0.29016E+08
 
   -0.29017E+08         0.31546E+06         0.00000E+00
    0.31546E+06        -0.67794E+08         0.00000E+00
    0.00000E+00         0.00000E+00        -0.29043E+08
 
   -0.29045E+08         0.32224E+06         0.00000E+00
    0.32224E+06        -0.67860E+08         0.00000E+00
    0.00000E+00         0.00000E+00        -0.29071E+08
 
   -0.29073E+08         0.32906E+06         0.00000E+00
    0.32906E+06        -0.67926E+08         0.00000E+00
    0.00000E+00         0.00000E+00        -0.29100E+08
 
   -0.29102E+08         0.33592E+06         0.00000E+00
    0.33592E+06        -0.67995E+08         0.00000E+00
    0.00000E+00         0.00000E+00        -0.29129E+08
 
   -0.29131E+08         0.34283E+06         0.00000E+00
    0.34283E+06        -0.68064E+08         0.00000E+00
    0.00000E+00         0.00000E+00        -0.29159E+08
 
   -0.29162E+08         0.34977E+06         0.00000E+00
    0.34977E+06        -0.68135E+08         0.00000E+00
    0.00000E+00         0.00000E+00        -0.29189E+08
 
   -0.29192E+08         0.35675E+06         0.00000E+00
    0.35675E+06        -0.68208E+08         0.00000E+00
    0.00000E+00         0.00000E+00        -0.29220E+08
 
   -0.29224E+08         0.36377E+06         0.00000E+00
    0.36377E+06        -0.68282E+08         0.00000E+00
    0.00000E+00         0.00000E+00        -0.29252E+08
 
   -0.29256E+08         0.37082E+06         0.00000E+00
    0.37082E+06        -0.68358E+08         0.00000E+00
    0.00000E+00         0.00000E+00        -0.29284E+08
 
   -0.29289E+08         0.37790E+06         0.00000E+00
    0.37790E+06        -0.68436E+08         0.00000E+00
    0.00000E+00         0.00000E+00        -0.29318E+08
 
   -0.29323E+08         0.38500E+06         0.00000E+00
    0.38500E+06        -0.68515E+08         0.00000E+00
    0.00000E+00         0.00000E+00        -0.29351E+08
 
   -0.29358E+08         0.39211E+06         0.00000E+00
    0.39211E+06        -0.68596E+08         0.00000E+00
    0.00000E+00         0.00000E+00        -0.29386E+08
 
   -0.29393E+08         0.39924E+06         0.00000E+00
    0.39924E+06        -0.68679E+08         0.00000E+00
    0.00000E+00         0.00000E+00        -0.29422E+08
 
   -0.29429E+08         0.40636E+06         0.00000E+00
    0.40636E+06        -0.68763E+08         0.00000E+00
    0.00000E+00         0.00000E+00        -0.29458E+08
 
   -0.29466E+08         0.41348E+06         0.00000E+00
    0.41348E+06        -0.68850E+08         0.00000E+00
    0.00000E+00         0.00000E+00        -0.29495E+08
 
   -0.29504E+08         0.42057E+06         0.00000E+00
    0.42057E+06        -0.68938E+08         0.00000E+00
    0.00000E+00         0.00000E+00        -0.29533E+08
 
   -0.29543E+08         0.42763E+06         0.00000E+00
    0.42763E+06        -0.69028E+08         0.00000E+00
    0.00000E+00         0.00000E+00        -0.29571E+08
 
   -0.29583E+08         0.43465E+06         0.00000E+00
    0.43465E+06        -0.69120E+08         0.00000E+00
    0.00000E+00         0.00000E+00        -0.29611E+08
 
   -0.29623E+08         0.44161E+06         0.00000E+00
    0.44161E+06        -0.69214E+08         0.00000E+00
    0.00000E+00         0.00000E+00        -0.29651E+08
 
   -0.29665E+08         0.44850E+06         0.00000E+00
    0.44850E+06        -0.69310E+08         0.00000E+00
    0.00000E+00         0.00000E+00        -0.29692E+08
 
   -0.29707E+08         0.45530E+06         0.00000E+00
    0.45530E+06        -0.69408E+08         0.00000E+00
    0.00000E+00         0.00000E+00        -0.29734E+08
 
   -0.29750E+08         0.46199E+06         0.00000E+00
    0.46199E+06        -0.69508E+08         0.00000E+00
    0.00000E+00         0.00000E+00        -0.29777E+08
 
   -0.29795E+08         0.46855E+06         0.00000E+00
    0.46855E+06        -0.69610E+08         0.00000E+00
    0.00000E+00         0.00000E+00        -0.29821E+08
 
   -0.29840E+08         0.47497E+06         0.00000E+00
    0.47497E+06        -0.69714E+08         0.00000E+00
    0.00000E+00         0.00000E+00        -0.29866E+08
 
   -0.29886E+08         0.48121E+06         0.00000E+00
    0.48121E+06        -0.69820E+08         0.00000E+00
    0.00000E+00         0.00000E+00        -0.29912E+08
 
   -0.29934E+08         0.48726E+06         0.00000E+00
    0.48726E+06        -0.69928E+08         0.00000E+00
    0.00000E+00         0.00000E+00        -0.29959E+08
 
   -0.29982E+08         0.49309E+06         0.00000E+00
    0.49309E+06        -0.70038E+08         0.00000E+00
    0.00000E+00         0.00000E+00        -0.30006E+08
 
   -0.30032E+08         0.49867E+06         0.00000E+00
    0.49867E+06        -0.70151E+08         0.00000E+00
    0.00000E+00         0.00000E+00        -0.30055E+08
 
   -0.30082E+08         0.50397E+06         0.00000E+00
    0.50397E+06        -0.70265E+08         0.00000E+00
    0.00000E+00         0.00000E+00        -0.30104E+08
 
   -0.30134E+08         0.50896E+06         0.00000E+00
    0.50896E+06        -0.70382E+08         0.00000E+00
    0.00000E+00         0.00000E+00        -0.30155E+08
 
   -0.30187E+08         0.51360E+06         0.00000E+00
    0.51360E+06        -0.70501E+08         0.00000E+00
    0.00000E+00         0.00000E+00        -0.30206E+08
 
   -0.30241E+08         0.51786E+06         0.00000E+00
    0.51786E+06        -0.70622E+08         0.00000E+00
    0.00000E+00         0.00000E+00        -0.30259E+08
 
   -0.30296E+08         0.52168E+06         0.00000E+00
    0.52168E+06        -0.70745E+08         0.00000E+00
    0.00000E+00         0.00000E+00        -0.30312E+08
 
   -0.30352E+08         0.52504E+06         0.00000E+00
    0.52504E+06        -0.70871E+08         0.00000E+00
    0.00000E+00         0.00000E+00        -0.30367E+08
 
   -0.30410E+08         0.52787E+06         0.00000E+00
    0.52787E+06        -0.70998E+08         0.00000E+00
    0.00000E+00         0.00000E+00        -0.30422E+08
 
   -0.30468E+08         0.53014E+06         0.00000E+00
    0.53014E+06        -0.71128E+08         0.00000E+00
    0.00000E+00         0.00000E+00        -0.30479E+08
 
   -0.30528E+08         0.53177E+06         0.00000E+00
    0.53177E+06        -0.71260E+08         0.00000E+00
    0.00000E+00         0.00000E+00        -0.30536E+08
 
   -0.30589E+08         0.53272E+06         0.00000E+00
    0.53272E+06        -0.71394E+08         0.00000E+00
    0.00000E+00         0.00000E+00        -0.30595E+08
 
   -0.30652E+08         0.53293E+06         0.00000E+00
    0.53293E+06        -0.71531E+08         0.00000E+00
    0.00000E+00         0.00000E+00        -0.30655E+08
 
   -0.30715E+08         0.53231E+06         0.00000E+00
    0.53231E+06        -0.71669E+08         0.00000E+00
    0.00000E+00         0.00000E+00        -0.30715E+08
 
   -0.30780E+08         0.53081E+06         0.00000E+00
    0.53081E+06        -0.71810E+08         0.00000E+00
    0.00000E+00         0.00000E+00        -0.30777E+08
 
   -0.30847E+08         0.52833E+06         0.00000E+00
    0.52833E+06        -0.71953E+08         0.00000E+00
    0.00000E+00         0.00000E+00        -0.30840E+08
 
   -0.30915E+08         0.52482E+06         0.00000E+00
    0.52482E+06        -0.72099E+08         0.00000E+00
    0.00000E+00         0.00000E+00        -0.30904E+08
 
   -0.30984E+08         0.52017E+06         0.00000E+00
    0.52017E+06        -0.72246E+08         0.00000E+00
    0.00000E+00         0.00000E+00        -0.30969E+08
 
   -0.31054E+08         0.51431E+06         0.00000E+00
    0.51431E+06        -0.72396E+08         0.00000E+00
    0.00000E+00         0.00000E+00        -0.31035E+08
 
   -0.31126E+08         0.50715E+06         0.00000E+00
    0.50715E+06        -0.72548E+08         0.00000E+00
    0.00000E+00         0.00000E+00        -0.31102E+08
 
   -0.31200E+08         0.49860E+06         0.00000E+00
    0.49860E+06        -0.72703E+08         0.00000E+00
    0.00000E+00         0.00000E+00        -0.31171E+08
 
   -0.31274E+08         0.48858E+06         0.00000E+00
    0.48858E+06        -0.72859E+08         0.00000E+00
    0.00000E+00         0.00000E+00        -0.31240E+08
 
   -0.31350E+08         0.47700E+06         0.00000E+00
    0.47700E+06        -0.73018E+08         0.00000E+00
    0.00000E+00         0.00000E+00        -0.31311E+08
 
   -0.31427E+08         0.46378E+06         0.00000E+00
    0.46378E+06        -0.73179E+08         0.00000E+00
    0.00000E+00         0.00000E+00        -0.31382E+08
 
   -0.31506E+08         0.44887E+06         0.00000E+00
    0.44887E+06        -0.73343E+08         0.00000E+00
    0.00000E+00         0.00000E+00        -0.31455E+08
 
   -0.31585E+08         0.43220E+06         0.00000E+00
    0.43220E+06        -0.73508E+08         0.00000E+00
    0.00000E+00         0.00000E+00        -0.31528E+08
 
   -0.31666E+08         0.41372E+06         0.00000E+00
    0.41372E+06        -0.73674E+08         0.00000E+00
    0.00000E+00         0.00000E+00        -0.31602E+08
 
   -0.31747E+08         0.39341E+06         0.00000E+00
    0.39341E+06        -0.73842E+08         0.00000E+00
    0.00000E+00         0.00000E+00        -0.31677E+08
 
   -0.31828E+08         0.37122E+06         0.00000E+00
    0.37122E+06        -0.74011E+08         0.00000E+00
    0.00000E+00         0.00000E+00        -0.31752E+08
 
   -0.31911E+08         0.34715E+06         0.00000E+00
    0.34715E+06        -0.74179E+08         0.00000E+00
    0.00000E+00         0.00000E+00        -0.31827E+08
 
   -0.31993E+08         0.32115E+06         0.00000E+00
    0.32115E+06        -0.74347E+08         0.00000E+00
    0.00000E+00         0.00000E+00        -0.31902E+08
 
   -0.32076E+08         0.29317E+06         0.00000E+00
    0.29317E+06        -0.74512E+08         0.00000E+00
    0.00000E+00         0.00000E+00        -0.31976E+08
 
   -0.32160E+08         0.26305E+06         0.00000E+00
    0.26305E+06        -0.74673E+08         0.00000E+00
    0.00000E+00         0.00000E+00        -0.32050E+08
 
   -0.32245E+08         0.23054E+06         0.00000E+00
    0.23054E+06        -0.74827E+08         0.00000E+00
    0.00000E+00         0.00000E+00        -0.32122E+08
 
   -0.32332E+08         0.19521E+06         0.00000E+00
    0.19521E+06        -0.74973E+08         0.00000E+00
    0.00000E+00         0.00000E+00        -0.32191E+08
 
   -0.32424E+08         0.15640E+06         0.00000E+00
    0.15640E+06        -0.75106E+08         0.00000E+00
    0.00000E+00         0.00000E+00        -0.32259E+08
 
   -0.32525E+08         0.11364E+06         0.00000E+00
    0.11364E+06        -0.75223E+08         0.00000E+00
    0.00000E+00         0.00000E+00        -0.32324E+08
 
   -0.32641E+08         0.68037E+05         0.00000E+00
    0.68037E+05        -0.75321E+08         0.00000E+00
    0.00000E+00         0.00000E+00        -0.32388E+08
 
   -0.32778E+08         0.22415E+05         0.00000E+00
    0.22415E+05        -0.75402E+08         0.00000E+00
    0.00000E+00         0.00000E+00        -0.32454E+08
 
   -0.28196E+08         0.66358E+04         0.00000E+00
    0.66358E+04        -0.66125E+08         0.00000E+00
    0.00000E+00         0.00000E+00        -0.28296E+08
 
   -0.28230E+08         0.20160E+05         0.00000E+00
    0.20160E+05        -0.66145E+08         0.00000E+00
    0.00000E+00         0.00000E+00        -0.28313E+08
 
   -0.28260E+08         0.33916E+05         0.00000E+00
    0.33916E+05        -0.66170E+08         0.00000E+00
    0.00000E+00         0.00000E+00        -0.28329E+08
 
   -0.28286E+08         0.47329E+05         0.00000E+00
    0.47329E+05        -0.66199E+08         0.00000E+00
    0.00000E+00         0.00000E+00        -0.28345E+08
 
   -0.28309E+08         0.60071E+05         0.00000E+00
    0.60071E+05        -0.66233E+08         0.00000E+00
    0.00000E+00         0.00000E+00        -0.28363E+08
 
   -0.28331E+08         0.72164E+05         0.00000E+00
    0.72164E+05        -0.66270E+08         0.00000E+00
    0.00000E+00         0.00000E+00        -0.28380E+08
 
   -0.28353E+08         0.83719E+05         0.00000E+00
    0.83719E+05        -0.66309E+08         0.00000E+00
    0.00000E+00         0.00000E+00        -0.28399E+08
 
   -0.28374E+08         0.94815E+05         0.00000E+00
    0.94815E+05        -0.66350E+08         0.00000E+00
    0.00000E+00         0.00000E+00        -0.28417E+08
 
   -0.28395E+08         0.10550E+06         0.00000E+00
    0.10550E+06        -0.66393E+08         0.00000E+00
    0.00000E+00         0.00000E+00        -0.28436E+08
 
   -0.28416E+08         0.11582E+06         0.00000E+00
    0.11582E+06        -0.66437E+08         0.00000E+00
    0.00000E+00         0.00000E+00        -0.28456E+08
 
   -0.28437E+08         0.12577E+06         0.00000E+00
    0.12577E+06        -0.66482E+08         0.00000E+00
    0.00000E+00         0.00000E+00        -0.28476E+08
 
   -0.28458E+08         0.13537E+06         0.00000E+00
    0.13537E+06        -0.66527E+08         0.00000E+00
    0.00000E+00         0.00000E+00        -0.28496E+08
 
   -0.28479E+08         0.14464E+06         0.00000E+00
    0.14464E+06        -0.66573E+08         0.00000E+00
    0.00000E+00         0.00000E+00        -0.28516E+08
 
   -0.28501E+08         0.15358E+06         0.00000E+00
    0.15358E+06        -0.66619E+08         0.00000E+00
    0.00000E+00         0.00000E+00        -0.28536E+08
 
   -0.28522E+08         0.16221E+06         0.00000E+00
    0.16221E+06        -0.66665E+08         0.00000E+00
    0.00000E+00         0.00000E+00        -0.28556E+08
 
   -0.28543E+08         0.17055E+06         0.00000E+00
    0.17055E+06        -0.66712E+08         0.00000E+00
    0.00000E+00         0.00000E+00        -0.28577E+08
 
   -0.28565E+08         0.17862E+06         0.00000E+00
    0.17862E+06        -0.66760E+08         0.00000E+00
    0.00000E+00         0.00000E+00        -0.28597E+08
 
   -0.28586E+08         0.18644E+06         0.00000E+00
    0.18644E+06        -0.66807E+08         0.00000E+00
    0.00000E+00         0.00000E+00        -0.28618E+08
 
   -0.28608E+08         0.19403E+06         0.00000E+00
    0.19403E+06        -0.66855E+08         0.00000E+00
    0.00000E+00         0.00000E+00        -0.28639E+08
 
   -0.28630E+08         0.20142E+06         0.00000E+00
    0.20142E+06        -0.66904E+08         0.00000E+00
    0.00000E+00         0.00000E+00        -0.28660E+08
 
   -0.28652E+08         0.20863E+06         0.00000E+00
    0.20863E+06        -0.66953E+08         0.00000E+00
    0.00000E+00         0.00000E+00        -0.28681E+08
 
   -0.28674E+08         0.21568E+06         0.00000E+00
    0.21568E+06        -0.67003E+08         0.00000E+00
    0.00000E+00         0.00000E+00        -0.28703E+08
 
   -0.28696E+08         0.22260E+06         0.00000E+00
    0.22260E+06        -0.67054E+08         0.00000E+00
    0.00000E+00         0.00000E+00        -0.28725E+08
 
   -0.28718E+08         0.22940E+06         0.00000E+00
    0.22940E+06        -0.67105E+08         0.00000E+00
    0.00000E+00         0.00000E+00        -0.28747E+08
 
   -0.28741E+08         0.23611E+06         0.00000E+00
    0.23611E+06        -0.67157E+08         0.00000E+00
    0.00000E+00         0.00000E+00        -0.28769E+08
 
   -0.28764E+08         0.24274E+06         0.00000E+00
    0.24274E+06        -0.67210E+08         0.00000E+00
    0.00000E+00         0.00000E+00        -0.28792E+08
 
   -0.28787E+08         0.24932E+06         0.00000E+00
    0.24932E+06        -0.67263E+08         0.00000E+00
    0.00000E+00         0.00000E+00        -0.28815E+08
 
   -0.28810E+08         0.25585E+06         0.00000E+00
    0.25585E+06        -0.67318E+08         0.00000E+00
    0.00000E+00         0.00000E+00        -0.28839E+08
 
   -0.28834E+08         0.26236E+06         0.00000E+00
    0.26236E+06        -0.67374E+08         0.00000E+00
    0.00000E+00         0.00000E+00        -0.28862E+08
 
   -0.28858E+08         0.26885E+06         0.00000E+00
    0.26885E+06        -0.67431E+08         0.00000E+00
    0.00000E+00         0.00000E+00        -0.28887E+08
 
   -0.28883E+08         0.27533E+06         0.00000E+00
    0.27533E+06        -0.67489E+08         0.00000E+00
    0.00000E+00         0.00000E+00        -0.28911E+08
 
   -0.28908E+08         0.28183E+06         0.00000E+00
    0.28183E+06        -0.67547E+08         0.00000E+00
    0.00000E+00         0.00000E+00        -0.28937E+08
 
   -0.28934E+08         0.28833E+06         0.00000E+00
    0.28833E+06        -0.67608E+08         0.00000E+00
    0.00000E+00         0.00000E+00        -0.28962E+08
 
   -0.28960E+08         0.29486E+06         0.00000E+00
    0.29486E+06        -0.67669E+08         0.00000E+00
    0.00000E+00         0.00000E+00        -0.28989E+08
 
   -0.28986E+08         0.30141E+06         0.00000E+00
    0.30141E+06        -0.67732E+08         0.00000E+00
    0.00000E+00         0.00000E+00        -0.29015E+08
 
   -0.29013E+08         0.30800E+06         0.00000E+00
    0.30800E+06        -0.67796E+08         0.00000E+00
    0.00000E+00         0.00000E+00        -0.29043E+08
 
   -0.29041E+08         0.31462E+06         0.00000E+00
    0.31462E+06        -0.67861E+08         0.00000E+00
    0.00000E+00         0.00000E+00        -0.29071E+08
 
   -0.29069E+08         0.32127E+06         0.00000E+00
    0.32127E+06        -0.67928E+08         0.00000E+00
    0.00000E+00         0.00000E+00        -0.29099E+08
 
   -0.29098E+08         0.32797E+06         0.00000E+00
    0.32797E+06        -0.67996E+08         0.00000E+00
    0.00000E+00         0.00000E+00        -0.29128E+08
 
   -0.29128E+08         0.33470E+06         0.00000E+00
    0.33470E+06        -0.68066E+08         0.00000E+00
    0.00000E+00         0.00000E+00        -0.29158E+08
 
   -0.29158E+08         0.34147E+06         0.00000E+00
    0.34147E+06        -0.68137E+08         0.00000E+00
    0.00000E+00         0.00000E+00        -0.29188E+08
 
   -0.29189E+08         0.34828E+06         0.00000E+00
    0.34828E+06        -0.68209E+08         0.00000E+00
    0.00000E+00         0.00000E+00        -0.29219E+08
 
   -0.29220E+08         0.35512E+06         0.00000E+00
    0.35512E+06        -0.68284E+08         0.00000E+00
    0.00000E+00         0.00000E+00        -0.29251E+08
 
   -0.29252E+08         0.36199E+06         0.00000E+00
    0.36199E+06        -0.68360E+08         0.00000E+00
    0.00000E+00         0.00000E+00        -0.29284E+08
 
   -0.29285E+08         0.36889E+06         0.00000E+00
    0.36889E+06        -0.68437E+08         0.00000E+00
    0.00000E+00         0.00000E+00        -0.29317E+08
 
   -0.29319E+08         0.37581E+06         0.00000E+00
    0.37581E+06        -0.68516E+08         0.00000E+00
    0.00000E+00         0.00000E+00        -0.29351E+08
 
   -0.29354E+08         0.38274E+06         0.00000E+00
    0.38274E+06        -0.68597E+08         0.00000E+00
    0.00000E+00         0.00000E+00        -0.29385E+08
 
   -0.29389E+08         0.38968E+06         0.00000E+00
    0.38968E+06        -0.68680E+08         0.00000E+00
    0.00000E+00         0.00000E+00        -0.29421E+08
 
   -0.29425E+08         0.39661E+06         0.00000E+00
    0.39661E+06        -0.68765E+08         0.00000E+00
    0.00000E+00         0.00000E+00        -0.29457E+08
 
   -0.29462E+08         0.40354E+06         0.00000E+00
    0.40354E+06        -0.68851E+08         0.00000E+00
    0.00000E+00         0.00000E+00        -0.29494E+08
 
   -0.29500E+08         0.41044E+06         0.00000E+00
    0.41044E+06        -0.68939E+08         0.00000E+00
    0.00000E+00         0.00000E+00        -0.29532E+08
 
   -0.29539E+08         0.41732E+06         0.00000E+00
    0.41732E+06        -0.69029E+08         0.00000E+00
    0.00000E+00         0.00000E+00        -0.29571E+08
 
   -0.29579E+08         0.42414E+06         0.00000E+00
    0.42414E+06        -0.69121E+08         0.00000E+00
    0.00000E+00         0.00000E+00        -0.29610E+08
 
   -0.29619E+08         0.43091E+06         0.00000E+00
    0.43091E+06        -0.69215E+08         0.00000E+00
    0.00000E+00         0.00000E+00        -0.29650E+08
 
   -0.29661E+08         0.43760E+06         0.00000E+00
    0.43760E+06        -0.69311E+08         0.00000E+00
    0.00000E+00         0.00000E+00        -0.29692E+08
 
   -0.29703E+08         0.44421E+06         0.00000E+00
    0.44421E+06        -0.69409E+08         0.00000E+00
    0.00000E+00         0.00000E+00        -0.29734E+08
 
   -0.29747E+08         0.45070E+06         0.00000E+00
    0.45070E+06        -0.69509E+08         0.00000E+00
    0.00000E+00         0.00000E+00        -0.29777E+08
 
   -0.29791E+08         0.45708E+06         0.00000E+00
    0.45708E+06        -0.69611E+08         0.00000E+00
    0.00000E+00         0.00000E+00        -0.29821E+08
 
   -0.29836E+08         0.46330E+06         0.00000E+00
    0.46330E+06        -0.69715E+08         0.00000E+00
    0.00000E+00         0.00000E+00        -0.29865E+08
 
   -0.29883E+08         0.46935E+06         0.00000E+00
    0.46935E+06        -0.69821E+08         0.00000E+00
    0.00000E+00         0.00000E+00        -0.29911E+08
 
   -0.29930E+08         0.47522E+06         0.00000E+00
    0.47522E+06        -0.69929E+08         0.00000E+00
    0.00000E+00         0.00000E+00        -0.29958E+08
 
   -0.29979E+08         0.48086E+06         0.00000E+00
    0.48086E+06        -0.70040E+08         0.00000E+00
    0.00000E+00         0.00000E+00        -0.30006E+08
 
   -0.30029E+08         0.48626E+06         0.00000E+00
    0.48626E+06        -0.70152E+08         0.00000E+00
    0.00000E+00         0.00000E+00        -0.30054E+08
 
   -0.30079E+08         0.49138E+06         0.00000E+00
    0.49138E+06        -0.70267E+08         0.00000E+00
    0.00000E+00         0.00000E+00        -0.30104E+08
 
   -0.30131E+08         0.49619E+06         0.00000E+00
    0.49619E+06        -0.70383E+08         0.00000E+00
    0.00000E+00         0.00000E+00        -0.30154E+08
 
   -0.30184E+08         0.50066E+06         0.00000E+00
    0.50066E+06        -0.70502E+08         0.00000E+00
    0.00000E+00         0.00000E+00        -0.30206E+08
 
   -0.30238E+08         0.50475E+06         0.00000E+00
    0.50475E+06        -0.70623E+08         0.00000E+00
    0.00000E+00         0.00000E+00        -0.30258E+08
 
   -0.30293E+08         0.50841E+06         0.00000E+00
    0.50841E+06        -0.70746E+08         0.00000E+00
    0.00000E+00         0.00000E+00        -0.30312E+08
 
   -0.30350E+08         0.51162E+06         0.00000E+00
    0.51162E+06        -0.70871E+08         0.00000E+00
    0.00000E+00         0.00000E+00        -0.30366E+08
 
   -0.30408E+08         0.51430E+06         0.00000E+00
    0.51430E+06        -0.70999E+08         0.00000E+00
    0.00000E+00         0.00000E+00        -0.30422E+08
 
   -0.30467E+08         0.51643E+06         0.00000E+00
    0.51643E+06        -0.71129E+08         0.00000E+00
    0.00000E+00         0.00000E+00        -0.30479E+08
 
   -0.30527E+08         0.51794E+06         0.00000E+00
    0.51794E+06        -0.71260E+08         0.00000E+00
    0.00000E+00         0.00000E+00        -0.30536E+08
 
   -0.30588E+08         0.51877E+06         0.00000E+00
    0.51877E+06        -0.71394E+08         0.00000E+00
    0.00000E+00         0.00000E+00        -0.30595E+08
 
   -0.30651E+08         0.51886E+06         0.00000E+00
    0.51886E+06        -0.71531E+08         0.00000E+00
    0.00000E+00         0.00000E+00        -0.30655E+08
 
   -0.30715E+08         0.51814E+06         0.00000E+00
    0.51814E+06        -0.71669E+08         0.00000E+00
    0.00000E+00         0.00000E+00        -0.30715E+08
 
   -0.30781E+08         0.51655E+06         0.00000E+00
    0.51655E+06        -0.71810E+08         0.00000E+00
    0.00000E+00         0.00000E+00        -0.30777E+08
 
   -0.30848E+08         0.51400E+06         0.00000E+00
    0.51400E+06        -0.71953E+08         0.00000E+00
    0.00000E+00         0.00000E+00        -0.30840E+08
 
   -0.30916E+08         0.51042E+06         0.00000E+00
    0.51042E+06        -0.72098E+08         0.00000E+00
    0.00000E+00         0.00000E+00        -0.30904E+08
 
   -0.30986E+08         0.50572E+06         0.00000E+00
    0.50572E+06        -0.72245E+08         0.00000E+00
    0.00000E+00         0.00000E+00        -0.30969E+08
 
   -0.31057E+08         0.49982E+06         0.00000E+00
    0.49982E+06        -0.72395E+08         0.00000E+00
    0.00000E+00         0.00000E+00        -0.31036E+08
 
   -0.31129E+08         0.49262E+06         0.00000E+00
    0.49262E+06        -0.72547E+08         0.00000E+00
    0.00000E+00         0.00000E+00        -0.31103E+08
 
   -0.31203E+08         0.48404E+06         0.00000E+00
    0.48404E+06        -0.72701E+08         0.00000E+00
    0.00000E+00         0.00000E+00        -0.31171E+08
 
   -0.31279E+08         0.47400E+06         0.00000E+00
    0.47400E+06        -0.72857E+08         0.00000E+00
    0.00000E+00         0.00000E+00        -0.31241E+08
 
   -0.31356E+08         0.46240E+06         0.00000E+00
    0.46240E+06        -0.73016E+08         0.00000E+00
    0.00000E+00         0.00000E+00        -0.31311E+08
 
   -0.31434E+08         0.44917E+06         0.00000E+00
    0.44917E+06        -0.73177E+08         0.00000E+00
    0.00000E+00         0.00000E+00        -0.31383E+08
 
   -0.31513E+08         0.43423E+06         0.00000E+00
    0.43423E+06        -0.73339E+08         0.00000E+00
    0.00000E+00         0.00000E+00        -0.31456E+08
 
   -0.31593E+08         0.41752E+06         0.00000E+00
    0.41752E+06        -0.73504E+08         0.00000E+00
    0.00000E+00         0.00000E+00        -0.31529E+08
 
   -0.31675E+08         0.39899E+06         0.00000E+00
    0.39899E+06        -0.73670E+08         0.00000E+00
    0.00000E+00         0.00000E+00        -0.31604E+08
 
   -0.31757E+08         0.37861E+06         0.00000E+00
    0.37861E+06        -0.73838E+08         0.00000E+00
    0.00000E+00         0.00000E+00        -0.31678E+08
 
   -0.31840E+08         0.35635E+06         0.00000E+00
    0.35635E+06        -0.74006E+08         0.00000E+00
    0.00000E+00         0.00000E+00        -0.31754E+08
 
   -0.31923E+08         0.33219E+06         0.00000E+00
    0.33219E+06        -0.74174E+08         0.00000E+00
    0.00000E+00         0.00000E+00        -0.31829E+08
 
   -0.32007E+08         0.30611E+06         0.00000E+00
    0.30611E+06        -0.74342E+08         0.00000E+00
    0.00000E+00         0.00000E+00        -0.31905E+08
 
   -0.32092E+08         0.27809E+06         0.00000E+00
    0.27809E+06        -0.74506E+08         0.00000E+00
    0.00000E+00         0.00000E+00        -0.31979E+08
 
   -0.32177E+08         0.24804E+06         0.00000E+00
    0.24804E+06        -0.74667E+08         0.00000E+00
    0.00000E+00         0.00000E+00        -0.32053E+08
 
   -0.32264E+08         0.21581E+06         0.00000E+00
    0.21581E+06        -0.74821E+08         0.00000E+00
    0.00000E+00         0.00000E+00        -0.32125E+08
 
   -0.32354E+08         0.18111E+06         0.00000E+00
    0.18111E+06        -0.74966E+08         0.00000E+00
    0.00000E+00         0.00000E+00        -0.32196E+08
 
   -0.32449E+08         0.14357E+06         0.00000E+00
    0.14357E+06        -0.75098E+08         0.00000E+00
    0.00000E+00         0.00000E+00        -0.32264E+08
 
   -0.32553E+08         0.10312E+06         0.00000E+00
    0.10312E+06        -0.75214E+08         0.00000E+00
    0.00000E+00         0.00000E+00        -0.32330E+08
 
   -0.32673E+08         0.61170E+05         0.00000E+00
    0.61170E+05        -0.75312E+08         0.00000E+00
    0.00000E+00         0.00000E+00        -0.32396E+08
 
   -0.32812E+08         0.20059E+05         0.00000E+00
    0.20059E+05        -0.75394E+08         0.00000E+00
    0.00000E+00         0.00000E+00        -0.32462E+08
 
   -0.28186E+08         0.60813E+04         0.00000E+00
    0.60813E+04        -0.66127E+08         0.00000E+00
    0.00000E+00         0.00000E+00        -0.28294E+08
 
   -0.28221E+08         0.18529E+05         0.00000E+00
    0.18529E+05        -0.66148E+08         0.00000E+00
    0.00000E+00         0.00000E+00        -0.28311E+08
 
   -0.28251E+08         0.31369E+05         0.00000E+00
    0.31369E+05        -0.66172E+08         0.00000E+00
    0.00000E+00         0.00000E+00        -0.28327E+08
 
   -0.28278E+08         0.44143E+05         0.00000E+00
    0.44143E+05        -0.66202E+08         0.00000E+00
    0.00000E+00         0.00000E+00        -0.28344E+08
 
   -0.28302E+08         0.56492E+05         0.00000E+00
    0.56492E+05        -0.66235E+08         0.00000E+00
    0.00000E+00         0.00000E+00        -0.28361E+08
 
   -0.28325E+08         0.68348E+05         0.00000E+00
    0.68348E+05        -0.66272E+08         0.00000E+00
    0.00000E+00         0.00000E+00        -0.28379E+08
 
   -0.28347E+08         0.79756E+05         0.00000E+00
    0.79756E+05        -0.66311E+08         0.00000E+00
    0.00000E+00         0.00000E+00        -0.28397E+08
 
   -0.28368E+08         0.90756E+05         0.00000E+00
    0.90756E+05        -0.66353E+08         0.00000E+00
    0.00000E+00         0.00000E+00        -0.28416E+08
 
   -0.28389E+08         0.10137E+06         0.00000E+00
    0.10137E+06        -0.66395E+08         0.00000E+00
    0.00000E+00         0.00000E+00        -0.28435E+08
 
   -0.28411E+08         0.11162E+06         0.00000E+00
    0.11162E+06        -0.66439E+08         0.00000E+00
    0.00000E+00         0.00000E+00        -0.28455E+08
 
   -0.28432E+08         0.12151E+06         0.00000E+00
    0.12151E+06        -0.66484E+08         0.00000E+00
    0.00000E+00         0.00000E+00        -0.28475E+08
 
   -0.28453E+08         0.13104E+06         0.00000E+00
    0.13104E+06        -0.66529E+08         0.00000E+00
    0.00000E+00         0.00000E+00        -0.28495E+08
 
   -0.28475E+08         0.14023E+06         0.00000E+00
    0.14023E+06        -0.66575E+08         0.00000E+00
    0.00000E+00         0.00000E+00        -0.28515E+08
 
   -0.28496E+08         0.14908E+06         0.00000E+00
    0.14908E+06        -0.66621E+08         0.00000E+00
    0.00000E+00         0.00000E+00        -0.28535E+08
 
   -0.28518E+08         0.15762E+06         0.00000E+00
    0.15762E+06        -0.66667E+08         0.00000E+00
    0.00000E+00         0.00000E+00        -0.28555E+08
 
   -0.28539E+08         0.16585E+06         0.00000E+00
    0.16585E+06        -0.66714E+08         0.00000E+00
    0.00000E+00         0.00000E+00        -0.28576E+08
 
   -0.28561E+08         0.17381E+06         0.00000E+00
    0.17381E+06        -0.66761E+08         0.00000E+00
    0.00000E+00         0.00000E+00        -0.28597E+08
 
   -0.28582E+08         0.18151E+06         0.00000E+00
    0.18151E+06        -0.66809E+08         0.00000E+00
    0.00000E+00         0.00000E+00        -0.28617E+08
 
   -0.28604E+08         0.18898E+06         0.00000E+00
    0.18898E+06        -0.66857E+08         0.00000E+00
    0.00000E+00         0.00000E+00        -0.28638E+08
 
   -0.28626E+08         0.19625E+06         0.00000E+00
    0.19625E+06        -0.66905E+08         0.00000E+00
    0.00000E+00         0.00000E+00        -0.28659E+08
 
   -0.28648E+08         0.20333E+06         0.00000E+00
    0.20333E+06        -0.66955E+08         0.00000E+00
    0.00000E+00         0.00000E+00        -0.28681E+08
 
   -0.28670E+08         0.21025E+06         0.00000E+00
    0.21025E+06        -0.67004E+08         0.00000E+00
    0.00000E+00         0.00000E+00        -0.28702E+08
 
   -0.28692E+08         0.21703E+06         0.00000E+00
    0.21703E+06        -0.67055E+08         0.00000E+00
    0.00000E+00         0.00000E+00        -0.28724E+08
 
   -0.28715E+08         0.22370E+06         0.00000E+00
    0.22370E+06        -0.67106E+08         0.00000E+00
    0.00000E+00         0.00000E+00        -0.28746E+08
 
   -0.28737E+08         0.23027E+06         0.00000E+00
    0.23027E+06        -0.67158E+08         0.00000E+00
    0.00000E+00         0.00000E+00        -0.28769E+08
 
   -0.28760E+08         0.23676E+06         0.00000E+00
    0.23676E+06        -0.67211E+08         0.00000E+00
    0.00000E+00         0.00000E+00        -0.28791E+08
 
   -0.28783E+08         0.24320E+06         0.00000E+00
    0.24320E+06        -0.67265E+08         0.00000E+00
    0.00000E+00         0.00000E+00        -0.28814E+08
 
   -0.28807E+08         0.24959E+06         0.00000E+00
    0.24959E+06        -0.67319E+08         0.00000E+00
    0.00000E+00         0.00000E+00        -0.28838E+08
 
   -0.28831E+08         0.25595E+06         0.00000E+00
    0.25595E+06        -0.67375E+08         0.00000E+00
    0.00000E+00         0.00000E+00        -0.28862E+08
 
   -0.28855E+08         0.26230E+06         0.00000E+00
    0.26230E+06        -0.67432E+08         0.00000E+00
    0.00000E+00         0.00000E+00        -0.28886E+08
 
   -0.28880E+08         0.26864E+06         0.00000E+00
    0.26864E+06        -0.67490E+08         0.00000E+00
    0.00000E+00         0.00000E+00        -0.28911E+08
 
   -0.28905E+08         0.27498E+06         0.00000E+00
    0.27498E+06        -0.67549E+08         0.00000E+00
    0.00000E+00         0.00000E+00        -0.28936E+08
 
   -0.28930E+08         0.28133E+06         0.00000E+00
    0.28133E+06        -0.67609E+08         0.00000E+00
    0.00000E+00         0.00000E+00        -0.28962E+08
 
   -0.28956E+08         0.28770E+06         0.00000E+00
    0.28770E+06        -0.67670E+08         0.00000E+00
    0.00000E+00         0.00000E+00        -0.28988E+08
 
   -0.28983E+08         0.29410E+06         0.00000E+00
    0.29410E+06        -0.67733E+08         0.00000E+00
    0.00000E+00         0.00000E+00        -0.29015E+08
 
   -0.29010E+08         0.30053E+06         0.00000E+00
    0.30053E+06        -0.67797E+08         0.00000E+00
    0.00000E+00         0.00000E+00        -0.29042E+08
 
   -0.29037E+08         0.30698E+06         0.00000E+00
    0.30698E+06        -0.67862E+08         0.00000E+00
    0.00000E+00         0.00000E+00        -0.29070E+08
 
   -0.29066E+08         0.31348E+06         0.00000E+00
    0.31348E+06        -0.67929E+08         0.00000E+00
    0.00000E+00         0.00000E+00        -0.29098E+08
 
   -0.29094E+08         0.32000E+06         0.00000E+00
    0.32000E+06        -0.67997E+08         0.00000E+00
    0.00000E+00         0.00000E+00        -0.29128E+08
 
   -0.29124E+08         0.32657E+06         0.00000E+00
    0.32657E+06        -0.68067E+08         0.00000E+00
    0.00000E+00         0.00000E+00        -0.29157E+08
 
   -0.29154E+08         0.33317E+06         0.00000E+00
    0.33317E+06        -0.68138E+08         0.00000E+00
    0.00000E+00         0.00000E+00        -0.29188E+08
 
   -0.29185E+08         0.33980E+06         0.00000E+00
    0.33980E+06        -0.68211E+08         0.00000E+00
    0.00000E+00         0.00000E+00        -0.29219E+08
 
   -0.29216E+08         0.34647E+06         0.00000E+00
    0.34647E+06        -0.68285E+08         0.00000E+00
    0.00000E+00         0.00000E+00        -0.29250E+08
 
   -0.29249E+08         0.35316E+06         0.00000E+00
    0.35316E+06        -0.68361E+08         0.00000E+00
    0.00000E+00         0.00000E+00        -0.29283E+08
 
   -0.29282E+08         0.35988E+06         0.00000E+00
    0.35988E+06        -0.68439E+08         0.00000E+00
    0.00000E+00         0.00000E+00        -0.29316E+08
 
   -0.29315E+08         0.36662E+06         0.00000E+00
    0.36662E+06        -0.68518E+08         0.00000E+00
    0.00000E+00         0.00000E+00        -0.29350E+08
 
   -0.29350E+08         0.37336E+06         0.00000E+00
    0.37336E+06        -0.68599E+08         0.00000E+00
    0.00000E+00         0.00000E+00        -0.29385E+08
 
   -0.29385E+08         0.38012E+06         0.00000E+00
    0.38012E+06        -0.68682E+08         0.00000E+00
    0.00000E+00         0.00000E+00        -0.29420E+08
 
   -0.29421E+08         0.38687E+06         0.00000E+00
    0.38687E+06        -0.68766E+08         0.00000E+00
    0.00000E+00         0.00000E+00        -0.29456E+08
 
   -0.29458E+08         0.39360E+06         0.00000E+00
    0.39360E+06        -0.68852E+08         0.00000E+00
    0.00000E+00         0.00000E+00        -0.29493E+08
 
   -0.29496E+08         0.40032E+06         0.00000E+00
    0.40032E+06        -0.68941E+08         0.00000E+00
    0.00000E+00         0.00000E+00        -0.29531E+08
 
   -0.29535E+08         0.40700E+06         0.00000E+00
    0.40700E+06        -0.69031E+08         0.00000E+00
    0.00000E+00         0.00000E+00        -0.29570E+08
 
   -0.29575E+08         0.41363E+06         0.00000E+00
    0.41363E+06        -0.69123E+08         0.00000E+00
    0.00000E+00         0.00000E+00        -0.29609E+08
 
   -0.29615E+08         0.42021E+06         0.00000E+00
    0.42021E+06        -0.69217E+08         0.00000E+00
    0.00000E+00         0.00000E+00        -0.29650E+08
 
   -0.29657E+08         0.42671E+06         0.00000E+00
    0.42671E+06        -0.69313E+08         0.00000E+00
    0.00000E+00         0.00000E+00        -0.29691E+08
 
   -0.29699E+08         0.43312E+06         0.00000E+00
    0.43312E+06        -0.69410E+08         0.00000E+00
    0.00000E+00         0.00000E+00        -0.29733E+08
 
   -0.29743E+08         0.43943E+06         0.00000E+00
    0.43943E+06        -0.69510E+08         0.00000E+00
    0.00000E+00         0.00000E+00        -0.29776E+08
 
   -0.29787E+08         0.44561E+06         0.00000E+00
    0.44561E+06        -0.69612E+08         0.00000E+00
    0.00000E+00         0.00000E+00        -0.29820E+08
 
   -0.29833E+08         0.45165E+06         0.00000E+00
    0.45165E+06        -0.69716E+08         0.00000E+00
    0.00000E+00         0.00000E+00        -0.29865E+08
 
   -0.29879E+08         0.45751E+06         0.00000E+00
    0.45751E+06        -0.69822E+08         0.00000E+00
    0.00000E+00         0.00000E+00        -0.29910E+08
 
   -0.29927E+08         0.46319E+06         0.00000E+00
    0.46319E+06        -0.69930E+08         0.00000E+00
    0.00000E+00         0.00000E+00        -0.29957E+08
 
   -0.29976E+08         0.46865E+06         0.00000E+00
    0.46865E+06        -0.70041E+08         0.00000E+00
    0.00000E+00         0.00000E+00        -0.30005E+08
 
   -0.30025E+08         0.47387E+06         0.00000E+00
    0.47387E+06        -0.70153E+08         0.00000E+00
    0.00000E+00         0.00000E+00        -0.30053E+08
 
   -0.30076E+08         0.47881E+06         0.00000E+00
    0.47881E+06        -0.70267E+08         0.00000E+00
    0.00000E+00         0.00000E+00        -0.30103E+08
 
   -0.30128E+08         0.48345E+06         0.00000E+00
    0.48345E+06        -0.70384E+08         0.00000E+00
    0.00000E+00         0.00000E+00        -0.30154E+08
 
   -0.30181E+08         0.48775E+06         0.00000E+00
    0.48775E+06        -0.70503E+08         0.00000E+00
    0.00000E+00         0.00000E+00        -0.30205E+08
 
   -0.30236E+08         0.49168E+06         0.00000E+00
    0.49168E+06        -0.70624E+08         0.00000E+00
    0.00000E+00         0.00000E+00        -0.30258E+08
 
   -0.30291E+08         0.49519E+06         0.00000E+00
    0.49519E+06        -0.70747E+08         0.00000E+00
    0.00000E+00         0.00000E+00        -0.30311E+08
 
   -0.30348E+08         0.49824E+06         0.00000E+00
    0.49824E+06        -0.70872E+08         0.00000E+00
    0.00000E+00         0.00000E+00        -0.30366E+08
 
   -0.30406E+08         0.50079E+06         0.00000E+00
    0.50079E+06        -0.70999E+08         0.00000E+00
    0.00000E+00         0.00000E+00        -0.30422E+08
 
   -0.30465E+08         0.50278E+06         0.00000E+00
    0.50278E+06        -0.71129E+08         0.00000E+00
    0.00000E+00         0.00000E+00        -0.30478E+08
 
   -0.30526E+08         0.50416E+06         0.00000E+00
    0.50416E+06        -0.71261E+08         0.00000E+00
    0.00000E+00         0.00000E+00        -0.30536E+08
 
   -0.30587E+08         0.50488E+06         0.00000E+00
    0.50488E+06        -0.71395E+08         0.00000E+00
    0.00000E+00         0.00000E+00        -0.30595E+08
 
   -0.30651E+08         0.50487E+06         0.00000E+00
    0.50487E+06        -0.71531E+08         0.00000E+00
    0.00000E+00         0.00000E+00        -0.30654E+08
 
   -0.30715E+08         0.50406E+06         0.00000E+00
    0.50406E+06        -0.71669E+08         0.00000E+00
    0.00000E+00         0.00000E+00        -0.30715E+08
 
   -0.30781E+08         0.50239E+06         0.00000E+00
    0.50239E+06        -0.71809E+08         0.00000E+00
    0.00000E+00         0.00000E+00        -0.30777E+08
 
   -0.30848E+08         0.49977E+06         0.00000E+00
    0.49977E+06        -0.71952E+08         0.00000E+00
    0.00000E+00         0.00000E+00        -0.30840E+08
 
   -0.30917E+08         0.49613E+06         0.00000E+00
    0.49613E+06        -0.72097E+08         0.00000E+00
    0.00000E+00         0.00000E+00        -0.30904E+08
 
   -0.30988E+08         0.49138E+06         0.00000E+00
    0.49138E+06        -0.72244E+08         0.00000E+00
    0.00000E+00         0.00000E+00        -0.30970E+08
 
   -0.31059E+08         0.48544E+06         0.00000E+00
    0.48544E+06        -0.72394E+08         0.00000E+00
    0.00000E+00         0.00000E+00        -0.31036E+08
 
   -0.31133E+08         0.47822E+06         0.00000E+00
    0.47822E+06        -0.72545E+08         0.00000E+00
    0.00000E+00         0.00000E+00        -0.31103E+08
 
   -0.31207E+08         0.46963E+06         0.00000E+00
    0.46963E+06        -0.72699E+08         0.00000E+00
    0.00000E+00         0.00000E+00        -0.31172E+08
 
   -0.31283E+08         0.45957E+06         0.00000E+00
    0.45957E+06        -0.72855E+08         0.00000E+00
    0.00000E+00         0.00000E+00        -0.31242E+08
 
   -0.31361E+08         0.44797E+06         0.00000E+00
    0.44797E+06        -0.73013E+08         0.00000E+00
    0.00000E+00         0.00000E+00        -0.31312E+08
 
   -0.31440E+08         0.43472E+06         0.00000E+00
    0.43472E+06        -0.73174E+08         0.00000E+00
    0.00000E+00         0.00000E+00        -0.31384E+08
 
   -0.31520E+08         0.41977E+06         0.00000E+00
    0.41977E+06        -0.73336E+08         0.00000E+00
    0.00000E+00         0.00000E+00        -0.31457E+08
 
   -0.31601E+08         0.40304E+06         0.00000E+00
    0.40304E+06        -0.73501E+08         0.00000E+00
    0.00000E+00         0.00000E+00        -0.31531E+08
 
   -0.31684E+08         0.38447E+06         0.00000E+00
    0.38447E+06        -0.73667E+08         0.00000E+00
    0.00000E+00         0.00000E+00        -0.31605E+08
 
   -0.31767E+08         0.36404E+06         0.00000E+00
    0.36404E+06        -0.73834E+08         0.00000E+00
    0.00000E+00         0.00000E+00        -0.31680E+08
 
   -0.31851E+08         0.34171E+06         0.00000E+00
    0.34171E+06        -0.74002E+08         0.00000E+00
    0.00000E+00         0.00000E+00        -0.31756E+08
 
   -0.31936E+08         0.31748E+06         0.00000E+00
    0.31748E+06        -0.74169E+08         0.00000E+00
    0.00000E+00         0.00000E+00        -0.31832E+08
 
   -0.32021E+08         0.29136E+06         0.00000E+00
    0.29136E+06        -0.74336E+08         0.00000E+00
    0.00000E+00         0.00000E+00        -0.31907E+08
 
   -0.32107E+08         0.26334E+06         0.00000E+00
    0.26334E+06        -0.74500E+08         0.00000E+00
    0.00000E+00         0.00000E+00        -0.31982E+08
 
   -0.32194E+08         0.23342E+06         0.00000E+00
    0.23342E+06        -0.74661E+08         0.00000E+00
    0.00000E+00         0.00000E+00        -0.32056E+08
 
   -0.32283E+08         0.20154E+06         0.00000E+00
    0.20154E+06        -0.74814E+08         0.00000E+00
    0.00000E+00         0.00000E+00        -0.32129E+08
 
   -0.32376E+08         0.16757E+06         0.00000E+00
    0.16757E+06        -0.74958E+08         0.00000E+00
    0.00000E+00         0.00000E+00        -0.32200E+08
 
   -0.32474E+08         0.13140E+06         0.00000E+00
    0.13140E+06        -0.75090E+08         0.00000E+00
    0.00000E+00         0.00000E+00        -0.32269E+08
 
   -0.32582E+08         0.93336E+05         0.00000E+00
    0.93336E+05        -0.75206E+08         0.00000E+00
    0.00000E+00         0.00000E+00        -0.32336E+08
 
   -0.32704E+08         0.54879E+05         0.00000E+00
    0.54879E+05        -0.75304E+08         0.00000E+00
    0.00000E+00         0.00000E+00        -0.32403E+08
 
   -0.32845E+08         0.17918E+05         0.00000E+00
    0.17918E+05        -0.75386E+08         0.00000E+00
    0.00000E+00         0.00000E+00        -0.32469E+08
 
   -0.28176E+08         0.55687E+04         0.00000E+00
    0.55687E+04        -0.66130E+08         0.00000E+00
    0.00000E+00         0.00000E+00        -0.28292E+08
 
   -0.28212E+08         0.17014E+05         0.00000E+00
    0.17014E+05        -0.66150E+08         0.00000E+00
    0.00000E+00         0.00000E+00        -0.28309E+08
 
   -0.28243E+08         0.28975E+05         0.00000E+00
    0.28975E+05        -0.66175E+08         0.00000E+00
    0.00000E+00         0.00000E+00        -0.28325E+08
 
   -0.28270E+08         0.41104E+05         0.00000E+00
    0.41104E+05        -0.66204E+08         0.00000E+00
    0.00000E+00         0.00000E+00        -0.28342E+08
 
   -0.28295E+08         0.53036E+05         0.00000E+00
    0.53036E+05        -0.66238E+08         0.00000E+00
    0.00000E+00         0.00000E+00        -0.28360E+08
 
   -0.28318E+08         0.64634E+05         0.00000E+00
    0.64634E+05        -0.66274E+08         0.00000E+00
    0.00000E+00         0.00000E+00        -0.28378E+08
 
   -0.28340E+08         0.75878E+05         0.00000E+00
    0.75878E+05        -0.66314E+08         0.00000E+00
    0.00000E+00         0.00000E+00        -0.28396E+08
 
   -0.28362E+08         0.86768E+05         0.00000E+00
    0.86768E+05        -0.66355E+08         0.00000E+00
    0.00000E+00         0.00000E+00        -0.28415E+08
 
   -0.28384E+08         0.97304E+05         0.00000E+00
    0.97304E+05        -0.66397E+08         0.00000E+00
    0.00000E+00         0.00000E+00        -0.28434E+08
 
   -0.28406E+08         0.10748E+06         0.00000E+00
    0.10748E+06        -0.66441E+08         0.00000E+00
    0.00000E+00         0.00000E+00        -0.28454E+08
 
   -0.28427E+08         0.11730E+06         0.00000E+00
    0.11730E+06        -0.66486E+08         0.00000E+00
    0.00000E+00         0.00000E+00        -0.28474E+08
 
   -0.28449E+08         0.12675E+06         0.00000E+00
    0.12675E+06        -0.66531E+08         0.00000E+00
    0.00000E+00         0.00000E+00        -0.28494E+08
 
   -0.28470E+08         0.13585E+06         0.00000E+00
    0.13585E+06        -0.66576E+08         0.00000E+00
    0.00000E+00         0.00000E+00        -0.28514E+08
 
   -0.28492E+08         0.14461E+06         0.00000E+00
    0.14461E+06        -0.66622E+08         0.00000E+00
    0.00000E+00         0.00000E+00        -0.28534E+08
 
   -0.28514E+08         0.15305E+06         0.00000E+00
    0.15305E+06        -0.66669E+08         0.00000E+00
    0.00000E+00         0.00000E+00        -0.28555E+08
 
   -0.28535E+08         0.16118E+06         0.00000E+00
    0.16118E+06        -0.66716E+08         0.00000E+00
    0.00000E+00         0.00000E+00        -0.28575E+08
 
   -0.28557E+08         0.16902E+06         0.00000E+00
    0.16902E+06        -0.66763E+08         0.00000E+00
    0.00000E+00         0.00000E+00        -0.28596E+08
 
   -0.28579E+08         0.17661E+06         0.00000E+00
    0.17661E+06        -0.66810E+08         0.00000E+00
    0.00000E+00         0.00000E+00        -0.28617E+08
 
   -0.28600E+08         0.18395E+06         0.00000E+00
    0.18395E+06        -0.66858E+08         0.00000E+00
    0.00000E+00         0.00000E+00        -0.28638E+08
 
   -0.28622E+08         0.19109E+06         0.00000E+00
    0.19109E+06        -0.66907E+08         0.00000E+00
    0.00000E+00         0.00000E+00        -0.28659E+08
 
   -0.28644E+08         0.19804E+06         0.00000E+00
    0.19804E+06        -0.66956E+08         0.00000E+00
    0.00000E+00         0.00000E+00        -0.28680E+08
 
   -0.28666E+08         0.20482E+06         0.00000E+00
    0.20482E+06        -0.67006E+08         0.00000E+00
    0.00000E+00         0.00000E+00        -0.28702E+08
 
   -0.28689E+08         0.21147E+06         0.00000E+00
    0.21147E+06        -0.67056E+08         0.00000E+00
    0.00000E+00         0.00000E+00        -0.28723E+08
 
   -0.28711E+08         0.21800E+06         0.00000E+00
    0.21800E+06        -0.67107E+08         0.00000E+00
    0.00000E+00         0.00000E+00        -0.28746E+08
 
   -0.28734E+08         0.22443E+06         0.00000E+00
    0.22443E+06        -0.67159E+08         0.00000E+00
    0.00000E+00         0.00000E+00        -0.28768E+08
 
   -0.28757E+08         0.23079E+06         0.00000E+00
    0.23079E+06        -0.67212E+08         0.00000E+00
    0.00000E+00         0.00000E+00        -0.28791E+08
 
   -0.28780E+08         0.23708E+06         0.00000E+00
    0.23708E+06        -0.67266E+08         0.00000E+00
    0.00000E+00         0.00000E+00        -0.28814E+08
 
   -0.28803E+08         0.24333E+06         0.00000E+00
    0.24333E+06        -0.67321E+08         0.00000E+00
    0.00000E+00         0.00000E+00        -0.28837E+08
 
   -0.28827E+08         0.24955E+06         0.00000E+00
    0.24955E+06        -0.67376E+08         0.00000E+00
    0.00000E+00         0.00000E+00        -0.28861E+08
 
   -0.28851E+08         0.25575E+06         0.00000E+00
    0.25575E+06        -0.67433E+08         0.00000E+00
    0.00000E+00         0.00000E+00        -0.28885E+08
 
   -0.28876E+08         0.26194E+06         0.00000E+00
    0.26194E+06        -0.67491E+08         0.00000E+00
    0.00000E+00         0.00000E+00        -0.28910E+08
 
   -0.28901E+08         0.26813E+06         0.00000E+00
    0.26813E+06        -0.67550E+08         0.00000E+00
    0.00000E+00         0.00000E+00        -0.28935E+08
 
   -0.28927E+08         0.27433E+06         0.00000E+00
    0.27433E+06        -0.67610E+08         0.00000E+00
    0.00000E+00         0.00000E+00        -0.28961E+08
 
   -0.28953E+08         0.28055E+06         0.00000E+00
    0.28055E+06        -0.67672E+08         0.00000E+00
    0.00000E+00         0.00000E+00        -0.28987E+08
 
   -0.28979E+08         0.28678E+06         0.00000E+00
    0.28678E+06        -0.67734E+08         0.00000E+00
    0.00000E+00         0.00000E+00        -0.29014E+08
 
   -0.29006E+08         0.29305E+06         0.00000E+00
    0.29305E+06        -0.67798E+08         0.00000E+00
    0.00000E+00         0.00000E+00        -0.29041E+08
 
   -0.29034E+08         0.29935E+06         0.00000E+00
    0.29935E+06        -0.67864E+08         0.00000E+00
    0.00000E+00         0.00000E+00        -0.29069E+08
 
   -0.29062E+08         0.30567E+06         0.00000E+00
    0.30567E+06        -0.67930E+08         0.00000E+00
    0.00000E+00         0.00000E+00        -0.29098E+08
 
   -0.29091E+08         0.31204E+06         0.00000E+00
    0.31204E+06        -0.67999E+08         0.00000E+00
    0.00000E+00         0.00000E+00        -0.29127E+08
 
   -0.29120E+08         0.31843E+06         0.00000E+00
    0.31843E+06        -0.68068E+08         0.00000E+00
    0.00000E+00         0.00000E+00        -0.29157E+08
 
   -0.29150E+08         0.32486E+06         0.00000E+00
    0.32486E+06        -0.68139E+08         0.00000E+00
    0.00000E+00         0.00000E+00        -0.29187E+08
 
   -0.29181E+08         0.33132E+06         0.00000E+00
    0.33132E+06        -0.68212E+08         0.00000E+00
    0.00000E+00         0.00000E+00        -0.29218E+08
 
   -0.29213E+08         0.33781E+06         0.00000E+00
    0.33781E+06        -0.68286E+08         0.00000E+00
    0.00000E+00         0.00000E+00        -0.29250E+08
 
   -0.29245E+08         0.34433E+06         0.00000E+00
    0.34433E+06        -0.68362E+08         0.00000E+00
    0.00000E+00         0.00000E+00        -0.29282E+08
 
   -0.29278E+08         0.35087E+06         0.00000E+00
    0.35087E+06        -0.68440E+08         0.00000E+00
    0.00000E+00         0.00000E+00        -0.29315E+08
 
   -0.29312E+08         0.35742E+06         0.00000E+00
    0.35742E+06        -0.68519E+08         0.00000E+00
    0.00000E+00         0.00000E+00        -0.29349E+08
 
   -0.29346E+08         0.36398E+06         0.00000E+00
    0.36398E+06        -0.68600E+08         0.00000E+00
    0.00000E+00         0.00000E+00        -0.29384E+08
 
   -0.29381E+08         0.37055E+06         0.00000E+00
    0.37055E+06        -0.68683E+08         0.00000E+00
    0.00000E+00         0.00000E+00        -0.29419E+08
 
   -0.29418E+08         0.37712E+06         0.00000E+00
    0.37712E+06        -0.68767E+08         0.00000E+00
    0.00000E+00         0.00000E+00        -0.29455E+08
 
   -0.29455E+08         0.38367E+06         0.00000E+00
    0.38367E+06        -0.68854E+08         0.00000E+00
    0.00000E+00         0.00000E+00        -0.29492E+08
 
   -0.29492E+08         0.39019E+06         0.00000E+00
    0.39019E+06        -0.68942E+08         0.00000E+00
    0.00000E+00         0.00000E+00        -0.29530E+08
 
   -0.29531E+08         0.39668E+06         0.00000E+00
    0.39668E+06        -0.69032E+08         0.00000E+00
    0.00000E+00         0.00000E+00        -0.29569E+08
 
   -0.29571E+08         0.40313E+06         0.00000E+00
    0.40313E+06        -0.69124E+08         0.00000E+00
    0.00000E+00         0.00000E+00        -0.29608E+08
 
   -0.29611E+08         0.40952E+06         0.00000E+00
    0.40952E+06        -0.69218E+08         0.00000E+00
    0.00000E+00         0.00000E+00        -0.29649E+08
 
   -0.29653E+08         0.41583E+06         0.00000E+00
    0.41583E+06        -0.69314E+08         0.00000E+00
    0.00000E+00         0.00000E+00        -0.29690E+08
 
   -0.29696E+08         0.42205E+06         0.00000E+00
    0.42205E+06        -0.69412E+08         0.00000E+00
    0.00000E+00         0.00000E+00        -0.29732E+08
 
   -0.29739E+08         0.42817E+06         0.00000E+00
    0.42817E+06        -0.69512E+08         0.00000E+00
    0.00000E+00         0.00000E+00        -0.29775E+08
 
   -0.29784E+08         0.43416E+06         0.00000E+00
    0.43416E+06        -0.69614E+08         0.00000E+00
    0.00000E+00         0.00000E+00        -0.29819E+08
 
   -0.29829E+08         0.44001E+06         0.00000E+00
    0.44001E+06        -0.69717E+08         0.00000E+00
    0.00000E+00         0.00000E+00        -0.29864E+08
 
   -0.29876E+08         0.44569E+06         0.00000E+00
    0.44569E+06        -0.69823E+08         0.00000E+00
    0.00000E+00         0.00000E+00        -0.29910E+08
 
   -0.29923E+08         0.45118E+06         0.00000E+00
    0.45118E+06        -0.69932E+08         0.00000E+00
    0.00000E+00         0.00000E+00        -0.29957E+08
 
   -0.29972E+08         0.45646E+06         0.00000E+00
    0.45646E+06        -0.70042E+08         0.00000E+00
    0.00000E+00         0.00000E+00        -0.30004E+08
 
   -0.30022E+08         0.46150E+06         0.00000E+00
    0.46150E+06        -0.70154E+08         0.00000E+00
    0.00000E+00         0.00000E+00        -0.30053E+08
 
   -0.30073E+08         0.46628E+06         0.00000E+00
    0.46628E+06        -0.70268E+08         0.00000E+00
    0.00000E+00         0.00000E+00        -0.30102E+08
 
   -0.30125E+08         0.47075E+06         0.00000E+00
    0.47075E+06        -0.70385E+08         0.00000E+00
    0.00000E+00         0.00000E+00        -0.30153E+08
 
   -0.30179E+08         0.47488E+06         0.00000E+00
    0.47488E+06        -0.70504E+08         0.00000E+00
    0.00000E+00         0.00000E+00        -0.30205E+08
 
   -0.30233E+08         0.47865E+06         0.00000E+00
    0.47865E+06        -0.70624E+08         0.00000E+00
    0.00000E+00         0.00000E+00        -0.30257E+08
 
   -0.30289E+08         0.48201E+06         0.00000E+00
    0.48201E+06        -0.70747E+08         0.00000E+00
    0.00000E+00         0.00000E+00        -0.30311E+08
 
   -0.30346E+08         0.48492E+06         0.00000E+00
    0.48492E+06        -0.70872E+08         0.00000E+00
    0.00000E+00         0.00000E+00        -0.30365E+08
 
   -0.30404E+08         0.48733E+06         0.00000E+00
    0.48733E+06        -0.71000E+08         0.00000E+00
    0.00000E+00         0.00000E+00        -0.30421E+08
 
   -0.30463E+08         0.48919E+06         0.00000E+00
    0.48919E+06        -0.71129E+08         0.00000E+00
    0.00000E+00         0.00000E+00        -0.30478E+08
 
   -0.30524E+08         0.49046E+06         0.00000E+00
    0.49046E+06        -0.71261E+08         0.00000E+00
    0.00000E+00         0.00000E+00        -0.30536E+08
 
   -0.30587E+08         0.49107E+06         0.00000E+00
    0.49107E+06        -0.71395E+08         0.00000E+00
    0.00000E+00         0.00000E+00        -0.30594E+08
 
   -0.30650E+08         0.49096E+06         0.00000E+00
    0.49096E+06        -0.71531E+08         0.00000E+00
    0.00000E+00         0.00000E+00        -0.30654E+08
 
   -0.30715E+08         0.49006E+06         0.00000E+00
    0.49006E+06        -0.71669E+08         0.00000E+00
    0.00000E+00         0.00000E+00        -0.30715E+08
 
   -0.30781E+08         0.48831E+06         0.00000E+00
    0.48831E+06        -0.71809E+08         0.00000E+00
    0.00000E+00         0.00000E+00        -0.30777E+08
 
   -0.30849E+08         0.48563E+06         0.00000E+00
    0.48563E+06        -0.71951E+08         0.00000E+00
    0.00000E+00         0.00000E+00        -0.30840E+08
 
   -0.30919E+08         0.48194E+06         0.00000E+00
    0.48194E+06        -0.72096E+08         0.00000E+00
    0.00000E+00         0.00000E+00        -0.30904E+08
 
   -0.30989E+08         0.47716E+06         0.00000E+00
    0.47716E+06        -0.72243E+08         0.00000E+00
    0.00000E+00         0.00000E+00        -0.30970E+08
 
   -0.31062E+08         0.47120E+06         0.00000E+00
    0.47120E+06        -0.72392E+08         0.00000E+00
    0.00000E+00         0.00000E+00        -0.31036E+08
 
   -0.31136E+08         0.46396E+06         0.00000E+00
    0.46396E+06        -0.72544E+08         0.00000E+00
    0.00000E+00         0.00000E+00        -0.31104E+08
 
   -0.31211E+08         0.45536E+06         0.00000E+00
    0.45536E+06        -0.72697E+08         0.00000E+00
    0.00000E+00         0.00000E+00        -0.31172E+08
 
   -0.31288E+08         0.44530E+06         0.00000E+00
    0.44530E+06        -0.72853E+08         0.00000E+00
    0.00000E+00         0.00000E+00        -0.31242E+08
 
   -0.31366E+08         0.43370E+06         0.00000E+00
    0.43370E+06        -0.73011E+08         0.00000E+00
    0.00000E+00         0.00000E+00        -0.31313E+08
 
   -0.31446E+08         0.42045E+06         0.00000E+00
    0.42045E+06        -0.73171E+08         0.00000E+00
    0.00000E+00         0.00000E+00        -0.31385E+08
 
   -0.31527E+08         0.40550E+06         0.00000E+00
    0.40550E+06        -0.73333E+08         0.00000E+00
    0.00000E+00         0.00000E+00        -0.31458E+08
 
   -0.31609E+08         0.38875E+06         0.00000E+00
    0.38875E+06        -0.73497E+08         0.00000E+00
    0.00000E+00         0.00000E+00        -0.31532E+08
 
   -0.31693E+08         0.37016E+06         0.00000E+00
    0.37016E+06        -0.73663E+08         0.00000E+00
    0.00000E+00         0.00000E+00        -0.31607E+08
 
   -0.31777E+08         0.34969E+06         0.00000E+00
    0.34969E+06        -0.73829E+08         0.00000E+00
    0.00000E+00         0.00000E+00        -0.31682E+08
 
   -0.31862E+08         0.32732E+06         0.00000E+00
    0.32732E+06        -0.73997E+08         0.00000E+00
    0.00000E+00         0.00000E+00        -0.31758E+08
 
   -0.31948E+08         0.30305E+06         0.00000E+00
    0.30305E+06        -0.74164E+08         0.00000E+00
    0.00000E+00         0.00000E+00        -0.31834E+08
 
   -0.32035E+08         0.27691E+06         0.00000E+00
    0.27691E+06        -0.74331E+08         0.00000E+00
    0.00000E+00         0.00000E+00        -0.31910E+08
 
   -0.32123E+08         0.24894E+06         0.00000E+00
    0.24894E+06        -0.74495E+08         0.00000E+00
    0.00000E+00         0.00000E+00        -0.31985E+08
 
   -0.32212E+08         0.21919E+06         0.00000E+00
    0.21919E+06        -0.74654E+08         0.00000E+00
    0.00000E+00         0.00000E+00        -0.32060E+08
 
   -0.32303E+08         0.18772E+06         0.00000E+00
    0.18772E+06        -0.74808E+08         0.00000E+00
    0.00000E+00         0.00000E+00        -0.32133E+08
 
   -0.32398E+08         0.15457E+06         0.00000E+00
    0.15457E+06        -0.74952E+08         0.00000E+00
    0.00000E+00         0.00000E+00        -0.32205E+08
 
   -0.32499E+08         0.11986E+06         0.00000E+00
    0.11986E+06        -0.75083E+08         0.00000E+00
    0.00000E+00         0.00000E+00        -0.32274E+08
 
   -0.32609E+08         0.84184E+05         0.00000E+00
    0.84184E+05        -0.75199E+08         0.00000E+00
    0.00000E+00         0.00000E+00        -0.32342E+08
 
   -0.32735E+08         0.49066E+05         0.00000E+00
    0.49066E+05        -0.75297E+08         0.00000E+00
    0.00000E+00         0.00000E+00        -0.32409E+08
 
   -0.32877E+08         0.15949E+05         0.00000E+00
    0.15949E+05        -0.75379E+08         0.00000E+00
    0.00000E+00         0.00000E+00        -0.32477E+08
 
   -0.28167E+08         0.50903E+04         0.00000E+00
    0.50903E+04        -0.66132E+08         0.00000E+00
    0.00000E+00         0.00000E+00        -0.28290E+08
 
   -0.28203E+08         0.15595E+05         0.00000E+00
    0.15595E+05        -0.66152E+08         0.00000E+00
    0.00000E+00         0.00000E+00        -0.28307E+08
 
   -0.28234E+08         0.26714E+05         0.00000E+00
    0.26714E+05        -0.66177E+08         0.00000E+00
    0.00000E+00         0.00000E+00        -0.28323E+08
 
   -0.28262E+08         0.38201E+05         0.00000E+00
    0.38201E+05        -0.66207E+08         0.00000E+00
    0.00000E+00         0.00000E+00        -0.28341E+08
 
   -0.28288E+08         0.49700E+05         0.00000E+00
    0.49700E+05        -0.66240E+08         0.00000E+00
    0.00000E+00         0.00000E+00        -0.28358E+08
 
   -0.28311E+08         0.61020E+05         0.00000E+00
    0.61020E+05        -0.66277E+08         0.00000E+00
    0.00000E+00         0.00000E+00        -0.28376E+08
 
   -0.28334E+08         0.72084E+05         0.00000E+00
    0.72084E+05        -0.66316E+08         0.00000E+00
    0.00000E+00         0.00000E+00        -0.28395E+08
 
   -0.28357E+08         0.82853E+05         0.00000E+00
    0.82853E+05        -0.66357E+08         0.00000E+00
    0.00000E+00         0.00000E+00        -0.28414E+08
 
   -0.28379E+08         0.93296E+05         0.00000E+00
    0.93296E+05        -0.66399E+08         0.00000E+00
    0.00000E+00         0.00000E+00        -0.28433E+08
 
   -0.28400E+08         0.10339E+06         0.00000E+00
    0.10339E+06        -0.66443E+08         0.00000E+00
    0.00000E+00         0.00000E+00        -0.28453E+08
 
   -0.28422E+08         0.11313E+06         0.00000E+00
    0.11313E+06        -0.66488E+08         0.00000E+00
    0.00000E+00         0.00000E+00        -0.28473E+08
 
   -0.28444E+08         0.12250E+06         0.00000E+00
    0.12250E+06        -0.66533E+08         0.00000E+00
    0.00000E+00         0.00000E+00        -0.28493E+08
 
   -0.28466E+08         0.13152E+06         0.00000E+00
    0.13152E+06        -0.66578E+08         0.00000E+00
    0.00000E+00         0.00000E+00        -0.28513E+08
 
   -0.28488E+08         0.14018E+06         0.00000E+00
    0.14018E+06        -0.66624E+08         0.00000E+00
    0.00000E+00         0.00000E+00        -0.28534E+08
 
   -0.28509E+08         0.14851E+06         0.00000E+00
    0.14851E+06        -0.66670E+08         0.00000E+00
    0.00000E+00         0.00000E+00        -0.28554E+08
 
   -0.28531E+08         0.15653E+06         0.00000E+00
    0.15653E+06        -0.66717E+08         0.00000E+00
    0.00000E+00         0.00000E+00        -0.28574E+08
 
   -0.28553E+08         0.16426E+06         0.00000E+00
    0.16426E+06        -0.66764E+08         0.00000E+00
    0.00000E+00         0.00000E+00        -0.28595E+08
 
   -0.28575E+08         0.17172E+06         0.00000E+00
    0.17172E+06        -0.66812E+08         0.00000E+00
    0.00000E+00         0.00000E+00        -0.28616E+08
 
   -0.28597E+08         0.17894E+06         0.00000E+00
    0.17894E+06        -0.66860E+08         0.00000E+00
    0.00000E+00         0.00000E+00        -0.28637E+08
 
   -0.28619E+08         0.18594E+06         0.00000E+00
    0.18594E+06        -0.66908E+08         0.00000E+00
    0.00000E+00         0.00000E+00        -0.28658E+08
 
   -0.28641E+08         0.19276E+06         0.00000E+00
    0.19276E+06        -0.66957E+08         0.00000E+00
    0.00000E+00         0.00000E+00        -0.28679E+08
 
   -0.28663E+08         0.19941E+06         0.00000E+00
    0.19941E+06        -0.67007E+08         0.00000E+00
    0.00000E+00         0.00000E+00        -0.28701E+08
 
   -0.28685E+08         0.20592E+06         0.00000E+00
    0.20592E+06        -0.67058E+08         0.00000E+00
    0.00000E+00         0.00000E+00        -0.28723E+08
 
   -0.28708E+08         0.21231E+06         0.00000E+00
    0.21231E+06        -0.67109E+08         0.00000E+00
    0.00000E+00         0.00000E+00        -0.28745E+08
 
   -0.28730E+08         0.21860E+06         0.00000E+00
    0.21860E+06        -0.67161E+08         0.00000E+00
    0.00000E+00         0.00000E+00        -0.28767E+08
 
   -0.28753E+08         0.22482E+06         0.00000E+00
    0.22482E+06        -0.67214E+08         0.00000E+00
    0.00000E+00         0.00000E+00        -0.28790E+08
 
   -0.28776E+08         0.23097E+06         0.00000E+00
    0.23097E+06        -0.67267E+08         0.00000E+00
    0.00000E+00         0.00000E+00        -0.28813E+08
 
   -0.28800E+08         0.23707E+06         0.00000E+00
    0.23707E+06        -0.67322E+08         0.00000E+00
    0.00000E+00         0.00000E+00        -0.28837E+08
 
   -0.28824E+08         0.24314E+06         0.00000E+00
    0.24314E+06        -0.67378E+08         0.00000E+00
    0.00000E+00         0.00000E+00        -0.28860E+08
 
   -0.28848E+08         0.24919E+06         0.00000E+00
    0.24919E+06        -0.67434E+08         0.00000E+00
    0.00000E+00         0.00000E+00        -0.28885E+08
 
   -0.28873E+08         0.25523E+06         0.00000E+00
    0.25523E+06        -0.67492E+08         0.00000E+00
    0.00000E+00         0.00000E+00        -0.28909E+08
 
   -0.28898E+08         0.26127E+06         0.00000E+00
    0.26127E+06        -0.67551E+08         0.00000E+00
    0.00000E+00         0.00000E+00        -0.28935E+08
 
   -0.28923E+08         0.26732E+06         0.00000E+00
    0.26732E+06        -0.67611E+08         0.00000E+00
    0.00000E+00         0.00000E+00        -0.28960E+08
 
   -0.28949E+08         0.27338E+06         0.00000E+00
    0.27338E+06        -0.67673E+08         0.00000E+00
    0.00000E+00         0.00000E+00        -0.28987E+08
 
   -0.28976E+08         0.27946E+06         0.00000E+00
    0.27946E+06        -0.67736E+08         0.00000E+00
    0.00000E+00         0.00000E+00        -0.29013E+08
 
   -0.29003E+08         0.28557E+06         0.00000E+00
    0.28557E+06        -0.67800E+08         0.00000E+00
    0.00000E+00         0.00000E+00        -0.29041E+08
 
   -0.29030E+08         0.29170E+06         0.00000E+00
    0.29170E+06        -0.67865E+08         0.00000E+00
    0.00000E+00         0.00000E+00        -0.29069E+08
 
   -0.29058E+08         0.29787E+06         0.00000E+00
    0.29787E+06        -0.67932E+08         0.00000E+00
    0.00000E+00         0.00000E+00        -0.29097E+08
 
   -0.29087E+08         0.30406E+06         0.00000E+00
    0.30406E+06        -0.68000E+08         0.00000E+00
    0.00000E+00         0.00000E+00        -0.29126E+08
 
   -0.29117E+08         0.31029E+06         0.00000E+00
    0.31029E+06        -0.68069E+08         0.00000E+00
    0.00000E+00         0.00000E+00        -0.29156E+08
 
   -0.29147E+08         0.31655E+06         0.00000E+00
    0.31655E+06        -0.68141E+08         0.00000E+00
    0.00000E+00         0.00000E+00        -0.29186E+08
 
   -0.29177E+08         0.32284E+06         0.00000E+00
    0.32284E+06        -0.68213E+08         0.00000E+00
    0.00000E+00         0.00000E+00        -0.29217E+08
 
   -0.29209E+08         0.32915E+06         0.00000E+00
    0.32915E+06        -0.68288E+08         0.00000E+00
    0.00000E+00         0.00000E+00        -0.29249E+08
 
   -0.29241E+08         0.33549E+06         0.00000E+00
    0.33549E+06        -0.68364E+08         0.00000E+00
    0.00000E+00         0.00000E+00        -0.29281E+08
 
   -0.29274E+08         0.34185E+06         0.00000E+00
    0.34185E+06        -0.68441E+08         0.00000E+00
    0.00000E+00         0.00000E+00        -0.29315E+08
 
   -0.29308E+08         0.34822E+06         0.00000E+00
    0.34822E+06        -0.68520E+08         0.00000E+00
    0.00000E+00         0.00000E+00        -0.29348E+08
 
   -0.29342E+08         0.35460E+06         0.00000E+00
    0.35460E+06        -0.68601E+08         0.00000E+00
    0.00000E+00         0.00000E+00        -0.29383E+08
 
   -0.29378E+08         0.36099E+06         0.00000E+00
    0.36099E+06        -0.68684E+08         0.00000E+00
    0.00000E+00         0.00000E+00        -0.29418E+08
 
   -0.29414E+08         0.36737E+06         0.00000E+00
    0.36737E+06        -0.68769E+08         0.00000E+00
    0.00000E+00         0.00000E+00        -0.29455E+08
 
   -0.29451E+08         0.37373E+06         0.00000E+00
    0.37373E+06        -0.68855E+08         0.00000E+00
    0.00000E+00         0.00000E+00        -0.29492E+08
 
   -0.29489E+08         0.38007E+06         0.00000E+00
    0.38007E+06        -0.68943E+08         0.00000E+00
    0.00000E+00         0.00000E+00        -0.29530E+08
 
   -0.29527E+08         0.38637E+06         0.00000E+00
    0.38637E+06        -0.69033E+08         0.00000E+00
    0.00000E+00         0.00000E+00        -0.29568E+08
 
   -0.29567E+08         0.39263E+06         0.00000E+00
    0.39263E+06        -0.69125E+08         0.00000E+00
    0.00000E+00         0.00000E+00        -0.29608E+08
 
   -0.29608E+08         0.39883E+06         0.00000E+00
    0.39883E+06        -0.69219E+08         0.00000E+00
    0.00000E+00         0.00000E+00        -0.29648E+08
 
   -0.29649E+08         0.40495E+06         0.00000E+00
    0.40495E+06        -0.69315E+08         0.00000E+00
    0.00000E+00         0.00000E+00        -0.29689E+08
 
   -0.29692E+08         0.41098E+06         0.00000E+00
    0.41098E+06        -0.69413E+08         0.00000E+00
    0.00000E+00         0.00000E+00        -0.29731E+08
 
   -0.29735E+08         0.41691E+06         0.00000E+00
    0.41691E+06        -0.69513E+08         0.00000E+00
    0.00000E+00         0.00000E+00        -0.29774E+08
 
   -0.29780E+08         0.42272E+06         0.00000E+00
    0.42272E+06        -0.69615E+08         0.00000E+00
    0.00000E+00         0.00000E+00        -0.29818E+08
 
   -0.29826E+08         0.42838E+06         0.00000E+00
    0.42838E+06        -0.69719E+08         0.00000E+00
    0.00000E+00         0.00000E+00        -0.29863E+08
 
   -0.29872E+08         0.43388E+06         0.00000E+00
    0.43388E+06        -0.69825E+08         0.00000E+00
    0.00000E+00         0.00000E+00        -0.29909E+08
 
   -0.29920E+08         0.43920E+06         0.00000E+00
    0.43920E+06        -0.69933E+08         0.00000E+00
    0.00000E+00         0.00000E+00        -0.29956E+08
 
   -0.29969E+08         0.44430E+06         0.00000E+00
    0.44430E+06        -0.70043E+08         0.00000E+00
    0.00000E+00         0.00000E+00        -0.30004E+08
 
   -0.30019E+08         0.44917E+06         0.00000E+00
    0.44917E+06        -0.70155E+08         0.00000E+00
    0.00000E+00         0.00000E+00        -0.30052E+08
 
   -0.30070E+08         0.45377E+06         0.00000E+00
    0.45377E+06        -0.70269E+08         0.00000E+00
    0.00000E+00         0.00000E+00        -0.30102E+08
 
   -0.30122E+08         0.45807E+06         0.00000E+00
    0.45807E+06        -0.70386E+08         0.00000E+00
    0.00000E+00         0.00000E+00        -0.30152E+08
 
   -0.30176E+08         0.46205E+06         0.00000E+00
    0.46205E+06        -0.70504E+08         0.00000E+00
    0.00000E+00         0.00000E+00        -0.30204E+08
 
   -0.30231E+08         0.46566E+06         0.00000E+00
    0.46566E+06        -0.70625E+08         0.00000E+00
    0.00000E+00         0.00000E+00        -0.30257E+08
 
   -0.30286E+08         0.46888E+06         0.00000E+00
    0.46888E+06        -0.70748E+08         0.00000E+00
    0.00000E+00         0.00000E+00        -0.30310E+08
 
   -0.30344E+08         0.47164E+06         0.00000E+00
    0.47164E+06        -0.70873E+08         0.00000E+00
    0.00000E+00         0.00000E+00        -0.30365E+08
 
   -0.30402E+08         0.47392E+06         0.00000E+00
    0.47392E+06        -0.71000E+08         0.00000E+00
    0.00000E+00         0.00000E+00        -0.30421E+08
 
   -0.30462E+08         0.47566E+06         0.00000E+00
    0.47566E+06        -0.71130E+08         0.00000E+00
    0.00000E+00         0.00000E+00        -0.30477E+08
 
   -0.30523E+08         0.47681E+06         0.00000E+00
    0.47681E+06        -0.71261E+08         0.00000E+00
    0.00000E+00         0.00000E+00        -0.30535E+08
 
   -0.30586E+08         0.47732E+06         0.00000E+00
    0.47732E+06        -0.71395E+08         0.00000E+00
    0.00000E+00         0.00000E+00        -0.30594E+08
 
   -0.30649E+08         0.47712E+06         0.00000E+00
    0.47712E+06        -0.71530E+08         0.00000E+00
    0.00000E+00         0.00000E+00        -0.30654E+08
 
   -0.30715E+08         0.47614E+06         0.00000E+00
    0.47614E+06        -0.71668E+08         0.00000E+00
    0.00000E+00         0.00000E+00        -0.30715E+08
 
   -0.30782E+08         0.47433E+06         0.00000E+00
    0.47433E+06        -0.71809E+08         0.00000E+00
    0.00000E+00         0.00000E+00        -0.30777E+08
 
   -0.30850E+08         0.47160E+06         0.00000E+00
    0.47160E+06        -0.71951E+08         0.00000E+00
    0.00000E+00         0.00000E+00        -0.30840E+08
 
   -0.30920E+08         0.46787E+06         0.00000E+00
    0.46787E+06        -0.72095E+08         0.00000E+00
    0.00000E+00         0.00000E+00        -0.30905E+08
 
   -0.30991E+08         0.46305E+06         0.00000E+00
    0.46305E+06        -0.72242E+08         0.00000E+00
    0.00000E+00         0.00000E+00        -0.30970E+08
 
   -0.31064E+08         0.45707E+06         0.00000E+00
    0.45707E+06        -0.72391E+08         0.00000E+00
    0.00000E+00         0.00000E+00        -0.31036E+08
 
   -0.31139E+08         0.44983E+06         0.00000E+00
    0.44983E+06        -0.72542E+08         0.00000E+00
    0.00000E+00         0.00000E+00        -0.31104E+08
 
   -0.31215E+08         0.44123E+06         0.00000E+00
    0.44123E+06        -0.72695E+08         0.00000E+00
    0.00000E+00         0.00000E+00        -0.31173E+08
 
   -0.31292E+08         0.43118E+06         0.00000E+00
    0.43118E+06        -0.72851E+08         0.00000E+00
    0.00000E+00         0.00000E+00        -0.31243E+08
 
   -0.31371E+08         0.41959E+06         0.00000E+00
    0.41959E+06        -0.73008E+08         0.00000E+00
    0.00000E+00         0.00000E+00        -0.31314E+08
 
   -0.31452E+08         0.40636E+06         0.00000E+00
    0.40636E+06        -0.73168E+08         0.00000E+00
    0.00000E+00         0.00000E+00        -0.31386E+08
 
   -0.31534E+08         0.39141E+06         0.00000E+00
    0.39141E+06        -0.73330E+08         0.00000E+00
    0.00000E+00         0.00000E+00        -0.31459E+08
 
   -0.31617E+08         0.37467E+06         0.00000E+00
    0.37467E+06        -0.73494E+08         0.00000E+00
    0.00000E+00         0.00000E+00        -0.31533E+08
 
   -0.31702E+08         0.35607E+06         0.00000E+00
    0.35607E+06        -0.73659E+08         0.00000E+00
    0.00000E+00         0.00000E+00        -0.31608E+08
 
   -0.31787E+08         0.33558E+06         0.00000E+00
    0.33558E+06        -0.73825E+08         0.00000E+00
    0.00000E+00         0.00000E+00        -0.31684E+08
 
   -0.31874E+08         0.31319E+06         0.00000E+00
    0.31319E+06        -0.73992E+08         0.00000E+00
    0.00000E+00         0.00000E+00        -0.31760E+08
 
   -0.31961E+08         0.28890E+06         0.00000E+00
    0.28890E+06        -0.74159E+08         0.00000E+00
    0.00000E+00         0.00000E+00        -0.31836E+08
 
   -0.32049E+08         0.26276E+06         0.00000E+00
    0.26276E+06        -0.74325E+08         0.00000E+00
    0.00000E+00         0.00000E+00        -0.31912E+08
 
   -0.32139E+08         0.23487E+06         0.00000E+00
    0.23487E+06        -0.74489E+08         0.00000E+00
    0.00000E+00         0.00000E+00        -0.31988E+08
 
   -0.32229E+08         0.20534E+06         0.00000E+00
    0.20534E+06        -0.74648E+08         0.00000E+00
    0.00000E+00         0.00000E+00        -0.32063E+08
 
   -0.32323E+08         0.17434E+06         0.00000E+00
    0.17434E+06        -0.74801E+08         0.00000E+00
    0.00000E+00         0.00000E+00        -0.32137E+08
 
   -0.32420E+08         0.14207E+06         0.00000E+00
    0.14207E+06        -0.74945E+08         0.00000E+00
    0.00000E+00         0.00000E+00        -0.32209E+08
 
   -0.32523E+08         0.10888E+06         0.00000E+00
    0.10888E+06        -0.75076E+08         0.00000E+00
    0.00000E+00         0.00000E+00        -0.32280E+08
 
   -0.32637E+08         0.75586E+05         0.00000E+00
    0.75586E+05        -0.75192E+08         0.00000E+00
    0.00000E+00         0.00000E+00        -0.32349E+08
 
   -0.32764E+08         0.43652E+05         0.00000E+00
    0.43652E+05        -0.75291E+08         0.00000E+00
    0.00000E+00         0.00000E+00        -0.32416E+08
 
   -0.32908E+08         0.14122E+05         0.00000E+00
    0.14122E+05        -0.75373E+08         0.00000E+00
    0.00000E+00         0.00000E+00        -0.32485E+08
 
   -0.28158E+08         0.46399E+04         0.00000E+00
    0.46399E+04        -0.66134E+08         0.00000E+00
    0.00000E+00         0.00000E+00        -0.28287E+08
 
   -0.28194E+08         0.14257E+05         0.00000E+00
    0.14257E+05        -0.66155E+08         0.00000E+00
    0.00000E+00         0.00000E+00        -0.28305E+08
 
   -0.28226E+08         0.24570E+05         0.00000E+00
    0.24570E+05        -0.66180E+08         0.00000E+00
    0.00000E+00         0.00000E+00        -0.28322E+08
 
   -0.28254E+08         0.35421E+05         0.00000E+00
    0.35421E+05        -0.66209E+08         0.00000E+00
    0.00000E+00         0.00000E+00        -0.28339E+08
 
   -0.28280E+08         0.46477E+05         0.00000E+00
    0.46477E+05        -0.66242E+08         0.00000E+00
    0.00000E+00         0.00000E+00        -0.28357E+08
 
   -0.28305E+08         0.57505E+05         0.00000E+00
    0.57505E+05        -0.66279E+08         0.00000E+00
    0.00000E+00         0.00000E+00        -0.28375E+08
 
   -0.28328E+08         0.68377E+05         0.00000E+00
    0.68377E+05        -0.66318E+08         0.00000E+00
    0.00000E+00         0.00000E+00        -0.28394E+08
 
   -0.28351E+08         0.79012E+05         0.00000E+00
    0.79012E+05        -0.66359E+08         0.00000E+00
    0.00000E+00         0.00000E+00        -0.28413E+08
 
   -0.28373E+08         0.89353E+05         0.00000E+00
    0.89353E+05        -0.66402E+08         0.00000E+00
    0.00000E+00         0.00000E+00        -0.28432E+08
 
   -0.28395E+08         0.99362E+05         0.00000E+00
    0.99362E+05        -0.66445E+08         0.00000E+00
    0.00000E+00         0.00000E+00        -0.28452E+08
 
   -0.28417E+08         0.10901E+06         0.00000E+00
    0.10901E+06        -0.66490E+08         0.00000E+00
    0.00000E+00         0.00000E+00        -0.28472E+08
 
   -0.28439E+08         0.11830E+06         0.00000E+00
    0.11830E+06        -0.66534E+08         0.00000E+00
    0.00000E+00         0.00000E+00        -0.28492E+08
 
   -0.28461E+08         0.12722E+06         0.00000E+00
    0.12722E+06        -0.66580E+08         0.00000E+00
    0.00000E+00         0.00000E+00        -0.28512E+08
 
   -0.28483E+08         0.13578E+06         0.00000E+00
    0.13578E+06        -0.66626E+08         0.00000E+00
    0.00000E+00         0.00000E+00        -0.28533E+08
 
   -0.28505E+08         0.14400E+06         0.00000E+00
    0.14400E+06        -0.66672E+08         0.00000E+00
    0.00000E+00         0.00000E+00        -0.28553E+08
 
   -0.28527E+08         0.15191E+06         0.00000E+00
    0.15191E+06        -0.66719E+08         0.00000E+00
    0.00000E+00         0.00000E+00        -0.28574E+08
 
   -0.28549E+08         0.15951E+06         0.00000E+00
    0.15951E+06        -0.66766E+08         0.00000E+00
    0.00000E+00         0.00000E+00        -0.28594E+08
 
   -0.28571E+08         0.16685E+06         0.00000E+00
    0.16685E+06        -0.66813E+08         0.00000E+00
    0.00000E+00         0.00000E+00        -0.28615E+08
 
   -0.28593E+08         0.17394E+06         0.00000E+00
    0.17394E+06        -0.66861E+08         0.00000E+00
    0.00000E+00         0.00000E+00        -0.28636E+08
 
   -0.28615E+08         0.18081E+06         0.00000E+00
    0.18081E+06        -0.66910E+08         0.00000E+00
    0.00000E+00         0.00000E+00        -0.28657E+08
 
   -0.28637E+08         0.18749E+06         0.00000E+00
    0.18749E+06        -0.66959E+08         0.00000E+00
    0.00000E+00         0.00000E+00        -0.28679E+08
 
   -0.28659E+08         0.19400E+06         0.00000E+00
    0.19400E+06        -0.67008E+08         0.00000E+00
    0.00000E+00         0.00000E+00        -0.28700E+08
 
   -0.28682E+08         0.20038E+06         0.00000E+00
    0.20038E+06        -0.67059E+08         0.00000E+00
    0.00000E+00         0.00000E+00        -0.28722E+08
 
   -0.28704E+08         0.20663E+06         0.00000E+00
    0.20663E+06        -0.67110E+08         0.00000E+00
    0.00000E+00         0.00000E+00        -0.28744E+08
 
   -0.28727E+08         0.21278E+06         0.00000E+00
    0.21278E+06        -0.67162E+08         0.00000E+00
    0.00000E+00         0.00000E+00        -0.28767E+08
 
   -0.28750E+08         0.21885E+06         0.00000E+00
    0.21885E+06        -0.67215E+08         0.00000E+00
    0.00000E+00         0.00000E+00        -0.28789E+08
 
   -0.28773E+08         0.22485E+06         0.00000E+00
    0.22485E+06        -0.67268E+08         0.00000E+00
    0.00000E+00         0.00000E+00        -0.28812E+08
 
   -0.28797E+08         0.23081E+06         0.00000E+00
    0.23081E+06        -0.67323E+08         0.00000E+00
    0.00000E+00         0.00000E+00        -0.28836E+08
 
   -0.28820E+08         0.23674E+06         0.00000E+00
    0.23674E+06        -0.67379E+08         0.00000E+00
    0.00000E+00         0.00000E+00        -0.28860E+08
 
   -0.28845E+08         0.24264E+06         0.00000E+00
    0.24264E+06        -0.67436E+08         0.00000E+00
    0.00000E+00         0.00000E+00        -0.28884E+08
 
   -0.28869E+08         0.24853E+06         0.00000E+00
    0.24853E+06        -0.67493E+08         0.00000E+00
    0.00000E+00         0.00000E+00        -0.28909E+08
 
   -0.28894E+08         0.25441E+06         0.00000E+00
    0.25441E+06        -0.67552E+08         0.00000E+00
    0.00000E+00         0.00000E+00        -0.28934E+08
 
   -0.28920E+08         0.26031E+06         0.00000E+00
    0.26031E+06        -0.67613E+08         0.00000E+00
    0.00000E+00         0.00000E+00        -0.28960E+08
 
   -0.28946E+08         0.26621E+06         0.00000E+00
    0.26621E+06        -0.67674E+08         0.00000E+00
    0.00000E+00         0.00000E+00        -0.28986E+08
 
   -0.28972E+08         0.27214E+06         0.00000E+00
    0.27214E+06        -0.67737E+08         0.00000E+00
    0.00000E+00         0.00000E+00        -0.29013E+08
 
   -0.28999E+08         0.27808E+06         0.00000E+00
    0.27808E+06        -0.67801E+08         0.00000E+00
    0.00000E+00         0.00000E+00        -0.29040E+08
 
   -0.29027E+08         0.28405E+06         0.00000E+00
    0.28405E+06        -0.67866E+08         0.00000E+00
    0.00000E+00         0.00000E+00        -0.29068E+08
 
   -0.29055E+08         0.29005E+06         0.00000E+00
    0.29005E+06        -0.67933E+08         0.00000E+00
    0.00000E+00         0.00000E+00        -0.29096E+08
 
   -0.29084E+08         0.29608E+06         0.00000E+00
    0.29608E+06        -0.68001E+08         0.00000E+00
    0.00000E+00         0.00000E+00        -0.29125E+08
 
   -0.29113E+08         0.30214E+06         0.00000E+00
    0.30214E+06        -0.68071E+08         0.00000E+00
    0.00000E+00         0.00000E+00        -0.29155E+08
 
   -0.29143E+08         0.30823E+06         0.00000E+00
    0.30823E+06        -0.68142E+08         0.00000E+00
    0.00000E+00         0.00000E+00        -0.29185E+08
 
   -0.29174E+08         0.31434E+06         0.00000E+00
    0.31434E+06        -0.68215E+08         0.00000E+00
    0.00000E+00         0.00000E+00        -0.29216E+08
 
   -0.29205E+08         0.32048E+06         0.00000E+00
    0.32048E+06        -0.68289E+08         0.00000E+00
    0.00000E+00         0.00000E+00        -0.29248E+08
 
   -0.29237E+08         0.32665E+06         0.00000E+00
    0.32665E+06        -0.68365E+08         0.00000E+00
    0.00000E+00         0.00000E+00        -0.29281E+08
 
   -0.29270E+08         0.33283E+06         0.00000E+00
    0.33283E+06        -0.68442E+08         0.00000E+00
    0.00000E+00         0.00000E+00        -0.29314E+08
 
   -0.29304E+08         0.33902E+06         0.00000E+00
    0.33902E+06        -0.68522E+08         0.00000E+00
    0.00000E+00         0.00000E+00        -0.29348E+08
 
   -0.29338E+08         0.34522E+06         0.00000E+00
    0.34522E+06        -0.68603E+08         0.00000E+00
    0.00000E+00         0.00000E+00        -0.29382E+08
 
   -0.29374E+08         0.35142E+06         0.00000E+00
    0.35142E+06        -0.68685E+08         0.00000E+00
    0.00000E+00         0.00000E+00        -0.29418E+08
 
   -0.29410E+08         0.35761E+06         0.00000E+00
    0.35761E+06        -0.68770E+08         0.00000E+00
    0.00000E+00         0.00000E+00        -0.29454E+08
 
   -0.29447E+08         0.36379E+06         0.00000E+00
    0.36379E+06        -0.68856E+08         0.00000E+00
    0.00000E+00         0.00000E+00        -0.29491E+08
 
   -0.29485E+08         0.36995E+06         0.00000E+00
    0.36995E+06        -0.68944E+08         0.00000E+00
    0.00000E+00         0.00000E+00        -0.29529E+08
 
   -0.29524E+08         0.37606E+06         0.00000E+00
    0.37606E+06        -0.69035E+08         0.00000E+00
    0.00000E+00         0.00000E+00        -0.29567E+08
 
   -0.29563E+08         0.38213E+06         0.00000E+00
    0.38213E+06        -0.69127E+08         0.00000E+00
    0.00000E+00         0.00000E+00        -0.29607E+08
 
   -0.29604E+08         0.38814E+06         0.00000E+00
    0.38814E+06        -0.69220E+08         0.00000E+00
    0.00000E+00         0.00000E+00        -0.29647E+08
 
   -0.29646E+08         0.39408E+06         0.00000E+00
    0.39408E+06        -0.69316E+08         0.00000E+00
    0.00000E+00         0.00000E+00        -0.29689E+08
 
   -0.29688E+08         0.39993E+06         0.00000E+00
    0.39993E+06        -0.69414E+08         0.00000E+00
    0.00000E+00         0.00000E+00        -0.29731E+08
 
   -0.29732E+08         0.40567E+06         0.00000E+00
    0.40567E+06        -0.69514E+08         0.00000E+00
    0.00000E+00         0.00000E+00        -0.29774E+08
 
   -0.29776E+08         0.41129E+06         0.00000E+00
    0.41129E+06        -0.69616E+08         0.00000E+00
    0.00000E+00         0.00000E+00        -0.29818E+08
 
   -0.29822E+08         0.41677E+06         0.00000E+00
    0.41677E+06        -0.69720E+08         0.00000E+00
    0.00000E+00         0.00000E+00        -0.29863E+08
 
   -0.29869E+08         0.42209E+06         0.00000E+00
    0.42209E+06        -0.69826E+08         0.00000E+00
    0.00000E+00         0.00000E+00        -0.29908E+08
 
   -0.29917E+08         0.42723E+06         0.00000E+00
    0.42723E+06        -0.69934E+08         0.00000E+00
    0.00000E+00         0.00000E+00        -0.29955E+08
 
   -0.29966E+08         0.43216E+06         0.00000E+00
    0.43216E+06        -0.70044E+08         0.00000E+00
    0.00000E+00         0.00000E+00        -0.30003E+08
 
   -0.30016E+08         0.43685E+06         0.00000E+00
    0.43685E+06        -0.70156E+08         0.00000E+00
    0.00000E+00         0.00000E+00        -0.30052E+08
 
   -0.30067E+08         0.44129E+06         0.00000E+00
    0.44129E+06        -0.70270E+08         0.00000E+00
    0.00000E+00         0.00000E+00        -0.30101E+08
 
   -0.30119E+08         0.44543E+06         0.00000E+00
    0.44543E+06        -0.70387E+08         0.00000E+00
    0.00000E+00         0.00000E+00        -0.30152E+08
 
   -0.30173E+08         0.44925E+06         0.00000E+00
    0.44925E+06        -0.70505E+08         0.00000E+00
    0.00000E+00         0.00000E+00        -0.30203E+08
 
   -0.30228E+08         0.45272E+06         0.00000E+00
    0.45272E+06        -0.70626E+08         0.00000E+00
    0.00000E+00         0.00000E+00        -0.30256E+08
 
   -0.30284E+08         0.45578E+06         0.00000E+00
    0.45578E+06        -0.70749E+08         0.00000E+00
    0.00000E+00         0.00000E+00        -0.30310E+08
 
   -0.30342E+08         0.45841E+06         0.00000E+00
    0.45841E+06        -0.70874E+08         0.00000E+00
    0.00000E+00         0.00000E+00        -0.30365E+08
 
   -0.30400E+08         0.46057E+06         0.00000E+00
    0.46057E+06        -0.71001E+08         0.00000E+00
    0.00000E+00         0.00000E+00        -0.30420E+08
 
   -0.30460E+08         0.46219E+06         0.00000E+00
    0.46219E+06        -0.71130E+08         0.00000E+00
    0.00000E+00         0.00000E+00        -0.30477E+08
 
   -0.30522E+08         0.46323E+06         0.00000E+00
    0.46323E+06        -0.71261E+08         0.00000E+00
    0.00000E+00         0.00000E+00        -0.30535E+08
 
   -0.30585E+08         0.46364E+06         0.00000E+00
    0.46364E+06        -0.71395E+08         0.00000E+00
    0.00000E+00         0.00000E+00        -0.30594E+08
 
   -0.30649E+08         0.46335E+06         0.00000E+00
    0.46335E+06        -0.71530E+08         0.00000E+00
    0.00000E+00         0.00000E+00        -0.30654E+08
 
   -0.30715E+08         0.46231E+06         0.00000E+00
    0.46231E+06        -0.71668E+08         0.00000E+00
    0.00000E+00         0.00000E+00        -0.30715E+08
 
   -0.30782E+08         0.46043E+06         0.00000E+00
    0.46043E+06        -0.71808E+08         0.00000E+00
    0.00000E+00         0.00000E+00        -0.30777E+08
 
   -0.30851E+08         0.45765E+06         0.00000E+00
    0.45765E+06        -0.71950E+08         0.00000E+00
    0.00000E+00         0.00000E+00        -0.30840E+08
 
   -0.30921E+08         0.45389E+06         0.00000E+00
    0.45389E+06        -0.72094E+08         0.00000E+00
    0.00000E+00         0.00000E+00        -0.30905E+08
 
   -0.30993E+08         0.44906E+06         0.00000E+00
    0.44906E+06        -0.72241E+08         0.00000E+00
    0.00000E+00         0.00000E+00        -0.30970E+08
 
   -0.31066E+08         0.44307E+06         0.00000E+00
    0.44307E+06        -0.72390E+08         0.00000E+00
    0.00000E+00         0.00000E+00        -0.31037E+08
 
   -0.31141E+08         0.43583E+06         0.00000E+00
    0.43583E+06        -0.72540E+08         0.00000E+00
    0.00000E+00         0.00000E+00        -0.31105E+08
 
   -0.31218E+08         0.42725E+06         0.00000E+00
    0.42725E+06        -0.72693E+08         0.00000E+00
    0.00000E+00         0.00000E+00        -0.31174E+08
 
   -0.31297E+08         0.41722E+06         0.00000E+00
    0.41722E+06        -0.72849E+08         0.00000E+00
    0.00000E+00         0.00000E+00        -0.31244E+08
 
   -0.31376E+08         0.40565E+06         0.00000E+00
    0.40565E+06        -0.73006E+08         0.00000E+00
    0.00000E+00         0.00000E+00        -0.31315E+08
 
   -0.31458E+08         0.39244E+06         0.00000E+00
    0.39244E+06        -0.73165E+08         0.00000E+00
    0.00000E+00         0.00000E+00        -0.31387E+08
 
   -0.31541E+08         0.37752E+06         0.00000E+00
    0.37752E+06        -0.73327E+08         0.00000E+00
    0.00000E+00         0.00000E+00        -0.31460E+08
 
   -0.31625E+08         0.36079E+06         0.00000E+00
    0.36079E+06        -0.73490E+08         0.00000E+00
    0.00000E+00         0.00000E+00        -0.31535E+08
 
   -0.31711E+08         0.34220E+06         0.00000E+00
    0.34220E+06        -0.73655E+08         0.00000E+00
    0.00000E+00         0.00000E+00        -0.31610E+08
 
   -0.31797E+08         0.32171E+06         0.00000E+00
    0.32171E+06        -0.73821E+08         0.00000E+00
    0.00000E+00         0.00000E+00        -0.31685E+08
 
   -0.31885E+08         0.29931E+06         0.00000E+00
    0.29931E+06        -0.73988E+08         0.00000E+00
    0.00000E+00         0.00000E+00        -0.31762E+08
 
   -0.31974E+08         0.27503E+06         0.00000E+00
    0.27503E+06        -0.74154E+08         0.00000E+00
    0.00000E+00         0.00000E+00        -0.31838E+08
 
   -0.32064E+08         0.24893E+06         0.00000E+00
    0.24893E+06        -0.74320E+08         0.00000E+00
    0.00000E+00         0.00000E+00        -0.31915E+08
 
   -0.32155E+08         0.22115E+06         0.00000E+00
    0.22115E+06        -0.74483E+08         0.00000E+00
    0.00000E+00         0.00000E+00        -0.31991E+08
 
   -0.32247E+08         0.19189E+06         0.00000E+00
    0.19189E+06        -0.74642E+08         0.00000E+00
    0.00000E+00         0.00000E+00        -0.32067E+08
 
   -0.32342E+08         0.16140E+06         0.00000E+00
    0.16140E+06        -0.74795E+08         0.00000E+00
    0.00000E+00         0.00000E+00        -0.32141E+08
 
   -0.32442E+08         0.13007E+06         0.00000E+00
    0.13007E+06        -0.74938E+08         0.00000E+00
    0.00000E+00         0.00000E+00        -0.32214E+08
 
   -0.32548E+08         0.98430E+05         0.00000E+00
    0.98430E+05        -0.75070E+08         0.00000E+00
    0.00000E+00         0.00000E+00        -0.32285E+08
 
   -0.32664E+08         0.67475E+05         0.00000E+00
    0.67475E+05        -0.75186E+08         0.00000E+00
    0.00000E+00         0.00000E+00        -0.32355E+08
 
   -0.32793E+08         0.38575E+05         0.00000E+00
    0.38575E+05        -0.75285E+08         0.00000E+00
    0.00000E+00         0.00000E+00        -0.32423E+08
 
   -0.32938E+08         0.12410E+05         0.00000E+00
    0.12410E+05        -0.75368E+08         0.00000E+00
    0.00000E+00         0.00000E+00        -0.32492E+08
 
   -0.28149E+08         0.42129E+04         0.00000E+00
    0.42129E+04        -0.66135E+08         0.00000E+00
    0.00000E+00         0.00000E+00        -0.28285E+08
 
   -0.28185E+08         0.12987E+05         0.00000E+00
    0.12987E+05        -0.66156E+08         0.00000E+00
    0.00000E+00         0.00000E+00        -0.28303E+08
 
   -0.28218E+08         0.22528E+05         0.00000E+00
    0.22528E+05        -0.66182E+08         0.00000E+00
    0.00000E+00         0.00000E+00        -0.28320E+08
 
   -0.28247E+08         0.32754E+05         0.00000E+00
    0.32754E+05        -0.66211E+08         0.00000E+00
    0.00000E+00         0.00000E+00        -0.28337E+08
 
   -0.28273E+08         0.43362E+05         0.00000E+00
    0.43362E+05        -0.66244E+08         0.00000E+00
    0.00000E+00         0.00000E+00        -0.28355E+08
 
   -0.28298E+08         0.54087E+05         0.00000E+00
    0.54087E+05        -0.66281E+08         0.00000E+00
    0.00000E+00         0.00000E+00        -0.28374E+08
 
   -0.28322E+08         0.64755E+05         0.00000E+00
    0.64755E+05        -0.66320E+08         0.00000E+00
    0.00000E+00         0.00000E+00        -0.28393E+08
 
   -0.28345E+08         0.75245E+05         0.00000E+00
    0.75245E+05        -0.66361E+08         0.00000E+00
    0.00000E+00         0.00000E+00        -0.28412E+08
 
   -0.28368E+08         0.85475E+05         0.00000E+00
    0.85475E+05        -0.66404E+08         0.00000E+00
    0.00000E+00         0.00000E+00        -0.28431E+08
 
   -0.28390E+08         0.95388E+05         0.00000E+00
    0.95388E+05        -0.66447E+08         0.00000E+00
    0.00000E+00         0.00000E+00        -0.28451E+08
 
   -0.28413E+08         0.10495E+06         0.00000E+00
    0.10495E+06        -0.66491E+08         0.00000E+00
    0.00000E+00         0.00000E+00        -0.28471E+08
 
   -0.28435E+08         0.11414E+06         0.00000E+00
    0.11414E+06        -0.66536E+08         0.00000E+00
    0.00000E+00         0.00000E+00        -0.28491E+08
 
   -0.28457E+08         0.12296E+06         0.00000E+00
    0.12296E+06        -0.66582E+08         0.00000E+00
    0.00000E+00         0.00000E+00        -0.28512E+08
 
   -0.28479E+08         0.13142E+06         0.00000E+00
    0.13142E+06        -0.66627E+08         0.00000E+00
    0.00000E+00         0.00000E+00        -0.28532E+08
 
   -0.28501E+08         0.13952E+06         0.00000E+00
    0.13952E+06        -0.66674E+08         0.00000E+00
    0.00000E+00         0.00000E+00        -0.28552E+08
 
   -0.28523E+08         0.14731E+06         0.00000E+00
    0.14731E+06        -0.66720E+08         0.00000E+00
    0.00000E+00         0.00000E+00        -0.28573E+08
 
   -0.28545E+08         0.15479E+06         0.00000E+00
    0.15479E+06        -0.66767E+08         0.00000E+00
    0.00000E+00         0.00000E+00        -0.28594E+08
 
   -0.28567E+08         0.16199E+06         0.00000E+00
    0.16199E+06        -0.66815E+08         0.00000E+00
    0.00000E+00         0.00000E+00        -0.28615E+08
 
   -0.28589E+08         0.16895E+06         0.00000E+00
    0.16895E+06        -0.66862E+08         0.00000E+00
    0.00000E+00         0.00000E+00        -0.28636E+08
 
   -0.28612E+08         0.17569E+06         0.00000E+00
    0.17569E+06        -0.66911E+08         0.00000E+00
    0.00000E+00         0.00000E+00        -0.28657E+08
 
   -0.28634E+08         0.18223E+06         0.00000E+00
    0.18223E+06        -0.66960E+08         0.00000E+00
    0.00000E+00         0.00000E+00        -0.28678E+08
 
   -0.28656E+08         0.18861E+06         0.00000E+00
    0.18861E+06        -0.67010E+08         0.00000E+00
    0.00000E+00         0.00000E+00        -0.28700E+08
 
   -0.28678E+08         0.19484E+06         0.00000E+00
    0.19484E+06        -0.67060E+08         0.00000E+00
    0.00000E+00         0.00000E+00        -0.28722E+08
 
   -0.28701E+08         0.20095E+06         0.00000E+00
    0.20095E+06        -0.67111E+08         0.00000E+00
    0.00000E+00         0.00000E+00        -0.28744E+08
 
   -0.28724E+08         0.20695E+06         0.00000E+00
    0.20695E+06        -0.67163E+08         0.00000E+00
    0.00000E+00         0.00000E+00        -0.28766E+08
 
   -0.28747E+08         0.21288E+06         0.00000E+00
    0.21288E+06        -0.67216E+08         0.00000E+00
    0.00000E+00         0.00000E+00        -0.28789E+08
 
   -0.28770E+08         0.21874E+06         0.00000E+00
    0.21874E+06        -0.67270E+08         0.00000E+00
    0.00000E+00         0.00000E+00        -0.28812E+08
 
   -0.28793E+08         0.22455E+06         0.00000E+00
    0.22455E+06        -0.67324E+08         0.00000E+00
    0.00000E+00         0.00000E+00        -0.28835E+08
 
   -0.28817E+08         0.23033E+06         0.00000E+00
    0.23033E+06        -0.67380E+08         0.00000E+00
    0.00000E+00         0.00000E+00        -0.28859E+08
 
   -0.28841E+08         0.23608E+06         0.00000E+00
    0.23608E+06        -0.67437E+08         0.00000E+00
    0.00000E+00         0.00000E+00        -0.28883E+08
 
   -0.28866E+08         0.24181E+06         0.00000E+00
    0.24181E+06        -0.67495E+08         0.00000E+00
    0.00000E+00         0.00000E+00        -0.28908E+08
 
   -0.28891E+08         0.24755E+06         0.00000E+00
    0.24755E+06        -0.67554E+08         0.00000E+00
    0.00000E+00         0.00000E+00        -0.28933E+08
 
   -0.28916E+08         0.25329E+06         0.00000E+00
    0.25329E+06        -0.67614E+08         0.00000E+00
    0.00000E+00         0.00000E+00        -0.28959E+08
 
   -0.28942E+08         0.25904E+06         0.00000E+00
    0.25904E+06        -0.67675E+08         0.00000E+00
    0.00000E+00         0.00000E+00        -0.28985E+08
 
   -0.28969E+08         0.26480E+06         0.00000E+00
    0.26480E+06        -0.67738E+08         0.00000E+00
    0.00000E+00         0.00000E+00        -0.29012E+08
 
   -0.28996E+08         0.27059E+06         0.00000E+00
    0.27059E+06        -0.67802E+08         0.00000E+00
    0.00000E+00         0.00000E+00        -0.29039E+08
 
   -0.29023E+08         0.27640E+06         0.00000E+00
    0.27640E+06        -0.67867E+08         0.00000E+00
    0.00000E+00         0.00000E+00        -0.29067E+08
 
   -0.29051E+08         0.28223E+06         0.00000E+00
    0.28223E+06        -0.67934E+08         0.00000E+00
    0.00000E+00         0.00000E+00        -0.29096E+08
 
   -0.29080E+08         0.28809E+06         0.00000E+00
    0.28809E+06        -0.68002E+08         0.00000E+00
    0.00000E+00         0.00000E+00        -0.29125E+08
 
   -0.29109E+08         0.29398E+06         0.00000E+00
    0.29398E+06        -0.68072E+08         0.00000E+00
    0.00000E+00         0.00000E+00        -0.29154E+08
 
   -0.29139E+08         0.29990E+06         0.00000E+00
    0.29990E+06        -0.68143E+08         0.00000E+00
    0.00000E+00         0.00000E+00        -0.29185E+08
 
   -0.29170E+08         0.30584E+06         0.00000E+00
    0.30584E+06        -0.68216E+08         0.00000E+00
    0.00000E+00         0.00000E+00        -0.29216E+08
 
   -0.29201E+08         0.31181E+06         0.00000E+00
    0.31181E+06        -0.68290E+08         0.00000E+00
    0.00000E+00         0.00000E+00        -0.29247E+08
 
   -0.29234E+08         0.31780E+06         0.00000E+00
    0.31780E+06        -0.68366E+08         0.00000E+00
    0.00000E+00         0.00000E+00        -0.29280E+08
 
   -0.29266E+08         0.32380E+06         0.00000E+00
    0.32380E+06        -0.68444E+08         0.00000E+00
    0.00000E+00         0.00000E+00        -0.29313E+08
 
   -0.29300E+08         0.32981E+06         0.00000E+00
    0.32981E+06        -0.68523E+08         0.00000E+00
    0.00000E+00         0.00000E+00        -0.29347E+08
 
   -0.29335E+08         0.33583E+06         0.00000E+00
    0.33583E+06        -0.68604E+08         0.00000E+00
    0.00000E+00         0.00000E+00        -0.29382E+08
 
   -0.29370E+08         0.34185E+06         0.00000E+00
    0.34185E+06        -0.68687E+08         0.00000E+00
    0.00000E+00         0.00000E+00        -0.29417E+08
 
   -0.29406E+08         0.34786E+06         0.00000E+00
    0.34786E+06        -0.68771E+08         0.00000E+00
    0.00000E+00         0.00000E+00        -0.29453E+08
 
   -0.29443E+08         0.35386E+06         0.00000E+00
    0.35386E+06        -0.68857E+08         0.00000E+00
    0.00000E+00         0.00000E+00        -0.29490E+08
 
   -0.29481E+08         0.35982E+06         0.00000E+00
    0.35982E+06        -0.68946E+08         0.00000E+00
    0.00000E+00         0.00000E+00        -0.29528E+08
 
   -0.29520E+08         0.36576E+06         0.00000E+00
    0.36576E+06        -0.69036E+08         0.00000E+00
    0.00000E+00         0.00000E+00        -0.29567E+08
 
   -0.29559E+08         0.37164E+06         0.00000E+00
    0.37164E+06        -0.69128E+08         0.00000E+00
    0.00000E+00         0.00000E+00        -0.29606E+08
 
   -0.29600E+08         0.37746E+06         0.00000E+00
    0.37746E+06        -0.69222E+08         0.00000E+00
    0.00000E+00         0.00000E+00        -0.29647E+08
 
   -0.29642E+08         0.38322E+06         0.00000E+00
    0.38322E+06        -0.69317E+08         0.00000E+00
    0.00000E+00         0.00000E+00        -0.29688E+08
 
   -0.29684E+08         0.38888E+06         0.00000E+00
    0.38888E+06        -0.69415E+08         0.00000E+00
    0.00000E+00         0.00000E+00        -0.29730E+08
 
   -0.29728E+08         0.39444E+06         0.00000E+00
    0.39444E+06        -0.69515E+08         0.00000E+00
    0.00000E+00         0.00000E+00        -0.29773E+08
 
   -0.29773E+08         0.39988E+06         0.00000E+00
    0.39988E+06        -0.69617E+08         0.00000E+00
    0.00000E+00         0.00000E+00        -0.29817E+08
 
   -0.29819E+08         0.40518E+06         0.00000E+00
    0.40518E+06        -0.69721E+08         0.00000E+00
    0.00000E+00         0.00000E+00        -0.29862E+08
 
   -0.29865E+08         0.41032E+06         0.00000E+00
    0.41032E+06        -0.69827E+08         0.00000E+00
    0.00000E+00         0.00000E+00        -0.29908E+08
 
   -0.29913E+08         0.41528E+06         0.00000E+00
    0.41528E+06        -0.69935E+08         0.00000E+00
    0.00000E+00         0.00000E+00        -0.29954E+08
 
   -0.29962E+08         0.42004E+06         0.00000E+00
    0.42004E+06        -0.70045E+08         0.00000E+00
    0.00000E+00         0.00000E+00        -0.30002E+08
 
   -0.30013E+08         0.42456E+06         0.00000E+00
    0.42456E+06        -0.70157E+08         0.00000E+00
    0.00000E+00         0.00000E+00        -0.30051E+08
 
   -0.30064E+08         0.42883E+06         0.00000E+00
    0.42883E+06        -0.70271E+08         0.00000E+00
    0.00000E+00         0.00000E+00        -0.30101E+08
 
   -0.30117E+08         0.43282E+06         0.00000E+00
    0.43282E+06        -0.70387E+08         0.00000E+00
    0.00000E+00         0.00000E+00        -0.30151E+08
 
   -0.30170E+08         0.43649E+06         0.00000E+00
    0.43649E+06        -0.70506E+08         0.00000E+00
    0.00000E+00         0.00000E+00        -0.30203E+08
 
   -0.30226E+08         0.43980E+06         0.00000E+00
    0.43980E+06        -0.70626E+08         0.00000E+00
    0.00000E+00         0.00000E+00        -0.30256E+08
 
   -0.30282E+08         0.44273E+06         0.00000E+00
    0.44273E+06        -0.70749E+08         0.00000E+00
    0.00000E+00         0.00000E+00        -0.30309E+08
 
   -0.30339E+08         0.44523E+06         0.00000E+00
    0.44523E+06        -0.70874E+08         0.00000E+00
    0.00000E+00         0.00000E+00        -0.30364E+08
 
   -0.30398E+08         0.44726E+06         0.00000E+00
    0.44726E+06        -0.71001E+08         0.00000E+00
    0.00000E+00         0.00000E+00        -0.30420E+08
 
   -0.30459E+08         0.44877E+06         0.00000E+00
    0.44877E+06        -0.71130E+08         0.00000E+00
    0.00000E+00         0.00000E+00        -0.30477E+08
 
   -0.30520E+08         0.44971E+06         0.00000E+00
    0.44971E+06        -0.71261E+08         0.00000E+00
    0.00000E+00         0.00000E+00        -0.30535E+08
 
   -0.30584E+08         0.45003E+06         0.00000E+00
    0.45003E+06        -0.71395E+08         0.00000E+00
    0.00000E+00         0.00000E+00        -0.30593E+08
 
   -0.30648E+08         0.44967E+06         0.00000E+00
    0.44967E+06        -0.71530E+08         0.00000E+00
    0.00000E+00         0.00000E+00        -0.30654E+08
 
   -0.30714E+08         0.44855E+06         0.00000E+00
    0.44855E+06        -0.71668E+08         0.00000E+00
    0.00000E+00         0.00000E+00        -0.30715E+08
 
   -0.30782E+08         0.44663E+06         0.00000E+00
    0.44663E+06        -0.71808E+08         0.00000E+00
    0.00000E+00         0.00000E+00        -0.30777E+08
 
   -0.30851E+08         0.44381E+06         0.00000E+00
    0.44381E+06        -0.71950E+08         0.00000E+00
    0.00000E+00         0.00000E+00        -0.30840E+08
 
   -0.30922E+08         0.44002E+06         0.00000E+00
    0.44002E+06        -0.72094E+08         0.00000E+00
    0.00000E+00         0.00000E+00        -0.30905E+08
 
   -0.30994E+08         0.43518E+06         0.00000E+00
    0.43518E+06        -0.72240E+08         0.00000E+00
    0.00000E+00         0.00000E+00        -0.30970E+08
 
   -0.31069E+08         0.42919E+06         0.00000E+00
    0.42919E+06        -0.72388E+08         0.00000E+00
    0.00000E+00         0.00000E+00        -0.31037E+08
 
   -0.31144E+08         0.42196E+06         0.00000E+00
    0.42196E+06        -0.72539E+08         0.00000E+00
    0.00000E+00         0.00000E+00        -0.31105E+08
 
   -0.31222E+08         0.41340E+06         0.00000E+00
    0.41340E+06        -0.72692E+08         0.00000E+00
    0.00000E+00         0.00000E+00        -0.31174E+08
 
   -0.31301E+08         0.40341E+06         0.00000E+00
    0.40341E+06        -0.72847E+08         0.00000E+00
    0.00000E+00         0.00000E+00        -0.31244E+08
 
   -0.31382E+08         0.39187E+06         0.00000E+00
    0.39187E+06        -0.73004E+08         0.00000E+00
    0.00000E+00         0.00000E+00        -0.31316E+08
 
   -0.31464E+08         0.37871E+06         0.00000E+00
    0.37871E+06        -0.73163E+08         0.00000E+00
    0.00000E+00         0.00000E+00        -0.31388E+08
 
   -0.31548E+08         0.36382E+06         0.00000E+00
    0.36382E+06        -0.73324E+08         0.00000E+00
    0.00000E+00         0.00000E+00        -0.31461E+08
 
   -0.31633E+08         0.34712E+06         0.00000E+00
    0.34712E+06        -0.73487E+08         0.00000E+00
    0.00000E+00         0.00000E+00        -0.31536E+08
 
   -0.31720E+08         0.32856E+06         0.00000E+00
    0.32856E+06        -0.73651E+08         0.00000E+00
    0.00000E+00         0.00000E+00        -0.31611E+08
 
   -0.31807E+08         0.30809E+06         0.00000E+00
    0.30809E+06        -0.73817E+08         0.00000E+00
    0.00000E+00         0.00000E+00        -0.31687E+08
 
   -0.31897E+08         0.28570E+06         0.00000E+00
    0.28570E+06        -0.73983E+08         0.00000E+00
    0.00000E+00         0.00000E+00        -0.31764E+08
 
   -0.31987E+08         0.26145E+06         0.00000E+00
    0.26145E+06        -0.74149E+08         0.00000E+00
    0.00000E+00         0.00000E+00        -0.31841E+08
 
   -0.32078E+08         0.23542E+06         0.00000E+00
    0.23542E+06        -0.74315E+08         0.00000E+00
    0.00000E+00         0.00000E+00        -0.31918E+08
 
   -0.32171E+08         0.20778E+06         0.00000E+00
    0.20778E+06        -0.74477E+08         0.00000E+00
    0.00000E+00         0.00000E+00        -0.31994E+08
 
   -0.32265E+08         0.17882E+06         0.00000E+00
    0.17882E+06        -0.74636E+08         0.00000E+00
    0.00000E+00         0.00000E+00        -0.32070E+08
 
   -0.32362E+08         0.14889E+06         0.00000E+00
    0.14889E+06        -0.74789E+08         0.00000E+00
    0.00000E+00         0.00000E+00        -0.32145E+08
 
   -0.32464E+08         0.11853E+06         0.00000E+00
    0.11853E+06        -0.74932E+08         0.00000E+00
    0.00000E+00         0.00000E+00        -0.32219E+08
 
   -0.32572E+08         0.88460E+05         0.00000E+00
    0.88460E+05        -0.75064E+08         0.00000E+00
    0.00000E+00         0.00000E+00        -0.32291E+08
 
   -0.32690E+08         0.59793E+05         0.00000E+00
    0.59793E+05        -0.75180E+08         0.00000E+00
    0.00000E+00         0.00000E+00        -0.32361E+08
 
   -0.32822E+08         0.33784E+05         0.00000E+00
    0.33784E+05        -0.75280E+08         0.00000E+00
    0.00000E+00         0.00000E+00        -0.32430E+08
 
   -0.32968E+08         0.10797E+05         0.00000E+00
    0.10797E+05        -0.75363E+08         0.00000E+00
    0.00000E+00         0.00000E+00        -0.32499E+08
 
   -0.28140E+08         0.38054E+04         0.00000E+00
    0.38054E+04        -0.66137E+08         0.00000E+00
    0.00000E+00         0.00000E+00        -0.28283E+08
 
   -0.28177E+08         0.11776E+05         0.00000E+00
    0.11776E+05        -0.66158E+08         0.00000E+00
    0.00000E+00         0.00000E+00        -0.28300E+08
 
   -0.28210E+08         0.20575E+05         0.00000E+00
    0.20575E+05        -0.66184E+08         0.00000E+00
    0.00000E+00         0.00000E+00        -0.28318E+08
 
   -0.28239E+08         0.30191E+05         0.00000E+00
    0.30191E+05        -0.66213E+08         0.00000E+00
    0.00000E+00         0.00000E+00        -0.28336E+08
 
   -0.28266E+08         0.40350E+05         0.00000E+00
    0.40350E+05        -0.66246E+08         0.00000E+00
    0.00000E+00         0.00000E+00        -0.28354E+08
 
   -0.28291E+08         0.50765E+05         0.00000E+00
    0.50765E+05        -0.66283E+08         0.00000E+00
    0.00000E+00         0.00000E+00        -0.28372E+08
 
   -0.28316E+08         0.61218E+05         0.00000E+00
    0.61218E+05        -0.66322E+08         0.00000E+00
    0.00000E+00         0.00000E+00        -0.28391E+08
 
   -0.28339E+08         0.71555E+05         0.00000E+00
    0.71555E+05        -0.66363E+08         0.00000E+00
    0.00000E+00         0.00000E+00        -0.28411E+08
 
   -0.28362E+08         0.81665E+05         0.00000E+00
    0.81665E+05        -0.66406E+08         0.00000E+00
    0.00000E+00         0.00000E+00        -0.28430E+08
 
   -0.28385E+08         0.91474E+05         0.00000E+00
    0.91474E+05        -0.66449E+08         0.00000E+00
    0.00000E+00         0.00000E+00        -0.28450E+08
 
   -0.28408E+08         0.10093E+06         0.00000E+00
    0.10093E+06        -0.66493E+08         0.00000E+00
    0.00000E+00         0.00000E+00        -0.28470E+08
 
   -0.28430E+08         0.11003E+06         0.00000E+00
    0.11003E+06        -0.66538E+08         0.00000E+00
    0.00000E+00         0.00000E+00        -0.28490E+08
 
   -0.28453E+08         0.11874E+06         0.00000E+00
    0.11874E+06        -0.66583E+08         0.00000E+00
    0.00000E+00         0.00000E+00        -0.28511E+08
 
   -0.28475E+08         0.12709E+06         0.00000E+00
    0.12709E+06        -0.66629E+08         0.00000E+00
    0.00000E+00         0.00000E+00        -0.28531E+08
 
   -0.28497E+08         0.13508E+06         0.00000E+00
    0.13508E+06        -0.66675E+08         0.00000E+00
    0.00000E+00         0.00000E+00        -0.28552E+08
 
   -0.28519E+08         0.14274E+06         0.00000E+00
    0.14274E+06        -0.66722E+08         0.00000E+00
    0.00000E+00         0.00000E+00        -0.28572E+08
 
   -0.28542E+08         0.15009E+06         0.00000E+00
    0.15009E+06        -0.66769E+08         0.00000E+00
    0.00000E+00         0.00000E+00        -0.28593E+08
 
   -0.28564E+08         0.15716E+06         0.00000E+00
    0.15716E+06        -0.66816E+08         0.00000E+00
    0.00000E+00         0.00000E+00        -0.28614E+08
 
   -0.28586E+08         0.16398E+06         0.00000E+00
    0.16398E+06        -0.66864E+08         0.00000E+00
    0.00000E+00         0.00000E+00        -0.28635E+08
 
   -0.28608E+08         0.17058E+06         0.00000E+00
    0.17058E+06        -0.66912E+08         0.00000E+00
    0.00000E+00         0.00000E+00        -0.28656E+08
 
   -0.28630E+08         0.17699E+06         0.00000E+00
    0.17699E+06        -0.66961E+08         0.00000E+00
    0.00000E+00         0.00000E+00        -0.28677E+08
 
   -0.28653E+08         0.18322E+06         0.00000E+00
    0.18322E+06        -0.67011E+08         0.00000E+00
    0.00000E+00         0.00000E+00        -0.28699E+08
 
   -0.28675E+08         0.18931E+06         0.00000E+00
    0.18931E+06        -0.67061E+08         0.00000E+00
    0.00000E+00         0.00000E+00        -0.28721E+08
 
   -0.28698E+08         0.19527E+06         0.00000E+00
    0.19527E+06        -0.67112E+08         0.00000E+00
    0.00000E+00         0.00000E+00        -0.28743E+08
 
   -0.28720E+08         0.20113E+06         0.00000E+00
    0.20113E+06        -0.67164E+08         0.00000E+00
    0.00000E+00         0.00000E+00        -0.28765E+08
 
   -0.28743E+08         0.20691E+06         0.00000E+00
    0.20691E+06        -0.67217E+08         0.00000E+00
    0.00000E+00         0.00000E+00        -0.28788E+08
 
   -0.28767E+08         0.21263E+06         0.00000E+00
    0.21263E+06        -0.67271E+08         0.00000E+00
    0.00000E+00         0.00000E+00        -0.28811E+08
 
   -0.28790E+08         0.21829E+06         0.00000E+00
    0.21829E+06        -0.67325E+08         0.00000E+00
    0.00000E+00         0.00000E+00        -0.28835E+08
 
   -0.28814E+08         0.22391E+06         0.00000E+00
    0.22391E+06        -0.67381E+08         0.00000E+00
    0.00000E+00         0.00000E+00        -0.28859E+08
 
   -0.28838E+08         0.22951E+06         0.00000E+00
    0.22951E+06        -0.67438E+08         0.00000E+00
    0.00000E+00         0.00000E+00        -0.28883E+08
 
   -0.28863E+08         0.23510E+06         0.00000E+00
    0.23510E+06        -0.67496E+08         0.00000E+00
    0.00000E+00         0.00000E+00        -0.28908E+08
 
   -0.28888E+08         0.24068E+06         0.00000E+00
    0.24068E+06        -0.67555E+08         0.00000E+00
    0.00000E+00         0.00000E+00        -0.28933E+08
 
   -0.28913E+08         0.24626E+06         0.00000E+00
    0.24626E+06        -0.67615E+08         0.00000E+00
    0.00000E+00         0.00000E+00        -0.28958E+08
 
   -0.28939E+08         0.25186E+06         0.00000E+00
    0.25186E+06        -0.67676E+08         0.00000E+00
    0.00000E+00         0.00000E+00        -0.28985E+08
 
   -0.28965E+08         0.25746E+06         0.00000E+00
    0.25746E+06        -0.67739E+08         0.00000E+00
    0.00000E+00         0.00000E+00        -0.29011E+08
 
   -0.28992E+08         0.26309E+06         0.00000E+00
    0.26309E+06        -0.67803E+08         0.00000E+00
    0.00000E+00         0.00000E+00        -0.29039E+08
 
   -0.29020E+08         0.26873E+06         0.00000E+00
    0.26873E+06        -0.67868E+08         0.00000E+00
    0.00000E+00         0.00000E+00        -0.29066E+08
 
   -0.29048E+08         0.27441E+06         0.00000E+00
    0.27441E+06        -0.67935E+08         0.00000E+00
    0.00000E+00         0.00000E+00        -0.29095E+08
 
   -0.29076E+08         0.28010E+06         0.00000E+00
    0.28010E+06        -0.68003E+08         0.00000E+00
    0.00000E+00         0.00000E+00        -0.29124E+08
 
   -0.29106E+08         0.28582E+06         0.00000E+00
    0.28582E+06        -0.68073E+08         0.00000E+00
    0.00000E+00         0.00000E+00        -0.29154E+08
 
   -0.29136E+08         0.29157E+06         0.00000E+00
    0.29157E+06        -0.68144E+08         0.00000E+00
    0.00000E+00         0.00000E+00        -0.29184E+08
 
   -0.29166E+08         0.29734E+06         0.00000E+00
    0.29734E+06        -0.68217E+08         0.00000E+00
    0.00000E+00         0.00000E+00        -0.29215E+08
 
   -0.29198E+08         0.30313E+06         0.00000E+00
    0.30313E+06        -0.68291E+08         0.00000E+00
    0.00000E+00         0.00000E+00        -0.29247E+08
 
   -0.29230E+08         0.30894E+06         0.00000E+00
    0.30894E+06        -0.68367E+08         0.00000E+00
    0.00000E+00         0.00000E+00        -0.29279E+08
 
   -0.29263E+08         0.31477E+06         0.00000E+00
    0.31477E+06        -0.68445E+08         0.00000E+00
    0.00000E+00         0.00000E+00        -0.29312E+08
 
   -0.29296E+08         0.32060E+06         0.00000E+00
    0.32060E+06        -0.68524E+08         0.00000E+00
    0.00000E+00         0.00000E+00        -0.29346E+08
 
   -0.29331E+08         0.32644E+06         0.00000E+00
    0.32644E+06        -0.68605E+08         0.00000E+00
    0.00000E+00         0.00000E+00        -0.29381E+08
 
   -0.29366E+08         0.33228E+06         0.00000E+00
    0.33228E+06        -0.68688E+08         0.00000E+00
    0.00000E+00         0.00000E+00        -0.29416E+08
 
   -0.29402E+08         0.33811E+06         0.00000E+00
    0.33811E+06        -0.68772E+08         0.00000E+00
    0.00000E+00         0.00000E+00        -0.29452E+08
 
   -0.29439E+08         0.34392E+06         0.00000E+00
    0.34392E+06        -0.68859E+08         0.00000E+00
    0.00000E+00         0.00000E+00        -0.29489E+08
 
   -0.29477E+08         0.34970E+06         0.00000E+00
    0.34970E+06        -0.68947E+08         0.00000E+00
    0.00000E+00         0.00000E+00        -0.29527E+08
 
   -0.29516E+08         0.35545E+06         0.00000E+00
    0.35545E+06        -0.69037E+08         0.00000E+00
    0.00000E+00         0.00000E+00        -0.29566E+08
 
   -0.29556E+08         0.36115E+06         0.00000E+00
    0.36115E+06        -0.69129E+08         0.00000E+00
    0.00000E+00         0.00000E+00        -0.29605E+08
 
   -0.29596E+08         0.36679E+06         0.00000E+00
    0.36679E+06        -0.69223E+08         0.00000E+00
    0.00000E+00         0.00000E+00        -0.29646E+08
 
   -0.29638E+08         0.37236E+06         0.00000E+00
    0.37236E+06        -0.69319E+08         0.00000E+00
    0.00000E+00         0.00000E+00        -0.29687E+08
 
   -0.29681E+08         0.37784E+06         0.00000E+00
    0.37784E+06        -0.69416E+08         0.00000E+00
    0.00000E+00         0.00000E+00        -0.29729E+08
 
   -0.29725E+08         0.38322E+06         0.00000E+00
    0.38322E+06        -0.69516E+08         0.00000E+00
    0.00000E+00         0.00000E+00        -0.29772E+08
 
   -0.29769E+08         0.38848E+06         0.00000E+00
    0.38848E+06        -0.69618E+08         0.00000E+00
    0.00000E+00         0.00000E+00        -0.29816E+08
 
   -0.29815E+08         0.39360E+06         0.00000E+00
    0.39360E+06        -0.69722E+08         0.00000E+00
    0.00000E+00         0.00000E+00        -0.29861E+08
 
   -0.29862E+08         0.39856E+06         0.00000E+00
    0.39856E+06        -0.69828E+08         0.00000E+00
    0.00000E+00         0.00000E+00        -0.29907E+08
 
   -0.29910E+08         0.40335E+06         0.00000E+00
    0.40335E+06        -0.69936E+08         0.00000E+00
    0.00000E+00         0.00000E+00        -0.29954E+08
 
   -0.29959E+08         0.40794E+06         0.00000E+00
    0.40794E+06        -0.70046E+08         0.00000E+00
    0.00000E+00         0.00000E+00        -0.30001E+08
 
   -0.30010E+08         0.41230E+06         0.00000E+00
    0.41230E+06        -0.70158E+08         0.00000E+00
    0.00000E+00         0.00000E+00        -0.30050E+08
 
   -0.30061E+08         0.41641E+06         0.00000E+00
    0.41641E+06        -0.70272E+08         0.00000E+00
    0.00000E+00         0.00000E+00        -0.30100E+08
 
   -0.30114E+08         0.42024E+06         0.00000E+00
    0.42024E+06        -0.70388E+08         0.00000E+00
    0.00000E+00         0.00000E+00        -0.30151E+08
 
   -0.30168E+08         0.42376E+06         0.00000E+00
    0.42376E+06        -0.70507E+08         0.00000E+00
    0.00000E+00         0.00000E+00        -0.30202E+08
 
   -0.30223E+08         0.42693E+06         0.00000E+00
    0.42693E+06        -0.70627E+08         0.00000E+00
    0.00000E+00         0.00000E+00        -0.30255E+08
 
   -0.30280E+08         0.42972E+06         0.00000E+00
    0.42972E+06        -0.70750E+08         0.00000E+00
    0.00000E+00         0.00000E+00        -0.30309E+08
 
   -0.30337E+08         0.43210E+06         0.00000E+00
    0.43210E+06        -0.70874E+08         0.00000E+00
    0.00000E+00         0.00000E+00        -0.30364E+08
 
   -0.30397E+08         0.43401E+06         0.00000E+00
    0.43401E+06        -0.71001E+08         0.00000E+00
    0.00000E+00         0.00000E+00        -0.30419E+08
 
   -0.30457E+08         0.43541E+06         0.00000E+00
    0.43541E+06        -0.71130E+08         0.00000E+00
    0.00000E+00         0.00000E+00        -0.30476E+08
 
   -0.30519E+08         0.43625E+06         0.00000E+00
    0.43625E+06        -0.71261E+08         0.00000E+00
    0.00000E+00         0.00000E+00        -0.30534E+08
 
   -0.30583E+08         0.43649E+06         0.00000E+00
    0.43649E+06        -0.71395E+08         0.00000E+00
    0.00000E+00         0.00000E+00        -0.30593E+08
 
   -0.30648E+08         0.43605E+06         0.00000E+00
    0.43605E+06        -0.71530E+08         0.00000E+00
    0.00000E+00         0.00000E+00        -0.30653E+08
 
   -0.30714E+08         0.43488E+06         0.00000E+00
    0.43488E+06        -0.71668E+08         0.00000E+00
    0.00000E+00         0.00000E+00        -0.30714E+08
 
   -0.30782E+08         0.43290E+06         0.00000E+00
    0.43290E+06        -0.71807E+08         0.00000E+00
    0.00000E+00         0.00000E+00        -0.30777E+08
 
   -0.30852E+08         0.43005E+06         0.00000E+00
    0.43005E+06        -0.71949E+08         0.00000E+00
    0.00000E+00         0.00000E+00        -0.30840E+08
 
   -0.30923E+08         0.42625E+06         0.00000E+00
    0.42625E+06        -0.72093E+08         0.00000E+00
    0.00000E+00         0.00000E+00        -0.30905E+08
 
   -0.30996E+08         0.42140E+06         0.00000E+00
    0.42140E+06        -0.72239E+08         0.00000E+00
    0.00000E+00         0.00000E+00        -0.30970E+08
 
   -0.31071E+08         0.41543E+06         0.00000E+00
    0.41543E+06        -0.72387E+08         0.00000E+00
    0.00000E+00         0.00000E+00        -0.31037E+08
 
   -0.31147E+08         0.40823E+06         0.00000E+00
    0.40823E+06        -0.72537E+08         0.00000E+00
    0.00000E+00         0.00000E+00        -0.31105E+08
 
   -0.31225E+08         0.39970E+06         0.00000E+00
    0.39970E+06        -0.72690E+08         0.00000E+00
    0.00000E+00         0.00000E+00        -0.31174E+08
 
   -0.31305E+08         0.38974E+06         0.00000E+00
    0.38974E+06        -0.72844E+08         0.00000E+00
    0.00000E+00         0.00000E+00        -0.31245E+08
 
   -0.31387E+08         0.37826E+06         0.00000E+00
    0.37826E+06        -0.73001E+08         0.00000E+00
    0.00000E+00         0.00000E+00        -0.31316E+08
 
   -0.31470E+08         0.36515E+06         0.00000E+00
    0.36515E+06        -0.73160E+08         0.00000E+00
    0.00000E+00         0.00000E+00        -0.31389E+08
 
   -0.31554E+08         0.35031E+06         0.00000E+00
    0.35031E+06        -0.73321E+08         0.00000E+00
    0.00000E+00         0.00000E+00        -0.31462E+08
 
   -0.31641E+08         0.33366E+06         0.00000E+00
    0.33366E+06        -0.73483E+08         0.00000E+00
    0.00000E+00         0.00000E+00        -0.31537E+08
 
   -0.31729E+08         0.31514E+06         0.00000E+00
    0.31514E+06        -0.73647E+08         0.00000E+00
    0.00000E+00         0.00000E+00        -0.31613E+08
 
   -0.31818E+08         0.29471E+06         0.00000E+00
    0.29471E+06        -0.73812E+08         0.00000E+00
    0.00000E+00         0.00000E+00        -0.31689E+08
 
   -0.31908E+08         0.27237E+06         0.00000E+00
    0.27237E+06        -0.73978E+08         0.00000E+00
    0.00000E+00         0.00000E+00        -0.31766E+08
 
   -0.32000E+08         0.24816E+06         0.00000E+00
    0.24816E+06        -0.74144E+08         0.00000E+00
    0.00000E+00         0.00000E+00        -0.31843E+08
 
   -0.32092E+08         0.22223E+06         0.00000E+00
    0.22223E+06        -0.74309E+08         0.00000E+00
    0.00000E+00         0.00000E+00        -0.31920E+08
 
   -0.32187E+08         0.19477E+06         0.00000E+00
    0.19477E+06        -0.74472E+08         0.00000E+00
    0.00000E+00         0.00000E+00        -0.31998E+08
 
   -0.32283E+08         0.16614E+06         0.00000E+00
    0.16614E+06        -0.74630E+08         0.00000E+00
    0.00000E+00         0.00000E+00        -0.32074E+08
 
   -0.32382E+08         0.13681E+06         0.00000E+00
    0.13681E+06        -0.74783E+08         0.00000E+00
    0.00000E+00         0.00000E+00        -0.32150E+08
 
   -0.32486E+08         0.10743E+06         0.00000E+00
    0.10743E+06        -0.74926E+08         0.00000E+00
    0.00000E+00         0.00000E+00        -0.32224E+08
 
   -0.32597E+08         0.78932E+05         0.00000E+00
    0.78932E+05        -0.75058E+08         0.00000E+00
    0.00000E+00         0.00000E+00        -0.32296E+08
 
   -0.32717E+08         0.52488E+05         0.00000E+00
    0.52488E+05        -0.75175E+08         0.00000E+00
    0.00000E+00         0.00000E+00        -0.32367E+08
 
   -0.32849E+08         0.29239E+05         0.00000E+00
    0.29239E+05        -0.75275E+08         0.00000E+00
    0.00000E+00         0.00000E+00        -0.32437E+08
 
   -0.32996E+08         0.92661E+04         0.00000E+00
    0.92661E+04        -0.75359E+08         0.00000E+00
    0.00000E+00         0.00000E+00        -0.32507E+08
 
   -0.28132E+08         0.34144E+04         0.00000E+00
    0.34144E+04        -0.66138E+08         0.00000E+00
    0.00000E+00         0.00000E+00        -0.28281E+08
 
   -0.28168E+08         0.10615E+05         0.00000E+00
    0.10615E+05        -0.66160E+08         0.00000E+00
    0.00000E+00         0.00000E+00        -0.28298E+08
 
   -0.28202E+08         0.18701E+05         0.00000E+00
    0.18701E+05        -0.66185E+08         0.00000E+00
    0.00000E+00         0.00000E+00        -0.28316E+08
 
   -0.28231E+08         0.27723E+05         0.00000E+00
    0.27723E+05        -0.66215E+08         0.00000E+00
    0.00000E+00         0.00000E+00        -0.28334E+08
 
   -0.28259E+08         0.37436E+05         0.00000E+00
    0.37436E+05        -0.66248E+08         0.00000E+00
    0.00000E+00         0.00000E+00        -0.28352E+08
 
   -0.28285E+08         0.47535E+05         0.00000E+00
    0.47535E+05        -0.66285E+08         0.00000E+00
    0.00000E+00         0.00000E+00        -0.28371E+08
 
   -0.28309E+08         0.57767E+05         0.00000E+00
    0.57767E+05        -0.66324E+08         0.00000E+00
    0.00000E+00         0.00000E+00        -0.28390E+08
 
   -0.28333E+08         0.67942E+05         0.00000E+00
    0.67942E+05        -0.66365E+08         0.00000E+00
    0.00000E+00         0.00000E+00        -0.28410E+08
 
   -0.28357E+08         0.77924E+05         0.00000E+00
    0.77924E+05        -0.66408E+08         0.00000E+00
    0.00000E+00         0.00000E+00        -0.28429E+08
 
   -0.28380E+08         0.87620E+05         0.00000E+00
    0.87620E+05        -0.66451E+08         0.00000E+00
    0.00000E+00         0.00000E+00        -0.28449E+08
 
   -0.28403E+08         0.96975E+05         0.00000E+00
    0.96975E+05        -0.66495E+08         0.00000E+00
    0.00000E+00         0.00000E+00        -0.28469E+08
 
   -0.28426E+08         0.10596E+06         0.00000E+00
    0.10596E+06        -0.66540E+08         0.00000E+00
    0.00000E+00         0.00000E+00        -0.28490E+08
 
   -0.28448E+08         0.11456E+06         0.00000E+00
    0.11456E+06        -0.66585E+08         0.00000E+00
    0.00000E+00         0.00000E+00        -0.28510E+08
 
   -0.28471E+08         0.12279E+06         0.00000E+00
    0.12279E+06        -0.66631E+08         0.00000E+00
    0.00000E+00         0.00000E+00        -0.28530E+08
 
   -0.28493E+08         0.13066E+06         0.00000E+00
    0.13066E+06        -0.66677E+08         0.00000E+00
    0.00000E+00         0.00000E+00        -0.28551E+08
 
   -0.28516E+08         0.13819E+06         0.00000E+00
    0.13819E+06        -0.66723E+08         0.00000E+00
    0.00000E+00         0.00000E+00        -0.28572E+08
 
   -0.28538E+08         0.14541E+06         0.00000E+00
    0.14541E+06        -0.66770E+08         0.00000E+00
    0.00000E+00         0.00000E+00        -0.28592E+08
 
   -0.28560E+08         0.15235E+06         0.00000E+00
    0.15235E+06        -0.66817E+08         0.00000E+00
    0.00000E+00         0.00000E+00        -0.28613E+08
 
   -0.28582E+08         0.15903E+06         0.00000E+00
    0.15903E+06        -0.66865E+08         0.00000E+00
    0.00000E+00         0.00000E+00        -0.28634E+08
 
   -0.28605E+08         0.16549E+06         0.00000E+00
    0.16549E+06        -0.66914E+08         0.00000E+00
    0.00000E+00         0.00000E+00        -0.28655E+08
 
   -0.28627E+08         0.17175E+06         0.00000E+00
    0.17175E+06        -0.66962E+08         0.00000E+00
    0.00000E+00         0.00000E+00        -0.28677E+08
 
   -0.28649E+08         0.17784E+06         0.00000E+00
    0.17784E+06        -0.67012E+08         0.00000E+00
    0.00000E+00         0.00000E+00        -0.28698E+08
 
   -0.28672E+08         0.18378E+06         0.00000E+00
    0.18378E+06        -0.67062E+08         0.00000E+00
    0.00000E+00         0.00000E+00        -0.28720E+08
 
   -0.28694E+08         0.18960E+06         0.00000E+00
    0.18960E+06        -0.67114E+08         0.00000E+00
    0.00000E+00         0.00000E+00        -0.28742E+08
 
   -0.28717E+08         0.19532E+06         0.00000E+00
    0.19532E+06        -0.67165E+08         0.00000E+00
    0.00000E+00         0.00000E+00        -0.28765E+08
 
   -0.28740E+08         0.20095E+06         0.00000E+00
    0.20095E+06        -0.67218E+08         0.00000E+00
    0.00000E+00         0.00000E+00        -0.28787E+08
 
   -0.28763E+08         0.20651E+06         0.00000E+00
    0.20651E+06        -0.67272E+08         0.00000E+00
    0.00000E+00         0.00000E+00        -0.28811E+08
 
   -0.28787E+08         0.21202E+06         0.00000E+00
    0.21202E+06        -0.67327E+08         0.00000E+00
    0.00000E+00         0.00000E+00        -0.28834E+08
 
   -0.28811E+08         0.21750E+06         0.00000E+00
    0.21750E+06        -0.67382E+08         0.00000E+00
    0.00000E+00         0.00000E+00        -0.28858E+08
 
   -0.28835E+08         0.22295E+06         0.00000E+00
    0.22295E+06        -0.67439E+08         0.00000E+00
    0.00000E+00         0.00000E+00        -0.28882E+08
 
   -0.28859E+08         0.22838E+06         0.00000E+00
    0.22838E+06        -0.67497E+08         0.00000E+00
    0.00000E+00         0.00000E+00        -0.28907E+08
 
   -0.28884E+08         0.23381E+06         0.00000E+00
    0.23381E+06        -0.67556E+08         0.00000E+00
    0.00000E+00         0.00000E+00        -0.28932E+08
 
   -0.28910E+08         0.23924E+06         0.00000E+00
    0.23924E+06        -0.67616E+08         0.00000E+00
    0.00000E+00         0.00000E+00        -0.28958E+08
 
   -0.28936E+08         0.24467E+06         0.00000E+00
    0.24467E+06        -0.67677E+08         0.00000E+00
    0.00000E+00         0.00000E+00        -0.28984E+08
 
   -0.28962E+08         0.25012E+06         0.00000E+00
    0.25012E+06        -0.67740E+08         0.00000E+00
    0.00000E+00         0.00000E+00        -0.29011E+08
 
   -0.28989E+08         0.25558E+06         0.00000E+00
    0.25558E+06        -0.67804E+08         0.00000E+00
    0.00000E+00         0.00000E+00        -0.29038E+08
 
   -0.29016E+08         0.26107E+06         0.00000E+00
    0.26107E+06        -0.67870E+08         0.00000E+00
    0.00000E+00         0.00000E+00        -0.29066E+08
 
   -0.29044E+08         0.26657E+06         0.00000E+00
    0.26657E+06        -0.67936E+08         0.00000E+00
    0.00000E+00         0.00000E+00        -0.29094E+08
 
   -0.29073E+08         0.27210E+06         0.00000E+00
    0.27210E+06        -0.68004E+08         0.00000E+00
    0.00000E+00         0.00000E+00        -0.29123E+08
 
   -0.29102E+08         0.27766E+06         0.00000E+00
    0.27766E+06        -0.68074E+08         0.00000E+00
    0.00000E+00         0.00000E+00        -0.29153E+08
 
   -0.29132E+08         0.28323E+06         0.00000E+00
    0.28323E+06        -0.68145E+08         0.00000E+00
    0.00000E+00         0.00000E+00        -0.29183E+08
 
   -0.29163E+08         0.28883E+06         0.00000E+00
    0.28883E+06        -0.68218E+08         0.00000E+00
    0.00000E+00         0.00000E+00        -0.29214E+08
 
   -0.29194E+08         0.29445E+06         0.00000E+00
    0.29445E+06        -0.68292E+08         0.00000E+00
    0.00000E+00         0.00000E+00        -0.29246E+08
 
   -0.29226E+08         0.30009E+06         0.00000E+00
    0.30009E+06        -0.68368E+08         0.00000E+00
    0.00000E+00         0.00000E+00        -0.29278E+08
 
   -0.29259E+08         0.30573E+06         0.00000E+00
    0.30573E+06        -0.68446E+08         0.00000E+00
    0.00000E+00         0.00000E+00        -0.29312E+08
 
   -0.29293E+08         0.31139E+06         0.00000E+00
    0.31139E+06        -0.68525E+08         0.00000E+00
    0.00000E+00         0.00000E+00        -0.29345E+08
 
   -0.29327E+08         0.31705E+06         0.00000E+00
    0.31705E+06        -0.68606E+08         0.00000E+00
    0.00000E+00         0.00000E+00        -0.29380E+08
 
   -0.29362E+08         0.32271E+06         0.00000E+00
    0.32271E+06        -0.68689E+08         0.00000E+00
    0.00000E+00         0.00000E+00        -0.29415E+08
 
   -0.29399E+08         0.32835E+06         0.00000E+00
    0.32835E+06        -0.68773E+08         0.00000E+00
    0.00000E+00         0.00000E+00        -0.29452E+08
 
   -0.29436E+08         0.33398E+06         0.00000E+00
    0.33398E+06        -0.68860E+08         0.00000E+00
    0.00000E+00         0.00000E+00        -0.29489E+08
 
   -0.29473E+08         0.33958E+06         0.00000E+00
    0.33958E+06        -0.68948E+08         0.00000E+00
    0.00000E+00         0.00000E+00        -0.29526E+08
 
   -0.29512E+08         0.34515E+06         0.00000E+00
    0.34515E+06        -0.69038E+08         0.00000E+00
    0.00000E+00         0.00000E+00        -0.29565E+08
 
   -0.29552E+08         0.35067E+06         0.00000E+00
    0.35067E+06        -0.69130E+08         0.00000E+00
    0.00000E+00         0.00000E+00        -0.29605E+08
 
   -0.29593E+08         0.35612E+06         0.00000E+00
    0.35612E+06        -0.69224E+08         0.00000E+00
    0.00000E+00         0.00000E+00        -0.29645E+08
 
   -0.29634E+08         0.36151E+06         0.00000E+00
    0.36151E+06        -0.69320E+08         0.00000E+00
    0.00000E+00         0.00000E+00        -0.29686E+08
 
   -0.29677E+08         0.36681E+06         0.00000E+00
    0.36681E+06        -0.69417E+08         0.00000E+00
    0.00000E+00         0.00000E+00        -0.29728E+08
 
   -0.29721E+08         0.37201E+06         0.00000E+00
    0.37201E+06        -0.69517E+08         0.00000E+00
    0.00000E+00         0.00000E+00        -0.29771E+08
 
   -0.29766E+08         0.37709E+06         0.00000E+00
    0.37709E+06        -0.69619E+08         0.00000E+00
    0.00000E+00         0.00000E+00        -0.29815E+08
 
   -0.29812E+08         0.38203E+06         0.00000E+00
    0.38203E+06        -0.69723E+08         0.00000E+00
    0.00000E+00         0.00000E+00        -0.29860E+08
 
   -0.29859E+08         0.38682E+06         0.00000E+00
    0.38682E+06        -0.69829E+08         0.00000E+00
    0.00000E+00         0.00000E+00        -0.29906E+08
 
   -0.29907E+08         0.39144E+06         0.00000E+00
    0.39144E+06        -0.69936E+08         0.00000E+00
    0.00000E+00         0.00000E+00        -0.29953E+08
 
   -0.29956E+08         0.39586E+06         0.00000E+00
    0.39586E+06        -0.70046E+08         0.00000E+00
    0.00000E+00         0.00000E+00        -0.30001E+08
 
   -0.30006E+08         0.40006E+06         0.00000E+00
    0.40006E+06        -0.70158E+08         0.00000E+00
    0.00000E+00         0.00000E+00        -0.30049E+08
 
   -0.30058E+08         0.40401E+06         0.00000E+00
    0.40401E+06        -0.70273E+08         0.00000E+00
    0.00000E+00         0.00000E+00        -0.30099E+08
 
   -0.30111E+08         0.40769E+06         0.00000E+00
    0.40769E+06        -0.70389E+08         0.00000E+00
    0.00000E+00         0.00000E+00        -0.30150E+08
 
   -0.30165E+08         0.41106E+06         0.00000E+00
    0.41106E+06        -0.70507E+08         0.00000E+00
    0.00000E+00         0.00000E+00        -0.30202E+08
 
   -0.30220E+08         0.41409E+06         0.00000E+00
    0.41409E+06        -0.70628E+08         0.00000E+00
    0.00000E+00         0.00000E+00        -0.30254E+08
 
   -0.30277E+08         0.41675E+06         0.00000E+00
    0.41675E+06        -0.70750E+08         0.00000E+00
    0.00000E+00         0.00000E+00        -0.30308E+08
 
   -0.30335E+08         0.41900E+06         0.00000E+00
    0.41900E+06        -0.70875E+08         0.00000E+00
    0.00000E+00         0.00000E+00        -0.30363E+08
 
   -0.30395E+08         0.42080E+06         0.00000E+00
    0.42080E+06        -0.71002E+08         0.00000E+00
    0.00000E+00         0.00000E+00        -0.30419E+08
 
   -0.30456E+08         0.42210E+06         0.00000E+00
    0.42210E+06        -0.71130E+08         0.00000E+00
    0.00000E+00         0.00000E+00        -0.30476E+08
 
   -0.30518E+08         0.42285E+06         0.00000E+00
    0.42285E+06        -0.71261E+08         0.00000E+00
    0.00000E+00         0.00000E+00        -0.30534E+08
 
   -0.30582E+08         0.42301E+06         0.00000E+00
    0.42301E+06        -0.71395E+08         0.00000E+00
    0.00000E+00         0.00000E+00        -0.30593E+08
 
   -0.30647E+08         0.42250E+06         0.00000E+00
    0.42250E+06        -0.71530E+08         0.00000E+00
    0.00000E+00         0.00000E+00        -0.30653E+08
 
   -0.30714E+08         0.42128E+06         0.00000E+00
    0.42128E+06        -0.71667E+08         0.00000E+00
    0.00000E+00         0.00000E+00        -0.30714E+08
 
   -0.30782E+08         0.41927E+06         0.00000E+00
    0.41927E+06        -0.71807E+08         0.00000E+00
    0.00000E+00         0.00000E+00        -0.30777E+08
 
   -0.30852E+08         0.41639E+06         0.00000E+00
    0.41639E+06        -0.71948E+08         0.00000E+00
    0.00000E+00         0.00000E+00        -0.30840E+08
 
   -0.30924E+08         0.41258E+06         0.00000E+00
    0.41258E+06        -0.72092E+08         0.00000E+00
    0.00000E+00         0.00000E+00        -0.30905E+08
 
   -0.30998E+08         0.40774E+06         0.00000E+00
    0.40774E+06        -0.72238E+08         0.00000E+00
    0.00000E+00         0.00000E+00        -0.30971E+08
 
   -0.31073E+08         0.40178E+06         0.00000E+00
    0.40178E+06        -0.72386E+08         0.00000E+00
    0.00000E+00         0.00000E+00        -0.31038E+08
 
   -0.31150E+08         0.39462E+06         0.00000E+00
    0.39462E+06        -0.72536E+08         0.00000E+00
    0.00000E+00         0.00000E+00        -0.31106E+08
 
   -0.31229E+08         0.38613E+06         0.00000E+00
    0.38613E+06        -0.72688E+08         0.00000E+00
    0.00000E+00         0.00000E+00        -0.31175E+08
 
   -0.31309E+08         0.37624E+06         0.00000E+00
    0.37624E+06        -0.72842E+08         0.00000E+00
    0.00000E+00         0.00000E+00        -0.31245E+08
 
   -0.31391E+08         0.36481E+06         0.00000E+00
    0.36481E+06        -0.72999E+08         0.00000E+00
    0.00000E+00         0.00000E+00        -0.31317E+08
 
   -0.31475E+08         0.35177E+06         0.00000E+00
    0.35177E+06        -0.73157E+08         0.00000E+00
    0.00000E+00         0.00000E+00        -0.31390E+08
 
   -0.31561E+08         0.33700E+06         0.00000E+00
    0.33700E+06        -0.73317E+08         0.00000E+00
    0.00000E+00         0.00000E+00        -0.31464E+08
 
   -0.31648E+08         0.32042E+06         0.00000E+00
    0.32042E+06        -0.73479E+08         0.00000E+00
    0.00000E+00         0.00000E+00        -0.31538E+08
 
   -0.31737E+08         0.30196E+06         0.00000E+00
    0.30196E+06        -0.73643E+08         0.00000E+00
    0.00000E+00         0.00000E+00        -0.31614E+08
 
   -0.31828E+08         0.28159E+06         0.00000E+00
    0.28159E+06        -0.73808E+08         0.00000E+00
    0.00000E+00         0.00000E+00        -0.31691E+08
 
   -0.31919E+08         0.25931E+06         0.00000E+00
    0.25931E+06        -0.73974E+08         0.00000E+00
    0.00000E+00         0.00000E+00        -0.31768E+08
 
   -0.32012E+08         0.23518E+06         0.00000E+00
    0.23518E+06        -0.74139E+08         0.00000E+00
    0.00000E+00         0.00000E+00        -0.31845E+08
 
   -0.32107E+08         0.20937E+06         0.00000E+00
    0.20937E+06        -0.74304E+08         0.00000E+00
    0.00000E+00         0.00000E+00        -0.31923E+08
 
   -0.32203E+08         0.18212E+06         0.00000E+00
    0.18212E+06        -0.74466E+08         0.00000E+00
    0.00000E+00         0.00000E+00        -0.32001E+08
 
   -0.32301E+08         0.15385E+06         0.00000E+00
    0.15385E+06        -0.74625E+08         0.00000E+00
    0.00000E+00         0.00000E+00        -0.32078E+08
 
   -0.32402E+08         0.12513E+06         0.00000E+00
    0.12513E+06        -0.74777E+08         0.00000E+00
    0.00000E+00         0.00000E+00        -0.32154E+08
 
   -0.32508E+08         0.96767E+05         0.00000E+00
    0.96767E+05        -0.74921E+08         0.00000E+00
    0.00000E+00         0.00000E+00        -0.32229E+08
 
   -0.32621E+08         0.69812E+05         0.00000E+00
    0.69812E+05        -0.75052E+08         0.00000E+00
    0.00000E+00         0.00000E+00        -0.32302E+08
 
   -0.32743E+08         0.45518E+05         0.00000E+00
    0.45518E+05        -0.75170E+08         0.00000E+00
    0.00000E+00         0.00000E+00        -0.32374E+08
 
   -0.32877E+08         0.24907E+05         0.00000E+00
    0.24907E+05        -0.75271E+08         0.00000E+00
    0.00000E+00         0.00000E+00        -0.32444E+08
 
   -0.33024E+08         0.78052E+04         0.00000E+00
    0.78052E+04        -0.75356E+08         0.00000E+00
    0.00000E+00         0.00000E+00        -0.32514E+08
 
   -0.28123E+08         0.30374E+04         0.00000E+00
    0.30374E+04        -0.66140E+08         0.00000E+00
    0.00000E+00         0.00000E+00        -0.28279E+08
 
   -0.28160E+08         0.94973E+04         0.00000E+00
    0.94973E+04        -0.66161E+08         0.00000E+00
    0.00000E+00         0.00000E+00        -0.28296E+08
 
   -0.28194E+08         0.16897E+05         0.00000E+00
    0.16897E+05        -0.66187E+08         0.00000E+00
    0.00000E+00         0.00000E+00        -0.28314E+08
 
   -0.28224E+08         0.25342E+05         0.00000E+00
    0.25342E+05        -0.66217E+08         0.00000E+00
    0.00000E+00         0.00000E+00        -0.28332E+08
 
   -0.28252E+08         0.34615E+05         0.00000E+00
    0.34615E+05        -0.66250E+08         0.00000E+00
    0.00000E+00         0.00000E+00        -0.28351E+08
 
   -0.28278E+08         0.44397E+05         0.00000E+00
    0.44397E+05        -0.66287E+08         0.00000E+00
    0.00000E+00         0.00000E+00        -0.28370E+08
 
   -0.28303E+08         0.54402E+05         0.00000E+00
    0.54402E+05        -0.66326E+08         0.00000E+00
    0.00000E+00         0.00000E+00        -0.28389E+08
 
   -0.28328E+08         0.64408E+05         0.00000E+00
    0.64408E+05        -0.66367E+08         0.00000E+00
    0.00000E+00         0.00000E+00        -0.28408E+08
 
   -0.28351E+08         0.74253E+05         0.00000E+00
    0.74253E+05        -0.66410E+08         0.00000E+00
    0.00000E+00         0.00000E+00        -0.28428E+08
 
   -0.28375E+08         0.83830E+05         0.00000E+00
    0.83830E+05        -0.66453E+08         0.00000E+00
    0.00000E+00         0.00000E+00        -0.28448E+08
 
   -0.28398E+08         0.93070E+05         0.00000E+00
    0.93070E+05        -0.66497E+08         0.00000E+00
    0.00000E+00         0.00000E+00        -0.28468E+08
 
   -0.28421E+08         0.10194E+06         0.00000E+00
    0.10194E+06        -0.66542E+08         0.00000E+00
    0.00000E+00         0.00000E+00        -0.28489E+08
 
   -0.28444E+08         0.11043E+06         0.00000E+00
    0.11043E+06        -0.66587E+08         0.00000E+00
    0.00000E+00         0.00000E+00        -0.28509E+08
 
   -0.28467E+08         0.11853E+06         0.00000E+00
    0.11853E+06        -0.66632E+08         0.00000E+00
    0.00000E+00         0.00000E+00        -0.28530E+08
 
   -0.28489E+08         0.12627E+06         0.00000E+00
    0.12627E+06        -0.66678E+08         0.00000E+00
    0.00000E+00         0.00000E+00        -0.28550E+08
 
   -0.28512E+08         0.13367E+06         0.00000E+00
    0.13367E+06        -0.66725E+08         0.00000E+00
    0.00000E+00         0.00000E+00        -0.28571E+08
 
   -0.28534E+08         0.14076E+06         0.00000E+00
    0.14076E+06        -0.66771E+08         0.00000E+00
    0.00000E+00         0.00000E+00        -0.28592E+08
 
   -0.28557E+08         0.14756E+06         0.00000E+00
    0.14756E+06        -0.66819E+08         0.00000E+00
    0.00000E+00         0.00000E+00        -0.28613E+08
 
   -0.28579E+08         0.15410E+06         0.00000E+00
    0.15410E+06        -0.66866E+08         0.00000E+00
    0.00000E+00         0.00000E+00        -0.28634E+08
 
   -0.28601E+08         0.16041E+06         0.00000E+00
    0.16041E+06        -0.66915E+08         0.00000E+00
    0.00000E+00         0.00000E+00        -0.28655E+08
 
   -0.28624E+08         0.16653E+06         0.00000E+00
    0.16653E+06        -0.66964E+08         0.00000E+00
    0.00000E+00         0.00000E+00        -0.28676E+08
 
   -0.28646E+08         0.17247E+06         0.00000E+00
    0.17247E+06        -0.67013E+08         0.00000E+00
    0.00000E+00         0.00000E+00        -0.28698E+08
 
   -0.28668E+08         0.17826E+06         0.00000E+00
    0.17826E+06        -0.67064E+08         0.00000E+00
    0.00000E+00         0.00000E+00        -0.28720E+08
 
   -0.28691E+08         0.18393E+06         0.00000E+00
    0.18393E+06        -0.67115E+08         0.00000E+00
    0.00000E+00         0.00000E+00        -0.28742E+08
 
   -0.28714E+08         0.18950E+06         0.00000E+00
    0.18950E+06        -0.67167E+08         0.00000E+00
    0.00000E+00         0.00000E+00        -0.28764E+08
 
   -0.28737E+08         0.19498E+06         0.00000E+00
    0.19498E+06        -0.67219E+08         0.00000E+00
    0.00000E+00         0.00000E+00        -0.28787E+08
 
   -0.28760E+08         0.20040E+06         0.00000E+00
    0.20040E+06        -0.67273E+08         0.00000E+00
    0.00000E+00         0.00000E+00        -0.28810E+08
 
   -0.28784E+08         0.20576E+06         0.00000E+00
    0.20576E+06        -0.67328E+08         0.00000E+00
    0.00000E+00         0.00000E+00        -0.28833E+08
 
   -0.28807E+08         0.21108E+06         0.00000E+00
    0.21108E+06        -0.67383E+08         0.00000E+00
    0.00000E+00         0.00000E+00        -0.28857E+08
 
   -0.28832E+08         0.21638E+06         0.00000E+00
    0.21638E+06        -0.67440E+08         0.00000E+00
    0.00000E+00         0.00000E+00        -0.28881E+08
 
   -0.28856E+08         0.22166E+06         0.00000E+00
    0.22166E+06        -0.67498E+08         0.00000E+00
    0.00000E+00         0.00000E+00        -0.28906E+08
 
   -0.28881E+08         0.22693E+06         0.00000E+00
    0.22693E+06        -0.67557E+08         0.00000E+00
    0.00000E+00         0.00000E+00        -0.28931E+08
 
   -0.28906E+08         0.23220E+06         0.00000E+00
    0.23220E+06        -0.67617E+08         0.00000E+00
    0.00000E+00         0.00000E+00        -0.28957E+08
 
   -0.28932E+08         0.23748E+06         0.00000E+00
    0.23748E+06        -0.67679E+08         0.00000E+00
    0.00000E+00         0.00000E+00        -0.28983E+08
 
   -0.28959E+08         0.24277E+06         0.00000E+00
    0.24277E+06        -0.67741E+08         0.00000E+00
    0.00000E+00         0.00000E+00        -0.29010E+08
 
   -0.28985E+08         0.24807E+06         0.00000E+00
    0.24807E+06        -0.67805E+08         0.00000E+00
    0.00000E+00         0.00000E+00        -0.29037E+08
 
   -0.29013E+08         0.25339E+06         0.00000E+00
    0.25339E+06        -0.67871E+08         0.00000E+00
    0.00000E+00         0.00000E+00        -0.29065E+08
 
   -0.29041E+08         0.25873E+06         0.00000E+00
    0.25873E+06        -0.67937E+08         0.00000E+00
    0.00000E+00         0.00000E+00        -0.29093E+08
 
   -0.29069E+08         0.26410E+06         0.00000E+00
    0.26410E+06        -0.68006E+08         0.00000E+00
    0.00000E+00         0.00000E+00        -0.29123E+08
 
   -0.29099E+08         0.26948E+06         0.00000E+00
    0.26948E+06        -0.68075E+08         0.00000E+00
    0.00000E+00         0.00000E+00        -0.29152E+08
 
   -0.29129E+08         0.27489E+06         0.00000E+00
    0.27489E+06        -0.68146E+08         0.00000E+00
    0.00000E+00         0.00000E+00        -0.29183E+08
 
   -0.29159E+08         0.28032E+06         0.00000E+00
    0.28032E+06        -0.68219E+08         0.00000E+00
    0.00000E+00         0.00000E+00        -0.29214E+08
 
   -0.29191E+08         0.28576E+06         0.00000E+00
    0.28576E+06        -0.68294E+08         0.00000E+00
    0.00000E+00         0.00000E+00        -0.29245E+08
 
   -0.29223E+08         0.29122E+06         0.00000E+00
    0.29122E+06        -0.68369E+08         0.00000E+00
    0.00000E+00         0.00000E+00        -0.29278E+08
 
   -0.29255E+08         0.29669E+06         0.00000E+00
    0.29669E+06        -0.68447E+08         0.00000E+00
    0.00000E+00         0.00000E+00        -0.29311E+08
 
   -0.29289E+08         0.30217E+06         0.00000E+00
    0.30217E+06        -0.68526E+08         0.00000E+00
    0.00000E+00         0.00000E+00        -0.29345E+08
 
   -0.29324E+08         0.30766E+06         0.00000E+00
    0.30766E+06        -0.68607E+08         0.00000E+00
    0.00000E+00         0.00000E+00        -0.29379E+08
 
   -0.29359E+08         0.31313E+06         0.00000E+00
    0.31313E+06        -0.68690E+08         0.00000E+00
    0.00000E+00         0.00000E+00        -0.29415E+08
 
   -0.29395E+08         0.31860E+06         0.00000E+00
    0.31860E+06        -0.68775E+08         0.00000E+00
    0.00000E+00         0.00000E+00        -0.29451E+08
 
   -0.29432E+08         0.32405E+06         0.00000E+00
    0.32405E+06        -0.68861E+08         0.00000E+00
    0.00000E+00         0.00000E+00        -0.29488E+08
 
   -0.29470E+08         0.32947E+06         0.00000E+00
    0.32947E+06        -0.68949E+08         0.00000E+00
    0.00000E+00         0.00000E+00        -0.29526E+08
 
   -0.29509E+08         0.33485E+06         0.00000E+00
    0.33485E+06        -0.69039E+08         0.00000E+00
    0.00000E+00         0.00000E+00        -0.29564E+08
 
   -0.29548E+08         0.34018E+06         0.00000E+00
    0.34018E+06        -0.69131E+08         0.00000E+00
    0.00000E+00         0.00000E+00        -0.29604E+08
 
   -0.29589E+08         0.34546E+06         0.00000E+00
    0.34546E+06        -0.69225E+08         0.00000E+00
    0.00000E+00         0.00000E+00        -0.29644E+08
 
   -0.29631E+08         0.35066E+06         0.00000E+00
    0.35066E+06        -0.69321E+08         0.00000E+00
    0.00000E+00         0.00000E+00        -0.29685E+08
 
   -0.29674E+08         0.35578E+06         0.00000E+00
    0.35578E+06        -0.69418E+08         0.00000E+00
    0.00000E+00         0.00000E+00        -0.29728E+08
 
   -0.29717E+08         0.36080E+06         0.00000E+00
    0.36080E+06        -0.69518E+08         0.00000E+00
    0.00000E+00         0.00000E+00        -0.29771E+08
 
   -0.29762E+08         0.36571E+06         0.00000E+00
    0.36571E+06        -0.69620E+08         0.00000E+00
    0.00000E+00         0.00000E+00        -0.29815E+08
 
   -0.29808E+08         0.37048E+06         0.00000E+00
    0.37048E+06        -0.69724E+08         0.00000E+00
    0.00000E+00         0.00000E+00        -0.29860E+08
 
   -0.29855E+08         0.37510E+06         0.00000E+00
    0.37510E+06        -0.69830E+08         0.00000E+00
    0.00000E+00         0.00000E+00        -0.29905E+08
 
   -0.29903E+08         0.37955E+06         0.00000E+00
    0.37955E+06        -0.69937E+08         0.00000E+00
    0.00000E+00         0.00000E+00        -0.29952E+08
 
   -0.29953E+08         0.38380E+06         0.00000E+00
    0.38380E+06        -0.70047E+08         0.00000E+00
    0.00000E+00         0.00000E+00        -0.30000E+08
 
   -0.30003E+08         0.38784E+06         0.00000E+00
    0.38784E+06        -0.70159E+08         0.00000E+00
    0.00000E+00         0.00000E+00        -0.30049E+08
 
   -0.30055E+08         0.39164E+06         0.00000E+00
    0.39164E+06        -0.70273E+08         0.00000E+00
    0.00000E+00         0.00000E+00        -0.30099E+08
 
   -0.30108E+08         0.39516E+06         0.00000E+00
    0.39516E+06        -0.70390E+08         0.00000E+00
    0.00000E+00         0.00000E+00        -0.30149E+08
 
   -0.30162E+08         0.39839E+06         0.00000E+00
    0.39839E+06        -0.70508E+08         0.00000E+00
    0.00000E+00         0.00000E+00        -0.30201E+08
 
   -0.30218E+08         0.40129E+06         0.00000E+00
    0.40129E+06        -0.70628E+08         0.00000E+00
    0.00000E+00         0.00000E+00        -0.30254E+08
 
   -0.30275E+08         0.40383E+06         0.00000E+00
    0.40383E+06        -0.70751E+08         0.00000E+00
    0.00000E+00         0.00000E+00        -0.30308E+08
 
   -0.30333E+08         0.40596E+06         0.00000E+00
    0.40596E+06        -0.70875E+08         0.00000E+00
    0.00000E+00         0.00000E+00        -0.30363E+08
 
   -0.30393E+08         0.40765E+06         0.00000E+00
    0.40765E+06        -0.71002E+08         0.00000E+00
    0.00000E+00         0.00000E+00        -0.30418E+08
 
   -0.30454E+08         0.40885E+06         0.00000E+00
    0.40885E+06        -0.71131E+08         0.00000E+00
    0.00000E+00         0.00000E+00        -0.30475E+08
 
   -0.30517E+08         0.40951E+06         0.00000E+00
    0.40951E+06        -0.71262E+08         0.00000E+00
    0.00000E+00         0.00000E+00        -0.30533E+08
 
   -0.30581E+08         0.40959E+06         0.00000E+00
    0.40959E+06        -0.71395E+08         0.00000E+00
    0.00000E+00         0.00000E+00        -0.30593E+08
 
   -0.30646E+08         0.40903E+06         0.00000E+00
    0.40903E+06        -0.71530E+08         0.00000E+00
    0.00000E+00         0.00000E+00        -0.30653E+08
 
   -0.30713E+08         0.40776E+06         0.00000E+00
    0.40776E+06        -0.71667E+08         0.00000E+00
    0.00000E+00         0.00000E+00        -0.30714E+08
 
   -0.30782E+08         0.40571E+06         0.00000E+00
    0.40571E+06        -0.71806E+08         0.00000E+00
    0.00000E+00         0.00000E+00        -0.30777E+08
 
   -0.30853E+08         0.40282E+06         0.00000E+00
    0.40282E+06        -0.71948E+08         0.00000E+00
    0.00000E+00         0.00000E+00        -0.30840E+08
 
   -0.30925E+08         0.39901E+06         0.00000E+00
    0.39901E+06        -0.72091E+08         0.00000E+00
    0.00000E+00         0.00000E+00        -0.30905E+08
 
   -0.30999E+08         0.39418E+06         0.00000E+00
    0.39418E+06        -0.72237E+08         0.00000E+00
    0.00000E+00         0.00000E+00        -0.30971E+08
 
   -0.31075E+08         0.38826E+06         0.00000E+00
    0.38826E+06        -0.72384E+08         0.00000E+00
    0.00000E+00         0.00000E+00        -0.31038E+08
 
   -0.31152E+08         0.38113E+06         0.00000E+00
    0.38113E+06        -0.72534E+08         0.00000E+00
    0.00000E+00         0.00000E+00        -0.31106E+08
 
   -0.31232E+08         0.37271E+06         0.00000E+00
    0.37271E+06        -0.72686E+08         0.00000E+00
    0.00000E+00         0.00000E+00        -0.31175E+08
 
   -0.31313E+08         0.36288E+06         0.00000E+00
    0.36288E+06        -0.72840E+08         0.00000E+00
    0.00000E+00         0.00000E+00        -0.31246E+08
 
   -0.31396E+08         0.35153E+06         0.00000E+00
    0.35153E+06        -0.72996E+08         0.00000E+00
    0.00000E+00         0.00000E+00        -0.31318E+08
 
   -0.31481E+08         0.33857E+06         0.00000E+00
    0.33857E+06        -0.73154E+08         0.00000E+00
    0.00000E+00         0.00000E+00        -0.31391E+08
 
   -0.31568E+08         0.32388E+06         0.00000E+00
    0.32388E+06        -0.73314E+08         0.00000E+00
    0.00000E+00         0.00000E+00        -0.31465E+08
 
   -0.31656E+08         0.30738E+06         0.00000E+00
    0.30738E+06        -0.73476E+08         0.00000E+00
    0.00000E+00         0.00000E+00        -0.31540E+08
 
   -0.31746E+08         0.28901E+06         0.00000E+00
    0.28901E+06        -0.73639E+08         0.00000E+00
    0.00000E+00         0.00000E+00        -0.31616E+08
 
   -0.31838E+08         0.26872E+06         0.00000E+00
    0.26872E+06        -0.73804E+08         0.00000E+00
    0.00000E+00         0.00000E+00        -0.31692E+08
 
   -0.31931E+08         0.24653E+06         0.00000E+00
    0.24653E+06        -0.73969E+08         0.00000E+00
    0.00000E+00         0.00000E+00        -0.31770E+08
 
   -0.32025E+08         0.22251E+06         0.00000E+00
    0.22251E+06        -0.74134E+08         0.00000E+00
    0.00000E+00         0.00000E+00        -0.31848E+08
 
   -0.32121E+08         0.19685E+06         0.00000E+00
    0.19685E+06        -0.74299E+08         0.00000E+00
    0.00000E+00         0.00000E+00        -0.31926E+08
 
   -0.32219E+08         0.16983E+06         0.00000E+00
    0.16983E+06        -0.74461E+08         0.00000E+00
    0.00000E+00         0.00000E+00        -0.32004E+08
 
   -0.32319E+08         0.14194E+06         0.00000E+00
    0.14194E+06        -0.74619E+08         0.00000E+00
    0.00000E+00         0.00000E+00        -0.32081E+08
 
   -0.32423E+08         0.11386E+06         0.00000E+00
    0.11386E+06        -0.74771E+08         0.00000E+00
    0.00000E+00         0.00000E+00        -0.32158E+08
 
   -0.32530E+08         0.86506E+05         0.00000E+00
    0.86506E+05        -0.74915E+08         0.00000E+00
    0.00000E+00         0.00000E+00        -0.32234E+08
 
   -0.32645E+08         0.61068E+05         0.00000E+00
    0.61068E+05        -0.75047E+08         0.00000E+00
    0.00000E+00         0.00000E+00        -0.32308E+08
 
   -0.32768E+08         0.38849E+05         0.00000E+00
    0.38849E+05        -0.75166E+08         0.00000E+00
    0.00000E+00         0.00000E+00        -0.32380E+08
 
   -0.32903E+08         0.20759E+05         0.00000E+00
    0.20759E+05        -0.75268E+08         0.00000E+00
    0.00000E+00         0.00000E+00        -0.32451E+08
 
   -0.33052E+08         0.64044E+04         0.00000E+00
    0.64044E+04        -0.75353E+08         0.00000E+00
    0.00000E+00         0.00000E+00        -0.32521E+08
 
   -0.28115E+08         0.26724E+04         0.00000E+00
    0.26724E+04        -0.66141E+08         0.00000E+00
    0.00000E+00         0.00000E+00        -0.28277E+08
 
   -0.28152E+08         0.84166E+04         0.00000E+00
    0.84166E+04        -0.66163E+08         0.00000E+00
    0.00000E+00         0.00000E+00        -0.28294E+08
 
   -0.28186E+08         0.15155E+05         0.00000E+00
    0.15155E+05        -0.66188E+08         0.00000E+00
    0.00000E+00         0.00000E+00        -0.28312E+08
 
   -0.28216E+08         0.23042E+05         0.00000E+00
    0.23042E+05        -0.66219E+08         0.00000E+00
    0.00000E+00         0.00000E+00        -0.28331E+08
 
   -0.28245E+08         0.31883E+05         0.00000E+00
    0.31883E+05        -0.66252E+08         0.00000E+00
    0.00000E+00         0.00000E+00        -0.28349E+08
 
   -0.28272E+08         0.41348E+05         0.00000E+00
    0.41348E+05        -0.66289E+08         0.00000E+00
    0.00000E+00         0.00000E+00        -0.28368E+08
 
   -0.28297E+08         0.51122E+05         0.00000E+00
    0.51122E+05        -0.66328E+08         0.00000E+00
    0.00000E+00         0.00000E+00        -0.28388E+08
 
   -0.28322E+08         0.60952E+05         0.00000E+00
    0.60952E+05        -0.66369E+08         0.00000E+00
    0.00000E+00         0.00000E+00        -0.28407E+08
 
   -0.28346E+08         0.70654E+05         0.00000E+00
    0.70654E+05        -0.66411E+08         0.00000E+00
    0.00000E+00         0.00000E+00        -0.28427E+08
 
   -0.28370E+08         0.80103E+05         0.00000E+00
    0.80103E+05        -0.66455E+08         0.00000E+00
    0.00000E+00         0.00000E+00        -0.28447E+08
 
   -0.28393E+08         0.89222E+05         0.00000E+00
    0.89222E+05        -0.66499E+08         0.00000E+00
    0.00000E+00         0.00000E+00        -0.28468E+08
 
   -0.28417E+08         0.97971E+05         0.00000E+00
    0.97971E+05        -0.66543E+08         0.00000E+00
    0.00000E+00         0.00000E+00        -0.28488E+08
 
   -0.28440E+08         0.10633E+06         0.00000E+00
    0.10633E+06        -0.66588E+08         0.00000E+00
    0.00000E+00         0.00000E+00        -0.28508E+08
 
   -0.28463E+08         0.11431E+06         0.00000E+00
    0.11431E+06        -0.66634E+08         0.00000E+00
    0.00000E+00         0.00000E+00        -0.28529E+08
 
   -0.28485E+08         0.12192E+06         0.00000E+00
    0.12192E+06        -0.66680E+08         0.00000E+00
    0.00000E+00         0.00000E+00        -0.28550E+08
 
   -0.28508E+08         0.12918E+06         0.00000E+00
    0.12918E+06        -0.66726E+08         0.00000E+00
    0.00000E+00         0.00000E+00        -0.28570E+08
 
   -0.28531E+08         0.13613E+06         0.00000E+00
    0.13613E+06        -0.66773E+08         0.00000E+00
    0.00000E+00         0.00000E+00        -0.28591E+08
 
   -0.28553E+08         0.14278E+06         0.00000E+00
    0.14278E+06        -0.66820E+08         0.00000E+00
    0.00000E+00         0.00000E+00        -0.28612E+08
 
   -0.28576E+08         0.14918E+06         0.00000E+00
    0.14918E+06        -0.66868E+08         0.00000E+00
    0.00000E+00         0.00000E+00        -0.28633E+08
 
   -0.28598E+08         0.15535E+06         0.00000E+00
    0.15535E+06        -0.66916E+08         0.00000E+00
    0.00000E+00         0.00000E+00        -0.28654E+08
 
   -0.28620E+08         0.16131E+06         0.00000E+00
    0.16131E+06        -0.66965E+08         0.00000E+00
    0.00000E+00         0.00000E+00        -0.28676E+08
 
   -0.28643E+08         0.16711E+06         0.00000E+00
    0.16711E+06        -0.67014E+08         0.00000E+00
    0.00000E+00         0.00000E+00        -0.28697E+08
 
   -0.28665E+08         0.17275E+06         0.00000E+00
    0.17275E+06        -0.67065E+08         0.00000E+00
    0.00000E+00         0.00000E+00        -0.28719E+08
 
   -0.28688E+08         0.17827E+06         0.00000E+00
    0.17827E+06        -0.67116E+08         0.00000E+00
    0.00000E+00         0.00000E+00        -0.28741E+08
 
   -0.28711E+08         0.18369E+06         0.00000E+00
    0.18369E+06        -0.67168E+08         0.00000E+00
    0.00000E+00         0.00000E+00        -0.28764E+08
 
   -0.28734E+08         0.18902E+06         0.00000E+00
    0.18902E+06        -0.67220E+08         0.00000E+00
    0.00000E+00         0.00000E+00        -0.28786E+08
 
   -0.28757E+08         0.19428E+06         0.00000E+00
    0.19428E+06        -0.67274E+08         0.00000E+00
    0.00000E+00         0.00000E+00        -0.28809E+08
 
   -0.28780E+08         0.19949E+06         0.00000E+00
    0.19949E+06        -0.67329E+08         0.00000E+00
    0.00000E+00         0.00000E+00        -0.28833E+08
 
   -0.28804E+08         0.20467E+06         0.00000E+00
    0.20467E+06        -0.67384E+08         0.00000E+00
    0.00000E+00         0.00000E+00        -0.28857E+08
 
   -0.28828E+08         0.20981E+06         0.00000E+00
    0.20981E+06        -0.67441E+08         0.00000E+00
    0.00000E+00         0.00000E+00        -0.28881E+08
 
   -0.28853E+08         0.21493E+06         0.00000E+00
    0.21493E+06        -0.67499E+08         0.00000E+00
    0.00000E+00         0.00000E+00        -0.28906E+08
 
   -0.28878E+08         0.22005E+06         0.00000E+00
    0.22005E+06        -0.67558E+08         0.00000E+00
    0.00000E+00         0.00000E+00        -0.28931E+08
 
   -0.28903E+08         0.22516E+06         0.00000E+00
    0.22516E+06        -0.67618E+08         0.00000E+00
    0.00000E+00         0.00000E+00        -0.28956E+08
 
   -0.28929E+08         0.23028E+06         0.00000E+00
    0.23028E+06        -0.67680E+08         0.00000E+00
    0.00000E+00         0.00000E+00        -0.28983E+08
 
   -0.28955E+08         0.23541E+06         0.00000E+00
    0.23541E+06        -0.67742E+08         0.00000E+00
    0.00000E+00         0.00000E+00        -0.29009E+08
 
   -0.28982E+08         0.24055E+06         0.00000E+00
    0.24055E+06        -0.67806E+08         0.00000E+00
    0.00000E+00         0.00000E+00        -0.29037E+08
 
   -0.29009E+08         0.24571E+06         0.00000E+00
    0.24571E+06        -0.67872E+08         0.00000E+00
    0.00000E+00         0.00000E+00        -0.29064E+08
 
   -0.29037E+08         0.25089E+06         0.00000E+00
    0.25089E+06        -0.67938E+08         0.00000E+00
    0.00000E+00         0.00000E+00        -0.29093E+08
 
   -0.29066E+08         0.25608E+06         0.00000E+00
    0.25608E+06        -0.68007E+08         0.00000E+00
    0.00000E+00         0.00000E+00        -0.29122E+08
 
   -0.29095E+08         0.26130E+06         0.00000E+00
    0.26130E+06        -0.68076E+08         0.00000E+00
    0.00000E+00         0.00000E+00        -0.29151E+08
 
   -0.29125E+08         0.26654E+06         0.00000E+00
    0.26654E+06        -0.68148E+08         0.00000E+00
    0.00000E+00         0.00000E+00        -0.29182E+08
 
   -0.29156E+08         0.27180E+06         0.00000E+00
    0.27180E+06        -0.68220E+08         0.00000E+00
    0.00000E+00         0.00000E+00        -0.29213E+08
 
   -0.29187E+08         0.27707E+06         0.00000E+00
    0.27707E+06        -0.68295E+08         0.00000E+00
    0.00000E+00         0.00000E+00        -0.29244E+08
 
   -0.29219E+08         0.28235E+06         0.00000E+00
    0.28235E+06        -0.68371E+08         0.00000E+00
    0.00000E+00         0.00000E+00        -0.29277E+08
 
   -0.29252E+08         0.28765E+06         0.00000E+00
    0.28765E+06        -0.68448E+08         0.00000E+00
    0.00000E+00         0.00000E+00        -0.29310E+08
 
   -0.29285E+08         0.29295E+06         0.00000E+00
    0.29295E+06        -0.68527E+08         0.00000E+00
    0.00000E+00         0.00000E+00        -0.29344E+08
 
   -0.29320E+08         0.29826E+06         0.00000E+00
    0.29826E+06        -0.68608E+08         0.00000E+00
    0.00000E+00         0.00000E+00        -0.29378E+08
 
   -0.29355E+08         0.30356E+06         0.00000E+00
    0.30356E+06        -0.68691E+08         0.00000E+00
    0.00000E+00         0.00000E+00        -0.29414E+08
 
   -0.29391E+08         0.30884E+06         0.00000E+00
    0.30884E+06        -0.68776E+08         0.00000E+00
    0.00000E+00         0.00000E+00        -0.29450E+08
 
   -0.29428E+08         0.31411E+06         0.00000E+00
    0.31411E+06        -0.68862E+08         0.00000E+00
    0.00000E+00         0.00000E+00        -0.29487E+08
 
   -0.29466E+08         0.31935E+06         0.00000E+00
    0.31935E+06        -0.68950E+08         0.00000E+00
    0.00000E+00         0.00000E+00        -0.29525E+08
 
   -0.29505E+08         0.32455E+06         0.00000E+00
    0.32455E+06        -0.69040E+08         0.00000E+00
    0.00000E+00         0.00000E+00        -0.29564E+08
 
   -0.29545E+08         0.32970E+06         0.00000E+00
    0.32970E+06        -0.69132E+08         0.00000E+00
    0.00000E+00         0.00000E+00        -0.29603E+08
 
   -0.29585E+08         0.33480E+06         0.00000E+00
    0.33480E+06        -0.69226E+08         0.00000E+00
    0.00000E+00         0.00000E+00        -0.29643E+08
 
   -0.29627E+08         0.33982E+06         0.00000E+00
    0.33982E+06        -0.69322E+08         0.00000E+00
    0.00000E+00         0.00000E+00        -0.29685E+08
 
   -0.29670E+08         0.34477E+06         0.00000E+00
    0.34477E+06        -0.69419E+08         0.00000E+00
    0.00000E+00         0.00000E+00        -0.29727E+08
 
   -0.29714E+08         0.34961E+06         0.00000E+00
    0.34961E+06        -0.69519E+08         0.00000E+00
    0.00000E+00         0.00000E+00        -0.29770E+08
 
   -0.29759E+08         0.35434E+06         0.00000E+00
    0.35434E+06        -0.69621E+08         0.00000E+00
    0.00000E+00         0.00000E+00        -0.29814E+08
 
   -0.29805E+08         0.35894E+06         0.00000E+00
    0.35894E+06        -0.69725E+08         0.00000E+00
    0.00000E+00         0.00000E+00        -0.29859E+08
 
   -0.29852E+08         0.36339E+06         0.00000E+00
    0.36339E+06        -0.69830E+08         0.00000E+00
    0.00000E+00         0.00000E+00        -0.29905E+08
 
   -0.29900E+08         0.36767E+06         0.00000E+00
    0.36767E+06        -0.69938E+08         0.00000E+00
    0.00000E+00         0.00000E+00        -0.29952E+08
 
   -0.29950E+08         0.37176E+06         0.00000E+00
    0.37176E+06        -0.70048E+08         0.00000E+00
    0.00000E+00         0.00000E+00        -0.29999E+08
 
   -0.30000E+08         0.37565E+06         0.00000E+00
    0.37565E+06        -0.70160E+08         0.00000E+00
    0.00000E+00         0.00000E+00        -0.30048E+08
 
   -0.30052E+08         0.37929E+06         0.00000E+00
    0.37929E+06        -0.70274E+08         0.00000E+00
    0.00000E+00         0.00000E+00        -0.30098E+08
 
   -0.30105E+08         0.38267E+06         0.00000E+00
    0.38267E+06        -0.70390E+08         0.00000E+00
    0.00000E+00         0.00000E+00        -0.30149E+08
 
   -0.30160E+08         0.38576E+06         0.00000E+00
    0.38576E+06        -0.70508E+08         0.00000E+00
    0.00000E+00         0.00000E+00        -0.30200E+08
 
   -0.30215E+08         0.38853E+06         0.00000E+00
    0.38853E+06        -0.70629E+08         0.00000E+00
    0.00000E+00         0.00000E+00        -0.30253E+08
 
   -0.30273E+08         0.39094E+06         0.00000E+00
    0.39094E+06        -0.70751E+08         0.00000E+00
    0.00000E+00         0.00000E+00        -0.30307E+08
 
   -0.30331E+08         0.39295E+06         0.00000E+00
    0.39295E+06        -0.70876E+08         0.00000E+00
    0.00000E+00         0.00000E+00        -0.30362E+08
 
   -0.30391E+08         0.39454E+06         0.00000E+00
    0.39454E+06        -0.71002E+08         0.00000E+00
    0.00000E+00         0.00000E+00        -0.30418E+08
 
   -0.30452E+08         0.39565E+06         0.00000E+00
    0.39565E+06        -0.71131E+08         0.00000E+00
    0.00000E+00         0.00000E+00        -0.30475E+08
 
   -0.30515E+08         0.39623E+06         0.00000E+00
    0.39623E+06        -0.71262E+08         0.00000E+00
    0.00000E+00         0.00000E+00        -0.30533E+08
 
   -0.30580E+08         0.39624E+06         0.00000E+00
    0.39624E+06        -0.71395E+08         0.00000E+00
    0.00000E+00         0.00000E+00        -0.30592E+08
 
   -0.30645E+08         0.39562E+06         0.00000E+00
    0.39562E+06        -0.71529E+08         0.00000E+00
    0.00000E+00         0.00000E+00        -0.30652E+08
 
   -0.30713E+08         0.39431E+06         0.00000E+00
    0.39431E+06        -0.71667E+08         0.00000E+00
    0.00000E+00         0.00000E+00        -0.30714E+08
 
   -0.30782E+08         0.39224E+06         0.00000E+00
    0.39224E+06        -0.71806E+08         0.00000E+00
    0.00000E+00         0.00000E+00        -0.30776E+08
 
   -0.30853E+08         0.38934E+06         0.00000E+00
    0.38934E+06        -0.71947E+08         0.00000E+00
    0.00000E+00         0.00000E+00        -0.30840E+08
 
   -0.30926E+08         0.38554E+06         0.00000E+00
    0.38554E+06        -0.72090E+08         0.00000E+00
    0.00000E+00         0.00000E+00        -0.30905E+08
 
   -0.31000E+08         0.38074E+06         0.00000E+00
    0.38074E+06        -0.72236E+08         0.00000E+00
    0.00000E+00         0.00000E+00        -0.30971E+08
 
   -0.31077E+08         0.37485E+06         0.00000E+00
    0.37485E+06        -0.72383E+08         0.00000E+00
    0.00000E+00         0.00000E+00        -0.31038E+08
 
   -0.31155E+08         0.36778E+06         0.00000E+00
    0.36778E+06        -0.72533E+08         0.00000E+00
    0.00000E+00         0.00000E+00        -0.31106E+08
 
   -0.31235E+08         0.35942E+06         0.00000E+00
    0.35942E+06        -0.72684E+08         0.00000E+00
    0.00000E+00         0.00000E+00        -0.31176E+08
 
   -0.31317E+08         0.34967E+06         0.00000E+00
    0.34967E+06        -0.72838E+08         0.00000E+00
    0.00000E+00         0.00000E+00        -0.31247E+08
 
   -0.31401E+08         0.33842E+06         0.00000E+00
    0.33842E+06        -0.72994E+08         0.00000E+00
    0.00000E+00         0.00000E+00        -0.31318E+08
 
   -0.31487E+08         0.32555E+06         0.00000E+00
    0.32555E+06        -0.73151E+08         0.00000E+00
    0.00000E+00         0.00000E+00        -0.31391E+08
 
   -0.31574E+08         0.31096E+06         0.00000E+00
    0.31096E+06        -0.73311E+08         0.00000E+00
    0.00000E+00         0.00000E+00        -0.31466E+08
 
   -0.31664E+08         0.29457E+06         0.00000E+00
    0.29457E+06        -0.73473E+08         0.00000E+00
    0.00000E+00         0.00000E+00        -0.31541E+08
 
   -0.31755E+08         0.27630E+06         0.00000E+00
    0.27630E+06        -0.73635E+08         0.00000E+00
    0.00000E+00         0.00000E+00        -0.31617E+08
 
   -0.31848E+08         0.25612E+06         0.00000E+00
    0.25612E+06        -0.73800E+08         0.00000E+00
    0.00000E+00         0.00000E+00        -0.31694E+08
 
   -0.31942E+08         0.23404E+06         0.00000E+00
    0.23404E+06        -0.73964E+08         0.00000E+00
    0.00000E+00         0.00000E+00        -0.31772E+08
 
   -0.32038E+08         0.21015E+06         0.00000E+00
    0.21015E+06        -0.74129E+08         0.00000E+00
    0.00000E+00         0.00000E+00        -0.31850E+08
 
   -0.32136E+08         0.18467E+06         0.00000E+00
    0.18467E+06        -0.74293E+08         0.00000E+00
    0.00000E+00         0.00000E+00        -0.31929E+08
 
   -0.32235E+08         0.15791E+06         0.00000E+00
    0.15791E+06        -0.74455E+08         0.00000E+00
    0.00000E+00         0.00000E+00        -0.32007E+08
 
   -0.32337E+08         0.13043E+06         0.00000E+00
    0.13043E+06        -0.74613E+08         0.00000E+00
    0.00000E+00         0.00000E+00        -0.32085E+08
 
   -0.32443E+08         0.10299E+06         0.00000E+00
    0.10299E+06        -0.74766E+08         0.00000E+00
    0.00000E+00         0.00000E+00        -0.32163E+08
 
   -0.32552E+08         0.76635E+05         0.00000E+00
    0.76635E+05        -0.74910E+08         0.00000E+00
    0.00000E+00         0.00000E+00        -0.32239E+08
 
   -0.32669E+08         0.52674E+05         0.00000E+00
    0.52674E+05        -0.75043E+08         0.00000E+00
    0.00000E+00         0.00000E+00        -0.32313E+08
 
   -0.32794E+08         0.32449E+05         0.00000E+00
    0.32449E+05        -0.75162E+08         0.00000E+00
    0.00000E+00         0.00000E+00        -0.32387E+08
 
   -0.32930E+08         0.16772E+05         0.00000E+00
    0.16772E+05        -0.75265E+08         0.00000E+00
    0.00000E+00         0.00000E+00        -0.32458E+08
 
   -0.33078E+08         0.50554E+04         0.00000E+00
    0.50554E+04        -0.75351E+08         0.00000E+00
    0.00000E+00         0.00000E+00        -0.32529E+08
 
   -0.28107E+08         0.23176E+04         0.00000E+00
    0.23176E+04        -0.66142E+08         0.00000E+00
    0.00000E+00         0.00000E+00        -0.28275E+08
 
   -0.28144E+08         0.73685E+04         0.00000E+00
    0.73685E+04        -0.66164E+08         0.00000E+00
    0.00000E+00         0.00000E+00        -0.28292E+08
 
   -0.28178E+08         0.13470E+05         0.00000E+00
    0.13470E+05        -0.66190E+08         0.00000E+00
    0.00000E+00         0.00000E+00        -0.28310E+08
 
   -0.28209E+08         0.20818E+05         0.00000E+00
    0.20818E+05        -0.66220E+08         0.00000E+00
    0.00000E+00         0.00000E+00        -0.28329E+08
 
   -0.28238E+08         0.29237E+05         0.00000E+00
    0.29237E+05        -0.66254E+08         0.00000E+00
    0.00000E+00         0.00000E+00        -0.28348E+08
 
   -0.28265E+08         0.38388E+05         0.00000E+00
    0.38388E+05        -0.66291E+08         0.00000E+00
    0.00000E+00         0.00000E+00        -0.28367E+08
 
   -0.28291E+08         0.47928E+05         0.00000E+00
    0.47928E+05        -0.66330E+08         0.00000E+00
    0.00000E+00         0.00000E+00        -0.28386E+08
 
   -0.28316E+08         0.57576E+05         0.00000E+00
    0.57576E+05        -0.66371E+08         0.00000E+00
    0.00000E+00         0.00000E+00        -0.28406E+08
 
   -0.28341E+08         0.67127E+05         0.00000E+00
    0.67127E+05        -0.66413E+08         0.00000E+00
    0.00000E+00         0.00000E+00        -0.28426E+08
 
   -0.28365E+08         0.76441E+05         0.00000E+00
    0.76441E+05        -0.66457E+08         0.00000E+00
    0.00000E+00         0.00000E+00        -0.28446E+08
 
   -0.28389E+08         0.85431E+05         0.00000E+00
    0.85431E+05        -0.66501E+08         0.00000E+00
    0.00000E+00         0.00000E+00        -0.28467E+08
 
   -0.28412E+08         0.94052E+05         0.00000E+00
    0.94052E+05        -0.66545E+08         0.00000E+00
    0.00000E+00         0.00000E+00        -0.28487E+08
 
   -0.28435E+08         0.10228E+06         0.00000E+00
    0.10228E+06        -0.66590E+08         0.00000E+00
    0.00000E+00         0.00000E+00        -0.28508E+08
 
   -0.28459E+08         0.11013E+06         0.00000E+00
    0.11013E+06        -0.66635E+08         0.00000E+00
    0.00000E+00         0.00000E+00        -0.28528E+08
 
   -0.28482E+08         0.11760E+06         0.00000E+00
    0.11760E+06        -0.66681E+08         0.00000E+00
    0.00000E+00         0.00000E+00        -0.28549E+08
 
   -0.28504E+08         0.12472E+06         0.00000E+00
    0.12472E+06        -0.66728E+08         0.00000E+00
    0.00000E+00         0.00000E+00        -0.28570E+08
 
   -0.28527E+08         0.13152E+06         0.00000E+00
    0.13152E+06        -0.66774E+08         0.00000E+00
    0.00000E+00         0.00000E+00        -0.28590E+08
 
   -0.28550E+08         0.13803E+06         0.00000E+00
    0.13803E+06        -0.66821E+08         0.00000E+00
    0.00000E+00         0.00000E+00        -0.28611E+08
 
   -0.28572E+08         0.14428E+06         0.00000E+00
    0.14428E+06        -0.66869E+08         0.00000E+00
    0.00000E+00         0.00000E+00        -0.28632E+08
 
   -0.28595E+08         0.15029E+06         0.00000E+00
    0.15029E+06        -0.66917E+08         0.00000E+00
    0.00000E+00         0.00000E+00        -0.28654E+08
 
   -0.28617E+08         0.15611E+06         0.00000E+00
    0.15611E+06        -0.66966E+08         0.00000E+00
    0.00000E+00         0.00000E+00        -0.28675E+08
 
   -0.28640E+08         0.16175E+06         0.00000E+00
    0.16175E+06        -0.67016E+08         0.00000E+00
    0.00000E+00         0.00000E+00        -0.28697E+08
 
   -0.28662E+08         0.16725E+06         0.00000E+00
    0.16725E+06        -0.67066E+08         0.00000E+00
    0.00000E+00         0.00000E+00        -0.28718E+08
 
   -0.28685E+08         0.17261E+06         0.00000E+00
    0.17261E+06        -0.67117E+08         0.00000E+00
    0.00000E+00         0.00000E+00        -0.28740E+08
 
   -0.28708E+08         0.17788E+06         0.00000E+00
    0.17788E+06        -0.67169E+08         0.00000E+00
    0.00000E+00         0.00000E+00        -0.28763E+08
 
   -0.28731E+08         0.18306E+06         0.00000E+00
    0.18306E+06        -0.67221E+08         0.00000E+00
    0.00000E+00         0.00000E+00        -0.28786E+08
 
   -0.28754E+08         0.18817E+06         0.00000E+00
    0.18817E+06        -0.67275E+08         0.00000E+00
    0.00000E+00         0.00000E+00        -0.28809E+08
 
   -0.28777E+08         0.19323E+06         0.00000E+00
    0.19323E+06        -0.67330E+08         0.00000E+00
    0.00000E+00         0.00000E+00        -0.28832E+08
 
   -0.28801E+08         0.19824E+06         0.00000E+00
    0.19824E+06        -0.67385E+08         0.00000E+00
    0.00000E+00         0.00000E+00        -0.28856E+08
 
   -0.28825E+08         0.20323E+06         0.00000E+00
    0.20323E+06        -0.67442E+08         0.00000E+00
    0.00000E+00         0.00000E+00        -0.28880E+08
 
   -0.28850E+08         0.20820E+06         0.00000E+00
    0.20820E+06        -0.67500E+08         0.00000E+00
    0.00000E+00         0.00000E+00        -0.28905E+08
 
   -0.28875E+08         0.21316E+06         0.00000E+00
    0.21316E+06        -0.67559E+08         0.00000E+00
    0.00000E+00         0.00000E+00        -0.28930E+08
 
   -0.28900E+08         0.21812E+06         0.00000E+00
    0.21812E+06        -0.67619E+08         0.00000E+00
    0.00000E+00         0.00000E+00        -0.28956E+08
 
   -0.28926E+08         0.22308E+06         0.00000E+00
    0.22308E+06        -0.67681E+08         0.00000E+00
    0.00000E+00         0.00000E+00        -0.28982E+08
 
   -0.28952E+08         0.22805E+06         0.00000E+00
    0.22805E+06        -0.67743E+08         0.00000E+00
    0.00000E+00         0.00000E+00        -0.29009E+08
 
   -0.28979E+08         0.23303E+06         0.00000E+00
    0.23303E+06        -0.67807E+08         0.00000E+00
    0.00000E+00         0.00000E+00        -0.29036E+08
 
   -0.29006E+08         0.23802E+06         0.00000E+00
    0.23802E+06        -0.67873E+08         0.00000E+00
    0.00000E+00         0.00000E+00        -0.29064E+08
 
   -0.29034E+08         0.24304E+06         0.00000E+00
    0.24304E+06        -0.67939E+08         0.00000E+00
    0.00000E+00         0.00000E+00        -0.29092E+08
 
   -0.29063E+08         0.24807E+06         0.00000E+00
    0.24807E+06        -0.68008E+08         0.00000E+00
    0.00000E+00         0.00000E+00        -0.29121E+08
 
   -0.29092E+08         0.25312E+06         0.00000E+00
    0.25312E+06        -0.68077E+08         0.00000E+00
    0.00000E+00         0.00000E+00        -0.29151E+08
 
   -0.29122E+08         0.25818E+06         0.00000E+00
    0.25818E+06        -0.68149E+08         0.00000E+00
    0.00000E+00         0.00000E+00        -0.29181E+08
 
   -0.29152E+08         0.26327E+06         0.00000E+00
    0.26327E+06        -0.68221E+08         0.00000E+00
    0.00000E+00         0.00000E+00        -0.29212E+08
 
   -0.29184E+08         0.26837E+06         0.00000E+00
    0.26837E+06        -0.68296E+08         0.00000E+00
    0.00000E+00         0.00000E+00        -0.29244E+08
 
   -0.29216E+08         0.27348E+06         0.00000E+00
    0.27348E+06        -0.68372E+08         0.00000E+00
    0.00000E+00         0.00000E+00        -0.29276E+08
 
   -0.29248E+08         0.27860E+06         0.00000E+00
    0.27860E+06        -0.68449E+08         0.00000E+00
    0.00000E+00         0.00000E+00        -0.29309E+08
 
   -0.29282E+08         0.28373E+06         0.00000E+00
    0.28373E+06        -0.68528E+08         0.00000E+00
    0.00000E+00         0.00000E+00        -0.29343E+08
 
   -0.29316E+08         0.28886E+06         0.00000E+00
    0.28886E+06        -0.68609E+08         0.00000E+00
    0.00000E+00         0.00000E+00        -0.29378E+08
 
   -0.29351E+08         0.29398E+06         0.00000E+00
    0.29398E+06        -0.68692E+08         0.00000E+00
    0.00000E+00         0.00000E+00        -0.29413E+08
 
   -0.29388E+08         0.29908E+06         0.00000E+00
    0.29908E+06        -0.68777E+08         0.00000E+00
    0.00000E+00         0.00000E+00        -0.29449E+08
 
   -0.29425E+08         0.30417E+06         0.00000E+00
    0.30417E+06        -0.68863E+08         0.00000E+00
    0.00000E+00         0.00000E+00        -0.29486E+08
 
   -0.29462E+08         0.30923E+06         0.00000E+00
    0.30923E+06        -0.68951E+08         0.00000E+00
    0.00000E+00         0.00000E+00        -0.29524E+08
 
   -0.29501E+08         0.31425E+06         0.00000E+00
    0.31425E+06        -0.69041E+08         0.00000E+00
    0.00000E+00         0.00000E+00        -0.29563E+08
 
   -0.29541E+08         0.31923E+06         0.00000E+00
    0.31923E+06        -0.69133E+08         0.00000E+00
    0.00000E+00         0.00000E+00        -0.29602E+08
 
   -0.29582E+08         0.32414E+06         0.00000E+00
    0.32414E+06        -0.69227E+08         0.00000E+00
    0.00000E+00         0.00000E+00        -0.29643E+08
 
   -0.29624E+08         0.32899E+06         0.00000E+00
    0.32899E+06        -0.69323E+08         0.00000E+00
    0.00000E+00         0.00000E+00        -0.29684E+08
 
   -0.29666E+08         0.33376E+06         0.00000E+00
    0.33376E+06        -0.69420E+08         0.00000E+00
    0.00000E+00         0.00000E+00        -0.29726E+08
 
   -0.29710E+08         0.33842E+06         0.00000E+00
    0.33842E+06        -0.69520E+08         0.00000E+00
    0.00000E+00         0.00000E+00        -0.29769E+08
 
   -0.29755E+08         0.34298E+06         0.00000E+00
    0.34298E+06        -0.69622E+08         0.00000E+00
    0.00000E+00         0.00000E+00        -0.29813E+08
 
   -0.29801E+08         0.34741E+06         0.00000E+00
    0.34741E+06        -0.69726E+08         0.00000E+00
    0.00000E+00         0.00000E+00        -0.29858E+08
 
   -0.29849E+08         0.35169E+06         0.00000E+00
    0.35169E+06        -0.69831E+08         0.00000E+00
    0.00000E+00         0.00000E+00        -0.29904E+08
 
   -0.29897E+08         0.35581E+06         0.00000E+00
    0.35581E+06        -0.69939E+08         0.00000E+00
    0.00000E+00         0.00000E+00        -0.29951E+08
 
   -0.29946E+08         0.35975E+06         0.00000E+00
    0.35975E+06        -0.70049E+08         0.00000E+00
    0.00000E+00         0.00000E+00        -0.29999E+08
 
   -0.29997E+08         0.36347E+06         0.00000E+00
    0.36347E+06        -0.70161E+08         0.00000E+00
    0.00000E+00         0.00000E+00        -0.30047E+08
 
   -0.30049E+08         0.36697E+06         0.00000E+00
    0.36697E+06        -0.70275E+08         0.00000E+00
    0.00000E+00         0.00000E+00        -0.30097E+08
 
   -0.30103E+08         0.37021E+06         0.00000E+00
    0.37021E+06        -0.70391E+08         0.00000E+00
    0.00000E+00         0.00000E+00        -0.30148E+08
 
   -0.30157E+08         0.37316E+06         0.00000E+00
    0.37316E+06        -0.70509E+08         0.00000E+00
    0.00000E+00         0.00000E+00        -0.30200E+08
 
   -0.30213E+08         0.37580E+06         0.00000E+00
    0.37580E+06        -0.70629E+08         0.00000E+00
    0.00000E+00         0.00000E+00        -0.30253E+08
 
   -0.30270E+08         0.37809E+06         0.00000E+00
    0.37809E+06        -0.70752E+08         0.00000E+00
    0.00000E+00         0.00000E+00        -0.30307E+08
 
   -0.30329E+08         0.37999E+06         0.00000E+00
    0.37999E+06        -0.70876E+08         0.00000E+00
    0.00000E+00         0.00000E+00        -0.30361E+08
 
   -0.30389E+08         0.38148E+06         0.00000E+00
    0.38148E+06        -0.71002E+08         0.00000E+00
    0.00000E+00         0.00000E+00        -0.30417E+08
 
   -0.30451E+08         0.38250E+06         0.00000E+00
    0.38250E+06        -0.71131E+08         0.00000E+00
    0.00000E+00         0.00000E+00        -0.30474E+08
 
   -0.30514E+08         0.38300E+06         0.00000E+00
    0.38300E+06        -0.71262E+08         0.00000E+00
    0.00000E+00         0.00000E+00        -0.30533E+08
 
   -0.30578E+08         0.38295E+06         0.00000E+00
    0.38295E+06        -0.71394E+08         0.00000E+00
    0.00000E+00         0.00000E+00        -0.30592E+08
 
   -0.30645E+08         0.38228E+06         0.00000E+00
    0.38228E+06        -0.71529E+08         0.00000E+00
    0.00000E+00         0.00000E+00        -0.30652E+08
 
   -0.30713E+08         0.38094E+06         0.00000E+00
    0.38094E+06        -0.71666E+08         0.00000E+00
    0.00000E+00         0.00000E+00        -0.30714E+08
 
   -0.30782E+08         0.37885E+06         0.00000E+00
    0.37885E+06        -0.71805E+08         0.00000E+00
    0.00000E+00         0.00000E+00        -0.30776E+08
 
   -0.30854E+08         0.37595E+06         0.00000E+00
    0.37595E+06        -0.71946E+08         0.00000E+00
    0.00000E+00         0.00000E+00        -0.30840E+08
 
   -0.30927E+08         0.37216E+06         0.00000E+00
    0.37216E+06        -0.72089E+08         0.00000E+00
    0.00000E+00         0.00000E+00        -0.30905E+08
 
   -0.31002E+08         0.36739E+06         0.00000E+00
    0.36739E+06        -0.72235E+08         0.00000E+00
    0.00000E+00         0.00000E+00        -0.30971E+08
 
   -0.31079E+08         0.36155E+06         0.00000E+00
    0.36155E+06        -0.72382E+08         0.00000E+00
    0.00000E+00         0.00000E+00        -0.31038E+08
 
   -0.31157E+08         0.35455E+06         0.00000E+00
    0.35455E+06        -0.72531E+08         0.00000E+00
    0.00000E+00         0.00000E+00        -0.31107E+08
 
   -0.31238E+08         0.34627E+06         0.00000E+00
    0.34627E+06        -0.72682E+08         0.00000E+00
    0.00000E+00         0.00000E+00        -0.31176E+08
 
   -0.31321E+08         0.33662E+06         0.00000E+00
    0.33662E+06        -0.72836E+08         0.00000E+00
    0.00000E+00         0.00000E+00        -0.31247E+08
 
   -0.31406E+08         0.32547E+06         0.00000E+00
    0.32547E+06        -0.72991E+08         0.00000E+00
    0.00000E+00         0.00000E+00        -0.31319E+08
 
   -0.31492E+08         0.31271E+06         0.00000E+00
    0.31271E+06        -0.73149E+08         0.00000E+00
    0.00000E+00         0.00000E+00        -0.31392E+08
 
   -0.31581E+08         0.29825E+06         0.00000E+00
    0.29825E+06        -0.73308E+08         0.00000E+00
    0.00000E+00         0.00000E+00        -0.31467E+08
 
   -0.31671E+08         0.28198E+06         0.00000E+00
    0.28198E+06        -0.73469E+08         0.00000E+00
    0.00000E+00         0.00000E+00        -0.31542E+08
 
   -0.31764E+08         0.26383E+06         0.00000E+00
    0.26383E+06        -0.73632E+08         0.00000E+00
    0.00000E+00         0.00000E+00        -0.31619E+08
 
   -0.31858E+08         0.24378E+06         0.00000E+00
    0.24378E+06        -0.73795E+08         0.00000E+00
    0.00000E+00         0.00000E+00        -0.31696E+08
 
   -0.31953E+08         0.22184E+06         0.00000E+00
    0.22184E+06        -0.73960E+08         0.00000E+00
    0.00000E+00         0.00000E+00        -0.31774E+08
 
   -0.32051E+08         0.19812E+06         0.00000E+00
    0.19812E+06        -0.74124E+08         0.00000E+00
    0.00000E+00         0.00000E+00        -0.31853E+08
 
   -0.32150E+08         0.17283E+06         0.00000E+00
    0.17283E+06        -0.74288E+08         0.00000E+00
    0.00000E+00         0.00000E+00        -0.31932E+08
 
   -0.32252E+08         0.14636E+06         0.00000E+00
    0.14636E+06        -0.74450E+08         0.00000E+00
    0.00000E+00         0.00000E+00        -0.32010E+08
 
   -0.32356E+08         0.11930E+06         0.00000E+00
    0.11930E+06        -0.74608E+08         0.00000E+00
    0.00000E+00         0.00000E+00        -0.32089E+08
 
   -0.32463E+08         0.92506E+05         0.00000E+00
    0.92506E+05        -0.74761E+08         0.00000E+00
    0.00000E+00         0.00000E+00        -0.32167E+08
 
   -0.32575E+08         0.67140E+05         0.00000E+00
    0.67140E+05        -0.74905E+08         0.00000E+00
    0.00000E+00         0.00000E+00        -0.32244E+08
 
   -0.32693E+08         0.44607E+05         0.00000E+00
    0.44607E+05        -0.75039E+08         0.00000E+00
    0.00000E+00         0.00000E+00        -0.32319E+08
 
   -0.32819E+08         0.26293E+05         0.00000E+00
    0.26293E+05        -0.75158E+08         0.00000E+00
    0.00000E+00         0.00000E+00        -0.32393E+08
 
   -0.32956E+08         0.12926E+05         0.00000E+00
    0.12926E+05        -0.75262E+08         0.00000E+00
    0.00000E+00         0.00000E+00        -0.32465E+08
 
   -0.33105E+08         0.37512E+04         0.00000E+00
    0.37512E+04        -0.75349E+08         0.00000E+00
    0.00000E+00         0.00000E+00        -0.32536E+08
 
   -0.28099E+08         0.19716E+04         0.00000E+00
    0.19716E+04        -0.66143E+08         0.00000E+00
    0.00000E+00         0.00000E+00        -0.28273E+08
 
   -0.28136E+08         0.63489E+04         0.00000E+00
    0.63489E+04        -0.66165E+08         0.00000E+00
    0.00000E+00         0.00000E+00        -0.28290E+08
 
   -0.28170E+08         0.11835E+05         0.00000E+00
    0.11835E+05        -0.66191E+08         0.00000E+00
    0.00000E+00         0.00000E+00        -0.28308E+08
 
   -0.28202E+08         0.18663E+05         0.00000E+00
    0.18663E+05        -0.66222E+08         0.00000E+00
    0.00000E+00         0.00000E+00        -0.28327E+08
 
   -0.28231E+08         0.26673E+05         0.00000E+00
    0.26673E+05        -0.66256E+08         0.00000E+00
    0.00000E+00         0.00000E+00        -0.28346E+08
 
   -0.28258E+08         0.35515E+05         0.00000E+00
    0.35515E+05        -0.66293E+08         0.00000E+00
    0.00000E+00         0.00000E+00        -0.28365E+08
 
   -0.28285E+08         0.44820E+05         0.00000E+00
    0.44820E+05        -0.66332E+08         0.00000E+00
    0.00000E+00         0.00000E+00        -0.28385E+08
 
   -0.28310E+08         0.54282E+05         0.00000E+00
    0.54282E+05        -0.66373E+08         0.00000E+00
    0.00000E+00         0.00000E+00        -0.28405E+08
 
   -0.28335E+08         0.63674E+05         0.00000E+00
    0.63674E+05        -0.66415E+08         0.00000E+00
    0.00000E+00         0.00000E+00        -0.28425E+08
 
   -0.28360E+08         0.72845E+05         0.00000E+00
    0.72845E+05        -0.66458E+08         0.00000E+00
    0.00000E+00         0.00000E+00        -0.28445E+08
 
   -0.28384E+08         0.81699E+05         0.00000E+00
    0.81699E+05        -0.66502E+08         0.00000E+00
    0.00000E+00         0.00000E+00        -0.28466E+08
 
   -0.28408E+08         0.90184E+05         0.00000E+00
    0.90184E+05        -0.66547E+08         0.00000E+00
    0.00000E+00         0.00000E+00        -0.28486E+08
 
   -0.28431E+08         0.98279E+05         0.00000E+00
    0.98279E+05        -0.66592E+08         0.00000E+00
    0.00000E+00         0.00000E+00        -0.28507E+08
 
   -0.28455E+08         0.10598E+06         0.00000E+00
    0.10598E+06        -0.66637E+08         0.00000E+00
    0.00000E+00         0.00000E+00        -0.28527E+08
 
   -0.28478E+08         0.11331E+06         0.00000E+00
    0.11331E+06        -0.66683E+08         0.00000E+00
    0.00000E+00         0.00000E+00        -0.28548E+08
 
   -0.28501E+08         0.12029E+06         0.00000E+00
    0.12029E+06        -0.66729E+08         0.00000E+00
    0.00000E+00         0.00000E+00        -0.28569E+08
 
   -0.28524E+08         0.12694E+06         0.00000E+00
    0.12694E+06        -0.66775E+08         0.00000E+00
    0.00000E+00         0.00000E+00        -0.28590E+08
 
   -0.28546E+08         0.13330E+06         0.00000E+00
    0.13330E+06        -0.66823E+08         0.00000E+00
    0.00000E+00         0.00000E+00        -0.28611E+08
 
   -0.28569E+08         0.13939E+06         0.00000E+00
    0.13939E+06        -0.66870E+08         0.00000E+00
    0.00000E+00         0.00000E+00        -0.28632E+08
 
   -0.28591E+08         0.14525E+06         0.00000E+00
    0.14525E+06        -0.66918E+08         0.00000E+00
    0.00000E+00         0.00000E+00        -0.28653E+08
 
   -0.28614E+08         0.15092E+06         0.00000E+00
    0.15092E+06        -0.66967E+08         0.00000E+00
    0.00000E+00         0.00000E+00        -0.28674E+08
 
   -0.28636E+08         0.15640E+06         0.00000E+00
    0.15640E+06        -0.67017E+08         0.00000E+00
    0.00000E+00         0.00000E+00        -0.28696E+08
 
   -0.28659E+08         0.16174E+06         0.00000E+00
    0.16174E+06        -0.67067E+08         0.00000E+00
    0.00000E+00         0.00000E+00        -0.28718E+08
 
   -0.28682E+08         0.16696E+06         0.00000E+00
    0.16696E+06        -0.67118E+08         0.00000E+00
    0.00000E+00         0.00000E+00        -0.28740E+08
 
   -0.28705E+08         0.17207E+06         0.00000E+00
    0.17207E+06        -0.67170E+08         0.00000E+00
    0.00000E+00         0.00000E+00        -0.28762E+08
 
   -0.28728E+08         0.17710E+06         0.00000E+00
    0.17710E+06        -0.67222E+08         0.00000E+00
    0.00000E+00         0.00000E+00        -0.28785E+08
 
   -0.28751E+08         0.18205E+06         0.00000E+00
    0.18205E+06        -0.67276E+08         0.00000E+00
    0.00000E+00         0.00000E+00        -0.28808E+08
 
   -0.28774E+08         0.18696E+06         0.00000E+00
    0.18696E+06        -0.67331E+08         0.00000E+00
    0.00000E+00         0.00000E+00        -0.28831E+08
 
   -0.28798E+08         0.19182E+06         0.00000E+00
    0.19182E+06        -0.67386E+08         0.00000E+00
    0.00000E+00         0.00000E+00        -0.28855E+08
 
   -0.28822E+08         0.19665E+06         0.00000E+00
    0.19665E+06        -0.67443E+08         0.00000E+00
    0.00000E+00         0.00000E+00        -0.28880E+08
 
   -0.28847E+08         0.20147E+06         0.00000E+00
    0.20147E+06        -0.67501E+08         0.00000E+00
    0.00000E+00         0.00000E+00        -0.28904E+08
 
   -0.28871E+08         0.20627E+06         0.00000E+00
    0.20627E+06        -0.67560E+08         0.00000E+00
    0.00000E+00         0.00000E+00        -0.28929E+08
 
   -0.28897E+08         0.21107E+06         0.00000E+00
    0.21107E+06        -0.67620E+08         0.00000E+00
    0.00000E+00         0.00000E+00        -0.28955E+08
 
   -0.28922E+08         0.21587E+06         0.00000E+00
    0.21587E+06        -0.67682E+08         0.00000E+00
    0.00000E+00         0.00000E+00        -0.28981E+08
 
   -0.28949E+08         0.22068E+06         0.00000E+00
    0.22068E+06        -0.67744E+08         0.00000E+00
    0.00000E+00         0.00000E+00        -0.29008E+08
 
   -0.28976E+08         0.22550E+06         0.00000E+00
    0.22550E+06        -0.67808E+08         0.00000E+00
    0.00000E+00         0.00000E+00        -0.29035E+08
 
   -0.29003E+08         0.23033E+06         0.00000E+00
    0.23033E+06        -0.67874E+08         0.00000E+00
    0.00000E+00         0.00000E+00        -0.29063E+08
 
   -0.29031E+08         0.23518E+06         0.00000E+00
    0.23518E+06        -0.67940E+08         0.00000E+00
    0.00000E+00         0.00000E+00        -0.29091E+08
 
   -0.29059E+08         0.24004E+06         0.00000E+00
    0.24004E+06        -0.68009E+08         0.00000E+00
    0.00000E+00         0.00000E+00        -0.29120E+08
 
   -0.29088E+08         0.24492E+06         0.00000E+00
    0.24492E+06        -0.68078E+08         0.00000E+00
    0.00000E+00         0.00000E+00        -0.29150E+08
 
   -0.29118E+08         0.24982E+06         0.00000E+00
    0.24982E+06        -0.68150E+08         0.00000E+00
    0.00000E+00         0.00000E+00        -0.29180E+08
 
   -0.29149E+08         0.25474E+06         0.00000E+00
    0.25474E+06        -0.68222E+08         0.00000E+00
    0.00000E+00         0.00000E+00        -0.29211E+08
 
   -0.29180E+08         0.25966E+06         0.00000E+00
    0.25966E+06        -0.68297E+08         0.00000E+00
    0.00000E+00         0.00000E+00        -0.29243E+08
 
   -0.29212E+08         0.26460E+06         0.00000E+00
    0.26460E+06        -0.68373E+08         0.00000E+00
    0.00000E+00         0.00000E+00        -0.29275E+08
 
   -0.29245E+08         0.26955E+06         0.00000E+00
    0.26955E+06        -0.68450E+08         0.00000E+00
    0.00000E+00         0.00000E+00        -0.29308E+08
 
   -0.29278E+08         0.27450E+06         0.00000E+00
    0.27450E+06        -0.68529E+08         0.00000E+00
    0.00000E+00         0.00000E+00        -0.29342E+08
 
   -0.29313E+08         0.27945E+06         0.00000E+00
    0.27945E+06        -0.68610E+08         0.00000E+00
    0.00000E+00         0.00000E+00        -0.29377E+08
 
   -0.29348E+08         0.28439E+06         0.00000E+00
    0.28439E+06        -0.68693E+08         0.00000E+00
    0.00000E+00         0.00000E+00        -0.29412E+08
 
   -0.29384E+08         0.28932E+06         0.00000E+00
    0.28932E+06        -0.68778E+08         0.00000E+00
    0.00000E+00         0.00000E+00        -0.29448E+08
 
   -0.29421E+08         0.29423E+06         0.00000E+00
    0.29423E+06        -0.68864E+08         0.00000E+00
    0.00000E+00         0.00000E+00        -0.29485E+08
 
   -0.29459E+08         0.29911E+06         0.00000E+00
    0.29911E+06        -0.68952E+08         0.00000E+00
    0.00000E+00         0.00000E+00        -0.29523E+08
 
   -0.29498E+08         0.30396E+06         0.00000E+00
    0.30396E+06        -0.69042E+08         0.00000E+00
    0.00000E+00         0.00000E+00        -0.29562E+08
 
   -0.29537E+08         0.30875E+06         0.00000E+00
    0.30875E+06        -0.69134E+08         0.00000E+00
    0.00000E+00         0.00000E+00        -0.29601E+08
 
   -0.29578E+08         0.31349E+06         0.00000E+00
    0.31349E+06        -0.69228E+08         0.00000E+00
    0.00000E+00         0.00000E+00        -0.29642E+08
 
   -0.29620E+08         0.31816E+06         0.00000E+00
    0.31816E+06        -0.69324E+08         0.00000E+00
    0.00000E+00         0.00000E+00        -0.29683E+08
 
   -0.29663E+08         0.32275E+06         0.00000E+00
    0.32275E+06        -0.69421E+08         0.00000E+00
    0.00000E+00         0.00000E+00        -0.29725E+08
 
   -0.29707E+08         0.32725E+06         0.00000E+00
    0.32725E+06        -0.69521E+08         0.00000E+00
    0.00000E+00         0.00000E+00        -0.29768E+08
 
   -0.29752E+08         0.33163E+06         0.00000E+00
    0.33163E+06        -0.69623E+08         0.00000E+00
    0.00000E+00         0.00000E+00        -0.29812E+08
 
   -0.29798E+08         0.33590E+06         0.00000E+00
    0.33590E+06        -0.69726E+08         0.00000E+00
    0.00000E+00         0.00000E+00        -0.29857E+08
 
   -0.29845E+08         0.34001E+06         0.00000E+00
    0.34001E+06        -0.69832E+08         0.00000E+00
    0.00000E+00         0.00000E+00        -0.29903E+08
 
   -0.29894E+08         0.34397E+06         0.00000E+00
    0.34397E+06        -0.69940E+08         0.00000E+00
    0.00000E+00         0.00000E+00        -0.29950E+08
 
   -0.29943E+08         0.34775E+06         0.00000E+00
    0.34775E+06        -0.70050E+08         0.00000E+00
    0.00000E+00         0.00000E+00        -0.29998E+08
 
   -0.29994E+08         0.35132E+06         0.00000E+00
    0.35132E+06        -0.70161E+08         0.00000E+00
    0.00000E+00         0.00000E+00        -0.30047E+08
 
   -0.30046E+08         0.35467E+06         0.00000E+00
    0.35467E+06        -0.70275E+08         0.00000E+00
    0.00000E+00         0.00000E+00        -0.30097E+08
 
   -0.30100E+08         0.35777E+06         0.00000E+00
    0.35777E+06        -0.70391E+08         0.00000E+00
    0.00000E+00         0.00000E+00        -0.30147E+08
 
   -0.30154E+08         0.36059E+06         0.00000E+00
    0.36059E+06        -0.70510E+08         0.00000E+00
    0.00000E+00         0.00000E+00        -0.30199E+08
 
   -0.30210E+08         0.36310E+06         0.00000E+00
    0.36310E+06        -0.70630E+08         0.00000E+00
    0.00000E+00         0.00000E+00        -0.30252E+08
 
   -0.30268E+08         0.36527E+06         0.00000E+00
    0.36527E+06        -0.70752E+08         0.00000E+00
    0.00000E+00         0.00000E+00        -0.30306E+08
 
   -0.30327E+08         0.36707E+06         0.00000E+00
    0.36707E+06        -0.70876E+08         0.00000E+00
    0.00000E+00         0.00000E+00        -0.30361E+08
 
   -0.30387E+08         0.36846E+06         0.00000E+00
    0.36846E+06        -0.71003E+08         0.00000E+00
    0.00000E+00         0.00000E+00        -0.30417E+08
 
   -0.30449E+08         0.36940E+06         0.00000E+00
    0.36940E+06        -0.71131E+08         0.00000E+00
    0.00000E+00         0.00000E+00        -0.30474E+08
 
   -0.30512E+08         0.36983E+06         0.00000E+00
    0.36983E+06        -0.71262E+08         0.00000E+00
    0.00000E+00         0.00000E+00        -0.30532E+08
 
   -0.30577E+08         0.36972E+06         0.00000E+00
    0.36972E+06        -0.71394E+08         0.00000E+00
    0.00000E+00         0.00000E+00        -0.30591E+08
 
   -0.30644E+08         0.36901E+06         0.00000E+00
    0.36901E+06        -0.71529E+08         0.00000E+00
    0.00000E+00         0.00000E+00        -0.30652E+08
 
   -0.30712E+08         0.36764E+06         0.00000E+00
    0.36764E+06        -0.71666E+08         0.00000E+00
    0.00000E+00         0.00000E+00        -0.30713E+08
 
   -0.30782E+08         0.36554E+06         0.00000E+00
    0.36554E+06        -0.71805E+08         0.00000E+00
    0.00000E+00         0.00000E+00        -0.30776E+08
 
   -0.30854E+08         0.36264E+06         0.00000E+00
    0.36264E+06        -0.71946E+08         0.00000E+00
    0.00000E+00         0.00000E+00        -0.30840E+08
 
   -0.30928E+08         0.35888E+06         0.00000E+00
    0.35888E+06        -0.72088E+08         0.00000E+00
    0.00000E+00         0.00000E+00        -0.30905E+08
 
   -0.31003E+08         0.35415E+06         0.00000E+00
    0.35415E+06        -0.72233E+08         0.00000E+00
    0.00000E+00         0.00000E+00        -0.30971E+08
 
   -0.31080E+08         0.34837E+06         0.00000E+00
    0.34837E+06        -0.72380E+08         0.00000E+00
    0.00000E+00         0.00000E+00        -0.31038E+08
 
   -0.31160E+08         0.34144E+06         0.00000E+00
    0.34144E+06        -0.72530E+08         0.00000E+00
    0.00000E+00         0.00000E+00        -0.31107E+08
 
   -0.31241E+08         0.33326E+06         0.00000E+00
    0.33326E+06        -0.72681E+08         0.00000E+00
    0.00000E+00         0.00000E+00        -0.31177E+08
 
   -0.31325E+08         0.32371E+06         0.00000E+00
    0.32371E+06        -0.72834E+08         0.00000E+00
    0.00000E+00         0.00000E+00        -0.31248E+08
 
   -0.31410E+08         0.31268E+06         0.00000E+00
    0.31268E+06        -0.72989E+08         0.00000E+00
    0.00000E+00         0.00000E+00        -0.31320E+08
 
   -0.31498E+08         0.30005E+06         0.00000E+00
    0.30005E+06        -0.73146E+08         0.00000E+00
    0.00000E+00         0.00000E+00        -0.31393E+08
 
   -0.31587E+08         0.28573E+06         0.00000E+00
    0.28573E+06        -0.73305E+08         0.00000E+00
    0.00000E+00         0.00000E+00        -0.31468E+08
 
   -0.31679E+08         0.26960E+06         0.00000E+00
    0.26960E+06        -0.73466E+08         0.00000E+00
    0.00000E+00         0.00000E+00        -0.31543E+08
 
   -0.31772E+08         0.25161E+06         0.00000E+00
    0.25161E+06        -0.73628E+08         0.00000E+00
    0.00000E+00         0.00000E+00        -0.31620E+08
 
   -0.31867E+08         0.23171E+06         0.00000E+00
    0.23171E+06        -0.73791E+08         0.00000E+00
    0.00000E+00         0.00000E+00        -0.31698E+08
 
   -0.31965E+08         0.20993E+06         0.00000E+00
    0.20993E+06        -0.73955E+08         0.00000E+00
    0.00000E+00         0.00000E+00        -0.31776E+08
 
   -0.32064E+08         0.18640E+06         0.00000E+00
    0.18640E+06        -0.74119E+08         0.00000E+00
    0.00000E+00         0.00000E+00        -0.31855E+08
 
   -0.32165E+08         0.16134E+06         0.00000E+00
    0.16134E+06        -0.74283E+08         0.00000E+00
    0.00000E+00         0.00000E+00        -0.31934E+08
 
   -0.32268E+08         0.13518E+06         0.00000E+00
    0.13518E+06        -0.74444E+08         0.00000E+00
    0.00000E+00         0.00000E+00        -0.32014E+08
 
   -0.32374E+08         0.10856E+06         0.00000E+00
    0.10856E+06        -0.74603E+08         0.00000E+00
    0.00000E+00         0.00000E+00        -0.32093E+08
 
   -0.32483E+08         0.82413E+05         0.00000E+00
    0.82413E+05        -0.74755E+08         0.00000E+00
    0.00000E+00         0.00000E+00        -0.32172E+08
 
   -0.32597E+08         0.58008E+05         0.00000E+00
    0.58008E+05        -0.74900E+08         0.00000E+00
    0.00000E+00         0.00000E+00        -0.32249E+08
 
   -0.32716E+08         0.36847E+05         0.00000E+00
    0.36847E+05        -0.75035E+08         0.00000E+00
    0.00000E+00         0.00000E+00        -0.32325E+08
 
   -0.32844E+08         0.20359E+05         0.00000E+00
    0.20359E+05        -0.75155E+08         0.00000E+00
    0.00000E+00         0.00000E+00        -0.32400E+08
 
   -0.32982E+08         0.92074E+04         0.00000E+00
    0.92074E+04        -0.75260E+08         0.00000E+00
    0.00000E+00         0.00000E+00        -0.32473E+08
 
   -0.33131E+08         0.24862E+04         0.00000E+00
    0.24862E+04        -0.75348E+08         0.00000E+00
    0.00000E+00         0.00000E+00        -0.32544E+08
 
   -0.28091E+08         0.16331E+04         0.00000E+00
    0.16331E+04        -0.66144E+08         0.00000E+00
    0.00000E+00         0.00000E+00        -0.28270E+08
 
   -0.28128E+08         0.53546E+04         0.00000E+00
    0.53546E+04        -0.66166E+08         0.00000E+00
    0.00000E+00         0.00000E+00        -0.28288E+08
 
   -0.28163E+08         0.10247E+05         0.00000E+00
    0.10247E+05        -0.66192E+08         0.00000E+00
    0.00000E+00         0.00000E+00        -0.28307E+08
 
   -0.28194E+08         0.16576E+05         0.00000E+00
    0.16576E+05        -0.66223E+08         0.00000E+00
    0.00000E+00         0.00000E+00        -0.28325E+08
 
   -0.28224E+08         0.24190E+05         0.00000E+00
    0.24190E+05        -0.66258E+08         0.00000E+00
    0.00000E+00         0.00000E+00        -0.28344E+08
 
   -0.28252E+08         0.32728E+05         0.00000E+00
    0.32728E+05        -0.66295E+08         0.00000E+00
    0.00000E+00         0.00000E+00        -0.28364E+08
 
   -0.28279E+08         0.41798E+05         0.00000E+00
    0.41798E+05        -0.66334E+08         0.00000E+00
    0.00000E+00         0.00000E+00        -0.28384E+08
 
   -0.28305E+08         0.51069E+05         0.00000E+00
    0.51069E+05        -0.66375E+08         0.00000E+00
    0.00000E+00         0.00000E+00        -0.28404E+08
 
   -0.28330E+08         0.60297E+05         0.00000E+00
    0.60297E+05        -0.66417E+08         0.00000E+00
    0.00000E+00         0.00000E+00        -0.28424E+08
 
   -0.28355E+08         0.69318E+05         0.00000E+00
    0.69318E+05        -0.66460E+08         0.00000E+00
    0.00000E+00         0.00000E+00        -0.28444E+08
 
   -0.28379E+08         0.78027E+05         0.00000E+00
    0.78027E+05        -0.66504E+08         0.00000E+00
    0.00000E+00         0.00000E+00        -0.28465E+08
 
   -0.28403E+08         0.86369E+05         0.00000E+00
    0.86369E+05        -0.66548E+08         0.00000E+00
    0.00000E+00         0.00000E+00        -0.28486E+08
 
   -0.28427E+08         0.94319E+05         0.00000E+00
    0.94319E+05        -0.66593E+08         0.00000E+00
    0.00000E+00         0.00000E+00        -0.28506E+08
 
   -0.28451E+08         0.10188E+06         0.00000E+00
    0.10188E+06        -0.66638E+08         0.00000E+00
    0.00000E+00         0.00000E+00        -0.28527E+08
 
   -0.28474E+08         0.10906E+06         0.00000E+00
    0.10906E+06        -0.66684E+08         0.00000E+00
    0.00000E+00         0.00000E+00        -0.28547E+08
 
   -0.28497E+08         0.11588E+06         0.00000E+00
    0.11588E+06        -0.66730E+08         0.00000E+00
    0.00000E+00         0.00000E+00        -0.28568E+08
 
   -0.28520E+08         0.12238E+06         0.00000E+00
    0.12238E+06        -0.66777E+08         0.00000E+00
    0.00000E+00         0.00000E+00        -0.28589E+08
 
   -0.28543E+08         0.12858E+06         0.00000E+00
    0.12858E+06        -0.66824E+08         0.00000E+00
    0.00000E+00         0.00000E+00        -0.28610E+08
 
   -0.28566E+08         0.13452E+06         0.00000E+00
    0.13452E+06        -0.66871E+08         0.00000E+00
    0.00000E+00         0.00000E+00        -0.28631E+08
 
   -0.28588E+08         0.14023E+06         0.00000E+00
    0.14023E+06        -0.66920E+08         0.00000E+00
    0.00000E+00         0.00000E+00        -0.28652E+08
 
   -0.28611E+08         0.14573E+06         0.00000E+00
    0.14573E+06        -0.66968E+08         0.00000E+00
    0.00000E+00         0.00000E+00        -0.28674E+08
 
   -0.28633E+08         0.15106E+06         0.00000E+00
    0.15106E+06        -0.67018E+08         0.00000E+00
    0.00000E+00         0.00000E+00        -0.28695E+08
 
   -0.28656E+08         0.15625E+06         0.00000E+00
    0.15625E+06        -0.67068E+08         0.00000E+00
    0.00000E+00         0.00000E+00        -0.28717E+08
 
   -0.28679E+08         0.16131E+06         0.00000E+00
    0.16131E+06        -0.67119E+08         0.00000E+00
    0.00000E+00         0.00000E+00        -0.28739E+08
 
   -0.28701E+08         0.16626E+06         0.00000E+00
    0.16626E+06        -0.67171E+08         0.00000E+00
    0.00000E+00         0.00000E+00        -0.28762E+08
 
   -0.28724E+08         0.17113E+06         0.00000E+00
    0.17113E+06        -0.67223E+08         0.00000E+00
    0.00000E+00         0.00000E+00        -0.28784E+08
 
   -0.28748E+08         0.17594E+06         0.00000E+00
    0.17594E+06        -0.67277E+08         0.00000E+00
    0.00000E+00         0.00000E+00        -0.28807E+08
 
   -0.28771E+08         0.18069E+06         0.00000E+00
    0.18069E+06        -0.67332E+08         0.00000E+00
    0.00000E+00         0.00000E+00        -0.28831E+08
 
   -0.28795E+08         0.18539E+06         0.00000E+00
    0.18539E+06        -0.67387E+08         0.00000E+00
    0.00000E+00         0.00000E+00        -0.28855E+08
 
   -0.28819E+08         0.19007E+06         0.00000E+00
    0.19007E+06        -0.67444E+08         0.00000E+00
    0.00000E+00         0.00000E+00        -0.28879E+08
 
   -0.28843E+08         0.19473E+06         0.00000E+00
    0.19473E+06        -0.67502E+08         0.00000E+00
    0.00000E+00         0.00000E+00        -0.28904E+08
 
   -0.28868E+08         0.19937E+06         0.00000E+00
    0.19937E+06        -0.67561E+08         0.00000E+00
    0.00000E+00         0.00000E+00        -0.28929E+08
 
   -0.28894E+08         0.20401E+06         0.00000E+00
    0.20401E+06        -0.67621E+08         0.00000E+00
    0.00000E+00         0.00000E+00        -0.28954E+08
 
   -0.28919E+08         0.20866E+06         0.00000E+00
    0.20866E+06        -0.67682E+08         0.00000E+00
    0.00000E+00         0.00000E+00        -0.28981E+08
 
   -0.28946E+08         0.21330E+06         0.00000E+00
    0.21330E+06        -0.67745E+08         0.00000E+00
    0.00000E+00         0.00000E+00        -0.29007E+08
 
   -0.28972E+08         0.21796E+06         0.00000E+00
    0.21796E+06        -0.67809E+08         0.00000E+00
    0.00000E+00         0.00000E+00        -0.29034E+08
 
   -0.29000E+08         0.22263E+06         0.00000E+00
    0.22263E+06        -0.67875E+08         0.00000E+00
    0.00000E+00         0.00000E+00        -0.29062E+08
 
   -0.29027E+08         0.22731E+06         0.00000E+00
    0.22731E+06        -0.67941E+08         0.00000E+00
    0.00000E+00         0.00000E+00        -0.29091E+08
 
   -0.29056E+08         0.23201E+06         0.00000E+00
    0.23201E+06        -0.68010E+08         0.00000E+00
    0.00000E+00         0.00000E+00        -0.29120E+08
 
   -0.29085E+08         0.23672E+06         0.00000E+00
    0.23672E+06        -0.68079E+08         0.00000E+00
    0.00000E+00         0.00000E+00        -0.29149E+08
 
   -0.29115E+08         0.24145E+06         0.00000E+00
    0.24145E+06        -0.68151E+08         0.00000E+00
    0.00000E+00         0.00000E+00        -0.29180E+08
 
   -0.29145E+08         0.24620E+06         0.00000E+00
    0.24620E+06        -0.68223E+08         0.00000E+00
    0.00000E+00         0.00000E+00        -0.29211E+08
 
   -0.29177E+08         0.25095E+06         0.00000E+00
    0.25095E+06        -0.68298E+08         0.00000E+00
    0.00000E+00         0.00000E+00        -0.29242E+08
 
   -0.29209E+08         0.25572E+06         0.00000E+00
    0.25572E+06        -0.68374E+08         0.00000E+00
    0.00000E+00         0.00000E+00        -0.29275E+08
 
   -0.29241E+08         0.26049E+06         0.00000E+00
    0.26049E+06        -0.68451E+08         0.00000E+00
    0.00000E+00         0.00000E+00        -0.29308E+08
 
   -0.29275E+08         0.26527E+06         0.00000E+00
    0.26527E+06        -0.68530E+08         0.00000E+00
    0.00000E+00         0.00000E+00        -0.29342E+08
 
   -0.29309E+08         0.27004E+06         0.00000E+00
    0.27004E+06        -0.68611E+08         0.00000E+00
    0.00000E+00         0.00000E+00        -0.29376E+08
 
   -0.29344E+08         0.27481E+06         0.00000E+00
    0.27481E+06        -0.68694E+08         0.00000E+00
    0.00000E+00         0.00000E+00        -0.29412E+08
 
   -0.29380E+08         0.27956E+06         0.00000E+00
    0.27956E+06        -0.68779E+08         0.00000E+00
    0.00000E+00         0.00000E+00        -0.29448E+08
 
   -0.29417E+08         0.28429E+06         0.00000E+00
    0.28429E+06        -0.68865E+08         0.00000E+00
    0.00000E+00         0.00000E+00        -0.29485E+08
 
   -0.29455E+08         0.28900E+06         0.00000E+00
    0.28900E+06        -0.68953E+08         0.00000E+00
    0.00000E+00         0.00000E+00        -0.29523E+08
 
   -0.29494E+08         0.29366E+06         0.00000E+00
    0.29366E+06        -0.69043E+08         0.00000E+00
    0.00000E+00         0.00000E+00        -0.29561E+08
 
   -0.29534E+08         0.29828E+06         0.00000E+00
    0.29828E+06        -0.69135E+08         0.00000E+00
    0.00000E+00         0.00000E+00        -0.29601E+08
 
   -0.29575E+08         0.30285E+06         0.00000E+00
    0.30285E+06        -0.69229E+08         0.00000E+00
    0.00000E+00         0.00000E+00        -0.29641E+08
 
   -0.29617E+08         0.30734E+06         0.00000E+00
    0.30734E+06        -0.69325E+08         0.00000E+00
    0.00000E+00         0.00000E+00        -0.29682E+08
 
   -0.29659E+08         0.31176E+06         0.00000E+00
    0.31176E+06        -0.69422E+08         0.00000E+00
    0.00000E+00         0.00000E+00        -0.29725E+08
 
   -0.29703E+08         0.31608E+06         0.00000E+00
    0.31608E+06        -0.69522E+08         0.00000E+00
    0.00000E+00         0.00000E+00        -0.29768E+08
 
   -0.29748E+08         0.32030E+06         0.00000E+00
    0.32030E+06        -0.69624E+08         0.00000E+00
    0.00000E+00         0.00000E+00        -0.29812E+08
 
   -0.29795E+08         0.32439E+06         0.00000E+00
    0.32439E+06        -0.69727E+08         0.00000E+00
    0.00000E+00         0.00000E+00        -0.29857E+08
 
   -0.29842E+08         0.32835E+06         0.00000E+00
    0.32835E+06        -0.69833E+08         0.00000E+00
    0.00000E+00         0.00000E+00        -0.29902E+08
 
   -0.29890E+08         0.33215E+06         0.00000E+00
    0.33215E+06        -0.69941E+08         0.00000E+00
    0.00000E+00         0.00000E+00        -0.29949E+08
 
   -0.29940E+08         0.33577E+06         0.00000E+00
    0.33577E+06        -0.70050E+08         0.00000E+00
    0.00000E+00         0.00000E+00        -0.29997E+08
 
   -0.29991E+08         0.33919E+06         0.00000E+00
    0.33919E+06        -0.70162E+08         0.00000E+00
    0.00000E+00         0.00000E+00        -0.30046E+08
 
   -0.30043E+08         0.34240E+06         0.00000E+00
    0.34240E+06        -0.70276E+08         0.00000E+00
    0.00000E+00         0.00000E+00        -0.30096E+08
 
   -0.30097E+08         0.34536E+06         0.00000E+00
    0.34536E+06        -0.70392E+08         0.00000E+00
    0.00000E+00         0.00000E+00        -0.30147E+08
 
   -0.30152E+08         0.34805E+06         0.00000E+00
    0.34805E+06        -0.70510E+08         0.00000E+00
    0.00000E+00         0.00000E+00        -0.30199E+08
 
   -0.30208E+08         0.35044E+06         0.00000E+00
    0.35044E+06        -0.70630E+08         0.00000E+00
    0.00000E+00         0.00000E+00        -0.30251E+08
 
   -0.30266E+08         0.35250E+06         0.00000E+00
    0.35250E+06        -0.70752E+08         0.00000E+00
    0.00000E+00         0.00000E+00        -0.30305E+08
 
   -0.30325E+08         0.35420E+06         0.00000E+00
    0.35420E+06        -0.70877E+08         0.00000E+00
    0.00000E+00         0.00000E+00        -0.30360E+08
 
   -0.30385E+08         0.35549E+06         0.00000E+00
    0.35549E+06        -0.71003E+08         0.00000E+00
    0.00000E+00         0.00000E+00        -0.30416E+08
 
   -0.30447E+08         0.35635E+06         0.00000E+00
    0.35635E+06        -0.71131E+08         0.00000E+00
    0.00000E+00         0.00000E+00        -0.30474E+08
 
   -0.30511E+08         0.35671E+06         0.00000E+00
    0.35671E+06        -0.71262E+08         0.00000E+00
    0.00000E+00         0.00000E+00        -0.30532E+08
 
   -0.30576E+08         0.35655E+06         0.00000E+00
    0.35655E+06        -0.71394E+08         0.00000E+00
    0.00000E+00         0.00000E+00        -0.30591E+08
 
   -0.30643E+08         0.35580E+06         0.00000E+00
    0.35580E+06        -0.71529E+08         0.00000E+00
    0.00000E+00         0.00000E+00        -0.30652E+08
 
   -0.30712E+08         0.35441E+06         0.00000E+00
    0.35441E+06        -0.71665E+08         0.00000E+00
    0.00000E+00         0.00000E+00        -0.30713E+08
 
   -0.30782E+08         0.35230E+06         0.00000E+00
    0.35230E+06        -0.71804E+08         0.00000E+00
    0.00000E+00         0.00000E+00        -0.30776E+08
 
   -0.30854E+08         0.34942E+06         0.00000E+00
    0.34942E+06        -0.71945E+08         0.00000E+00
    0.00000E+00         0.00000E+00        -0.30840E+08
 
   -0.30928E+08         0.34569E+06         0.00000E+00
    0.34569E+06        -0.72088E+08         0.00000E+00
    0.00000E+00         0.00000E+00        -0.30905E+08
 
   -0.31004E+08         0.34101E+06         0.00000E+00
    0.34101E+06        -0.72232E+08         0.00000E+00
    0.00000E+00         0.00000E+00        -0.30971E+08
 
   -0.31082E+08         0.33530E+06         0.00000E+00
    0.33530E+06        -0.72379E+08         0.00000E+00
    0.00000E+00         0.00000E+00        -0.31038E+08
 
   -0.31162E+08         0.32846E+06         0.00000E+00
    0.32846E+06        -0.72528E+08         0.00000E+00
    0.00000E+00         0.00000E+00        -0.31107E+08
 
   -0.31244E+08         0.32038E+06         0.00000E+00
    0.32038E+06        -0.72679E+08         0.00000E+00
    0.00000E+00         0.00000E+00        -0.31177E+08
 
   -0.31328E+08         0.31095E+06         0.00000E+00
    0.31095E+06        -0.72832E+08         0.00000E+00
    0.00000E+00         0.00000E+00        -0.31248E+08
 
   -0.31415E+08         0.30006E+06         0.00000E+00
    0.30006E+06        -0.72987E+08         0.00000E+00
    0.00000E+00         0.00000E+00        -0.31320E+08
 
   -0.31503E+08         0.28758E+06         0.00000E+00
    0.28758E+06        -0.73143E+08         0.00000E+00
    0.00000E+00         0.00000E+00        -0.31394E+08
 
   -0.31593E+08         0.27341E+06         0.00000E+00
    0.27341E+06        -0.73302E+08         0.00000E+00
    0.00000E+00         0.00000E+00        -0.31469E+08
 
   -0.31686E+08         0.25745E+06         0.00000E+00
    0.25745E+06        -0.73462E+08         0.00000E+00
    0.00000E+00         0.00000E+00        -0.31544E+08
 
   -0.31781E+08         0.23963E+06         0.00000E+00
    0.23963E+06        -0.73624E+08         0.00000E+00
    0.00000E+00         0.00000E+00        -0.31621E+08
 
   -0.31877E+08         0.21991E+06         0.00000E+00
    0.21991E+06        -0.73787E+08         0.00000E+00
    0.00000E+00         0.00000E+00        -0.31699E+08
 
   -0.31976E+08         0.19833E+06         0.00000E+00
    0.19833E+06        -0.73951E+08         0.00000E+00
    0.00000E+00         0.00000E+00        -0.31778E+08
 
   -0.32077E+08         0.17501E+06         0.00000E+00
    0.17501E+06        -0.74115E+08         0.00000E+00
    0.00000E+00         0.00000E+00        -0.31857E+08
 
   -0.32179E+08         0.15021E+06         0.00000E+00
    0.15021E+06        -0.74278E+08         0.00000E+00
    0.00000E+00         0.00000E+00        -0.31937E+08
 
   -0.32284E+08         0.12438E+06         0.00000E+00
    0.12438E+06        -0.74439E+08         0.00000E+00
    0.00000E+00         0.00000E+00        -0.32017E+08
 
   -0.32392E+08         0.98204E+05         0.00000E+00
    0.98204E+05        -0.74597E+08         0.00000E+00
    0.00000E+00         0.00000E+00        -0.32097E+08
 
   -0.32503E+08         0.72704E+05         0.00000E+00
    0.72704E+05        -0.74750E+08         0.00000E+00
    0.00000E+00         0.00000E+00        -0.32176E+08
 
   -0.32619E+08         0.49229E+05         0.00000E+00
    0.49229E+05        -0.74896E+08         0.00000E+00
    0.00000E+00         0.00000E+00        -0.32254E+08
 
   -0.32740E+08         0.29380E+05         0.00000E+00
    0.29380E+05        -0.75031E+08         0.00000E+00
    0.00000E+00         0.00000E+00        -0.32331E+08
 
   -0.32869E+08         0.14630E+05         0.00000E+00
    0.14630E+05        -0.75153E+08         0.00000E+00
    0.00000E+00         0.00000E+00        -0.32406E+08
 
   -0.33007E+08         0.56007E+04         0.00000E+00
    0.56007E+04        -0.75259E+08         0.00000E+00
    0.00000E+00         0.00000E+00        -0.32480E+08
 
   -0.33157E+08         0.12554E+04         0.00000E+00
    0.12554E+04        -0.75347E+08         0.00000E+00
    0.00000E+00         0.00000E+00        -0.32551E+08
 
   -0.28083E+08         0.13012E+04         0.00000E+00
    0.13012E+04        -0.66144E+08         0.00000E+00
    0.00000E+00         0.00000E+00        -0.28268E+08
 
   -0.28121E+08         0.43827E+04         0.00000E+00
    0.43827E+04        -0.66166E+08         0.00000E+00
    0.00000E+00         0.00000E+00        -0.28286E+08
 
   -0.28155E+08         0.87022E+04         0.00000E+00
    0.87022E+04        -0.66193E+08         0.00000E+00
    0.00000E+00         0.00000E+00        -0.28305E+08
 
   -0.28187E+08         0.14551E+05         0.00000E+00
    0.14551E+05        -0.66225E+08         0.00000E+00
    0.00000E+00         0.00000E+00        -0.28323E+08
 
   -0.28217E+08         0.21785E+05         0.00000E+00
    0.21785E+05        -0.66259E+08         0.00000E+00
    0.00000E+00         0.00000E+00        -0.28343E+08
 
   -0.28245E+08         0.30027E+05         0.00000E+00
    0.30027E+05        -0.66296E+08         0.00000E+00
    0.00000E+00         0.00000E+00        -0.28362E+08
 
   -0.28272E+08         0.38862E+05         0.00000E+00
    0.38862E+05        -0.66336E+08         0.00000E+00
    0.00000E+00         0.00000E+00        -0.28382E+08
 
   -0.28299E+08         0.47939E+05         0.00000E+00
    0.47939E+05        -0.66377E+08         0.00000E+00
    0.00000E+00         0.00000E+00        -0.28403E+08
 
   -0.28325E+08         0.56996E+05         0.00000E+00
    0.56996E+05        -0.66419E+08         0.00000E+00
    0.00000E+00         0.00000E+00        -0.28423E+08
 
   -0.28350E+08         0.65859E+05         0.00000E+00
    0.65859E+05        -0.66462E+08         0.00000E+00
    0.00000E+00         0.00000E+00        -0.28444E+08
 
   -0.28375E+08         0.74415E+05         0.00000E+00
    0.74415E+05        -0.66506E+08         0.00000E+00
    0.00000E+00         0.00000E+00        -0.28464E+08
 
   -0.28399E+08         0.82606E+05         0.00000E+00
    0.82606E+05        -0.66550E+08         0.00000E+00
    0.00000E+00         0.00000E+00        -0.28485E+08
 
   -0.28423E+08         0.90405E+05         0.00000E+00
    0.90405E+05        -0.66595E+08         0.00000E+00
    0.00000E+00         0.00000E+00        -0.28505E+08
 
   -0.28447E+08         0.97809E+05         0.00000E+00
    0.97809E+05        -0.66640E+08         0.00000E+00
    0.00000E+00         0.00000E+00        -0.28526E+08
 
   -0.28470E+08         0.10483E+06         0.00000E+00
    0.10483E+06        -0.66686E+08         0.00000E+00
    0.00000E+00         0.00000E+00        -0.28547E+08
 
   -0.28494E+08         0.11150E+06         0.00000E+00
    0.11150E+06        -0.66732E+08         0.00000E+00
    0.00000E+00         0.00000E+00        -0.28568E+08
 
   -0.28517E+08         0.11784E+06         0.00000E+00
    0.11784E+06        -0.66778E+08         0.00000E+00
    0.00000E+00         0.00000E+00        -0.28588E+08
 
   -0.28540E+08         0.12388E+06         0.00000E+00
    0.12388E+06        -0.66825E+08         0.00000E+00
    0.00000E+00         0.00000E+00        -0.28609E+08
 
   -0.28562E+08         0.12966E+06         0.00000E+00
    0.12966E+06        -0.66873E+08         0.00000E+00
    0.00000E+00         0.00000E+00        -0.28630E+08
 
   -0.28585E+08         0.13521E+06         0.00000E+00
    0.13521E+06        -0.66921E+08         0.00000E+00
    0.00000E+00         0.00000E+00        -0.28652E+08
 
   -0.28608E+08         0.14056E+06         0.00000E+00
    0.14056E+06        -0.66969E+08         0.00000E+00
    0.00000E+00         0.00000E+00        -0.28673E+08
 
   -0.28630E+08         0.14573E+06         0.00000E+00
    0.14573E+06        -0.67019E+08         0.00000E+00
    0.00000E+00         0.00000E+00        -0.28695E+08
 
   -0.28653E+08         0.15076E+06         0.00000E+00
    0.15076E+06        -0.67069E+08         0.00000E+00
    0.00000E+00         0.00000E+00        -0.28717E+08
 
   -0.28676E+08         0.15566E+06         0.00000E+00
    0.15566E+06        -0.67120E+08         0.00000E+00
    0.00000E+00         0.00000E+00        -0.28739E+08
 
   -0.28698E+08         0.16046E+06         0.00000E+00
    0.16046E+06        -0.67172E+08         0.00000E+00
    0.00000E+00         0.00000E+00        -0.28761E+08
 
   -0.28721E+08         0.16517E+06         0.00000E+00
    0.16517E+06        -0.67224E+08         0.00000E+00
    0.00000E+00         0.00000E+00        -0.28784E+08
 
   -0.28745E+08         0.16982E+06         0.00000E+00
    0.16982E+06        -0.67278E+08         0.00000E+00
    0.00000E+00         0.00000E+00        -0.28807E+08
 
   -0.28768E+08         0.17441E+06         0.00000E+00
    0.17441E+06        -0.67333E+08         0.00000E+00
    0.00000E+00         0.00000E+00        -0.28830E+08
 
   -0.28792E+08         0.17896E+06         0.00000E+00
    0.17896E+06        -0.67388E+08         0.00000E+00
    0.00000E+00         0.00000E+00        -0.28854E+08
 
   -0.28816E+08         0.18348E+06         0.00000E+00
    0.18348E+06        -0.67445E+08         0.00000E+00
    0.00000E+00         0.00000E+00        -0.28878E+08
 
   -0.28840E+08         0.18798E+06         0.00000E+00
    0.18798E+06        -0.67503E+08         0.00000E+00
    0.00000E+00         0.00000E+00        -0.28903E+08
 
   -0.28865E+08         0.19247E+06         0.00000E+00
    0.19247E+06        -0.67562E+08         0.00000E+00
    0.00000E+00         0.00000E+00        -0.28928E+08
 
   -0.28890E+08         0.19695E+06         0.00000E+00
    0.19695E+06        -0.67622E+08         0.00000E+00
    0.00000E+00         0.00000E+00        -0.28954E+08
 
   -0.28916E+08         0.20144E+06         0.00000E+00
    0.20144E+06        -0.67683E+08         0.00000E+00
    0.00000E+00         0.00000E+00        -0.28980E+08
 
   -0.28942E+08         0.20592E+06         0.00000E+00
    0.20592E+06        -0.67746E+08         0.00000E+00
    0.00000E+00         0.00000E+00        -0.29007E+08
 
   -0.28969E+08         0.21042E+06         0.00000E+00
    0.21042E+06        -0.67810E+08         0.00000E+00
    0.00000E+00         0.00000E+00        -0.29034E+08
 
   -0.28996E+08         0.21492E+06         0.00000E+00
    0.21492E+06        -0.67876E+08         0.00000E+00
    0.00000E+00         0.00000E+00        -0.29062E+08
 
   -0.29024E+08         0.21944E+06         0.00000E+00
    0.21944E+06        -0.67942E+08         0.00000E+00
    0.00000E+00         0.00000E+00        -0.29090E+08
 
   -0.29053E+08         0.22397E+06         0.00000E+00
    0.22397E+06        -0.68011E+08         0.00000E+00
    0.00000E+00         0.00000E+00        -0.29119E+08
 
   -0.29082E+08         0.22852E+06         0.00000E+00
    0.22852E+06        -0.68080E+08         0.00000E+00
    0.00000E+00         0.00000E+00        -0.29149E+08
 
   -0.29111E+08         0.23308E+06         0.00000E+00
    0.23308E+06        -0.68151E+08         0.00000E+00
    0.00000E+00         0.00000E+00        -0.29179E+08
 
   -0.29142E+08         0.23765E+06         0.00000E+00
    0.23765E+06        -0.68224E+08         0.00000E+00
    0.00000E+00         0.00000E+00        -0.29210E+08
 
   -0.29173E+08         0.24224E+06         0.00000E+00
    0.24224E+06        -0.68299E+08         0.00000E+00
    0.00000E+00         0.00000E+00        -0.29241E+08
 
   -0.29205E+08         0.24683E+06         0.00000E+00
    0.24683E+06        -0.68374E+08         0.00000E+00
    0.00000E+00         0.00000E+00        -0.29274E+08
 
   -0.29238E+08         0.25143E+06         0.00000E+00
    0.25143E+06        -0.68452E+08         0.00000E+00
    0.00000E+00         0.00000E+00        -0.29307E+08
 
   -0.29271E+08         0.25603E+06         0.00000E+00
    0.25603E+06        -0.68531E+08         0.00000E+00
    0.00000E+00         0.00000E+00        -0.29341E+08
 
   -0.29306E+08         0.26063E+06         0.00000E+00
    0.26063E+06        -0.68612E+08         0.00000E+00
    0.00000E+00         0.00000E+00        -0.29375E+08
 
   -0.29341E+08         0.26522E+06         0.00000E+00
    0.26522E+06        -0.68695E+08         0.00000E+00
    0.00000E+00         0.00000E+00        -0.29411E+08
 
   -0.29377E+08         0.26980E+06         0.00000E+00
    0.26980E+06        -0.68780E+08         0.00000E+00
    0.00000E+00         0.00000E+00        -0.29447E+08
 
   -0.29414E+08         0.27435E+06         0.00000E+00
    0.27435E+06        -0.68866E+08         0.00000E+00
    0.00000E+00         0.00000E+00        -0.29484E+08
 
   -0.29452E+08         0.27888E+06         0.00000E+00
    0.27888E+06        -0.68954E+08         0.00000E+00
    0.00000E+00         0.00000E+00        -0.29522E+08
 
   -0.29491E+08         0.28337E+06         0.00000E+00
    0.28337E+06        -0.69044E+08         0.00000E+00
    0.00000E+00         0.00000E+00        -0.29560E+08
 
   -0.29530E+08         0.28781E+06         0.00000E+00
    0.28781E+06        -0.69136E+08         0.00000E+00
    0.00000E+00         0.00000E+00        -0.29600E+08
 
   -0.29571E+08         0.29220E+06         0.00000E+00
    0.29220E+06        -0.69230E+08         0.00000E+00
    0.00000E+00         0.00000E+00        -0.29640E+08
 
   -0.29613E+08         0.29652E+06         0.00000E+00
    0.29652E+06        -0.69325E+08         0.00000E+00
    0.00000E+00         0.00000E+00        -0.29682E+08
 
   -0.29656E+08         0.30077E+06         0.00000E+00
    0.30077E+06        -0.69423E+08         0.00000E+00
    0.00000E+00         0.00000E+00        -0.29724E+08
 
   -0.29700E+08         0.30492E+06         0.00000E+00
    0.30492E+06        -0.69523E+08         0.00000E+00
    0.00000E+00         0.00000E+00        -0.29767E+08
 
   -0.29745E+08         0.30897E+06         0.00000E+00
    0.30897E+06        -0.69624E+08         0.00000E+00
    0.00000E+00         0.00000E+00        -0.29811E+08
 
   -0.29791E+08         0.31290E+06         0.00000E+00
    0.31290E+06        -0.69728E+08         0.00000E+00
    0.00000E+00         0.00000E+00        -0.29856E+08
 
   -0.29839E+08         0.31670E+06         0.00000E+00
    0.31670E+06        -0.69834E+08         0.00000E+00
    0.00000E+00         0.00000E+00        -0.29902E+08
 
   -0.29887E+08         0.32034E+06         0.00000E+00
    0.32034E+06        -0.69941E+08         0.00000E+00
    0.00000E+00         0.00000E+00        -0.29949E+08
 
   -0.29937E+08         0.32381E+06         0.00000E+00
    0.32381E+06        -0.70051E+08         0.00000E+00
    0.00000E+00         0.00000E+00        -0.29996E+08
 
   -0.29988E+08         0.32708E+06         0.00000E+00
    0.32708E+06        -0.70163E+08         0.00000E+00
    0.00000E+00         0.00000E+00        -0.30045E+08
 
   -0.30040E+08         0.33015E+06         0.00000E+00
    0.33015E+06        -0.70277E+08         0.00000E+00
    0.00000E+00         0.00000E+00        -0.30095E+08
 
   -0.30094E+08         0.33297E+06         0.00000E+00
    0.33297E+06        -0.70393E+08         0.00000E+00
    0.00000E+00         0.00000E+00        -0.30146E+08
 
   -0.30149E+08         0.33554E+06         0.00000E+00
    0.33554E+06        -0.70511E+08         0.00000E+00
    0.00000E+00         0.00000E+00        -0.30198E+08
 
   -0.30205E+08         0.33781E+06         0.00000E+00
    0.33781E+06        -0.70631E+08         0.00000E+00
    0.00000E+00         0.00000E+00        -0.30251E+08
 
   -0.30263E+08         0.33976E+06         0.00000E+00
    0.33976E+06        -0.70753E+08         0.00000E+00
    0.00000E+00         0.00000E+00        -0.30305E+08
 
   -0.30323E+08         0.34136E+06         0.00000E+00
    0.34136E+06        -0.70877E+08         0.00000E+00
    0.00000E+00         0.00000E+00        -0.30360E+08
 
   -0.30383E+08         0.34256E+06         0.00000E+00
    0.34256E+06        -0.71003E+08         0.00000E+00
    0.00000E+00         0.00000E+00        -0.30416E+08
 
   -0.30446E+08         0.34334E+06         0.00000E+00
    0.34334E+06        -0.71131E+08         0.00000E+00
    0.00000E+00         0.00000E+00        -0.30473E+08
 
   -0.30509E+08         0.34365E+06         0.00000E+00
    0.34365E+06        -0.71262E+08         0.00000E+00
    0.00000E+00         0.00000E+00        -0.30531E+08
 
   -0.30575E+08         0.34344E+06         0.00000E+00
    0.34344E+06        -0.71394E+08         0.00000E+00
    0.00000E+00         0.00000E+00        -0.30591E+08
 
   -0.30642E+08         0.34266E+06         0.00000E+00
    0.34266E+06        -0.71529E+08         0.00000E+00
    0.00000E+00         0.00000E+00        -0.30651E+08
 
   -0.30711E+08         0.34125E+06         0.00000E+00
    0.34125E+06        -0.71665E+08         0.00000E+00
    0.00000E+00         0.00000E+00        -0.30713E+08
 
   -0.30782E+08         0.33915E+06         0.00000E+00
    0.33915E+06        -0.71804E+08         0.00000E+00
    0.00000E+00         0.00000E+00        -0.30776E+08
 
   -0.30854E+08         0.33629E+06         0.00000E+00
    0.33629E+06        -0.71944E+08         0.00000E+00
    0.00000E+00         0.00000E+00        -0.30840E+08
 
   -0.30929E+08         0.33259E+06         0.00000E+00
    0.33259E+06        -0.72087E+08         0.00000E+00
    0.00000E+00         0.00000E+00        -0.30905E+08
 
   -0.31005E+08         0.32797E+06         0.00000E+00
    0.32797E+06        -0.72231E+08         0.00000E+00
    0.00000E+00         0.00000E+00        -0.30971E+08
 
   -0.31084E+08         0.32234E+06         0.00000E+00
    0.32234E+06        -0.72378E+08         0.00000E+00
    0.00000E+00         0.00000E+00        -0.31039E+08
 
   -0.31164E+08         0.31560E+06         0.00000E+00
    0.31560E+06        -0.72527E+08         0.00000E+00
    0.00000E+00         0.00000E+00        -0.31107E+08
 
   -0.31247E+08         0.30764E+06         0.00000E+00
    0.30764E+06        -0.72677E+08         0.00000E+00
    0.00000E+00         0.00000E+00        -0.31177E+08
 
   -0.31332E+08         0.29834E+06         0.00000E+00
    0.29834E+06        -0.72830E+08         0.00000E+00
    0.00000E+00         0.00000E+00        -0.31248E+08
 
   -0.31419E+08         0.28760E+06         0.00000E+00
    0.28760E+06        -0.72984E+08         0.00000E+00
    0.00000E+00         0.00000E+00        -0.31321E+08
 
   -0.31508E+08         0.27528E+06         0.00000E+00
    0.27528E+06        -0.73141E+08         0.00000E+00
    0.00000E+00         0.00000E+00        -0.31395E+08
 
   -0.31599E+08         0.26129E+06         0.00000E+00
    0.26129E+06        -0.73299E+08         0.00000E+00
    0.00000E+00         0.00000E+00        -0.31470E+08
 
   -0.31693E+08         0.24552E+06         0.00000E+00
    0.24552E+06        -0.73459E+08         0.00000E+00
    0.00000E+00         0.00000E+00        -0.31546E+08
 
   -0.31789E+08         0.22789E+06         0.00000E+00
    0.22789E+06        -0.73620E+08         0.00000E+00
    0.00000E+00         0.00000E+00        -0.31623E+08
 
   -0.31887E+08         0.20839E+06         0.00000E+00
    0.20839E+06        -0.73783E+08         0.00000E+00
    0.00000E+00         0.00000E+00        -0.31701E+08
 
   -0.31987E+08         0.18703E+06         0.00000E+00
    0.18703E+06        -0.73946E+08         0.00000E+00
    0.00000E+00         0.00000E+00        -0.31780E+08
 
   -0.32089E+08         0.16395E+06         0.00000E+00
    0.16395E+06        -0.74110E+08         0.00000E+00
    0.00000E+00         0.00000E+00        -0.31860E+08
 
   -0.32194E+08         0.13944E+06         0.00000E+00
    0.13944E+06        -0.74273E+08         0.00000E+00
    0.00000E+00         0.00000E+00        -0.31940E+08
 
   -0.32301E+08         0.11395E+06         0.00000E+00
    0.11395E+06        -0.74434E+08         0.00000E+00
    0.00000E+00         0.00000E+00        -0.32020E+08
 
   -0.32410E+08         0.88241E+05         0.00000E+00
    0.88241E+05        -0.74592E+08         0.00000E+00
    0.00000E+00         0.00000E+00        -0.32101E+08
 
   -0.32523E+08         0.63376E+05         0.00000E+00
    0.63376E+05        -0.74745E+08         0.00000E+00
    0.00000E+00         0.00000E+00        -0.32181E+08
 
   -0.32641E+08         0.40797E+05         0.00000E+00
    0.40797E+05        -0.74891E+08         0.00000E+00
    0.00000E+00         0.00000E+00        -0.32260E+08
 
   -0.32763E+08         0.22192E+05         0.00000E+00
    0.22192E+05        -0.75028E+08         0.00000E+00
    0.00000E+00         0.00000E+00        -0.32337E+08
 
   -0.32894E+08         0.90918E+04         0.00000E+00
    0.90918E+04        -0.75151E+08         0.00000E+00
    0.00000E+00         0.00000E+00        -0.32413E+08
 
   -0.33033E+08         0.20954E+04         0.00000E+00
    0.20954E+04        -0.75258E+08         0.00000E+00
    0.00000E+00         0.00000E+00        -0.32487E+08
 
   -0.33183E+08         0.54561E+02         0.00000E+00
    0.54561E+02        -0.75347E+08         0.00000E+00
    0.00000E+00         0.00000E+00        -0.32559E+08
 
   -0.28076E+08         0.97496E+03         0.00000E+00
    0.97496E+03        -0.66145E+08         0.00000E+00
    0.00000E+00         0.00000E+00        -0.28266E+08
 
   -0.28113E+08         0.34310E+04         0.00000E+00
    0.34310E+04        -0.66167E+08         0.00000E+00
    0.00000E+00         0.00000E+00        -0.28284E+08
 
   -0.28148E+08         0.71971E+04         0.00000E+00
    0.71971E+04        -0.66194E+08         0.00000E+00
    0.00000E+00         0.00000E+00        -0.28303E+08
 
   -0.28180E+08         0.12588E+05         0.00000E+00
    0.12588E+05        -0.66226E+08         0.00000E+00
    0.00000E+00         0.00000E+00        -0.28322E+08
 
   -0.28210E+08         0.19458E+05         0.00000E+00
    0.19458E+05        -0.66261E+08         0.00000E+00
    0.00000E+00         0.00000E+00        -0.28341E+08
 
   -0.28239E+08         0.27412E+05         0.00000E+00
    0.27412E+05        -0.66298E+08         0.00000E+00
    0.00000E+00         0.00000E+00        -0.28361E+08
 
   -0.28266E+08         0.36014E+05         0.00000E+00
    0.36014E+05        -0.66338E+08         0.00000E+00
    0.00000E+00         0.00000E+00        -0.28381E+08
 
   -0.28293E+08         0.44892E+05         0.00000E+00
    0.44892E+05        -0.66379E+08         0.00000E+00
    0.00000E+00         0.00000E+00        -0.28402E+08
 
   -0.28319E+08         0.53773E+05         0.00000E+00
    0.53773E+05        -0.66421E+08         0.00000E+00
    0.00000E+00         0.00000E+00        -0.28422E+08
 
   -0.28345E+08         0.62469E+05         0.00000E+00
    0.62469E+05        -0.66464E+08         0.00000E+00
    0.00000E+00         0.00000E+00        -0.28443E+08
 
   -0.28370E+08         0.70865E+05         0.00000E+00
    0.70865E+05        -0.66507E+08         0.00000E+00
    0.00000E+00         0.00000E+00        -0.28463E+08
 
   -0.28395E+08         0.78897E+05         0.00000E+00
    0.78897E+05        -0.66552E+08         0.00000E+00
    0.00000E+00         0.00000E+00        -0.28484E+08
 
   -0.28419E+08         0.86537E+05         0.00000E+00
    0.86537E+05        -0.66596E+08         0.00000E+00
    0.00000E+00         0.00000E+00        -0.28505E+08
 
   -0.28443E+08         0.93781E+05         0.00000E+00
    0.93781E+05        -0.66641E+08         0.00000E+00
    0.00000E+00         0.00000E+00        -0.28525E+08
 
   -0.28467E+08         0.10064E+06         0.00000E+00
    0.10064E+06        -0.66687E+08         0.00000E+00
    0.00000E+00         0.00000E+00        -0.28546E+08
 
   -0.28490E+08         0.10715E+06         0.00000E+00
    0.10715E+06        -0.66733E+08         0.00000E+00
    0.00000E+00         0.00000E+00        -0.28567E+08
 
   -0.28513E+08         0.11332E+06         0.00000E+00
    0.11332E+06        -0.66779E+08         0.00000E+00
    0.00000E+00         0.00000E+00        -0.28588E+08
 
   -0.28536E+08         0.11920E+06         0.00000E+00
    0.11920E+06        -0.66826E+08         0.00000E+00
    0.00000E+00         0.00000E+00        -0.28609E+08
 
   -0.28559E+08         0.12482E+06         0.00000E+00
    0.12482E+06        -0.66874E+08         0.00000E+00
    0.00000E+00         0.00000E+00        -0.28630E+08
 
   -0.28582E+08         0.13021E+06         0.00000E+00
    0.13021E+06        -0.66922E+08         0.00000E+00
    0.00000E+00         0.00000E+00        -0.28651E+08
 
   -0.28605E+08         0.13539E+06         0.00000E+00
    0.13539E+06        -0.66970E+08         0.00000E+00
    0.00000E+00         0.00000E+00        -0.28672E+08
 
   -0.28627E+08         0.14041E+06         0.00000E+00
    0.14041E+06        -0.67020E+08         0.00000E+00
    0.00000E+00         0.00000E+00        -0.28694E+08
 
   -0.28650E+08         0.14527E+06         0.00000E+00
    0.14527E+06        -0.67070E+08         0.00000E+00
    0.00000E+00         0.00000E+00        -0.28716E+08
 
   -0.28673E+08         0.15002E+06         0.00000E+00
    0.15002E+06        -0.67121E+08         0.00000E+00
    0.00000E+00         0.00000E+00        -0.28738E+08
 
   -0.28696E+08         0.15466E+06         0.00000E+00
    0.15466E+06        -0.67173E+08         0.00000E+00
    0.00000E+00         0.00000E+00        -0.28760E+08
 
   -0.28719E+08         0.15921E+06         0.00000E+00
    0.15921E+06        -0.67225E+08         0.00000E+00
    0.00000E+00         0.00000E+00        -0.28783E+08
 
   -0.28742E+08         0.16370E+06         0.00000E+00
    0.16370E+06        -0.67279E+08         0.00000E+00
    0.00000E+00         0.00000E+00        -0.28806E+08
 
   -0.28765E+08         0.16814E+06         0.00000E+00
    0.16814E+06        -0.67334E+08         0.00000E+00
    0.00000E+00         0.00000E+00        -0.28830E+08
 
   -0.28789E+08         0.17253E+06         0.00000E+00
    0.17253E+06        -0.67389E+08         0.00000E+00
    0.00000E+00         0.00000E+00        -0.28853E+08
 
   -0.28813E+08         0.17689E+06         0.00000E+00
    0.17689E+06        -0.67446E+08         0.00000E+00
    0.00000E+00         0.00000E+00        -0.28878E+08
 
   -0.28837E+08         0.18124E+06         0.00000E+00
    0.18124E+06        -0.67504E+08         0.00000E+00
    0.00000E+00         0.00000E+00        -0.28902E+08
 
   -0.28862E+08         0.18557E+06         0.00000E+00
    0.18557E+06        -0.67563E+08         0.00000E+00
    0.00000E+00         0.00000E+00        -0.28927E+08
 
   -0.28887E+08         0.18989E+06         0.00000E+00
    0.18989E+06        -0.67623E+08         0.00000E+00
    0.00000E+00         0.00000E+00        -0.28953E+08
 
   -0.28913E+08         0.19421E+06         0.00000E+00
    0.19421E+06        -0.67684E+08         0.00000E+00
    0.00000E+00         0.00000E+00        -0.28979E+08
 
   -0.28939E+08         0.19853E+06         0.00000E+00
    0.19853E+06        -0.67747E+08         0.00000E+00
    0.00000E+00         0.00000E+00        -0.29006E+08
 
   -0.28966E+08         0.20287E+06         0.00000E+00
    0.20287E+06        -0.67811E+08         0.00000E+00
    0.00000E+00         0.00000E+00        -0.29033E+08
 
   -0.28993E+08         0.20721E+06         0.00000E+00
    0.20721E+06        -0.67876E+08         0.00000E+00
    0.00000E+00         0.00000E+00        -0.29061E+08
 
   -0.29021E+08         0.21156E+06         0.00000E+00
    0.21156E+06        -0.67943E+08         0.00000E+00
    0.00000E+00         0.00000E+00        -0.29089E+08
 
   -0.29049E+08         0.21593E+06         0.00000E+00
    0.21593E+06        -0.68011E+08         0.00000E+00
    0.00000E+00         0.00000E+00        -0.29118E+08
 
   -0.29078E+08         0.22031E+06         0.00000E+00
    0.22031E+06        -0.68081E+08         0.00000E+00
    0.00000E+00         0.00000E+00        -0.29148E+08
 
   -0.29108E+08         0.22470E+06         0.00000E+00
    0.22470E+06        -0.68152E+08         0.00000E+00
    0.00000E+00         0.00000E+00        -0.29178E+08
 
   -0.29139E+08         0.22910E+06         0.00000E+00
    0.22910E+06        -0.68225E+08         0.00000E+00
    0.00000E+00         0.00000E+00        -0.29209E+08
 
   -0.29170E+08         0.23352E+06         0.00000E+00
    0.23352E+06        -0.68299E+08         0.00000E+00
    0.00000E+00         0.00000E+00        -0.29241E+08
 
   -0.29202E+08         0.23794E+06         0.00000E+00
    0.23794E+06        -0.68375E+08         0.00000E+00
    0.00000E+00         0.00000E+00        -0.29273E+08
 
   -0.29234E+08         0.24237E+06         0.00000E+00
    0.24237E+06        -0.68453E+08         0.00000E+00
    0.00000E+00         0.00000E+00        -0.29306E+08
 
   -0.29268E+08         0.24679E+06         0.00000E+00
    0.24679E+06        -0.68532E+08         0.00000E+00
    0.00000E+00         0.00000E+00        -0.29340E+08
 
   -0.29302E+08         0.25122E+06         0.00000E+00
    0.25122E+06        -0.68613E+08         0.00000E+00
    0.00000E+00         0.00000E+00        -0.29375E+08
 
   -0.29337E+08         0.25563E+06         0.00000E+00
    0.25563E+06        -0.68696E+08         0.00000E+00
    0.00000E+00         0.00000E+00        -0.29410E+08
 
   -0.29373E+08         0.26003E+06         0.00000E+00
    0.26003E+06        -0.68780E+08         0.00000E+00
    0.00000E+00         0.00000E+00        -0.29446E+08
 
   -0.29410E+08         0.26441E+06         0.00000E+00
    0.26441E+06        -0.68867E+08         0.00000E+00
    0.00000E+00         0.00000E+00        -0.29483E+08
 
   -0.29448E+08         0.26876E+06         0.00000E+00
    0.26876E+06        -0.68955E+08         0.00000E+00
    0.00000E+00         0.00000E+00        -0.29521E+08
 
   -0.29487E+08         0.27308E+06         0.00000E+00
    0.27308E+06        -0.69045E+08         0.00000E+00
    0.00000E+00         0.00000E+00        -0.29560E+08
 
   -0.29527E+08         0.27735E+06         0.00000E+00
    0.27735E+06        -0.69137E+08         0.00000E+00
    0.00000E+00         0.00000E+00        -0.29599E+08
 
   -0.29568E+08         0.28156E+06         0.00000E+00
    0.28156E+06        -0.69231E+08         0.00000E+00
    0.00000E+00         0.00000E+00        -0.29639E+08
 
   -0.29610E+08         0.28571E+06         0.00000E+00
    0.28571E+06        -0.69326E+08         0.00000E+00
    0.00000E+00         0.00000E+00        -0.29681E+08
 
   -0.29652E+08         0.28979E+06         0.00000E+00
    0.28979E+06        -0.69424E+08         0.00000E+00
    0.00000E+00         0.00000E+00        -0.29723E+08
 
   -0.29697E+08         0.29377E+06         0.00000E+00
    0.29377E+06        -0.69524E+08         0.00000E+00
    0.00000E+00         0.00000E+00        -0.29766E+08
 
   -0.29742E+08         0.29766E+06         0.00000E+00
    0.29766E+06        -0.69625E+08         0.00000E+00
    0.00000E+00         0.00000E+00        -0.29810E+08
 
   -0.29788E+08         0.30142E+06         0.00000E+00
    0.30142E+06        -0.69729E+08         0.00000E+00
    0.00000E+00         0.00000E+00        -0.29855E+08
 
   -0.29835E+08         0.30506E+06         0.00000E+00
    0.30506E+06        -0.69834E+08         0.00000E+00
    0.00000E+00         0.00000E+00        -0.29901E+08
 
   -0.29884E+08         0.30854E+06         0.00000E+00
    0.30854E+06        -0.69942E+08         0.00000E+00
    0.00000E+00         0.00000E+00        -0.29948E+08
 
   -0.29934E+08         0.31186E+06         0.00000E+00
    0.31186E+06        -0.70052E+08         0.00000E+00
    0.00000E+00         0.00000E+00        -0.29996E+08
 
   -0.29985E+08         0.31500E+06         0.00000E+00
    0.31500E+06        -0.70163E+08         0.00000E+00
    0.00000E+00         0.00000E+00        -0.30045E+08
 
   -0.30038E+08         0.31792E+06         0.00000E+00
    0.31792E+06        -0.70277E+08         0.00000E+00
    0.00000E+00         0.00000E+00        -0.30094E+08
 
   -0.30091E+08         0.32062E+06         0.00000E+00
    0.32062E+06        -0.70393E+08         0.00000E+00
    0.00000E+00         0.00000E+00        -0.30145E+08
 
   -0.30146E+08         0.32305E+06         0.00000E+00
    0.32305E+06        -0.70511E+08         0.00000E+00
    0.00000E+00         0.00000E+00        -0.30197E+08
 
   -0.30203E+08         0.32521E+06         0.00000E+00
    0.32521E+06        -0.70631E+08         0.00000E+00
    0.00000E+00         0.00000E+00        -0.30250E+08
 
   -0.30261E+08         0.32706E+06         0.00000E+00
    0.32706E+06        -0.70753E+08         0.00000E+00
    0.00000E+00         0.00000E+00        -0.30304E+08
 
   -0.30320E+08         0.32856E+06         0.00000E+00
    0.32856E+06        -0.70877E+08         0.00000E+00
    0.00000E+00         0.00000E+00        -0.30359E+08
 
   -0.30381E+08         0.32968E+06         0.00000E+00
    0.32968E+06        -0.71003E+08         0.00000E+00
    0.00000E+00         0.00000E+00        -0.30415E+08
 
   -0.30444E+08         0.33039E+06         0.00000E+00
    0.33039E+06        -0.71131E+08         0.00000E+00
    0.00000E+00         0.00000E+00        -0.30473E+08
 
   -0.30508E+08         0.33064E+06         0.00000E+00
    0.33064E+06        -0.71262E+08         0.00000E+00
    0.00000E+00         0.00000E+00        -0.30531E+08
 
   -0.30574E+08         0.33038E+06         0.00000E+00
    0.33038E+06        -0.71394E+08         0.00000E+00
    0.00000E+00         0.00000E+00        -0.30590E+08
 
   -0.30641E+08         0.32957E+06         0.00000E+00
    0.32957E+06        -0.71528E+08         0.00000E+00
    0.00000E+00         0.00000E+00        -0.30651E+08
 
   -0.30710E+08         0.32815E+06         0.00000E+00
    0.32815E+06        -0.71665E+08         0.00000E+00
    0.00000E+00         0.00000E+00        -0.30713E+08
 
   -0.30782E+08         0.32606E+06         0.00000E+00
    0.32606E+06        -0.71803E+08         0.00000E+00
    0.00000E+00         0.00000E+00        -0.30775E+08
 
   -0.30855E+08         0.32323E+06         0.00000E+00
    0.32323E+06        -0.71944E+08         0.00000E+00
    0.00000E+00         0.00000E+00        -0.30839E+08
 
   -0.30929E+08         0.31958E+06         0.00000E+00
    0.31958E+06        -0.72086E+08         0.00000E+00
    0.00000E+00         0.00000E+00        -0.30905E+08
 
   -0.31006E+08         0.31503E+06         0.00000E+00
    0.31503E+06        -0.72230E+08         0.00000E+00
    0.00000E+00         0.00000E+00        -0.30971E+08
 
   -0.31085E+08         0.30949E+06         0.00000E+00
    0.30949E+06        -0.72377E+08         0.00000E+00
    0.00000E+00         0.00000E+00        -0.31039E+08
 
   -0.31166E+08         0.30286E+06         0.00000E+00
    0.30286E+06        -0.72525E+08         0.00000E+00
    0.00000E+00         0.00000E+00        -0.31107E+08
 
   -0.31250E+08         0.29502E+06         0.00000E+00
    0.29502E+06        -0.72675E+08         0.00000E+00
    0.00000E+00         0.00000E+00        -0.31178E+08
 
   -0.31335E+08         0.28588E+06         0.00000E+00
    0.28588E+06        -0.72828E+08         0.00000E+00
    0.00000E+00         0.00000E+00        -0.31249E+08
 
   -0.31423E+08         0.27530E+06         0.00000E+00
    0.27530E+06        -0.72982E+08         0.00000E+00
    0.00000E+00         0.00000E+00        -0.31322E+08
 
   -0.31513E+08         0.26317E+06         0.00000E+00
    0.26317E+06        -0.73138E+08         0.00000E+00
    0.00000E+00         0.00000E+00        -0.31395E+08
 
   -0.31605E+08         0.24938E+06         0.00000E+00
    0.24938E+06        -0.73296E+08         0.00000E+00
    0.00000E+00         0.00000E+00        -0.31470E+08
 
   -0.31700E+08         0.23381E+06         0.00000E+00
    0.23381E+06        -0.73456E+08         0.00000E+00
    0.00000E+00         0.00000E+00        -0.31547E+08
 
   -0.31797E+08         0.21641E+06         0.00000E+00
    0.21641E+06        -0.73617E+08         0.00000E+00
    0.00000E+00         0.00000E+00        -0.31624E+08
 
   -0.31896E+08         0.19714E+06         0.00000E+00
    0.19714E+06        -0.73779E+08         0.00000E+00
    0.00000E+00         0.00000E+00        -0.31703E+08
 
   -0.31998E+08         0.17603E+06         0.00000E+00
    0.17603E+06        -0.73942E+08         0.00000E+00
    0.00000E+00         0.00000E+00        -0.31782E+08
 
   -0.32102E+08         0.15323E+06         0.00000E+00
    0.15323E+06        -0.74105E+08         0.00000E+00
    0.00000E+00         0.00000E+00        -0.31862E+08
 
   -0.32208E+08         0.12903E+06         0.00000E+00
    0.12903E+06        -0.74268E+08         0.00000E+00
    0.00000E+00         0.00000E+00        -0.31943E+08
 
   -0.32317E+08         0.10391E+06         0.00000E+00
    0.10391E+06        -0.74429E+08         0.00000E+00
    0.00000E+00         0.00000E+00        -0.32024E+08
 
   -0.32429E+08         0.78671E+05         0.00000E+00
    0.78671E+05        -0.74587E+08         0.00000E+00
    0.00000E+00         0.00000E+00        -0.32105E+08
 
   -0.32544E+08         0.54431E+05         0.00000E+00
    0.54431E+05        -0.74741E+08         0.00000E+00
    0.00000E+00         0.00000E+00        -0.32185E+08
 
   -0.32663E+08         0.32706E+05         0.00000E+00
    0.32706E+05        -0.74887E+08         0.00000E+00
    0.00000E+00         0.00000E+00        -0.32265E+08
 
   -0.32787E+08         0.15275E+05         0.00000E+00
    0.15275E+05        -0.75024E+08         0.00000E+00
    0.00000E+00         0.00000E+00        -0.32343E+08
 
   -0.32918E+08         0.37326E+04         0.00000E+00
    0.37326E+04        -0.75149E+08         0.00000E+00
    0.00000E+00         0.00000E+00        -0.32420E+08
 
   -0.33058E+08        -0.13178E+04         0.00000E+00
   -0.13178E+04        -0.75257E+08         0.00000E+00
    0.00000E+00         0.00000E+00        -0.32495E+08
 
   -0.33209E+08        -0.11197E+04         0.00000E+00
   -0.11197E+04        -0.75347E+08         0.00000E+00
    0.00000E+00         0.00000E+00        -0.32567E+08
 
   -0.28068E+08         0.65363E+03         0.00000E+00
    0.65363E+03        -0.66145E+08         0.00000E+00
    0.00000E+00         0.00000E+00        -0.28264E+08
 
   -0.28105E+08         0.24976E+04         0.00000E+00
    0.24976E+04        -0.66168E+08         0.00000E+00
    0.00000E+00         0.00000E+00        -0.28282E+08
 
   -0.28140E+08         0.57301E+04         0.00000E+00
    0.57301E+04        -0.66195E+08         0.00000E+00
    0.00000E+00         0.00000E+00        -0.28301E+08
 
   -0.28172E+08         0.10685E+05         0.00000E+00
    0.10685E+05        -0.66227E+08         0.00000E+00
    0.00000E+00         0.00000E+00        -0.28320E+08
 
   -0.28203E+08         0.17207E+05         0.00000E+00
    0.17207E+05        -0.66262E+08         0.00000E+00
    0.00000E+00         0.00000E+00        -0.28340E+08
 
   -0.28232E+08         0.24883E+05         0.00000E+00
    0.24883E+05        -0.66300E+08         0.00000E+00
    0.00000E+00         0.00000E+00        -0.28360E+08
 
   -0.28260E+08         0.33254E+05         0.00000E+00
    0.33254E+05        -0.66339E+08         0.00000E+00
    0.00000E+00         0.00000E+00        -0.28380E+08
 
   -0.28288E+08         0.41931E+05         0.00000E+00
    0.41931E+05        -0.66380E+08         0.00000E+00
    0.00000E+00         0.00000E+00        -0.28400E+08
 
   -0.28314E+08         0.50628E+05         0.00000E+00
    0.50628E+05        -0.66422E+08         0.00000E+00
    0.00000E+00         0.00000E+00        -0.28421E+08
 
   -0.28340E+08         0.59151E+05         0.00000E+00
    0.59151E+05        -0.66465E+08         0.00000E+00
    0.00000E+00         0.00000E+00        -0.28442E+08
 
   -0.28366E+08         0.67378E+05         0.00000E+00
    0.67378E+05        -0.66509E+08         0.00000E+00
    0.00000E+00         0.00000E+00        -0.28462E+08
 
   -0.28391E+08         0.75242E+05         0.00000E+00
    0.75242E+05        -0.66553E+08         0.00000E+00
    0.00000E+00         0.00000E+00        -0.28483E+08
 
   -0.28415E+08         0.82715E+05         0.00000E+00
    0.82715E+05        -0.66598E+08         0.00000E+00
    0.00000E+00         0.00000E+00        -0.28504E+08
 
   -0.28439E+08         0.89792E+05         0.00000E+00
    0.89792E+05        -0.66643E+08         0.00000E+00
    0.00000E+00         0.00000E+00        -0.28525E+08
 
   -0.28463E+08         0.96487E+05         0.00000E+00
    0.96487E+05        -0.66688E+08         0.00000E+00
    0.00000E+00         0.00000E+00        -0.28545E+08
 
   -0.28487E+08         0.10282E+06         0.00000E+00
    0.10282E+06        -0.66734E+08         0.00000E+00
    0.00000E+00         0.00000E+00        -0.28566E+08
 
   -0.28510E+08         0.10883E+06         0.00000E+00
    0.10883E+06        -0.66780E+08         0.00000E+00
    0.00000E+00         0.00000E+00        -0.28587E+08
 
   -0.28533E+08         0.11454E+06         0.00000E+00
    0.11454E+06        -0.66827E+08         0.00000E+00
    0.00000E+00         0.00000E+00        -0.28608E+08
 
   -0.28556E+08         0.12000E+06         0.00000E+00
    0.12000E+06        -0.66875E+08         0.00000E+00
    0.00000E+00         0.00000E+00        -0.28629E+08
 
   -0.28579E+08         0.12522E+06         0.00000E+00
    0.12522E+06        -0.66923E+08         0.00000E+00
    0.00000E+00         0.00000E+00        -0.28650E+08
 
   -0.28602E+08         0.13024E+06         0.00000E+00
    0.13024E+06        -0.66971E+08         0.00000E+00
    0.00000E+00         0.00000E+00        -0.28672E+08
 
   -0.28624E+08         0.13509E+06         0.00000E+00
    0.13509E+06        -0.67021E+08         0.00000E+00
    0.00000E+00         0.00000E+00        -0.28694E+08
 
   -0.28647E+08         0.13979E+06         0.00000E+00
    0.13979E+06        -0.67071E+08         0.00000E+00
    0.00000E+00         0.00000E+00        -0.28715E+08
 
   -0.28670E+08         0.14437E+06         0.00000E+00
    0.14437E+06        -0.67122E+08         0.00000E+00
    0.00000E+00         0.00000E+00        -0.28737E+08
 
   -0.28693E+08         0.14885E+06         0.00000E+00
    0.14885E+06        -0.67174E+08         0.00000E+00
    0.00000E+00         0.00000E+00        -0.28760E+08
 
   -0.28716E+08         0.15325E+06         0.00000E+00
    0.15325E+06        -0.67226E+08         0.00000E+00
    0.00000E+00         0.00000E+00        -0.28783E+08
 
   -0.28739E+08         0.15758E+06         0.00000E+00
    0.15758E+06        -0.67280E+08         0.00000E+00
    0.00000E+00         0.00000E+00        -0.28806E+08
 
   -0.28762E+08         0.16186E+06         0.00000E+00
    0.16186E+06        -0.67334E+08         0.00000E+00
    0.00000E+00         0.00000E+00        -0.28829E+08
 
   -0.28786E+08         0.16609E+06         0.00000E+00
    0.16609E+06        -0.67390E+08         0.00000E+00
    0.00000E+00         0.00000E+00        -0.28853E+08
 
   -0.28810E+08         0.17030E+06         0.00000E+00
    0.17030E+06        -0.67447E+08         0.00000E+00
    0.00000E+00         0.00000E+00        -0.28877E+08
 
   -0.28834E+08         0.17448E+06         0.00000E+00
    0.17448E+06        -0.67505E+08         0.00000E+00
    0.00000E+00         0.00000E+00        -0.28902E+08
 
   -0.28859E+08         0.17865E+06         0.00000E+00
    0.17865E+06        -0.67564E+08         0.00000E+00
    0.00000E+00         0.00000E+00        -0.28927E+08
 
   -0.28884E+08         0.18282E+06         0.00000E+00
    0.18282E+06        -0.67624E+08         0.00000E+00
    0.00000E+00         0.00000E+00        -0.28952E+08
 
   -0.28910E+08         0.18698E+06         0.00000E+00
    0.18698E+06        -0.67685E+08         0.00000E+00
    0.00000E+00         0.00000E+00        -0.28979E+08
 
   -0.28936E+08         0.19114E+06         0.00000E+00
    0.19114E+06        -0.67748E+08         0.00000E+00
    0.00000E+00         0.00000E+00        -0.29005E+08
 
   -0.28963E+08         0.19531E+06         0.00000E+00
    0.19531E+06        -0.67812E+08         0.00000E+00
    0.00000E+00         0.00000E+00        -0.29032E+08
 
   -0.28990E+08         0.19949E+06         0.00000E+00
    0.19949E+06        -0.67877E+08         0.00000E+00
    0.00000E+00         0.00000E+00        -0.29060E+08
 
   -0.29018E+08         0.20368E+06         0.00000E+00
    0.20368E+06        -0.67944E+08         0.00000E+00
    0.00000E+00         0.00000E+00        -0.29089E+08
 
   -0.29046E+08         0.20788E+06         0.00000E+00
    0.20788E+06        -0.68012E+08         0.00000E+00
    0.00000E+00         0.00000E+00        -0.29118E+08
 
   -0.29075E+08         0.21209E+06         0.00000E+00
    0.21209E+06        -0.68082E+08         0.00000E+00
    0.00000E+00         0.00000E+00        -0.29147E+08
 
   -0.29105E+08         0.21631E+06         0.00000E+00
    0.21631E+06        -0.68153E+08         0.00000E+00
    0.00000E+00         0.00000E+00        -0.29177E+08
 
   -0.29135E+08         0.22055E+06         0.00000E+00
    0.22055E+06        -0.68226E+08         0.00000E+00
    0.00000E+00         0.00000E+00        -0.29208E+08
 
   -0.29166E+08         0.22479E+06         0.00000E+00
    0.22479E+06        -0.68300E+08         0.00000E+00
    0.00000E+00         0.00000E+00        -0.29240E+08
 
   -0.29198E+08         0.22904E+06         0.00000E+00
    0.22904E+06        -0.68376E+08         0.00000E+00
    0.00000E+00         0.00000E+00        -0.29272E+08
 
   -0.29231E+08         0.23330E+06         0.00000E+00
    0.23330E+06        -0.68454E+08         0.00000E+00
    0.00000E+00         0.00000E+00        -0.29305E+08
 
   -0.29264E+08         0.23755E+06         0.00000E+00
    0.23755E+06        -0.68533E+08         0.00000E+00
    0.00000E+00         0.00000E+00        -0.29339E+08
 
   -0.29299E+08         0.24180E+06         0.00000E+00
    0.24180E+06        -0.68614E+08         0.00000E+00
    0.00000E+00         0.00000E+00        -0.29374E+08
 
   -0.29334E+08         0.24604E+06         0.00000E+00
    0.24604E+06        -0.68697E+08         0.00000E+00
    0.00000E+00         0.00000E+00        -0.29409E+08
 
   -0.29370E+08         0.25026E+06         0.00000E+00
    0.25026E+06        -0.68781E+08         0.00000E+00
    0.00000E+00         0.00000E+00        -0.29445E+08
 
   -0.29407E+08         0.25447E+06         0.00000E+00
    0.25447E+06        -0.68868E+08         0.00000E+00
    0.00000E+00         0.00000E+00        -0.29482E+08
 
   -0.29445E+08         0.25864E+06         0.00000E+00
    0.25864E+06        -0.68956E+08         0.00000E+00
    0.00000E+00         0.00000E+00        -0.29520E+08
 
   -0.29484E+08         0.26279E+06         0.00000E+00
    0.26279E+06        -0.69046E+08         0.00000E+00
    0.00000E+00         0.00000E+00        -0.29559E+08
 
   -0.29523E+08         0.26688E+06         0.00000E+00
    0.26688E+06        -0.69138E+08         0.00000E+00
    0.00000E+00         0.00000E+00        -0.29598E+08
 
   -0.29564E+08         0.27093E+06         0.00000E+00
    0.27093E+06        -0.69231E+08         0.00000E+00
    0.00000E+00         0.00000E+00        -0.29639E+08
 
   -0.29606E+08         0.27491E+06         0.00000E+00
    0.27491E+06        -0.69327E+08         0.00000E+00
    0.00000E+00         0.00000E+00        -0.29680E+08
 
   -0.29649E+08         0.27881E+06         0.00000E+00
    0.27881E+06        -0.69425E+08         0.00000E+00
    0.00000E+00         0.00000E+00        -0.29722E+08
 
   -0.29693E+08         0.28263E+06         0.00000E+00
    0.28263E+06        -0.69524E+08         0.00000E+00
    0.00000E+00         0.00000E+00        -0.29765E+08
 
   -0.29738E+08         0.28635E+06         0.00000E+00
    0.28635E+06        -0.69626E+08         0.00000E+00
    0.00000E+00         0.00000E+00        -0.29809E+08
 
   -0.29785E+08         0.28995E+06         0.00000E+00
    0.28995E+06        -0.69729E+08         0.00000E+00
    0.00000E+00         0.00000E+00        -0.29854E+08
 
   -0.29832E+08         0.29343E+06         0.00000E+00
    0.29343E+06        -0.69835E+08         0.00000E+00
    0.00000E+00         0.00000E+00        -0.29900E+08
 
   -0.29881E+08         0.29677E+06         0.00000E+00
    0.29677E+06        -0.69943E+08         0.00000E+00
    0.00000E+00         0.00000E+00        -0.29947E+08
 
   -0.29931E+08         0.29994E+06         0.00000E+00
    0.29994E+06        -0.70052E+08         0.00000E+00
    0.00000E+00         0.00000E+00        -0.29995E+08
 
   -0.29982E+08         0.30293E+06         0.00000E+00
    0.30293E+06        -0.70164E+08         0.00000E+00
    0.00000E+00         0.00000E+00        -0.30044E+08
 
   -0.30035E+08         0.30572E+06         0.00000E+00
    0.30572E+06        -0.70278E+08         0.00000E+00
    0.00000E+00         0.00000E+00        -0.30094E+08
 
   -0.30089E+08         0.30828E+06         0.00000E+00
    0.30828E+06        -0.70394E+08         0.00000E+00
    0.00000E+00         0.00000E+00        -0.30145E+08
 
   -0.30144E+08         0.31060E+06         0.00000E+00
    0.31060E+06        -0.70511E+08         0.00000E+00
    0.00000E+00         0.00000E+00        -0.30197E+08
 
   -0.30200E+08         0.31264E+06         0.00000E+00
    0.31264E+06        -0.70631E+08         0.00000E+00
    0.00000E+00         0.00000E+00        -0.30250E+08
 
   -0.30259E+08         0.31439E+06         0.00000E+00
    0.31439E+06        -0.70753E+08         0.00000E+00
    0.00000E+00         0.00000E+00        -0.30304E+08
 
   -0.30318E+08         0.31580E+06         0.00000E+00
    0.31580E+06        -0.70877E+08         0.00000E+00
    0.00000E+00         0.00000E+00        -0.30359E+08
 
   -0.30379E+08         0.31684E+06         0.00000E+00
    0.31684E+06        -0.71003E+08         0.00000E+00
    0.00000E+00         0.00000E+00        -0.30415E+08
 
   -0.30442E+08         0.31748E+06         0.00000E+00
    0.31748E+06        -0.71132E+08         0.00000E+00
    0.00000E+00         0.00000E+00        -0.30472E+08
 
   -0.30506E+08         0.31767E+06         0.00000E+00
    0.31767E+06        -0.71262E+08         0.00000E+00
    0.00000E+00         0.00000E+00        -0.30530E+08
 
   -0.30572E+08         0.31738E+06         0.00000E+00
    0.31738E+06        -0.71394E+08         0.00000E+00
    0.00000E+00         0.00000E+00        -0.30590E+08
 
   -0.30640E+08         0.31655E+06         0.00000E+00
    0.31655E+06        -0.71528E+08         0.00000E+00
    0.00000E+00         0.00000E+00        -0.30651E+08
 
   -0.30710E+08         0.31513E+06         0.00000E+00
    0.31513E+06        -0.71664E+08         0.00000E+00
    0.00000E+00         0.00000E+00        -0.30712E+08
 
   -0.30781E+08         0.31305E+06         0.00000E+00
    0.31305E+06        -0.71803E+08         0.00000E+00
    0.00000E+00         0.00000E+00        -0.30775E+08
 
   -0.30855E+08         0.31025E+06         0.00000E+00
    0.31025E+06        -0.71943E+08         0.00000E+00
    0.00000E+00         0.00000E+00        -0.30839E+08
 
   -0.30930E+08         0.30666E+06         0.00000E+00
    0.30666E+06        -0.72085E+08         0.00000E+00
    0.00000E+00         0.00000E+00        -0.30905E+08
 
   -0.31007E+08         0.30219E+06         0.00000E+00
    0.30219E+06        -0.72229E+08         0.00000E+00
    0.00000E+00         0.00000E+00        -0.30971E+08
 
   -0.31087E+08         0.29674E+06         0.00000E+00
    0.29674E+06        -0.72376E+08         0.00000E+00
    0.00000E+00         0.00000E+00        -0.31039E+08
 
   -0.31168E+08         0.29023E+06         0.00000E+00
    0.29023E+06        -0.72524E+08         0.00000E+00
    0.00000E+00         0.00000E+00        -0.31108E+08
 
   -0.31252E+08         0.28254E+06         0.00000E+00
    0.28254E+06        -0.72674E+08         0.00000E+00
    0.00000E+00         0.00000E+00        -0.31178E+08
 
   -0.31339E+08         0.27356E+06         0.00000E+00
    0.27356E+06        -0.72826E+08         0.00000E+00
    0.00000E+00         0.00000E+00        -0.31249E+08
 
   -0.31427E+08         0.26316E+06         0.00000E+00
    0.26316E+06        -0.72980E+08         0.00000E+00
    0.00000E+00         0.00000E+00        -0.31322E+08
 
   -0.31518E+08         0.25124E+06         0.00000E+00
    0.25124E+06        -0.73136E+08         0.00000E+00
    0.00000E+00         0.00000E+00        -0.31396E+08
 
   -0.31611E+08         0.23766E+06         0.00000E+00
    0.23766E+06        -0.73293E+08         0.00000E+00
    0.00000E+00         0.00000E+00        -0.31471E+08
 
   -0.31707E+08         0.22233E+06         0.00000E+00
    0.22233E+06        -0.73452E+08         0.00000E+00
    0.00000E+00         0.00000E+00        -0.31548E+08
 
   -0.31805E+08         0.20518E+06         0.00000E+00
    0.20518E+06        -0.73613E+08         0.00000E+00
    0.00000E+00         0.00000E+00        -0.31625E+08
 
   -0.31906E+08         0.18617E+06         0.00000E+00
    0.18617E+06        -0.73775E+08         0.00000E+00
    0.00000E+00         0.00000E+00        -0.31704E+08
 
   -0.32009E+08         0.16535E+06         0.00000E+00
    0.16535E+06        -0.73937E+08         0.00000E+00
    0.00000E+00         0.00000E+00        -0.31784E+08
 
   -0.32114E+08         0.14285E+06         0.00000E+00
    0.14285E+06        -0.74100E+08         0.00000E+00
    0.00000E+00         0.00000E+00        -0.31864E+08
 
   -0.32223E+08         0.11898E+06         0.00000E+00
    0.11898E+06        -0.74263E+08         0.00000E+00
    0.00000E+00         0.00000E+00        -0.31946E+08
 
   -0.32333E+08         0.94264E+05         0.00000E+00
    0.94264E+05        -0.74424E+08         0.00000E+00
    0.00000E+00         0.00000E+00        -0.32027E+08
 
   -0.32447E+08         0.69499E+05         0.00000E+00
    0.69499E+05        -0.74582E+08         0.00000E+00
    0.00000E+00         0.00000E+00        -0.32109E+08
 
   -0.32564E+08         0.45868E+05         0.00000E+00
    0.45868E+05        -0.74736E+08         0.00000E+00
    0.00000E+00         0.00000E+00        -0.32190E+08
 
   -0.32685E+08         0.24956E+05         0.00000E+00
    0.24956E+05        -0.74883E+08         0.00000E+00
    0.00000E+00         0.00000E+00        -0.32270E+08
 
   -0.32811E+08         0.86218E+04         0.00000E+00
    0.86218E+04        -0.75022E+08         0.00000E+00
    0.00000E+00         0.00000E+00        -0.32350E+08
 
   -0.32943E+08        -0.14558E+04         0.00000E+00
   -0.14558E+04        -0.75147E+08         0.00000E+00
    0.00000E+00         0.00000E+00        -0.32427E+08
 
   -0.33083E+08        -0.46466E+04         0.00000E+00
   -0.46466E+04        -0.75257E+08         0.00000E+00
    0.00000E+00         0.00000E+00        -0.32502E+08
 
   -0.33234E+08        -0.22706E+04         0.00000E+00
   -0.22706E+04        -0.75348E+08         0.00000E+00
    0.00000E+00         0.00000E+00        -0.32574E+08
 
   -0.28060E+08         0.33655E+03         0.00000E+00
    0.33655E+03        -0.66145E+08         0.00000E+00
    0.00000E+00         0.00000E+00        -0.28262E+08
 
   -0.28098E+08         0.15809E+04         0.00000E+00
    0.15809E+04        -0.66168E+08         0.00000E+00
    0.00000E+00         0.00000E+00        -0.28280E+08
 
   -0.28133E+08         0.42997E+04         0.00000E+00
    0.42997E+04        -0.66196E+08         0.00000E+00
    0.00000E+00         0.00000E+00        -0.28299E+08
 
   -0.28165E+08         0.88401E+04         0.00000E+00
    0.88401E+04        -0.66228E+08         0.00000E+00
    0.00000E+00         0.00000E+00        -0.28318E+08
 
   -0.28196E+08         0.15034E+05         0.00000E+00
    0.15034E+05        -0.66264E+08         0.00000E+00
    0.00000E+00         0.00000E+00        -0.28338E+08
 
   -0.28226E+08         0.22441E+05         0.00000E+00
    0.22441E+05        -0.66301E+08         0.00000E+00
    0.00000E+00         0.00000E+00        -0.28358E+08
 
   -0.28254E+08         0.30583E+05         0.00000E+00
    0.30583E+05        -0.66341E+08         0.00000E+00
    0.00000E+00         0.00000E+00        -0.28379E+08
 
   -0.28282E+08         0.39056E+05         0.00000E+00
    0.39056E+05        -0.66382E+08         0.00000E+00
    0.00000E+00         0.00000E+00        -0.28399E+08
 
   -0.28309E+08         0.47563E+05         0.00000E+00
    0.47563E+05        -0.66424E+08         0.00000E+00
    0.00000E+00         0.00000E+00        -0.28420E+08
 
   -0.28335E+08         0.55904E+05         0.00000E+00
    0.55904E+05        -0.66467E+08         0.00000E+00
    0.00000E+00         0.00000E+00        -0.28441E+08
 
   -0.28361E+08         0.63953E+05         0.00000E+00
    0.63953E+05        -0.66511E+08         0.00000E+00
    0.00000E+00         0.00000E+00        -0.28462E+08
 
   -0.28386E+08         0.71642E+05         0.00000E+00
    0.71642E+05        -0.66555E+08         0.00000E+00
    0.00000E+00         0.00000E+00        -0.28482E+08
 
   -0.28411E+08         0.78940E+05         0.00000E+00
    0.78940E+05        -0.66599E+08         0.00000E+00
    0.00000E+00         0.00000E+00        -0.28503E+08
 
   -0.28436E+08         0.85843E+05         0.00000E+00
    0.85843E+05        -0.66644E+08         0.00000E+00
    0.00000E+00         0.00000E+00        -0.28524E+08
 
   -0.28460E+08         0.92363E+05         0.00000E+00
    0.92363E+05        -0.66689E+08         0.00000E+00
    0.00000E+00         0.00000E+00        -0.28545E+08
 
   -0.28483E+08         0.98526E+05         0.00000E+00
    0.98526E+05        -0.66735E+08         0.00000E+00
    0.00000E+00         0.00000E+00        -0.28566E+08
 
   -0.28507E+08         0.10436E+06         0.00000E+00
    0.10436E+06        -0.66782E+08         0.00000E+00
    0.00000E+00         0.00000E+00        -0.28587E+08
 
   -0.28530E+08         0.10990E+06         0.00000E+00
    0.10990E+06        -0.66828E+08         0.00000E+00
    0.00000E+00         0.00000E+00        -0.28608E+08
 
   -0.28553E+08         0.11518E+06         0.00000E+00
    0.11518E+06        -0.66876E+08         0.00000E+00
    0.00000E+00         0.00000E+00        -0.28629E+08
 
   -0.28576E+08         0.12023E+06         0.00000E+00
    0.12023E+06        -0.66924E+08         0.00000E+00
    0.00000E+00         0.00000E+00        -0.28650E+08
 
   -0.28599E+08         0.12509E+06         0.00000E+00
    0.12509E+06        -0.66972E+08         0.00000E+00
    0.00000E+00         0.00000E+00        -0.28671E+08
 
   -0.28621E+08         0.12977E+06         0.00000E+00
    0.12977E+06        -0.67022E+08         0.00000E+00
    0.00000E+00         0.00000E+00        -0.28693E+08
 
   -0.28644E+08         0.13431E+06         0.00000E+00
    0.13431E+06        -0.67072E+08         0.00000E+00
    0.00000E+00         0.00000E+00        -0.28715E+08
 
   -0.28667E+08         0.13873E+06         0.00000E+00
    0.13873E+06        -0.67123E+08         0.00000E+00
    0.00000E+00         0.00000E+00        -0.28737E+08
 
   -0.28690E+08         0.14305E+06         0.00000E+00
    0.14305E+06        -0.67174E+08         0.00000E+00
    0.00000E+00         0.00000E+00        -0.28759E+08
 
   -0.28713E+08         0.14729E+06         0.00000E+00
    0.14729E+06        -0.67227E+08         0.00000E+00
    0.00000E+00         0.00000E+00        -0.28782E+08
 
   -0.28736E+08         0.15146E+06         0.00000E+00
    0.15146E+06        -0.67281E+08         0.00000E+00
    0.00000E+00         0.00000E+00        -0.28805E+08
 
   -0.28759E+08         0.15558E+06         0.00000E+00
    0.15558E+06        -0.67335E+08         0.00000E+00
    0.00000E+00         0.00000E+00        -0.28828E+08
 
   -0.28783E+08         0.15965E+06         0.00000E+00
    0.15965E+06        -0.67391E+08         0.00000E+00
    0.00000E+00         0.00000E+00        -0.28852E+08
 
   -0.28807E+08         0.16370E+06         0.00000E+00
    0.16370E+06        -0.67448E+08         0.00000E+00
    0.00000E+00         0.00000E+00        -0.28876E+08
 
   -0.28831E+08         0.16772E+06         0.00000E+00
    0.16772E+06        -0.67505E+08         0.00000E+00
    0.00000E+00         0.00000E+00        -0.28901E+08
 
   -0.28856E+08         0.17173E+06         0.00000E+00
    0.17173E+06        -0.67564E+08         0.00000E+00
    0.00000E+00         0.00000E+00        -0.28926E+08
 
   -0.28881E+08         0.17574E+06         0.00000E+00
    0.17574E+06        -0.67625E+08         0.00000E+00
    0.00000E+00         0.00000E+00        -0.28952E+08
 
   -0.28907E+08         0.17974E+06         0.00000E+00
    0.17974E+06        -0.67686E+08         0.00000E+00
    0.00000E+00         0.00000E+00        -0.28978E+08
 
   -0.28933E+08         0.18374E+06         0.00000E+00
    0.18374E+06        -0.67749E+08         0.00000E+00
    0.00000E+00         0.00000E+00        -0.29005E+08
 
   -0.28960E+08         0.18775E+06         0.00000E+00
    0.18775E+06        -0.67813E+08         0.00000E+00
    0.00000E+00         0.00000E+00        -0.29032E+08
 
   -0.28987E+08         0.19176E+06         0.00000E+00
    0.19176E+06        -0.67878E+08         0.00000E+00
    0.00000E+00         0.00000E+00        -0.29059E+08
 
   -0.29015E+08         0.19579E+06         0.00000E+00
    0.19579E+06        -0.67945E+08         0.00000E+00
    0.00000E+00         0.00000E+00        -0.29088E+08
 
   -0.29043E+08         0.19982E+06         0.00000E+00
    0.19982E+06        -0.68013E+08         0.00000E+00
    0.00000E+00         0.00000E+00        -0.29117E+08
 
   -0.29072E+08         0.20386E+06         0.00000E+00
    0.20386E+06        -0.68083E+08         0.00000E+00
    0.00000E+00         0.00000E+00        -0.29146E+08
 
   -0.29102E+08         0.20792E+06         0.00000E+00
    0.20792E+06        -0.68154E+08         0.00000E+00
    0.00000E+00         0.00000E+00        -0.29177E+08
 
   -0.29132E+08         0.21199E+06         0.00000E+00
    0.21199E+06        -0.68227E+08         0.00000E+00
    0.00000E+00         0.00000E+00        -0.29208E+08
 
   -0.29163E+08         0.21606E+06         0.00000E+00
    0.21606E+06        -0.68301E+08         0.00000E+00
    0.00000E+00         0.00000E+00        -0.29239E+08
 
   -0.29195E+08         0.22014E+06         0.00000E+00
    0.22014E+06        -0.68377E+08         0.00000E+00
    0.00000E+00         0.00000E+00        -0.29272E+08
 
   -0.29228E+08         0.22422E+06         0.00000E+00
    0.22422E+06        -0.68455E+08         0.00000E+00
    0.00000E+00         0.00000E+00        -0.29305E+08
 
   -0.29261E+08         0.22830E+06         0.00000E+00
    0.22830E+06        -0.68534E+08         0.00000E+00
    0.00000E+00         0.00000E+00        -0.29338E+08
 
   -0.29295E+08         0.23238E+06         0.00000E+00
    0.23238E+06        -0.68615E+08         0.00000E+00
    0.00000E+00         0.00000E+00        -0.29373E+08
 
   -0.29330E+08         0.23644E+06         0.00000E+00
    0.23644E+06        -0.68698E+08         0.00000E+00
    0.00000E+00         0.00000E+00        -0.29408E+08
 
   -0.29366E+08         0.24049E+06         0.00000E+00
    0.24049E+06        -0.68782E+08         0.00000E+00
    0.00000E+00         0.00000E+00        -0.29445E+08
 
   -0.29403E+08         0.24452E+06         0.00000E+00
    0.24452E+06        -0.68868E+08         0.00000E+00
    0.00000E+00         0.00000E+00        -0.29482E+08
 
   -0.29441E+08         0.24853E+06         0.00000E+00
    0.24853E+06        -0.68957E+08         0.00000E+00
    0.00000E+00         0.00000E+00        -0.29519E+08
 
   -0.29480E+08         0.25250E+06         0.00000E+00
    0.25250E+06        -0.69047E+08         0.00000E+00
    0.00000E+00         0.00000E+00        -0.29558E+08
 
   -0.29520E+08         0.25642E+06         0.00000E+00
    0.25642E+06        -0.69138E+08         0.00000E+00
    0.00000E+00         0.00000E+00        -0.29597E+08
 
   -0.29561E+08         0.26029E+06         0.00000E+00
    0.26029E+06        -0.69232E+08         0.00000E+00
    0.00000E+00         0.00000E+00        -0.29638E+08
 
   -0.29603E+08         0.26410E+06         0.00000E+00
    0.26410E+06        -0.69328E+08         0.00000E+00
    0.00000E+00         0.00000E+00        -0.29679E+08
 
   -0.29646E+08         0.26784E+06         0.00000E+00
    0.26784E+06        -0.69425E+08         0.00000E+00
    0.00000E+00         0.00000E+00        -0.29721E+08
 
   -0.29690E+08         0.27149E+06         0.00000E+00
    0.27149E+06        -0.69525E+08         0.00000E+00
    0.00000E+00         0.00000E+00        -0.29764E+08
 
   -0.29735E+08         0.27505E+06         0.00000E+00
    0.27505E+06        -0.69627E+08         0.00000E+00
    0.00000E+00         0.00000E+00        -0.29808E+08
 
   -0.29781E+08         0.27850E+06         0.00000E+00
    0.27850E+06        -0.69730E+08         0.00000E+00
    0.00000E+00         0.00000E+00        -0.29853E+08
 
   -0.29829E+08         0.28182E+06         0.00000E+00
    0.28182E+06        -0.69836E+08         0.00000E+00
    0.00000E+00         0.00000E+00        -0.29899E+08
 
   -0.29878E+08         0.28500E+06         0.00000E+00
    0.28500E+06        -0.69943E+08         0.00000E+00
    0.00000E+00         0.00000E+00        -0.29946E+08
 
   -0.29928E+08         0.28803E+06         0.00000E+00
    0.28803E+06        -0.70053E+08         0.00000E+00
    0.00000E+00         0.00000E+00        -0.29994E+08
 
   -0.29979E+08         0.29088E+06         0.00000E+00
    0.29088E+06        -0.70165E+08         0.00000E+00
    0.00000E+00         0.00000E+00        -0.30043E+08
 
   -0.30032E+08         0.29353E+06         0.00000E+00
    0.29353E+06        -0.70278E+08         0.00000E+00
    0.00000E+00         0.00000E+00        -0.30093E+08
 
   -0.30086E+08         0.29597E+06         0.00000E+00
    0.29597E+06        -0.70394E+08         0.00000E+00
    0.00000E+00         0.00000E+00        -0.30144E+08
 
   -0.30141E+08         0.29817E+06         0.00000E+00
    0.29817E+06        -0.70512E+08         0.00000E+00
    0.00000E+00         0.00000E+00        -0.30196E+08
 
   -0.30198E+08         0.30011E+06         0.00000E+00
    0.30011E+06        -0.70632E+08         0.00000E+00
    0.00000E+00         0.00000E+00        -0.30249E+08
 
   -0.30256E+08         0.30175E+06         0.00000E+00
    0.30175E+06        -0.70754E+08         0.00000E+00
    0.00000E+00         0.00000E+00        -0.30303E+08
 
   -0.30316E+08         0.30307E+06         0.00000E+00
    0.30307E+06        -0.70878E+08         0.00000E+00
    0.00000E+00         0.00000E+00        -0.30358E+08
 
   -0.30377E+08         0.30404E+06         0.00000E+00
    0.30404E+06        -0.71004E+08         0.00000E+00
    0.00000E+00         0.00000E+00        -0.30414E+08
 
   -0.30440E+08         0.30461E+06         0.00000E+00
    0.30461E+06        -0.71132E+08         0.00000E+00
    0.00000E+00         0.00000E+00        -0.30472E+08
 
   -0.30505E+08         0.30476E+06         0.00000E+00
    0.30476E+06        -0.71262E+08         0.00000E+00
    0.00000E+00         0.00000E+00        -0.30530E+08
 
   -0.30571E+08         0.30444E+06         0.00000E+00
    0.30444E+06        -0.71394E+08         0.00000E+00
    0.00000E+00         0.00000E+00        -0.30590E+08
 
   -0.30639E+08         0.30359E+06         0.00000E+00
    0.30359E+06        -0.71528E+08         0.00000E+00
    0.00000E+00         0.00000E+00        -0.30650E+08
 
   -0.30709E+08         0.30217E+06         0.00000E+00
    0.30217E+06        -0.71664E+08         0.00000E+00
    0.00000E+00         0.00000E+00        -0.30712E+08
 
   -0.30781E+08         0.30011E+06         0.00000E+00
    0.30011E+06        -0.71802E+08         0.00000E+00
    0.00000E+00         0.00000E+00        -0.30775E+08
 
   -0.30855E+08         0.29736E+06         0.00000E+00
    0.29736E+06        -0.71942E+08         0.00000E+00
    0.00000E+00         0.00000E+00        -0.30839E+08
 
   -0.30930E+08         0.29382E+06         0.00000E+00
    0.29382E+06        -0.72084E+08         0.00000E+00
    0.00000E+00         0.00000E+00        -0.30904E+08
 
   -0.31008E+08         0.28944E+06         0.00000E+00
    0.28944E+06        -0.72228E+08         0.00000E+00
    0.00000E+00         0.00000E+00        -0.30971E+08
 
   -0.31088E+08         0.28410E+06         0.00000E+00
    0.28410E+06        -0.72374E+08         0.00000E+00
    0.00000E+00         0.00000E+00        -0.31039E+08
 
   -0.31170E+08         0.27772E+06         0.00000E+00
    0.27772E+06        -0.72522E+08         0.00000E+00
    0.00000E+00         0.00000E+00        -0.31108E+08
 
   -0.31255E+08         0.27019E+06         0.00000E+00
    0.27019E+06        -0.72672E+08         0.00000E+00
    0.00000E+00         0.00000E+00        -0.31178E+08
 
   -0.31342E+08         0.26138E+06         0.00000E+00
    0.26138E+06        -0.72824E+08         0.00000E+00
    0.00000E+00         0.00000E+00        -0.31250E+08
 
   -0.31431E+08         0.25119E+06         0.00000E+00
    0.25119E+06        -0.72978E+08         0.00000E+00
    0.00000E+00         0.00000E+00        -0.31323E+08
 
   -0.31523E+08         0.23948E+06         0.00000E+00
    0.23948E+06        -0.73133E+08         0.00000E+00
    0.00000E+00         0.00000E+00        -0.31397E+08
 
   -0.31617E+08         0.22615E+06         0.00000E+00
    0.22615E+06        -0.73290E+08         0.00000E+00
    0.00000E+00         0.00000E+00        -0.31472E+08
 
   -0.31714E+08         0.21108E+06         0.00000E+00
    0.21108E+06        -0.73449E+08         0.00000E+00
    0.00000E+00         0.00000E+00        -0.31549E+08
 
   -0.31813E+08         0.19420E+06         0.00000E+00
    0.19420E+06        -0.73609E+08         0.00000E+00
    0.00000E+00         0.00000E+00        -0.31627E+08
 
   -0.31915E+08         0.17549E+06         0.00000E+00
    0.17549E+06        -0.73771E+08         0.00000E+00
    0.00000E+00         0.00000E+00        -0.31706E+08
 
   -0.32020E+08         0.15497E+06         0.00000E+00
    0.15497E+06        -0.73933E+08         0.00000E+00
    0.00000E+00         0.00000E+00        -0.31786E+08
 
   -0.32127E+08         0.13281E+06         0.00000E+00
    0.13281E+06        -0.74096E+08         0.00000E+00
    0.00000E+00         0.00000E+00        -0.31867E+08
 
   -0.32237E+08         0.10931E+06         0.00000E+00
    0.10931E+06        -0.74258E+08         0.00000E+00
    0.00000E+00         0.00000E+00        -0.31948E+08
 
   -0.32349E+08         0.85008E+05         0.00000E+00
    0.85008E+05        -0.74419E+08         0.00000E+00
    0.00000E+00         0.00000E+00        -0.32031E+08
 
   -0.32465E+08         0.60728E+05         0.00000E+00
    0.60728E+05        -0.74577E+08         0.00000E+00
    0.00000E+00         0.00000E+00        -0.32113E+08
 
   -0.32584E+08         0.37693E+05         0.00000E+00
    0.37693E+05        -0.74732E+08         0.00000E+00
    0.00000E+00         0.00000E+00        -0.32195E+08
 
   -0.32707E+08         0.17545E+05         0.00000E+00
    0.17545E+05        -0.74880E+08         0.00000E+00
    0.00000E+00         0.00000E+00        -0.32276E+08
 
   -0.32834E+08         0.22308E+04         0.00000E+00
    0.22308E+04        -0.75019E+08         0.00000E+00
    0.00000E+00         0.00000E+00        -0.32356E+08
 
   -0.32967E+08        -0.64790E+04         0.00000E+00
   -0.64790E+04        -0.75146E+08         0.00000E+00
    0.00000E+00         0.00000E+00        -0.32434E+08
 
   -0.33109E+08        -0.78967E+04         0.00000E+00
   -0.78967E+04        -0.75257E+08         0.00000E+00
    0.00000E+00         0.00000E+00        -0.32510E+08
 
   -0.33259E+08        -0.34006E+04         0.00000E+00
   -0.34006E+04        -0.75349E+08         0.00000E+00
    0.00000E+00         0.00000E+00        -0.32582E+08
 
   -0.28053E+08         0.23184E+02         0.00000E+00
    0.23184E+02        -0.66145E+08         0.00000E+00
    0.00000E+00         0.00000E+00        -0.28259E+08
 
   -0.28090E+08         0.67993E+03         0.00000E+00
    0.67993E+03        -0.66168E+08         0.00000E+00
    0.00000E+00         0.00000E+00        -0.28278E+08
 
   -0.28125E+08         0.29052E+04         0.00000E+00
    0.29052E+04        -0.66197E+08         0.00000E+00
    0.00000E+00         0.00000E+00        -0.28297E+08
 
   -0.28158E+08         0.70550E+04         0.00000E+00
    0.70550E+04        -0.66229E+08         0.00000E+00
    0.00000E+00         0.00000E+00        -0.28316E+08
 
   -0.28189E+08         0.12938E+05         0.00000E+00
    0.12938E+05        -0.66265E+08         0.00000E+00
    0.00000E+00         0.00000E+00        -0.28336E+08
 
   -0.28219E+08         0.20088E+05         0.00000E+00
    0.20088E+05        -0.66303E+08         0.00000E+00
    0.00000E+00         0.00000E+00        -0.28357E+08
 
   -0.28248E+08         0.28004E+05         0.00000E+00
    0.28004E+05        -0.66343E+08         0.00000E+00
    0.00000E+00         0.00000E+00        -0.28377E+08
 
   -0.28276E+08         0.36269E+05         0.00000E+00
    0.36269E+05        -0.66384E+08         0.00000E+00
    0.00000E+00         0.00000E+00        -0.28398E+08
 
   -0.28304E+08         0.44579E+05         0.00000E+00
    0.44579E+05        -0.66426E+08         0.00000E+00
    0.00000E+00         0.00000E+00        -0.28419E+08
 
   -0.28331E+08         0.52730E+05         0.00000E+00
    0.52730E+05        -0.66469E+08         0.00000E+00
    0.00000E+00         0.00000E+00        -0.28440E+08
 
   -0.28357E+08         0.60593E+05         0.00000E+00
    0.60593E+05        -0.66512E+08         0.00000E+00
    0.00000E+00         0.00000E+00        -0.28461E+08
 
   -0.28382E+08         0.68097E+05         0.00000E+00
    0.68097E+05        -0.66556E+08         0.00000E+00
    0.00000E+00         0.00000E+00        -0.28482E+08
 
   -0.28407E+08         0.75212E+05         0.00000E+00
    0.75212E+05        -0.66601E+08         0.00000E+00
    0.00000E+00         0.00000E+00        -0.28502E+08
 
   -0.28432E+08         0.81933E+05         0.00000E+00
    0.81933E+05        -0.66645E+08         0.00000E+00
    0.00000E+00         0.00000E+00        -0.28523E+08
 
   -0.28456E+08         0.88273E+05         0.00000E+00
    0.88273E+05        -0.66691E+08         0.00000E+00
    0.00000E+00         0.00000E+00        -0.28544E+08
 
   -0.28480E+08         0.94256E+05         0.00000E+00
    0.94256E+05        -0.66736E+08         0.00000E+00
    0.00000E+00         0.00000E+00        -0.28565E+08
 
   -0.28504E+08         0.99914E+05         0.00000E+00
    0.99914E+05        -0.66783E+08         0.00000E+00
    0.00000E+00         0.00000E+00        -0.28586E+08
 
   -0.28527E+08         0.10528E+06         0.00000E+00
    0.10528E+06        -0.66829E+08         0.00000E+00
    0.00000E+00         0.00000E+00        -0.28607E+08
 
   -0.28550E+08         0.11039E+06         0.00000E+00
    0.11039E+06        -0.66877E+08         0.00000E+00
    0.00000E+00         0.00000E+00        -0.28628E+08
 
   -0.28573E+08         0.11526E+06         0.00000E+00
    0.11526E+06        -0.66925E+08         0.00000E+00
    0.00000E+00         0.00000E+00        -0.28649E+08
 
   -0.28596E+08         0.11995E+06         0.00000E+00
    0.11995E+06        -0.66973E+08         0.00000E+00
    0.00000E+00         0.00000E+00        -0.28671E+08
 
   -0.28619E+08         0.12446E+06         0.00000E+00
    0.12446E+06        -0.67023E+08         0.00000E+00
    0.00000E+00         0.00000E+00        -0.28692E+08
 
   -0.28641E+08         0.12884E+06         0.00000E+00
    0.12884E+06        -0.67073E+08         0.00000E+00
    0.00000E+00         0.00000E+00        -0.28714E+08
 
   -0.28664E+08         0.13309E+06         0.00000E+00
    0.13309E+06        -0.67124E+08         0.00000E+00
    0.00000E+00         0.00000E+00        -0.28736E+08
 
   -0.28687E+08         0.13725E+06         0.00000E+00
    0.13725E+06        -0.67175E+08         0.00000E+00
    0.00000E+00         0.00000E+00        -0.28759E+08
 
   -0.28710E+08         0.14133E+06         0.00000E+00
    0.14133E+06        -0.67228E+08         0.00000E+00
    0.00000E+00         0.00000E+00        -0.28781E+08
 
   -0.28733E+08         0.14533E+06         0.00000E+00
    0.14533E+06        -0.67281E+08         0.00000E+00
    0.00000E+00         0.00000E+00        -0.28804E+08
 
   -0.28757E+08         0.14929E+06         0.00000E+00
    0.14929E+06        -0.67336E+08         0.00000E+00
    0.00000E+00         0.00000E+00        -0.28828E+08
 
   -0.28780E+08         0.15321E+06         0.00000E+00
    0.15321E+06        -0.67392E+08         0.00000E+00
    0.00000E+00         0.00000E+00        -0.28852E+08
 
   -0.28804E+08         0.15710E+06         0.00000E+00
    0.15710E+06        -0.67448E+08         0.00000E+00
    0.00000E+00         0.00000E+00        -0.28876E+08
 
   -0.28829E+08         0.16096E+06         0.00000E+00
    0.16096E+06        -0.67506E+08         0.00000E+00
    0.00000E+00         0.00000E+00        -0.28900E+08
 
   -0.28853E+08         0.16481E+06         0.00000E+00
    0.16481E+06        -0.67565E+08         0.00000E+00
    0.00000E+00         0.00000E+00        -0.28926E+08
 
   -0.28878E+08         0.16865E+06         0.00000E+00
    0.16865E+06        -0.67625E+08         0.00000E+00
    0.00000E+00         0.00000E+00        -0.28951E+08
 
   -0.28904E+08         0.17249E+06         0.00000E+00
    0.17249E+06        -0.67687E+08         0.00000E+00
    0.00000E+00         0.00000E+00        -0.28977E+08
 
   -0.28930E+08         0.17633E+06         0.00000E+00
    0.17633E+06        -0.67749E+08         0.00000E+00
    0.00000E+00         0.00000E+00        -0.29004E+08
 
   -0.28957E+08         0.18018E+06         0.00000E+00
    0.18018E+06        -0.67813E+08         0.00000E+00
    0.00000E+00         0.00000E+00        -0.29031E+08
 
   -0.28984E+08         0.18403E+06         0.00000E+00
    0.18403E+06        -0.67879E+08         0.00000E+00
    0.00000E+00         0.00000E+00        -0.29059E+08
 
   -0.29011E+08         0.18789E+06         0.00000E+00
    0.18789E+06        -0.67946E+08         0.00000E+00
    0.00000E+00         0.00000E+00        -0.29087E+08
 
   -0.29040E+08         0.19176E+06         0.00000E+00
    0.19176E+06        -0.68014E+08         0.00000E+00
    0.00000E+00         0.00000E+00        -0.29116E+08
 
   -0.29069E+08         0.19563E+06         0.00000E+00
    0.19563E+06        -0.68084E+08         0.00000E+00
    0.00000E+00         0.00000E+00        -0.29146E+08
 
   -0.29098E+08         0.19952E+06         0.00000E+00
    0.19952E+06        -0.68155E+08         0.00000E+00
    0.00000E+00         0.00000E+00        -0.29176E+08
 
   -0.29129E+08         0.20342E+06         0.00000E+00
    0.20342E+06        -0.68228E+08         0.00000E+00
    0.00000E+00         0.00000E+00        -0.29207E+08
 
   -0.29160E+08         0.20732E+06         0.00000E+00
    0.20732E+06        -0.68302E+08         0.00000E+00
    0.00000E+00         0.00000E+00        -0.29238E+08
 
   -0.29192E+08         0.21123E+06         0.00000E+00
    0.21123E+06        -0.68378E+08         0.00000E+00
    0.00000E+00         0.00000E+00        -0.29271E+08
 
   -0.29224E+08         0.21514E+06         0.00000E+00
    0.21514E+06        -0.68455E+08         0.00000E+00
    0.00000E+00         0.00000E+00        -0.29304E+08
 
   -0.29258E+08         0.21905E+06         0.00000E+00
    0.21905E+06        -0.68535E+08         0.00000E+00
    0.00000E+00         0.00000E+00        -0.29338E+08
 
   -0.29292E+08         0.22295E+06         0.00000E+00
    0.22295E+06        -0.68616E+08         0.00000E+00
    0.00000E+00         0.00000E+00        -0.29372E+08
 
   -0.29327E+08         0.22684E+06         0.00000E+00
    0.22684E+06        -0.68698E+08         0.00000E+00
    0.00000E+00         0.00000E+00        -0.29408E+08
 
   -0.29363E+08         0.23072E+06         0.00000E+00
    0.23072E+06        -0.68783E+08         0.00000E+00
    0.00000E+00         0.00000E+00        -0.29444E+08
 
   -0.29400E+08         0.23458E+06         0.00000E+00
    0.23458E+06        -0.68869E+08         0.00000E+00
    0.00000E+00         0.00000E+00        -0.29481E+08
 
   -0.29438E+08         0.23841E+06         0.00000E+00
    0.23841E+06        -0.68957E+08         0.00000E+00
    0.00000E+00         0.00000E+00        -0.29519E+08
 
   -0.29477E+08         0.24221E+06         0.00000E+00
    0.24221E+06        -0.69047E+08         0.00000E+00
    0.00000E+00         0.00000E+00        -0.29557E+08
 
   -0.29516E+08         0.24596E+06         0.00000E+00
    0.24596E+06        -0.69139E+08         0.00000E+00
    0.00000E+00         0.00000E+00        -0.29597E+08
 
   -0.29557E+08         0.24966E+06         0.00000E+00
    0.24966E+06        -0.69233E+08         0.00000E+00
    0.00000E+00         0.00000E+00        -0.29637E+08
 
   -0.29599E+08         0.25330E+06         0.00000E+00
    0.25330E+06        -0.69329E+08         0.00000E+00
    0.00000E+00         0.00000E+00        -0.29678E+08
 
   -0.29642E+08         0.25687E+06         0.00000E+00
    0.25687E+06        -0.69426E+08         0.00000E+00
    0.00000E+00         0.00000E+00        -0.29721E+08
 
   -0.29686E+08         0.26036E+06         0.00000E+00
    0.26036E+06        -0.69526E+08         0.00000E+00
    0.00000E+00         0.00000E+00        -0.29764E+08
 
   -0.29732E+08         0.26376E+06         0.00000E+00
    0.26376E+06        -0.69627E+08         0.00000E+00
    0.00000E+00         0.00000E+00        -0.29808E+08
 
   -0.29778E+08         0.26705E+06         0.00000E+00
    0.26705E+06        -0.69731E+08         0.00000E+00
    0.00000E+00         0.00000E+00        -0.29853E+08
 
   -0.29826E+08         0.27022E+06         0.00000E+00
    0.27022E+06        -0.69836E+08         0.00000E+00
    0.00000E+00         0.00000E+00        -0.29899E+08
 
   -0.29875E+08         0.27325E+06         0.00000E+00
    0.27325E+06        -0.69944E+08         0.00000E+00
    0.00000E+00         0.00000E+00        -0.29946E+08
 
   -0.29925E+08         0.27613E+06         0.00000E+00
    0.27613E+06        -0.70053E+08         0.00000E+00
    0.00000E+00         0.00000E+00        -0.29993E+08
 
   -0.29976E+08         0.27885E+06         0.00000E+00
    0.27885E+06        -0.70165E+08         0.00000E+00
    0.00000E+00         0.00000E+00        -0.30042E+08
 
   -0.30029E+08         0.28137E+06         0.00000E+00
    0.28137E+06        -0.70279E+08         0.00000E+00
    0.00000E+00         0.00000E+00        -0.30092E+08
 
   -0.30083E+08         0.28369E+06         0.00000E+00
    0.28369E+06        -0.70394E+08         0.00000E+00
    0.00000E+00         0.00000E+00        -0.30143E+08
 
   -0.30138E+08         0.28577E+06         0.00000E+00
    0.28577E+06        -0.70512E+08         0.00000E+00
    0.00000E+00         0.00000E+00        -0.30195E+08
 
   -0.30195E+08         0.28760E+06         0.00000E+00
    0.28760E+06        -0.70632E+08         0.00000E+00
    0.00000E+00         0.00000E+00        -0.30248E+08
 
   -0.30254E+08         0.28915E+06         0.00000E+00
    0.28915E+06        -0.70754E+08         0.00000E+00
    0.00000E+00         0.00000E+00        -0.30302E+08
 
   -0.30314E+08         0.29038E+06         0.00000E+00
    0.29038E+06        -0.70878E+08         0.00000E+00
    0.00000E+00         0.00000E+00        -0.30357E+08
 
   -0.30375E+08         0.29128E+06         0.00000E+00
    0.29128E+06        -0.71004E+08         0.00000E+00
    0.00000E+00         0.00000E+00        -0.30414E+08
 
   -0.30438E+08         0.29179E+06         0.00000E+00
    0.29179E+06        -0.71132E+08         0.00000E+00
    0.00000E+00         0.00000E+00        -0.30471E+08
 
   -0.30503E+08         0.29190E+06         0.00000E+00
    0.29190E+06        -0.71262E+08         0.00000E+00
    0.00000E+00         0.00000E+00        -0.30530E+08
 
   -0.30570E+08         0.29154E+06         0.00000E+00
    0.29154E+06        -0.71394E+08         0.00000E+00
    0.00000E+00         0.00000E+00        -0.30589E+08
 
   -0.30638E+08         0.29068E+06         0.00000E+00
    0.29068E+06        -0.71528E+08         0.00000E+00
    0.00000E+00         0.00000E+00        -0.30650E+08
 
   -0.30708E+08         0.28927E+06         0.00000E+00
    0.28927E+06        -0.71664E+08         0.00000E+00
    0.00000E+00         0.00000E+00        -0.30712E+08
 
   -0.30780E+08         0.28724E+06         0.00000E+00
    0.28724E+06        -0.71802E+08         0.00000E+00
    0.00000E+00         0.00000E+00        -0.30775E+08
 
   -0.30855E+08         0.28453E+06         0.00000E+00
    0.28453E+06        -0.71942E+08         0.00000E+00
    0.00000E+00         0.00000E+00        -0.30839E+08
 
   -0.30931E+08         0.28107E+06         0.00000E+00
    0.28107E+06        -0.72084E+08         0.00000E+00
    0.00000E+00         0.00000E+00        -0.30904E+08
 
   -0.31009E+08         0.27678E+06         0.00000E+00
    0.27678E+06        -0.72227E+08         0.00000E+00
    0.00000E+00         0.00000E+00        -0.30971E+08
 
   -0.31089E+08         0.27156E+06         0.00000E+00
    0.27156E+06        -0.72373E+08         0.00000E+00
    0.00000E+00         0.00000E+00        -0.31039E+08
 
   -0.31172E+08         0.26532E+06         0.00000E+00
    0.26532E+06        -0.72521E+08         0.00000E+00
    0.00000E+00         0.00000E+00        -0.31108E+08
 
   -0.31257E+08         0.25796E+06         0.00000E+00
    0.25796E+06        -0.72671E+08         0.00000E+00
    0.00000E+00         0.00000E+00        -0.31178E+08
 
   -0.31345E+08         0.24935E+06         0.00000E+00
    0.24935E+06        -0.72822E+08         0.00000E+00
    0.00000E+00         0.00000E+00        -0.31250E+08
 
   -0.31435E+08         0.23937E+06         0.00000E+00
    0.23937E+06        -0.72975E+08         0.00000E+00
    0.00000E+00         0.00000E+00        -0.31323E+08
 
   -0.31527E+08         0.22790E+06         0.00000E+00
    0.22790E+06        -0.73131E+08         0.00000E+00
    0.00000E+00         0.00000E+00        -0.31397E+08
 
   -0.31623E+08         0.21483E+06         0.00000E+00
    0.21483E+06        -0.73287E+08         0.00000E+00
    0.00000E+00         0.00000E+00        -0.31473E+08
 
   -0.31720E+08         0.20005E+06         0.00000E+00
    0.20005E+06        -0.73446E+08         0.00000E+00
    0.00000E+00         0.00000E+00        -0.31550E+08
 
   -0.31821E+08         0.18348E+06         0.00000E+00
    0.18348E+06        -0.73606E+08         0.00000E+00
    0.00000E+00         0.00000E+00        -0.31628E+08
 
   -0.31924E+08         0.16509E+06         0.00000E+00
    0.16509E+06        -0.73767E+08         0.00000E+00
    0.00000E+00         0.00000E+00        -0.31707E+08
 
   -0.32030E+08         0.14492E+06         0.00000E+00
    0.14492E+06        -0.73929E+08         0.00000E+00
    0.00000E+00         0.00000E+00        -0.31788E+08
 
   -0.32139E+08         0.12312E+06         0.00000E+00
    0.12312E+06        -0.74091E+08         0.00000E+00
    0.00000E+00         0.00000E+00        -0.31869E+08
 
   -0.32251E+08         0.10002E+06         0.00000E+00
    0.10002E+06        -0.74253E+08         0.00000E+00
    0.00000E+00         0.00000E+00        -0.31951E+08
 
   -0.32366E+08         0.76151E+05         0.00000E+00
    0.76151E+05        -0.74414E+08         0.00000E+00
    0.00000E+00         0.00000E+00        -0.32034E+08
 
   -0.32483E+08         0.52364E+05         0.00000E+00
    0.52364E+05        -0.74573E+08         0.00000E+00
    0.00000E+00         0.00000E+00        -0.32117E+08
 
   -0.32604E+08         0.29909E+05         0.00000E+00
    0.29909E+05        -0.74727E+08         0.00000E+00
    0.00000E+00         0.00000E+00        -0.32199E+08
 
   -0.32729E+08         0.10479E+05         0.00000E+00
    0.10479E+05        -0.74876E+08         0.00000E+00
    0.00000E+00         0.00000E+00        -0.32281E+08
 
   -0.32858E+08        -0.38978E+04         0.00000E+00
   -0.38978E+04        -0.75017E+08         0.00000E+00
    0.00000E+00         0.00000E+00        -0.32362E+08
 
   -0.32992E+08        -0.11340E+05         0.00000E+00
   -0.11340E+05        -0.75145E+08         0.00000E+00
    0.00000E+00         0.00000E+00        -0.32441E+08
 
   -0.33134E+08        -0.11073E+05         0.00000E+00
   -0.11073E+05        -0.75258E+08         0.00000E+00
    0.00000E+00         0.00000E+00        -0.32518E+08
 
   -0.33285E+08        -0.45119E+04         0.00000E+00
   -0.45119E+04        -0.75350E+08         0.00000E+00
    0.00000E+00         0.00000E+00        -0.32591E+08
 
   -0.28045E+08        -0.28695E+03         0.00000E+00
   -0.28695E+03        -0.66145E+08         0.00000E+00
    0.00000E+00         0.00000E+00        -0.28257E+08
 
   -0.28083E+08        -0.20618E+03         0.00000E+00
   -0.20618E+03        -0.66169E+08         0.00000E+00
    0.00000E+00         0.00000E+00        -0.28275E+08
 
   -0.28118E+08         0.15466E+04         0.00000E+00
    0.15466E+04        -0.66197E+08         0.00000E+00
    0.00000E+00         0.00000E+00        -0.28294E+08
 
   -0.28151E+08         0.53300E+04         0.00000E+00
    0.53300E+04        -0.66230E+08         0.00000E+00
    0.00000E+00         0.00000E+00        -0.28314E+08
 
   -0.28182E+08         0.10922E+05         0.00000E+00
    0.10922E+05        -0.66266E+08         0.00000E+00
    0.00000E+00         0.00000E+00        -0.28335E+08
 
   -0.28213E+08         0.17825E+05         0.00000E+00
    0.17825E+05        -0.66304E+08         0.00000E+00
    0.00000E+00         0.00000E+00        -0.28355E+08
 
   -0.28242E+08         0.25517E+05         0.00000E+00
    0.25517E+05        -0.66344E+08         0.00000E+00
    0.00000E+00         0.00000E+00        -0.28376E+08
 
   -0.28271E+08         0.33571E+05         0.00000E+00
    0.33571E+05        -0.66385E+08         0.00000E+00
    0.00000E+00         0.00000E+00        -0.28397E+08
 
   -0.28299E+08         0.41678E+05         0.00000E+00
    0.41678E+05        -0.66427E+08         0.00000E+00
    0.00000E+00         0.00000E+00        -0.28418E+08
 
   -0.28326E+08         0.49629E+05         0.00000E+00
    0.49629E+05        -0.66470E+08         0.00000E+00
    0.00000E+00         0.00000E+00        -0.28439E+08
 
   -0.28352E+08         0.57297E+05         0.00000E+00
    0.57297E+05        -0.66514E+08         0.00000E+00
    0.00000E+00         0.00000E+00        -0.28460E+08
 
   -0.28378E+08         0.64608E+05         0.00000E+00
    0.64608E+05        -0.66558E+08         0.00000E+00
    0.00000E+00         0.00000E+00        -0.28481E+08
 
   -0.28404E+08         0.71531E+05         0.00000E+00
    0.71531E+05        -0.66602E+08         0.00000E+00
    0.00000E+00         0.00000E+00        -0.28502E+08
 
   -0.28428E+08         0.78062E+05         0.00000E+00
    0.78062E+05        -0.66647E+08         0.00000E+00
    0.00000E+00         0.00000E+00        -0.28523E+08
 
   -0.28453E+08         0.84215E+05         0.00000E+00
    0.84215E+05        -0.66692E+08         0.00000E+00
    0.00000E+00         0.00000E+00        -0.28543E+08
 
   -0.28477E+08         0.90013E+05         0.00000E+00
    0.90013E+05        -0.66738E+08         0.00000E+00
    0.00000E+00         0.00000E+00        -0.28564E+08
 
   -0.28501E+08         0.95488E+05         0.00000E+00
    0.95488E+05        -0.66784E+08         0.00000E+00
    0.00000E+00         0.00000E+00        -0.28585E+08
 
   -0.28524E+08         0.10067E+06         0.00000E+00
    0.10067E+06        -0.66831E+08         0.00000E+00
    0.00000E+00         0.00000E+00        -0.28606E+08
 
   -0.28547E+08         0.10560E+06         0.00000E+00
    0.10560E+06        -0.66878E+08         0.00000E+00
    0.00000E+00         0.00000E+00        -0.28627E+08
 
   -0.28570E+08         0.11031E+06         0.00000E+00
    0.11031E+06        -0.66926E+08         0.00000E+00
    0.00000E+00         0.00000E+00        -0.28649E+08
 
   -0.28593E+08         0.11482E+06         0.00000E+00
    0.11482E+06        -0.66974E+08         0.00000E+00
    0.00000E+00         0.00000E+00        -0.28670E+08
 
   -0.28616E+08         0.11916E+06         0.00000E+00
    0.11916E+06        -0.67023E+08         0.00000E+00
    0.00000E+00         0.00000E+00        -0.28692E+08
 
   -0.28638E+08         0.12337E+06         0.00000E+00
    0.12337E+06        -0.67074E+08         0.00000E+00
    0.00000E+00         0.00000E+00        -0.28714E+08
 
   -0.28661E+08         0.12746E+06         0.00000E+00
    0.12746E+06        -0.67124E+08         0.00000E+00
    0.00000E+00         0.00000E+00        -0.28736E+08
 
   -0.28684E+08         0.13145E+06         0.00000E+00
    0.13145E+06        -0.67176E+08         0.00000E+00
    0.00000E+00         0.00000E+00        -0.28758E+08
 
   -0.28707E+08         0.13536E+06         0.00000E+00
    0.13536E+06        -0.67229E+08         0.00000E+00
    0.00000E+00         0.00000E+00        -0.28781E+08
 
   -0.28730E+08         0.13921E+06         0.00000E+00
    0.13921E+06        -0.67282E+08         0.00000E+00
    0.00000E+00         0.00000E+00        -0.28804E+08
 
   -0.28754E+08         0.14300E+06         0.00000E+00
    0.14300E+06        -0.67337E+08         0.00000E+00
    0.00000E+00         0.00000E+00        -0.28827E+08
 
   -0.28777E+08         0.14676E+06         0.00000E+00
    0.14676E+06        -0.67392E+08         0.00000E+00
    0.00000E+00         0.00000E+00        -0.28851E+08
 
   -0.28801E+08         0.15049E+06         0.00000E+00
    0.15049E+06        -0.67449E+08         0.00000E+00
    0.00000E+00         0.00000E+00        -0.28875E+08
 
   -0.28826E+08         0.15419E+06         0.00000E+00
    0.15419E+06        -0.67507E+08         0.00000E+00
    0.00000E+00         0.00000E+00        -0.28900E+08
 
   -0.28850E+08         0.15788E+06         0.00000E+00
    0.15788E+06        -0.67566E+08         0.00000E+00
    0.00000E+00         0.00000E+00        -0.28925E+08
 
   -0.28875E+08         0.16156E+06         0.00000E+00
    0.16156E+06        -0.67626E+08         0.00000E+00
    0.00000E+00         0.00000E+00        -0.28950E+08
 
   -0.28901E+08         0.16524E+06         0.00000E+00
    0.16524E+06        -0.67687E+08         0.00000E+00
    0.00000E+00         0.00000E+00        -0.28977E+08
 
   -0.28927E+08         0.16892E+06         0.00000E+00
    0.16892E+06        -0.67750E+08         0.00000E+00
    0.00000E+00         0.00000E+00        -0.29003E+08
 
   -0.28954E+08         0.17260E+06         0.00000E+00
    0.17260E+06        -0.67814E+08         0.00000E+00
    0.00000E+00         0.00000E+00        -0.29030E+08
 
   -0.28981E+08         0.17629E+06         0.00000E+00
    0.17629E+06        -0.67880E+08         0.00000E+00
    0.00000E+00         0.00000E+00        -0.29058E+08
 
   -0.29008E+08         0.17998E+06         0.00000E+00
    0.17998E+06        -0.67946E+08         0.00000E+00
    0.00000E+00         0.00000E+00        -0.29086E+08
 
   -0.29037E+08         0.18368E+06         0.00000E+00
    0.18368E+06        -0.68015E+08         0.00000E+00
    0.00000E+00         0.00000E+00        -0.29115E+08
 
   -0.29066E+08         0.18740E+06         0.00000E+00
    0.18740E+06        -0.68084E+08         0.00000E+00
    0.00000E+00         0.00000E+00        -0.29145E+08
 
   -0.29095E+08         0.19112E+06         0.00000E+00
    0.19112E+06        -0.68156E+08         0.00000E+00
    0.00000E+00         0.00000E+00        -0.29175E+08
 
   -0.29125E+08         0.19484E+06         0.00000E+00
    0.19484E+06        -0.68228E+08         0.00000E+00
    0.00000E+00         0.00000E+00        -0.29206E+08
 
   -0.29156E+08         0.19858E+06         0.00000E+00
    0.19858E+06        -0.68303E+08         0.00000E+00
    0.00000E+00         0.00000E+00        -0.29238E+08
 
   -0.29188E+08         0.20231E+06         0.00000E+00
    0.20231E+06        -0.68379E+08         0.00000E+00
    0.00000E+00         0.00000E+00        -0.29270E+08
 
   -0.29221E+08         0.20605E+06         0.00000E+00
    0.20605E+06        -0.68456E+08         0.00000E+00
    0.00000E+00         0.00000E+00        -0.29303E+08
 
   -0.29254E+08         0.20979E+06         0.00000E+00
    0.20979E+06        -0.68535E+08         0.00000E+00
    0.00000E+00         0.00000E+00        -0.29337E+08
 
   -0.29288E+08         0.21352E+06         0.00000E+00
    0.21352E+06        -0.68616E+08         0.00000E+00
    0.00000E+00         0.00000E+00        -0.29371E+08
 
   -0.29324E+08         0.21724E+06         0.00000E+00
    0.21724E+06        -0.68699E+08         0.00000E+00
    0.00000E+00         0.00000E+00        -0.29407E+08
 
   -0.29360E+08         0.22095E+06         0.00000E+00
    0.22095E+06        -0.68784E+08         0.00000E+00
    0.00000E+00         0.00000E+00        -0.29443E+08
 
   -0.29396E+08         0.22463E+06         0.00000E+00
    0.22463E+06        -0.68870E+08         0.00000E+00
    0.00000E+00         0.00000E+00        -0.29480E+08
 
   -0.29434E+08         0.22829E+06         0.00000E+00
    0.22829E+06        -0.68958E+08         0.00000E+00
    0.00000E+00         0.00000E+00        -0.29518E+08
 
   -0.29473E+08         0.23192E+06         0.00000E+00
    0.23192E+06        -0.69048E+08         0.00000E+00
    0.00000E+00         0.00000E+00        -0.29556E+08
 
   -0.29513E+08         0.23550E+06         0.00000E+00
    0.23550E+06        -0.69140E+08         0.00000E+00
    0.00000E+00         0.00000E+00        -0.29596E+08
 
   -0.29554E+08         0.23903E+06         0.00000E+00
    0.23903E+06        -0.69234E+08         0.00000E+00
    0.00000E+00         0.00000E+00        -0.29636E+08
 
   -0.29596E+08         0.24251E+06         0.00000E+00
    0.24251E+06        -0.69329E+08         0.00000E+00
    0.00000E+00         0.00000E+00        -0.29678E+08
 
   -0.29639E+08         0.24591E+06         0.00000E+00
    0.24591E+06        -0.69427E+08         0.00000E+00
    0.00000E+00         0.00000E+00        -0.29720E+08
 
   -0.29683E+08         0.24924E+06         0.00000E+00
    0.24924E+06        -0.69526E+08         0.00000E+00
    0.00000E+00         0.00000E+00        -0.29763E+08
 
   -0.29728E+08         0.25248E+06         0.00000E+00
    0.25248E+06        -0.69628E+08         0.00000E+00
    0.00000E+00         0.00000E+00        -0.29807E+08
 
   -0.29775E+08         0.25561E+06         0.00000E+00
    0.25561E+06        -0.69731E+08         0.00000E+00
    0.00000E+00         0.00000E+00        -0.29852E+08
 
   -0.29822E+08         0.25863E+06         0.00000E+00
    0.25863E+06        -0.69837E+08         0.00000E+00
    0.00000E+00         0.00000E+00        -0.29898E+08
 
   -0.29871E+08         0.26152E+06         0.00000E+00
    0.26152E+06        -0.69944E+08         0.00000E+00
    0.00000E+00         0.00000E+00        -0.29945E+08
 
   -0.29922E+08         0.26426E+06         0.00000E+00
    0.26426E+06        -0.70054E+08         0.00000E+00
    0.00000E+00         0.00000E+00        -0.29993E+08
 
   -0.29973E+08         0.26683E+06         0.00000E+00
    0.26683E+06        -0.70166E+08         0.00000E+00
    0.00000E+00         0.00000E+00        -0.30042E+08
 
   -0.30026E+08         0.26923E+06         0.00000E+00
    0.26923E+06        -0.70279E+08         0.00000E+00
    0.00000E+00         0.00000E+00        -0.30092E+08
 
   -0.30080E+08         0.27142E+06         0.00000E+00
    0.27142E+06        -0.70395E+08         0.00000E+00
    0.00000E+00         0.00000E+00        -0.30143E+08
 
   -0.30136E+08         0.27339E+06         0.00000E+00
    0.27339E+06        -0.70513E+08         0.00000E+00
    0.00000E+00         0.00000E+00        -0.30195E+08
 
   -0.30193E+08         0.27512E+06         0.00000E+00
    0.27512E+06        -0.70632E+08         0.00000E+00
    0.00000E+00         0.00000E+00        -0.30248E+08
 
   -0.30251E+08         0.27657E+06         0.00000E+00
    0.27657E+06        -0.70754E+08         0.00000E+00
    0.00000E+00         0.00000E+00        -0.30302E+08
 
   -0.30312E+08         0.27773E+06         0.00000E+00
    0.27773E+06        -0.70878E+08         0.00000E+00
    0.00000E+00         0.00000E+00        -0.30357E+08
 
   -0.30373E+08         0.27855E+06         0.00000E+00
    0.27855E+06        -0.71004E+08         0.00000E+00
    0.00000E+00         0.00000E+00        -0.30413E+08
 
   -0.30437E+08         0.27902E+06         0.00000E+00
    0.27902E+06        -0.71132E+08         0.00000E+00
    0.00000E+00         0.00000E+00        -0.30471E+08
 
   -0.30502E+08         0.27908E+06         0.00000E+00
    0.27908E+06        -0.71262E+08         0.00000E+00
    0.00000E+00         0.00000E+00        -0.30529E+08
 
   -0.30568E+08         0.27870E+06         0.00000E+00
    0.27870E+06        -0.71394E+08         0.00000E+00
    0.00000E+00         0.00000E+00        -0.30589E+08
 
   -0.30637E+08         0.27784E+06         0.00000E+00
    0.27784E+06        -0.71527E+08         0.00000E+00
    0.00000E+00         0.00000E+00        -0.30649E+08
 
   -0.30708E+08         0.27644E+06         0.00000E+00
    0.27644E+06        -0.71663E+08         0.00000E+00
    0.00000E+00         0.00000E+00        -0.30711E+08
 
   -0.30780E+08         0.27444E+06         0.00000E+00
    0.27444E+06        -0.71801E+08         0.00000E+00
    0.00000E+00         0.00000E+00        -0.30774E+08
 
   -0.30854E+08         0.27179E+06         0.00000E+00
    0.27179E+06        -0.71941E+08         0.00000E+00
    0.00000E+00         0.00000E+00        -0.30839E+08
 
   -0.30931E+08         0.26840E+06         0.00000E+00
    0.26840E+06        -0.72083E+08         0.00000E+00
    0.00000E+00         0.00000E+00        -0.30904E+08
 
   -0.31010E+08         0.26421E+06         0.00000E+00
    0.26421E+06        -0.72226E+08         0.00000E+00
    0.00000E+00         0.00000E+00        -0.30971E+08
 
   -0.31090E+08         0.25913E+06         0.00000E+00
    0.25913E+06        -0.72372E+08         0.00000E+00
    0.00000E+00         0.00000E+00        -0.31039E+08
 
   -0.31174E+08         0.25304E+06         0.00000E+00
    0.25304E+06        -0.72520E+08         0.00000E+00
    0.00000E+00         0.00000E+00        -0.31108E+08
 
   -0.31259E+08         0.24585E+06         0.00000E+00
    0.24585E+06        -0.72669E+08         0.00000E+00
    0.00000E+00         0.00000E+00        -0.31179E+08
 
   -0.31348E+08         0.23745E+06         0.00000E+00
    0.23745E+06        -0.72820E+08         0.00000E+00
    0.00000E+00         0.00000E+00        -0.31250E+08
 
   -0.31438E+08         0.22771E+06         0.00000E+00
    0.22771E+06        -0.72973E+08         0.00000E+00
    0.00000E+00         0.00000E+00        -0.31324E+08
 
   -0.31532E+08         0.21650E+06         0.00000E+00
    0.21650E+06        -0.73128E+08         0.00000E+00
    0.00000E+00         0.00000E+00        -0.31398E+08
 
   -0.31628E+08         0.20372E+06         0.00000E+00
    0.20372E+06        -0.73285E+08         0.00000E+00
    0.00000E+00         0.00000E+00        -0.31474E+08
 
   -0.31727E+08         0.18924E+06         0.00000E+00
    0.18924E+06        -0.73443E+08         0.00000E+00
    0.00000E+00         0.00000E+00        -0.31551E+08
 
   -0.31829E+08         0.17301E+06         0.00000E+00
    0.17301E+06        -0.73602E+08         0.00000E+00
    0.00000E+00         0.00000E+00        -0.31629E+08
 
   -0.31933E+08         0.15497E+06         0.00000E+00
    0.15497E+06        -0.73763E+08         0.00000E+00
    0.00000E+00         0.00000E+00        -0.31709E+08
 
   -0.32041E+08         0.13518E+06         0.00000E+00
    0.13518E+06        -0.73925E+08         0.00000E+00
    0.00000E+00         0.00000E+00        -0.31790E+08
 
   -0.32151E+08         0.11379E+06         0.00000E+00
    0.11379E+06        -0.74087E+08         0.00000E+00
    0.00000E+00         0.00000E+00        -0.31871E+08
 
   -0.32265E+08         0.91111E+05         0.00000E+00
    0.91111E+05        -0.74249E+08         0.00000E+00
    0.00000E+00         0.00000E+00        -0.31954E+08
 
   -0.32382E+08         0.67699E+05         0.00000E+00
    0.67699E+05        -0.74409E+08         0.00000E+00
    0.00000E+00         0.00000E+00        -0.32037E+08
 
   -0.32501E+08         0.44414E+05         0.00000E+00
    0.44414E+05        -0.74568E+08         0.00000E+00
    0.00000E+00         0.00000E+00        -0.32121E+08
 
   -0.32624E+08         0.22525E+05         0.00000E+00
    0.22525E+05        -0.74723E+08         0.00000E+00
    0.00000E+00         0.00000E+00        -0.32204E+08
 
   -0.32751E+08         0.37643E+04         0.00000E+00
    0.37643E+04        -0.74873E+08         0.00000E+00
    0.00000E+00         0.00000E+00        -0.32287E+08
 
   -0.32881E+08        -0.97599E+04         0.00000E+00
   -0.97599E+04        -0.75015E+08         0.00000E+00
    0.00000E+00         0.00000E+00        -0.32369E+08
 
   -0.33017E+08        -0.16039E+05         0.00000E+00
   -0.16039E+05        -0.75145E+08         0.00000E+00
    0.00000E+00         0.00000E+00        -0.32448E+08
 
   -0.33159E+08        -0.14178E+05         0.00000E+00
   -0.14178E+05        -0.75259E+08         0.00000E+00
    0.00000E+00         0.00000E+00        -0.32525E+08
 
   -0.33310E+08        -0.56064E+04         0.00000E+00
   -0.56064E+04        -0.75352E+08         0.00000E+00
    0.00000E+00         0.00000E+00        -0.32599E+08
 
   -0.28037E+08        -0.59425E+03         0.00000E+00
   -0.59425E+03        -0.66145E+08         0.00000E+00
    0.00000E+00         0.00000E+00        -0.28255E+08
 
   -0.28075E+08        -0.10779E+04         0.00000E+00
   -0.10779E+04        -0.66169E+08         0.00000E+00
    0.00000E+00         0.00000E+00        -0.28273E+08
 
   -0.28110E+08         0.22434E+03         0.00000E+00
    0.22434E+03        -0.66198E+08         0.00000E+00
    0.00000E+00         0.00000E+00        -0.28292E+08
 
   -0.28143E+08         0.36670E+04         0.00000E+00
    0.36670E+04        -0.66231E+08         0.00000E+00
    0.00000E+00         0.00000E+00        -0.28312E+08
 
   -0.28175E+08         0.89886E+04         0.00000E+00
    0.89886E+04        -0.66267E+08         0.00000E+00
    0.00000E+00         0.00000E+00        -0.28333E+08
 
   -0.28206E+08         0.15655E+05         0.00000E+00
    0.15655E+05        -0.66306E+08         0.00000E+00
    0.00000E+00         0.00000E+00        -0.28354E+08
 
   -0.28236E+08         0.23124E+05         0.00000E+00
    0.23124E+05        -0.66346E+08         0.00000E+00
    0.00000E+00         0.00000E+00        -0.28375E+08
 
   -0.28265E+08         0.30963E+05         0.00000E+00
    0.30963E+05        -0.66387E+08         0.00000E+00
    0.00000E+00         0.00000E+00        -0.28396E+08
 
   -0.28294E+08         0.38859E+05         0.00000E+00
    0.38859E+05        -0.66429E+08         0.00000E+00
    0.00000E+00         0.00000E+00        -0.28417E+08
 
   -0.28321E+08         0.46603E+05         0.00000E+00
    0.46603E+05        -0.66472E+08         0.00000E+00
    0.00000E+00         0.00000E+00        -0.28438E+08
 
   -0.28348E+08         0.54066E+05         0.00000E+00
    0.54066E+05        -0.66515E+08         0.00000E+00
    0.00000E+00         0.00000E+00        -0.28459E+08
 
   -0.28374E+08         0.61174E+05         0.00000E+00
    0.61174E+05        -0.66559E+08         0.00000E+00
    0.00000E+00         0.00000E+00        -0.28480E+08
 
   -0.28400E+08         0.67898E+05         0.00000E+00
    0.67898E+05        -0.66603E+08         0.00000E+00
    0.00000E+00         0.00000E+00        -0.28501E+08
 
   -0.28425E+08         0.74232E+05         0.00000E+00
    0.74232E+05        -0.66648E+08         0.00000E+00
    0.00000E+00         0.00000E+00        -0.28522E+08
 
   -0.28450E+08         0.80190E+05         0.00000E+00
    0.80190E+05        -0.66693E+08         0.00000E+00
    0.00000E+00         0.00000E+00        -0.28543E+08
 
   -0.28474E+08         0.85797E+05         0.00000E+00
    0.85797E+05        -0.66739E+08         0.00000E+00
    0.00000E+00         0.00000E+00        -0.28564E+08
 
   -0.28498E+08         0.91083E+05         0.00000E+00
    0.91083E+05        -0.66785E+08         0.00000E+00
    0.00000E+00         0.00000E+00        -0.28585E+08
 
   -0.28521E+08         0.96083E+05         0.00000E+00
    0.96083E+05        -0.66831E+08         0.00000E+00
    0.00000E+00         0.00000E+00        -0.28606E+08
 
   -0.28544E+08         0.10083E+06         0.00000E+00
    0.10083E+06        -0.66879E+08         0.00000E+00
    0.00000E+00         0.00000E+00        -0.28627E+08
 
   -0.28567E+08         0.10536E+06         0.00000E+00
    0.10536E+06        -0.66927E+08         0.00000E+00
    0.00000E+00         0.00000E+00        -0.28648E+08
 
   -0.28590E+08         0.10969E+06         0.00000E+00
    0.10969E+06        -0.66975E+08         0.00000E+00
    0.00000E+00         0.00000E+00        -0.28670E+08
 
   -0.28613E+08         0.11386E+06         0.00000E+00
    0.11386E+06        -0.67024E+08         0.00000E+00
    0.00000E+00         0.00000E+00        -0.28691E+08
 
   -0.28636E+08         0.11790E+06         0.00000E+00
    0.11790E+06        -0.67074E+08         0.00000E+00
    0.00000E+00         0.00000E+00        -0.28713E+08
 
   -0.28659E+08         0.12182E+06         0.00000E+00
    0.12182E+06        -0.67125E+08         0.00000E+00
    0.00000E+00         0.00000E+00        -0.28735E+08
 
   -0.28681E+08         0.12565E+06         0.00000E+00
    0.12565E+06        -0.67177E+08         0.00000E+00
    0.00000E+00         0.00000E+00        -0.28757E+08
 
   -0.28704E+08         0.12939E+06         0.00000E+00
    0.12939E+06        -0.67229E+08         0.00000E+00
    0.00000E+00         0.00000E+00        -0.28780E+08
 
   -0.28728E+08         0.13308E+06         0.00000E+00
    0.13308E+06        -0.67283E+08         0.00000E+00
    0.00000E+00         0.00000E+00        -0.28803E+08
 
   -0.28751E+08         0.13671E+06         0.00000E+00
    0.13671E+06        -0.67338E+08         0.00000E+00
    0.00000E+00         0.00000E+00        -0.28827E+08
 
   -0.28775E+08         0.14031E+06         0.00000E+00
    0.14031E+06        -0.67393E+08         0.00000E+00
    0.00000E+00         0.00000E+00        -0.28850E+08
 
   -0.28799E+08         0.14387E+06         0.00000E+00
    0.14387E+06        -0.67450E+08         0.00000E+00
    0.00000E+00         0.00000E+00        -0.28875E+08
 
   -0.28823E+08         0.14742E+06         0.00000E+00
    0.14742E+06        -0.67508E+08         0.00000E+00
    0.00000E+00         0.00000E+00        -0.28899E+08
 
   -0.28847E+08         0.15095E+06         0.00000E+00
    0.15095E+06        -0.67567E+08         0.00000E+00
    0.00000E+00         0.00000E+00        -0.28924E+08
 
   -0.28873E+08         0.15447E+06         0.00000E+00
    0.15447E+06        -0.67627E+08         0.00000E+00
    0.00000E+00         0.00000E+00        -0.28950E+08
 
   -0.28898E+08         0.15798E+06         0.00000E+00
    0.15798E+06        -0.67688E+08         0.00000E+00
    0.00000E+00         0.00000E+00        -0.28976E+08
 
   -0.28924E+08         0.16150E+06         0.00000E+00
    0.16150E+06        -0.67751E+08         0.00000E+00
    0.00000E+00         0.00000E+00        -0.29002E+08
 
   -0.28951E+08         0.16502E+06         0.00000E+00
    0.16502E+06        -0.67815E+08         0.00000E+00
    0.00000E+00         0.00000E+00        -0.29030E+08
 
   -0.28978E+08         0.16854E+06         0.00000E+00
    0.16854E+06        -0.67880E+08         0.00000E+00
    0.00000E+00         0.00000E+00        -0.29057E+08
 
   -0.29005E+08         0.17207E+06         0.00000E+00
    0.17207E+06        -0.67947E+08         0.00000E+00
    0.00000E+00         0.00000E+00        -0.29086E+08
 
   -0.29034E+08         0.17561E+06         0.00000E+00
    0.17561E+06        -0.68015E+08         0.00000E+00
    0.00000E+00         0.00000E+00        -0.29115E+08
 
   -0.29062E+08         0.17915E+06         0.00000E+00
    0.17915E+06        -0.68085E+08         0.00000E+00
    0.00000E+00         0.00000E+00        -0.29144E+08
 
   -0.29092E+08         0.18270E+06         0.00000E+00
    0.18270E+06        -0.68156E+08         0.00000E+00
    0.00000E+00         0.00000E+00        -0.29174E+08
 
   -0.29122E+08         0.18626E+06         0.00000E+00
    0.18626E+06        -0.68229E+08         0.00000E+00
    0.00000E+00         0.00000E+00        -0.29205E+08
 
   -0.29153E+08         0.18983E+06         0.00000E+00
    0.18983E+06        -0.68303E+08         0.00000E+00
    0.00000E+00         0.00000E+00        -0.29237E+08
 
   -0.29185E+08         0.19339E+06         0.00000E+00
    0.19339E+06        -0.68379E+08         0.00000E+00
    0.00000E+00         0.00000E+00        -0.29269E+08
 
   -0.29218E+08         0.19696E+06         0.00000E+00
    0.19696E+06        -0.68457E+08         0.00000E+00
    0.00000E+00         0.00000E+00        -0.29302E+08
 
   -0.29251E+08         0.20053E+06         0.00000E+00
    0.20053E+06        -0.68536E+08         0.00000E+00
    0.00000E+00         0.00000E+00        -0.29336E+08
 
   -0.29285E+08         0.20409E+06         0.00000E+00
    0.20409E+06        -0.68617E+08         0.00000E+00
    0.00000E+00         0.00000E+00        -0.29371E+08
 
   -0.29320E+08         0.20764E+06         0.00000E+00
    0.20764E+06        -0.68700E+08         0.00000E+00
    0.00000E+00         0.00000E+00        -0.29406E+08
 
   -0.29356E+08         0.21117E+06         0.00000E+00
    0.21117E+06        -0.68784E+08         0.00000E+00
    0.00000E+00         0.00000E+00        -0.29442E+08
 
   -0.29393E+08         0.21468E+06         0.00000E+00
    0.21468E+06        -0.68871E+08         0.00000E+00
    0.00000E+00         0.00000E+00        -0.29479E+08
 
   -0.29431E+08         0.21817E+06         0.00000E+00
    0.21817E+06        -0.68959E+08         0.00000E+00
    0.00000E+00         0.00000E+00        -0.29517E+08
 
   -0.29470E+08         0.22163E+06         0.00000E+00
    0.22163E+06        -0.69049E+08         0.00000E+00
    0.00000E+00         0.00000E+00        -0.29556E+08
 
   -0.29510E+08         0.22504E+06         0.00000E+00
    0.22504E+06        -0.69141E+08         0.00000E+00
    0.00000E+00         0.00000E+00        -0.29595E+08
 
   -0.29551E+08         0.22841E+06         0.00000E+00
    0.22841E+06        -0.69234E+08         0.00000E+00
    0.00000E+00         0.00000E+00        -0.29635E+08
 
   -0.29592E+08         0.23172E+06         0.00000E+00
    0.23172E+06        -0.69330E+08         0.00000E+00
    0.00000E+00         0.00000E+00        -0.29677E+08
 
   -0.29636E+08         0.23496E+06         0.00000E+00
    0.23496E+06        -0.69428E+08         0.00000E+00
    0.00000E+00         0.00000E+00        -0.29719E+08
 
   -0.29680E+08         0.23813E+06         0.00000E+00
    0.23813E+06        -0.69527E+08         0.00000E+00
    0.00000E+00         0.00000E+00        -0.29762E+08
 
   -0.29725E+08         0.24121E+06         0.00000E+00
    0.24121E+06        -0.69629E+08         0.00000E+00
    0.00000E+00         0.00000E+00        -0.29806E+08
 
   -0.29772E+08         0.24419E+06         0.00000E+00
    0.24419E+06        -0.69732E+08         0.00000E+00
    0.00000E+00         0.00000E+00        -0.29851E+08
 
   -0.29819E+08         0.24705E+06         0.00000E+00
    0.24705E+06        -0.69838E+08         0.00000E+00
    0.00000E+00         0.00000E+00        -0.29897E+08
 
   -0.29868E+08         0.24980E+06         0.00000E+00
    0.24980E+06        -0.69945E+08         0.00000E+00
    0.00000E+00         0.00000E+00        -0.29944E+08
 
   -0.29919E+08         0.25240E+06         0.00000E+00
    0.25240E+06        -0.70055E+08         0.00000E+00
    0.00000E+00         0.00000E+00        -0.29992E+08
 
   -0.29970E+08         0.25484E+06         0.00000E+00
    0.25484E+06        -0.70166E+08         0.00000E+00
    0.00000E+00         0.00000E+00        -0.30041E+08
 
   -0.30023E+08         0.25711E+06         0.00000E+00
    0.25711E+06        -0.70280E+08         0.00000E+00
    0.00000E+00         0.00000E+00        -0.30091E+08
 
   -0.30077E+08         0.25918E+06         0.00000E+00
    0.25918E+06        -0.70395E+08         0.00000E+00
    0.00000E+00         0.00000E+00        -0.30142E+08
 
   -0.30133E+08         0.26104E+06         0.00000E+00
    0.26104E+06        -0.70513E+08         0.00000E+00
    0.00000E+00         0.00000E+00        -0.30194E+08
 
   -0.30190E+08         0.26267E+06         0.00000E+00
    0.26267E+06        -0.70633E+08         0.00000E+00
    0.00000E+00         0.00000E+00        -0.30247E+08
 
   -0.30249E+08         0.26403E+06         0.00000E+00
    0.26403E+06        -0.70754E+08         0.00000E+00
    0.00000E+00         0.00000E+00        -0.30301E+08
 
   -0.30309E+08         0.26511E+06         0.00000E+00
    0.26511E+06        -0.70878E+08         0.00000E+00
    0.00000E+00         0.00000E+00        -0.30356E+08
 
   -0.30371E+08         0.26587E+06         0.00000E+00
    0.26587E+06        -0.71004E+08         0.00000E+00
    0.00000E+00         0.00000E+00        -0.30413E+08
 
   -0.30435E+08         0.26628E+06         0.00000E+00
    0.26628E+06        -0.71132E+08         0.00000E+00
    0.00000E+00         0.00000E+00        -0.30470E+08
 
   -0.30500E+08         0.26631E+06         0.00000E+00
    0.26631E+06        -0.71262E+08         0.00000E+00
    0.00000E+00         0.00000E+00        -0.30528E+08
 
   -0.30567E+08         0.26591E+06         0.00000E+00
    0.26591E+06        -0.71393E+08         0.00000E+00
    0.00000E+00         0.00000E+00        -0.30588E+08
 
   -0.30636E+08         0.26504E+06         0.00000E+00
    0.26504E+06        -0.71527E+08         0.00000E+00
    0.00000E+00         0.00000E+00        -0.30649E+08
 
   -0.30707E+08         0.26366E+06         0.00000E+00
    0.26366E+06        -0.71663E+08         0.00000E+00
    0.00000E+00         0.00000E+00        -0.30711E+08
 
   -0.30779E+08         0.26170E+06         0.00000E+00
    0.26170E+06        -0.71801E+08         0.00000E+00
    0.00000E+00         0.00000E+00        -0.30774E+08
 
   -0.30854E+08         0.25911E+06         0.00000E+00
    0.25911E+06        -0.71940E+08         0.00000E+00
    0.00000E+00         0.00000E+00        -0.30838E+08
 
   -0.30931E+08         0.25582E+06         0.00000E+00
    0.25582E+06        -0.72082E+08         0.00000E+00
    0.00000E+00         0.00000E+00        -0.30904E+08
 
   -0.31010E+08         0.25174E+06         0.00000E+00
    0.25174E+06        -0.72226E+08         0.00000E+00
    0.00000E+00         0.00000E+00        -0.30971E+08
 
   -0.31092E+08         0.24679E+06         0.00000E+00
    0.24679E+06        -0.72371E+08         0.00000E+00
    0.00000E+00         0.00000E+00        -0.31039E+08
 
   -0.31175E+08         0.24087E+06         0.00000E+00
    0.24087E+06        -0.72518E+08         0.00000E+00
    0.00000E+00         0.00000E+00        -0.31108E+08
 
   -0.31262E+08         0.23387E+06         0.00000E+00
    0.23387E+06        -0.72667E+08         0.00000E+00
    0.00000E+00         0.00000E+00        -0.31179E+08
 
   -0.31350E+08         0.22569E+06         0.00000E+00
    0.22569E+06        -0.72818E+08         0.00000E+00
    0.00000E+00         0.00000E+00        -0.31251E+08
 
   -0.31442E+08         0.21620E+06         0.00000E+00
    0.21620E+06        -0.72971E+08         0.00000E+00
    0.00000E+00         0.00000E+00        -0.31324E+08
 
   -0.31536E+08         0.20528E+06         0.00000E+00
    0.20528E+06        -0.73126E+08         0.00000E+00
    0.00000E+00         0.00000E+00        -0.31399E+08
 
   -0.31633E+08         0.19280E+06         0.00000E+00
    0.19280E+06        -0.73282E+08         0.00000E+00
    0.00000E+00         0.00000E+00        -0.31475E+08
 
   -0.31733E+08         0.17866E+06         0.00000E+00
    0.17866E+06        -0.73440E+08         0.00000E+00
    0.00000E+00         0.00000E+00        -0.31552E+08
 
   -0.31836E+08         0.16279E+06         0.00000E+00
    0.16279E+06        -0.73599E+08         0.00000E+00
    0.00000E+00         0.00000E+00        -0.31631E+08
 
   -0.31942E+08         0.14514E+06         0.00000E+00
    0.14514E+06        -0.73759E+08         0.00000E+00
    0.00000E+00         0.00000E+00        -0.31710E+08
 
   -0.32051E+08         0.12576E+06         0.00000E+00
    0.12576E+06        -0.73921E+08         0.00000E+00
    0.00000E+00         0.00000E+00        -0.31792E+08
 
   -0.32164E+08         0.10480E+06         0.00000E+00
    0.10480E+06        -0.74082E+08         0.00000E+00
    0.00000E+00         0.00000E+00        -0.31874E+08
 
   -0.32279E+08         0.82587E+05         0.00000E+00
    0.82587E+05        -0.74244E+08         0.00000E+00
    0.00000E+00         0.00000E+00        -0.31957E+08
 
   -0.32398E+08         0.59659E+05         0.00000E+00
    0.59659E+05        -0.74405E+08         0.00000E+00
    0.00000E+00         0.00000E+00        -0.32041E+08
 
   -0.32519E+08         0.36887E+05         0.00000E+00
    0.36887E+05        -0.74563E+08         0.00000E+00
    0.00000E+00         0.00000E+00        -0.32125E+08
 
   -0.32644E+08         0.15549E+05         0.00000E+00
    0.15549E+05        -0.74719E+08         0.00000E+00
    0.00000E+00         0.00000E+00        -0.32209E+08
 
   -0.32773E+08        -0.25903E+04         0.00000E+00
   -0.25903E+04        -0.74870E+08         0.00000E+00
    0.00000E+00         0.00000E+00        -0.32293E+08
 
   -0.32905E+08        -0.15348E+05         0.00000E+00
   -0.15348E+05        -0.75013E+08         0.00000E+00
    0.00000E+00         0.00000E+00        -0.32375E+08
 
   -0.33042E+08        -0.20573E+05         0.00000E+00
   -0.20573E+05        -0.75145E+08         0.00000E+00
    0.00000E+00         0.00000E+00        -0.32456E+08
 
   -0.33185E+08        -0.17214E+05         0.00000E+00
   -0.17214E+05        -0.75260E+08         0.00000E+00
    0.00000E+00         0.00000E+00        -0.32533E+08
 
   -0.33336E+08        -0.66856E+04         0.00000E+00
   -0.66856E+04        -0.75355E+08         0.00000E+00
    0.00000E+00         0.00000E+00        -0.32607E+08
 
   -0.28030E+08        -0.89905E+03         0.00000E+00
   -0.89905E+03        -0.66145E+08         0.00000E+00
    0.00000E+00         0.00000E+00        -0.28252E+08
 
   -0.28067E+08        -0.19352E+04         0.00000E+00
   -0.19352E+04        -0.66169E+08         0.00000E+00
    0.00000E+00         0.00000E+00        -0.28271E+08
 
   -0.28103E+08        -0.10600E+04         0.00000E+00
   -0.10600E+04        -0.66198E+08         0.00000E+00
    0.00000E+00         0.00000E+00        -0.28290E+08
 
   -0.28136E+08         0.20689E+04         0.00000E+00
    0.20689E+04        -0.66232E+08         0.00000E+00
    0.00000E+00         0.00000E+00        -0.28310E+08
 
   -0.28169E+08         0.71401E+04         0.00000E+00
    0.71401E+04        -0.66269E+08         0.00000E+00
    0.00000E+00         0.00000E+00        -0.28331E+08
 
   -0.28200E+08         0.13579E+05         0.00000E+00
    0.13579E+05        -0.66307E+08         0.00000E+00
    0.00000E+00         0.00000E+00        -0.28352E+08
 
   -0.28230E+08         0.20829E+05         0.00000E+00
    0.20829E+05        -0.66347E+08         0.00000E+00
    0.00000E+00         0.00000E+00        -0.28373E+08
 
   -0.28260E+08         0.28448E+05         0.00000E+00
    0.28448E+05        -0.66389E+08         0.00000E+00
    0.00000E+00         0.00000E+00        -0.28395E+08
 
   -0.28289E+08         0.36125E+05         0.00000E+00
    0.36125E+05        -0.66431E+08         0.00000E+00
    0.00000E+00         0.00000E+00        -0.28416E+08
 
   -0.28317E+08         0.43652E+05         0.00000E+00
    0.43652E+05        -0.66473E+08         0.00000E+00
    0.00000E+00         0.00000E+00        -0.28437E+08
 
   -0.28344E+08         0.50900E+05         0.00000E+00
    0.50900E+05        -0.66517E+08         0.00000E+00
    0.00000E+00         0.00000E+00        -0.28458E+08
 
   -0.28370E+08         0.57797E+05         0.00000E+00
    0.57797E+05        -0.66560E+08         0.00000E+00
    0.00000E+00         0.00000E+00        -0.28479E+08
 
   -0.28396E+08         0.64311E+05         0.00000E+00
    0.64311E+05        -0.66605E+08         0.00000E+00
    0.00000E+00         0.00000E+00        -0.28500E+08
 
   -0.28422E+08         0.70440E+05         0.00000E+00
    0.70440E+05        -0.66649E+08         0.00000E+00
    0.00000E+00         0.00000E+00        -0.28521E+08
 
   -0.28446E+08         0.76197E+05         0.00000E+00
    0.76197E+05        -0.66694E+08         0.00000E+00
    0.00000E+00         0.00000E+00        -0.28542E+08
 
   -0.28471E+08         0.81606E+05         0.00000E+00
    0.81606E+05        -0.66740E+08         0.00000E+00
    0.00000E+00         0.00000E+00        -0.28563E+08
 
   -0.28495E+08         0.86699E+05         0.00000E+00
    0.86699E+05        -0.66786E+08         0.00000E+00
    0.00000E+00         0.00000E+00        -0.28584E+08
 
   -0.28518E+08         0.91510E+05         0.00000E+00
    0.91510E+05        -0.66832E+08         0.00000E+00
    0.00000E+00         0.00000E+00        -0.28605E+08
 
   -0.28541E+08         0.96071E+05         0.00000E+00
    0.96071E+05        -0.66880E+08         0.00000E+00
    0.00000E+00         0.00000E+00        -0.28626E+08
 
   -0.28564E+08         0.10041E+06         0.00000E+00
    0.10041E+06        -0.66927E+08         0.00000E+00
    0.00000E+00         0.00000E+00        -0.28648E+08
 
   -0.28587E+08         0.10457E+06         0.00000E+00
    0.10457E+06        -0.66976E+08         0.00000E+00
    0.00000E+00         0.00000E+00        -0.28669E+08
 
   -0.28610E+08         0.10857E+06         0.00000E+00
    0.10857E+06        -0.67025E+08         0.00000E+00
    0.00000E+00         0.00000E+00        -0.28691E+08
 
   -0.28633E+08         0.11243E+06         0.00000E+00
    0.11243E+06        -0.67075E+08         0.00000E+00
    0.00000E+00         0.00000E+00        -0.28712E+08
 
   -0.28656E+08         0.11619E+06         0.00000E+00
    0.11619E+06        -0.67126E+08         0.00000E+00
    0.00000E+00         0.00000E+00        -0.28735E+08
 
   -0.28679E+08         0.11984E+06         0.00000E+00
    0.11984E+06        -0.67178E+08         0.00000E+00
    0.00000E+00         0.00000E+00        -0.28757E+08
 
   -0.28702E+08         0.12343E+06         0.00000E+00
    0.12343E+06        -0.67230E+08         0.00000E+00
    0.00000E+00         0.00000E+00        -0.28780E+08
 
   -0.28725E+08         0.12695E+06         0.00000E+00
    0.12695E+06        -0.67284E+08         0.00000E+00
    0.00000E+00         0.00000E+00        -0.28803E+08
 
   -0.28748E+08         0.13042E+06         0.00000E+00
    0.13042E+06        -0.67338E+08         0.00000E+00
    0.00000E+00         0.00000E+00        -0.28826E+08
 
   -0.28772E+08         0.13385E+06         0.00000E+00
    0.13385E+06        -0.67394E+08         0.00000E+00
    0.00000E+00         0.00000E+00        -0.28850E+08
 
   -0.28796E+08         0.13725E+06         0.00000E+00
    0.13725E+06        -0.67451E+08         0.00000E+00
    0.00000E+00         0.00000E+00        -0.28874E+08
 
   -0.28820E+08         0.14064E+06         0.00000E+00
    0.14064E+06        -0.67508E+08         0.00000E+00
    0.00000E+00         0.00000E+00        -0.28899E+08
 
   -0.28845E+08         0.14400E+06         0.00000E+00
    0.14400E+06        -0.67567E+08         0.00000E+00
    0.00000E+00         0.00000E+00        -0.28924E+08
 
   -0.28870E+08         0.14736E+06         0.00000E+00
    0.14736E+06        -0.67627E+08         0.00000E+00
    0.00000E+00         0.00000E+00        -0.28949E+08
 
   -0.28895E+08         0.15072E+06         0.00000E+00
    0.15072E+06        -0.67689E+08         0.00000E+00
    0.00000E+00         0.00000E+00        -0.28975E+08
 
   -0.28921E+08         0.15407E+06         0.00000E+00
    0.15407E+06        -0.67752E+08         0.00000E+00
    0.00000E+00         0.00000E+00        -0.29002E+08
 
   -0.28948E+08         0.15742E+06         0.00000E+00
    0.15742E+06        -0.67816E+08         0.00000E+00
    0.00000E+00         0.00000E+00        -0.29029E+08
 
   -0.28975E+08         0.16078E+06         0.00000E+00
    0.16078E+06        -0.67881E+08         0.00000E+00
    0.00000E+00         0.00000E+00        -0.29057E+08
 
   -0.29002E+08         0.16415E+06         0.00000E+00
    0.16415E+06        -0.67948E+08         0.00000E+00
    0.00000E+00         0.00000E+00        -0.29085E+08
 
   -0.29030E+08         0.16752E+06         0.00000E+00
    0.16752E+06        -0.68016E+08         0.00000E+00
    0.00000E+00         0.00000E+00        -0.29114E+08
 
   -0.29059E+08         0.17090E+06         0.00000E+00
    0.17090E+06        -0.68086E+08         0.00000E+00
    0.00000E+00         0.00000E+00        -0.29144E+08
 
   -0.29089E+08         0.17428E+06         0.00000E+00
    0.17428E+06        -0.68157E+08         0.00000E+00
    0.00000E+00         0.00000E+00        -0.29174E+08
 
   -0.29119E+08         0.17767E+06         0.00000E+00
    0.17767E+06        -0.68230E+08         0.00000E+00
    0.00000E+00         0.00000E+00        -0.29205E+08
 
   -0.29150E+08         0.18107E+06         0.00000E+00
    0.18107E+06        -0.68304E+08         0.00000E+00
    0.00000E+00         0.00000E+00        -0.29236E+08
 
   -0.29182E+08         0.18447E+06         0.00000E+00
    0.18447E+06        -0.68380E+08         0.00000E+00
    0.00000E+00         0.00000E+00        -0.29269E+08
 
   -0.29214E+08         0.18786E+06         0.00000E+00
    0.18786E+06        -0.68458E+08         0.00000E+00
    0.00000E+00         0.00000E+00        -0.29302E+08
 
   -0.29248E+08         0.19126E+06         0.00000E+00
    0.19126E+06        -0.68537E+08         0.00000E+00
    0.00000E+00         0.00000E+00        -0.29335E+08
 
   -0.29282E+08         0.19465E+06         0.00000E+00
    0.19465E+06        -0.68618E+08         0.00000E+00
    0.00000E+00         0.00000E+00        -0.29370E+08
 
   -0.29317E+08         0.19803E+06         0.00000E+00
    0.19803E+06        -0.68701E+08         0.00000E+00
    0.00000E+00         0.00000E+00        -0.29405E+08
 
   -0.29353E+08         0.20139E+06         0.00000E+00
    0.20139E+06        -0.68785E+08         0.00000E+00
    0.00000E+00         0.00000E+00        -0.29441E+08
 
   -0.29390E+08         0.20473E+06         0.00000E+00
    0.20473E+06        -0.68871E+08         0.00000E+00
    0.00000E+00         0.00000E+00        -0.29478E+08
 
   -0.29428E+08         0.20805E+06         0.00000E+00
    0.20805E+06        -0.68959E+08         0.00000E+00
    0.00000E+00         0.00000E+00        -0.29516E+08
 
   -0.29466E+08         0.21134E+06         0.00000E+00
    0.21134E+06        -0.69049E+08         0.00000E+00
    0.00000E+00         0.00000E+00        -0.29555E+08
 
   -0.29506E+08         0.21458E+06         0.00000E+00
    0.21458E+06        -0.69141E+08         0.00000E+00
    0.00000E+00         0.00000E+00        -0.29594E+08
 
   -0.29547E+08         0.21778E+06         0.00000E+00
    0.21778E+06        -0.69235E+08         0.00000E+00
    0.00000E+00         0.00000E+00        -0.29635E+08
 
   -0.29589E+08         0.22093E+06         0.00000E+00
    0.22093E+06        -0.69331E+08         0.00000E+00
    0.00000E+00         0.00000E+00        -0.29676E+08
 
   -0.29632E+08         0.22401E+06         0.00000E+00
    0.22401E+06        -0.69428E+08         0.00000E+00
    0.00000E+00         0.00000E+00        -0.29718E+08
 
   -0.29676E+08         0.22702E+06         0.00000E+00
    0.22702E+06        -0.69528E+08         0.00000E+00
    0.00000E+00         0.00000E+00        -0.29761E+08
 
   -0.29722E+08         0.22994E+06         0.00000E+00
    0.22994E+06        -0.69629E+08         0.00000E+00
    0.00000E+00         0.00000E+00        -0.29805E+08
 
   -0.29768E+08         0.23277E+06         0.00000E+00
    0.23277E+06        -0.69733E+08         0.00000E+00
    0.00000E+00         0.00000E+00        -0.29850E+08
 
   -0.29816E+08         0.23549E+06         0.00000E+00
    0.23549E+06        -0.69838E+08         0.00000E+00
    0.00000E+00         0.00000E+00        -0.29896E+08
 
   -0.29865E+08         0.23809E+06         0.00000E+00
    0.23809E+06        -0.69946E+08         0.00000E+00
    0.00000E+00         0.00000E+00        -0.29943E+08
 
   -0.29915E+08         0.24055E+06         0.00000E+00
    0.24055E+06        -0.70055E+08         0.00000E+00
    0.00000E+00         0.00000E+00        -0.29991E+08
 
   -0.29967E+08         0.24286E+06         0.00000E+00
    0.24286E+06        -0.70167E+08         0.00000E+00
    0.00000E+00         0.00000E+00        -0.30040E+08
 
   -0.30020E+08         0.24501E+06         0.00000E+00
    0.24501E+06        -0.70280E+08         0.00000E+00
    0.00000E+00         0.00000E+00        -0.30090E+08
 
   -0.30075E+08         0.24696E+06         0.00000E+00
    0.24696E+06        -0.70396E+08         0.00000E+00
    0.00000E+00         0.00000E+00        -0.30141E+08
 
   -0.30130E+08         0.24872E+06         0.00000E+00
    0.24872E+06        -0.70513E+08         0.00000E+00
    0.00000E+00         0.00000E+00        -0.30193E+08
 
   -0.30188E+08         0.25024E+06         0.00000E+00
    0.25024E+06        -0.70633E+08         0.00000E+00
    0.00000E+00         0.00000E+00        -0.30246E+08
 
   -0.30247E+08         0.25152E+06         0.00000E+00
    0.25152E+06        -0.70755E+08         0.00000E+00
    0.00000E+00         0.00000E+00        -0.30300E+08
 
   -0.30307E+08         0.25252E+06         0.00000E+00
    0.25252E+06        -0.70878E+08         0.00000E+00
    0.00000E+00         0.00000E+00        -0.30356E+08
 
   -0.30369E+08         0.25322E+06         0.00000E+00
    0.25322E+06        -0.71004E+08         0.00000E+00
    0.00000E+00         0.00000E+00        -0.30412E+08
 
   -0.30433E+08         0.25358E+06         0.00000E+00
    0.25358E+06        -0.71132E+08         0.00000E+00
    0.00000E+00         0.00000E+00        -0.30469E+08
 
   -0.30498E+08         0.25358E+06         0.00000E+00
    0.25358E+06        -0.71262E+08         0.00000E+00
    0.00000E+00         0.00000E+00        -0.30528E+08
 
   -0.30566E+08         0.25316E+06         0.00000E+00
    0.25316E+06        -0.71393E+08         0.00000E+00
    0.00000E+00         0.00000E+00        -0.30588E+08
 
   -0.30635E+08         0.25230E+06         0.00000E+00
    0.25230E+06        -0.71527E+08         0.00000E+00
    0.00000E+00         0.00000E+00        -0.30649E+08
 
   -0.30706E+08         0.25094E+06         0.00000E+00
    0.25094E+06        -0.71663E+08         0.00000E+00
    0.00000E+00         0.00000E+00        -0.30711E+08
 
   -0.30779E+08         0.24903E+06         0.00000E+00
    0.24903E+06        -0.71800E+08         0.00000E+00
    0.00000E+00         0.00000E+00        -0.30774E+08
 
   -0.30854E+08         0.24651E+06         0.00000E+00
    0.24651E+06        -0.71940E+08         0.00000E+00
    0.00000E+00         0.00000E+00        -0.30838E+08
 
   -0.30931E+08         0.24331E+06         0.00000E+00
    0.24331E+06        -0.72081E+08         0.00000E+00
    0.00000E+00         0.00000E+00        -0.30904E+08
 
   -0.31011E+08         0.23935E+06         0.00000E+00
    0.23935E+06        -0.72225E+08         0.00000E+00
    0.00000E+00         0.00000E+00        -0.30971E+08
 
   -0.31092E+08         0.23454E+06         0.00000E+00
    0.23454E+06        -0.72370E+08         0.00000E+00
    0.00000E+00         0.00000E+00        -0.31039E+08
 
   -0.31177E+08         0.22880E+06         0.00000E+00
    0.22880E+06        -0.72517E+08         0.00000E+00
    0.00000E+00         0.00000E+00        -0.31108E+08
 
   -0.31264E+08         0.22201E+06         0.00000E+00
    0.22201E+06        -0.72666E+08         0.00000E+00
    0.00000E+00         0.00000E+00        -0.31179E+08
 
   -0.31353E+08         0.21407E+06         0.00000E+00
    0.21407E+06        -0.72817E+08         0.00000E+00
    0.00000E+00         0.00000E+00        -0.31251E+08
 
   -0.31445E+08         0.20485E+06         0.00000E+00
    0.20485E+06        -0.72969E+08         0.00000E+00
    0.00000E+00         0.00000E+00        -0.31324E+08
 
   -0.31540E+08         0.19422E+06         0.00000E+00
    0.19422E+06        -0.73123E+08         0.00000E+00
    0.00000E+00         0.00000E+00        -0.31399E+08
 
   -0.31638E+08         0.18208E+06         0.00000E+00
    0.18208E+06        -0.73279E+08         0.00000E+00
    0.00000E+00         0.00000E+00        -0.31475E+08
 
   -0.31739E+08         0.16831E+06         0.00000E+00
    0.16831E+06        -0.73437E+08         0.00000E+00
    0.00000E+00         0.00000E+00        -0.31553E+08
 
   -0.31843E+08         0.15282E+06         0.00000E+00
    0.15282E+06        -0.73596E+08         0.00000E+00
    0.00000E+00         0.00000E+00        -0.31632E+08
 
   -0.31951E+08         0.13559E+06         0.00000E+00
    0.13559E+06        -0.73756E+08         0.00000E+00
    0.00000E+00         0.00000E+00        -0.31712E+08
 
   -0.32061E+08         0.11666E+06         0.00000E+00
    0.11666E+06        -0.73917E+08         0.00000E+00
    0.00000E+00         0.00000E+00        -0.31793E+08
 
   -0.32175E+08         0.96177E+05         0.00000E+00
    0.96177E+05        -0.74078E+08         0.00000E+00
    0.00000E+00         0.00000E+00        -0.31876E+08
 
   -0.32293E+08         0.74454E+05         0.00000E+00
    0.74454E+05        -0.74239E+08         0.00000E+00
    0.00000E+00         0.00000E+00        -0.31960E+08
 
   -0.32413E+08         0.52038E+05         0.00000E+00
    0.52038E+05        -0.74400E+08         0.00000E+00
    0.00000E+00         0.00000E+00        -0.32044E+08
 
   -0.32537E+08         0.29791E+05         0.00000E+00
    0.29791E+05        -0.74559E+08         0.00000E+00
    0.00000E+00         0.00000E+00        -0.32129E+08
 
   -0.32665E+08         0.89934E+04         0.00000E+00
    0.89934E+04        -0.74715E+08         0.00000E+00
    0.00000E+00         0.00000E+00        -0.32214E+08
 
   -0.32795E+08        -0.85716E+04         0.00000E+00
   -0.85716E+04        -0.74867E+08         0.00000E+00
    0.00000E+00         0.00000E+00        -0.32298E+08
 
   -0.32929E+08        -0.20651E+05         0.00000E+00
   -0.20651E+05        -0.75011E+08         0.00000E+00
    0.00000E+00         0.00000E+00        -0.32382E+08
 
   -0.33067E+08        -0.24937E+05         0.00000E+00
   -0.24937E+05        -0.75144E+08         0.00000E+00
    0.00000E+00         0.00000E+00        -0.32463E+08
 
   -0.33210E+08        -0.20181E+05         0.00000E+00
   -0.20181E+05        -0.75262E+08         0.00000E+00
    0.00000E+00         0.00000E+00        -0.32542E+08
 
   -0.33362E+08        -0.77510E+04         0.00000E+00
   -0.77510E+04        -0.75357E+08         0.00000E+00
    0.00000E+00         0.00000E+00        -0.32616E+08
 
   -0.28022E+08        -0.12016E+04         0.00000E+00
   -0.12016E+04        -0.66144E+08         0.00000E+00
    0.00000E+00         0.00000E+00        -0.28250E+08
 
   -0.28060E+08        -0.27779E+04         0.00000E+00
   -0.27779E+04        -0.66169E+08         0.00000E+00
    0.00000E+00         0.00000E+00        -0.28269E+08
 
   -0.28095E+08        -0.23043E+04         0.00000E+00
   -0.23043E+04        -0.66199E+08         0.00000E+00
    0.00000E+00         0.00000E+00        -0.28288E+08
 
   -0.28129E+08         0.53933E+03         0.00000E+00
    0.53933E+03        -0.66233E+08         0.00000E+00
    0.00000E+00         0.00000E+00        -0.28309E+08
 
   -0.28162E+08         0.53807E+04         0.00000E+00
    0.53807E+04        -0.66270E+08         0.00000E+00
    0.00000E+00         0.00000E+00        -0.28329E+08
 
   -0.28194E+08         0.11603E+05         0.00000E+00
    0.11603E+05        -0.66309E+08         0.00000E+00
    0.00000E+00         0.00000E+00        -0.28351E+08
 
   -0.28225E+08         0.18632E+05         0.00000E+00
    0.18632E+05        -0.66349E+08         0.00000E+00
    0.00000E+00         0.00000E+00        -0.28372E+08
 
   -0.28255E+08         0.26027E+05         0.00000E+00
    0.26027E+05        -0.66390E+08         0.00000E+00
    0.00000E+00         0.00000E+00        -0.28393E+08
 
   -0.28284E+08         0.33477E+05         0.00000E+00
    0.33477E+05        -0.66432E+08         0.00000E+00
    0.00000E+00         0.00000E+00        -0.28415E+08
 
   -0.28312E+08         0.40777E+05         0.00000E+00
    0.40777E+05        -0.66475E+08         0.00000E+00
    0.00000E+00         0.00000E+00        -0.28436E+08
 
   -0.28340E+08         0.47800E+05         0.00000E+00
    0.47800E+05        -0.66518E+08         0.00000E+00
    0.00000E+00         0.00000E+00        -0.28457E+08
 
   -0.28367E+08         0.54475E+05         0.00000E+00
    0.54475E+05        -0.66562E+08         0.00000E+00
    0.00000E+00         0.00000E+00        -0.28478E+08
 
   -0.28393E+08         0.60772E+05         0.00000E+00
    0.60772E+05        -0.66606E+08         0.00000E+00
    0.00000E+00         0.00000E+00        -0.28500E+08
 
   -0.28418E+08         0.66687E+05         0.00000E+00
    0.66687E+05        -0.66650E+08         0.00000E+00
    0.00000E+00         0.00000E+00        -0.28521E+08
 
   -0.28443E+08         0.72235E+05         0.00000E+00
    0.72235E+05        -0.66695E+08         0.00000E+00
    0.00000E+00         0.00000E+00        -0.28542E+08
 
   -0.28468E+08         0.77441E+05         0.00000E+00
    0.77441E+05        -0.66741E+08         0.00000E+00
    0.00000E+00         0.00000E+00        -0.28563E+08
 
   -0.28492E+08         0.82336E+05         0.00000E+00
    0.82336E+05        -0.66787E+08         0.00000E+00
    0.00000E+00         0.00000E+00        -0.28584E+08
 
   -0.28515E+08         0.86952E+05         0.00000E+00
    0.86952E+05        -0.66833E+08         0.00000E+00
    0.00000E+00         0.00000E+00        -0.28605E+08
 
   -0.28539E+08         0.91324E+05         0.00000E+00
    0.91324E+05        -0.66880E+08         0.00000E+00
    0.00000E+00         0.00000E+00        -0.28626E+08
 
   -0.28562E+08         0.95483E+05         0.00000E+00
    0.95483E+05        -0.66928E+08         0.00000E+00
    0.00000E+00         0.00000E+00        -0.28647E+08
 
   -0.28585E+08         0.99459E+05         0.00000E+00
    0.99459E+05        -0.66977E+08         0.00000E+00
    0.00000E+00         0.00000E+00        -0.28668E+08
 
   -0.28608E+08         0.10328E+06         0.00000E+00
    0.10328E+06        -0.67026E+08         0.00000E+00
    0.00000E+00         0.00000E+00        -0.28690E+08
 
   -0.28630E+08         0.10697E+06         0.00000E+00
    0.10697E+06        -0.67076E+08         0.00000E+00
    0.00000E+00         0.00000E+00        -0.28712E+08
 
   -0.28653E+08         0.11055E+06         0.00000E+00
    0.11055E+06        -0.67127E+08         0.00000E+00
    0.00000E+00         0.00000E+00        -0.28734E+08
 
   -0.28676E+08         0.11404E+06         0.00000E+00
    0.11404E+06        -0.67178E+08         0.00000E+00
    0.00000E+00         0.00000E+00        -0.28756E+08
 
   -0.28699E+08         0.11746E+06         0.00000E+00
    0.11746E+06        -0.67231E+08         0.00000E+00
    0.00000E+00         0.00000E+00        -0.28779E+08
 
   -0.28722E+08         0.12081E+06         0.00000E+00
    0.12081E+06        -0.67284E+08         0.00000E+00
    0.00000E+00         0.00000E+00        -0.28802E+08
 
   -0.28746E+08         0.12412E+06         0.00000E+00
    0.12412E+06        -0.67339E+08         0.00000E+00
    0.00000E+00         0.00000E+00        -0.28825E+08
 
   -0.28769E+08         0.12739E+06         0.00000E+00
    0.12739E+06        -0.67394E+08         0.00000E+00
    0.00000E+00         0.00000E+00        -0.28849E+08
 
   -0.28793E+08         0.13063E+06         0.00000E+00
    0.13063E+06        -0.67451E+08         0.00000E+00
    0.00000E+00         0.00000E+00        -0.28873E+08
 
   -0.28817E+08         0.13385E+06         0.00000E+00
    0.13385E+06        -0.67509E+08         0.00000E+00
    0.00000E+00         0.00000E+00        -0.28898E+08
 
   -0.28842E+08         0.13706E+06         0.00000E+00
    0.13706E+06        -0.67568E+08         0.00000E+00
    0.00000E+00         0.00000E+00        -0.28923E+08
 
   -0.28867E+08         0.14025E+06         0.00000E+00
    0.14025E+06        -0.67628E+08         0.00000E+00
    0.00000E+00         0.00000E+00        -0.28948E+08
 
   -0.28892E+08         0.14344E+06         0.00000E+00
    0.14344E+06        -0.67690E+08         0.00000E+00
    0.00000E+00         0.00000E+00        -0.28975E+08
 
   -0.28918E+08         0.14663E+06         0.00000E+00
    0.14663E+06        -0.67752E+08         0.00000E+00
    0.00000E+00         0.00000E+00        -0.29001E+08
 
   -0.28945E+08         0.14983E+06         0.00000E+00
    0.14983E+06        -0.67816E+08         0.00000E+00
    0.00000E+00         0.00000E+00        -0.29028E+08
 
   -0.28972E+08         0.15302E+06         0.00000E+00
    0.15302E+06        -0.67882E+08         0.00000E+00
    0.00000E+00         0.00000E+00        -0.29056E+08
 
   -0.28999E+08         0.15622E+06         0.00000E+00
    0.15622E+06        -0.67948E+08         0.00000E+00
    0.00000E+00         0.00000E+00        -0.29084E+08
 
   -0.29027E+08         0.15943E+06         0.00000E+00
    0.15943E+06        -0.68017E+08         0.00000E+00
    0.00000E+00         0.00000E+00        -0.29113E+08
 
   -0.29056E+08         0.16264E+06         0.00000E+00
    0.16264E+06        -0.68086E+08         0.00000E+00
    0.00000E+00         0.00000E+00        -0.29143E+08
 
   -0.29086E+08         0.16586E+06         0.00000E+00
    0.16586E+06        -0.68158E+08         0.00000E+00
    0.00000E+00         0.00000E+00        -0.29173E+08
 
   -0.29116E+08         0.16908E+06         0.00000E+00
    0.16908E+06        -0.68230E+08         0.00000E+00
    0.00000E+00         0.00000E+00        -0.29204E+08
 
   -0.29147E+08         0.17231E+06         0.00000E+00
    0.17231E+06        -0.68305E+08         0.00000E+00
    0.00000E+00         0.00000E+00        -0.29235E+08
 
   -0.29179E+08         0.17553E+06         0.00000E+00
    0.17553E+06        -0.68381E+08         0.00000E+00
    0.00000E+00         0.00000E+00        -0.29268E+08
 
   -0.29211E+08         0.17876E+06         0.00000E+00
    0.17876E+06        -0.68458E+08         0.00000E+00
    0.00000E+00         0.00000E+00        -0.29301E+08
 
   -0.29244E+08         0.18199E+06         0.00000E+00
    0.18199E+06        -0.68538E+08         0.00000E+00
    0.00000E+00         0.00000E+00        -0.29335E+08
 
   -0.29279E+08         0.18521E+06         0.00000E+00
    0.18521E+06        -0.68619E+08         0.00000E+00
    0.00000E+00         0.00000E+00        -0.29369E+08
 
   -0.29314E+08         0.18841E+06         0.00000E+00
    0.18841E+06        -0.68701E+08         0.00000E+00
    0.00000E+00         0.00000E+00        -0.29404E+08
 
   -0.29349E+08         0.19161E+06         0.00000E+00
    0.19161E+06        -0.68786E+08         0.00000E+00
    0.00000E+00         0.00000E+00        -0.29441E+08
 
   -0.29386E+08         0.19478E+06         0.00000E+00
    0.19478E+06        -0.68872E+08         0.00000E+00
    0.00000E+00         0.00000E+00        -0.29478E+08
 
   -0.29424E+08         0.19793E+06         0.00000E+00
    0.19793E+06        -0.68960E+08         0.00000E+00
    0.00000E+00         0.00000E+00        -0.29515E+08
 
   -0.29463E+08         0.20105E+06         0.00000E+00
    0.20105E+06        -0.69050E+08         0.00000E+00
    0.00000E+00         0.00000E+00        -0.29554E+08
 
   -0.29503E+08         0.20413E+06         0.00000E+00
    0.20413E+06        -0.69142E+08         0.00000E+00
    0.00000E+00         0.00000E+00        -0.29593E+08
 
   -0.29544E+08         0.20716E+06         0.00000E+00
    0.20716E+06        -0.69236E+08         0.00000E+00
    0.00000E+00         0.00000E+00        -0.29634E+08
 
   -0.29586E+08         0.21014E+06         0.00000E+00
    0.21014E+06        -0.69331E+08         0.00000E+00
    0.00000E+00         0.00000E+00        -0.29675E+08
 
   -0.29629E+08         0.21306E+06         0.00000E+00
    0.21306E+06        -0.69429E+08         0.00000E+00
    0.00000E+00         0.00000E+00        -0.29717E+08
 
   -0.29673E+08         0.21591E+06         0.00000E+00
    0.21591E+06        -0.69528E+08         0.00000E+00
    0.00000E+00         0.00000E+00        -0.29760E+08
 
   -0.29719E+08         0.21868E+06         0.00000E+00
    0.21868E+06        -0.69630E+08         0.00000E+00
    0.00000E+00         0.00000E+00        -0.29804E+08
 
   -0.29765E+08         0.22136E+06         0.00000E+00
    0.22136E+06        -0.69733E+08         0.00000E+00
    0.00000E+00         0.00000E+00        -0.29849E+08
 
   -0.29813E+08         0.22393E+06         0.00000E+00
    0.22393E+06        -0.69839E+08         0.00000E+00
    0.00000E+00         0.00000E+00        -0.29895E+08
 
   -0.29862E+08         0.22639E+06         0.00000E+00
    0.22639E+06        -0.69946E+08         0.00000E+00
    0.00000E+00         0.00000E+00        -0.29942E+08
 
   -0.29912E+08         0.22872E+06         0.00000E+00
    0.22872E+06        -0.70055E+08         0.00000E+00
    0.00000E+00         0.00000E+00        -0.29990E+08
 
   -0.29964E+08         0.23090E+06         0.00000E+00
    0.23090E+06        -0.70167E+08         0.00000E+00
    0.00000E+00         0.00000E+00        -0.30039E+08
 
   -0.30017E+08         0.23292E+06         0.00000E+00
    0.23292E+06        -0.70281E+08         0.00000E+00
    0.00000E+00         0.00000E+00        -0.30089E+08
 
   -0.30072E+08         0.23477E+06         0.00000E+00
    0.23477E+06        -0.70396E+08         0.00000E+00
    0.00000E+00         0.00000E+00        -0.30140E+08
 
   -0.30128E+08         0.23642E+06         0.00000E+00
    0.23642E+06        -0.70514E+08         0.00000E+00
    0.00000E+00         0.00000E+00        -0.30192E+08
 
   -0.30185E+08         0.23785E+06         0.00000E+00
    0.23785E+06        -0.70633E+08         0.00000E+00
    0.00000E+00         0.00000E+00        -0.30246E+08
 
   -0.30244E+08         0.23904E+06         0.00000E+00
    0.23904E+06        -0.70755E+08         0.00000E+00
    0.00000E+00         0.00000E+00        -0.30300E+08
 
   -0.30305E+08         0.23997E+06         0.00000E+00
    0.23997E+06        -0.70879E+08         0.00000E+00
    0.00000E+00         0.00000E+00        -0.30355E+08
 
   -0.30367E+08         0.24061E+06         0.00000E+00
    0.24061E+06        -0.71004E+08         0.00000E+00
    0.00000E+00         0.00000E+00        -0.30411E+08
 
   -0.30431E+08         0.24093E+06         0.00000E+00
    0.24093E+06        -0.71132E+08         0.00000E+00
    0.00000E+00         0.00000E+00        -0.30469E+08
 
   -0.30497E+08         0.24089E+06         0.00000E+00
    0.24089E+06        -0.71262E+08         0.00000E+00
    0.00000E+00         0.00000E+00        -0.30527E+08
 
   -0.30564E+08         0.24047E+06         0.00000E+00
    0.24047E+06        -0.71393E+08         0.00000E+00
    0.00000E+00         0.00000E+00        -0.30587E+08
 
   -0.30633E+08         0.23961E+06         0.00000E+00
    0.23961E+06        -0.71527E+08         0.00000E+00
    0.00000E+00         0.00000E+00        -0.30648E+08
 
   -0.30705E+08         0.23828E+06         0.00000E+00
    0.23828E+06        -0.71662E+08         0.00000E+00
    0.00000E+00         0.00000E+00        -0.30710E+08
 
   -0.30778E+08         0.23642E+06         0.00000E+00
    0.23642E+06        -0.71800E+08         0.00000E+00
    0.00000E+00         0.00000E+00        -0.30773E+08
 
   -0.30853E+08         0.23397E+06         0.00000E+00
    0.23397E+06        -0.71939E+08         0.00000E+00
    0.00000E+00         0.00000E+00        -0.30838E+08
 
   -0.30931E+08         0.23087E+06         0.00000E+00
    0.23087E+06        -0.72081E+08         0.00000E+00
    0.00000E+00         0.00000E+00        -0.30903E+08
 
   -0.31011E+08         0.22704E+06         0.00000E+00
    0.22704E+06        -0.72224E+08         0.00000E+00
    0.00000E+00         0.00000E+00        -0.30970E+08
 
   -0.31093E+08         0.22239E+06         0.00000E+00
    0.22239E+06        -0.72369E+08         0.00000E+00
    0.00000E+00         0.00000E+00        -0.31039E+08
 
   -0.31178E+08         0.21684E+06         0.00000E+00
    0.21684E+06        -0.72516E+08         0.00000E+00
    0.00000E+00         0.00000E+00        -0.31108E+08
 
   -0.31265E+08         0.21027E+06         0.00000E+00
    0.21027E+06        -0.72664E+08         0.00000E+00
    0.00000E+00         0.00000E+00        -0.31179E+08
 
   -0.31355E+08         0.20258E+06         0.00000E+00
    0.20258E+06        -0.72815E+08         0.00000E+00
    0.00000E+00         0.00000E+00        -0.31251E+08
 
   -0.31448E+08         0.19365E+06         0.00000E+00
    0.19365E+06        -0.72967E+08         0.00000E+00
    0.00000E+00         0.00000E+00        -0.31325E+08
 
   -0.31544E+08         0.18334E+06         0.00000E+00
    0.18334E+06        -0.73121E+08         0.00000E+00
    0.00000E+00         0.00000E+00        -0.31400E+08
 
   -0.31643E+08         0.17155E+06         0.00000E+00
    0.17155E+06        -0.73277E+08         0.00000E+00
    0.00000E+00         0.00000E+00        -0.31476E+08
 
   -0.31745E+08         0.15817E+06         0.00000E+00
    0.15817E+06        -0.73434E+08         0.00000E+00
    0.00000E+00         0.00000E+00        -0.31554E+08
 
   -0.31851E+08         0.14311E+06         0.00000E+00
    0.14311E+06        -0.73592E+08         0.00000E+00
    0.00000E+00         0.00000E+00        -0.31633E+08
 
   -0.31959E+08         0.12634E+06         0.00000E+00
    0.12634E+06        -0.73752E+08         0.00000E+00
    0.00000E+00         0.00000E+00        -0.31713E+08
 
   -0.32071E+08         0.10789E+06         0.00000E+00
    0.10789E+06        -0.73913E+08         0.00000E+00
    0.00000E+00         0.00000E+00        -0.31795E+08
 
   -0.32187E+08         0.87912E+05         0.00000E+00
    0.87912E+05        -0.74074E+08         0.00000E+00
    0.00000E+00         0.00000E+00        -0.31878E+08
 
   -0.32306E+08         0.66717E+05         0.00000E+00
    0.66717E+05        -0.74235E+08         0.00000E+00
    0.00000E+00         0.00000E+00        -0.31962E+08
 
   -0.32429E+08         0.44841E+05         0.00000E+00
    0.44841E+05        -0.74396E+08         0.00000E+00
    0.00000E+00         0.00000E+00        -0.32047E+08
 
   -0.32555E+08         0.23136E+05         0.00000E+00
    0.23136E+05        -0.74555E+08         0.00000E+00
    0.00000E+00         0.00000E+00        -0.32133E+08
 
   -0.32685E+08         0.28714E+04         0.00000E+00
    0.28714E+04        -0.74711E+08         0.00000E+00
    0.00000E+00         0.00000E+00        -0.32219E+08
 
   -0.32817E+08        -0.14163E+05         0.00000E+00
   -0.14163E+05        -0.74864E+08         0.00000E+00
    0.00000E+00         0.00000E+00        -0.32304E+08
 
   -0.32953E+08        -0.25653E+05         0.00000E+00
   -0.25653E+05        -0.75009E+08         0.00000E+00
    0.00000E+00         0.00000E+00        -0.32389E+08
 
   -0.33092E+08        -0.29122E+05         0.00000E+00
   -0.29122E+05        -0.75145E+08         0.00000E+00
    0.00000E+00         0.00000E+00        -0.32471E+08
 
   -0.33236E+08        -0.23078E+05         0.00000E+00
   -0.23078E+05        -0.75264E+08         0.00000E+00
    0.00000E+00         0.00000E+00        -0.32550E+08
 
   -0.33388E+08        -0.88033E+04         0.00000E+00
   -0.88033E+04        -0.75361E+08         0.00000E+00
    0.00000E+00         0.00000E+00        -0.32625E+08
 
   -0.28014E+08        -0.15021E+04         0.00000E+00
   -0.15021E+04        -0.66144E+08         0.00000E+00
    0.00000E+00         0.00000E+00        -0.28247E+08
 
   -0.28052E+08        -0.36052E+04         0.00000E+00
   -0.36052E+04        -0.66168E+08         0.00000E+00
    0.00000E+00         0.00000E+00        -0.28266E+08
 
   -0.28088E+08        -0.35052E+04         0.00000E+00
   -0.35052E+04        -0.66199E+08         0.00000E+00
    0.00000E+00         0.00000E+00        -0.28286E+08
 
   -0.28122E+08        -0.91678E+03         0.00000E+00
   -0.91678E+03        -0.66234E+08         0.00000E+00
    0.00000E+00         0.00000E+00        -0.28307E+08
 
   -0.28155E+08         0.37153E+04         0.00000E+00
    0.37153E+04        -0.66271E+08         0.00000E+00
    0.00000E+00         0.00000E+00        -0.28328E+08
 
   -0.28187E+08         0.97290E+04         0.00000E+00
    0.97290E+04        -0.66310E+08         0.00000E+00
    0.00000E+00         0.00000E+00        -0.28349E+08
 
   -0.28219E+08         0.16538E+05         0.00000E+00
    0.16538E+05        -0.66350E+08         0.00000E+00
    0.00000E+00         0.00000E+00        -0.28371E+08
 
   -0.28249E+08         0.23702E+05         0.00000E+00
    0.23702E+05        -0.66392E+08         0.00000E+00
    0.00000E+00         0.00000E+00        -0.28392E+08
 
   -0.28279E+08         0.30916E+05         0.00000E+00
    0.30916E+05        -0.66434E+08         0.00000E+00
    0.00000E+00         0.00000E+00        -0.28414E+08
 
   -0.28308E+08         0.37979E+05         0.00000E+00
    0.37979E+05        -0.66476E+08         0.00000E+00
    0.00000E+00         0.00000E+00        -0.28435E+08
 
   -0.28336E+08         0.44766E+05         0.00000E+00
    0.44766E+05        -0.66519E+08         0.00000E+00
    0.00000E+00         0.00000E+00        -0.28457E+08
 
   -0.28363E+08         0.51209E+05         0.00000E+00
    0.51209E+05        -0.66563E+08         0.00000E+00
    0.00000E+00         0.00000E+00        -0.28478E+08
 
   -0.28389E+08         0.57279E+05         0.00000E+00
    0.57279E+05        -0.66607E+08         0.00000E+00
    0.00000E+00         0.00000E+00        -0.28499E+08
 
   -0.28415E+08         0.62973E+05         0.00000E+00
    0.62973E+05        -0.66651E+08         0.00000E+00
    0.00000E+00         0.00000E+00        -0.28520E+08
 
   -0.28440E+08         0.68306E+05         0.00000E+00
    0.68306E+05        -0.66696E+08         0.00000E+00
    0.00000E+00         0.00000E+00        -0.28541E+08
 
   -0.28465E+08         0.73302E+05         0.00000E+00
    0.73302E+05        -0.66742E+08         0.00000E+00
    0.00000E+00         0.00000E+00        -0.28562E+08
 
   -0.28489E+08         0.77992E+05         0.00000E+00
    0.77992E+05        -0.66788E+08         0.00000E+00
    0.00000E+00         0.00000E+00        -0.28583E+08
 
   -0.28513E+08         0.82410E+05         0.00000E+00
    0.82410E+05        -0.66834E+08         0.00000E+00
    0.00000E+00         0.00000E+00        -0.28604E+08
 
   -0.28536E+08         0.86588E+05         0.00000E+00
    0.86588E+05        -0.66881E+08         0.00000E+00
    0.00000E+00         0.00000E+00        -0.28625E+08
 
   -0.28559E+08         0.90559E+05         0.00000E+00
    0.90559E+05        -0.66929E+08         0.00000E+00
    0.00000E+00         0.00000E+00        -0.28646E+08
 
   -0.28582E+08         0.94352E+05         0.00000E+00
    0.94352E+05        -0.66977E+08         0.00000E+00
    0.00000E+00         0.00000E+00        -0.28668E+08
 
   -0.28605E+08         0.97994E+05         0.00000E+00
    0.97994E+05        -0.67027E+08         0.00000E+00
    0.00000E+00         0.00000E+00        -0.28689E+08
 
   -0.28628E+08         0.10151E+06         0.00000E+00
    0.10151E+06        -0.67077E+08         0.00000E+00
    0.00000E+00         0.00000E+00        -0.28711E+08
 
   -0.28651E+08         0.10491E+06         0.00000E+00
    0.10491E+06        -0.67127E+08         0.00000E+00
    0.00000E+00         0.00000E+00        -0.28733E+08
 
   -0.28674E+08         0.10823E+06         0.00000E+00
    0.10823E+06        -0.67179E+08         0.00000E+00
    0.00000E+00         0.00000E+00        -0.28756E+08
 
   -0.28697E+08         0.11148E+06         0.00000E+00
    0.11148E+06        -0.67232E+08         0.00000E+00
    0.00000E+00         0.00000E+00        -0.28778E+08
 
   -0.28720E+08         0.11467E+06         0.00000E+00
    0.11467E+06        -0.67285E+08         0.00000E+00
    0.00000E+00         0.00000E+00        -0.28801E+08
 
   -0.28743E+08         0.11781E+06         0.00000E+00
    0.11781E+06        -0.67340E+08         0.00000E+00
    0.00000E+00         0.00000E+00        -0.28825E+08
 
   -0.28767E+08         0.12092E+06         0.00000E+00
    0.12092E+06        -0.67395E+08         0.00000E+00
    0.00000E+00         0.00000E+00        -0.28848E+08
 
   -0.28790E+08         0.12400E+06         0.00000E+00
    0.12400E+06        -0.67452E+08         0.00000E+00
    0.00000E+00         0.00000E+00        -0.28873E+08
 
   -0.28815E+08         0.12706E+06         0.00000E+00
    0.12706E+06        -0.67510E+08         0.00000E+00
    0.00000E+00         0.00000E+00        -0.28897E+08
 
   -0.28839E+08         0.13010E+06         0.00000E+00
    0.13010E+06        -0.67569E+08         0.00000E+00
    0.00000E+00         0.00000E+00        -0.28922E+08
 
   -0.28864E+08         0.13313E+06         0.00000E+00
    0.13313E+06        -0.67629E+08         0.00000E+00
    0.00000E+00         0.00000E+00        -0.28948E+08
 
   -0.28889E+08         0.13616E+06         0.00000E+00
    0.13616E+06        -0.67690E+08         0.00000E+00
    0.00000E+00         0.00000E+00        -0.28974E+08
 
   -0.28915E+08         0.13919E+06         0.00000E+00
    0.13919E+06        -0.67753E+08         0.00000E+00
    0.00000E+00         0.00000E+00        -0.29000E+08
 
   -0.28942E+08         0.14222E+06         0.00000E+00
    0.14222E+06        -0.67817E+08         0.00000E+00
    0.00000E+00         0.00000E+00        -0.29028E+08
 
   -0.28969E+08         0.14525E+06         0.00000E+00
    0.14525E+06        -0.67882E+08         0.00000E+00
    0.00000E+00         0.00000E+00        -0.29055E+08
 
   -0.28996E+08         0.14829E+06         0.00000E+00
    0.14829E+06        -0.67949E+08         0.00000E+00
    0.00000E+00         0.00000E+00        -0.29084E+08
 
   -0.29024E+08         0.15133E+06         0.00000E+00
    0.15133E+06        -0.68017E+08         0.00000E+00
    0.00000E+00         0.00000E+00        -0.29113E+08
 
   -0.29053E+08         0.15437E+06         0.00000E+00
    0.15437E+06        -0.68087E+08         0.00000E+00
    0.00000E+00         0.00000E+00        -0.29142E+08
 
   -0.29083E+08         0.15742E+06         0.00000E+00
    0.15742E+06        -0.68158E+08         0.00000E+00
    0.00000E+00         0.00000E+00        -0.29172E+08
 
   -0.29113E+08         0.16048E+06         0.00000E+00
    0.16048E+06        -0.68231E+08         0.00000E+00
    0.00000E+00         0.00000E+00        -0.29203E+08
 
   -0.29144E+08         0.16354E+06         0.00000E+00
    0.16354E+06        -0.68305E+08         0.00000E+00
    0.00000E+00         0.00000E+00        -0.29235E+08
 
   -0.29175E+08         0.16660E+06         0.00000E+00
    0.16660E+06        -0.68381E+08         0.00000E+00
    0.00000E+00         0.00000E+00        -0.29267E+08
 
   -0.29208E+08         0.16966E+06         0.00000E+00
    0.16966E+06        -0.68459E+08         0.00000E+00
    0.00000E+00         0.00000E+00        -0.29300E+08
 
   -0.29241E+08         0.17271E+06         0.00000E+00
    0.17271E+06        -0.68538E+08         0.00000E+00
    0.00000E+00         0.00000E+00        -0.29334E+08
 
   -0.29275E+08         0.17576E+06         0.00000E+00
    0.17576E+06        -0.68619E+08         0.00000E+00
    0.00000E+00         0.00000E+00        -0.29368E+08
 
   -0.29310E+08         0.17880E+06         0.00000E+00
    0.17880E+06        -0.68702E+08         0.00000E+00
    0.00000E+00         0.00000E+00        -0.29404E+08
 
   -0.29346E+08         0.18182E+06         0.00000E+00
    0.18182E+06        -0.68786E+08         0.00000E+00
    0.00000E+00         0.00000E+00        -0.29440E+08
 
   -0.29383E+08         0.18483E+06         0.00000E+00
    0.18483E+06        -0.68873E+08         0.00000E+00
    0.00000E+00         0.00000E+00        -0.29477E+08
 
   -0.29421E+08         0.18781E+06         0.00000E+00
    0.18781E+06        -0.68961E+08         0.00000E+00
    0.00000E+00         0.00000E+00        -0.29514E+08
 
   -0.29460E+08         0.19076E+06         0.00000E+00
    0.19076E+06        -0.69051E+08         0.00000E+00
    0.00000E+00         0.00000E+00        -0.29553E+08
 
   -0.29500E+08         0.19367E+06         0.00000E+00
    0.19367E+06        -0.69142E+08         0.00000E+00
    0.00000E+00         0.00000E+00        -0.29593E+08
 
   -0.29540E+08         0.19654E+06         0.00000E+00
    0.19654E+06        -0.69236E+08         0.00000E+00
    0.00000E+00         0.00000E+00        -0.29633E+08
 
   -0.29582E+08         0.19936E+06         0.00000E+00
    0.19936E+06        -0.69332E+08         0.00000E+00
    0.00000E+00         0.00000E+00        -0.29674E+08
 
   -0.29626E+08         0.20212E+06         0.00000E+00
    0.20212E+06        -0.69429E+08         0.00000E+00
    0.00000E+00         0.00000E+00        -0.29716E+08
 
   -0.29670E+08         0.20481E+06         0.00000E+00
    0.20481E+06        -0.69529E+08         0.00000E+00
    0.00000E+00         0.00000E+00        -0.29760E+08
 
   -0.29715E+08         0.20743E+06         0.00000E+00
    0.20743E+06        -0.69630E+08         0.00000E+00
    0.00000E+00         0.00000E+00        -0.29804E+08
 
   -0.29762E+08         0.20996E+06         0.00000E+00
    0.20996E+06        -0.69734E+08         0.00000E+00
    0.00000E+00         0.00000E+00        -0.29849E+08
 
   -0.29810E+08         0.21239E+06         0.00000E+00
    0.21239E+06        -0.69839E+08         0.00000E+00
    0.00000E+00         0.00000E+00        -0.29895E+08
 
   -0.29859E+08         0.21470E+06         0.00000E+00
    0.21470E+06        -0.69946E+08         0.00000E+00
    0.00000E+00         0.00000E+00        -0.29942E+08
 
   -0.29909E+08         0.21690E+06         0.00000E+00
    0.21690E+06        -0.70056E+08         0.00000E+00
    0.00000E+00         0.00000E+00        -0.29990E+08
 
   -0.29961E+08         0.21895E+06         0.00000E+00
    0.21895E+06        -0.70167E+08         0.00000E+00
    0.00000E+00         0.00000E+00        -0.30039E+08
 
   -0.30014E+08         0.22086E+06         0.00000E+00
    0.22086E+06        -0.70281E+08         0.00000E+00
    0.00000E+00         0.00000E+00        -0.30089E+08
 
   -0.30069E+08         0.22259E+06         0.00000E+00
    0.22259E+06        -0.70396E+08         0.00000E+00
    0.00000E+00         0.00000E+00        -0.30140E+08
 
   -0.30125E+08         0.22414E+06         0.00000E+00
    0.22414E+06        -0.70514E+08         0.00000E+00
    0.00000E+00         0.00000E+00        -0.30192E+08
 
   -0.30183E+08         0.22547E+06         0.00000E+00
    0.22547E+06        -0.70633E+08         0.00000E+00
    0.00000E+00         0.00000E+00        -0.30245E+08
 
   -0.30242E+08         0.22659E+06         0.00000E+00
    0.22659E+06        -0.70755E+08         0.00000E+00
    0.00000E+00         0.00000E+00        -0.30299E+08
 
   -0.30302E+08         0.22744E+06         0.00000E+00
    0.22744E+06        -0.70879E+08         0.00000E+00
    0.00000E+00         0.00000E+00        -0.30354E+08
 
   -0.30365E+08         0.22803E+06         0.00000E+00
    0.22803E+06        -0.71004E+08         0.00000E+00
    0.00000E+00         0.00000E+00        -0.30411E+08
 
   -0.30429E+08         0.22831E+06         0.00000E+00
    0.22831E+06        -0.71132E+08         0.00000E+00
    0.00000E+00         0.00000E+00        -0.30468E+08
 
   -0.30495E+08         0.22825E+06         0.00000E+00
    0.22825E+06        -0.71262E+08         0.00000E+00
    0.00000E+00         0.00000E+00        -0.30527E+08
 
   -0.30563E+08         0.22782E+06         0.00000E+00
    0.22782E+06        -0.71393E+08         0.00000E+00
    0.00000E+00         0.00000E+00        -0.30587E+08
 
   -0.30632E+08         0.22697E+06         0.00000E+00
    0.22697E+06        -0.71527E+08         0.00000E+00
    0.00000E+00         0.00000E+00        -0.30648E+08
 
   -0.30704E+08         0.22568E+06         0.00000E+00
    0.22568E+06        -0.71662E+08         0.00000E+00
    0.00000E+00         0.00000E+00        -0.30710E+08
 
   -0.30777E+08         0.22387E+06         0.00000E+00
    0.22387E+06        -0.71799E+08         0.00000E+00
    0.00000E+00         0.00000E+00        -0.30773E+08
 
   -0.30853E+08         0.22151E+06         0.00000E+00
    0.22151E+06        -0.71939E+08         0.00000E+00
    0.00000E+00         0.00000E+00        -0.30838E+08
 
   -0.30931E+08         0.21851E+06         0.00000E+00
    0.21851E+06        -0.72080E+08         0.00000E+00
    0.00000E+00         0.00000E+00        -0.30903E+08
 
   -0.31011E+08         0.21482E+06         0.00000E+00
    0.21482E+06        -0.72223E+08         0.00000E+00
    0.00000E+00         0.00000E+00        -0.30970E+08
 
   -0.31094E+08         0.21034E+06         0.00000E+00
    0.21034E+06        -0.72368E+08         0.00000E+00
    0.00000E+00         0.00000E+00        -0.31039E+08
 
   -0.31179E+08         0.20498E+06         0.00000E+00
    0.20498E+06        -0.72515E+08         0.00000E+00
    0.00000E+00         0.00000E+00        -0.31108E+08
 
   -0.31267E+08         0.19865E+06         0.00000E+00
    0.19865E+06        -0.72663E+08         0.00000E+00
    0.00000E+00         0.00000E+00        -0.31179E+08
 
   -0.31358E+08         0.19122E+06         0.00000E+00
    0.19122E+06        -0.72813E+08         0.00000E+00
    0.00000E+00         0.00000E+00        -0.31251E+08
 
   -0.31451E+08         0.18259E+06         0.00000E+00
    0.18259E+06        -0.72965E+08         0.00000E+00
    0.00000E+00         0.00000E+00        -0.31325E+08
 
   -0.31548E+08         0.17263E+06         0.00000E+00
    0.17263E+06        -0.73119E+08         0.00000E+00
    0.00000E+00         0.00000E+00        -0.31400E+08
 
   -0.31648E+08         0.16122E+06         0.00000E+00
    0.16122E+06        -0.73274E+08         0.00000E+00
    0.00000E+00         0.00000E+00        -0.31477E+08
 
   -0.31751E+08         0.14826E+06         0.00000E+00
    0.14826E+06        -0.73431E+08         0.00000E+00
    0.00000E+00         0.00000E+00        -0.31555E+08
 
   -0.31857E+08         0.13365E+06         0.00000E+00
    0.13365E+06        -0.73589E+08         0.00000E+00
    0.00000E+00         0.00000E+00        -0.31634E+08
 
   -0.31968E+08         0.11737E+06         0.00000E+00
    0.11737E+06        -0.73749E+08         0.00000E+00
    0.00000E+00         0.00000E+00        -0.31715E+08
 
   -0.32081E+08         0.99439E+05         0.00000E+00
    0.99439E+05        -0.73909E+08         0.00000E+00
    0.00000E+00         0.00000E+00        -0.31797E+08
 
   -0.32199E+08         0.80010E+05         0.00000E+00
    0.80010E+05        -0.74070E+08         0.00000E+00
    0.00000E+00         0.00000E+00        -0.31881E+08
 
   -0.32320E+08         0.59382E+05         0.00000E+00
    0.59382E+05        -0.74231E+08         0.00000E+00
    0.00000E+00         0.00000E+00        -0.31965E+08
 
   -0.32445E+08         0.38078E+05         0.00000E+00
    0.38078E+05        -0.74391E+08         0.00000E+00
    0.00000E+00         0.00000E+00        -0.32051E+08
 
   -0.32573E+08         0.16933E+05         0.00000E+00
    0.16933E+05        -0.74550E+08         0.00000E+00
    0.00000E+00         0.00000E+00        -0.32137E+08
 
   -0.32705E+08        -0.28018E+04         0.00000E+00
   -0.28018E+04        -0.74707E+08         0.00000E+00
    0.00000E+00         0.00000E+00        -0.32224E+08
 
   -0.32839E+08        -0.19346E+05         0.00000E+00
   -0.19346E+05        -0.74861E+08         0.00000E+00
    0.00000E+00         0.00000E+00        -0.32310E+08
 
   -0.32977E+08        -0.30336E+05         0.00000E+00
   -0.30336E+05        -0.75008E+08         0.00000E+00
    0.00000E+00         0.00000E+00        -0.32395E+08
 
   -0.33117E+08        -0.33113E+05         0.00000E+00
   -0.33113E+05        -0.75145E+08         0.00000E+00
    0.00000E+00         0.00000E+00        -0.32479E+08
 
   -0.33262E+08        -0.25901E+05         0.00000E+00
   -0.25901E+05        -0.75266E+08         0.00000E+00
    0.00000E+00         0.00000E+00        -0.32559E+08
 
   -0.33415E+08        -0.98435E+04         0.00000E+00
   -0.98435E+04        -0.75364E+08         0.00000E+00
    0.00000E+00         0.00000E+00        -0.32634E+08
 
   -0.28007E+08        -0.18007E+04         0.00000E+00
   -0.18007E+04        -0.66143E+08         0.00000E+00
    0.00000E+00         0.00000E+00        -0.28245E+08
 
   -0.28044E+08        -0.44158E+04         0.00000E+00
   -0.44158E+04        -0.66168E+08         0.00000E+00
    0.00000E+00         0.00000E+00        -0.28264E+08
 
   -0.28080E+08        -0.46585E+04         0.00000E+00
   -0.46585E+04        -0.66199E+08         0.00000E+00
    0.00000E+00         0.00000E+00        -0.28284E+08
 
   -0.28115E+08        -0.22934E+04         0.00000E+00
   -0.22934E+04        -0.66234E+08         0.00000E+00
    0.00000E+00         0.00000E+00        -0.28305E+08
 
   -0.28148E+08         0.21493E+04         0.00000E+00
    0.21493E+04        -0.66272E+08         0.00000E+00
    0.00000E+00         0.00000E+00        -0.28326E+08
 
   -0.28181E+08         0.79616E+04         0.00000E+00
    0.79616E+04        -0.66311E+08         0.00000E+00
    0.00000E+00         0.00000E+00        -0.28348E+08
 
   -0.28213E+08         0.14548E+05         0.00000E+00
    0.14548E+05        -0.66352E+08         0.00000E+00
    0.00000E+00         0.00000E+00        -0.28369E+08
 
   -0.28244E+08         0.21474E+05         0.00000E+00
    0.21474E+05        -0.66393E+08         0.00000E+00
    0.00000E+00         0.00000E+00        -0.28391E+08
 
   -0.28274E+08         0.28442E+05         0.00000E+00
    0.28442E+05        -0.66435E+08         0.00000E+00
    0.00000E+00         0.00000E+00        -0.28413E+08
 
   -0.28304E+08         0.35257E+05         0.00000E+00
    0.35257E+05        -0.66478E+08         0.00000E+00
    0.00000E+00         0.00000E+00        -0.28434E+08
 
   -0.28332E+08         0.41798E+05         0.00000E+00
    0.41798E+05        -0.66521E+08         0.00000E+00
    0.00000E+00         0.00000E+00        -0.28456E+08
 
   -0.28359E+08         0.47999E+05         0.00000E+00
    0.47999E+05        -0.66564E+08         0.00000E+00
    0.00000E+00         0.00000E+00        -0.28477E+08
 
   -0.28386E+08         0.53833E+05         0.00000E+00
    0.53833E+05        -0.66608E+08         0.00000E+00
    0.00000E+00         0.00000E+00        -0.28498E+08
 
   -0.28412E+08         0.59297E+05         0.00000E+00
    0.59297E+05        -0.66653E+08         0.00000E+00
    0.00000E+00         0.00000E+00        -0.28519E+08
 
   -0.28437E+08         0.64406E+05         0.00000E+00
    0.64406E+05        -0.66697E+08         0.00000E+00
    0.00000E+00         0.00000E+00        -0.28540E+08
 
   -0.28462E+08         0.69186E+05         0.00000E+00
    0.69186E+05        -0.66743E+08         0.00000E+00
    0.00000E+00         0.00000E+00        -0.28561E+08
 
   -0.28486E+08         0.73667E+05         0.00000E+00
    0.73667E+05        -0.66789E+08         0.00000E+00
    0.00000E+00         0.00000E+00        -0.28582E+08
 
   -0.28510E+08         0.77882E+05         0.00000E+00
    0.77882E+05        -0.66835E+08         0.00000E+00
    0.00000E+00         0.00000E+00        -0.28603E+08
 
   -0.28533E+08         0.81864E+05         0.00000E+00
    0.81864E+05        -0.66882E+08         0.00000E+00
    0.00000E+00         0.00000E+00        -0.28625E+08
 
   -0.28557E+08         0.85643E+05         0.00000E+00
    0.85643E+05        -0.66930E+08         0.00000E+00
    0.00000E+00         0.00000E+00        -0.28646E+08
 
   -0.28580E+08         0.89250E+05         0.00000E+00
    0.89250E+05        -0.66978E+08         0.00000E+00
    0.00000E+00         0.00000E+00        -0.28667E+08
 
   -0.28602E+08         0.92710E+05         0.00000E+00
    0.92710E+05        -0.67027E+08         0.00000E+00
    0.00000E+00         0.00000E+00        -0.28689E+08
 
   -0.28625E+08         0.96046E+05         0.00000E+00
    0.96046E+05        -0.67077E+08         0.00000E+00
    0.00000E+00         0.00000E+00        -0.28711E+08
 
   -0.28648E+08         0.99279E+05         0.00000E+00
    0.99279E+05        -0.67128E+08         0.00000E+00
    0.00000E+00         0.00000E+00        -0.28733E+08
 
   -0.28671E+08         0.10243E+06         0.00000E+00
    0.10243E+06        -0.67180E+08         0.00000E+00
    0.00000E+00         0.00000E+00        -0.28755E+08
 
   -0.28694E+08         0.10551E+06         0.00000E+00
    0.10551E+06        -0.67232E+08         0.00000E+00
    0.00000E+00         0.00000E+00        -0.28778E+08
 
   -0.28717E+08         0.10853E+06         0.00000E+00
    0.10853E+06        -0.67286E+08         0.00000E+00
    0.00000E+00         0.00000E+00        -0.28801E+08
 
   -0.28740E+08         0.11151E+06         0.00000E+00
    0.11151E+06        -0.67340E+08         0.00000E+00
    0.00000E+00         0.00000E+00        -0.28824E+08
 
   -0.28764E+08         0.11445E+06         0.00000E+00
    0.11445E+06        -0.67396E+08         0.00000E+00
    0.00000E+00         0.00000E+00        -0.28848E+08
 
   -0.28788E+08         0.11736E+06         0.00000E+00
    0.11736E+06        -0.67452E+08         0.00000E+00
    0.00000E+00         0.00000E+00        -0.28872E+08
 
   -0.28812E+08         0.12026E+06         0.00000E+00
    0.12026E+06        -0.67510E+08         0.00000E+00
    0.00000E+00         0.00000E+00        -0.28897E+08
 
   -0.28836E+08         0.12314E+06         0.00000E+00
    0.12314E+06        -0.67569E+08         0.00000E+00
    0.00000E+00         0.00000E+00        -0.28922E+08
 
   -0.28861E+08         0.12601E+06         0.00000E+00
    0.12601E+06        -0.67629E+08         0.00000E+00
    0.00000E+00         0.00000E+00        -0.28947E+08
 
   -0.28887E+08         0.12888E+06         0.00000E+00
    0.12888E+06        -0.67691E+08         0.00000E+00
    0.00000E+00         0.00000E+00        -0.28973E+08
 
   -0.28913E+08         0.13174E+06         0.00000E+00
    0.13174E+06        -0.67753E+08         0.00000E+00
    0.00000E+00         0.00000E+00        -0.29000E+08
 
   -0.28939E+08         0.13461E+06         0.00000E+00
    0.13461E+06        -0.67817E+08         0.00000E+00
    0.00000E+00         0.00000E+00        -0.29027E+08
 
   -0.28966E+08         0.13747E+06         0.00000E+00
    0.13747E+06        -0.67883E+08         0.00000E+00
    0.00000E+00         0.00000E+00        -0.29055E+08
 
   -0.28993E+08         0.14034E+06         0.00000E+00
    0.14034E+06        -0.67950E+08         0.00000E+00
    0.00000E+00         0.00000E+00        -0.29083E+08
 
   -0.29021E+08         0.14322E+06         0.00000E+00
    0.14322E+06        -0.68018E+08         0.00000E+00
    0.00000E+00         0.00000E+00        -0.29112E+08
 
   -0.29050E+08         0.14610E+06         0.00000E+00
    0.14610E+06        -0.68088E+08         0.00000E+00
    0.00000E+00         0.00000E+00        -0.29141E+08
 
   -0.29080E+08         0.14898E+06         0.00000E+00
    0.14898E+06        -0.68159E+08         0.00000E+00
    0.00000E+00         0.00000E+00        -0.29172E+08
 
   -0.29110E+08         0.15187E+06         0.00000E+00
    0.15187E+06        -0.68232E+08         0.00000E+00
    0.00000E+00         0.00000E+00        -0.29202E+08
 
   -0.29141E+08         0.15476E+06         0.00000E+00
    0.15476E+06        -0.68306E+08         0.00000E+00
    0.00000E+00         0.00000E+00        -0.29234E+08
 
   -0.29172E+08         0.15765E+06         0.00000E+00
    0.15765E+06        -0.68382E+08         0.00000E+00
    0.00000E+00         0.00000E+00        -0.29266E+08
 
   -0.29205E+08         0.16054E+06         0.00000E+00
    0.16054E+06        -0.68460E+08         0.00000E+00
    0.00000E+00         0.00000E+00        -0.29299E+08
 
   -0.29238E+08         0.16343E+06         0.00000E+00
    0.16343E+06        -0.68539E+08         0.00000E+00
    0.00000E+00         0.00000E+00        -0.29333E+08
 
   -0.29272E+08         0.16631E+06         0.00000E+00
    0.16631E+06        -0.68620E+08         0.00000E+00
    0.00000E+00         0.00000E+00        -0.29368E+08
 
   -0.29307E+08         0.16918E+06         0.00000E+00
    0.16918E+06        -0.68702E+08         0.00000E+00
    0.00000E+00         0.00000E+00        -0.29403E+08
 
   -0.29343E+08         0.17203E+06         0.00000E+00
    0.17203E+06        -0.68787E+08         0.00000E+00
    0.00000E+00         0.00000E+00        -0.29439E+08
 
   -0.29380E+08         0.17487E+06         0.00000E+00
    0.17487E+06        -0.68873E+08         0.00000E+00
    0.00000E+00         0.00000E+00        -0.29476E+08
 
   -0.29418E+08         0.17768E+06         0.00000E+00
    0.17768E+06        -0.68961E+08         0.00000E+00
    0.00000E+00         0.00000E+00        -0.29514E+08
 
   -0.29456E+08         0.18047E+06         0.00000E+00
    0.18047E+06        -0.69051E+08         0.00000E+00
    0.00000E+00         0.00000E+00        -0.29552E+08
 
   -0.29496E+08         0.18322E+06         0.00000E+00
    0.18322E+06        -0.69143E+08         0.00000E+00
    0.00000E+00         0.00000E+00        -0.29592E+08
 
   -0.29537E+08         0.18592E+06         0.00000E+00
    0.18592E+06        -0.69237E+08         0.00000E+00
    0.00000E+00         0.00000E+00        -0.29632E+08
 
   -0.29579E+08         0.18858E+06         0.00000E+00
    0.18858E+06        -0.69332E+08         0.00000E+00
    0.00000E+00         0.00000E+00        -0.29673E+08
 
   -0.29622E+08         0.19118E+06         0.00000E+00
    0.19118E+06        -0.69430E+08         0.00000E+00
    0.00000E+00         0.00000E+00        -0.29716E+08
 
   -0.29667E+08         0.19372E+06         0.00000E+00
    0.19372E+06        -0.69529E+08         0.00000E+00
    0.00000E+00         0.00000E+00        -0.29759E+08
 
   -0.29712E+08         0.19618E+06         0.00000E+00
    0.19618E+06        -0.69631E+08         0.00000E+00
    0.00000E+00         0.00000E+00        -0.29803E+08
 
   -0.29759E+08         0.19856E+06         0.00000E+00
    0.19856E+06        -0.69734E+08         0.00000E+00
    0.00000E+00         0.00000E+00        -0.29848E+08
 
   -0.29807E+08         0.20085E+06         0.00000E+00
    0.20085E+06        -0.69840E+08         0.00000E+00
    0.00000E+00         0.00000E+00        -0.29894E+08
 
   -0.29856E+08         0.20303E+06         0.00000E+00
    0.20303E+06        -0.69947E+08         0.00000E+00
    0.00000E+00         0.00000E+00        -0.29941E+08
 
   -0.29906E+08         0.20509E+06         0.00000E+00
    0.20509E+06        -0.70056E+08         0.00000E+00
    0.00000E+00         0.00000E+00        -0.29989E+08
 
   -0.29958E+08         0.20702E+06         0.00000E+00
    0.20702E+06        -0.70168E+08         0.00000E+00
    0.00000E+00         0.00000E+00        -0.30038E+08
 
   -0.30011E+08         0.20881E+06         0.00000E+00
    0.20881E+06        -0.70281E+08         0.00000E+00
    0.00000E+00         0.00000E+00        -0.30088E+08
 
   -0.30066E+08         0.21043E+06         0.00000E+00
    0.21043E+06        -0.70397E+08         0.00000E+00
    0.00000E+00         0.00000E+00        -0.30139E+08
 
   -0.30122E+08         0.21188E+06         0.00000E+00
    0.21188E+06        -0.70514E+08         0.00000E+00
    0.00000E+00         0.00000E+00        -0.30191E+08
 
   -0.30180E+08         0.21313E+06         0.00000E+00
    0.21313E+06        -0.70634E+08         0.00000E+00
    0.00000E+00         0.00000E+00        -0.30244E+08
 
   -0.30239E+08         0.21416E+06         0.00000E+00
    0.21416E+06        -0.70755E+08         0.00000E+00
    0.00000E+00         0.00000E+00        -0.30298E+08
 
   -0.30300E+08         0.21495E+06         0.00000E+00
    0.21495E+06        -0.70879E+08         0.00000E+00
    0.00000E+00         0.00000E+00        -0.30354E+08
 
   -0.30363E+08         0.21548E+06         0.00000E+00
    0.21548E+06        -0.71004E+08         0.00000E+00
    0.00000E+00         0.00000E+00        -0.30410E+08
 
   -0.30427E+08         0.21572E+06         0.00000E+00
    0.21572E+06        -0.71132E+08         0.00000E+00
    0.00000E+00         0.00000E+00        -0.30468E+08
 
   -0.30493E+08         0.21564E+06         0.00000E+00
    0.21564E+06        -0.71261E+08         0.00000E+00
    0.00000E+00         0.00000E+00        -0.30526E+08
 
   -0.30561E+08         0.21521E+06         0.00000E+00
    0.21521E+06        -0.71393E+08         0.00000E+00
    0.00000E+00         0.00000E+00        -0.30586E+08
 
   -0.30631E+08         0.21438E+06         0.00000E+00
    0.21438E+06        -0.71526E+08         0.00000E+00
    0.00000E+00         0.00000E+00        -0.30647E+08
 
   -0.30703E+08         0.21312E+06         0.00000E+00
    0.21312E+06        -0.71662E+08         0.00000E+00
    0.00000E+00         0.00000E+00        -0.30709E+08
 
   -0.30776E+08         0.21138E+06         0.00000E+00
    0.21138E+06        -0.71799E+08         0.00000E+00
    0.00000E+00         0.00000E+00        -0.30773E+08
 
   -0.30852E+08         0.20910E+06         0.00000E+00
    0.20910E+06        -0.71938E+08         0.00000E+00
    0.00000E+00         0.00000E+00        -0.30837E+08
 
   -0.30931E+08         0.20622E+06         0.00000E+00
    0.20622E+06        -0.72079E+08         0.00000E+00
    0.00000E+00         0.00000E+00        -0.30903E+08
 
   -0.31011E+08         0.20267E+06         0.00000E+00
    0.20267E+06        -0.72222E+08         0.00000E+00
    0.00000E+00         0.00000E+00        -0.30970E+08
 
   -0.31095E+08         0.19837E+06         0.00000E+00
    0.19837E+06        -0.72367E+08         0.00000E+00
    0.00000E+00         0.00000E+00        -0.31038E+08
 
   -0.31180E+08         0.19322E+06         0.00000E+00
    0.19322E+06        -0.72513E+08         0.00000E+00
    0.00000E+00         0.00000E+00        -0.31108E+08
 
   -0.31269E+08         0.18713E+06         0.00000E+00
    0.18713E+06        -0.72662E+08         0.00000E+00
    0.00000E+00         0.00000E+00        -0.31179E+08
 
   -0.31360E+08         0.17999E+06         0.00000E+00
    0.17999E+06        -0.72812E+08         0.00000E+00
    0.00000E+00         0.00000E+00        -0.31252E+08
 
   -0.31454E+08         0.17168E+06         0.00000E+00
    0.17168E+06        -0.72964E+08         0.00000E+00
    0.00000E+00         0.00000E+00        -0.31325E+08
 
   -0.31552E+08         0.16209E+06         0.00000E+00
    0.16209E+06        -0.73117E+08         0.00000E+00
    0.00000E+00         0.00000E+00        -0.31401E+08
 
   -0.31652E+08         0.15108E+06         0.00000E+00
    0.15108E+06        -0.73272E+08         0.00000E+00
    0.00000E+00         0.00000E+00        -0.31477E+08
 
   -0.31756E+08         0.13856E+06         0.00000E+00
    0.13856E+06        -0.73428E+08         0.00000E+00
    0.00000E+00         0.00000E+00        -0.31555E+08
 
   -0.31864E+08         0.12444E+06         0.00000E+00
    0.12444E+06        -0.73586E+08         0.00000E+00
    0.00000E+00         0.00000E+00        -0.31635E+08
 
   -0.31976E+08         0.10868E+06         0.00000E+00
    0.10868E+06        -0.73745E+08         0.00000E+00
    0.00000E+00         0.00000E+00        -0.31716E+08
 
   -0.32091E+08         0.91315E+05         0.00000E+00
    0.91315E+05        -0.73905E+08         0.00000E+00
    0.00000E+00         0.00000E+00        -0.31799E+08
 
   -0.32210E+08         0.72475E+05         0.00000E+00
    0.72475E+05        -0.74066E+08         0.00000E+00
    0.00000E+00         0.00000E+00        -0.31883E+08
 
   -0.32333E+08         0.52452E+05         0.00000E+00
    0.52452E+05        -0.74227E+08         0.00000E+00
    0.00000E+00         0.00000E+00        -0.31968E+08
 
   -0.32460E+08         0.31755E+05         0.00000E+00
    0.31755E+05        -0.74387E+08         0.00000E+00
    0.00000E+00         0.00000E+00        -0.32054E+08
 
   -0.32591E+08         0.11195E+05         0.00000E+00
    0.11195E+05        -0.74546E+08         0.00000E+00
    0.00000E+00         0.00000E+00        -0.32141E+08
 
   -0.32725E+08        -0.80088E+04         0.00000E+00
   -0.80088E+04        -0.74704E+08         0.00000E+00
    0.00000E+00         0.00000E+00        -0.32229E+08
 
   -0.32862E+08        -0.24098E+05         0.00000E+00
   -0.24098E+05        -0.74858E+08         0.00000E+00
    0.00000E+00         0.00000E+00        -0.32316E+08
 
   -0.33001E+08        -0.34673E+05         0.00000E+00
   -0.34673E+05        -0.75006E+08         0.00000E+00
    0.00000E+00         0.00000E+00        -0.32402E+08
 
   -0.33143E+08        -0.36895E+05         0.00000E+00
   -0.36895E+05        -0.75145E+08         0.00000E+00
    0.00000E+00         0.00000E+00        -0.32487E+08
 
   -0.33289E+08        -0.28645E+05         0.00000E+00
   -0.28645E+05        -0.75269E+08         0.00000E+00
    0.00000E+00         0.00000E+00        -0.32567E+08
 
   -0.33441E+08        -0.10872E+05         0.00000E+00
   -0.10872E+05        -0.75368E+08         0.00000E+00
    0.00000E+00         0.00000E+00        -0.32643E+08
 
   -0.27999E+08        -0.20974E+04         0.00000E+00
   -0.20974E+04        -0.66142E+08         0.00000E+00
    0.00000E+00         0.00000E+00        -0.28242E+08
 
   -0.28036E+08        -0.52078E+04         0.00000E+00
   -0.52078E+04        -0.66168E+08         0.00000E+00
    0.00000E+00         0.00000E+00        -0.28261E+08
 
   -0.28072E+08        -0.57586E+04         0.00000E+00
   -0.57586E+04        -0.66199E+08         0.00000E+00
    0.00000E+00         0.00000E+00        -0.28282E+08
 
   -0.28107E+08        -0.35833E+04         0.00000E+00
   -0.35833E+04        -0.66235E+08         0.00000E+00
    0.00000E+00         0.00000E+00        -0.28303E+08
 
   -0.28141E+08         0.68938E+03         0.00000E+00
    0.68938E+03        -0.66273E+08         0.00000E+00
    0.00000E+00         0.00000E+00        -0.28324E+08
 
   -0.28175E+08         0.63055E+04         0.00000E+00
    0.63055E+04        -0.66313E+08         0.00000E+00
    0.00000E+00         0.00000E+00        -0.28346E+08
 
   -0.28208E+08         0.12666E+05         0.00000E+00
    0.12666E+05        -0.66353E+08         0.00000E+00
    0.00000E+00         0.00000E+00        -0.28368E+08
 
   -0.28239E+08         0.19346E+05         0.00000E+00
    0.19346E+05        -0.66394E+08         0.00000E+00
    0.00000E+00         0.00000E+00        -0.28390E+08
 
   -0.28270E+08         0.26058E+05         0.00000E+00
    0.26058E+05        -0.66436E+08         0.00000E+00
    0.00000E+00         0.00000E+00        -0.28412E+08
 
   -0.28299E+08         0.32613E+05         0.00000E+00
    0.32613E+05        -0.66479E+08         0.00000E+00
    0.00000E+00         0.00000E+00        -0.28433E+08
 
   -0.28328E+08         0.38897E+05         0.00000E+00
    0.38897E+05        -0.66522E+08         0.00000E+00
    0.00000E+00         0.00000E+00        -0.28455E+08
 
   -0.28356E+08         0.44845E+05         0.00000E+00
    0.44845E+05        -0.66565E+08         0.00000E+00
    0.00000E+00         0.00000E+00        -0.28476E+08
 
   -0.28383E+08         0.50433E+05         0.00000E+00
    0.50433E+05        -0.66609E+08         0.00000E+00
    0.00000E+00         0.00000E+00        -0.28498E+08
 
   -0.28409E+08         0.55659E+05         0.00000E+00
    0.55659E+05        -0.66654E+08         0.00000E+00
    0.00000E+00         0.00000E+00        -0.28519E+08
 
   -0.28434E+08         0.60537E+05         0.00000E+00
    0.60537E+05        -0.66698E+08         0.00000E+00
    0.00000E+00         0.00000E+00        -0.28540E+08
 
   -0.28459E+08         0.65095E+05         0.00000E+00
    0.65095E+05        -0.66744E+08         0.00000E+00
    0.00000E+00         0.00000E+00        -0.28561E+08
 
   -0.28483E+08         0.69361E+05         0.00000E+00
    0.69361E+05        -0.66789E+08         0.00000E+00
    0.00000E+00         0.00000E+00        -0.28582E+08
 
   -0.28507E+08         0.73368E+05         0.00000E+00
    0.73368E+05        -0.66836E+08         0.00000E+00
    0.00000E+00         0.00000E+00        -0.28603E+08
 
   -0.28531E+08         0.77149E+05         0.00000E+00
    0.77149E+05        -0.66883E+08         0.00000E+00
    0.00000E+00         0.00000E+00        -0.28624E+08
 
   -0.28554E+08         0.80735E+05         0.00000E+00
    0.80735E+05        -0.66931E+08         0.00000E+00
    0.00000E+00         0.00000E+00        -0.28645E+08
 
   -0.28577E+08         0.84152E+05         0.00000E+00
    0.84152E+05        -0.66979E+08         0.00000E+00
    0.00000E+00         0.00000E+00        -0.28667E+08
 
   -0.28600E+08         0.87428E+05         0.00000E+00
    0.87428E+05        -0.67028E+08         0.00000E+00
    0.00000E+00         0.00000E+00        -0.28688E+08
 
   -0.28623E+08         0.90585E+05         0.00000E+00
    0.90585E+05        -0.67078E+08         0.00000E+00
    0.00000E+00         0.00000E+00        -0.28710E+08
 
   -0.28646E+08         0.93642E+05         0.00000E+00
    0.93642E+05        -0.67129E+08         0.00000E+00
    0.00000E+00         0.00000E+00        -0.28732E+08
 
   -0.28668E+08         0.96618E+05         0.00000E+00
    0.96618E+05        -0.67180E+08         0.00000E+00
    0.00000E+00         0.00000E+00        -0.28755E+08
 
   -0.28691E+08         0.99526E+05         0.00000E+00
    0.99526E+05        -0.67233E+08         0.00000E+00
    0.00000E+00         0.00000E+00        -0.28777E+08
 
   -0.28715E+08         0.10238E+06         0.00000E+00
    0.10238E+06        -0.67286E+08         0.00000E+00
    0.00000E+00         0.00000E+00        -0.28800E+08
 
   -0.28738E+08         0.10519E+06         0.00000E+00
    0.10519E+06        -0.67341E+08         0.00000E+00
    0.00000E+00         0.00000E+00        -0.28824E+08
 
   -0.28761E+08         0.10797E+06         0.00000E+00
    0.10797E+06        -0.67396E+08         0.00000E+00
    0.00000E+00         0.00000E+00        -0.28847E+08
 
   -0.28785E+08         0.11072E+06         0.00000E+00
    0.11072E+06        -0.67453E+08         0.00000E+00
    0.00000E+00         0.00000E+00        -0.28871E+08
 
   -0.28809E+08         0.11345E+06         0.00000E+00
    0.11345E+06        -0.67511E+08         0.00000E+00
    0.00000E+00         0.00000E+00        -0.28896E+08
 
   -0.28834E+08         0.11617E+06         0.00000E+00
    0.11617E+06        -0.67570E+08         0.00000E+00
    0.00000E+00         0.00000E+00        -0.28921E+08
 
   -0.28859E+08         0.11888E+06         0.00000E+00
    0.11888E+06        -0.67630E+08         0.00000E+00
    0.00000E+00         0.00000E+00        -0.28947E+08
 
   -0.28884E+08         0.12158E+06         0.00000E+00
    0.12158E+06        -0.67691E+08         0.00000E+00
    0.00000E+00         0.00000E+00        -0.28973E+08
 
   -0.28910E+08         0.12428E+06         0.00000E+00
    0.12428E+06        -0.67754E+08         0.00000E+00
    0.00000E+00         0.00000E+00        -0.28999E+08
 
   -0.28936E+08         0.12699E+06         0.00000E+00
    0.12699E+06        -0.67818E+08         0.00000E+00
    0.00000E+00         0.00000E+00        -0.29026E+08
 
   -0.28963E+08         0.12969E+06         0.00000E+00
    0.12969E+06        -0.67883E+08         0.00000E+00
    0.00000E+00         0.00000E+00        -0.29054E+08
 
   -0.28990E+08         0.13239E+06         0.00000E+00
    0.13239E+06        -0.67950E+08         0.00000E+00
    0.00000E+00         0.00000E+00        -0.29082E+08
 
   -0.29018E+08         0.13510E+06         0.00000E+00
    0.13510E+06        -0.68018E+08         0.00000E+00
    0.00000E+00         0.00000E+00        -0.29111E+08
 
   -0.29047E+08         0.13782E+06         0.00000E+00
    0.13782E+06        -0.68088E+08         0.00000E+00
    0.00000E+00         0.00000E+00        -0.29141E+08
 
   -0.29077E+08         0.14054E+06         0.00000E+00
    0.14054E+06        -0.68159E+08         0.00000E+00
    0.00000E+00         0.00000E+00        -0.29171E+08
 
   -0.29107E+08         0.14326E+06         0.00000E+00
    0.14326E+06        -0.68232E+08         0.00000E+00
    0.00000E+00         0.00000E+00        -0.29202E+08
 
   -0.29137E+08         0.14598E+06         0.00000E+00
    0.14598E+06        -0.68307E+08         0.00000E+00
    0.00000E+00         0.00000E+00        -0.29233E+08
 
   -0.29169E+08         0.14870E+06         0.00000E+00
    0.14870E+06        -0.68382E+08         0.00000E+00
    0.00000E+00         0.00000E+00        -0.29265E+08
 
   -0.29202E+08         0.15142E+06         0.00000E+00
    0.15142E+06        -0.68460E+08         0.00000E+00
    0.00000E+00         0.00000E+00        -0.29298E+08
 
   -0.29235E+08         0.15414E+06         0.00000E+00
    0.15414E+06        -0.68539E+08         0.00000E+00
    0.00000E+00         0.00000E+00        -0.29332E+08
 
   -0.29269E+08         0.15685E+06         0.00000E+00
    0.15685E+06        -0.68620E+08         0.00000E+00
    0.00000E+00         0.00000E+00        -0.29367E+08
 
   -0.29304E+08         0.15955E+06         0.00000E+00
    0.15955E+06        -0.68703E+08         0.00000E+00
    0.00000E+00         0.00000E+00        -0.29402E+08
 
   -0.29340E+08         0.16224E+06         0.00000E+00
    0.16224E+06        -0.68788E+08         0.00000E+00
    0.00000E+00         0.00000E+00        -0.29438E+08
 
   -0.29377E+08         0.16491E+06         0.00000E+00
    0.16491E+06        -0.68874E+08         0.00000E+00
    0.00000E+00         0.00000E+00        -0.29475E+08
 
   -0.29414E+08         0.16756E+06         0.00000E+00
    0.16756E+06        -0.68962E+08         0.00000E+00
    0.00000E+00         0.00000E+00        -0.29513E+08
 
   -0.29453E+08         0.17017E+06         0.00000E+00
    0.17017E+06        -0.69052E+08         0.00000E+00
    0.00000E+00         0.00000E+00        -0.29551E+08
 
   -0.29493E+08         0.17276E+06         0.00000E+00
    0.17276E+06        -0.69144E+08         0.00000E+00
    0.00000E+00         0.00000E+00        -0.29591E+08
 
   -0.29534E+08         0.17530E+06         0.00000E+00
    0.17530E+06        -0.69237E+08         0.00000E+00
    0.00000E+00         0.00000E+00        -0.29631E+08
 
   -0.29576E+08         0.17780E+06         0.00000E+00
    0.17780E+06        -0.69333E+08         0.00000E+00
    0.00000E+00         0.00000E+00        -0.29673E+08
 
   -0.29619E+08         0.18025E+06         0.00000E+00
    0.18025E+06        -0.69430E+08         0.00000E+00
    0.00000E+00         0.00000E+00        -0.29715E+08
 
   -0.29663E+08         0.18263E+06         0.00000E+00
    0.18263E+06        -0.69530E+08         0.00000E+00
    0.00000E+00         0.00000E+00        -0.29758E+08
 
   -0.29709E+08         0.18495E+06         0.00000E+00
    0.18495E+06        -0.69631E+08         0.00000E+00
    0.00000E+00         0.00000E+00        -0.29802E+08
 
   -0.29756E+08         0.18718E+06         0.00000E+00
    0.18718E+06        -0.69735E+08         0.00000E+00
    0.00000E+00         0.00000E+00        -0.29847E+08
 
   -0.29803E+08         0.18932E+06         0.00000E+00
    0.18932E+06        -0.69840E+08         0.00000E+00
    0.00000E+00         0.00000E+00        -0.29893E+08
 
   -0.29853E+08         0.19137E+06         0.00000E+00
    0.19137E+06        -0.69947E+08         0.00000E+00
    0.00000E+00         0.00000E+00        -0.29940E+08
 
   -0.29903E+08         0.19330E+06         0.00000E+00
    0.19330E+06        -0.70057E+08         0.00000E+00
    0.00000E+00         0.00000E+00        -0.29988E+08
 
   -0.29955E+08         0.19511E+06         0.00000E+00
    0.19511E+06        -0.70168E+08         0.00000E+00
    0.00000E+00         0.00000E+00        -0.30037E+08
 
   -0.30009E+08         0.19678E+06         0.00000E+00
    0.19678E+06        -0.70282E+08         0.00000E+00
    0.00000E+00         0.00000E+00        -0.30087E+08
 
   -0.30063E+08         0.19829E+06         0.00000E+00
    0.19829E+06        -0.70397E+08         0.00000E+00
    0.00000E+00         0.00000E+00        -0.30138E+08
 
   -0.30120E+08         0.19964E+06         0.00000E+00
    0.19964E+06        -0.70514E+08         0.00000E+00
    0.00000E+00         0.00000E+00        -0.30190E+08
 
   -0.30177E+08         0.20080E+06         0.00000E+00
    0.20080E+06        -0.70634E+08         0.00000E+00
    0.00000E+00         0.00000E+00        -0.30243E+08
 
   -0.30237E+08         0.20176E+06         0.00000E+00
    0.20176E+06        -0.70755E+08         0.00000E+00
    0.00000E+00         0.00000E+00        -0.30298E+08
 
   -0.30298E+08         0.20249E+06         0.00000E+00
    0.20249E+06        -0.70879E+08         0.00000E+00
    0.00000E+00         0.00000E+00        -0.30353E+08
 
   -0.30361E+08         0.20297E+06         0.00000E+00
    0.20297E+06        -0.71004E+08         0.00000E+00
    0.00000E+00         0.00000E+00        -0.30409E+08
 
   -0.30425E+08         0.20317E+06         0.00000E+00
    0.20317E+06        -0.71132E+08         0.00000E+00
    0.00000E+00         0.00000E+00        -0.30467E+08
 
   -0.30491E+08         0.20308E+06         0.00000E+00
    0.20308E+06        -0.71261E+08         0.00000E+00
    0.00000E+00         0.00000E+00        -0.30526E+08
 
   -0.30559E+08         0.20264E+06         0.00000E+00
    0.20264E+06        -0.71393E+08         0.00000E+00
    0.00000E+00         0.00000E+00        -0.30586E+08
 
   -0.30629E+08         0.20184E+06         0.00000E+00
    0.20184E+06        -0.71526E+08         0.00000E+00
    0.00000E+00         0.00000E+00        -0.30647E+08
 
   -0.30701E+08         0.20062E+06         0.00000E+00
    0.20062E+06        -0.71661E+08         0.00000E+00
    0.00000E+00         0.00000E+00        -0.30709E+08
 
   -0.30775E+08         0.19895E+06         0.00000E+00
    0.19895E+06        -0.71799E+08         0.00000E+00
    0.00000E+00         0.00000E+00        -0.30772E+08
 
   -0.30852E+08         0.19676E+06         0.00000E+00
    0.19676E+06        -0.71938E+08         0.00000E+00
    0.00000E+00         0.00000E+00        -0.30837E+08
 
   -0.30930E+08         0.19400E+06         0.00000E+00
    0.19400E+06        -0.72079E+08         0.00000E+00
    0.00000E+00         0.00000E+00        -0.30903E+08
 
   -0.31011E+08         0.19060E+06         0.00000E+00
    0.19060E+06        -0.72221E+08         0.00000E+00
    0.00000E+00         0.00000E+00        -0.30970E+08
 
   -0.31095E+08         0.18648E+06         0.00000E+00
    0.18648E+06        -0.72366E+08         0.00000E+00
    0.00000E+00         0.00000E+00        -0.31038E+08
 
   -0.31181E+08         0.18156E+06         0.00000E+00
    0.18156E+06        -0.72512E+08         0.00000E+00
    0.00000E+00         0.00000E+00        -0.31108E+08
 
   -0.31270E+08         0.17573E+06         0.00000E+00
    0.17573E+06        -0.72660E+08         0.00000E+00
    0.00000E+00         0.00000E+00        -0.31179E+08
 
   -0.31362E+08         0.16889E+06         0.00000E+00
    0.16889E+06        -0.72810E+08         0.00000E+00
    0.00000E+00         0.00000E+00        -0.31252E+08
 
   -0.31457E+08         0.16092E+06         0.00000E+00
    0.16092E+06        -0.72962E+08         0.00000E+00
    0.00000E+00         0.00000E+00        -0.31326E+08
 
   -0.31555E+08         0.15170E+06         0.00000E+00
    0.15170E+06        -0.73115E+08         0.00000E+00
    0.00000E+00         0.00000E+00        -0.31401E+08
 
   -0.31657E+08         0.14113E+06         0.00000E+00
    0.14113E+06        -0.73270E+08         0.00000E+00
    0.00000E+00         0.00000E+00        -0.31478E+08
 
   -0.31762E+08         0.12908E+06         0.00000E+00
    0.12908E+06        -0.73426E+08         0.00000E+00
    0.00000E+00         0.00000E+00        -0.31556E+08
 
   -0.31871E+08         0.11548E+06         0.00000E+00
    0.11548E+06        -0.73583E+08         0.00000E+00
    0.00000E+00         0.00000E+00        -0.31636E+08
 
   -0.31983E+08         0.10029E+06         0.00000E+00
    0.10029E+06        -0.73742E+08         0.00000E+00
    0.00000E+00         0.00000E+00        -0.31718E+08
 
   -0.32100E+08         0.83518E+05         0.00000E+00
    0.83518E+05        -0.73902E+08         0.00000E+00
    0.00000E+00         0.00000E+00        -0.31801E+08
 
   -0.32221E+08         0.65308E+05         0.00000E+00
    0.65308E+05        -0.74062E+08         0.00000E+00
    0.00000E+00         0.00000E+00        -0.31885E+08
 
   -0.32346E+08         0.45933E+05         0.00000E+00
    0.45933E+05        -0.74223E+08         0.00000E+00
    0.00000E+00         0.00000E+00        -0.31971E+08
 
   -0.32475E+08         0.25881E+05         0.00000E+00
    0.25881E+05        -0.74383E+08         0.00000E+00
    0.00000E+00         0.00000E+00        -0.32057E+08
 
   -0.32608E+08         0.59334E+04         0.00000E+00
    0.59334E+04        -0.74542E+08         0.00000E+00
    0.00000E+00         0.00000E+00        -0.32145E+08
 
   -0.32745E+08        -0.12731E+05         0.00000E+00
   -0.12731E+05        -0.74700E+08         0.00000E+00
    0.00000E+00         0.00000E+00        -0.32233E+08
 
   -0.32884E+08        -0.28392E+05         0.00000E+00
   -0.28392E+05        -0.74855E+08         0.00000E+00
    0.00000E+00         0.00000E+00        -0.32322E+08
 
   -0.33026E+08        -0.38637E+05         0.00000E+00
   -0.38637E+05        -0.75005E+08         0.00000E+00
    0.00000E+00         0.00000E+00        -0.32409E+08
 
   -0.33169E+08        -0.40444E+05         0.00000E+00
   -0.40444E+05        -0.75146E+08         0.00000E+00
    0.00000E+00         0.00000E+00        -0.32495E+08
 
   -0.33316E+08        -0.31303E+05         0.00000E+00
   -0.31303E+05        -0.75272E+08         0.00000E+00
    0.00000E+00         0.00000E+00        -0.32576E+08
 
   -0.33469E+08        -0.11889E+05         0.00000E+00
   -0.11889E+05        -0.75373E+08         0.00000E+00
    0.00000E+00         0.00000E+00        -0.32652E+08
 
   -0.27991E+08        -0.23922E+04         0.00000E+00
   -0.23922E+04        -0.66141E+08         0.00000E+00
    0.00000E+00         0.00000E+00        -0.28240E+08
 
   -0.28029E+08        -0.59785E+04         0.00000E+00
   -0.59785E+04        -0.66167E+08         0.00000E+00
    0.00000E+00         0.00000E+00        -0.28259E+08
 
   -0.28065E+08        -0.67984E+04         0.00000E+00
   -0.67984E+04        -0.66200E+08         0.00000E+00
    0.00000E+00         0.00000E+00        -0.28279E+08
 
   -0.28100E+08        -0.47777E+04         0.00000E+00
   -0.47777E+04        -0.66236E+08         0.00000E+00
    0.00000E+00         0.00000E+00        -0.28301E+08
 
   -0.28135E+08        -0.65735E+03         0.00000E+00
   -0.65735E+03        -0.66274E+08         0.00000E+00
    0.00000E+00         0.00000E+00        -0.28323E+08
 
   -0.28169E+08         0.47657E+04         0.00000E+00
    0.47657E+04        -0.66314E+08         0.00000E+00
    0.00000E+00         0.00000E+00        -0.28345E+08
 
   -0.28202E+08         0.10895E+05         0.00000E+00
    0.10895E+05        -0.66354E+08         0.00000E+00
    0.00000E+00         0.00000E+00        -0.28367E+08
 
   -0.28234E+08         0.17319E+05         0.00000E+00
    0.17319E+05        -0.66396E+08         0.00000E+00
    0.00000E+00         0.00000E+00        -0.28389E+08
 
   -0.28265E+08         0.23763E+05         0.00000E+00
    0.23763E+05        -0.66438E+08         0.00000E+00
    0.00000E+00         0.00000E+00        -0.28411E+08
 
   -0.28295E+08         0.30047E+05         0.00000E+00
    0.30047E+05        -0.66480E+08         0.00000E+00
    0.00000E+00         0.00000E+00        -0.28433E+08
 
   -0.28324E+08         0.36061E+05         0.00000E+00
    0.36061E+05        -0.66523E+08         0.00000E+00
    0.00000E+00         0.00000E+00        -0.28454E+08
 
   -0.28352E+08         0.41746E+05         0.00000E+00
    0.41746E+05        -0.66566E+08         0.00000E+00
    0.00000E+00         0.00000E+00        -0.28476E+08
 
   -0.28379E+08         0.47078E+05         0.00000E+00
    0.47078E+05        -0.66610E+08         0.00000E+00
    0.00000E+00         0.00000E+00        -0.28497E+08
 
   -0.28406E+08         0.52057E+05         0.00000E+00
    0.52057E+05        -0.66655E+08         0.00000E+00
    0.00000E+00         0.00000E+00        -0.28518E+08
 
   -0.28431E+08         0.56698E+05         0.00000E+00
    0.56698E+05        -0.66699E+08         0.00000E+00
    0.00000E+00         0.00000E+00        -0.28539E+08
 
   -0.28456E+08         0.61026E+05         0.00000E+00
    0.61026E+05        -0.66745E+08         0.00000E+00
    0.00000E+00         0.00000E+00        -0.28560E+08
 
   -0.28481E+08         0.65072E+05         0.00000E+00
    0.65072E+05        -0.66790E+08         0.00000E+00
    0.00000E+00         0.00000E+00        -0.28581E+08
 
   -0.28505E+08         0.68868E+05         0.00000E+00
    0.68868E+05        -0.66837E+08         0.00000E+00
    0.00000E+00         0.00000E+00        -0.28602E+08
 
   -0.28528E+08         0.72444E+05         0.00000E+00
    0.72444E+05        -0.66884E+08         0.00000E+00
    0.00000E+00         0.00000E+00        -0.28624E+08
 
   -0.28552E+08         0.75832E+05         0.00000E+00
    0.75832E+05        -0.66931E+08         0.00000E+00
    0.00000E+00         0.00000E+00        -0.28645E+08
 
   -0.28575E+08         0.79058E+05         0.00000E+00
    0.79058E+05        -0.66980E+08         0.00000E+00
    0.00000E+00         0.00000E+00        -0.28666E+08
 
   -0.28598E+08         0.82148E+05         0.00000E+00
    0.82148E+05        -0.67029E+08         0.00000E+00
    0.00000E+00         0.00000E+00        -0.28688E+08
 
   -0.28620E+08         0.85123E+05         0.00000E+00
    0.85123E+05        -0.67078E+08         0.00000E+00
    0.00000E+00         0.00000E+00        -0.28710E+08
 
   -0.28643E+08         0.88004E+05         0.00000E+00
    0.88004E+05        -0.67129E+08         0.00000E+00
    0.00000E+00         0.00000E+00        -0.28732E+08
 
   -0.28666E+08         0.90805E+05         0.00000E+00
    0.90805E+05        -0.67181E+08         0.00000E+00
    0.00000E+00         0.00000E+00        -0.28754E+08
 
   -0.28689E+08         0.93543E+05         0.00000E+00
    0.93543E+05        -0.67233E+08         0.00000E+00
    0.00000E+00         0.00000E+00        -0.28777E+08
 
   -0.28712E+08         0.96228E+05         0.00000E+00
    0.96228E+05        -0.67287E+08         0.00000E+00
    0.00000E+00         0.00000E+00        -0.28800E+08
 
   -0.28735E+08         0.98873E+05         0.00000E+00
    0.98873E+05        -0.67341E+08         0.00000E+00
    0.00000E+00         0.00000E+00        -0.28823E+08
 
   -0.28759E+08         0.10148E+06         0.00000E+00
    0.10148E+06        -0.67397E+08         0.00000E+00
    0.00000E+00         0.00000E+00        -0.28847E+08
 
   -0.28783E+08         0.10407E+06         0.00000E+00
    0.10407E+06        -0.67453E+08         0.00000E+00
    0.00000E+00         0.00000E+00        -0.28871E+08
 
   -0.28807E+08         0.10664E+06         0.00000E+00
    0.10664E+06        -0.67511E+08         0.00000E+00
    0.00000E+00         0.00000E+00        -0.28895E+08
 
   -0.28831E+08         0.10919E+06         0.00000E+00
    0.10919E+06        -0.67570E+08         0.00000E+00
    0.00000E+00         0.00000E+00        -0.28920E+08
 
   -0.28856E+08         0.11174E+06         0.00000E+00
    0.11174E+06        -0.67630E+08         0.00000E+00
    0.00000E+00         0.00000E+00        -0.28946E+08
 
   -0.28881E+08         0.11428E+06         0.00000E+00
    0.11428E+06        -0.67692E+08         0.00000E+00
    0.00000E+00         0.00000E+00        -0.28972E+08
 
   -0.28907E+08         0.11682E+06         0.00000E+00
    0.11682E+06        -0.67755E+08         0.00000E+00
    0.00000E+00         0.00000E+00        -0.28998E+08
 
   -0.28933E+08         0.11936E+06         0.00000E+00
    0.11936E+06        -0.67819E+08         0.00000E+00
    0.00000E+00         0.00000E+00        -0.29026E+08
 
   -0.28960E+08         0.12190E+06         0.00000E+00
    0.12190E+06        -0.67884E+08         0.00000E+00
    0.00000E+00         0.00000E+00        -0.29053E+08
 
   -0.28988E+08         0.12444E+06         0.00000E+00
    0.12444E+06        -0.67951E+08         0.00000E+00
    0.00000E+00         0.00000E+00        -0.29081E+08
 
   -0.29016E+08         0.12698E+06         0.00000E+00
    0.12698E+06        -0.68019E+08         0.00000E+00
    0.00000E+00         0.00000E+00        -0.29110E+08
 
   -0.29044E+08         0.12953E+06         0.00000E+00
    0.12953E+06        -0.68089E+08         0.00000E+00
    0.00000E+00         0.00000E+00        -0.29140E+08
 
   -0.29074E+08         0.13208E+06         0.00000E+00
    0.13208E+06        -0.68160E+08         0.00000E+00
    0.00000E+00         0.00000E+00        -0.29170E+08
 
   -0.29104E+08         0.13463E+06         0.00000E+00
    0.13463E+06        -0.68233E+08         0.00000E+00
    0.00000E+00         0.00000E+00        -0.29201E+08
 
   -0.29134E+08         0.13719E+06         0.00000E+00
    0.13719E+06        -0.68307E+08         0.00000E+00
    0.00000E+00         0.00000E+00        -0.29232E+08
 
   -0.29166E+08         0.13975E+06         0.00000E+00
    0.13975E+06        -0.68383E+08         0.00000E+00
    0.00000E+00         0.00000E+00        -0.29265E+08
 
   -0.29198E+08         0.14230E+06         0.00000E+00
    0.14230E+06        -0.68461E+08         0.00000E+00
    0.00000E+00         0.00000E+00        -0.29298E+08
 
   -0.29232E+08         0.14485E+06         0.00000E+00
    0.14485E+06        -0.68540E+08         0.00000E+00
    0.00000E+00         0.00000E+00        -0.29331E+08
 
   -0.29266E+08         0.14739E+06         0.00000E+00
    0.14739E+06        -0.68621E+08         0.00000E+00
    0.00000E+00         0.00000E+00        -0.29366E+08
 
   -0.29301E+08         0.14992E+06         0.00000E+00
    0.14992E+06        -0.68704E+08         0.00000E+00
    0.00000E+00         0.00000E+00        -0.29401E+08
 
   -0.29336E+08         0.15244E+06         0.00000E+00
    0.15244E+06        -0.68788E+08         0.00000E+00
    0.00000E+00         0.00000E+00        -0.29437E+08
 
   -0.29373E+08         0.15495E+06         0.00000E+00
    0.15495E+06        -0.68874E+08         0.00000E+00
    0.00000E+00         0.00000E+00        -0.29474E+08
 
   -0.29411E+08         0.15743E+06         0.00000E+00
    0.15743E+06        -0.68962E+08         0.00000E+00
    0.00000E+00         0.00000E+00        -0.29512E+08
 
   -0.29450E+08         0.15988E+06         0.00000E+00
    0.15988E+06        -0.69052E+08         0.00000E+00
    0.00000E+00         0.00000E+00        -0.29551E+08
 
   -0.29490E+08         0.16230E+06         0.00000E+00
    0.16230E+06        -0.69144E+08         0.00000E+00
    0.00000E+00         0.00000E+00        -0.29590E+08
 
   -0.29531E+08         0.16469E+06         0.00000E+00
    0.16469E+06        -0.69238E+08         0.00000E+00
    0.00000E+00         0.00000E+00        -0.29631E+08
 
   -0.29573E+08         0.16703E+06         0.00000E+00
    0.16703E+06        -0.69333E+08         0.00000E+00
    0.00000E+00         0.00000E+00        -0.29672E+08
 
   -0.29616E+08         0.16932E+06         0.00000E+00
    0.16932E+06        -0.69431E+08         0.00000E+00
    0.00000E+00         0.00000E+00        -0.29714E+08
 
   -0.29660E+08         0.17155E+06         0.00000E+00
    0.17155E+06        -0.69530E+08         0.00000E+00
    0.00000E+00         0.00000E+00        -0.29757E+08
 
   -0.29706E+08         0.17371E+06         0.00000E+00
    0.17371E+06        -0.69632E+08         0.00000E+00
    0.00000E+00         0.00000E+00        -0.29801E+08
 
   -0.29752E+08         0.17580E+06         0.00000E+00
    0.17580E+06        -0.69735E+08         0.00000E+00
    0.00000E+00         0.00000E+00        -0.29846E+08
 
   -0.29800E+08         0.17780E+06         0.00000E+00
    0.17780E+06        -0.69840E+08         0.00000E+00
    0.00000E+00         0.00000E+00        -0.29892E+08
 
   -0.29850E+08         0.17971E+06         0.00000E+00
    0.17971E+06        -0.69948E+08         0.00000E+00
    0.00000E+00         0.00000E+00        -0.29939E+08
 
   -0.29900E+08         0.18152E+06         0.00000E+00
    0.18152E+06        -0.70057E+08         0.00000E+00
    0.00000E+00         0.00000E+00        -0.29987E+08
 
   -0.29952E+08         0.18320E+06         0.00000E+00
    0.18320E+06        -0.70168E+08         0.00000E+00
    0.00000E+00         0.00000E+00        -0.30036E+08
 
   -0.30006E+08         0.18476E+06         0.00000E+00
    0.18476E+06        -0.70282E+08         0.00000E+00
    0.00000E+00         0.00000E+00        -0.30086E+08
 
   -0.30061E+08         0.18617E+06         0.00000E+00
    0.18617E+06        -0.70397E+08         0.00000E+00
    0.00000E+00         0.00000E+00        -0.30137E+08
 
   -0.30117E+08         0.18742E+06         0.00000E+00
    0.18742E+06        -0.70515E+08         0.00000E+00
    0.00000E+00         0.00000E+00        -0.30189E+08
 
   -0.30175E+08         0.18850E+06         0.00000E+00
    0.18850E+06        -0.70634E+08         0.00000E+00
    0.00000E+00         0.00000E+00        -0.30243E+08
 
   -0.30234E+08         0.18938E+06         0.00000E+00
    0.18938E+06        -0.70756E+08         0.00000E+00
    0.00000E+00         0.00000E+00        -0.30297E+08
 
   -0.30295E+08         0.19005E+06         0.00000E+00
    0.19005E+06        -0.70879E+08         0.00000E+00
    0.00000E+00         0.00000E+00        -0.30352E+08
 
   -0.30358E+08         0.19048E+06         0.00000E+00
    0.19048E+06        -0.71005E+08         0.00000E+00
    0.00000E+00         0.00000E+00        -0.30409E+08
 
   -0.30423E+08         0.19066E+06         0.00000E+00
    0.19066E+06        -0.71132E+08         0.00000E+00
    0.00000E+00         0.00000E+00        -0.30466E+08
 
   -0.30489E+08         0.19055E+06         0.00000E+00
    0.19055E+06        -0.71261E+08         0.00000E+00
    0.00000E+00         0.00000E+00        -0.30525E+08
 
   -0.30558E+08         0.19012E+06         0.00000E+00
    0.19012E+06        -0.71393E+08         0.00000E+00
    0.00000E+00         0.00000E+00        -0.30585E+08
 
   -0.30628E+08         0.18934E+06         0.00000E+00
    0.18934E+06        -0.71526E+08         0.00000E+00
    0.00000E+00         0.00000E+00        -0.30646E+08
 
   -0.30700E+08         0.18817E+06         0.00000E+00
    0.18817E+06        -0.71661E+08         0.00000E+00
    0.00000E+00         0.00000E+00        -0.30708E+08
 
   -0.30774E+08         0.18657E+06         0.00000E+00
    0.18657E+06        -0.71798E+08         0.00000E+00
    0.00000E+00         0.00000E+00        -0.30772E+08
 
   -0.30851E+08         0.18448E+06         0.00000E+00
    0.18448E+06        -0.71937E+08         0.00000E+00
    0.00000E+00         0.00000E+00        -0.30836E+08
 
   -0.30930E+08         0.18185E+06         0.00000E+00
    0.18185E+06        -0.72078E+08         0.00000E+00
    0.00000E+00         0.00000E+00        -0.30902E+08
 
   -0.31011E+08         0.17861E+06         0.00000E+00
    0.17861E+06        -0.72221E+08         0.00000E+00
    0.00000E+00         0.00000E+00        -0.30970E+08
 
   -0.31095E+08         0.17468E+06         0.00000E+00
    0.17468E+06        -0.72365E+08         0.00000E+00
    0.00000E+00         0.00000E+00        -0.31038E+08
 
   -0.31182E+08         0.16999E+06         0.00000E+00
    0.16999E+06        -0.72511E+08         0.00000E+00
    0.00000E+00         0.00000E+00        -0.31108E+08
 
   -0.31271E+08         0.16443E+06         0.00000E+00
    0.16443E+06        -0.72659E+08         0.00000E+00
    0.00000E+00         0.00000E+00        -0.31179E+08
 
   -0.31364E+08         0.15790E+06         0.00000E+00
    0.15790E+06        -0.72809E+08         0.00000E+00
    0.00000E+00         0.00000E+00        -0.31252E+08
 
   -0.31459E+08         0.15029E+06         0.00000E+00
    0.15029E+06        -0.72960E+08         0.00000E+00
    0.00000E+00         0.00000E+00        -0.31326E+08
 
   -0.31558E+08         0.14148E+06         0.00000E+00
    0.14148E+06        -0.73113E+08         0.00000E+00
    0.00000E+00         0.00000E+00        -0.31401E+08
 
   -0.31661E+08         0.13136E+06         0.00000E+00
    0.13136E+06        -0.73267E+08         0.00000E+00
    0.00000E+00         0.00000E+00        -0.31478E+08
 
   -0.31767E+08         0.11982E+06         0.00000E+00
    0.11982E+06        -0.73423E+08         0.00000E+00
    0.00000E+00         0.00000E+00        -0.31557E+08
 
   -0.31877E+08         0.10677E+06         0.00000E+00
    0.10677E+06        -0.73580E+08         0.00000E+00
    0.00000E+00         0.00000E+00        -0.31637E+08
 
   -0.31991E+08         0.92172E+05         0.00000E+00
    0.92172E+05        -0.73739E+08         0.00000E+00
    0.00000E+00         0.00000E+00        -0.31719E+08
 
   -0.32109E+08         0.76045E+05         0.00000E+00
    0.76045E+05        -0.73898E+08         0.00000E+00
    0.00000E+00         0.00000E+00        -0.31802E+08
 
   -0.32232E+08         0.58510E+05         0.00000E+00
    0.58510E+05        -0.74058E+08         0.00000E+00
    0.00000E+00         0.00000E+00        -0.31887E+08
 
   -0.32359E+08         0.39828E+05         0.00000E+00
    0.39828E+05        -0.74219E+08         0.00000E+00
    0.00000E+00         0.00000E+00        -0.31973E+08
 
   -0.32490E+08         0.20464E+05         0.00000E+00
    0.20464E+05        -0.74379E+08         0.00000E+00
    0.00000E+00         0.00000E+00        -0.32061E+08
 
   -0.32625E+08         0.11624E+04         0.00000E+00
    0.11624E+04        -0.74539E+08         0.00000E+00
    0.00000E+00         0.00000E+00        -0.32149E+08
 
   -0.32765E+08        -0.16947E+05         0.00000E+00
   -0.16947E+05        -0.74697E+08         0.00000E+00
    0.00000E+00         0.00000E+00        -0.32238E+08
 
   -0.32907E+08        -0.32199E+05         0.00000E+00
   -0.32199E+05        -0.74852E+08         0.00000E+00
    0.00000E+00         0.00000E+00        -0.32328E+08
 
   -0.33051E+08        -0.42191E+05         0.00000E+00
   -0.42191E+05        -0.75004E+08         0.00000E+00
    0.00000E+00         0.00000E+00        -0.32416E+08
 
   -0.33196E+08        -0.43732E+05         0.00000E+00
   -0.43732E+05        -0.75147E+08         0.00000E+00
    0.00000E+00         0.00000E+00        -0.32503E+08
 
   -0.33343E+08        -0.33863E+05         0.00000E+00
   -0.33863E+05        -0.75275E+08         0.00000E+00
    0.00000E+00         0.00000E+00        -0.32586E+08
 
   -0.33496E+08        -0.12893E+05         0.00000E+00
   -0.12893E+05        -0.75378E+08         0.00000E+00
    0.00000E+00         0.00000E+00        -0.32662E+08
 
   -0.27982E+08        -0.26850E+04         0.00000E+00
   -0.26850E+04        -0.66141E+08         0.00000E+00
    0.00000E+00         0.00000E+00        -0.28237E+08
 
   -0.28020E+08        -0.67243E+04         0.00000E+00
   -0.67243E+04        -0.66167E+08         0.00000E+00
    0.00000E+00         0.00000E+00        -0.28256E+08
 
   -0.28057E+08        -0.77691E+04         0.00000E+00
   -0.77691E+04        -0.66200E+08         0.00000E+00
    0.00000E+00         0.00000E+00        -0.28277E+08
 
   -0.28093E+08        -0.58665E+04         0.00000E+00
   -0.58665E+04        -0.66236E+08         0.00000E+00
    0.00000E+00         0.00000E+00        -0.28299E+08
 
   -0.28128E+08        -0.18828E+04         0.00000E+00
   -0.18828E+04        -0.66275E+08         0.00000E+00
    0.00000E+00         0.00000E+00        -0.28321E+08
 
   -0.28163E+08         0.33476E+04         0.00000E+00
    0.33476E+04        -0.66315E+08         0.00000E+00
    0.00000E+00         0.00000E+00        -0.28343E+08
 
   -0.28196E+08         0.92381E+04         0.00000E+00
    0.92381E+04        -0.66356E+08         0.00000E+00
    0.00000E+00         0.00000E+00        -0.28366E+08
 
   -0.28229E+08         0.15396E+05         0.00000E+00
    0.15396E+05        -0.66397E+08         0.00000E+00
    0.00000E+00         0.00000E+00        -0.28388E+08
 
   -0.28261E+08         0.21560E+05         0.00000E+00
    0.21560E+05        -0.66439E+08         0.00000E+00
    0.00000E+00         0.00000E+00        -0.28410E+08
 
   -0.28291E+08         0.27559E+05         0.00000E+00
    0.27559E+05        -0.66481E+08         0.00000E+00
    0.00000E+00         0.00000E+00        -0.28432E+08
 
   -0.28320E+08         0.33292E+05         0.00000E+00
    0.33292E+05        -0.66524E+08         0.00000E+00
    0.00000E+00         0.00000E+00        -0.28453E+08
 
   -0.28349E+08         0.38702E+05         0.00000E+00
    0.38702E+05        -0.66568E+08         0.00000E+00
    0.00000E+00         0.00000E+00        -0.28475E+08
 
   -0.28376E+08         0.43768E+05         0.00000E+00
    0.43768E+05        -0.66611E+08         0.00000E+00
    0.00000E+00         0.00000E+00        -0.28496E+08
 
   -0.28403E+08         0.48491E+05         0.00000E+00
    0.48491E+05        -0.66656E+08         0.00000E+00
    0.00000E+00         0.00000E+00        -0.28517E+08
 
   -0.28428E+08         0.52886E+05         0.00000E+00
    0.52886E+05        -0.66700E+08         0.00000E+00
    0.00000E+00         0.00000E+00        -0.28539E+08
 
   -0.28454E+08         0.56980E+05         0.00000E+00
    0.56980E+05        -0.66745E+08         0.00000E+00
    0.00000E+00         0.00000E+00        -0.28560E+08
 
   -0.28478E+08         0.60800E+05         0.00000E+00
    0.60800E+05        -0.66791E+08         0.00000E+00
    0.00000E+00         0.00000E+00        -0.28581E+08
 
   -0.28502E+08         0.64379E+05         0.00000E+00
    0.64379E+05        -0.66837E+08         0.00000E+00
    0.00000E+00         0.00000E+00        -0.28602E+08
 
   -0.28526E+08         0.67748E+05         0.00000E+00
    0.67748E+05        -0.66884E+08         0.00000E+00
    0.00000E+00         0.00000E+00        -0.28623E+08
 
   -0.28549E+08         0.70935E+05         0.00000E+00
    0.70935E+05        -0.66932E+08         0.00000E+00
    0.00000E+00         0.00000E+00        -0.28644E+08
 
   -0.28572E+08         0.73967E+05         0.00000E+00
    0.73967E+05        -0.66980E+08         0.00000E+00
    0.00000E+00         0.00000E+00        -0.28666E+08
 
   -0.28595E+08         0.76869E+05         0.00000E+00
    0.76869E+05        -0.67029E+08         0.00000E+00
    0.00000E+00         0.00000E+00        -0.28687E+08
 
   -0.28618E+08         0.79661E+05         0.00000E+00
    0.79661E+05        -0.67079E+08         0.00000E+00
    0.00000E+00         0.00000E+00        -0.28709E+08
 
   -0.28641E+08         0.82363E+05         0.00000E+00
    0.82363E+05        -0.67130E+08         0.00000E+00
    0.00000E+00         0.00000E+00        -0.28731E+08
 
   -0.28664E+08         0.84990E+05         0.00000E+00
    0.84990E+05        -0.67181E+08         0.00000E+00
    0.00000E+00         0.00000E+00        -0.28753E+08
 
   -0.28687E+08         0.87555E+05         0.00000E+00
    0.87555E+05        -0.67234E+08         0.00000E+00
    0.00000E+00         0.00000E+00        -0.28776E+08
 
   -0.28710E+08         0.90071E+05         0.00000E+00
    0.90071E+05        -0.67287E+08         0.00000E+00
    0.00000E+00         0.00000E+00        -0.28799E+08
 
   -0.28733E+08         0.92548E+05         0.00000E+00
    0.92548E+05        -0.67342E+08         0.00000E+00
    0.00000E+00         0.00000E+00        -0.28822E+08
 
   -0.28756E+08         0.94994E+05         0.00000E+00
    0.94994E+05        -0.67397E+08         0.00000E+00
    0.00000E+00         0.00000E+00        -0.28846E+08
 
   -0.28780E+08         0.97416E+05         0.00000E+00
    0.97416E+05        -0.67454E+08         0.00000E+00
    0.00000E+00         0.00000E+00        -0.28870E+08
 
   -0.28804E+08         0.99820E+05         0.00000E+00
    0.99820E+05        -0.67512E+08         0.00000E+00
    0.00000E+00         0.00000E+00        -0.28895E+08
 
   -0.28828E+08         0.10221E+06         0.00000E+00
    0.10221E+06        -0.67571E+08         0.00000E+00
    0.00000E+00         0.00000E+00        -0.28920E+08
 
   -0.28853E+08         0.10459E+06         0.00000E+00
    0.10459E+06        -0.67631E+08         0.00000E+00
    0.00000E+00         0.00000E+00        -0.28945E+08
 
   -0.28879E+08         0.10697E+06         0.00000E+00
    0.10697E+06        -0.67692E+08         0.00000E+00
    0.00000E+00         0.00000E+00        -0.28971E+08
 
   -0.28904E+08         0.10935E+06         0.00000E+00
    0.10935E+06        -0.67755E+08         0.00000E+00
    0.00000E+00         0.00000E+00        -0.28998E+08
 
   -0.28931E+08         0.11172E+06         0.00000E+00
    0.11172E+06        -0.67819E+08         0.00000E+00
    0.00000E+00         0.00000E+00        -0.29025E+08
 
   -0.28957E+08         0.11409E+06         0.00000E+00
    0.11409E+06        -0.67884E+08         0.00000E+00
    0.00000E+00         0.00000E+00        -0.29053E+08
 
   -0.28985E+08         0.11647E+06         0.00000E+00
    0.11647E+06        -0.67951E+08         0.00000E+00
    0.00000E+00         0.00000E+00        -0.29081E+08
 
   -0.29013E+08         0.11885E+06         0.00000E+00
    0.11885E+06        -0.68020E+08         0.00000E+00
    0.00000E+00         0.00000E+00        -0.29110E+08
 
   -0.29041E+08         0.12123E+06         0.00000E+00
    0.12123E+06        -0.68089E+08         0.00000E+00
    0.00000E+00         0.00000E+00        -0.29139E+08
 
   -0.29071E+08         0.12362E+06         0.00000E+00
    0.12362E+06        -0.68160E+08         0.00000E+00
    0.00000E+00         0.00000E+00        -0.29169E+08
 
   -0.29101E+08         0.12601E+06         0.00000E+00
    0.12601E+06        -0.68233E+08         0.00000E+00
    0.00000E+00         0.00000E+00        -0.29200E+08
 
   -0.29131E+08         0.12839E+06         0.00000E+00
    0.12839E+06        -0.68308E+08         0.00000E+00
    0.00000E+00         0.00000E+00        -0.29232E+08
 
   -0.29163E+08         0.13078E+06         0.00000E+00
    0.13078E+06        -0.68384E+08         0.00000E+00
    0.00000E+00         0.00000E+00        -0.29264E+08
 
   -0.29195E+08         0.13317E+06         0.00000E+00
    0.13317E+06        -0.68461E+08         0.00000E+00
    0.00000E+00         0.00000E+00        -0.29297E+08
 
   -0.29228E+08         0.13555E+06         0.00000E+00
    0.13555E+06        -0.68540E+08         0.00000E+00
    0.00000E+00         0.00000E+00        -0.29331E+08
 
   -0.29262E+08         0.13793E+06         0.00000E+00
    0.13793E+06        -0.68621E+08         0.00000E+00
    0.00000E+00         0.00000E+00        -0.29365E+08
 
   -0.29297E+08         0.14029E+06         0.00000E+00
    0.14029E+06        -0.68704E+08         0.00000E+00
    0.00000E+00         0.00000E+00        -0.29400E+08
 
   -0.29333E+08         0.14264E+06         0.00000E+00
    0.14264E+06        -0.68789E+08         0.00000E+00
    0.00000E+00         0.00000E+00        -0.29437E+08
 
   -0.29370E+08         0.14498E+06         0.00000E+00
    0.14498E+06        -0.68875E+08         0.00000E+00
    0.00000E+00         0.00000E+00        -0.29473E+08
 
   -0.29408E+08         0.14730E+06         0.00000E+00
    0.14730E+06        -0.68963E+08         0.00000E+00
    0.00000E+00         0.00000E+00        -0.29511E+08
 
   -0.29447E+08         0.14959E+06         0.00000E+00
    0.14959E+06        -0.69053E+08         0.00000E+00
    0.00000E+00         0.00000E+00        -0.29550E+08
 
   -0.29486E+08         0.15185E+06         0.00000E+00
    0.15185E+06        -0.69145E+08         0.00000E+00
    0.00000E+00         0.00000E+00        -0.29589E+08
 
   -0.29527E+08         0.15407E+06         0.00000E+00
    0.15407E+06        -0.69238E+08         0.00000E+00
    0.00000E+00         0.00000E+00        -0.29630E+08
 
   -0.29569E+08         0.15625E+06         0.00000E+00
    0.15625E+06        -0.69334E+08         0.00000E+00
    0.00000E+00         0.00000E+00        -0.29671E+08
 
   -0.29613E+08         0.15839E+06         0.00000E+00
    0.15839E+06        -0.69431E+08         0.00000E+00
    0.00000E+00         0.00000E+00        -0.29713E+08
 
   -0.29657E+08         0.16047E+06         0.00000E+00
    0.16047E+06        -0.69531E+08         0.00000E+00
    0.00000E+00         0.00000E+00        -0.29756E+08
 
   -0.29702E+08         0.16248E+06         0.00000E+00
    0.16248E+06        -0.69632E+08         0.00000E+00
    0.00000E+00         0.00000E+00        -0.29800E+08
 
   -0.29749E+08         0.16443E+06         0.00000E+00
    0.16443E+06        -0.69735E+08         0.00000E+00
    0.00000E+00         0.00000E+00        -0.29845E+08
 
   -0.29797E+08         0.16629E+06         0.00000E+00
    0.16629E+06        -0.69841E+08         0.00000E+00
    0.00000E+00         0.00000E+00        -0.29891E+08
 
   -0.29847E+08         0.16807E+06         0.00000E+00
    0.16807E+06        -0.69948E+08         0.00000E+00
    0.00000E+00         0.00000E+00        -0.29938E+08
 
   -0.29897E+08         0.16975E+06         0.00000E+00
    0.16975E+06        -0.70057E+08         0.00000E+00
    0.00000E+00         0.00000E+00        -0.29986E+08
 
   -0.29949E+08         0.17131E+06         0.00000E+00
    0.17131E+06        -0.70169E+08         0.00000E+00
    0.00000E+00         0.00000E+00        -0.30035E+08
 
   -0.30003E+08         0.17276E+06         0.00000E+00
    0.17276E+06        -0.70282E+08         0.00000E+00
    0.00000E+00         0.00000E+00        -0.30085E+08
 
   -0.30058E+08         0.17407E+06         0.00000E+00
    0.17407E+06        -0.70398E+08         0.00000E+00
    0.00000E+00         0.00000E+00        -0.30137E+08
 
   -0.30114E+08         0.17522E+06         0.00000E+00
    0.17522E+06        -0.70515E+08         0.00000E+00
    0.00000E+00         0.00000E+00        -0.30189E+08
 
   -0.30172E+08         0.17622E+06         0.00000E+00
    0.17622E+06        -0.70634E+08         0.00000E+00
    0.00000E+00         0.00000E+00        -0.30242E+08
 
   -0.30232E+08         0.17703E+06         0.00000E+00
    0.17703E+06        -0.70756E+08         0.00000E+00
    0.00000E+00         0.00000E+00        -0.30296E+08
 
   -0.30293E+08         0.17764E+06         0.00000E+00
    0.17764E+06        -0.70879E+08         0.00000E+00
    0.00000E+00         0.00000E+00        -0.30352E+08
 
   -0.30356E+08         0.17803E+06         0.00000E+00
    0.17803E+06        -0.71005E+08         0.00000E+00
    0.00000E+00         0.00000E+00        -0.30408E+08
 
   -0.30421E+08         0.17818E+06         0.00000E+00
    0.17818E+06        -0.71132E+08         0.00000E+00
    0.00000E+00         0.00000E+00        -0.30466E+08
 
   -0.30487E+08         0.17805E+06         0.00000E+00
    0.17805E+06        -0.71261E+08         0.00000E+00
    0.00000E+00         0.00000E+00        -0.30525E+08
 
   -0.30556E+08         0.17763E+06         0.00000E+00
    0.17763E+06        -0.71393E+08         0.00000E+00
    0.00000E+00         0.00000E+00        -0.30585E+08
 
   -0.30626E+08         0.17688E+06         0.00000E+00
    0.17688E+06        -0.71526E+08         0.00000E+00
    0.00000E+00         0.00000E+00        -0.30646E+08
 
   -0.30699E+08         0.17577E+06         0.00000E+00
    0.17577E+06        -0.71661E+08         0.00000E+00
    0.00000E+00         0.00000E+00        -0.30708E+08
 
   -0.30773E+08         0.17424E+06         0.00000E+00
    0.17424E+06        -0.71798E+08         0.00000E+00
    0.00000E+00         0.00000E+00        -0.30771E+08
 
   -0.30850E+08         0.17226E+06         0.00000E+00
    0.17226E+06        -0.71937E+08         0.00000E+00
    0.00000E+00         0.00000E+00        -0.30836E+08
 
   -0.30929E+08         0.16976E+06         0.00000E+00
    0.16976E+06        -0.72077E+08         0.00000E+00
    0.00000E+00         0.00000E+00        -0.30902E+08
 
   -0.31011E+08         0.16669E+06         0.00000E+00
    0.16669E+06        -0.72220E+08         0.00000E+00
    0.00000E+00         0.00000E+00        -0.30969E+08
 
   -0.31095E+08         0.16297E+06         0.00000E+00
    0.16297E+06        -0.72364E+08         0.00000E+00
    0.00000E+00         0.00000E+00        -0.31038E+08
 
   -0.31182E+08         0.15851E+06         0.00000E+00
    0.15851E+06        -0.72510E+08         0.00000E+00
    0.00000E+00         0.00000E+00        -0.31108E+08
 
   -0.31272E+08         0.15324E+06         0.00000E+00
    0.15324E+06        -0.72658E+08         0.00000E+00
    0.00000E+00         0.00000E+00        -0.31179E+08
 
   -0.31365E+08         0.14703E+06         0.00000E+00
    0.14703E+06        -0.72807E+08         0.00000E+00
    0.00000E+00         0.00000E+00        -0.31252E+08
 
   -0.31462E+08         0.13980E+06         0.00000E+00
    0.13980E+06        -0.72958E+08         0.00000E+00
    0.00000E+00         0.00000E+00        -0.31326E+08
 
   -0.31561E+08         0.13142E+06         0.00000E+00
    0.13142E+06        -0.73111E+08         0.00000E+00
    0.00000E+00         0.00000E+00        -0.31402E+08
 
   -0.31664E+08         0.12177E+06         0.00000E+00
    0.12177E+06        -0.73265E+08         0.00000E+00
    0.00000E+00         0.00000E+00        -0.31479E+08
 
   -0.31772E+08         0.11076E+06         0.00000E+00
    0.11076E+06        -0.73421E+08         0.00000E+00
    0.00000E+00         0.00000E+00        -0.31558E+08
 
   -0.31883E+08         0.98301E+05         0.00000E+00
    0.98301E+05        -0.73578E+08         0.00000E+00
    0.00000E+00         0.00000E+00        -0.31638E+08
 
   -0.31998E+08         0.84341E+05         0.00000E+00
    0.84341E+05        -0.73736E+08         0.00000E+00
    0.00000E+00         0.00000E+00        -0.31720E+08
 
   -0.32118E+08         0.68899E+05         0.00000E+00
    0.68899E+05        -0.73895E+08         0.00000E+00
    0.00000E+00         0.00000E+00        -0.31804E+08
 
   -0.32242E+08         0.52084E+05         0.00000E+00
    0.52084E+05        -0.74055E+08         0.00000E+00
    0.00000E+00         0.00000E+00        -0.31889E+08
 
   -0.32371E+08         0.34142E+05         0.00000E+00
    0.34142E+05        -0.74215E+08         0.00000E+00
    0.00000E+00         0.00000E+00        -0.31976E+08
 
   -0.32505E+08         0.15512E+05         0.00000E+00
    0.15512E+05        -0.74375E+08         0.00000E+00
    0.00000E+00         0.00000E+00        -0.32064E+08
 
   -0.32643E+08        -0.31045E+04         0.00000E+00
   -0.31045E+04        -0.74535E+08         0.00000E+00
    0.00000E+00         0.00000E+00        -0.32153E+08
 
   -0.32784E+08        -0.20634E+05         0.00000E+00
   -0.20634E+05        -0.74693E+08         0.00000E+00
    0.00000E+00         0.00000E+00        -0.32243E+08
 
   -0.32929E+08        -0.35485E+05         0.00000E+00
   -0.35485E+05        -0.74850E+08         0.00000E+00
    0.00000E+00         0.00000E+00        -0.32334E+08
 
   -0.33076E+08        -0.45295E+05         0.00000E+00
   -0.45295E+05        -0.75002E+08         0.00000E+00
    0.00000E+00         0.00000E+00        -0.32423E+08
 
   -0.33223E+08        -0.46722E+05         0.00000E+00
   -0.46722E+05        -0.75148E+08         0.00000E+00
    0.00000E+00         0.00000E+00        -0.32511E+08
 
   -0.33372E+08        -0.36311E+05         0.00000E+00
   -0.36311E+05        -0.75278E+08         0.00000E+00
    0.00000E+00         0.00000E+00        -0.32595E+08
 
   -0.33525E+08        -0.13886E+05         0.00000E+00
   -0.13886E+05        -0.75383E+08         0.00000E+00
    0.00000E+00         0.00000E+00        -0.32672E+08
 
   -0.27974E+08        -0.29755E+04         0.00000E+00
   -0.29755E+04        -0.66139E+08         0.00000E+00
    0.00000E+00         0.00000E+00        -0.28234E+08
 
   -0.28012E+08        -0.74404E+04         0.00000E+00
   -0.74404E+04        -0.66166E+08         0.00000E+00
    0.00000E+00         0.00000E+00        -0.28254E+08
 
   -0.28049E+08        -0.86595E+04         0.00000E+00
   -0.86595E+04        -0.66200E+08         0.00000E+00
    0.00000E+00         0.00000E+00        -0.28275E+08
 
   -0.28085E+08        -0.68377E+04         0.00000E+00
   -0.68377E+04        -0.66237E+08         0.00000E+00
    0.00000E+00         0.00000E+00        -0.28297E+08
 
   -0.28121E+08        -0.29782E+04         0.00000E+00
   -0.29782E+04        -0.66276E+08         0.00000E+00
    0.00000E+00         0.00000E+00        -0.28319E+08
 
   -0.28157E+08         0.20569E+04         0.00000E+00
    0.20569E+04        -0.66316E+08         0.00000E+00
    0.00000E+00         0.00000E+00        -0.28342E+08
 
   -0.28191E+08         0.76994E+04         0.00000E+00
    0.76994E+04        -0.66357E+08         0.00000E+00
    0.00000E+00         0.00000E+00        -0.28364E+08
 
   -0.28224E+08         0.13578E+05         0.00000E+00
    0.13578E+05        -0.66398E+08         0.00000E+00
    0.00000E+00         0.00000E+00        -0.28387E+08
 
   -0.28256E+08         0.19447E+05         0.00000E+00
    0.19447E+05        -0.66440E+08         0.00000E+00
    0.00000E+00         0.00000E+00        -0.28409E+08
 
   -0.28287E+08         0.25149E+05         0.00000E+00
    0.25149E+05        -0.66482E+08         0.00000E+00
    0.00000E+00         0.00000E+00        -0.28431E+08
 
   -0.28317E+08         0.30588E+05         0.00000E+00
    0.30588E+05        -0.66525E+08         0.00000E+00
    0.00000E+00         0.00000E+00        -0.28453E+08
 
   -0.28346E+08         0.35712E+05         0.00000E+00
    0.35712E+05        -0.66569E+08         0.00000E+00
    0.00000E+00         0.00000E+00        -0.28474E+08
 
   -0.28373E+08         0.40502E+05         0.00000E+00
    0.40502E+05        -0.66612E+08         0.00000E+00
    0.00000E+00         0.00000E+00        -0.28496E+08
 
   -0.28400E+08         0.44960E+05         0.00000E+00
    0.44960E+05        -0.66656E+08         0.00000E+00
    0.00000E+00         0.00000E+00        -0.28517E+08
 
   -0.28426E+08         0.49103E+05         0.00000E+00
    0.49103E+05        -0.66701E+08         0.00000E+00
    0.00000E+00         0.00000E+00        -0.28538E+08
 
   -0.28451E+08         0.52954E+05         0.00000E+00
    0.52954E+05        -0.66746E+08         0.00000E+00
    0.00000E+00         0.00000E+00        -0.28559E+08
 
   -0.28476E+08         0.56544E+05         0.00000E+00
    0.56544E+05        -0.66792E+08         0.00000E+00
    0.00000E+00         0.00000E+00        -0.28580E+08
 
   -0.28500E+08         0.59902E+05         0.00000E+00
    0.59902E+05        -0.66838E+08         0.00000E+00
    0.00000E+00         0.00000E+00        -0.28601E+08
 
   -0.28523E+08         0.63059E+05         0.00000E+00
    0.63059E+05        -0.66885E+08         0.00000E+00
    0.00000E+00         0.00000E+00        -0.28623E+08
 
   -0.28547E+08         0.66043E+05         0.00000E+00
    0.66043E+05        -0.66932E+08         0.00000E+00
    0.00000E+00         0.00000E+00        -0.28644E+08
 
   -0.28570E+08         0.68879E+05         0.00000E+00
    0.68879E+05        -0.66981E+08         0.00000E+00
    0.00000E+00         0.00000E+00        -0.28665E+08
 
   -0.28593E+08         0.71591E+05         0.00000E+00
    0.71591E+05        -0.67030E+08         0.00000E+00
    0.00000E+00         0.00000E+00        -0.28687E+08
 
   -0.28616E+08         0.74198E+05         0.00000E+00
    0.74198E+05        -0.67080E+08         0.00000E+00
    0.00000E+00         0.00000E+00        -0.28709E+08
 
   -0.28638E+08         0.76720E+05         0.00000E+00
    0.76720E+05        -0.67130E+08         0.00000E+00
    0.00000E+00         0.00000E+00        -0.28731E+08
 
   -0.28661E+08         0.79170E+05         0.00000E+00
    0.79170E+05        -0.67182E+08         0.00000E+00
    0.00000E+00         0.00000E+00        -0.28753E+08
 
   -0.28684E+08         0.81563E+05         0.00000E+00
    0.81563E+05        -0.67234E+08         0.00000E+00
    0.00000E+00         0.00000E+00        -0.28776E+08
 
   -0.28707E+08         0.83909E+05         0.00000E+00
    0.83909E+05        -0.67288E+08         0.00000E+00
    0.00000E+00         0.00000E+00        -0.28798E+08
 
   -0.28730E+08         0.86218E+05         0.00000E+00
    0.86218E+05        -0.67342E+08         0.00000E+00
    0.00000E+00         0.00000E+00        -0.28822E+08
 
   -0.28754E+08         0.88497E+05         0.00000E+00
    0.88497E+05        -0.67398E+08         0.00000E+00
    0.00000E+00         0.00000E+00        -0.28845E+08
 
   -0.28778E+08         0.90754E+05         0.00000E+00
    0.90754E+05        -0.67454E+08         0.00000E+00
    0.00000E+00         0.00000E+00        -0.28870E+08
 
   -0.28802E+08         0.92994E+05         0.00000E+00
    0.92994E+05        -0.67512E+08         0.00000E+00
    0.00000E+00         0.00000E+00        -0.28894E+08
 
   -0.28826E+08         0.95221E+05         0.00000E+00
    0.95221E+05        -0.67571E+08         0.00000E+00
    0.00000E+00         0.00000E+00        -0.28919E+08
 
   -0.28851E+08         0.97440E+05         0.00000E+00
    0.97440E+05        -0.67631E+08         0.00000E+00
    0.00000E+00         0.00000E+00        -0.28945E+08
 
   -0.28876E+08         0.99654E+05         0.00000E+00
    0.99654E+05        -0.67693E+08         0.00000E+00
    0.00000E+00         0.00000E+00        -0.28971E+08
 
   -0.28902E+08         0.10186E+06         0.00000E+00
    0.10186E+06        -0.67755E+08         0.00000E+00
    0.00000E+00         0.00000E+00        -0.28997E+08
 
   -0.28928E+08         0.10407E+06         0.00000E+00
    0.10407E+06        -0.67820E+08         0.00000E+00
    0.00000E+00         0.00000E+00        -0.29024E+08
 
   -0.28955E+08         0.10629E+06         0.00000E+00
    0.10629E+06        -0.67885E+08         0.00000E+00
    0.00000E+00         0.00000E+00        -0.29052E+08
 
   -0.28982E+08         0.10850E+06         0.00000E+00
    0.10850E+06        -0.67952E+08         0.00000E+00
    0.00000E+00         0.00000E+00        -0.29080E+08
 
   -0.29010E+08         0.11071E+06         0.00000E+00
    0.11071E+06        -0.68020E+08         0.00000E+00
    0.00000E+00         0.00000E+00        -0.29109E+08
 
   -0.29038E+08         0.11293E+06         0.00000E+00
    0.11293E+06        -0.68090E+08         0.00000E+00
    0.00000E+00         0.00000E+00        -0.29138E+08
 
   -0.29068E+08         0.11515E+06         0.00000E+00
    0.11515E+06        -0.68161E+08         0.00000E+00
    0.00000E+00         0.00000E+00        -0.29169E+08
 
   -0.29098E+08         0.11737E+06         0.00000E+00
    0.11737E+06        -0.68234E+08         0.00000E+00
    0.00000E+00         0.00000E+00        -0.29199E+08
 
   -0.29128E+08         0.11959E+06         0.00000E+00
    0.11959E+06        -0.68308E+08         0.00000E+00
    0.00000E+00         0.00000E+00        -0.29231E+08
 
   -0.29160E+08         0.12181E+06         0.00000E+00
    0.12181E+06        -0.68384E+08         0.00000E+00
    0.00000E+00         0.00000E+00        -0.29263E+08
 
   -0.29192E+08         0.12403E+06         0.00000E+00
    0.12403E+06        -0.68462E+08         0.00000E+00
    0.00000E+00         0.00000E+00        -0.29296E+08
 
   -0.29225E+08         0.12625E+06         0.00000E+00
    0.12625E+06        -0.68541E+08         0.00000E+00
    0.00000E+00         0.00000E+00        -0.29330E+08
 
   -0.29259E+08         0.12846E+06         0.00000E+00
    0.12846E+06        -0.68622E+08         0.00000E+00
    0.00000E+00         0.00000E+00        -0.29364E+08
 
   -0.29294E+08         0.13065E+06         0.00000E+00
    0.13065E+06        -0.68704E+08         0.00000E+00
    0.00000E+00         0.00000E+00        -0.29400E+08
 
   -0.29330E+08         0.13284E+06         0.00000E+00
    0.13284E+06        -0.68789E+08         0.00000E+00
    0.00000E+00         0.00000E+00        -0.29436E+08
 
   -0.29367E+08         0.13501E+06         0.00000E+00
    0.13501E+06        -0.68875E+08         0.00000E+00
    0.00000E+00         0.00000E+00        -0.29473E+08
 
   -0.29405E+08         0.13716E+06         0.00000E+00
    0.13716E+06        -0.68963E+08         0.00000E+00
    0.00000E+00         0.00000E+00        -0.29510E+08
 
   -0.29443E+08         0.13929E+06         0.00000E+00
    0.13929E+06        -0.69053E+08         0.00000E+00
    0.00000E+00         0.00000E+00        -0.29549E+08
 
   -0.29483E+08         0.14139E+06         0.00000E+00
    0.14139E+06        -0.69145E+08         0.00000E+00
    0.00000E+00         0.00000E+00        -0.29588E+08
 
   -0.29524E+08         0.14345E+06         0.00000E+00
    0.14345E+06        -0.69239E+08         0.00000E+00
    0.00000E+00         0.00000E+00        -0.29629E+08
 
   -0.29566E+08         0.14548E+06         0.00000E+00
    0.14548E+06        -0.69334E+08         0.00000E+00
    0.00000E+00         0.00000E+00        -0.29670E+08
 
   -0.29609E+08         0.14746E+06         0.00000E+00
    0.14746E+06        -0.69432E+08         0.00000E+00
    0.00000E+00         0.00000E+00        -0.29712E+08
 
   -0.29654E+08         0.14939E+06         0.00000E+00
    0.14939E+06        -0.69531E+08         0.00000E+00
    0.00000E+00         0.00000E+00        -0.29755E+08
 
   -0.29699E+08         0.15126E+06         0.00000E+00
    0.15126E+06        -0.69632E+08         0.00000E+00
    0.00000E+00         0.00000E+00        -0.29799E+08
 
   -0.29746E+08         0.15306E+06         0.00000E+00
    0.15306E+06        -0.69736E+08         0.00000E+00
    0.00000E+00         0.00000E+00        -0.29845E+08
 
   -0.29794E+08         0.15479E+06         0.00000E+00
    0.15479E+06        -0.69841E+08         0.00000E+00
    0.00000E+00         0.00000E+00        -0.29891E+08
 
   -0.29843E+08         0.15644E+06         0.00000E+00
    0.15644E+06        -0.69948E+08         0.00000E+00
    0.00000E+00         0.00000E+00        -0.29938E+08
 
   -0.29894E+08         0.15799E+06         0.00000E+00
    0.15799E+06        -0.70058E+08         0.00000E+00
    0.00000E+00         0.00000E+00        -0.29986E+08
 
   -0.29946E+08         0.15944E+06         0.00000E+00
    0.15944E+06        -0.70169E+08         0.00000E+00
    0.00000E+00         0.00000E+00        -0.30035E+08
 
   -0.30000E+08         0.16077E+06         0.00000E+00
    0.16077E+06        -0.70282E+08         0.00000E+00
    0.00000E+00         0.00000E+00        -0.30085E+08
 
   -0.30055E+08         0.16198E+06         0.00000E+00
    0.16198E+06        -0.70398E+08         0.00000E+00
    0.00000E+00         0.00000E+00        -0.30136E+08
 
   -0.30111E+08         0.16305E+06         0.00000E+00
    0.16305E+06        -0.70515E+08         0.00000E+00
    0.00000E+00         0.00000E+00        -0.30188E+08
 
   -0.30170E+08         0.16396E+06         0.00000E+00
    0.16396E+06        -0.70635E+08         0.00000E+00
    0.00000E+00         0.00000E+00        -0.30241E+08
 
   -0.30229E+08         0.16470E+06         0.00000E+00
    0.16470E+06        -0.70756E+08         0.00000E+00
    0.00000E+00         0.00000E+00        -0.30296E+08
 
   -0.30291E+08         0.16526E+06         0.00000E+00
    0.16526E+06        -0.70879E+08         0.00000E+00
    0.00000E+00         0.00000E+00        -0.30351E+08
 
   -0.30354E+08         0.16560E+06         0.00000E+00
    0.16560E+06        -0.71005E+08         0.00000E+00
    0.00000E+00         0.00000E+00        -0.30408E+08
 
   -0.30419E+08         0.16573E+06         0.00000E+00
    0.16573E+06        -0.71132E+08         0.00000E+00
    0.00000E+00         0.00000E+00        -0.30465E+08
 
   -0.30485E+08         0.16560E+06         0.00000E+00
    0.16560E+06        -0.71261E+08         0.00000E+00
    0.00000E+00         0.00000E+00        -0.30524E+08
 
   -0.30554E+08         0.16519E+06         0.00000E+00
    0.16519E+06        -0.71392E+08         0.00000E+00
    0.00000E+00         0.00000E+00        -0.30584E+08
 
   -0.30625E+08         0.16447E+06         0.00000E+00
    0.16447E+06        -0.71526E+08         0.00000E+00
    0.00000E+00         0.00000E+00        -0.30645E+08
 
   -0.30697E+08         0.16341E+06         0.00000E+00
    0.16341E+06        -0.71661E+08         0.00000E+00
    0.00000E+00         0.00000E+00        -0.30707E+08
 
   -0.30772E+08         0.16197E+06         0.00000E+00
    0.16197E+06        -0.71798E+08         0.00000E+00
    0.00000E+00         0.00000E+00        -0.30771E+08
 
   -0.30849E+08         0.16009E+06         0.00000E+00
    0.16009E+06        -0.71936E+08         0.00000E+00
    0.00000E+00         0.00000E+00        -0.30836E+08
 
   -0.30929E+08         0.15773E+06         0.00000E+00
    0.15773E+06        -0.72077E+08         0.00000E+00
    0.00000E+00         0.00000E+00        -0.30902E+08
 
   -0.31011E+08         0.15484E+06         0.00000E+00
    0.15484E+06        -0.72219E+08         0.00000E+00
    0.00000E+00         0.00000E+00        -0.30969E+08
 
   -0.31096E+08         0.15132E+06         0.00000E+00
    0.15132E+06        -0.72363E+08         0.00000E+00
    0.00000E+00         0.00000E+00        -0.31038E+08
 
   -0.31183E+08         0.14712E+06         0.00000E+00
    0.14712E+06        -0.72509E+08         0.00000E+00
    0.00000E+00         0.00000E+00        -0.31108E+08
 
   -0.31273E+08         0.14214E+06         0.00000E+00
    0.14214E+06        -0.72657E+08         0.00000E+00
    0.00000E+00         0.00000E+00        -0.31179E+08
 
   -0.31367E+08         0.13628E+06         0.00000E+00
    0.13628E+06        -0.72806E+08         0.00000E+00
    0.00000E+00         0.00000E+00        -0.31252E+08
 
   -0.31464E+08         0.12944E+06         0.00000E+00
    0.12944E+06        -0.72957E+08         0.00000E+00
    0.00000E+00         0.00000E+00        -0.31326E+08
 
   -0.31564E+08         0.12151E+06         0.00000E+00
    0.12151E+06        -0.73109E+08         0.00000E+00
    0.00000E+00         0.00000E+00        -0.31402E+08
 
   -0.31668E+08         0.11236E+06         0.00000E+00
    0.11236E+06        -0.73263E+08         0.00000E+00
    0.00000E+00         0.00000E+00        -0.31479E+08
 
   -0.31776E+08         0.10192E+06         0.00000E+00
    0.10192E+06        -0.73419E+08         0.00000E+00
    0.00000E+00         0.00000E+00        -0.31558E+08
 
   -0.31888E+08         0.90074E+05         0.00000E+00
    0.90074E+05        -0.73575E+08         0.00000E+00
    0.00000E+00         0.00000E+00        -0.31639E+08
 
   -0.32005E+08         0.76791E+05         0.00000E+00
    0.76791E+05        -0.73733E+08         0.00000E+00
    0.00000E+00         0.00000E+00        -0.31721E+08
 
   -0.32126E+08         0.62076E+05         0.00000E+00
    0.62076E+05        -0.73892E+08         0.00000E+00
    0.00000E+00         0.00000E+00        -0.31805E+08
 
   -0.32252E+08         0.46030E+05         0.00000E+00
    0.46030E+05        -0.74051E+08         0.00000E+00
    0.00000E+00         0.00000E+00        -0.31891E+08
 
   -0.32383E+08         0.28879E+05         0.00000E+00
    0.28879E+05        -0.74211E+08         0.00000E+00
    0.00000E+00         0.00000E+00        -0.31978E+08
 
   -0.32519E+08         0.11032E+05         0.00000E+00
    0.11032E+05        -0.74371E+08         0.00000E+00
    0.00000E+00         0.00000E+00        -0.32067E+08
 
   -0.32659E+08        -0.68529E+04         0.00000E+00
   -0.68529E+04        -0.74531E+08         0.00000E+00
    0.00000E+00         0.00000E+00        -0.32157E+08
 
   -0.32804E+08        -0.23771E+05         0.00000E+00
   -0.23771E+05        -0.74690E+08         0.00000E+00
    0.00000E+00         0.00000E+00        -0.32248E+08
 
   -0.32952E+08        -0.38216E+05         0.00000E+00
   -0.38216E+05        -0.74847E+08         0.00000E+00
    0.00000E+00         0.00000E+00        -0.32340E+08
 
   -0.33101E+08        -0.47900E+05         0.00000E+00
   -0.47900E+05        -0.75001E+08         0.00000E+00
    0.00000E+00         0.00000E+00        -0.32431E+08
 
   -0.33251E+08        -0.49371E+05         0.00000E+00
   -0.49371E+05        -0.75148E+08         0.00000E+00
    0.00000E+00         0.00000E+00        -0.32520E+08
 
   -0.33400E+08        -0.38627E+05         0.00000E+00
   -0.38627E+05        -0.75282E+08         0.00000E+00
    0.00000E+00         0.00000E+00        -0.32605E+08
 
   -0.33554E+08        -0.14865E+05         0.00000E+00
   -0.14865E+05        -0.75389E+08         0.00000E+00
    0.00000E+00         0.00000E+00        -0.32683E+08
 
   -0.27966E+08        -0.32634E+04         0.00000E+00
   -0.32634E+04        -0.66138E+08         0.00000E+00
    0.00000E+00         0.00000E+00        -0.28231E+08
 
   -0.28004E+08        -0.81200E+04         0.00000E+00
   -0.81200E+04        -0.66166E+08         0.00000E+00
    0.00000E+00         0.00000E+00        -0.28251E+08
 
   -0.28041E+08        -0.94560E+04         0.00000E+00
   -0.94560E+04        -0.66200E+08         0.00000E+00
    0.00000E+00         0.00000E+00        -0.28272E+08
 
   -0.28078E+08        -0.76779E+04         0.00000E+00
   -0.76779E+04        -0.66238E+08         0.00000E+00
    0.00000E+00         0.00000E+00        -0.28295E+08
 
   -0.28115E+08        -0.39340E+04         0.00000E+00
   -0.39340E+04        -0.66277E+08         0.00000E+00
    0.00000E+00         0.00000E+00        -0.28317E+08
 
   -0.28151E+08         0.89937E+03         0.00000E+00
    0.89937E+03        -0.66317E+08         0.00000E+00
    0.00000E+00         0.00000E+00        -0.28340E+08
 
   -0.28186E+08         0.62817E+04         0.00000E+00
    0.62817E+04        -0.66358E+08         0.00000E+00
    0.00000E+00         0.00000E+00        -0.28363E+08
 
   -0.28220E+08         0.11867E+05         0.00000E+00
    0.11867E+05        -0.66399E+08         0.00000E+00
    0.00000E+00         0.00000E+00        -0.28386E+08
 
   -0.28252E+08         0.17428E+05         0.00000E+00
    0.17428E+05        -0.66441E+08         0.00000E+00
    0.00000E+00         0.00000E+00        -0.28408E+08
 
   -0.28283E+08         0.22818E+05         0.00000E+00
    0.22818E+05        -0.66484E+08         0.00000E+00
    0.00000E+00         0.00000E+00        -0.28430E+08
 
   -0.28313E+08         0.27949E+05         0.00000E+00
    0.27949E+05        -0.66526E+08         0.00000E+00
    0.00000E+00         0.00000E+00        -0.28452E+08
 
   -0.28342E+08         0.32775E+05         0.00000E+00
    0.32775E+05        -0.66570E+08         0.00000E+00
    0.00000E+00         0.00000E+00        -0.28474E+08
 
   -0.28370E+08         0.37279E+05         0.00000E+00
    0.37279E+05        -0.66613E+08         0.00000E+00
    0.00000E+00         0.00000E+00        -0.28495E+08
 
   -0.28397E+08         0.41463E+05         0.00000E+00
    0.41463E+05        -0.66657E+08         0.00000E+00
    0.00000E+00         0.00000E+00        -0.28516E+08
 
   -0.28423E+08         0.45345E+05         0.00000E+00
    0.45345E+05        -0.66702E+08         0.00000E+00
    0.00000E+00         0.00000E+00        -0.28537E+08
 
   -0.28449E+08         0.48949E+05         0.00000E+00
    0.48949E+05        -0.66747E+08         0.00000E+00
    0.00000E+00         0.00000E+00        -0.28559E+08
 
   -0.28473E+08         0.52303E+05         0.00000E+00
    0.52303E+05        -0.66792E+08         0.00000E+00
    0.00000E+00         0.00000E+00        -0.28580E+08
 
   -0.28497E+08         0.55436E+05         0.00000E+00
    0.55436E+05        -0.66839E+08         0.00000E+00
    0.00000E+00         0.00000E+00        -0.28601E+08
 
   -0.28521E+08         0.58377E+05         0.00000E+00
    0.58377E+05        -0.66885E+08         0.00000E+00
    0.00000E+00         0.00000E+00        -0.28622E+08
 
   -0.28545E+08         0.61155E+05         0.00000E+00
    0.61155E+05        -0.66933E+08         0.00000E+00
    0.00000E+00         0.00000E+00        -0.28643E+08
 
   -0.28568E+08         0.63792E+05         0.00000E+00
    0.63792E+05        -0.66981E+08         0.00000E+00
    0.00000E+00         0.00000E+00        -0.28665E+08
 
   -0.28591E+08         0.66312E+05         0.00000E+00
    0.66312E+05        -0.67030E+08         0.00000E+00
    0.00000E+00         0.00000E+00        -0.28686E+08
 
   -0.28613E+08         0.68733E+05         0.00000E+00
    0.68733E+05        -0.67080E+08         0.00000E+00
    0.00000E+00         0.00000E+00        -0.28708E+08
 
   -0.28636E+08         0.71074E+05         0.00000E+00
    0.71074E+05        -0.67131E+08         0.00000E+00
    0.00000E+00         0.00000E+00        -0.28730E+08
 
   -0.28659E+08         0.73347E+05         0.00000E+00
    0.73347E+05        -0.67182E+08         0.00000E+00
    0.00000E+00         0.00000E+00        -0.28752E+08
 
   -0.28682E+08         0.75566E+05         0.00000E+00
    0.75566E+05        -0.67235E+08         0.00000E+00
    0.00000E+00         0.00000E+00        -0.28775E+08
 
   -0.28705E+08         0.77741E+05         0.00000E+00
    0.77741E+05        -0.67288E+08         0.00000E+00
    0.00000E+00         0.00000E+00        -0.28798E+08
 
   -0.28728E+08         0.79881E+05         0.00000E+00
    0.79881E+05        -0.67343E+08         0.00000E+00
    0.00000E+00         0.00000E+00        -0.28821E+08
 
   -0.28751E+08         0.81994E+05         0.00000E+00
    0.81994E+05        -0.67398E+08         0.00000E+00
    0.00000E+00         0.00000E+00        -0.28845E+08
 
   -0.28775E+08         0.84085E+05         0.00000E+00
    0.84085E+05        -0.67455E+08         0.00000E+00
    0.00000E+00         0.00000E+00        -0.28869E+08
 
   -0.28799E+08         0.86160E+05         0.00000E+00
    0.86160E+05        -0.67513E+08         0.00000E+00
    0.00000E+00         0.00000E+00        -0.28894E+08
 
   -0.28823E+08         0.88223E+05         0.00000E+00
    0.88223E+05        -0.67572E+08         0.00000E+00
    0.00000E+00         0.00000E+00        -0.28919E+08
 
   -0.28848E+08         0.90278E+05         0.00000E+00
    0.90278E+05        -0.67632E+08         0.00000E+00
    0.00000E+00         0.00000E+00        -0.28944E+08
 
   -0.28873E+08         0.92328E+05         0.00000E+00
    0.92328E+05        -0.67693E+08         0.00000E+00
    0.00000E+00         0.00000E+00        -0.28970E+08
 
   -0.28899E+08         0.94376E+05         0.00000E+00
    0.94376E+05        -0.67756E+08         0.00000E+00
    0.00000E+00         0.00000E+00        -0.28996E+08
 
   -0.28925E+08         0.96422E+05         0.00000E+00
    0.96422E+05        -0.67820E+08         0.00000E+00
    0.00000E+00         0.00000E+00        -0.29024E+08
 
   -0.28952E+08         0.98469E+05         0.00000E+00
    0.98469E+05        -0.67885E+08         0.00000E+00
    0.00000E+00         0.00000E+00        -0.29051E+08
 
   -0.28979E+08         0.10052E+06         0.00000E+00
    0.10052E+06        -0.67952E+08         0.00000E+00
    0.00000E+00         0.00000E+00        -0.29079E+08
 
   -0.29007E+08         0.10257E+06         0.00000E+00
    0.10257E+06        -0.68020E+08         0.00000E+00
    0.00000E+00         0.00000E+00        -0.29108E+08
 
   -0.29036E+08         0.10462E+06         0.00000E+00
    0.10462E+06        -0.68090E+08         0.00000E+00
    0.00000E+00         0.00000E+00        -0.29138E+08
 
   -0.29065E+08         0.10667E+06         0.00000E+00
    0.10667E+06        -0.68161E+08         0.00000E+00
    0.00000E+00         0.00000E+00        -0.29168E+08
 
   -0.29095E+08         0.10873E+06         0.00000E+00
    0.10873E+06        -0.68234E+08         0.00000E+00
    0.00000E+00         0.00000E+00        -0.29199E+08
 
   -0.29125E+08         0.11078E+06         0.00000E+00
    0.11078E+06        -0.68308E+08         0.00000E+00
    0.00000E+00         0.00000E+00        -0.29230E+08
 
   -0.29157E+08         0.11284E+06         0.00000E+00
    0.11284E+06        -0.68384E+08         0.00000E+00
    0.00000E+00         0.00000E+00        -0.29262E+08
 
   -0.29189E+08         0.11489E+06         0.00000E+00
    0.11489E+06        -0.68462E+08         0.00000E+00
    0.00000E+00         0.00000E+00        -0.29295E+08
 
   -0.29222E+08         0.11694E+06         0.00000E+00
    0.11694E+06        -0.68541E+08         0.00000E+00
    0.00000E+00         0.00000E+00        -0.29329E+08
 
   -0.29256E+08         0.11898E+06         0.00000E+00
    0.11898E+06        -0.68622E+08         0.00000E+00
    0.00000E+00         0.00000E+00        -0.29364E+08
 
   -0.29291E+08         0.12101E+06         0.00000E+00
    0.12101E+06        -0.68705E+08         0.00000E+00
    0.00000E+00         0.00000E+00        -0.29399E+08
 
   -0.29327E+08         0.12303E+06         0.00000E+00
    0.12303E+06        -0.68789E+08         0.00000E+00
    0.00000E+00         0.00000E+00        -0.29435E+08
 
   -0.29364E+08         0.12504E+06         0.00000E+00
    0.12504E+06        -0.68876E+08         0.00000E+00
    0.00000E+00         0.00000E+00        -0.29472E+08
 
   -0.29401E+08         0.12703E+06         0.00000E+00
    0.12703E+06        -0.68964E+08         0.00000E+00
    0.00000E+00         0.00000E+00        -0.29510E+08
 
   -0.29440E+08         0.12899E+06         0.00000E+00
    0.12899E+06        -0.69054E+08         0.00000E+00
    0.00000E+00         0.00000E+00        -0.29548E+08
 
   -0.29480E+08         0.13093E+06         0.00000E+00
    0.13093E+06        -0.69145E+08         0.00000E+00
    0.00000E+00         0.00000E+00        -0.29588E+08
 
   -0.29521E+08         0.13284E+06         0.00000E+00
    0.13284E+06        -0.69239E+08         0.00000E+00
    0.00000E+00         0.00000E+00        -0.29628E+08
 
   -0.29563E+08         0.13471E+06         0.00000E+00
    0.13471E+06        -0.69335E+08         0.00000E+00
    0.00000E+00         0.00000E+00        -0.29669E+08
 
   -0.29606E+08         0.13654E+06         0.00000E+00
    0.13654E+06        -0.69432E+08         0.00000E+00
    0.00000E+00         0.00000E+00        -0.29711E+08
 
   -0.29651E+08         0.13832E+06         0.00000E+00
    0.13832E+06        -0.69531E+08         0.00000E+00
    0.00000E+00         0.00000E+00        -0.29755E+08
 
   -0.29696E+08         0.14004E+06         0.00000E+00
    0.14004E+06        -0.69633E+08         0.00000E+00
    0.00000E+00         0.00000E+00        -0.29799E+08
 
   -0.29743E+08         0.14170E+06         0.00000E+00
    0.14170E+06        -0.69736E+08         0.00000E+00
    0.00000E+00         0.00000E+00        -0.29844E+08
 
   -0.29791E+08         0.14330E+06         0.00000E+00
    0.14330E+06        -0.69841E+08         0.00000E+00
    0.00000E+00         0.00000E+00        -0.29890E+08
 
   -0.29840E+08         0.14481E+06         0.00000E+00
    0.14481E+06        -0.69949E+08         0.00000E+00
    0.00000E+00         0.00000E+00        -0.29937E+08
 
   -0.29891E+08         0.14624E+06         0.00000E+00
    0.14624E+06        -0.70058E+08         0.00000E+00
    0.00000E+00         0.00000E+00        -0.29985E+08
 
   -0.29943E+08         0.14757E+06         0.00000E+00
    0.14757E+06        -0.70169E+08         0.00000E+00
    0.00000E+00         0.00000E+00        -0.30034E+08
 
   -0.29997E+08         0.14880E+06         0.00000E+00
    0.14880E+06        -0.70283E+08         0.00000E+00
    0.00000E+00         0.00000E+00        -0.30084E+08
 
   -0.30052E+08         0.14991E+06         0.00000E+00
    0.14991E+06        -0.70398E+08         0.00000E+00
    0.00000E+00         0.00000E+00        -0.30135E+08
 
   -0.30109E+08         0.15088E+06         0.00000E+00
    0.15088E+06        -0.70515E+08         0.00000E+00
    0.00000E+00         0.00000E+00        -0.30187E+08
 
   -0.30167E+08         0.15172E+06         0.00000E+00
    0.15172E+06        -0.70635E+08         0.00000E+00
    0.00000E+00         0.00000E+00        -0.30240E+08
 
   -0.30227E+08         0.15239E+06         0.00000E+00
    0.15239E+06        -0.70756E+08         0.00000E+00
    0.00000E+00         0.00000E+00        -0.30295E+08
 
   -0.30288E+08         0.15290E+06         0.00000E+00
    0.15290E+06        -0.70879E+08         0.00000E+00
    0.00000E+00         0.00000E+00        -0.30350E+08
 
   -0.30351E+08         0.15321E+06         0.00000E+00
    0.15321E+06        -0.71005E+08         0.00000E+00
    0.00000E+00         0.00000E+00        -0.30407E+08
 
   -0.30416E+08         0.15330E+06         0.00000E+00
    0.15330E+06        -0.71132E+08         0.00000E+00
    0.00000E+00         0.00000E+00        -0.30465E+08
 
   -0.30483E+08         0.15317E+06         0.00000E+00
    0.15317E+06        -0.71261E+08         0.00000E+00
    0.00000E+00         0.00000E+00        -0.30523E+08
 
   -0.30552E+08         0.15278E+06         0.00000E+00
    0.15278E+06        -0.71392E+08         0.00000E+00
    0.00000E+00         0.00000E+00        -0.30583E+08
 
   -0.30623E+08         0.15210E+06         0.00000E+00
    0.15210E+06        -0.71525E+08         0.00000E+00
    0.00000E+00         0.00000E+00        -0.30645E+08
 
   -0.30696E+08         0.15109E+06         0.00000E+00
    0.15109E+06        -0.71660E+08         0.00000E+00
    0.00000E+00         0.00000E+00        -0.30707E+08
 
   -0.30771E+08         0.14974E+06         0.00000E+00
    0.14974E+06        -0.71797E+08         0.00000E+00
    0.00000E+00         0.00000E+00        -0.30770E+08
 
   -0.30848E+08         0.14798E+06         0.00000E+00
    0.14798E+06        -0.71936E+08         0.00000E+00
    0.00000E+00         0.00000E+00        -0.30835E+08
 
   -0.30928E+08         0.14577E+06         0.00000E+00
    0.14577E+06        -0.72076E+08         0.00000E+00
    0.00000E+00         0.00000E+00        -0.30901E+08
 
   -0.31010E+08         0.14305E+06         0.00000E+00
    0.14305E+06        -0.72219E+08         0.00000E+00
    0.00000E+00         0.00000E+00        -0.30969E+08
 
   -0.31095E+08         0.13976E+06         0.00000E+00
    0.13976E+06        -0.72363E+08         0.00000E+00
    0.00000E+00         0.00000E+00        -0.31037E+08
 
   -0.31183E+08         0.13582E+06         0.00000E+00
    0.13582E+06        -0.72508E+08         0.00000E+00
    0.00000E+00         0.00000E+00        -0.31108E+08
 
   -0.31274E+08         0.13114E+06         0.00000E+00
    0.13114E+06        -0.72656E+08         0.00000E+00
    0.00000E+00         0.00000E+00        -0.31179E+08
 
   -0.31368E+08         0.12564E+06         0.00000E+00
    0.12564E+06        -0.72805E+08         0.00000E+00
    0.00000E+00         0.00000E+00        -0.31252E+08
 
   -0.31465E+08         0.11921E+06         0.00000E+00
    0.11921E+06        -0.72956E+08         0.00000E+00
    0.00000E+00         0.00000E+00        -0.31326E+08
 
   -0.31566E+08         0.11174E+06         0.00000E+00
    0.11174E+06        -0.73108E+08         0.00000E+00
    0.00000E+00         0.00000E+00        -0.31402E+08
 
   -0.31671E+08         0.10313E+06         0.00000E+00
    0.10313E+06        -0.73261E+08         0.00000E+00
    0.00000E+00         0.00000E+00        -0.31480E+08
 
   -0.31780E+08         0.93271E+05         0.00000E+00
    0.93271E+05        -0.73416E+08         0.00000E+00
    0.00000E+00         0.00000E+00        -0.31559E+08
 
   -0.31894E+08         0.82084E+05         0.00000E+00
    0.82084E+05        -0.73573E+08         0.00000E+00
    0.00000E+00         0.00000E+00        -0.31640E+08
 
   -0.32012E+08         0.69518E+05         0.00000E+00
    0.69518E+05        -0.73730E+08         0.00000E+00
    0.00000E+00         0.00000E+00        -0.31723E+08
 
   -0.32134E+08         0.55577E+05         0.00000E+00
    0.55577E+05        -0.73889E+08         0.00000E+00
    0.00000E+00         0.00000E+00        -0.31807E+08
 
   -0.32262E+08         0.40349E+05         0.00000E+00
    0.40349E+05        -0.74048E+08         0.00000E+00
    0.00000E+00         0.00000E+00        -0.31893E+08
 
   -0.32395E+08         0.24042E+05         0.00000E+00
    0.24042E+05        -0.74208E+08         0.00000E+00
    0.00000E+00         0.00000E+00        -0.31981E+08
 
   -0.32533E+08         0.70340E+04         0.00000E+00
    0.70340E+04        -0.74368E+08         0.00000E+00
    0.00000E+00         0.00000E+00        -0.32070E+08
 
   -0.32676E+08        -0.10069E+05         0.00000E+00
   -0.10069E+05        -0.74528E+08         0.00000E+00
    0.00000E+00         0.00000E+00        -0.32161E+08
 
   -0.32823E+08        -0.26333E+05         0.00000E+00
   -0.26333E+05        -0.74687E+08         0.00000E+00
    0.00000E+00         0.00000E+00        -0.32253E+08
 
   -0.32974E+08        -0.40353E+05         0.00000E+00
   -0.40353E+05        -0.74845E+08         0.00000E+00
    0.00000E+00         0.00000E+00        -0.32346E+08
 
   -0.33126E+08        -0.49952E+05         0.00000E+00
   -0.49952E+05        -0.75000E+08         0.00000E+00
    0.00000E+00         0.00000E+00        -0.32438E+08
 
   -0.33279E+08        -0.51623E+05         0.00000E+00
   -0.51623E+05        -0.75149E+08         0.00000E+00
    0.00000E+00         0.00000E+00        -0.32528E+08
 
   -0.33430E+08        -0.40783E+05         0.00000E+00
   -0.40783E+05        -0.75285E+08         0.00000E+00
    0.00000E+00         0.00000E+00        -0.32615E+08
 
   -0.33584E+08        -0.15829E+05         0.00000E+00
   -0.15829E+05        -0.75395E+08         0.00000E+00
    0.00000E+00         0.00000E+00        -0.32694E+08
 
   -0.27957E+08        -0.35482E+04         0.00000E+00
   -0.35482E+04        -0.66137E+08         0.00000E+00
    0.00000E+00         0.00000E+00        -0.28228E+08
 
   -0.27995E+08        -0.87546E+04         0.00000E+00
   -0.87546E+04        -0.66165E+08         0.00000E+00
    0.00000E+00         0.00000E+00        -0.28248E+08
 
   -0.28033E+08        -0.10142E+05         0.00000E+00
   -0.10142E+05        -0.66200E+08         0.00000E+00
    0.00000E+00         0.00000E+00        -0.28270E+08
 
   -0.28071E+08        -0.83717E+04         0.00000E+00
   -0.83717E+04        -0.66238E+08         0.00000E+00
    0.00000E+00         0.00000E+00        -0.28293E+08
 
   -0.28108E+08        -0.47405E+04         0.00000E+00
   -0.47405E+04        -0.66278E+08         0.00000E+00
    0.00000E+00         0.00000E+00        -0.28316E+08
 
   -0.28145E+08        -0.11904E+03         0.00000E+00
   -0.11904E+03        -0.66318E+08         0.00000E+00
    0.00000E+00         0.00000E+00        -0.28339E+08
 
   -0.28180E+08         0.49887E+04         0.00000E+00
    0.49887E+04        -0.66359E+08         0.00000E+00
    0.00000E+00         0.00000E+00        -0.28362E+08
 
   -0.28215E+08         0.10265E+05         0.00000E+00
    0.10265E+05        -0.66400E+08         0.00000E+00
    0.00000E+00         0.00000E+00        -0.28385E+08
 
   -0.28248E+08         0.15501E+05         0.00000E+00
    0.15501E+05        -0.66442E+08         0.00000E+00
    0.00000E+00         0.00000E+00        -0.28407E+08
 
   -0.28280E+08         0.20565E+05         0.00000E+00
    0.20565E+05        -0.66485E+08         0.00000E+00
    0.00000E+00         0.00000E+00        -0.28429E+08
 
   -0.28310E+08         0.25375E+05         0.00000E+00
    0.25375E+05        -0.66527E+08         0.00000E+00
    0.00000E+00         0.00000E+00        -0.28451E+08
 
   -0.28339E+08         0.29891E+05         0.00000E+00
    0.29891E+05        -0.66570E+08         0.00000E+00
    0.00000E+00         0.00000E+00        -0.28473E+08
 
   -0.28367E+08         0.34098E+05         0.00000E+00
    0.34098E+05        -0.66614E+08         0.00000E+00
    0.00000E+00         0.00000E+00        -0.28494E+08
 
   -0.28394E+08         0.38000E+05         0.00000E+00
    0.38000E+05        -0.66658E+08         0.00000E+00
    0.00000E+00         0.00000E+00        -0.28516E+08
 
   -0.28421E+08         0.41613E+05         0.00000E+00
    0.41613E+05        -0.66702E+08         0.00000E+00
    0.00000E+00         0.00000E+00        -0.28537E+08
 
   -0.28446E+08         0.44963E+05         0.00000E+00
    0.44963E+05        -0.66748E+08         0.00000E+00
    0.00000E+00         0.00000E+00        -0.28558E+08
 
   -0.28471E+08         0.48075E+05         0.00000E+00
    0.48075E+05        -0.66793E+08         0.00000E+00
    0.00000E+00         0.00000E+00        -0.28579E+08
 
   -0.28495E+08         0.50979E+05         0.00000E+00
    0.50979E+05        -0.66839E+08         0.00000E+00
    0.00000E+00         0.00000E+00        -0.28600E+08
 
   -0.28519E+08         0.53702E+05         0.00000E+00
    0.53702E+05        -0.66886E+08         0.00000E+00
    0.00000E+00         0.00000E+00        -0.28621E+08
 
   -0.28542E+08         0.56270E+05         0.00000E+00
    0.56270E+05        -0.66934E+08         0.00000E+00
    0.00000E+00         0.00000E+00        -0.28643E+08
 
   -0.28565E+08         0.58706E+05         0.00000E+00
    0.58706E+05        -0.66982E+08         0.00000E+00
    0.00000E+00         0.00000E+00        -0.28664E+08
 
   -0.28588E+08         0.61032E+05         0.00000E+00
    0.61032E+05        -0.67031E+08         0.00000E+00
    0.00000E+00         0.00000E+00        -0.28686E+08
 
   -0.28611E+08         0.63266E+05         0.00000E+00
    0.63266E+05        -0.67081E+08         0.00000E+00
    0.00000E+00         0.00000E+00        -0.28708E+08
 
   -0.28634E+08         0.65424E+05         0.00000E+00
    0.65424E+05        -0.67131E+08         0.00000E+00
    0.00000E+00         0.00000E+00        -0.28730E+08
 
   -0.28657E+08         0.67519E+05         0.00000E+00
    0.67519E+05        -0.67183E+08         0.00000E+00
    0.00000E+00         0.00000E+00        -0.28752E+08
 
   -0.28680E+08         0.69564E+05         0.00000E+00
    0.69564E+05        -0.67235E+08         0.00000E+00
    0.00000E+00         0.00000E+00        -0.28774E+08
 
   -0.28703E+08         0.71567E+05         0.00000E+00
    0.71567E+05        -0.67289E+08         0.00000E+00
    0.00000E+00         0.00000E+00        -0.28797E+08
 
   -0.28726E+08         0.73538E+05         0.00000E+00
    0.73538E+05        -0.67343E+08         0.00000E+00
    0.00000E+00         0.00000E+00        -0.28821E+08
 
   -0.28749E+08         0.75483E+05         0.00000E+00
    0.75483E+05        -0.67399E+08         0.00000E+00
    0.00000E+00         0.00000E+00        -0.28844E+08
 
   -0.28773E+08         0.77408E+05         0.00000E+00
    0.77408E+05        -0.67455E+08         0.00000E+00
    0.00000E+00         0.00000E+00        -0.28868E+08
 
   -0.28797E+08         0.79318E+05         0.00000E+00
    0.79318E+05        -0.67513E+08         0.00000E+00
    0.00000E+00         0.00000E+00        -0.28893E+08
 
   -0.28821E+08         0.81217E+05         0.00000E+00
    0.81217E+05        -0.67572E+08         0.00000E+00
    0.00000E+00         0.00000E+00        -0.28918E+08
 
   -0.28846E+08         0.83108E+05         0.00000E+00
    0.83108E+05        -0.67632E+08         0.00000E+00
    0.00000E+00         0.00000E+00        -0.28943E+08
 
   -0.28871E+08         0.84995E+05         0.00000E+00
    0.84995E+05        -0.67694E+08         0.00000E+00
    0.00000E+00         0.00000E+00        -0.28969E+08
 
   -0.28896E+08         0.86878E+05         0.00000E+00
    0.86878E+05        -0.67756E+08         0.00000E+00
    0.00000E+00         0.00000E+00        -0.28996E+08
 
   -0.28922E+08         0.88761E+05         0.00000E+00
    0.88761E+05        -0.67820E+08         0.00000E+00
    0.00000E+00         0.00000E+00        -0.29023E+08
 
   -0.28949E+08         0.90643E+05         0.00000E+00
    0.90643E+05        -0.67886E+08         0.00000E+00
    0.00000E+00         0.00000E+00        -0.29050E+08
 
   -0.28976E+08         0.92527E+05         0.00000E+00
    0.92527E+05        -0.67953E+08         0.00000E+00
    0.00000E+00         0.00000E+00        -0.29079E+08
 
   -0.29004E+08         0.94412E+05         0.00000E+00
    0.94412E+05        -0.68021E+08         0.00000E+00
    0.00000E+00         0.00000E+00        -0.29108E+08
 
   -0.29033E+08         0.96298E+05         0.00000E+00
    0.96298E+05        -0.68091E+08         0.00000E+00
    0.00000E+00         0.00000E+00        -0.29137E+08
 
   -0.29062E+08         0.98187E+05         0.00000E+00
    0.98187E+05        -0.68162E+08         0.00000E+00
    0.00000E+00         0.00000E+00        -0.29167E+08
 
   -0.29092E+08         0.10008E+06         0.00000E+00
    0.10008E+06        -0.68234E+08         0.00000E+00
    0.00000E+00         0.00000E+00        -0.29198E+08
 
   -0.29123E+08         0.10197E+06         0.00000E+00
    0.10197E+06        -0.68309E+08         0.00000E+00
    0.00000E+00         0.00000E+00        -0.29229E+08
 
   -0.29154E+08         0.10385E+06         0.00000E+00
    0.10385E+06        -0.68385E+08         0.00000E+00
    0.00000E+00         0.00000E+00        -0.29262E+08
 
   -0.29186E+08         0.10574E+06         0.00000E+00
    0.10574E+06        -0.68462E+08         0.00000E+00
    0.00000E+00         0.00000E+00        -0.29295E+08
 
   -0.29219E+08         0.10762E+06         0.00000E+00
    0.10762E+06        -0.68542E+08         0.00000E+00
    0.00000E+00         0.00000E+00        -0.29328E+08
 
   -0.29253E+08         0.10950E+06         0.00000E+00
    0.10950E+06        -0.68623E+08         0.00000E+00
    0.00000E+00         0.00000E+00        -0.29363E+08
 
   -0.29288E+08         0.11136E+06         0.00000E+00
    0.11136E+06        -0.68705E+08         0.00000E+00
    0.00000E+00         0.00000E+00        -0.29398E+08
 
   -0.29324E+08         0.11322E+06         0.00000E+00
    0.11322E+06        -0.68790E+08         0.00000E+00
    0.00000E+00         0.00000E+00        -0.29434E+08
 
   -0.29361E+08         0.11506E+06         0.00000E+00
    0.11506E+06        -0.68876E+08         0.00000E+00
    0.00000E+00         0.00000E+00        -0.29471E+08
 
   -0.29398E+08         0.11689E+06         0.00000E+00
    0.11689E+06        -0.68964E+08         0.00000E+00
    0.00000E+00         0.00000E+00        -0.29509E+08
 
   -0.29437E+08         0.11869E+06         0.00000E+00
    0.11869E+06        -0.69054E+08         0.00000E+00
    0.00000E+00         0.00000E+00        -0.29547E+08
 
   -0.29477E+08         0.12047E+06         0.00000E+00
    0.12047E+06        -0.69146E+08         0.00000E+00
    0.00000E+00         0.00000E+00        -0.29587E+08
 
   -0.29518E+08         0.12222E+06         0.00000E+00
    0.12222E+06        -0.69239E+08         0.00000E+00
    0.00000E+00         0.00000E+00        -0.29627E+08
 
   -0.29560E+08         0.12394E+06         0.00000E+00
    0.12394E+06        -0.69335E+08         0.00000E+00
    0.00000E+00         0.00000E+00        -0.29668E+08
 
   -0.29603E+08         0.12561E+06         0.00000E+00
    0.12561E+06        -0.69432E+08         0.00000E+00
    0.00000E+00         0.00000E+00        -0.29711E+08
 
   -0.29647E+08         0.12725E+06         0.00000E+00
    0.12725E+06        -0.69532E+08         0.00000E+00
    0.00000E+00         0.00000E+00        -0.29754E+08
 
   -0.29693E+08         0.12883E+06         0.00000E+00
    0.12883E+06        -0.69633E+08         0.00000E+00
    0.00000E+00         0.00000E+00        -0.29798E+08
 
   -0.29740E+08         0.13035E+06         0.00000E+00
    0.13035E+06        -0.69736E+08         0.00000E+00
    0.00000E+00         0.00000E+00        -0.29843E+08
 
   -0.29788E+08         0.13181E+06         0.00000E+00
    0.13181E+06        -0.69842E+08         0.00000E+00
    0.00000E+00         0.00000E+00        -0.29889E+08
 
   -0.29837E+08         0.13320E+06         0.00000E+00
    0.13320E+06        -0.69949E+08         0.00000E+00
    0.00000E+00         0.00000E+00        -0.29936E+08
 
   -0.29888E+08         0.13450E+06         0.00000E+00
    0.13450E+06        -0.70058E+08         0.00000E+00
    0.00000E+00         0.00000E+00        -0.29984E+08
 
   -0.29940E+08         0.13572E+06         0.00000E+00
    0.13572E+06        -0.70170E+08         0.00000E+00
    0.00000E+00         0.00000E+00        -0.30033E+08
 
   -0.29994E+08         0.13684E+06         0.00000E+00
    0.13684E+06        -0.70283E+08         0.00000E+00
    0.00000E+00         0.00000E+00        -0.30083E+08
 
   -0.30049E+08         0.13785E+06         0.00000E+00
    0.13785E+06        -0.70398E+08         0.00000E+00
    0.00000E+00         0.00000E+00        -0.30134E+08
 
   -0.30106E+08         0.13874E+06         0.00000E+00
    0.13874E+06        -0.70515E+08         0.00000E+00
    0.00000E+00         0.00000E+00        -0.30186E+08
 
   -0.30164E+08         0.13950E+06         0.00000E+00
    0.13950E+06        -0.70635E+08         0.00000E+00
    0.00000E+00         0.00000E+00        -0.30240E+08
 
   -0.30224E+08         0.14011E+06         0.00000E+00
    0.14011E+06        -0.70756E+08         0.00000E+00
    0.00000E+00         0.00000E+00        -0.30294E+08
 
   -0.30286E+08         0.14056E+06         0.00000E+00
    0.14056E+06        -0.70879E+08         0.00000E+00
    0.00000E+00         0.00000E+00        -0.30350E+08
 
   -0.30349E+08         0.14083E+06         0.00000E+00
    0.14083E+06        -0.71005E+08         0.00000E+00
    0.00000E+00         0.00000E+00        -0.30406E+08
 
   -0.30414E+08         0.14091E+06         0.00000E+00
    0.14091E+06        -0.71132E+08         0.00000E+00
    0.00000E+00         0.00000E+00        -0.30464E+08
 
   -0.30481E+08         0.14078E+06         0.00000E+00
    0.14078E+06        -0.71261E+08         0.00000E+00
    0.00000E+00         0.00000E+00        -0.30523E+08
 
   -0.30550E+08         0.14040E+06         0.00000E+00
    0.14040E+06        -0.71392E+08         0.00000E+00
    0.00000E+00         0.00000E+00        -0.30583E+08
 
   -0.30621E+08         0.13976E+06         0.00000E+00
    0.13976E+06        -0.71525E+08         0.00000E+00
    0.00000E+00         0.00000E+00        -0.30644E+08
 
   -0.30694E+08         0.13882E+06         0.00000E+00
    0.13882E+06        -0.71660E+08         0.00000E+00
    0.00000E+00         0.00000E+00        -0.30706E+08
 
   -0.30770E+08         0.13755E+06         0.00000E+00
    0.13755E+06        -0.71797E+08         0.00000E+00
    0.00000E+00         0.00000E+00        -0.30770E+08
 
   -0.30847E+08         0.13591E+06         0.00000E+00
    0.13591E+06        -0.71936E+08         0.00000E+00
    0.00000E+00         0.00000E+00        -0.30835E+08
 
   -0.30927E+08         0.13386E+06         0.00000E+00
    0.13386E+06        -0.72076E+08         0.00000E+00
    0.00000E+00         0.00000E+00        -0.30901E+08
 
   -0.31010E+08         0.13133E+06         0.00000E+00
    0.13133E+06        -0.72218E+08         0.00000E+00
    0.00000E+00         0.00000E+00        -0.30968E+08
 
   -0.31095E+08         0.12826E+06         0.00000E+00
    0.12826E+06        -0.72362E+08         0.00000E+00
    0.00000E+00         0.00000E+00        -0.31037E+08
 
   -0.31183E+08         0.12459E+06         0.00000E+00
    0.12459E+06        -0.72508E+08         0.00000E+00
    0.00000E+00         0.00000E+00        -0.31107E+08
 
   -0.31275E+08         0.12024E+06         0.00000E+00
    0.12024E+06        -0.72655E+08         0.00000E+00
    0.00000E+00         0.00000E+00        -0.31179E+08
 
   -0.31369E+08         0.11510E+06         0.00000E+00
    0.11510E+06        -0.72804E+08         0.00000E+00
    0.00000E+00         0.00000E+00        -0.31252E+08
 
   -0.31467E+08         0.10910E+06         0.00000E+00
    0.10910E+06        -0.72954E+08         0.00000E+00
    0.00000E+00         0.00000E+00        -0.31326E+08
 
   -0.31569E+08         0.10212E+06         0.00000E+00
    0.10212E+06        -0.73106E+08         0.00000E+00
    0.00000E+00         0.00000E+00        -0.31402E+08
 
   -0.31674E+08         0.94063E+05         0.00000E+00
    0.94063E+05        -0.73260E+08         0.00000E+00
    0.00000E+00         0.00000E+00        -0.31480E+08
 
   -0.31784E+08         0.84826E+05         0.00000E+00
    0.84826E+05        -0.73414E+08         0.00000E+00
    0.00000E+00         0.00000E+00        -0.31560E+08
 
   -0.31899E+08         0.74329E+05         0.00000E+00
    0.74329E+05        -0.73570E+08         0.00000E+00
    0.00000E+00         0.00000E+00        -0.31641E+08
 
   -0.32018E+08         0.62519E+05         0.00000E+00
    0.62519E+05        -0.73728E+08         0.00000E+00
    0.00000E+00         0.00000E+00        -0.31724E+08
 
   -0.32142E+08         0.49398E+05         0.00000E+00
    0.49398E+05        -0.73886E+08         0.00000E+00
    0.00000E+00         0.00000E+00        -0.31808E+08
 
   -0.32272E+08         0.35040E+05         0.00000E+00
    0.35040E+05        -0.74045E+08         0.00000E+00
    0.00000E+00         0.00000E+00        -0.31895E+08
 
   -0.32407E+08         0.19634E+05         0.00000E+00
    0.19634E+05        -0.74205E+08         0.00000E+00
    0.00000E+00         0.00000E+00        -0.31983E+08
 
   -0.32547E+08         0.35236E+04         0.00000E+00
    0.35236E+04        -0.74365E+08         0.00000E+00
    0.00000E+00         0.00000E+00        -0.32073E+08
 
   -0.32693E+08        -0.12737E+05         0.00000E+00
   -0.12737E+05        -0.74524E+08         0.00000E+00
    0.00000E+00         0.00000E+00        -0.32165E+08
 
   -0.32843E+08        -0.28294E+05         0.00000E+00
   -0.28294E+05        -0.74684E+08         0.00000E+00
    0.00000E+00         0.00000E+00        -0.32258E+08
 
   -0.32997E+08        -0.41855E+05         0.00000E+00
   -0.41855E+05        -0.74842E+08         0.00000E+00
    0.00000E+00         0.00000E+00        -0.32352E+08
 
   -0.33152E+08        -0.51389E+05         0.00000E+00
   -0.51389E+05        -0.74998E+08         0.00000E+00
    0.00000E+00         0.00000E+00        -0.32445E+08
 
   -0.33307E+08        -0.53409E+05         0.00000E+00
   -0.53409E+05        -0.75150E+08         0.00000E+00
    0.00000E+00         0.00000E+00        -0.32537E+08
 
   -0.33461E+08        -0.42746E+05         0.00000E+00
   -0.42746E+05        -0.75289E+08         0.00000E+00
    0.00000E+00         0.00000E+00        -0.32625E+08
 
   -0.33615E+08        -0.16775E+05         0.00000E+00
   -0.16775E+05        -0.75401E+08         0.00000E+00
    0.00000E+00         0.00000E+00        -0.32705E+08
 
   -0.27948E+08        -0.38289E+04         0.00000E+00
   -0.38289E+04        -0.66135E+08         0.00000E+00
    0.00000E+00         0.00000E+00        -0.28225E+08
 
   -0.27987E+08        -0.93321E+04         0.00000E+00
   -0.93321E+04        -0.66164E+08         0.00000E+00
    0.00000E+00         0.00000E+00        -0.28245E+08
 
   -0.28025E+08        -0.10696E+05         0.00000E+00
   -0.10696E+05        -0.66200E+08         0.00000E+00
    0.00000E+00         0.00000E+00        -0.28267E+08
 
   -0.28063E+08        -0.89022E+04         0.00000E+00
   -0.89022E+04        -0.66239E+08         0.00000E+00
    0.00000E+00         0.00000E+00        -0.28291E+08
 
   -0.28101E+08        -0.53873E+04         0.00000E+00
   -0.53873E+04        -0.66279E+08         0.00000E+00
    0.00000E+00         0.00000E+00        -0.28314E+08
 
   -0.28139E+08        -0.99236E+03         0.00000E+00
   -0.99236E+03        -0.66319E+08         0.00000E+00
    0.00000E+00         0.00000E+00        -0.28337E+08
 
   -0.28175E+08         0.38236E+04         0.00000E+00
    0.38236E+04        -0.66360E+08         0.00000E+00
    0.00000E+00         0.00000E+00        -0.28361E+08
 
   -0.28210E+08         0.87725E+04         0.00000E+00
    0.87725E+04        -0.66401E+08         0.00000E+00
    0.00000E+00         0.00000E+00        -0.28384E+08
 
   -0.28244E+08         0.13668E+05         0.00000E+00
    0.13668E+05        -0.66443E+08         0.00000E+00
    0.00000E+00         0.00000E+00        -0.28406E+08
 
   -0.28276E+08         0.18389E+05         0.00000E+00
    0.18389E+05        -0.66486E+08         0.00000E+00
    0.00000E+00         0.00000E+00        -0.28428E+08
 
   -0.28307E+08         0.22865E+05         0.00000E+00
    0.22865E+05        -0.66528E+08         0.00000E+00
    0.00000E+00         0.00000E+00        -0.28451E+08
 
   -0.28336E+08         0.27058E+05         0.00000E+00
    0.27058E+05        -0.66571E+08         0.00000E+00
    0.00000E+00         0.00000E+00        -0.28472E+08
 
   -0.28365E+08         0.30957E+05         0.00000E+00
    0.30957E+05        -0.66615E+08         0.00000E+00
    0.00000E+00         0.00000E+00        -0.28494E+08
 
   -0.28392E+08         0.34567E+05         0.00000E+00
    0.34567E+05        -0.66659E+08         0.00000E+00
    0.00000E+00         0.00000E+00        -0.28515E+08
 
   -0.28418E+08         0.37905E+05         0.00000E+00
    0.37905E+05        -0.66703E+08         0.00000E+00
    0.00000E+00         0.00000E+00        -0.28536E+08
 
   -0.28444E+08         0.40994E+05         0.00000E+00
    0.40994E+05        -0.66748E+08         0.00000E+00
    0.00000E+00         0.00000E+00        -0.28558E+08
 
   -0.28469E+08         0.43860E+05         0.00000E+00
    0.43860E+05        -0.66794E+08         0.00000E+00
    0.00000E+00         0.00000E+00        -0.28579E+08
 
   -0.28493E+08         0.46530E+05         0.00000E+00
    0.46530E+05        -0.66840E+08         0.00000E+00
    0.00000E+00         0.00000E+00        -0.28600E+08
 
   -0.28517E+08         0.49031E+05         0.00000E+00
    0.49031E+05        -0.66887E+08         0.00000E+00
    0.00000E+00         0.00000E+00        -0.28621E+08
 
   -0.28540E+08         0.51387E+05         0.00000E+00
    0.51387E+05        -0.66934E+08         0.00000E+00
    0.00000E+00         0.00000E+00        -0.28642E+08
 
   -0.28563E+08         0.53620E+05         0.00000E+00
    0.53620E+05        -0.66982E+08         0.00000E+00
    0.00000E+00         0.00000E+00        -0.28664E+08
 
   -0.28586E+08         0.55751E+05         0.00000E+00
    0.55751E+05        -0.67031E+08         0.00000E+00
    0.00000E+00         0.00000E+00        -0.28685E+08
 
   -0.28609E+08         0.57796E+05         0.00000E+00
    0.57796E+05        -0.67081E+08         0.00000E+00
    0.00000E+00         0.00000E+00        -0.28707E+08
 
   -0.28632E+08         0.59770E+05         0.00000E+00
    0.59770E+05        -0.67132E+08         0.00000E+00
    0.00000E+00         0.00000E+00        -0.28729E+08
 
   -0.28655E+08         0.61687E+05         0.00000E+00
    0.61687E+05        -0.67183E+08         0.00000E+00
    0.00000E+00         0.00000E+00        -0.28751E+08
 
   -0.28677E+08         0.63556E+05         0.00000E+00
    0.63556E+05        -0.67236E+08         0.00000E+00
    0.00000E+00         0.00000E+00        -0.28774E+08
 
   -0.28700E+08         0.65387E+05         0.00000E+00
    0.65387E+05        -0.67289E+08         0.00000E+00
    0.00000E+00         0.00000E+00        -0.28797E+08
 
   -0.28723E+08         0.67188E+05         0.00000E+00
    0.67188E+05        -0.67343E+08         0.00000E+00
    0.00000E+00         0.00000E+00        -0.28820E+08
 
   -0.28747E+08         0.68965E+05         0.00000E+00
    0.68965E+05        -0.67399E+08         0.00000E+00
    0.00000E+00         0.00000E+00        -0.28844E+08
 
   -0.28770E+08         0.70724E+05         0.00000E+00
    0.70724E+05        -0.67456E+08         0.00000E+00
    0.00000E+00         0.00000E+00        -0.28868E+08
 
   -0.28794E+08         0.72469E+05         0.00000E+00
    0.72469E+05        -0.67513E+08         0.00000E+00
    0.00000E+00         0.00000E+00        -0.28892E+08
 
   -0.28818E+08         0.74203E+05         0.00000E+00
    0.74203E+05        -0.67572E+08         0.00000E+00
    0.00000E+00         0.00000E+00        -0.28917E+08
 
   -0.28843E+08         0.75930E+05         0.00000E+00
    0.75930E+05        -0.67633E+08         0.00000E+00
    0.00000E+00         0.00000E+00        -0.28943E+08
 
   -0.28868E+08         0.77653E+05         0.00000E+00
    0.77653E+05        -0.67694E+08         0.00000E+00
    0.00000E+00         0.00000E+00        -0.28969E+08
 
   -0.28894E+08         0.79372E+05         0.00000E+00
    0.79372E+05        -0.67757E+08         0.00000E+00
    0.00000E+00         0.00000E+00        -0.28995E+08
 
   -0.28920E+08         0.81091E+05         0.00000E+00
    0.81091E+05        -0.67821E+08         0.00000E+00
    0.00000E+00         0.00000E+00        -0.29022E+08
 
   -0.28946E+08         0.82809E+05         0.00000E+00
    0.82809E+05        -0.67886E+08         0.00000E+00
    0.00000E+00         0.00000E+00        -0.29050E+08
 
   -0.28974E+08         0.84529E+05         0.00000E+00
    0.84529E+05        -0.67953E+08         0.00000E+00
    0.00000E+00         0.00000E+00        -0.29078E+08
 
   -0.29001E+08         0.86249E+05         0.00000E+00
    0.86249E+05        -0.68021E+08         0.00000E+00
    0.00000E+00         0.00000E+00        -0.29107E+08
 
   -0.29030E+08         0.87971E+05         0.00000E+00
    0.87971E+05        -0.68091E+08         0.00000E+00
    0.00000E+00         0.00000E+00        -0.29136E+08
 
   -0.29059E+08         0.89694E+05         0.00000E+00
    0.89694E+05        -0.68162E+08         0.00000E+00
    0.00000E+00         0.00000E+00        -0.29166E+08
 
   -0.29089E+08         0.91417E+05         0.00000E+00
    0.91417E+05        -0.68235E+08         0.00000E+00
    0.00000E+00         0.00000E+00        -0.29197E+08
 
   -0.29120E+08         0.93141E+05         0.00000E+00
    0.93141E+05        -0.68309E+08         0.00000E+00
    0.00000E+00         0.00000E+00        -0.29229E+08
 
   -0.29151E+08         0.94863E+05         0.00000E+00
    0.94863E+05        -0.68385E+08         0.00000E+00
    0.00000E+00         0.00000E+00        -0.29261E+08
 
   -0.29183E+08         0.96583E+05         0.00000E+00
    0.96583E+05        -0.68463E+08         0.00000E+00
    0.00000E+00         0.00000E+00        -0.29294E+08
 
   -0.29216E+08         0.98299E+05         0.00000E+00
    0.98299E+05        -0.68542E+08         0.00000E+00
    0.00000E+00         0.00000E+00        -0.29327E+08
 
   -0.29250E+08         0.10001E+06         0.00000E+00
    0.10001E+06        -0.68623E+08         0.00000E+00
    0.00000E+00         0.00000E+00        -0.29362E+08
 
   -0.29285E+08         0.10171E+06         0.00000E+00
    0.10171E+06        -0.68706E+08         0.00000E+00
    0.00000E+00         0.00000E+00        -0.29397E+08
 
   -0.29321E+08         0.10340E+06         0.00000E+00
    0.10340E+06        -0.68790E+08         0.00000E+00
    0.00000E+00         0.00000E+00        -0.29433E+08
 
   -0.29357E+08         0.10508E+06         0.00000E+00
    0.10508E+06        -0.68876E+08         0.00000E+00
    0.00000E+00         0.00000E+00        -0.29470E+08
 
   -0.29395E+08         0.10675E+06         0.00000E+00
    0.10675E+06        -0.68964E+08         0.00000E+00
    0.00000E+00         0.00000E+00        -0.29508E+08
 
   -0.29434E+08         0.10839E+06         0.00000E+00
    0.10839E+06        -0.69054E+08         0.00000E+00
    0.00000E+00         0.00000E+00        -0.29546E+08
 
   -0.29474E+08         0.11001E+06         0.00000E+00
    0.11001E+06        -0.69146E+08         0.00000E+00
    0.00000E+00         0.00000E+00        -0.29586E+08
 
   -0.29515E+08         0.11160E+06         0.00000E+00
    0.11160E+06        -0.69240E+08         0.00000E+00
    0.00000E+00         0.00000E+00        -0.29626E+08
 
   -0.29557E+08         0.11317E+06         0.00000E+00
    0.11317E+06        -0.69335E+08         0.00000E+00
    0.00000E+00         0.00000E+00        -0.29668E+08
 
   -0.29600E+08         0.11469E+06         0.00000E+00
    0.11469E+06        -0.69433E+08         0.00000E+00
    0.00000E+00         0.00000E+00        -0.29710E+08
 
   -0.29644E+08         0.11618E+06         0.00000E+00
    0.11618E+06        -0.69532E+08         0.00000E+00
    0.00000E+00         0.00000E+00        -0.29753E+08
 
   -0.29690E+08         0.11762E+06         0.00000E+00
    0.11762E+06        -0.69633E+08         0.00000E+00
    0.00000E+00         0.00000E+00        -0.29797E+08
 
   -0.29737E+08         0.11900E+06         0.00000E+00
    0.11900E+06        -0.69737E+08         0.00000E+00
    0.00000E+00         0.00000E+00        -0.29842E+08
 
   -0.29785E+08         0.12033E+06         0.00000E+00
    0.12033E+06        -0.69842E+08         0.00000E+00
    0.00000E+00         0.00000E+00        -0.29888E+08
 
   -0.29834E+08         0.12159E+06         0.00000E+00
    0.12159E+06        -0.69949E+08         0.00000E+00
    0.00000E+00         0.00000E+00        -0.29935E+08
 
   -0.29885E+08         0.12277E+06         0.00000E+00
    0.12277E+06        -0.70059E+08         0.00000E+00
    0.00000E+00         0.00000E+00        -0.29983E+08
 
   -0.29937E+08         0.12388E+06         0.00000E+00
    0.12388E+06        -0.70170E+08         0.00000E+00
    0.00000E+00         0.00000E+00        -0.30032E+08
 
   -0.29991E+08         0.12489E+06         0.00000E+00
    0.12489E+06        -0.70283E+08         0.00000E+00
    0.00000E+00         0.00000E+00        -0.30082E+08
 
   -0.30046E+08         0.12581E+06         0.00000E+00
    0.12581E+06        -0.70398E+08         0.00000E+00
    0.00000E+00         0.00000E+00        -0.30133E+08
 
   -0.30103E+08         0.12661E+06         0.00000E+00
    0.12661E+06        -0.70516E+08         0.00000E+00
    0.00000E+00         0.00000E+00        -0.30186E+08
 
   -0.30162E+08         0.12729E+06         0.00000E+00
    0.12729E+06        -0.70635E+08         0.00000E+00
    0.00000E+00         0.00000E+00        -0.30239E+08
 
   -0.30222E+08         0.12784E+06         0.00000E+00
    0.12784E+06        -0.70756E+08         0.00000E+00
    0.00000E+00         0.00000E+00        -0.30293E+08
 
   -0.30283E+08         0.12824E+06         0.00000E+00
    0.12824E+06        -0.70879E+08         0.00000E+00
    0.00000E+00         0.00000E+00        -0.30349E+08
 
   -0.30347E+08         0.12848E+06         0.00000E+00
    0.12848E+06        -0.71005E+08         0.00000E+00
    0.00000E+00         0.00000E+00        -0.30405E+08
 
   -0.30412E+08         0.12855E+06         0.00000E+00
    0.12855E+06        -0.71132E+08         0.00000E+00
    0.00000E+00         0.00000E+00        -0.30463E+08
 
   -0.30479E+08         0.12841E+06         0.00000E+00
    0.12841E+06        -0.71261E+08         0.00000E+00
    0.00000E+00         0.00000E+00        -0.30522E+08
 
   -0.30548E+08         0.12806E+06         0.00000E+00
    0.12806E+06        -0.71392E+08         0.00000E+00
    0.00000E+00         0.00000E+00        -0.30582E+08
 
   -0.30619E+08         0.12746E+06         0.00000E+00
    0.12746E+06        -0.71525E+08         0.00000E+00
    0.00000E+00         0.00000E+00        -0.30643E+08
 
   -0.30693E+08         0.12659E+06         0.00000E+00
    0.12659E+06        -0.71660E+08         0.00000E+00
    0.00000E+00         0.00000E+00        -0.30706E+08
 
   -0.30768E+08         0.12541E+06         0.00000E+00
    0.12541E+06        -0.71797E+08         0.00000E+00
    0.00000E+00         0.00000E+00        -0.30769E+08
 
   -0.30846E+08         0.12390E+06         0.00000E+00
    0.12390E+06        -0.71935E+08         0.00000E+00
    0.00000E+00         0.00000E+00        -0.30834E+08
 
   -0.30926E+08         0.12200E+06         0.00000E+00
    0.12200E+06        -0.72075E+08         0.00000E+00
    0.00000E+00         0.00000E+00        -0.30901E+08
 
   -0.31009E+08         0.11966E+06         0.00000E+00
    0.11966E+06        -0.72218E+08         0.00000E+00
    0.00000E+00         0.00000E+00        -0.30968E+08
 
   -0.31095E+08         0.11683E+06         0.00000E+00
    0.11683E+06        -0.72361E+08         0.00000E+00
    0.00000E+00         0.00000E+00        -0.31037E+08
 
   -0.31183E+08         0.11344E+06         0.00000E+00
    0.11344E+06        -0.72507E+08         0.00000E+00
    0.00000E+00         0.00000E+00        -0.31107E+08
 
   -0.31275E+08         0.10942E+06         0.00000E+00
    0.10942E+06        -0.72654E+08         0.00000E+00
    0.00000E+00         0.00000E+00        -0.31179E+08
 
   -0.31370E+08         0.10467E+06         0.00000E+00
    0.10467E+06        -0.72803E+08         0.00000E+00
    0.00000E+00         0.00000E+00        -0.31252E+08
 
   -0.31468E+08         0.99111E+05         0.00000E+00
    0.99111E+05        -0.72953E+08         0.00000E+00
    0.00000E+00         0.00000E+00        -0.31326E+08
 
   -0.31571E+08         0.92641E+05         0.00000E+00
    0.92641E+05        -0.73105E+08         0.00000E+00
    0.00000E+00         0.00000E+00        -0.31403E+08
 
   -0.31677E+08         0.85160E+05         0.00000E+00
    0.85160E+05        -0.73258E+08         0.00000E+00
    0.00000E+00         0.00000E+00        -0.31481E+08
 
   -0.31788E+08         0.76574E+05         0.00000E+00
    0.76574E+05        -0.73412E+08         0.00000E+00
    0.00000E+00         0.00000E+00        -0.31560E+08
 
   -0.31903E+08         0.66802E+05         0.00000E+00
    0.66802E+05        -0.73568E+08         0.00000E+00
    0.00000E+00         0.00000E+00        -0.31641E+08
 
   -0.32024E+08         0.55791E+05         0.00000E+00
    0.55791E+05        -0.73725E+08         0.00000E+00
    0.00000E+00         0.00000E+00        -0.31725E+08
 
   -0.32149E+08         0.43537E+05         0.00000E+00
    0.43537E+05        -0.73883E+08         0.00000E+00
    0.00000E+00         0.00000E+00        -0.31810E+08
 
   -0.32281E+08         0.30103E+05         0.00000E+00
    0.30103E+05        -0.74042E+08         0.00000E+00
    0.00000E+00         0.00000E+00        -0.31897E+08
 
   -0.32418E+08         0.15658E+05         0.00000E+00
    0.15658E+05        -0.74202E+08         0.00000E+00
    0.00000E+00         0.00000E+00        -0.31986E+08
 
   -0.32560E+08         0.50829E+03         0.00000E+00
    0.50829E+03        -0.74361E+08         0.00000E+00
    0.00000E+00         0.00000E+00        -0.32077E+08
 
   -0.32709E+08        -0.14844E+05         0.00000E+00
   -0.14844E+05        -0.74521E+08         0.00000E+00
    0.00000E+00         0.00000E+00        -0.32169E+08
 
   -0.32862E+08        -0.29631E+05         0.00000E+00
   -0.29631E+05        -0.74681E+08         0.00000E+00
    0.00000E+00         0.00000E+00        -0.32263E+08
 
   -0.33019E+08        -0.42681E+05         0.00000E+00
   -0.42681E+05        -0.74840E+08         0.00000E+00
    0.00000E+00         0.00000E+00        -0.32358E+08
 
   -0.33178E+08        -0.52143E+05         0.00000E+00
   -0.52143E+05        -0.74997E+08         0.00000E+00
    0.00000E+00         0.00000E+00        -0.32453E+08
 
   -0.33337E+08        -0.54647E+05         0.00000E+00
   -0.54647E+05        -0.75150E+08         0.00000E+00
    0.00000E+00         0.00000E+00        -0.32546E+08
 
   -0.33492E+08        -0.44467E+05         0.00000E+00
   -0.44467E+05        -0.75293E+08         0.00000E+00
    0.00000E+00         0.00000E+00        -0.32636E+08
 
   -0.33648E+08        -0.17700E+05         0.00000E+00
   -0.17700E+05        -0.75408E+08         0.00000E+00
    0.00000E+00         0.00000E+00        -0.32717E+08
 
   -0.27939E+08        -0.41046E+04         0.00000E+00
   -0.41046E+04        -0.66134E+08         0.00000E+00
    0.00000E+00         0.00000E+00        -0.28222E+08
 
   -0.27978E+08        -0.98368E+04         0.00000E+00
   -0.98368E+04        -0.66164E+08         0.00000E+00
    0.00000E+00         0.00000E+00        -0.28242E+08
 
   -0.28016E+08        -0.11093E+05         0.00000E+00
   -0.11093E+05        -0.66200E+08         0.00000E+00
    0.00000E+00         0.00000E+00        -0.28265E+08
 
   -0.28056E+08        -0.92512E+04         0.00000E+00
   -0.92512E+04        -0.66239E+08         0.00000E+00
    0.00000E+00         0.00000E+00        -0.28288E+08
 
   -0.28095E+08        -0.58641E+04         0.00000E+00
   -0.58641E+04        -0.66279E+08         0.00000E+00
    0.00000E+00         0.00000E+00        -0.28312E+08
 
   -0.28133E+08        -0.17147E+04         0.00000E+00
   -0.17147E+04        -0.66320E+08         0.00000E+00
    0.00000E+00         0.00000E+00        -0.28336E+08
 
   -0.28170E+08         0.27894E+04         0.00000E+00
    0.27894E+04        -0.66361E+08         0.00000E+00
    0.00000E+00         0.00000E+00        -0.28359E+08
 
   -0.28206E+08         0.73920E+04         0.00000E+00
    0.73920E+04        -0.66402E+08         0.00000E+00
    0.00000E+00         0.00000E+00        -0.28383E+08
 
   -0.28240E+08         0.11928E+05         0.00000E+00
    0.11928E+05        -0.66444E+08         0.00000E+00
    0.00000E+00         0.00000E+00        -0.28405E+08
 
   -0.28273E+08         0.16290E+05         0.00000E+00
    0.16290E+05        -0.66486E+08         0.00000E+00
    0.00000E+00         0.00000E+00        -0.28428E+08
 
   -0.28304E+08         0.20417E+05         0.00000E+00
    0.20417E+05        -0.66529E+08         0.00000E+00
    0.00000E+00         0.00000E+00        -0.28450E+08
 
   -0.28334E+08         0.24275E+05         0.00000E+00
    0.24275E+05        -0.66572E+08         0.00000E+00
    0.00000E+00         0.00000E+00        -0.28472E+08
 
   -0.28362E+08         0.27856E+05         0.00000E+00
    0.27856E+05        -0.66616E+08         0.00000E+00
    0.00000E+00         0.00000E+00        -0.28493E+08
 
   -0.28389E+08         0.31165E+05         0.00000E+00
    0.31165E+05        -0.66659E+08         0.00000E+00
    0.00000E+00         0.00000E+00        -0.28515E+08
 
   -0.28416E+08         0.34220E+05         0.00000E+00
    0.34220E+05        -0.66704E+08         0.00000E+00
    0.00000E+00         0.00000E+00        -0.28536E+08
 
   -0.28442E+08         0.37042E+05         0.00000E+00
    0.37042E+05        -0.66749E+08         0.00000E+00
    0.00000E+00         0.00000E+00        -0.28557E+08
 
   -0.28467E+08         0.39656E+05         0.00000E+00
    0.39656E+05        -0.66794E+08         0.00000E+00
    0.00000E+00         0.00000E+00        -0.28578E+08
 
   -0.28491E+08         0.42089E+05         0.00000E+00
    0.42089E+05        -0.66840E+08         0.00000E+00
    0.00000E+00         0.00000E+00        -0.28599E+08
 
   -0.28515E+08         0.44364E+05         0.00000E+00
    0.44364E+05        -0.66887E+08         0.00000E+00
    0.00000E+00         0.00000E+00        -0.28621E+08
 
   -0.28538E+08         0.46506E+05         0.00000E+00
    0.46506E+05        -0.66934E+08         0.00000E+00
    0.00000E+00         0.00000E+00        -0.28642E+08
 
   -0.28561E+08         0.48534E+05         0.00000E+00
    0.48534E+05        -0.66983E+08         0.00000E+00
    0.00000E+00         0.00000E+00        -0.28663E+08
 
   -0.28584E+08         0.50467E+05         0.00000E+00
    0.50467E+05        -0.67032E+08         0.00000E+00
    0.00000E+00         0.00000E+00        -0.28685E+08
 
   -0.28607E+08         0.52322E+05         0.00000E+00
    0.52322E+05        -0.67081E+08         0.00000E+00
    0.00000E+00         0.00000E+00        -0.28706E+08
 
   -0.28630E+08         0.54112E+05         0.00000E+00
    0.54112E+05        -0.67132E+08         0.00000E+00
    0.00000E+00         0.00000E+00        -0.28728E+08
 
   -0.28652E+08         0.55848E+05         0.00000E+00
    0.55848E+05        -0.67183E+08         0.00000E+00
    0.00000E+00         0.00000E+00        -0.28751E+08
 
   -0.28675E+08         0.57541E+05         0.00000E+00
    0.57541E+05        -0.67236E+08         0.00000E+00
    0.00000E+00         0.00000E+00        -0.28773E+08
 
   -0.28698E+08         0.59200E+05         0.00000E+00
    0.59200E+05        -0.67289E+08         0.00000E+00
    0.00000E+00         0.00000E+00        -0.28796E+08
 
   -0.28721E+08         0.60831E+05         0.00000E+00
    0.60831E+05        -0.67344E+08         0.00000E+00
    0.00000E+00         0.00000E+00        -0.28819E+08
 
   -0.28744E+08         0.62440E+05         0.00000E+00
    0.62440E+05        -0.67399E+08         0.00000E+00
    0.00000E+00         0.00000E+00        -0.28843E+08
 
   -0.28768E+08         0.64032E+05         0.00000E+00
    0.64032E+05        -0.67456E+08         0.00000E+00
    0.00000E+00         0.00000E+00        -0.28867E+08
 
   -0.28792E+08         0.65611E+05         0.00000E+00
    0.65611E+05        -0.67514E+08         0.00000E+00
    0.00000E+00         0.00000E+00        -0.28892E+08
 
   -0.28816E+08         0.67180E+05         0.00000E+00
    0.67180E+05        -0.67573E+08         0.00000E+00
    0.00000E+00         0.00000E+00        -0.28917E+08
 
   -0.28841E+08         0.68743E+05         0.00000E+00
    0.68743E+05        -0.67633E+08         0.00000E+00
    0.00000E+00         0.00000E+00        -0.28942E+08
 
   -0.28866E+08         0.70302E+05         0.00000E+00
    0.70302E+05        -0.67694E+08         0.00000E+00
    0.00000E+00         0.00000E+00        -0.28968E+08
 
   -0.28891E+08         0.71858E+05         0.00000E+00
    0.71858E+05        -0.67757E+08         0.00000E+00
    0.00000E+00         0.00000E+00        -0.28994E+08
 
   -0.28917E+08         0.73413E+05         0.00000E+00
    0.73413E+05        -0.67821E+08         0.00000E+00
    0.00000E+00         0.00000E+00        -0.29021E+08
 
   -0.28944E+08         0.74967E+05         0.00000E+00
    0.74967E+05        -0.67886E+08         0.00000E+00
    0.00000E+00         0.00000E+00        -0.29049E+08
 
   -0.28971E+08         0.76522E+05         0.00000E+00
    0.76522E+05        -0.67953E+08         0.00000E+00
    0.00000E+00         0.00000E+00        -0.29077E+08
 
   -0.28999E+08         0.78078E+05         0.00000E+00
    0.78078E+05        -0.68021E+08         0.00000E+00
    0.00000E+00         0.00000E+00        -0.29106E+08
 
   -0.29027E+08         0.79635E+05         0.00000E+00
    0.79635E+05        -0.68091E+08         0.00000E+00
    0.00000E+00         0.00000E+00        -0.29136E+08
 
   -0.29056E+08         0.81193E+05         0.00000E+00
    0.81193E+05        -0.68162E+08         0.00000E+00
    0.00000E+00         0.00000E+00        -0.29166E+08
 
   -0.29086E+08         0.82751E+05         0.00000E+00
    0.82751E+05        -0.68235E+08         0.00000E+00
    0.00000E+00         0.00000E+00        -0.29196E+08
 
   -0.29117E+08         0.84309E+05         0.00000E+00
    0.84309E+05        -0.68310E+08         0.00000E+00
    0.00000E+00         0.00000E+00        -0.29228E+08
 
   -0.29148E+08         0.85866E+05         0.00000E+00
    0.85866E+05        -0.68385E+08         0.00000E+00
    0.00000E+00         0.00000E+00        -0.29260E+08
 
   -0.29180E+08         0.87420E+05         0.00000E+00
    0.87420E+05        -0.68463E+08         0.00000E+00
    0.00000E+00         0.00000E+00        -0.29293E+08
 
   -0.29213E+08         0.88971E+05         0.00000E+00
    0.88971E+05        -0.68542E+08         0.00000E+00
    0.00000E+00         0.00000E+00        -0.29327E+08
 
   -0.29247E+08         0.90517E+05         0.00000E+00
    0.90517E+05        -0.68623E+08         0.00000E+00
    0.00000E+00         0.00000E+00        -0.29361E+08
 
   -0.29282E+08         0.92055E+05         0.00000E+00
    0.92055E+05        -0.68706E+08         0.00000E+00
    0.00000E+00         0.00000E+00        -0.29396E+08
 
   -0.29318E+08         0.93583E+05         0.00000E+00
    0.93583E+05        -0.68790E+08         0.00000E+00
    0.00000E+00         0.00000E+00        -0.29432E+08
 
   -0.29354E+08         0.95100E+05         0.00000E+00
    0.95100E+05        -0.68877E+08         0.00000E+00
    0.00000E+00         0.00000E+00        -0.29469E+08
 
   -0.29392E+08         0.96601E+05         0.00000E+00
    0.96601E+05        -0.68965E+08         0.00000E+00
    0.00000E+00         0.00000E+00        -0.29507E+08
 
   -0.29431E+08         0.98085E+05         0.00000E+00
    0.98085E+05        -0.69055E+08         0.00000E+00
    0.00000E+00         0.00000E+00        -0.29546E+08
 
   -0.29471E+08         0.99548E+05         0.00000E+00
    0.99548E+05        -0.69146E+08         0.00000E+00
    0.00000E+00         0.00000E+00        -0.29585E+08
 
   -0.29511E+08         0.10099E+06         0.00000E+00
    0.10099E+06        -0.69240E+08         0.00000E+00
    0.00000E+00         0.00000E+00        -0.29625E+08
 
   -0.29554E+08         0.10240E+06         0.00000E+00
    0.10240E+06        -0.69335E+08         0.00000E+00
    0.00000E+00         0.00000E+00        -0.29667E+08
 
   -0.29597E+08         0.10377E+06         0.00000E+00
    0.10377E+06        -0.69433E+08         0.00000E+00
    0.00000E+00         0.00000E+00        -0.29709E+08
 
   -0.29641E+08         0.10511E+06         0.00000E+00
    0.10511E+06        -0.69532E+08         0.00000E+00
    0.00000E+00         0.00000E+00        -0.29752E+08
 
   -0.29687E+08         0.10641E+06         0.00000E+00
    0.10641E+06        -0.69634E+08         0.00000E+00
    0.00000E+00         0.00000E+00        -0.29796E+08
 
   -0.29734E+08         0.10766E+06         0.00000E+00
    0.10766E+06        -0.69737E+08         0.00000E+00
    0.00000E+00         0.00000E+00        -0.29841E+08
 
   -0.29782E+08         0.10885E+06         0.00000E+00
    0.10885E+06        -0.69842E+08         0.00000E+00
    0.00000E+00         0.00000E+00        -0.29887E+08
 
   -0.29831E+08         0.10998E+06         0.00000E+00
    0.10998E+06        -0.69949E+08         0.00000E+00
    0.00000E+00         0.00000E+00        -0.29934E+08
 
   -0.29882E+08         0.11105E+06         0.00000E+00
    0.11105E+06        -0.70059E+08         0.00000E+00
    0.00000E+00         0.00000E+00        -0.29982E+08
 
   -0.29934E+08         0.11204E+06         0.00000E+00
    0.11204E+06        -0.70170E+08         0.00000E+00
    0.00000E+00         0.00000E+00        -0.30031E+08
 
   -0.29988E+08         0.11295E+06         0.00000E+00
    0.11295E+06        -0.70283E+08         0.00000E+00
    0.00000E+00         0.00000E+00        -0.30081E+08
 
   -0.30044E+08         0.11378E+06         0.00000E+00
    0.11378E+06        -0.70399E+08         0.00000E+00
    0.00000E+00         0.00000E+00        -0.30133E+08
 
   -0.30100E+08         0.11450E+06         0.00000E+00
    0.11450E+06        -0.70516E+08         0.00000E+00
    0.00000E+00         0.00000E+00        -0.30185E+08
 
   -0.30159E+08         0.11511E+06         0.00000E+00
    0.11511E+06        -0.70635E+08         0.00000E+00
    0.00000E+00         0.00000E+00        -0.30238E+08
 
   -0.30219E+08         0.11560E+06         0.00000E+00
    0.11560E+06        -0.70756E+08         0.00000E+00
    0.00000E+00         0.00000E+00        -0.30293E+08
 
   -0.30281E+08         0.11595E+06         0.00000E+00
    0.11595E+06        -0.70880E+08         0.00000E+00
    0.00000E+00         0.00000E+00        -0.30348E+08
 
   -0.30344E+08         0.11616E+06         0.00000E+00
    0.11616E+06        -0.71005E+08         0.00000E+00
    0.00000E+00         0.00000E+00        -0.30405E+08
 
   -0.30410E+08         0.11621E+06         0.00000E+00
    0.11621E+06        -0.71132E+08         0.00000E+00
    0.00000E+00         0.00000E+00        -0.30462E+08
 
   -0.30477E+08         0.11607E+06         0.00000E+00
    0.11607E+06        -0.71261E+08         0.00000E+00
    0.00000E+00         0.00000E+00        -0.30521E+08
 
   -0.30546E+08         0.11574E+06         0.00000E+00
    0.11574E+06        -0.71392E+08         0.00000E+00
    0.00000E+00         0.00000E+00        -0.30581E+08
 
   -0.30618E+08         0.11519E+06         0.00000E+00
    0.11519E+06        -0.71525E+08         0.00000E+00
    0.00000E+00         0.00000E+00        -0.30643E+08
 
   -0.30691E+08         0.11439E+06         0.00000E+00
    0.11439E+06        -0.71660E+08         0.00000E+00
    0.00000E+00         0.00000E+00        -0.30705E+08
 
   -0.30767E+08         0.11332E+06         0.00000E+00
    0.11332E+06        -0.71796E+08         0.00000E+00
    0.00000E+00         0.00000E+00        -0.30769E+08
 
   -0.30845E+08         0.11193E+06         0.00000E+00
    0.11193E+06        -0.71935E+08         0.00000E+00
    0.00000E+00         0.00000E+00        -0.30834E+08
 
   -0.30925E+08         0.11019E+06         0.00000E+00
    0.11019E+06        -0.72075E+08         0.00000E+00
    0.00000E+00         0.00000E+00        -0.30900E+08
 
   -0.31008E+08         0.10806E+06         0.00000E+00
    0.10806E+06        -0.72217E+08         0.00000E+00
    0.00000E+00         0.00000E+00        -0.30968E+08
 
   -0.31094E+08         0.10547E+06         0.00000E+00
    0.10547E+06        -0.72361E+08         0.00000E+00
    0.00000E+00         0.00000E+00        -0.31037E+08
 
   -0.31183E+08         0.10237E+06         0.00000E+00
    0.10237E+06        -0.72506E+08         0.00000E+00
    0.00000E+00         0.00000E+00        -0.31107E+08
 
   -0.31275E+08         0.98682E+05         0.00000E+00
    0.98682E+05        -0.72653E+08         0.00000E+00
    0.00000E+00         0.00000E+00        -0.31179E+08
 
   -0.31371E+08         0.94334E+05         0.00000E+00
    0.94334E+05        -0.72802E+08         0.00000E+00
    0.00000E+00         0.00000E+00        -0.31252E+08
 
   -0.31470E+08         0.89235E+05         0.00000E+00
    0.89235E+05        -0.72952E+08         0.00000E+00
    0.00000E+00         0.00000E+00        -0.31326E+08
 
   -0.31573E+08         0.83294E+05         0.00000E+00
    0.83294E+05        -0.73103E+08         0.00000E+00
    0.00000E+00         0.00000E+00        -0.31403E+08
 
   -0.31680E+08         0.76416E+05         0.00000E+00
    0.76416E+05        -0.73256E+08         0.00000E+00
    0.00000E+00         0.00000E+00        -0.31481E+08
 
   -0.31791E+08         0.68510E+05         0.00000E+00
    0.68510E+05        -0.73411E+08         0.00000E+00
    0.00000E+00         0.00000E+00        -0.31561E+08
 
   -0.31908E+08         0.59499E+05         0.00000E+00
    0.59499E+05        -0.73566E+08         0.00000E+00
    0.00000E+00         0.00000E+00        -0.31642E+08
 
   -0.32029E+08         0.49329E+05         0.00000E+00
    0.49329E+05        -0.73723E+08         0.00000E+00
    0.00000E+00         0.00000E+00        -0.31726E+08
 
   -0.32156E+08         0.37990E+05         0.00000E+00
    0.37990E+05        -0.73881E+08         0.00000E+00
    0.00000E+00         0.00000E+00        -0.31811E+08
 
   -0.32289E+08         0.25536E+05         0.00000E+00
    0.25536E+05        -0.74039E+08         0.00000E+00
    0.00000E+00         0.00000E+00        -0.31899E+08
 
   -0.32428E+08         0.12113E+05         0.00000E+00
    0.12113E+05        -0.74199E+08         0.00000E+00
    0.00000E+00         0.00000E+00        -0.31988E+08
 
   -0.32573E+08        -0.20058E+04         0.00000E+00
   -0.20058E+04        -0.74358E+08         0.00000E+00
    0.00000E+00         0.00000E+00        -0.32080E+08
 
   -0.32724E+08        -0.16377E+05         0.00000E+00
   -0.16377E+05        -0.74518E+08         0.00000E+00
    0.00000E+00         0.00000E+00        -0.32173E+08
 
   -0.32881E+08        -0.30319E+05         0.00000E+00
   -0.30319E+05        -0.74678E+08         0.00000E+00
    0.00000E+00         0.00000E+00        -0.32268E+08
 
   -0.33041E+08        -0.42788E+05         0.00000E+00
   -0.42788E+05        -0.74838E+08         0.00000E+00
    0.00000E+00         0.00000E+00        -0.32364E+08
 
   -0.33204E+08        -0.52139E+05         0.00000E+00
   -0.52139E+05        -0.74996E+08         0.00000E+00
    0.00000E+00         0.00000E+00        -0.32460E+08
 
   -0.33367E+08        -0.55236E+05         0.00000E+00
   -0.55236E+05        -0.75151E+08         0.00000E+00
    0.00000E+00         0.00000E+00        -0.32555E+08
 
   -0.33525E+08        -0.45881E+05         0.00000E+00
   -0.45881E+05        -0.75297E+08         0.00000E+00
    0.00000E+00         0.00000E+00        -0.32646E+08
 
   -0.33681E+08        -0.18600E+05         0.00000E+00
   -0.18600E+05        -0.75415E+08         0.00000E+00
    0.00000E+00         0.00000E+00        -0.32729E+08
 
   -0.27929E+08        -0.43737E+04         0.00000E+00
   -0.43737E+04        -0.66132E+08         0.00000E+00
    0.00000E+00         0.00000E+00        -0.28218E+08
 
   -0.27968E+08        -0.10247E+05         0.00000E+00
   -0.10247E+05        -0.66163E+08         0.00000E+00
    0.00000E+00         0.00000E+00        -0.28239E+08
 
   -0.28008E+08        -0.11304E+05         0.00000E+00
   -0.11304E+05        -0.66200E+08         0.00000E+00
    0.00000E+00         0.00000E+00        -0.28262E+08
 
   -0.28048E+08        -0.93993E+04         0.00000E+00
   -0.93993E+04        -0.66240E+08         0.00000E+00
    0.00000E+00         0.00000E+00        -0.28286E+08
 
   -0.28088E+08        -0.61609E+04         0.00000E+00
   -0.61609E+04        -0.66280E+08         0.00000E+00
    0.00000E+00         0.00000E+00        -0.28311E+08
 
   -0.28128E+08        -0.22802E+04         0.00000E+00
   -0.22802E+04        -0.66321E+08         0.00000E+00
    0.00000E+00         0.00000E+00        -0.28335E+08
 
   -0.28165E+08         0.18893E+04         0.00000E+00
    0.18893E+04        -0.66362E+08         0.00000E+00
    0.00000E+00         0.00000E+00        -0.28358E+08
 
   -0.28202E+08         0.61241E+04         0.00000E+00
    0.61241E+04        -0.66403E+08         0.00000E+00
    0.00000E+00         0.00000E+00        -0.28382E+08
 
   -0.28236E+08         0.10281E+05         0.00000E+00
    0.10281E+05        -0.66445E+08         0.00000E+00
    0.00000E+00         0.00000E+00        -0.28404E+08
 
   -0.28269E+08         0.14268E+05         0.00000E+00
    0.14268E+05        -0.66487E+08         0.00000E+00
    0.00000E+00         0.00000E+00        -0.28427E+08
 
   -0.28301E+08         0.18031E+05         0.00000E+00
    0.18031E+05        -0.66530E+08         0.00000E+00
    0.00000E+00         0.00000E+00        -0.28449E+08
 
   -0.28331E+08         0.21541E+05         0.00000E+00
    0.21541E+05        -0.66573E+08         0.00000E+00
    0.00000E+00         0.00000E+00        -0.28471E+08
 
   -0.28360E+08         0.24792E+05         0.00000E+00
    0.24792E+05        -0.66616E+08         0.00000E+00
    0.00000E+00         0.00000E+00        -0.28493E+08
 
   -0.28387E+08         0.27792E+05         0.00000E+00
    0.27792E+05        -0.66660E+08         0.00000E+00
    0.00000E+00         0.00000E+00        -0.28514E+08
 
   -0.28414E+08         0.30555E+05         0.00000E+00
    0.30555E+05        -0.66704E+08         0.00000E+00
    0.00000E+00         0.00000E+00        -0.28535E+08
 
   -0.28439E+08         0.33104E+05         0.00000E+00
    0.33104E+05        -0.66749E+08         0.00000E+00
    0.00000E+00         0.00000E+00        -0.28557E+08
 
   -0.28464E+08         0.35462E+05         0.00000E+00
    0.35462E+05        -0.66795E+08         0.00000E+00
    0.00000E+00         0.00000E+00        -0.28578E+08
 
   -0.28489E+08         0.37653E+05         0.00000E+00
    0.37653E+05        -0.66841E+08         0.00000E+00
    0.00000E+00         0.00000E+00        -0.28599E+08
 
   -0.28513E+08         0.39700E+05         0.00000E+00
    0.39700E+05        -0.66887E+08         0.00000E+00
    0.00000E+00         0.00000E+00        -0.28620E+08
 
   -0.28536E+08         0.41625E+05         0.00000E+00
    0.41625E+05        -0.66935E+08         0.00000E+00
    0.00000E+00         0.00000E+00        -0.28641E+08
 
   -0.28559E+08         0.43446E+05         0.00000E+00
    0.43446E+05        -0.66983E+08         0.00000E+00
    0.00000E+00         0.00000E+00        -0.28663E+08
 
   -0.28582E+08         0.45181E+05         0.00000E+00
    0.45181E+05        -0.67032E+08         0.00000E+00
    0.00000E+00         0.00000E+00        -0.28684E+08
 
   -0.28605E+08         0.46844E+05         0.00000E+00
    0.46844E+05        -0.67082E+08         0.00000E+00
    0.00000E+00         0.00000E+00        -0.28706E+08
 
   -0.28628E+08         0.48448E+05         0.00000E+00
    0.48448E+05        -0.67132E+08         0.00000E+00
    0.00000E+00         0.00000E+00        -0.28728E+08
 
   -0.28650E+08         0.50004E+05         0.00000E+00
    0.50004E+05        -0.67184E+08         0.00000E+00
    0.00000E+00         0.00000E+00        -0.28750E+08
 
   -0.28673E+08         0.51520E+05         0.00000E+00
    0.51520E+05        -0.67236E+08         0.00000E+00
    0.00000E+00         0.00000E+00        -0.28773E+08
 
   -0.28696E+08         0.53006E+05         0.00000E+00
    0.53006E+05        -0.67290E+08         0.00000E+00
    0.00000E+00         0.00000E+00        -0.28796E+08
 
   -0.28719E+08         0.54466E+05         0.00000E+00
    0.54466E+05        -0.67344E+08         0.00000E+00
    0.00000E+00         0.00000E+00        -0.28819E+08
 
   -0.28742E+08         0.55906E+05         0.00000E+00
    0.55906E+05        -0.67400E+08         0.00000E+00
    0.00000E+00         0.00000E+00        -0.28843E+08
 
   -0.28766E+08         0.57331E+05         0.00000E+00
    0.57331E+05        -0.67456E+08         0.00000E+00
    0.00000E+00         0.00000E+00        -0.28867E+08
 
   -0.28789E+08         0.58744E+05         0.00000E+00
    0.58744E+05        -0.67514E+08         0.00000E+00
    0.00000E+00         0.00000E+00        -0.28891E+08
 
   -0.28814E+08         0.60149E+05         0.00000E+00
    0.60149E+05        -0.67573E+08         0.00000E+00
    0.00000E+00         0.00000E+00        -0.28916E+08
 
   -0.28838E+08         0.61548E+05         0.00000E+00
    0.61548E+05        -0.67633E+08         0.00000E+00
    0.00000E+00         0.00000E+00        -0.28941E+08
 
   -0.28863E+08         0.62943E+05         0.00000E+00
    0.62943E+05        -0.67695E+08         0.00000E+00
    0.00000E+00         0.00000E+00        -0.28967E+08
 
   -0.28889E+08         0.64335E+05         0.00000E+00
    0.64335E+05        -0.67757E+08         0.00000E+00
    0.00000E+00         0.00000E+00        -0.28994E+08
 
   -0.28915E+08         0.65725E+05         0.00000E+00
    0.65725E+05        -0.67821E+08         0.00000E+00
    0.00000E+00         0.00000E+00        -0.29021E+08
 
   -0.28941E+08         0.67116E+05         0.00000E+00
    0.67116E+05        -0.67887E+08         0.00000E+00
    0.00000E+00         0.00000E+00        -0.29048E+08
 
   -0.28968E+08         0.68507E+05         0.00000E+00
    0.68507E+05        -0.67954E+08         0.00000E+00
    0.00000E+00         0.00000E+00        -0.29077E+08
 
   -0.28996E+08         0.69898E+05         0.00000E+00
    0.69898E+05        -0.68022E+08         0.00000E+00
    0.00000E+00         0.00000E+00        -0.29105E+08
 
   -0.29024E+08         0.71291E+05         0.00000E+00
    0.71291E+05        -0.68091E+08         0.00000E+00
    0.00000E+00         0.00000E+00        -0.29135E+08
 
   -0.29054E+08         0.72684E+05         0.00000E+00
    0.72684E+05        -0.68163E+08         0.00000E+00
    0.00000E+00         0.00000E+00        -0.29165E+08
 
   -0.29083E+08         0.74077E+05         0.00000E+00
    0.74077E+05        -0.68235E+08         0.00000E+00
    0.00000E+00         0.00000E+00        -0.29196E+08
 
   -0.29114E+08         0.75470E+05         0.00000E+00
    0.75470E+05        -0.68310E+08         0.00000E+00
    0.00000E+00         0.00000E+00        -0.29227E+08
 
   -0.29145E+08         0.76861E+05         0.00000E+00
    0.76861E+05        -0.68386E+08         0.00000E+00
    0.00000E+00         0.00000E+00        -0.29259E+08
 
   -0.29177E+08         0.78251E+05         0.00000E+00
    0.78251E+05        -0.68463E+08         0.00000E+00
    0.00000E+00         0.00000E+00        -0.29292E+08
 
   -0.29210E+08         0.79636E+05         0.00000E+00
    0.79636E+05        -0.68543E+08         0.00000E+00
    0.00000E+00         0.00000E+00        -0.29326E+08
 
   -0.29244E+08         0.81017E+05         0.00000E+00
    0.81017E+05        -0.68624E+08         0.00000E+00
    0.00000E+00         0.00000E+00        -0.29360E+08
 
   -0.29279E+08         0.82391E+05         0.00000E+00
    0.82391E+05        -0.68706E+08         0.00000E+00
    0.00000E+00         0.00000E+00        -0.29396E+08
 
   -0.29315E+08         0.83757E+05         0.00000E+00
    0.83757E+05        -0.68791E+08         0.00000E+00
    0.00000E+00         0.00000E+00        -0.29432E+08
 
   -0.29351E+08         0.85111E+05         0.00000E+00
    0.85111E+05        -0.68877E+08         0.00000E+00
    0.00000E+00         0.00000E+00        -0.29468E+08
 
   -0.29389E+08         0.86452E+05         0.00000E+00
    0.86452E+05        -0.68965E+08         0.00000E+00
    0.00000E+00         0.00000E+00        -0.29506E+08
 
   -0.29428E+08         0.87777E+05         0.00000E+00
    0.87777E+05        -0.69055E+08         0.00000E+00
    0.00000E+00         0.00000E+00        -0.29545E+08
 
   -0.29467E+08         0.89083E+05         0.00000E+00
    0.89083E+05        -0.69147E+08         0.00000E+00
    0.00000E+00         0.00000E+00        -0.29584E+08
 
   -0.29508E+08         0.90366E+05         0.00000E+00
    0.90366E+05        -0.69240E+08         0.00000E+00
    0.00000E+00         0.00000E+00        -0.29625E+08
 
   -0.29550E+08         0.91624E+05         0.00000E+00
    0.91624E+05        -0.69336E+08         0.00000E+00
    0.00000E+00         0.00000E+00        -0.29666E+08
 
   -0.29594E+08         0.92852E+05         0.00000E+00
    0.92852E+05        -0.69433E+08         0.00000E+00
    0.00000E+00         0.00000E+00        -0.29708E+08
 
   -0.29638E+08         0.94046E+05         0.00000E+00
    0.94046E+05        -0.69533E+08         0.00000E+00
    0.00000E+00         0.00000E+00        -0.29751E+08
 
   -0.29684E+08         0.95201E+05         0.00000E+00
    0.95201E+05        -0.69634E+08         0.00000E+00
    0.00000E+00         0.00000E+00        -0.29795E+08
 
   -0.29730E+08         0.96314E+05         0.00000E+00
    0.96314E+05        -0.69737E+08         0.00000E+00
    0.00000E+00         0.00000E+00        -0.29840E+08
 
   -0.29779E+08         0.97378E+05         0.00000E+00
    0.97378E+05        -0.69842E+08         0.00000E+00
    0.00000E+00         0.00000E+00        -0.29886E+08
 
   -0.29828E+08         0.98388E+05         0.00000E+00
    0.98388E+05        -0.69950E+08         0.00000E+00
    0.00000E+00         0.00000E+00        -0.29933E+08
 
   -0.29879E+08         0.99337E+05         0.00000E+00
    0.99337E+05        -0.70059E+08         0.00000E+00
    0.00000E+00         0.00000E+00        -0.29981E+08
 
   -0.29931E+08         0.10022E+06         0.00000E+00
    0.10022E+06        -0.70170E+08         0.00000E+00
    0.00000E+00         0.00000E+00        -0.30030E+08
 
   -0.29985E+08         0.10103E+06         0.00000E+00
    0.10103E+06        -0.70283E+08         0.00000E+00
    0.00000E+00         0.00000E+00        -0.30081E+08
 
   -0.30041E+08         0.10176E+06         0.00000E+00
    0.10176E+06        -0.70399E+08         0.00000E+00
    0.00000E+00         0.00000E+00        -0.30132E+08
 
   -0.30098E+08         0.10240E+06         0.00000E+00
    0.10240E+06        -0.70516E+08         0.00000E+00
    0.00000E+00         0.00000E+00        -0.30184E+08
 
   -0.30156E+08         0.10294E+06         0.00000E+00
    0.10294E+06        -0.70635E+08         0.00000E+00
    0.00000E+00         0.00000E+00        -0.30237E+08
 
   -0.30216E+08         0.10337E+06         0.00000E+00
    0.10337E+06        -0.70756E+08         0.00000E+00
    0.00000E+00         0.00000E+00        -0.30292E+08
 
   -0.30278E+08         0.10368E+06         0.00000E+00
    0.10368E+06        -0.70880E+08         0.00000E+00
    0.00000E+00         0.00000E+00        -0.30347E+08
 
   -0.30342E+08         0.10386E+06         0.00000E+00
    0.10386E+06        -0.71005E+08         0.00000E+00
    0.00000E+00         0.00000E+00        -0.30404E+08
 
   -0.30407E+08         0.10389E+06         0.00000E+00
    0.10389E+06        -0.71132E+08         0.00000E+00
    0.00000E+00         0.00000E+00        -0.30462E+08
 
   -0.30475E+08         0.10376E+06         0.00000E+00
    0.10376E+06        -0.71261E+08         0.00000E+00
    0.00000E+00         0.00000E+00        -0.30521E+08
 
   -0.30544E+08         0.10346E+06         0.00000E+00
    0.10346E+06        -0.71392E+08         0.00000E+00
    0.00000E+00         0.00000E+00        -0.30581E+08
 
   -0.30616E+08         0.10296E+06         0.00000E+00
    0.10296E+06        -0.71525E+08         0.00000E+00
    0.00000E+00         0.00000E+00        -0.30642E+08
 
   -0.30689E+08         0.10223E+06         0.00000E+00
    0.10223E+06        -0.71660E+08         0.00000E+00
    0.00000E+00         0.00000E+00        -0.30705E+08
 
   -0.30765E+08         0.10126E+06         0.00000E+00
    0.10126E+06        -0.71796E+08         0.00000E+00
    0.00000E+00         0.00000E+00        -0.30768E+08
 
   -0.30843E+08         0.10000E+06         0.00000E+00
    0.10000E+06        -0.71935E+08         0.00000E+00
    0.00000E+00         0.00000E+00        -0.30833E+08
 
   -0.30924E+08         0.98432E+05         0.00000E+00
    0.98432E+05        -0.72075E+08         0.00000E+00
    0.00000E+00         0.00000E+00        -0.30900E+08
 
   -0.31008E+08         0.96503E+05         0.00000E+00
    0.96503E+05        -0.72217E+08         0.00000E+00
    0.00000E+00         0.00000E+00        -0.30967E+08
 
   -0.31094E+08         0.94165E+05         0.00000E+00
    0.94165E+05        -0.72360E+08         0.00000E+00
    0.00000E+00         0.00000E+00        -0.31036E+08
 
   -0.31183E+08         0.91361E+05         0.00000E+00
    0.91361E+05        -0.72505E+08         0.00000E+00
    0.00000E+00         0.00000E+00        -0.31107E+08
 
   -0.31275E+08         0.88027E+05         0.00000E+00
    0.88027E+05        -0.72652E+08         0.00000E+00
    0.00000E+00         0.00000E+00        -0.31178E+08
 
   -0.31371E+08         0.84090E+05         0.00000E+00
    0.84090E+05        -0.72801E+08         0.00000E+00
    0.00000E+00         0.00000E+00        -0.31252E+08
 
   -0.31471E+08         0.79468E+05         0.00000E+00
    0.79468E+05        -0.72951E+08         0.00000E+00
    0.00000E+00         0.00000E+00        -0.31326E+08
 
   -0.31574E+08         0.74076E+05         0.00000E+00
    0.74076E+05        -0.73102E+08         0.00000E+00
    0.00000E+00         0.00000E+00        -0.31403E+08
 
   -0.31682E+08         0.67825E+05         0.00000E+00
    0.67825E+05        -0.73255E+08         0.00000E+00
    0.00000E+00         0.00000E+00        -0.31481E+08
 
   -0.31794E+08         0.60629E+05         0.00000E+00
    0.60629E+05        -0.73409E+08         0.00000E+00
    0.00000E+00         0.00000E+00        -0.31561E+08
 
   -0.31912E+08         0.52414E+05         0.00000E+00
    0.52414E+05        -0.73564E+08         0.00000E+00
    0.00000E+00         0.00000E+00        -0.31643E+08
 
   -0.32034E+08         0.43127E+05         0.00000E+00
    0.43127E+05        -0.73721E+08         0.00000E+00
    0.00000E+00         0.00000E+00        -0.31727E+08
 
   -0.32163E+08         0.32754E+05         0.00000E+00
    0.32754E+05        -0.73878E+08         0.00000E+00
    0.00000E+00         0.00000E+00        -0.31812E+08
 
   -0.32298E+08         0.21338E+05         0.00000E+00
    0.21338E+05        -0.74037E+08         0.00000E+00
    0.00000E+00         0.00000E+00        -0.31900E+08
 
   -0.32439E+08         0.90028E+04         0.00000E+00
    0.90028E+04        -0.74196E+08         0.00000E+00
    0.00000E+00         0.00000E+00        -0.31990E+08
 
   -0.32586E+08        -0.40131E+04         0.00000E+00
   -0.40131E+04        -0.74356E+08         0.00000E+00
    0.00000E+00         0.00000E+00        -0.32083E+08
 
   -0.32740E+08        -0.17322E+05         0.00000E+00
   -0.17322E+05        -0.74516E+08         0.00000E+00
    0.00000E+00         0.00000E+00        -0.32177E+08
 
   -0.32899E+08        -0.30333E+05         0.00000E+00
   -0.30333E+05        -0.74676E+08         0.00000E+00
    0.00000E+00         0.00000E+00        -0.32272E+08
 
   -0.33064E+08        -0.42135E+05         0.00000E+00
   -0.42135E+05        -0.74835E+08         0.00000E+00
    0.00000E+00         0.00000E+00        -0.32370E+08
 
   -0.33231E+08        -0.51299E+05         0.00000E+00
   -0.51299E+05        -0.74994E+08         0.00000E+00
    0.00000E+00         0.00000E+00        -0.32468E+08
 
   -0.33397E+08        -0.55053E+05         0.00000E+00
   -0.55053E+05        -0.75151E+08         0.00000E+00
    0.00000E+00         0.00000E+00        -0.32565E+08
 
   -0.33559E+08        -0.46901E+05         0.00000E+00
   -0.46901E+05        -0.75300E+08         0.00000E+00
    0.00000E+00         0.00000E+00        -0.32658E+08
 
   -0.33717E+08        -0.19468E+05         0.00000E+00
   -0.19468E+05        -0.75422E+08         0.00000E+00
    0.00000E+00         0.00000E+00        -0.32742E+08
 
   -0.27919E+08        -0.46337E+04         0.00000E+00
   -0.46337E+04        -0.66131E+08         0.00000E+00
    0.00000E+00         0.00000E+00        -0.28215E+08
 
   -0.27959E+08        -0.10531E+05         0.00000E+00
   -0.10531E+05        -0.66162E+08         0.00000E+00
    0.00000E+00         0.00000E+00        -0.28236E+08
 
   -0.27999E+08        -0.11291E+05         0.00000E+00
   -0.11291E+05        -0.66201E+08         0.00000E+00
    0.00000E+00         0.00000E+00        -0.28260E+08
 
   -0.28041E+08        -0.93271E+04         0.00000E+00
   -0.93271E+04        -0.66240E+08         0.00000E+00
    0.00000E+00         0.00000E+00        -0.28284E+08
 
   -0.28082E+08        -0.62678E+04         0.00000E+00
   -0.62678E+04        -0.66281E+08         0.00000E+00
    0.00000E+00         0.00000E+00        -0.28309E+08
 
   -0.28122E+08        -0.26833E+04         0.00000E+00
   -0.26833E+04        -0.66322E+08         0.00000E+00
    0.00000E+00         0.00000E+00        -0.28333E+08
 
   -0.28161E+08         0.11256E+04         0.00000E+00
    0.11256E+04        -0.66363E+08         0.00000E+00
    0.00000E+00         0.00000E+00        -0.28357E+08
 
   -0.28198E+08         0.49697E+04         0.00000E+00
    0.49697E+04        -0.66404E+08         0.00000E+00
    0.00000E+00         0.00000E+00        -0.28381E+08
 
   -0.28233E+08         0.87280E+04         0.00000E+00
    0.87280E+04        -0.66446E+08         0.00000E+00
    0.00000E+00         0.00000E+00        -0.28404E+08
 
   -0.28266E+08         0.12322E+05         0.00000E+00
    0.12322E+05        -0.66488E+08         0.00000E+00
    0.00000E+00         0.00000E+00        -0.28426E+08
 
   -0.28298E+08         0.15704E+05         0.00000E+00
    0.15704E+05        -0.66531E+08         0.00000E+00
    0.00000E+00         0.00000E+00        -0.28449E+08
 
   -0.28328E+08         0.18854E+05         0.00000E+00
    0.18854E+05        -0.66573E+08         0.00000E+00
    0.00000E+00         0.00000E+00        -0.28470E+08
 
   -0.28357E+08         0.21765E+05         0.00000E+00
    0.21765E+05        -0.66617E+08         0.00000E+00
    0.00000E+00         0.00000E+00        -0.28492E+08
 
   -0.28385E+08         0.24445E+05         0.00000E+00
    0.24445E+05        -0.66661E+08         0.00000E+00
    0.00000E+00         0.00000E+00        -0.28514E+08
 
   -0.28412E+08         0.26910E+05         0.00000E+00
    0.26910E+05        -0.66705E+08         0.00000E+00
    0.00000E+00         0.00000E+00        -0.28535E+08
 
   -0.28437E+08         0.29180E+05         0.00000E+00
    0.29180E+05        -0.66750E+08         0.00000E+00
    0.00000E+00         0.00000E+00        -0.28556E+08
 
   -0.28462E+08         0.31277E+05         0.00000E+00
    0.31277E+05        -0.66795E+08         0.00000E+00
    0.00000E+00         0.00000E+00        -0.28577E+08
 
   -0.28487E+08         0.33223E+05         0.00000E+00
    0.33223E+05        -0.66841E+08         0.00000E+00
    0.00000E+00         0.00000E+00        -0.28598E+08
 
   -0.28511E+08         0.35038E+05         0.00000E+00
    0.35038E+05        -0.66888E+08         0.00000E+00
    0.00000E+00         0.00000E+00        -0.28620E+08
 
   -0.28534E+08         0.36744E+05         0.00000E+00
    0.36744E+05        -0.66935E+08         0.00000E+00
    0.00000E+00         0.00000E+00        -0.28641E+08
 
   -0.28557E+08         0.38356E+05         0.00000E+00
    0.38356E+05        -0.66983E+08         0.00000E+00
    0.00000E+00         0.00000E+00        -0.28662E+08
 
   -0.28580E+08         0.39890E+05         0.00000E+00
    0.39890E+05        -0.67032E+08         0.00000E+00
    0.00000E+00         0.00000E+00        -0.28684E+08
 
   -0.28603E+08         0.41361E+05         0.00000E+00
    0.41361E+05        -0.67082E+08         0.00000E+00
    0.00000E+00         0.00000E+00        -0.28705E+08
 
   -0.28626E+08         0.42778E+05         0.00000E+00
    0.42778E+05        -0.67133E+08         0.00000E+00
    0.00000E+00         0.00000E+00        -0.28727E+08
 
   -0.28648E+08         0.44153E+05         0.00000E+00
    0.44153E+05        -0.67184E+08         0.00000E+00
    0.00000E+00         0.00000E+00        -0.28750E+08
 
   -0.28671E+08         0.45492E+05         0.00000E+00
    0.45492E+05        -0.67237E+08         0.00000E+00
    0.00000E+00         0.00000E+00        -0.28772E+08
 
   -0.28694E+08         0.46804E+05         0.00000E+00
    0.46804E+05        -0.67290E+08         0.00000E+00
    0.00000E+00         0.00000E+00        -0.28795E+08
 
   -0.28717E+08         0.48093E+05         0.00000E+00
    0.48093E+05        -0.67344E+08         0.00000E+00
    0.00000E+00         0.00000E+00        -0.28818E+08
 
   -0.28740E+08         0.49364E+05         0.00000E+00
    0.49364E+05        -0.67400E+08         0.00000E+00
    0.00000E+00         0.00000E+00        -0.28842E+08
 
   -0.28763E+08         0.50622E+05         0.00000E+00
    0.50622E+05        -0.67457E+08         0.00000E+00
    0.00000E+00         0.00000E+00        -0.28866E+08
 
   -0.28787E+08         0.51870E+05         0.00000E+00
    0.51870E+05        -0.67514E+08         0.00000E+00
    0.00000E+00         0.00000E+00        -0.28890E+08
 
   -0.28811E+08         0.53109E+05         0.00000E+00
    0.53109E+05        -0.67573E+08         0.00000E+00
    0.00000E+00         0.00000E+00        -0.28915E+08
 
   -0.28836E+08         0.54344E+05         0.00000E+00
    0.54344E+05        -0.67633E+08         0.00000E+00
    0.00000E+00         0.00000E+00        -0.28941E+08
 
   -0.28861E+08         0.55574E+05         0.00000E+00
    0.55574E+05        -0.67695E+08         0.00000E+00
    0.00000E+00         0.00000E+00        -0.28967E+08
 
   -0.28886E+08         0.56802E+05         0.00000E+00
    0.56802E+05        -0.67758E+08         0.00000E+00
    0.00000E+00         0.00000E+00        -0.28993E+08
 
   -0.28912E+08         0.58029E+05         0.00000E+00
    0.58029E+05        -0.67822E+08         0.00000E+00
    0.00000E+00         0.00000E+00        -0.29020E+08
 
   -0.28939E+08         0.59256E+05         0.00000E+00
    0.59256E+05        -0.67887E+08         0.00000E+00
    0.00000E+00         0.00000E+00        -0.29048E+08
 
   -0.28966E+08         0.60483E+05         0.00000E+00
    0.60483E+05        -0.67954E+08         0.00000E+00
    0.00000E+00         0.00000E+00        -0.29076E+08
 
   -0.28993E+08         0.61710E+05         0.00000E+00
    0.61710E+05        -0.68022E+08         0.00000E+00
    0.00000E+00         0.00000E+00        -0.29105E+08
 
   -0.29022E+08         0.62938E+05         0.00000E+00
    0.62938E+05        -0.68092E+08         0.00000E+00
    0.00000E+00         0.00000E+00        -0.29134E+08
 
   -0.29051E+08         0.64166E+05         0.00000E+00
    0.64166E+05        -0.68163E+08         0.00000E+00
    0.00000E+00         0.00000E+00        -0.29164E+08
 
   -0.29081E+08         0.65395E+05         0.00000E+00
    0.65395E+05        -0.68236E+08         0.00000E+00
    0.00000E+00         0.00000E+00        -0.29195E+08
 
   -0.29111E+08         0.66622E+05         0.00000E+00
    0.66622E+05        -0.68310E+08         0.00000E+00
    0.00000E+00         0.00000E+00        -0.29226E+08
 
   -0.29142E+08         0.67849E+05         0.00000E+00
    0.67849E+05        -0.68386E+08         0.00000E+00
    0.00000E+00         0.00000E+00        -0.29259E+08
 
   -0.29174E+08         0.69074E+05         0.00000E+00
    0.69074E+05        -0.68464E+08         0.00000E+00
    0.00000E+00         0.00000E+00        -0.29291E+08
 
   -0.29207E+08         0.70295E+05         0.00000E+00
    0.70295E+05        -0.68543E+08         0.00000E+00
    0.00000E+00         0.00000E+00        -0.29325E+08
 
   -0.29241E+08         0.71512E+05         0.00000E+00
    0.71512E+05        -0.68624E+08         0.00000E+00
    0.00000E+00         0.00000E+00        -0.29360E+08
 
   -0.29276E+08         0.72723E+05         0.00000E+00
    0.72723E+05        -0.68707E+08         0.00000E+00
    0.00000E+00         0.00000E+00        -0.29395E+08
 
   -0.29312E+08         0.73925E+05         0.00000E+00
    0.73925E+05        -0.68791E+08         0.00000E+00
    0.00000E+00         0.00000E+00        -0.29431E+08
 
   -0.29348E+08         0.75118E+05         0.00000E+00
    0.75118E+05        -0.68877E+08         0.00000E+00
    0.00000E+00         0.00000E+00        -0.29468E+08
 
   -0.29386E+08         0.76299E+05         0.00000E+00
    0.76299E+05        -0.68965E+08         0.00000E+00
    0.00000E+00         0.00000E+00        -0.29505E+08
 
   -0.29425E+08         0.77466E+05         0.00000E+00
    0.77466E+05        -0.69055E+08         0.00000E+00
    0.00000E+00         0.00000E+00        -0.29544E+08
 
   -0.29464E+08         0.78616E+05         0.00000E+00
    0.78616E+05        -0.69147E+08         0.00000E+00
    0.00000E+00         0.00000E+00        -0.29583E+08
 
   -0.29505E+08         0.79745E+05         0.00000E+00
    0.79745E+05        -0.69240E+08         0.00000E+00
    0.00000E+00         0.00000E+00        -0.29624E+08
 
   -0.29547E+08         0.80852E+05         0.00000E+00
    0.80852E+05        -0.69336E+08         0.00000E+00
    0.00000E+00         0.00000E+00        -0.29665E+08
 
   -0.29590E+08         0.81932E+05         0.00000E+00
    0.81932E+05        -0.69433E+08         0.00000E+00
    0.00000E+00         0.00000E+00        -0.29707E+08
 
   -0.29635E+08         0.82982E+05         0.00000E+00
    0.82982E+05        -0.69533E+08         0.00000E+00
    0.00000E+00         0.00000E+00        -0.29750E+08
 
   -0.29680E+08         0.83998E+05         0.00000E+00
    0.83998E+05        -0.69634E+08         0.00000E+00
    0.00000E+00         0.00000E+00        -0.29794E+08
 
   -0.29727E+08         0.84976E+05         0.00000E+00
    0.84976E+05        -0.69737E+08         0.00000E+00
    0.00000E+00         0.00000E+00        -0.29839E+08
 
   -0.29776E+08         0.85911E+05         0.00000E+00
    0.85911E+05        -0.69843E+08         0.00000E+00
    0.00000E+00         0.00000E+00        -0.29885E+08
 
   -0.29825E+08         0.86797E+05         0.00000E+00
    0.86797E+05        -0.69950E+08         0.00000E+00
    0.00000E+00         0.00000E+00        -0.29932E+08
 
   -0.29876E+08         0.87631E+05         0.00000E+00
    0.87631E+05        -0.70059E+08         0.00000E+00
    0.00000E+00         0.00000E+00        -0.29981E+08
 
   -0.29928E+08         0.88405E+05         0.00000E+00
    0.88405E+05        -0.70170E+08         0.00000E+00
    0.00000E+00         0.00000E+00        -0.30030E+08
 
   -0.29982E+08         0.89115E+05         0.00000E+00
    0.89115E+05        -0.70284E+08         0.00000E+00
    0.00000E+00         0.00000E+00        -0.30080E+08
 
   -0.30038E+08         0.89752E+05         0.00000E+00
    0.89752E+05        -0.70399E+08         0.00000E+00
    0.00000E+00         0.00000E+00        -0.30131E+08
 
   -0.30095E+08         0.90310E+05         0.00000E+00
    0.90310E+05        -0.70516E+08         0.00000E+00
    0.00000E+00         0.00000E+00        -0.30183E+08
 
   -0.30153E+08         0.90780E+05         0.00000E+00
    0.90780E+05        -0.70635E+08         0.00000E+00
    0.00000E+00         0.00000E+00        -0.30237E+08
 
   -0.30214E+08         0.91155E+05         0.00000E+00
    0.91155E+05        -0.70756E+08         0.00000E+00
    0.00000E+00         0.00000E+00        -0.30291E+08
 
   -0.30276E+08         0.91423E+05         0.00000E+00
    0.91423E+05        -0.70880E+08         0.00000E+00
    0.00000E+00         0.00000E+00        -0.30347E+08
 
   -0.30339E+08         0.91575E+05         0.00000E+00
    0.91575E+05        -0.71005E+08         0.00000E+00
    0.00000E+00         0.00000E+00        -0.30403E+08
 
   -0.30405E+08         0.91599E+05         0.00000E+00
    0.91599E+05        -0.71132E+08         0.00000E+00
    0.00000E+00         0.00000E+00        -0.30461E+08
 
   -0.30472E+08         0.91480E+05         0.00000E+00
    0.91480E+05        -0.71261E+08         0.00000E+00
    0.00000E+00         0.00000E+00        -0.30520E+08
 
   -0.30542E+08         0.91203E+05         0.00000E+00
    0.91203E+05        -0.71392E+08         0.00000E+00
    0.00000E+00         0.00000E+00        -0.30580E+08
 
   -0.30614E+08         0.90751E+05         0.00000E+00
    0.90751E+05        -0.71525E+08         0.00000E+00
    0.00000E+00         0.00000E+00        -0.30641E+08
 
   -0.30687E+08         0.90103E+05         0.00000E+00
    0.90103E+05        -0.71659E+08         0.00000E+00
    0.00000E+00         0.00000E+00        -0.30704E+08
 
   -0.30763E+08         0.89234E+05         0.00000E+00
    0.89234E+05        -0.71796E+08         0.00000E+00
    0.00000E+00         0.00000E+00        -0.30768E+08
 
   -0.30842E+08         0.88117E+05         0.00000E+00
    0.88117E+05        -0.71934E+08         0.00000E+00
    0.00000E+00         0.00000E+00        -0.30833E+08
 
   -0.30923E+08         0.86718E+05         0.00000E+00
    0.86718E+05        -0.72074E+08         0.00000E+00
    0.00000E+00         0.00000E+00        -0.30899E+08
 
   -0.31006E+08         0.85000E+05         0.00000E+00
    0.85000E+05        -0.72216E+08         0.00000E+00
    0.00000E+00         0.00000E+00        -0.30967E+08
 
   -0.31093E+08         0.82918E+05         0.00000E+00
    0.82918E+05        -0.72360E+08         0.00000E+00
    0.00000E+00         0.00000E+00        -0.31036E+08
 
   -0.31182E+08         0.80420E+05         0.00000E+00
    0.80420E+05        -0.72505E+08         0.00000E+00
    0.00000E+00         0.00000E+00        -0.31106E+08
 
   -0.31275E+08         0.77448E+05         0.00000E+00
    0.77448E+05        -0.72652E+08         0.00000E+00
    0.00000E+00         0.00000E+00        -0.31178E+08
 
   -0.31371E+08         0.73933E+05         0.00000E+00
    0.73933E+05        -0.72800E+08         0.00000E+00
    0.00000E+00         0.00000E+00        -0.31251E+08
 
   -0.31471E+08         0.69804E+05         0.00000E+00
    0.69804E+05        -0.72950E+08         0.00000E+00
    0.00000E+00         0.00000E+00        -0.31326E+08
 
   -0.31575E+08         0.64980E+05         0.00000E+00
    0.64980E+05        -0.73101E+08         0.00000E+00
    0.00000E+00         0.00000E+00        -0.31403E+08
 
   -0.31684E+08         0.59380E+05         0.00000E+00
    0.59380E+05        -0.73254E+08         0.00000E+00
    0.00000E+00         0.00000E+00        -0.31481E+08
 
   -0.31797E+08         0.52924E+05         0.00000E+00
    0.52924E+05        -0.73408E+08         0.00000E+00
    0.00000E+00         0.00000E+00        -0.31561E+08
 
   -0.31915E+08         0.45541E+05         0.00000E+00
    0.45541E+05        -0.73563E+08         0.00000E+00
    0.00000E+00         0.00000E+00        -0.31643E+08
 
   -0.32039E+08         0.37180E+05         0.00000E+00
    0.37180E+05        -0.73719E+08         0.00000E+00
    0.00000E+00         0.00000E+00        -0.31727E+08
 
   -0.32169E+08         0.27824E+05         0.00000E+00
    0.27824E+05        -0.73876E+08         0.00000E+00
    0.00000E+00         0.00000E+00        -0.31814E+08
 
   -0.32305E+08         0.17504E+05         0.00000E+00
    0.17504E+05        -0.74035E+08         0.00000E+00
    0.00000E+00         0.00000E+00        -0.31902E+08
 
   -0.32448E+08         0.63255E+04         0.00000E+00
    0.63255E+04        -0.74194E+08         0.00000E+00
    0.00000E+00         0.00000E+00        -0.31993E+08
 
   -0.32598E+08        -0.55093E+04         0.00000E+00
   -0.55093E+04        -0.74353E+08         0.00000E+00
    0.00000E+00         0.00000E+00        -0.32085E+08
 
   -0.32755E+08        -0.17668E+05         0.00000E+00
   -0.17668E+05        -0.74513E+08         0.00000E+00
    0.00000E+00         0.00000E+00        -0.32180E+08
 
   -0.32918E+08        -0.29650E+05         0.00000E+00
   -0.29650E+05        -0.74673E+08         0.00000E+00
    0.00000E+00         0.00000E+00        -0.32277E+08
 
   -0.33086E+08        -0.40681E+05         0.00000E+00
   -0.40681E+05        -0.74833E+08         0.00000E+00
    0.00000E+00         0.00000E+00        -0.32376E+08
 
   -0.33257E+08        -0.49545E+05         0.00000E+00
   -0.49545E+05        -0.74993E+08         0.00000E+00
    0.00000E+00         0.00000E+00        -0.32475E+08
 
   -0.33429E+08        -0.53952E+05         0.00000E+00
   -0.53952E+05        -0.75151E+08         0.00000E+00
    0.00000E+00         0.00000E+00        -0.32574E+08
 
   -0.33595E+08        -0.47405E+05         0.00000E+00
   -0.47405E+05        -0.75303E+08         0.00000E+00
    0.00000E+00         0.00000E+00        -0.32669E+08
 
   -0.33754E+08        -0.20294E+05         0.00000E+00
   -0.20294E+05        -0.75430E+08         0.00000E+00
    0.00000E+00         0.00000E+00        -0.32755E+08
 
   -0.27909E+08        -0.48808E+04         0.00000E+00
   -0.48808E+04        -0.66129E+08         0.00000E+00
    0.00000E+00         0.00000E+00        -0.28211E+08
 
   -0.27949E+08        -0.10648E+05         0.00000E+00
   -0.10648E+05        -0.66162E+08         0.00000E+00
    0.00000E+00         0.00000E+00        -0.28233E+08
 
   -0.27990E+08        -0.11013E+05         0.00000E+00
   -0.11013E+05        -0.66201E+08         0.00000E+00
    0.00000E+00         0.00000E+00        -0.28257E+08
 
   -0.28033E+08        -0.90164E+04         0.00000E+00
   -0.90164E+04        -0.66241E+08         0.00000E+00
    0.00000E+00         0.00000E+00        -0.28282E+08
 
   -0.28076E+08        -0.61754E+04         0.00000E+00
   -0.61754E+04        -0.66281E+08         0.00000E+00
    0.00000E+00         0.00000E+00        -0.28307E+08
 
   -0.28117E+08        -0.29187E+04         0.00000E+00
   -0.29187E+04        -0.66322E+08         0.00000E+00
    0.00000E+00         0.00000E+00        -0.28332E+08
 
   -0.28156E+08         0.50085E+03         0.00000E+00
    0.50085E+03        -0.66363E+08         0.00000E+00
    0.00000E+00         0.00000E+00        -0.28356E+08
 
   -0.28194E+08         0.39295E+04         0.00000E+00
    0.39295E+04        -0.66405E+08         0.00000E+00
    0.00000E+00         0.00000E+00        -0.28380E+08
 
   -0.28229E+08         0.72676E+04         0.00000E+00
    0.72676E+04        -0.66447E+08         0.00000E+00
    0.00000E+00         0.00000E+00        -0.28403E+08
 
   -0.28263E+08         0.10449E+05         0.00000E+00
    0.10449E+05        -0.66489E+08         0.00000E+00
    0.00000E+00         0.00000E+00        -0.28426E+08
 
   -0.28295E+08         0.13437E+05         0.00000E+00
    0.13437E+05        -0.66531E+08         0.00000E+00
    0.00000E+00         0.00000E+00        -0.28448E+08
 
   -0.28326E+08         0.16212E+05         0.00000E+00
    0.16212E+05        -0.66574E+08         0.00000E+00
    0.00000E+00         0.00000E+00        -0.28470E+08
 
   -0.28355E+08         0.18771E+05         0.00000E+00
    0.18771E+05        -0.66617E+08         0.00000E+00
    0.00000E+00         0.00000E+00        -0.28492E+08
 
   -0.28383E+08         0.21124E+05         0.00000E+00
    0.21124E+05        -0.66661E+08         0.00000E+00
    0.00000E+00         0.00000E+00        -0.28513E+08
 
   -0.28410E+08         0.23283E+05         0.00000E+00
    0.23283E+05        -0.66705E+08         0.00000E+00
    0.00000E+00         0.00000E+00        -0.28534E+08
 
   -0.28435E+08         0.25268E+05         0.00000E+00
    0.25268E+05        -0.66750E+08         0.00000E+00
    0.00000E+00         0.00000E+00        -0.28556E+08
 
   -0.28461E+08         0.27099E+05         0.00000E+00
    0.27099E+05        -0.66795E+08         0.00000E+00
    0.00000E+00         0.00000E+00        -0.28577E+08
 
   -0.28485E+08         0.28796E+05         0.00000E+00
    0.28796E+05        -0.66841E+08         0.00000E+00
    0.00000E+00         0.00000E+00        -0.28598E+08
 
   -0.28509E+08         0.30377E+05         0.00000E+00
    0.30377E+05        -0.66888E+08         0.00000E+00
    0.00000E+00         0.00000E+00        -0.28619E+08
 
   -0.28532E+08         0.31861E+05         0.00000E+00
    0.31861E+05        -0.66936E+08         0.00000E+00
    0.00000E+00         0.00000E+00        -0.28640E+08
 
   -0.28555E+08         0.33262E+05         0.00000E+00
    0.33262E+05        -0.66984E+08         0.00000E+00
    0.00000E+00         0.00000E+00        -0.28662E+08
 
   -0.28578E+08         0.34595E+05         0.00000E+00
    0.34595E+05        -0.67033E+08         0.00000E+00
    0.00000E+00         0.00000E+00        -0.28683E+08
 
   -0.28601E+08         0.35872E+05         0.00000E+00
    0.35872E+05        -0.67082E+08         0.00000E+00
    0.00000E+00         0.00000E+00        -0.28705E+08
 
   -0.28624E+08         0.37102E+05         0.00000E+00
    0.37102E+05        -0.67133E+08         0.00000E+00
    0.00000E+00         0.00000E+00        -0.28727E+08
 
   -0.28646E+08         0.38295E+05         0.00000E+00
    0.38295E+05        -0.67184E+08         0.00000E+00
    0.00000E+00         0.00000E+00        -0.28749E+08
 
   -0.28669E+08         0.39457E+05         0.00000E+00
    0.39457E+05        -0.67237E+08         0.00000E+00
    0.00000E+00         0.00000E+00        -0.28772E+08
 
   -0.28692E+08         0.40594E+05         0.00000E+00
    0.40594E+05        -0.67290E+08         0.00000E+00
    0.00000E+00         0.00000E+00        -0.28795E+08
 
   -0.28715E+08         0.41712E+05         0.00000E+00
    0.41712E+05        -0.67345E+08         0.00000E+00
    0.00000E+00         0.00000E+00        -0.28818E+08
 
   -0.28738E+08         0.42814E+05         0.00000E+00
    0.42814E+05        -0.67400E+08         0.00000E+00
    0.00000E+00         0.00000E+00        -0.28841E+08
 
   -0.28761E+08         0.43905E+05         0.00000E+00
    0.43905E+05        -0.67457E+08         0.00000E+00
    0.00000E+00         0.00000E+00        -0.28865E+08
 
   -0.28785E+08         0.44986E+05         0.00000E+00
    0.44986E+05        -0.67515E+08         0.00000E+00
    0.00000E+00         0.00000E+00        -0.28890E+08
 
   -0.28809E+08         0.46060E+05         0.00000E+00
    0.46060E+05        -0.67573E+08         0.00000E+00
    0.00000E+00         0.00000E+00        -0.28915E+08
 
   -0.28834E+08         0.47130E+05         0.00000E+00
    0.47130E+05        -0.67634E+08         0.00000E+00
    0.00000E+00         0.00000E+00        -0.28940E+08
 
   -0.28858E+08         0.48197E+05         0.00000E+00
    0.48197E+05        -0.67695E+08         0.00000E+00
    0.00000E+00         0.00000E+00        -0.28966E+08
 
   -0.28884E+08         0.49261E+05         0.00000E+00
    0.49261E+05        -0.67758E+08         0.00000E+00
    0.00000E+00         0.00000E+00        -0.28992E+08
 
   -0.28910E+08         0.50324E+05         0.00000E+00
    0.50324E+05        -0.67822E+08         0.00000E+00
    0.00000E+00         0.00000E+00        -0.29019E+08
 
   -0.28936E+08         0.51387E+05         0.00000E+00
    0.51387E+05        -0.67887E+08         0.00000E+00
    0.00000E+00         0.00000E+00        -0.29047E+08
 
   -0.28963E+08         0.52450E+05         0.00000E+00
    0.52450E+05        -0.67954E+08         0.00000E+00
    0.00000E+00         0.00000E+00        -0.29075E+08
 
   -0.28991E+08         0.53513E+05         0.00000E+00
    0.53513E+05        -0.68022E+08         0.00000E+00
    0.00000E+00         0.00000E+00        -0.29104E+08
 
   -0.29019E+08         0.54576E+05         0.00000E+00
    0.54576E+05        -0.68092E+08         0.00000E+00
    0.00000E+00         0.00000E+00        -0.29133E+08
 
   -0.29048E+08         0.55640E+05         0.00000E+00
    0.55640E+05        -0.68163E+08         0.00000E+00
    0.00000E+00         0.00000E+00        -0.29163E+08
 
   -0.29078E+08         0.56704E+05         0.00000E+00
    0.56704E+05        -0.68236E+08         0.00000E+00
    0.00000E+00         0.00000E+00        -0.29194E+08
 
   -0.29108E+08         0.57767E+05         0.00000E+00
    0.57767E+05        -0.68310E+08         0.00000E+00
    0.00000E+00         0.00000E+00        -0.29226E+08
 
   -0.29140E+08         0.58829E+05         0.00000E+00
    0.58829E+05        -0.68386E+08         0.00000E+00
    0.00000E+00         0.00000E+00        -0.29258E+08
 
   -0.29172E+08         0.59890E+05         0.00000E+00
    0.59890E+05        -0.68464E+08         0.00000E+00
    0.00000E+00         0.00000E+00        -0.29291E+08
 
   -0.29204E+08         0.60947E+05         0.00000E+00
    0.60947E+05        -0.68543E+08         0.00000E+00
    0.00000E+00         0.00000E+00        -0.29324E+08
 
   -0.29238E+08         0.62000E+05         0.00000E+00
    0.62000E+05        -0.68624E+08         0.00000E+00
    0.00000E+00         0.00000E+00        -0.29359E+08
 
   -0.29273E+08         0.63048E+05         0.00000E+00
    0.63048E+05        -0.68707E+08         0.00000E+00
    0.00000E+00         0.00000E+00        -0.29394E+08
 
   -0.29309E+08         0.64089E+05         0.00000E+00
    0.64089E+05        -0.68791E+08         0.00000E+00
    0.00000E+00         0.00000E+00        -0.29430E+08
 
   -0.29345E+08         0.65121E+05         0.00000E+00
    0.65121E+05        -0.68877E+08         0.00000E+00
    0.00000E+00         0.00000E+00        -0.29467E+08
 
   -0.29383E+08         0.66142E+05         0.00000E+00
    0.66142E+05        -0.68965E+08         0.00000E+00
    0.00000E+00         0.00000E+00        -0.29505E+08
 
   -0.29422E+08         0.67151E+05         0.00000E+00
    0.67151E+05        -0.69055E+08         0.00000E+00
    0.00000E+00         0.00000E+00        -0.29543E+08
 
   -0.29461E+08         0.68145E+05         0.00000E+00
    0.68145E+05        -0.69147E+08         0.00000E+00
    0.00000E+00         0.00000E+00        -0.29583E+08
 
   -0.29502E+08         0.69122E+05         0.00000E+00
    0.69122E+05        -0.69241E+08         0.00000E+00
    0.00000E+00         0.00000E+00        -0.29623E+08
 
   -0.29544E+08         0.70079E+05         0.00000E+00
    0.70079E+05        -0.69336E+08         0.00000E+00
    0.00000E+00         0.00000E+00        -0.29664E+08
 
   -0.29587E+08         0.71012E+05         0.00000E+00
    0.71012E+05        -0.69434E+08         0.00000E+00
    0.00000E+00         0.00000E+00        -0.29706E+08
 
   -0.29632E+08         0.71919E+05         0.00000E+00
    0.71919E+05        -0.69533E+08         0.00000E+00
    0.00000E+00         0.00000E+00        -0.29749E+08
 
   -0.29677E+08         0.72797E+05         0.00000E+00
    0.72797E+05        -0.69634E+08         0.00000E+00
    0.00000E+00         0.00000E+00        -0.29793E+08
 
   -0.29724E+08         0.73641E+05         0.00000E+00
    0.73641E+05        -0.69738E+08         0.00000E+00
    0.00000E+00         0.00000E+00        -0.29839E+08
 
   -0.29772E+08         0.74448E+05         0.00000E+00
    0.74448E+05        -0.69843E+08         0.00000E+00
    0.00000E+00         0.00000E+00        -0.29885E+08
 
   -0.29822E+08         0.75213E+05         0.00000E+00
    0.75213E+05        -0.69950E+08         0.00000E+00
    0.00000E+00         0.00000E+00        -0.29932E+08
 
   -0.29873E+08         0.75931E+05         0.00000E+00
    0.75931E+05        -0.70059E+08         0.00000E+00
    0.00000E+00         0.00000E+00        -0.29980E+08
 
   -0.29926E+08         0.76598E+05         0.00000E+00
    0.76598E+05        -0.70170E+08         0.00000E+00
    0.00000E+00         0.00000E+00        -0.30029E+08
 
   -0.29979E+08         0.77209E+05         0.00000E+00
    0.77209E+05        -0.70284E+08         0.00000E+00
    0.00000E+00         0.00000E+00        -0.30079E+08
 
   -0.30035E+08         0.77757E+05         0.00000E+00
    0.77757E+05        -0.70399E+08         0.00000E+00
    0.00000E+00         0.00000E+00        -0.30130E+08
 
   -0.30092E+08         0.78236E+05         0.00000E+00
    0.78236E+05        -0.70516E+08         0.00000E+00
    0.00000E+00         0.00000E+00        -0.30182E+08
 
   -0.30151E+08         0.78639E+05         0.00000E+00
    0.78639E+05        -0.70635E+08         0.00000E+00
    0.00000E+00         0.00000E+00        -0.30236E+08
 
   -0.30211E+08         0.78958E+05         0.00000E+00
    0.78958E+05        -0.70756E+08         0.00000E+00
    0.00000E+00         0.00000E+00        -0.30290E+08
 
   -0.30273E+08         0.79186E+05         0.00000E+00
    0.79186E+05        -0.70880E+08         0.00000E+00
    0.00000E+00         0.00000E+00        -0.30346E+08
 
   -0.30337E+08         0.79313E+05         0.00000E+00
    0.79313E+05        -0.71005E+08         0.00000E+00
    0.00000E+00         0.00000E+00        -0.30402E+08
 
   -0.30402E+08         0.79328E+05         0.00000E+00
    0.79328E+05        -0.71132E+08         0.00000E+00
    0.00000E+00         0.00000E+00        -0.30460E+08
 
   -0.30470E+08         0.79219E+05         0.00000E+00
    0.79219E+05        -0.71261E+08         0.00000E+00
    0.00000E+00         0.00000E+00        -0.30519E+08
 
   -0.30540E+08         0.78973E+05         0.00000E+00
    0.78973E+05        -0.71392E+08         0.00000E+00
    0.00000E+00         0.00000E+00        -0.30579E+08
 
   -0.30611E+08         0.78575E+05         0.00000E+00
    0.78575E+05        -0.71525E+08         0.00000E+00
    0.00000E+00         0.00000E+00        -0.30641E+08
 
   -0.30685E+08         0.78006E+05         0.00000E+00
    0.78006E+05        -0.71659E+08         0.00000E+00
    0.00000E+00         0.00000E+00        -0.30703E+08
 
   -0.30762E+08         0.77246E+05         0.00000E+00
    0.77246E+05        -0.71796E+08         0.00000E+00
    0.00000E+00         0.00000E+00        -0.30767E+08
 
   -0.30840E+08         0.76269E+05         0.00000E+00
    0.76269E+05        -0.71934E+08         0.00000E+00
    0.00000E+00         0.00000E+00        -0.30832E+08
 
   -0.30921E+08         0.75047E+05         0.00000E+00
    0.75047E+05        -0.72074E+08         0.00000E+00
    0.00000E+00         0.00000E+00        -0.30899E+08
 
   -0.31005E+08         0.73545E+05         0.00000E+00
    0.73545E+05        -0.72216E+08         0.00000E+00
    0.00000E+00         0.00000E+00        -0.30966E+08
 
   -0.31092E+08         0.71725E+05         0.00000E+00
    0.71725E+05        -0.72359E+08         0.00000E+00
    0.00000E+00         0.00000E+00        -0.31035E+08
 
   -0.31182E+08         0.69540E+05         0.00000E+00
    0.69540E+05        -0.72504E+08         0.00000E+00
    0.00000E+00         0.00000E+00        -0.31106E+08
 
   -0.31275E+08         0.66938E+05         0.00000E+00
    0.66938E+05        -0.72651E+08         0.00000E+00
    0.00000E+00         0.00000E+00        -0.31178E+08
 
   -0.31371E+08         0.63859E+05         0.00000E+00
    0.63859E+05        -0.72799E+08         0.00000E+00
    0.00000E+00         0.00000E+00        -0.31251E+08
 
   -0.31472E+08         0.60237E+05         0.00000E+00
    0.60237E+05        -0.72949E+08         0.00000E+00
    0.00000E+00         0.00000E+00        -0.31326E+08
 
   -0.31576E+08         0.56000E+05         0.00000E+00
    0.56000E+05        -0.73100E+08         0.00000E+00
    0.00000E+00         0.00000E+00        -0.31403E+08
 
   -0.31685E+08         0.51075E+05         0.00000E+00
    0.51075E+05        -0.73253E+08         0.00000E+00
    0.00000E+00         0.00000E+00        -0.31481E+08
 
   -0.31799E+08         0.45387E+05         0.00000E+00
    0.45387E+05        -0.73406E+08         0.00000E+00
    0.00000E+00         0.00000E+00        -0.31562E+08
 
   -0.31919E+08         0.38872E+05         0.00000E+00
    0.38872E+05        -0.73561E+08         0.00000E+00
    0.00000E+00         0.00000E+00        -0.31644E+08
 
   -0.32044E+08         0.31481E+05         0.00000E+00
    0.31481E+05        -0.73717E+08         0.00000E+00
    0.00000E+00         0.00000E+00        -0.31728E+08
 
   -0.32175E+08         0.23193E+05         0.00000E+00
    0.23193E+05        -0.73875E+08         0.00000E+00
    0.00000E+00         0.00000E+00        -0.31815E+08
 
   -0.32313E+08         0.14031E+05         0.00000E+00
    0.14031E+05        -0.74033E+08         0.00000E+00
    0.00000E+00         0.00000E+00        -0.31904E+08
 
   -0.32458E+08         0.40806E+04         0.00000E+00
    0.40806E+04        -0.74191E+08         0.00000E+00
    0.00000E+00         0.00000E+00        -0.31995E+08
 
   -0.32610E+08        -0.64908E+04         0.00000E+00
   -0.64908E+04        -0.74351E+08         0.00000E+00
    0.00000E+00         0.00000E+00        -0.32088E+08
 
   -0.32769E+08        -0.17405E+05         0.00000E+00
   -0.17405E+05        -0.74511E+08         0.00000E+00
    0.00000E+00         0.00000E+00        -0.32184E+08
 
   -0.32935E+08        -0.28248E+05         0.00000E+00
   -0.28248E+05        -0.74671E+08         0.00000E+00
    0.00000E+00         0.00000E+00        -0.32282E+08
 
   -0.33107E+08        -0.38388E+05         0.00000E+00
   -0.38388E+05        -0.74831E+08         0.00000E+00
    0.00000E+00         0.00000E+00        -0.32382E+08
 
   -0.33284E+08        -0.46802E+05         0.00000E+00
   -0.46802E+05        -0.74991E+08         0.00000E+00
    0.00000E+00         0.00000E+00        -0.32483E+08
 
   -0.33461E+08        -0.51765E+05         0.00000E+00
   -0.51765E+05        -0.75151E+08         0.00000E+00
    0.00000E+00         0.00000E+00        -0.32583E+08
 
   -0.33632E+08        -0.47222E+05         0.00000E+00
   -0.47222E+05        -0.75306E+08         0.00000E+00
    0.00000E+00         0.00000E+00        -0.32681E+08
 
   -0.33794E+08        -0.21063E+05         0.00000E+00
   -0.21063E+05        -0.75438E+08         0.00000E+00
    0.00000E+00         0.00000E+00        -0.32769E+08
 
   -0.27897E+08        -0.51087E+04         0.00000E+00
   -0.51087E+04        -0.66127E+08         0.00000E+00
    0.00000E+00         0.00000E+00        -0.28207E+08
 
   -0.27938E+08        -0.10536E+05         0.00000E+00
   -0.10536E+05        -0.66161E+08         0.00000E+00
    0.00000E+00         0.00000E+00        -0.28230E+08
 
   -0.27982E+08        -0.10422E+05         0.00000E+00
   -0.10422E+05        -0.66201E+08         0.00000E+00
    0.00000E+00         0.00000E+00        -0.28255E+08
 
   -0.28026E+08        -0.84512E+04         0.00000E+00
   -0.84512E+04        -0.66241E+08         0.00000E+00
    0.00000E+00         0.00000E+00        -0.28280E+08
 
   -0.28070E+08        -0.58746E+04         0.00000E+00
   -0.58746E+04        -0.66282E+08         0.00000E+00
    0.00000E+00         0.00000E+00        -0.28305E+08
 
   -0.28112E+08        -0.29816E+04         0.00000E+00
   -0.29816E+04        -0.66323E+08         0.00000E+00
    0.00000E+00         0.00000E+00        -0.28330E+08
 
   -0.28152E+08         0.16666E+02         0.00000E+00
    0.16666E+02        -0.66364E+08         0.00000E+00
    0.00000E+00         0.00000E+00        -0.28355E+08
 
   -0.28190E+08         0.30038E+04         0.00000E+00
    0.30038E+04        -0.66405E+08         0.00000E+00
    0.00000E+00         0.00000E+00        -0.28379E+08
 
   -0.28226E+08         0.58992E+04         0.00000E+00
    0.58992E+04        -0.66447E+08         0.00000E+00
    0.00000E+00         0.00000E+00        -0.28402E+08
 
   -0.28260E+08         0.86500E+04         0.00000E+00
    0.86500E+04        -0.66489E+08         0.00000E+00
    0.00000E+00         0.00000E+00        -0.28425E+08
 
   -0.28293E+08         0.11226E+05         0.00000E+00
    0.11226E+05        -0.66532E+08         0.00000E+00
    0.00000E+00         0.00000E+00        -0.28447E+08
 
   -0.28323E+08         0.13613E+05         0.00000E+00
    0.13613E+05        -0.66574E+08         0.00000E+00
    0.00000E+00         0.00000E+00        -0.28469E+08
 
   -0.28353E+08         0.15810E+05         0.00000E+00
    0.15810E+05        -0.66618E+08         0.00000E+00
    0.00000E+00         0.00000E+00        -0.28491E+08
 
   -0.28381E+08         0.17825E+05         0.00000E+00
    0.17825E+05        -0.66661E+08         0.00000E+00
    0.00000E+00         0.00000E+00        -0.28513E+08
 
   -0.28408E+08         0.19672E+05         0.00000E+00
    0.19672E+05        -0.66706E+08         0.00000E+00
    0.00000E+00         0.00000E+00        -0.28534E+08
 
   -0.28434E+08         0.21366E+05         0.00000E+00
    0.21366E+05        -0.66750E+08         0.00000E+00
    0.00000E+00         0.00000E+00        -0.28555E+08
 
   -0.28459E+08         0.22927E+05         0.00000E+00
    0.22927E+05        -0.66796E+08         0.00000E+00
    0.00000E+00         0.00000E+00        -0.28576E+08
 
   -0.28483E+08         0.24371E+05         0.00000E+00
    0.24371E+05        -0.66842E+08         0.00000E+00
    0.00000E+00         0.00000E+00        -0.28597E+08
 
   -0.28507E+08         0.25715E+05         0.00000E+00
    0.25715E+05        -0.66888E+08         0.00000E+00
    0.00000E+00         0.00000E+00        -0.28619E+08
 
   -0.28530E+08         0.26975E+05         0.00000E+00
    0.26975E+05        -0.66936E+08         0.00000E+00
    0.00000E+00         0.00000E+00        -0.28640E+08
 
   -0.28554E+08         0.28164E+05         0.00000E+00
    0.28164E+05        -0.66984E+08         0.00000E+00
    0.00000E+00         0.00000E+00        -0.28661E+08
 
   -0.28576E+08         0.29295E+05         0.00000E+00
    0.29295E+05        -0.67033E+08         0.00000E+00
    0.00000E+00         0.00000E+00        -0.28683E+08
 
   -0.28599E+08         0.30377E+05         0.00000E+00
    0.30377E+05        -0.67082E+08         0.00000E+00
    0.00000E+00         0.00000E+00        -0.28704E+08
 
   -0.28622E+08         0.31419E+05         0.00000E+00
    0.31419E+05        -0.67133E+08         0.00000E+00
    0.00000E+00         0.00000E+00        -0.28726E+08
 
   -0.28644E+08         0.32429E+05         0.00000E+00
    0.32429E+05        -0.67185E+08         0.00000E+00
    0.00000E+00         0.00000E+00        -0.28749E+08
 
   -0.28667E+08         0.33413E+05         0.00000E+00
    0.33413E+05        -0.67237E+08         0.00000E+00
    0.00000E+00         0.00000E+00        -0.28771E+08
 
   -0.28690E+08         0.34376E+05         0.00000E+00
    0.34376E+05        -0.67290E+08         0.00000E+00
    0.00000E+00         0.00000E+00        -0.28794E+08
 
   -0.28713E+08         0.35322E+05         0.00000E+00
    0.35322E+05        -0.67345E+08         0.00000E+00
    0.00000E+00         0.00000E+00        -0.28817E+08
 
   -0.28736E+08         0.36255E+05         0.00000E+00
    0.36255E+05        -0.67400E+08         0.00000E+00
    0.00000E+00         0.00000E+00        -0.28841E+08
 
   -0.28759E+08         0.37178E+05         0.00000E+00
    0.37178E+05        -0.67457E+08         0.00000E+00
    0.00000E+00         0.00000E+00        -0.28865E+08
 
   -0.28783E+08         0.38093E+05         0.00000E+00
    0.38093E+05        -0.67515E+08         0.00000E+00
    0.00000E+00         0.00000E+00        -0.28889E+08
 
   -0.28807E+08         0.39002E+05         0.00000E+00
    0.39002E+05        -0.67574E+08         0.00000E+00
    0.00000E+00         0.00000E+00        -0.28914E+08
 
   -0.28831E+08         0.39907E+05         0.00000E+00
    0.39907E+05        -0.67634E+08         0.00000E+00
    0.00000E+00         0.00000E+00        -0.28940E+08
 
   -0.28856E+08         0.40810E+05         0.00000E+00
    0.40810E+05        -0.67695E+08         0.00000E+00
    0.00000E+00         0.00000E+00        -0.28965E+08
 
   -0.28881E+08         0.41710E+05         0.00000E+00
    0.41710E+05        -0.67758E+08         0.00000E+00
    0.00000E+00         0.00000E+00        -0.28992E+08
 
   -0.28907E+08         0.42610E+05         0.00000E+00
    0.42610E+05        -0.67822E+08         0.00000E+00
    0.00000E+00         0.00000E+00        -0.29019E+08
 
   -0.28934E+08         0.43509E+05         0.00000E+00
    0.43509E+05        -0.67887E+08         0.00000E+00
    0.00000E+00         0.00000E+00        -0.29046E+08
 
   -0.28961E+08         0.44408E+05         0.00000E+00
    0.44408E+05        -0.67954E+08         0.00000E+00
    0.00000E+00         0.00000E+00        -0.29074E+08
 
   -0.28988E+08         0.45307E+05         0.00000E+00
    0.45307E+05        -0.68022E+08         0.00000E+00
    0.00000E+00         0.00000E+00        -0.29103E+08
 
   -0.29016E+08         0.46206E+05         0.00000E+00
    0.46206E+05        -0.68092E+08         0.00000E+00
    0.00000E+00         0.00000E+00        -0.29133E+08
 
   -0.29045E+08         0.47106E+05         0.00000E+00
    0.47106E+05        -0.68163E+08         0.00000E+00
    0.00000E+00         0.00000E+00        -0.29163E+08
 
   -0.29075E+08         0.48005E+05         0.00000E+00
    0.48005E+05        -0.68236E+08         0.00000E+00
    0.00000E+00         0.00000E+00        -0.29193E+08
 
   -0.29106E+08         0.48904E+05         0.00000E+00
    0.48904E+05        -0.68311E+08         0.00000E+00
    0.00000E+00         0.00000E+00        -0.29225E+08
 
   -0.29137E+08         0.49802E+05         0.00000E+00
    0.49802E+05        -0.68386E+08         0.00000E+00
    0.00000E+00         0.00000E+00        -0.29257E+08
 
   -0.29169E+08         0.50698E+05         0.00000E+00
    0.50698E+05        -0.68464E+08         0.00000E+00
    0.00000E+00         0.00000E+00        -0.29290E+08
 
   -0.29202E+08         0.51592E+05         0.00000E+00
    0.51592E+05        -0.68543E+08         0.00000E+00
    0.00000E+00         0.00000E+00        -0.29323E+08
 
   -0.29235E+08         0.52482E+05         0.00000E+00
    0.52482E+05        -0.68624E+08         0.00000E+00
    0.00000E+00         0.00000E+00        -0.29358E+08
 
   -0.29270E+08         0.53367E+05         0.00000E+00
    0.53367E+05        -0.68707E+08         0.00000E+00
    0.00000E+00         0.00000E+00        -0.29393E+08
 
   -0.29306E+08         0.54246E+05         0.00000E+00
    0.54246E+05        -0.68791E+08         0.00000E+00
    0.00000E+00         0.00000E+00        -0.29429E+08
 
   -0.29342E+08         0.55118E+05         0.00000E+00
    0.55118E+05        -0.68878E+08         0.00000E+00
    0.00000E+00         0.00000E+00        -0.29466E+08
 
   -0.29380E+08         0.55981E+05         0.00000E+00
    0.55981E+05        -0.68966E+08         0.00000E+00
    0.00000E+00         0.00000E+00        -0.29504E+08
 
   -0.29419E+08         0.56833E+05         0.00000E+00
    0.56833E+05        -0.69056E+08         0.00000E+00
    0.00000E+00         0.00000E+00        -0.29542E+08
 
   -0.29458E+08         0.57672E+05         0.00000E+00
    0.57672E+05        -0.69147E+08         0.00000E+00
    0.00000E+00         0.00000E+00        -0.29582E+08
 
   -0.29499E+08         0.58497E+05         0.00000E+00
    0.58497E+05        -0.69241E+08         0.00000E+00
    0.00000E+00         0.00000E+00        -0.29622E+08
 
   -0.29541E+08         0.59304E+05         0.00000E+00
    0.59304E+05        -0.69336E+08         0.00000E+00
    0.00000E+00         0.00000E+00        -0.29663E+08
 
   -0.29584E+08         0.60092E+05         0.00000E+00
    0.60092E+05        -0.69434E+08         0.00000E+00
    0.00000E+00         0.00000E+00        -0.29705E+08
 
   -0.29629E+08         0.60857E+05         0.00000E+00
    0.60857E+05        -0.69533E+08         0.00000E+00
    0.00000E+00         0.00000E+00        -0.29749E+08
 
   -0.29674E+08         0.61597E+05         0.00000E+00
    0.61597E+05        -0.69634E+08         0.00000E+00
    0.00000E+00         0.00000E+00        -0.29793E+08
 
   -0.29721E+08         0.62309E+05         0.00000E+00
    0.62309E+05        -0.69738E+08         0.00000E+00
    0.00000E+00         0.00000E+00        -0.29838E+08
 
   -0.29769E+08         0.62988E+05         0.00000E+00
    0.62988E+05        -0.69843E+08         0.00000E+00
    0.00000E+00         0.00000E+00        -0.29884E+08
 
   -0.29819E+08         0.63633E+05         0.00000E+00
    0.63633E+05        -0.69950E+08         0.00000E+00
    0.00000E+00         0.00000E+00        -0.29931E+08
 
   -0.29870E+08         0.64237E+05         0.00000E+00
    0.64237E+05        -0.70059E+08         0.00000E+00
    0.00000E+00         0.00000E+00        -0.29979E+08
 
   -0.29923E+08         0.64799E+05         0.00000E+00
    0.64799E+05        -0.70171E+08         0.00000E+00
    0.00000E+00         0.00000E+00        -0.30028E+08
 
   -0.29976E+08         0.65312E+05         0.00000E+00
    0.65312E+05        -0.70284E+08         0.00000E+00
    0.00000E+00         0.00000E+00        -0.30078E+08
 
   -0.30032E+08         0.65772E+05         0.00000E+00
    0.65772E+05        -0.70399E+08         0.00000E+00
    0.00000E+00         0.00000E+00        -0.30129E+08
 
   -0.30089E+08         0.66173E+05         0.00000E+00
    0.66173E+05        -0.70516E+08         0.00000E+00
    0.00000E+00         0.00000E+00        -0.30182E+08
 
   -0.30148E+08         0.66511E+05         0.00000E+00
    0.66511E+05        -0.70635E+08         0.00000E+00
    0.00000E+00         0.00000E+00        -0.30235E+08
 
   -0.30208E+08         0.66777E+05         0.00000E+00
    0.66777E+05        -0.70757E+08         0.00000E+00
    0.00000E+00         0.00000E+00        -0.30289E+08
 
   -0.30270E+08         0.66966E+05         0.00000E+00
    0.66966E+05        -0.70880E+08         0.00000E+00
    0.00000E+00         0.00000E+00        -0.30345E+08
 
   -0.30334E+08         0.67068E+05         0.00000E+00
    0.67068E+05        -0.71005E+08         0.00000E+00
    0.00000E+00         0.00000E+00        -0.30402E+08
 
   -0.30400E+08         0.67077E+05         0.00000E+00
    0.67077E+05        -0.71132E+08         0.00000E+00
    0.00000E+00         0.00000E+00        -0.30460E+08
 
   -0.30468E+08         0.66980E+05         0.00000E+00
    0.66980E+05        -0.71261E+08         0.00000E+00
    0.00000E+00         0.00000E+00        -0.30519E+08
 
   -0.30537E+08         0.66768E+05         0.00000E+00
    0.66768E+05        -0.71392E+08         0.00000E+00
    0.00000E+00         0.00000E+00        -0.30579E+08
 
   -0.30609E+08         0.66426E+05         0.00000E+00
    0.66426E+05        -0.71525E+08         0.00000E+00
    0.00000E+00         0.00000E+00        -0.30640E+08
 
   -0.30683E+08         0.65939E+05         0.00000E+00
    0.65939E+05        -0.71659E+08         0.00000E+00
    0.00000E+00         0.00000E+00        -0.30703E+08
 
   -0.30760E+08         0.65290E+05         0.00000E+00
    0.65290E+05        -0.71796E+08         0.00000E+00
    0.00000E+00         0.00000E+00        -0.30767E+08
 
   -0.30839E+08         0.64456E+05         0.00000E+00
    0.64456E+05        -0.71934E+08         0.00000E+00
    0.00000E+00         0.00000E+00        -0.30832E+08
 
   -0.30920E+08         0.63414E+05         0.00000E+00
    0.63414E+05        -0.72074E+08         0.00000E+00
    0.00000E+00         0.00000E+00        -0.30898E+08
 
   -0.31004E+08         0.62133E+05         0.00000E+00
    0.62133E+05        -0.72216E+08         0.00000E+00
    0.00000E+00         0.00000E+00        -0.30966E+08
 
   -0.31091E+08         0.60581E+05         0.00000E+00
    0.60581E+05        -0.72359E+08         0.00000E+00
    0.00000E+00         0.00000E+00        -0.31035E+08
 
   -0.31181E+08         0.58716E+05         0.00000E+00
    0.58716E+05        -0.72504E+08         0.00000E+00
    0.00000E+00         0.00000E+00        -0.31105E+08
 
   -0.31274E+08         0.56494E+05         0.00000E+00
    0.56494E+05        -0.72651E+08         0.00000E+00
    0.00000E+00         0.00000E+00        -0.31177E+08
 
   -0.31371E+08         0.53862E+05         0.00000E+00
    0.53862E+05        -0.72799E+08         0.00000E+00
    0.00000E+00         0.00000E+00        -0.31251E+08
 
   -0.31472E+08         0.50761E+05         0.00000E+00
    0.50761E+05        -0.72948E+08         0.00000E+00
    0.00000E+00         0.00000E+00        -0.31326E+08
 
   -0.31577E+08         0.47130E+05         0.00000E+00
    0.47130E+05        -0.73099E+08         0.00000E+00
    0.00000E+00         0.00000E+00        -0.31403E+08
 
   -0.31687E+08         0.42902E+05         0.00000E+00
    0.42902E+05        -0.73252E+08         0.00000E+00
    0.00000E+00         0.00000E+00        -0.31481E+08
 
   -0.31801E+08         0.38012E+05         0.00000E+00
    0.38012E+05        -0.73405E+08         0.00000E+00
    0.00000E+00         0.00000E+00        -0.31562E+08
 
   -0.31921E+08         0.32400E+05         0.00000E+00
    0.32400E+05        -0.73560E+08         0.00000E+00
    0.00000E+00         0.00000E+00        -0.31644E+08
 
   -0.32048E+08         0.26022E+05         0.00000E+00
    0.26022E+05        -0.73716E+08         0.00000E+00
    0.00000E+00         0.00000E+00        -0.31729E+08
 
   -0.32180E+08         0.18855E+05         0.00000E+00
    0.18855E+05        -0.73873E+08         0.00000E+00
    0.00000E+00         0.00000E+00        -0.31816E+08
 
   -0.32320E+08         0.10914E+05         0.00000E+00
    0.10914E+05        -0.74031E+08         0.00000E+00
    0.00000E+00         0.00000E+00        -0.31905E+08
 
   -0.32467E+08         0.22656E+04         0.00000E+00
    0.22656E+04        -0.74189E+08         0.00000E+00
    0.00000E+00         0.00000E+00        -0.31997E+08
 
   -0.32621E+08        -0.69553E+04         0.00000E+00
   -0.69553E+04        -0.74349E+08         0.00000E+00
    0.00000E+00         0.00000E+00        -0.32091E+08
 
   -0.32783E+08        -0.16524E+05         0.00000E+00
   -0.16524E+05        -0.74509E+08         0.00000E+00
    0.00000E+00         0.00000E+00        -0.32188E+08
 
   -0.32953E+08        -0.26105E+05         0.00000E+00
   -0.26105E+05        -0.74669E+08         0.00000E+00
    0.00000E+00         0.00000E+00        -0.32286E+08
 
   -0.33129E+08        -0.35218E+05         0.00000E+00
   -0.35218E+05        -0.74829E+08         0.00000E+00
    0.00000E+00         0.00000E+00        -0.32388E+08
 
   -0.33310E+08        -0.43005E+05         0.00000E+00
   -0.43005E+05        -0.74990E+08         0.00000E+00
    0.00000E+00         0.00000E+00        -0.32490E+08
 
   -0.33493E+08        -0.48303E+05         0.00000E+00
   -0.48303E+05        -0.75150E+08         0.00000E+00
    0.00000E+00         0.00000E+00        -0.32593E+08
 
   -0.33671E+08        -0.46108E+05         0.00000E+00
   -0.46108E+05        -0.75309E+08         0.00000E+00
    0.00000E+00         0.00000E+00        -0.32694E+08
 
   -0.33836E+08        -0.21748E+05         0.00000E+00
   -0.21748E+05        -0.75446E+08         0.00000E+00
    0.00000E+00         0.00000E+00        -0.32784E+08
 
   -0.27885E+08        -0.53050E+04         0.00000E+00
   -0.53050E+04        -0.66125E+08         0.00000E+00
    0.00000E+00         0.00000E+00        -0.28203E+08
 
   -0.27927E+08        -0.10108E+05         0.00000E+00
   -0.10108E+05        -0.66161E+08         0.00000E+00
    0.00000E+00         0.00000E+00        -0.28226E+08
 
   -0.27973E+08        -0.94715E+04         0.00000E+00
   -0.94715E+04        -0.66201E+08         0.00000E+00
    0.00000E+00         0.00000E+00        -0.28252E+08
 
   -0.28019E+08        -0.76197E+04         0.00000E+00
   -0.76197E+04        -0.66242E+08         0.00000E+00
    0.00000E+00         0.00000E+00        -0.28278E+08
 
   -0.28063E+08        -0.53560E+04         0.00000E+00
   -0.53560E+04        -0.66283E+08         0.00000E+00
    0.00000E+00         0.00000E+00        -0.28304E+08
 
   -0.28107E+08        -0.28682E+04         0.00000E+00
   -0.28682E+04        -0.66324E+08         0.00000E+00
    0.00000E+00         0.00000E+00        -0.28329E+08
 
   -0.28147E+08        -0.32552E+03         0.00000E+00
   -0.32552E+03        -0.66365E+08         0.00000E+00
    0.00000E+00         0.00000E+00        -0.28354E+08
 
   -0.28186E+08         0.21925E+04         0.00000E+00
    0.21925E+04        -0.66406E+08         0.00000E+00
    0.00000E+00         0.00000E+00        -0.28378E+08
 
   -0.28223E+08         0.46215E+04         0.00000E+00
    0.46215E+04        -0.66448E+08         0.00000E+00
    0.00000E+00         0.00000E+00        -0.28401E+08
 
   -0.28258E+08         0.69218E+04         0.00000E+00
    0.69218E+04        -0.66490E+08         0.00000E+00
    0.00000E+00         0.00000E+00        -0.28424E+08
 
   -0.28290E+08         0.90696E+04         0.00000E+00
    0.90696E+04        -0.66532E+08         0.00000E+00
    0.00000E+00         0.00000E+00        -0.28447E+08
 
   -0.28321E+08         0.11055E+05         0.00000E+00
    0.11055E+05        -0.66575E+08         0.00000E+00
    0.00000E+00         0.00000E+00        -0.28469E+08
 
   -0.28351E+08         0.12879E+05         0.00000E+00
    0.12879E+05        -0.66618E+08         0.00000E+00
    0.00000E+00         0.00000E+00        -0.28491E+08
 
   -0.28379E+08         0.14548E+05         0.00000E+00
    0.14548E+05        -0.66662E+08         0.00000E+00
    0.00000E+00         0.00000E+00        -0.28512E+08
 
   -0.28406E+08         0.16074E+05         0.00000E+00
    0.16074E+05        -0.66706E+08         0.00000E+00
    0.00000E+00         0.00000E+00        -0.28534E+08
 
   -0.28432E+08         0.17473E+05         0.00000E+00
    0.17473E+05        -0.66751E+08         0.00000E+00
    0.00000E+00         0.00000E+00        -0.28555E+08
 
   -0.28457E+08         0.18759E+05         0.00000E+00
    0.18759E+05        -0.66796E+08         0.00000E+00
    0.00000E+00         0.00000E+00        -0.28576E+08
 
   -0.28481E+08         0.19947E+05         0.00000E+00
    0.19947E+05        -0.66842E+08         0.00000E+00
    0.00000E+00         0.00000E+00        -0.28597E+08
 
   -0.28505E+08         0.21051E+05         0.00000E+00
    0.21051E+05        -0.66889E+08         0.00000E+00
    0.00000E+00         0.00000E+00        -0.28618E+08
 
   -0.28529E+08         0.22086E+05         0.00000E+00
    0.22086E+05        -0.66936E+08         0.00000E+00
    0.00000E+00         0.00000E+00        -0.28639E+08
 
   -0.28552E+08         0.23061E+05         0.00000E+00
    0.23061E+05        -0.66984E+08         0.00000E+00
    0.00000E+00         0.00000E+00        -0.28661E+08
 
   -0.28575E+08         0.23988E+05         0.00000E+00
    0.23988E+05        -0.67033E+08         0.00000E+00
    0.00000E+00         0.00000E+00        -0.28682E+08
 
   -0.28597E+08         0.24875E+05         0.00000E+00
    0.24875E+05        -0.67083E+08         0.00000E+00
    0.00000E+00         0.00000E+00        -0.28704E+08
 
   -0.28620E+08         0.25728E+05         0.00000E+00
    0.25728E+05        -0.67133E+08         0.00000E+00
    0.00000E+00         0.00000E+00        -0.28726E+08
 
   -0.28642E+08         0.26555E+05         0.00000E+00
    0.26555E+05        -0.67185E+08         0.00000E+00
    0.00000E+00         0.00000E+00        -0.28748E+08
 
   -0.28665E+08         0.27361E+05         0.00000E+00
    0.27361E+05        -0.67237E+08         0.00000E+00
    0.00000E+00         0.00000E+00        -0.28771E+08
 
   -0.28688E+08         0.28149E+05         0.00000E+00
    0.28149E+05        -0.67291E+08         0.00000E+00
    0.00000E+00         0.00000E+00        -0.28793E+08
 
   -0.28711E+08         0.28923E+05         0.00000E+00
    0.28923E+05        -0.67345E+08         0.00000E+00
    0.00000E+00         0.00000E+00        -0.28817E+08
 
   -0.28734E+08         0.29687E+05         0.00000E+00
    0.29687E+05        -0.67401E+08         0.00000E+00
    0.00000E+00         0.00000E+00        -0.28840E+08
 
   -0.28757E+08         0.30442E+05         0.00000E+00
    0.30442E+05        -0.67457E+08         0.00000E+00
    0.00000E+00         0.00000E+00        -0.28864E+08
 
   -0.28781E+08         0.31191E+05         0.00000E+00
    0.31191E+05        -0.67515E+08         0.00000E+00
    0.00000E+00         0.00000E+00        -0.28889E+08
 
   -0.28805E+08         0.31935E+05         0.00000E+00
    0.31935E+05        -0.67574E+08         0.00000E+00
    0.00000E+00         0.00000E+00        -0.28914E+08
 
   -0.28829E+08         0.32675E+05         0.00000E+00
    0.32675E+05        -0.67634E+08         0.00000E+00
    0.00000E+00         0.00000E+00        -0.28939E+08
 
   -0.28854E+08         0.33413E+05         0.00000E+00
    0.33413E+05        -0.67695E+08         0.00000E+00
    0.00000E+00         0.00000E+00        -0.28965E+08
 
   -0.28879E+08         0.34150E+05         0.00000E+00
    0.34150E+05        -0.67758E+08         0.00000E+00
    0.00000E+00         0.00000E+00        -0.28991E+08
 
   -0.28905E+08         0.34886E+05         0.00000E+00
    0.34886E+05        -0.67822E+08         0.00000E+00
    0.00000E+00         0.00000E+00        -0.29018E+08
 
   -0.28931E+08         0.35621E+05         0.00000E+00
    0.35621E+05        -0.67888E+08         0.00000E+00
    0.00000E+00         0.00000E+00        -0.29046E+08
 
   -0.28958E+08         0.36356E+05         0.00000E+00
    0.36356E+05        -0.67954E+08         0.00000E+00
    0.00000E+00         0.00000E+00        -0.29074E+08
 
   -0.28986E+08         0.37092E+05         0.00000E+00
    0.37092E+05        -0.68023E+08         0.00000E+00
    0.00000E+00         0.00000E+00        -0.29102E+08
 
   -0.29014E+08         0.37827E+05         0.00000E+00
    0.37827E+05        -0.68092E+08         0.00000E+00
    0.00000E+00         0.00000E+00        -0.29132E+08
 
   -0.29043E+08         0.38563E+05         0.00000E+00
    0.38563E+05        -0.68164E+08         0.00000E+00
    0.00000E+00         0.00000E+00        -0.29162E+08
 
   -0.29072E+08         0.39298E+05         0.00000E+00
    0.39298E+05        -0.68236E+08         0.00000E+00
    0.00000E+00         0.00000E+00        -0.29193E+08
 
   -0.29103E+08         0.40033E+05         0.00000E+00
    0.40033E+05        -0.68311E+08         0.00000E+00
    0.00000E+00         0.00000E+00        -0.29224E+08
 
   -0.29134E+08         0.40767E+05         0.00000E+00
    0.40767E+05        -0.68387E+08         0.00000E+00
    0.00000E+00         0.00000E+00        -0.29256E+08
 
   -0.29166E+08         0.41499E+05         0.00000E+00
    0.41499E+05        -0.68464E+08         0.00000E+00
    0.00000E+00         0.00000E+00        -0.29289E+08
 
   -0.29199E+08         0.42229E+05         0.00000E+00
    0.42229E+05        -0.68543E+08         0.00000E+00
    0.00000E+00         0.00000E+00        -0.29323E+08
 
   -0.29232E+08         0.42957E+05         0.00000E+00
    0.42957E+05        -0.68624E+08         0.00000E+00
    0.00000E+00         0.00000E+00        -0.29357E+08
 
   -0.29267E+08         0.43680E+05         0.00000E+00
    0.43680E+05        -0.68707E+08         0.00000E+00
    0.00000E+00         0.00000E+00        -0.29392E+08
 
   -0.29303E+08         0.44398E+05         0.00000E+00
    0.44398E+05        -0.68792E+08         0.00000E+00
    0.00000E+00         0.00000E+00        -0.29428E+08
 
   -0.29339E+08         0.45110E+05         0.00000E+00
    0.45110E+05        -0.68878E+08         0.00000E+00
    0.00000E+00         0.00000E+00        -0.29465E+08
 
   -0.29377E+08         0.45815E+05         0.00000E+00
    0.45815E+05        -0.68966E+08         0.00000E+00
    0.00000E+00         0.00000E+00        -0.29503E+08
 
   -0.29415E+08         0.46511E+05         0.00000E+00
    0.46511E+05        -0.69056E+08         0.00000E+00
    0.00000E+00         0.00000E+00        -0.29541E+08
 
   -0.29455E+08         0.47196E+05         0.00000E+00
    0.47196E+05        -0.69147E+08         0.00000E+00
    0.00000E+00         0.00000E+00        -0.29581E+08
 
   -0.29496E+08         0.47869E+05         0.00000E+00
    0.47869E+05        -0.69241E+08         0.00000E+00
    0.00000E+00         0.00000E+00        -0.29621E+08
 
   -0.29538E+08         0.48528E+05         0.00000E+00
    0.48528E+05        -0.69336E+08         0.00000E+00
    0.00000E+00         0.00000E+00        -0.29662E+08
 
   -0.29581E+08         0.49170E+05         0.00000E+00
    0.49170E+05        -0.69434E+08         0.00000E+00
    0.00000E+00         0.00000E+00        -0.29705E+08
 
   -0.29626E+08         0.49795E+05         0.00000E+00
    0.49795E+05        -0.69533E+08         0.00000E+00
    0.00000E+00         0.00000E+00        -0.29748E+08
 
   -0.29671E+08         0.50398E+05         0.00000E+00
    0.50398E+05        -0.69635E+08         0.00000E+00
    0.00000E+00         0.00000E+00        -0.29792E+08
 
   -0.29718E+08         0.50978E+05         0.00000E+00
    0.50978E+05        -0.69738E+08         0.00000E+00
    0.00000E+00         0.00000E+00        -0.29837E+08
 
   -0.29766E+08         0.51532E+05         0.00000E+00
    0.51532E+05        -0.69843E+08         0.00000E+00
    0.00000E+00         0.00000E+00        -0.29883E+08
 
   -0.29816E+08         0.52057E+05         0.00000E+00
    0.52057E+05        -0.69950E+08         0.00000E+00
    0.00000E+00         0.00000E+00        -0.29930E+08
 
   -0.29867E+08         0.52549E+05         0.00000E+00
    0.52549E+05        -0.70059E+08         0.00000E+00
    0.00000E+00         0.00000E+00        -0.29978E+08
 
   -0.29920E+08         0.53006E+05         0.00000E+00
    0.53006E+05        -0.70171E+08         0.00000E+00
    0.00000E+00         0.00000E+00        -0.30027E+08
 
   -0.29973E+08         0.53423E+05         0.00000E+00
    0.53423E+05        -0.70284E+08         0.00000E+00
    0.00000E+00         0.00000E+00        -0.30077E+08
 
   -0.30029E+08         0.53796E+05         0.00000E+00
    0.53796E+05        -0.70399E+08         0.00000E+00
    0.00000E+00         0.00000E+00        -0.30128E+08
 
   -0.30086E+08         0.54122E+05         0.00000E+00
    0.54122E+05        -0.70516E+08         0.00000E+00
    0.00000E+00         0.00000E+00        -0.30181E+08
 
   -0.30145E+08         0.54394E+05         0.00000E+00
    0.54394E+05        -0.70635E+08         0.00000E+00
    0.00000E+00         0.00000E+00        -0.30234E+08
 
   -0.30205E+08         0.54609E+05         0.00000E+00
    0.54609E+05        -0.70757E+08         0.00000E+00
    0.00000E+00         0.00000E+00        -0.30289E+08
 
   -0.30268E+08         0.54760E+05         0.00000E+00
    0.54760E+05        -0.70880E+08         0.00000E+00
    0.00000E+00         0.00000E+00        -0.30344E+08
 
   -0.30332E+08         0.54841E+05         0.00000E+00
    0.54841E+05        -0.71005E+08         0.00000E+00
    0.00000E+00         0.00000E+00        -0.30401E+08
 
   -0.30397E+08         0.54845E+05         0.00000E+00
    0.54845E+05        -0.71132E+08         0.00000E+00
    0.00000E+00         0.00000E+00        -0.30459E+08
 
   -0.30465E+08         0.54762E+05         0.00000E+00
    0.54762E+05        -0.71261E+08         0.00000E+00
    0.00000E+00         0.00000E+00        -0.30518E+08
 
   -0.30535E+08         0.54585E+05         0.00000E+00
    0.54585E+05        -0.71392E+08         0.00000E+00
    0.00000E+00         0.00000E+00        -0.30578E+08
 
   -0.30607E+08         0.54301E+05         0.00000E+00
    0.54301E+05        -0.71524E+08         0.00000E+00
    0.00000E+00         0.00000E+00        -0.30639E+08
 
   -0.30681E+08         0.53899E+05         0.00000E+00
    0.53899E+05        -0.71659E+08         0.00000E+00
    0.00000E+00         0.00000E+00        -0.30702E+08
 
   -0.30758E+08         0.53363E+05         0.00000E+00
    0.53363E+05        -0.71795E+08         0.00000E+00
    0.00000E+00         0.00000E+00        -0.30766E+08
 
   -0.30837E+08         0.52676E+05         0.00000E+00
    0.52676E+05        -0.71934E+08         0.00000E+00
    0.00000E+00         0.00000E+00        -0.30831E+08
 
   -0.30918E+08         0.51817E+05         0.00000E+00
    0.51817E+05        -0.72074E+08         0.00000E+00
    0.00000E+00         0.00000E+00        -0.30898E+08
 
   -0.31002E+08         0.50762E+05         0.00000E+00
    0.50762E+05        -0.72215E+08         0.00000E+00
    0.00000E+00         0.00000E+00        -0.30965E+08
 
   -0.31090E+08         0.49482E+05         0.00000E+00
    0.49482E+05        -0.72359E+08         0.00000E+00
    0.00000E+00         0.00000E+00        -0.31034E+08
 
   -0.31180E+08         0.47944E+05         0.00000E+00
    0.47944E+05        -0.72504E+08         0.00000E+00
    0.00000E+00         0.00000E+00        -0.31105E+08
 
   -0.31273E+08         0.46110E+05         0.00000E+00
    0.46110E+05        -0.72650E+08         0.00000E+00
    0.00000E+00         0.00000E+00        -0.31177E+08
 
   -0.31371E+08         0.43935E+05         0.00000E+00
    0.43935E+05        -0.72798E+08         0.00000E+00
    0.00000E+00         0.00000E+00        -0.31251E+08
 
   -0.31472E+08         0.41370E+05         0.00000E+00
    0.41370E+05        -0.72948E+08         0.00000E+00
    0.00000E+00         0.00000E+00        -0.31326E+08
 
   -0.31577E+08         0.38362E+05         0.00000E+00
    0.38362E+05        -0.73099E+08         0.00000E+00
    0.00000E+00         0.00000E+00        -0.31403E+08
 
   -0.31687E+08         0.34854E+05         0.00000E+00
    0.34854E+05        -0.73251E+08         0.00000E+00
    0.00000E+00         0.00000E+00        -0.31481E+08
 
   -0.31803E+08         0.30790E+05         0.00000E+00
    0.30790E+05        -0.73404E+08         0.00000E+00
    0.00000E+00         0.00000E+00        -0.31562E+08
 
   -0.31924E+08         0.26117E+05         0.00000E+00
    0.26117E+05        -0.73559E+08         0.00000E+00
    0.00000E+00         0.00000E+00        -0.31645E+08
 
   -0.32051E+08         0.20796E+05         0.00000E+00
    0.20796E+05        -0.73715E+08         0.00000E+00
    0.00000E+00         0.00000E+00        -0.31730E+08
 
   -0.32185E+08         0.14803E+05         0.00000E+00
    0.14803E+05        -0.73871E+08         0.00000E+00
    0.00000E+00         0.00000E+00        -0.31817E+08
 
   -0.32326E+08         0.81474E+04         0.00000E+00
    0.81474E+04        -0.74029E+08         0.00000E+00
    0.00000E+00         0.00000E+00        -0.31907E+08
 
   -0.32475E+08         0.87718E+03         0.00000E+00
    0.87718E+03        -0.74188E+08         0.00000E+00
    0.00000E+00         0.00000E+00        -0.31999E+08
 
   -0.32632E+08        -0.69016E+04         0.00000E+00
   -0.69016E+04        -0.74347E+08         0.00000E+00
    0.00000E+00         0.00000E+00        -0.32094E+08
 
   -0.32797E+08        -0.15019E+05         0.00000E+00
   -0.15019E+05        -0.74507E+08         0.00000E+00
    0.00000E+00         0.00000E+00        -0.32191E+08
 
   -0.32970E+08        -0.23205E+05         0.00000E+00
   -0.23205E+05        -0.74667E+08         0.00000E+00
    0.00000E+00         0.00000E+00        -0.32291E+08
 
   -0.33150E+08        -0.31130E+05         0.00000E+00
   -0.31130E+05        -0.74828E+08         0.00000E+00
    0.00000E+00         0.00000E+00        -0.32393E+08
 
   -0.33336E+08        -0.38106E+05         0.00000E+00
   -0.38106E+05        -0.74989E+08         0.00000E+00
    0.00000E+00         0.00000E+00        -0.32498E+08
 
   -0.33526E+08        -0.43371E+05         0.00000E+00
   -0.43371E+05        -0.75149E+08         0.00000E+00
    0.00000E+00         0.00000E+00        -0.32603E+08
 
   -0.33711E+08        -0.43716E+05         0.00000E+00
   -0.43716E+05        -0.75310E+08         0.00000E+00
    0.00000E+00         0.00000E+00        -0.32707E+08
 
   -0.33881E+08        -0.22300E+05         0.00000E+00
   -0.22300E+05        -0.75454E+08         0.00000E+00
    0.00000E+00         0.00000E+00        -0.32801E+08
 
   -0.27872E+08        -0.54446E+04         0.00000E+00
   -0.54446E+04        -0.66123E+08         0.00000E+00
    0.00000E+00         0.00000E+00        -0.28199E+08
 
   -0.27916E+08        -0.92387E+04         0.00000E+00
   -0.92387E+04        -0.66161E+08         0.00000E+00
    0.00000E+00         0.00000E+00        -0.28223E+08
 
   -0.27964E+08        -0.81190E+04         0.00000E+00
   -0.81190E+04        -0.66202E+08         0.00000E+00
    0.00000E+00         0.00000E+00        -0.28250E+08
 
   -0.28011E+08        -0.65139E+04         0.00000E+00
   -0.65139E+04        -0.66242E+08         0.00000E+00
    0.00000E+00         0.00000E+00        -0.28276E+08
 
   -0.28058E+08        -0.46093E+04         0.00000E+00
   -0.46093E+04        -0.66283E+08         0.00000E+00
    0.00000E+00         0.00000E+00        -0.28302E+08
 
   -0.28102E+08        -0.25762E+04         0.00000E+00
   -0.25762E+04        -0.66324E+08         0.00000E+00
    0.00000E+00         0.00000E+00        -0.28328E+08
 
   -0.28143E+08        -0.52445E+03         0.00000E+00
   -0.52445E+03        -0.66365E+08         0.00000E+00
    0.00000E+00         0.00000E+00        -0.28353E+08
 
   -0.28183E+08         0.14951E+04         0.00000E+00
    0.14951E+04        -0.66406E+08         0.00000E+00
    0.00000E+00         0.00000E+00        -0.28377E+08
 
   -0.28220E+08         0.34332E+04         0.00000E+00
    0.34332E+04        -0.66448E+08         0.00000E+00
    0.00000E+00         0.00000E+00        -0.28400E+08
 
   -0.28255E+08         0.52627E+04         0.00000E+00
    0.52627E+04        -0.66490E+08         0.00000E+00
    0.00000E+00         0.00000E+00        -0.28424E+08
 
   -0.28288E+08         0.69658E+04         0.00000E+00
    0.69658E+04        -0.66533E+08         0.00000E+00
    0.00000E+00         0.00000E+00        -0.28446E+08
 
   -0.28319E+08         0.85362E+04         0.00000E+00
    0.85362E+04        -0.66575E+08         0.00000E+00
    0.00000E+00         0.00000E+00        -0.28468E+08
 
   -0.28349E+08         0.99752E+04         0.00000E+00
    0.99752E+04        -0.66618E+08         0.00000E+00
    0.00000E+00         0.00000E+00        -0.28490E+08
 
   -0.28377E+08         0.11289E+05         0.00000E+00
    0.11289E+05        -0.66662E+08         0.00000E+00
    0.00000E+00         0.00000E+00        -0.28512E+08
 
   -0.28404E+08         0.12489E+05         0.00000E+00
    0.12489E+05        -0.66706E+08         0.00000E+00
    0.00000E+00         0.00000E+00        -0.28533E+08
 
   -0.28430E+08         0.13586E+05         0.00000E+00
    0.13586E+05        -0.66751E+08         0.00000E+00
    0.00000E+00         0.00000E+00        -0.28554E+08
 
   -0.28455E+08         0.14593E+05         0.00000E+00
    0.14593E+05        -0.66796E+08         0.00000E+00
    0.00000E+00         0.00000E+00        -0.28576E+08
 
   -0.28480E+08         0.15522E+05         0.00000E+00
    0.15522E+05        -0.66842E+08         0.00000E+00
    0.00000E+00         0.00000E+00        -0.28597E+08
 
   -0.28504E+08         0.16385E+05         0.00000E+00
    0.16385E+05        -0.66889E+08         0.00000E+00
    0.00000E+00         0.00000E+00        -0.28618E+08
 
   -0.28527E+08         0.17192E+05         0.00000E+00
    0.17192E+05        -0.66936E+08         0.00000E+00
    0.00000E+00         0.00000E+00        -0.28639E+08
 
   -0.28550E+08         0.17952E+05         0.00000E+00
    0.17952E+05        -0.66984E+08         0.00000E+00
    0.00000E+00         0.00000E+00        -0.28660E+08
 
   -0.28573E+08         0.18674E+05         0.00000E+00
    0.18674E+05        -0.67033E+08         0.00000E+00
    0.00000E+00         0.00000E+00        -0.28682E+08
 
   -0.28596E+08         0.19365E+05         0.00000E+00
    0.19365E+05        -0.67083E+08         0.00000E+00
    0.00000E+00         0.00000E+00        -0.28704E+08
 
   -0.28618E+08         0.20029E+05         0.00000E+00
    0.20029E+05        -0.67133E+08         0.00000E+00
    0.00000E+00         0.00000E+00        -0.28725E+08
 
   -0.28641E+08         0.20673E+05         0.00000E+00
    0.20673E+05        -0.67185E+08         0.00000E+00
    0.00000E+00         0.00000E+00        -0.28748E+08
 
   -0.28663E+08         0.21299E+05         0.00000E+00
    0.21299E+05        -0.67237E+08         0.00000E+00
    0.00000E+00         0.00000E+00        -0.28770E+08
 
   -0.28686E+08         0.21912E+05         0.00000E+00
    0.21912E+05        -0.67291E+08         0.00000E+00
    0.00000E+00         0.00000E+00        -0.28793E+08
 
   -0.28709E+08         0.22515E+05         0.00000E+00
    0.22515E+05        -0.67345E+08         0.00000E+00
    0.00000E+00         0.00000E+00        -0.28816E+08
 
   -0.28732E+08         0.23109E+05         0.00000E+00
    0.23109E+05        -0.67401E+08         0.00000E+00
    0.00000E+00         0.00000E+00        -0.28840E+08
 
   -0.28755E+08         0.23696E+05         0.00000E+00
    0.23696E+05        -0.67457E+08         0.00000E+00
    0.00000E+00         0.00000E+00        -0.28864E+08
 
   -0.28778E+08         0.24279E+05         0.00000E+00
    0.24279E+05        -0.67515E+08         0.00000E+00
    0.00000E+00         0.00000E+00        -0.28888E+08
 
   -0.28802E+08         0.24857E+05         0.00000E+00
    0.24857E+05        -0.67574E+08         0.00000E+00
    0.00000E+00         0.00000E+00        -0.28913E+08
 
   -0.28827E+08         0.25433E+05         0.00000E+00
    0.25433E+05        -0.67634E+08         0.00000E+00
    0.00000E+00         0.00000E+00        -0.28938E+08
 
   -0.28851E+08         0.26007E+05         0.00000E+00
    0.26007E+05        -0.67696E+08         0.00000E+00
    0.00000E+00         0.00000E+00        -0.28964E+08
 
   -0.28877E+08         0.26580E+05         0.00000E+00
    0.26580E+05        -0.67758E+08         0.00000E+00
    0.00000E+00         0.00000E+00        -0.28990E+08
 
   -0.28902E+08         0.27152E+05         0.00000E+00
    0.27152E+05        -0.67822E+08         0.00000E+00
    0.00000E+00         0.00000E+00        -0.29017E+08
 
   -0.28929E+08         0.27724E+05         0.00000E+00
    0.27724E+05        -0.67888E+08         0.00000E+00
    0.00000E+00         0.00000E+00        -0.29045E+08
 
   -0.28956E+08         0.28296E+05         0.00000E+00
    0.28296E+05        -0.67955E+08         0.00000E+00
    0.00000E+00         0.00000E+00        -0.29073E+08
 
   -0.28983E+08         0.28867E+05         0.00000E+00
    0.28867E+05        -0.68023E+08         0.00000E+00
    0.00000E+00         0.00000E+00        -0.29102E+08
 
   -0.29011E+08         0.29439E+05         0.00000E+00
    0.29439E+05        -0.68092E+08         0.00000E+00
    0.00000E+00         0.00000E+00        -0.29131E+08
 
   -0.29040E+08         0.30011E+05         0.00000E+00
    0.30011E+05        -0.68164E+08         0.00000E+00
    0.00000E+00         0.00000E+00        -0.29161E+08
 
   -0.29070E+08         0.30582E+05         0.00000E+00
    0.30582E+05        -0.68236E+08         0.00000E+00
    0.00000E+00         0.00000E+00        -0.29192E+08
 
   -0.29100E+08         0.31153E+05         0.00000E+00
    0.31153E+05        -0.68311E+08         0.00000E+00
    0.00000E+00         0.00000E+00        -0.29223E+08
 
   -0.29131E+08         0.31723E+05         0.00000E+00
    0.31723E+05        -0.68387E+08         0.00000E+00
    0.00000E+00         0.00000E+00        -0.29255E+08
 
   -0.29163E+08         0.32292E+05         0.00000E+00
    0.32292E+05        -0.68464E+08         0.00000E+00
    0.00000E+00         0.00000E+00        -0.29288E+08
 
   -0.29196E+08         0.32860E+05         0.00000E+00
    0.32860E+05        -0.68544E+08         0.00000E+00
    0.00000E+00         0.00000E+00        -0.29322E+08
 
   -0.29230E+08         0.33425E+05         0.00000E+00
    0.33425E+05        -0.68625E+08         0.00000E+00
    0.00000E+00         0.00000E+00        -0.29356E+08
 
   -0.29264E+08         0.33986E+05         0.00000E+00
    0.33986E+05        -0.68707E+08         0.00000E+00
    0.00000E+00         0.00000E+00        -0.29391E+08
 
   -0.29300E+08         0.34544E+05         0.00000E+00
    0.34544E+05        -0.68792E+08         0.00000E+00
    0.00000E+00         0.00000E+00        -0.29427E+08
 
   -0.29336E+08         0.35097E+05         0.00000E+00
    0.35097E+05        -0.68878E+08         0.00000E+00
    0.00000E+00         0.00000E+00        -0.29464E+08
 
   -0.29374E+08         0.35644E+05         0.00000E+00
    0.35644E+05        -0.68966E+08         0.00000E+00
    0.00000E+00         0.00000E+00        -0.29502E+08
 
   -0.29412E+08         0.36184E+05         0.00000E+00
    0.36184E+05        -0.69056E+08         0.00000E+00
    0.00000E+00         0.00000E+00        -0.29540E+08
 
   -0.29452E+08         0.36716E+05         0.00000E+00
    0.36716E+05        -0.69148E+08         0.00000E+00
    0.00000E+00         0.00000E+00        -0.29580E+08
 
   -0.29493E+08         0.37238E+05         0.00000E+00
    0.37238E+05        -0.69241E+08         0.00000E+00
    0.00000E+00         0.00000E+00        -0.29620E+08
 
   -0.29535E+08         0.37749E+05         0.00000E+00
    0.37749E+05        -0.69337E+08         0.00000E+00
    0.00000E+00         0.00000E+00        -0.29661E+08
 
   -0.29578E+08         0.38248E+05         0.00000E+00
    0.38248E+05        -0.69434E+08         0.00000E+00
    0.00000E+00         0.00000E+00        -0.29704E+08
 
   -0.29622E+08         0.38732E+05         0.00000E+00
    0.38732E+05        -0.69533E+08         0.00000E+00
    0.00000E+00         0.00000E+00        -0.29747E+08
 
   -0.29668E+08         0.39199E+05         0.00000E+00
    0.39199E+05        -0.69635E+08         0.00000E+00
    0.00000E+00         0.00000E+00        -0.29791E+08
 
   -0.29715E+08         0.39649E+05         0.00000E+00
    0.39649E+05        -0.69738E+08         0.00000E+00
    0.00000E+00         0.00000E+00        -0.29836E+08
 
   -0.29763E+08         0.40078E+05         0.00000E+00
    0.40078E+05        -0.69843E+08         0.00000E+00
    0.00000E+00         0.00000E+00        -0.29882E+08
 
   -0.29813E+08         0.40484E+05         0.00000E+00
    0.40484E+05        -0.69950E+08         0.00000E+00
    0.00000E+00         0.00000E+00        -0.29929E+08
 
   -0.29864E+08         0.40865E+05         0.00000E+00
    0.40865E+05        -0.70060E+08         0.00000E+00
    0.00000E+00         0.00000E+00        -0.29977E+08
 
   -0.29917E+08         0.41218E+05         0.00000E+00
    0.41218E+05        -0.70171E+08         0.00000E+00
    0.00000E+00         0.00000E+00        -0.30026E+08
 
   -0.29971E+08         0.41540E+05         0.00000E+00
    0.41540E+05        -0.70284E+08         0.00000E+00
    0.00000E+00         0.00000E+00        -0.30076E+08
 
   -0.30026E+08         0.41829E+05         0.00000E+00
    0.41829E+05        -0.70399E+08         0.00000E+00
    0.00000E+00         0.00000E+00        -0.30128E+08
 
   -0.30083E+08         0.42080E+05         0.00000E+00
    0.42080E+05        -0.70516E+08         0.00000E+00
    0.00000E+00         0.00000E+00        -0.30180E+08
 
   -0.30142E+08         0.42290E+05         0.00000E+00
    0.42290E+05        -0.70635E+08         0.00000E+00
    0.00000E+00         0.00000E+00        -0.30233E+08
 
   -0.30203E+08         0.42454E+05         0.00000E+00
    0.42454E+05        -0.70757E+08         0.00000E+00
    0.00000E+00         0.00000E+00        -0.30288E+08
 
   -0.30265E+08         0.42569E+05         0.00000E+00
    0.42569E+05        -0.70880E+08         0.00000E+00
    0.00000E+00         0.00000E+00        -0.30343E+08
 
   -0.30329E+08         0.42630E+05         0.00000E+00
    0.42630E+05        -0.71005E+08         0.00000E+00
    0.00000E+00         0.00000E+00        -0.30400E+08
 
   -0.30395E+08         0.42630E+05         0.00000E+00
    0.42630E+05        -0.71132E+08         0.00000E+00
    0.00000E+00         0.00000E+00        -0.30458E+08
 
   -0.30463E+08         0.42563E+05         0.00000E+00
    0.42563E+05        -0.71261E+08         0.00000E+00
    0.00000E+00         0.00000E+00        -0.30517E+08
 
   -0.30533E+08         0.42422E+05         0.00000E+00
    0.42422E+05        -0.71392E+08         0.00000E+00
    0.00000E+00         0.00000E+00        -0.30577E+08
 
   -0.30605E+08         0.42199E+05         0.00000E+00
    0.42199E+05        -0.71524E+08         0.00000E+00
    0.00000E+00         0.00000E+00        -0.30639E+08
 
   -0.30679E+08         0.41883E+05         0.00000E+00
    0.41883E+05        -0.71659E+08         0.00000E+00
    0.00000E+00         0.00000E+00        -0.30701E+08
 
   -0.30756E+08         0.41463E+05         0.00000E+00
    0.41463E+05        -0.71795E+08         0.00000E+00
    0.00000E+00         0.00000E+00        -0.30765E+08
 
   -0.30835E+08         0.40925E+05         0.00000E+00
    0.40925E+05        -0.71934E+08         0.00000E+00
    0.00000E+00         0.00000E+00        -0.30831E+08
 
   -0.30916E+08         0.40252E+05         0.00000E+00
    0.40252E+05        -0.72073E+08         0.00000E+00
    0.00000E+00         0.00000E+00        -0.30897E+08
 
   -0.31001E+08         0.39427E+05         0.00000E+00
    0.39427E+05        -0.72215E+08         0.00000E+00
    0.00000E+00         0.00000E+00        -0.30965E+08
 
   -0.31088E+08         0.38425E+05         0.00000E+00
    0.38425E+05        -0.72358E+08         0.00000E+00
    0.00000E+00         0.00000E+00        -0.31034E+08
 
   -0.31179E+08         0.37220E+05         0.00000E+00
    0.37220E+05        -0.72503E+08         0.00000E+00
    0.00000E+00         0.00000E+00        -0.31105E+08
 
   -0.31272E+08         0.35781E+05         0.00000E+00
    0.35781E+05        -0.72650E+08         0.00000E+00
    0.00000E+00         0.00000E+00        -0.31177E+08
 
   -0.31370E+08         0.34073E+05         0.00000E+00
    0.34073E+05        -0.72798E+08         0.00000E+00
    0.00000E+00         0.00000E+00        -0.31250E+08
 
   -0.31471E+08         0.32057E+05         0.00000E+00
    0.32057E+05        -0.72947E+08         0.00000E+00
    0.00000E+00         0.00000E+00        -0.31326E+08
 
   -0.31577E+08         0.29689E+05         0.00000E+00
    0.29689E+05        -0.73098E+08         0.00000E+00
    0.00000E+00         0.00000E+00        -0.31403E+08
 
   -0.31688E+08         0.26923E+05         0.00000E+00
    0.26923E+05        -0.73250E+08         0.00000E+00
    0.00000E+00         0.00000E+00        -0.31481E+08
 
   -0.31804E+08         0.23712E+05         0.00000E+00
    0.23712E+05        -0.73403E+08         0.00000E+00
    0.00000E+00         0.00000E+00        -0.31562E+08
 
   -0.31926E+08         0.20014E+05         0.00000E+00
    0.20014E+05        -0.73558E+08         0.00000E+00
    0.00000E+00         0.00000E+00        -0.31645E+08
 
   -0.32054E+08         0.15793E+05         0.00000E+00
    0.15793E+05        -0.73714E+08         0.00000E+00
    0.00000E+00         0.00000E+00        -0.31730E+08
 
   -0.32189E+08         0.11029E+05         0.00000E+00
    0.11029E+05        -0.73870E+08         0.00000E+00
    0.00000E+00         0.00000E+00        -0.31818E+08
 
   -0.32332E+08         0.57236E+04         0.00000E+00
    0.57236E+04        -0.74028E+08         0.00000E+00
    0.00000E+00         0.00000E+00        -0.31908E+08
 
   -0.32482E+08        -0.89448E+02         0.00000E+00
   -0.89448E+02        -0.74186E+08         0.00000E+00
    0.00000E+00         0.00000E+00        -0.32001E+08
 
   -0.32642E+08        -0.63308E+04         0.00000E+00
   -0.63308E+04        -0.74346E+08         0.00000E+00
    0.00000E+00         0.00000E+00        -0.32096E+08
 
   -0.32809E+08        -0.12883E+05         0.00000E+00
   -0.12883E+05        -0.74505E+08         0.00000E+00
    0.00000E+00         0.00000E+00        -0.32194E+08
 
   -0.32986E+08        -0.19538E+05         0.00000E+00
   -0.19538E+05        -0.74666E+08         0.00000E+00
    0.00000E+00         0.00000E+00        -0.32295E+08
 
   -0.33171E+08        -0.26084E+05         0.00000E+00
   -0.26084E+05        -0.74826E+08         0.00000E+00
    0.00000E+00         0.00000E+00        -0.32399E+08
 
   -0.33362E+08        -0.32070E+05         0.00000E+00
   -0.32070E+05        -0.74987E+08         0.00000E+00
    0.00000E+00         0.00000E+00        -0.32505E+08
 
   -0.33559E+08        -0.36806E+05         0.00000E+00
   -0.36806E+05        -0.75148E+08         0.00000E+00
    0.00000E+00         0.00000E+00        -0.32612E+08
 
   -0.33754E+08        -0.39539E+05         0.00000E+00
   -0.39539E+05        -0.75311E+08         0.00000E+00
    0.00000E+00         0.00000E+00        -0.32719E+08
 
   -0.33931E+08        -0.22619E+05         0.00000E+00
   -0.22619E+05        -0.75462E+08         0.00000E+00
    0.00000E+00         0.00000E+00        -0.32818E+08
 
   -0.27858E+08        -0.54715E+04         0.00000E+00
   -0.54715E+04        -0.66121E+08         0.00000E+00
    0.00000E+00         0.00000E+00        -0.28194E+08
 
   -0.27904E+08        -0.77447E+04         0.00000E+00
   -0.77447E+04        -0.66161E+08         0.00000E+00
    0.00000E+00         0.00000E+00        -0.28220E+08
 
   -0.27955E+08        -0.63496E+04         0.00000E+00
   -0.63496E+04        -0.66202E+08         0.00000E+00
    0.00000E+00         0.00000E+00        -0.28247E+08
 
   -0.28004E+08        -0.51245E+04         0.00000E+00
   -0.51245E+04        -0.66243E+08         0.00000E+00
    0.00000E+00         0.00000E+00        -0.28274E+08
 
   -0.28052E+08        -0.36247E+04         0.00000E+00
   -0.36247E+04        -0.66283E+08         0.00000E+00
    0.00000E+00         0.00000E+00        -0.28301E+08
 
   -0.28097E+08        -0.21055E+04         0.00000E+00
   -0.21055E+04        -0.66324E+08         0.00000E+00
    0.00000E+00         0.00000E+00        -0.28326E+08
 
   -0.28140E+08        -0.57860E+03         0.00000E+00
   -0.57860E+03        -0.66365E+08         0.00000E+00
    0.00000E+00         0.00000E+00        -0.28352E+08
 
   -0.28180E+08         0.91023E+03         0.00000E+00
    0.91023E+03        -0.66407E+08         0.00000E+00
    0.00000E+00         0.00000E+00        -0.28376E+08
 
   -0.28217E+08         0.23327E+04         0.00000E+00
    0.23327E+04        -0.66448E+08         0.00000E+00
    0.00000E+00         0.00000E+00        -0.28400E+08
 
   -0.28253E+08         0.36704E+04         0.00000E+00
    0.36704E+04        -0.66490E+08         0.00000E+00
    0.00000E+00         0.00000E+00        -0.28423E+08
 
   -0.28286E+08         0.49117E+04         0.00000E+00
    0.49117E+04        -0.66533E+08         0.00000E+00
    0.00000E+00         0.00000E+00        -0.28446E+08
 
   -0.28317E+08         0.60533E+04         0.00000E+00
    0.60533E+04        -0.66576E+08         0.00000E+00
    0.00000E+00         0.00000E+00        -0.28468E+08
 
   -0.28347E+08         0.70965E+04         0.00000E+00
    0.70965E+04        -0.66619E+08         0.00000E+00
    0.00000E+00         0.00000E+00        -0.28490E+08
 
   -0.28376E+08         0.80471E+04         0.00000E+00
    0.80471E+04        -0.66662E+08         0.00000E+00
    0.00000E+00         0.00000E+00        -0.28511E+08
 
   -0.28403E+08         0.89130E+04         0.00000E+00
    0.89130E+04        -0.66706E+08         0.00000E+00
    0.00000E+00         0.00000E+00        -0.28533E+08
 
   -0.28429E+08         0.97032E+04         0.00000E+00
    0.97032E+04        -0.66751E+08         0.00000E+00
    0.00000E+00         0.00000E+00        -0.28554E+08
 
   -0.28454E+08         0.10427E+05         0.00000E+00
    0.10427E+05        -0.66796E+08         0.00000E+00
    0.00000E+00         0.00000E+00        -0.28575E+08
 
   -0.28478E+08         0.11094E+05         0.00000E+00
    0.11094E+05        -0.66842E+08         0.00000E+00
    0.00000E+00         0.00000E+00        -0.28596E+08
 
   -0.28502E+08         0.11713E+05         0.00000E+00
    0.11713E+05        -0.66889E+08         0.00000E+00
    0.00000E+00         0.00000E+00        -0.28617E+08
 
   -0.28526E+08         0.12291E+05         0.00000E+00
    0.12291E+05        -0.66936E+08         0.00000E+00
    0.00000E+00         0.00000E+00        -0.28639E+08
 
   -0.28549E+08         0.12836E+05         0.00000E+00
    0.12836E+05        -0.66984E+08         0.00000E+00
    0.00000E+00         0.00000E+00        -0.28660E+08
 
   -0.28571E+08         0.13352E+05         0.00000E+00
    0.13352E+05        -0.67033E+08         0.00000E+00
    0.00000E+00         0.00000E+00        -0.28681E+08
 
   -0.28594E+08         0.13846E+05         0.00000E+00
    0.13846E+05        -0.67083E+08         0.00000E+00
    0.00000E+00         0.00000E+00        -0.28703E+08
 
   -0.28616E+08         0.14321E+05         0.00000E+00
    0.14321E+05        -0.67134E+08         0.00000E+00
    0.00000E+00         0.00000E+00        -0.28725E+08
 
   -0.28639E+08         0.14781E+05         0.00000E+00
    0.14781E+05        -0.67185E+08         0.00000E+00
    0.00000E+00         0.00000E+00        -0.28747E+08
 
   -0.28661E+08         0.15229E+05         0.00000E+00
    0.15229E+05        -0.67237E+08         0.00000E+00
    0.00000E+00         0.00000E+00        -0.28770E+08
 
   -0.28684E+08         0.15667E+05         0.00000E+00
    0.15667E+05        -0.67291E+08         0.00000E+00
    0.00000E+00         0.00000E+00        -0.28792E+08
 
   -0.28707E+08         0.16097E+05         0.00000E+00
    0.16097E+05        -0.67345E+08         0.00000E+00
    0.00000E+00         0.00000E+00        -0.28816E+08
 
   -0.28730E+08         0.16521E+05         0.00000E+00
    0.16521E+05        -0.67401E+08         0.00000E+00
    0.00000E+00         0.00000E+00        -0.28839E+08
 
   -0.28753E+08         0.16941E+05         0.00000E+00
    0.16941E+05        -0.67457E+08         0.00000E+00
    0.00000E+00         0.00000E+00        -0.28863E+08
 
   -0.28776E+08         0.17357E+05         0.00000E+00
    0.17357E+05        -0.67515E+08         0.00000E+00
    0.00000E+00         0.00000E+00        -0.28887E+08
 
   -0.28800E+08         0.17770E+05         0.00000E+00
    0.17770E+05        -0.67574E+08         0.00000E+00
    0.00000E+00         0.00000E+00        -0.28912E+08
 
   -0.28824E+08         0.18181E+05         0.00000E+00
    0.18181E+05        -0.67634E+08         0.00000E+00
    0.00000E+00         0.00000E+00        -0.28938E+08
 
   -0.28849E+08         0.18591E+05         0.00000E+00
    0.18591E+05        -0.67696E+08         0.00000E+00
    0.00000E+00         0.00000E+00        -0.28963E+08
 
   -0.28874E+08         0.19000E+05         0.00000E+00
    0.19000E+05        -0.67758E+08         0.00000E+00
    0.00000E+00         0.00000E+00        -0.28990E+08
 
   -0.28900E+08         0.19409E+05         0.00000E+00
    0.19409E+05        -0.67822E+08         0.00000E+00
    0.00000E+00         0.00000E+00        -0.29017E+08
 
   -0.28926E+08         0.19817E+05         0.00000E+00
    0.19817E+05        -0.67888E+08         0.00000E+00
    0.00000E+00         0.00000E+00        -0.29044E+08
 
   -0.28953E+08         0.20225E+05         0.00000E+00
    0.20225E+05        -0.67955E+08         0.00000E+00
    0.00000E+00         0.00000E+00        -0.29072E+08
 
   -0.28981E+08         0.20633E+05         0.00000E+00
    0.20633E+05        -0.68023E+08         0.00000E+00
    0.00000E+00         0.00000E+00        -0.29101E+08
 
   -0.29009E+08         0.21041E+05         0.00000E+00
    0.21041E+05        -0.68093E+08         0.00000E+00
    0.00000E+00         0.00000E+00        -0.29130E+08
 
   -0.29038E+08         0.21449E+05         0.00000E+00
    0.21449E+05        -0.68164E+08         0.00000E+00
    0.00000E+00         0.00000E+00        -0.29160E+08
 
   -0.29067E+08         0.21857E+05         0.00000E+00
    0.21857E+05        -0.68237E+08         0.00000E+00
    0.00000E+00         0.00000E+00        -0.29191E+08
 
   -0.29097E+08         0.22265E+05         0.00000E+00
    0.22265E+05        -0.68311E+08         0.00000E+00
    0.00000E+00         0.00000E+00        -0.29222E+08
 
   -0.29128E+08         0.22672E+05         0.00000E+00
    0.22672E+05        -0.68387E+08         0.00000E+00
    0.00000E+00         0.00000E+00        -0.29255E+08
 
   -0.29160E+08         0.23078E+05         0.00000E+00
    0.23078E+05        -0.68464E+08         0.00000E+00
    0.00000E+00         0.00000E+00        -0.29287E+08
 
   -0.29193E+08         0.23483E+05         0.00000E+00
    0.23483E+05        -0.68544E+08         0.00000E+00
    0.00000E+00         0.00000E+00        -0.29321E+08
 
   -0.29227E+08         0.23885E+05         0.00000E+00
    0.23885E+05        -0.68625E+08         0.00000E+00
    0.00000E+00         0.00000E+00        -0.29355E+08
 
   -0.29261E+08         0.24286E+05         0.00000E+00
    0.24286E+05        -0.68707E+08         0.00000E+00
    0.00000E+00         0.00000E+00        -0.29391E+08
 
   -0.29297E+08         0.24684E+05         0.00000E+00
    0.24684E+05        -0.68792E+08         0.00000E+00
    0.00000E+00         0.00000E+00        -0.29427E+08
 
   -0.29333E+08         0.25078E+05         0.00000E+00
    0.25078E+05        -0.68878E+08         0.00000E+00
    0.00000E+00         0.00000E+00        -0.29463E+08
 
   -0.29371E+08         0.25468E+05         0.00000E+00
    0.25468E+05        -0.68966E+08         0.00000E+00
    0.00000E+00         0.00000E+00        -0.29501E+08
 
   -0.29410E+08         0.25853E+05         0.00000E+00
    0.25853E+05        -0.69056E+08         0.00000E+00
    0.00000E+00         0.00000E+00        -0.29540E+08
 
   -0.29449E+08         0.26232E+05         0.00000E+00
    0.26232E+05        -0.69148E+08         0.00000E+00
    0.00000E+00         0.00000E+00        -0.29579E+08
 
   -0.29490E+08         0.26604E+05         0.00000E+00
    0.26604E+05        -0.69241E+08         0.00000E+00
    0.00000E+00         0.00000E+00        -0.29619E+08
 
   -0.29532E+08         0.26968E+05         0.00000E+00
    0.26968E+05        -0.69337E+08         0.00000E+00
    0.00000E+00         0.00000E+00        -0.29661E+08
 
   -0.29575E+08         0.27323E+05         0.00000E+00
    0.27323E+05        -0.69434E+08         0.00000E+00
    0.00000E+00         0.00000E+00        -0.29703E+08
 
   -0.29619E+08         0.27668E+05         0.00000E+00
    0.27668E+05        -0.69533E+08         0.00000E+00
    0.00000E+00         0.00000E+00        -0.29746E+08
 
   -0.29665E+08         0.28001E+05         0.00000E+00
    0.28001E+05        -0.69635E+08         0.00000E+00
    0.00000E+00         0.00000E+00        -0.29790E+08
 
   -0.29712E+08         0.28321E+05         0.00000E+00
    0.28321E+05        -0.69738E+08         0.00000E+00
    0.00000E+00         0.00000E+00        -0.29835E+08
 
   -0.29760E+08         0.28626E+05         0.00000E+00
    0.28626E+05        -0.69843E+08         0.00000E+00
    0.00000E+00         0.00000E+00        -0.29881E+08
 
   -0.29810E+08         0.28914E+05         0.00000E+00
    0.28914E+05        -0.69950E+08         0.00000E+00
    0.00000E+00         0.00000E+00        -0.29928E+08
 
   -0.29861E+08         0.29185E+05         0.00000E+00
    0.29185E+05        -0.70060E+08         0.00000E+00
    0.00000E+00         0.00000E+00        -0.29976E+08
 
   -0.29914E+08         0.29436E+05         0.00000E+00
    0.29436E+05        -0.70171E+08         0.00000E+00
    0.00000E+00         0.00000E+00        -0.30025E+08
 
   -0.29968E+08         0.29665E+05         0.00000E+00
    0.29665E+05        -0.70284E+08         0.00000E+00
    0.00000E+00         0.00000E+00        -0.30075E+08
 
   -0.30023E+08         0.29869E+05         0.00000E+00
    0.29869E+05        -0.70399E+08         0.00000E+00
    0.00000E+00         0.00000E+00        -0.30127E+08
 
   -0.30080E+08         0.30047E+05         0.00000E+00
    0.30047E+05        -0.70516E+08         0.00000E+00
    0.00000E+00         0.00000E+00        -0.30179E+08
 
   -0.30139E+08         0.30195E+05         0.00000E+00
    0.30195E+05        -0.70635E+08         0.00000E+00
    0.00000E+00         0.00000E+00        -0.30232E+08
 
   -0.30200E+08         0.30311E+05         0.00000E+00
    0.30311E+05        -0.70757E+08         0.00000E+00
    0.00000E+00         0.00000E+00        -0.30287E+08
 
   -0.30262E+08         0.30391E+05         0.00000E+00
    0.30391E+05        -0.70880E+08         0.00000E+00
    0.00000E+00         0.00000E+00        -0.30343E+08
 
   -0.30326E+08         0.30432E+05         0.00000E+00
    0.30432E+05        -0.71005E+08         0.00000E+00
    0.00000E+00         0.00000E+00        -0.30399E+08
 
   -0.30392E+08         0.30431E+05         0.00000E+00
    0.30431E+05        -0.71132E+08         0.00000E+00
    0.00000E+00         0.00000E+00        -0.30457E+08
 
   -0.30460E+08         0.30381E+05         0.00000E+00
    0.30381E+05        -0.71261E+08         0.00000E+00
    0.00000E+00         0.00000E+00        -0.30516E+08
 
   -0.30530E+08         0.30279E+05         0.00000E+00
    0.30279E+05        -0.71392E+08         0.00000E+00
    0.00000E+00         0.00000E+00        -0.30577E+08
 
   -0.30602E+08         0.30117E+05         0.00000E+00
    0.30117E+05        -0.71524E+08         0.00000E+00
    0.00000E+00         0.00000E+00        -0.30638E+08
 
   -0.30677E+08         0.29890E+05         0.00000E+00
    0.29890E+05        -0.71659E+08         0.00000E+00
    0.00000E+00         0.00000E+00        -0.30701E+08
 
   -0.30754E+08         0.29588E+05         0.00000E+00
    0.29588E+05        -0.71795E+08         0.00000E+00
    0.00000E+00         0.00000E+00        -0.30765E+08
 
   -0.30833E+08         0.29201E+05         0.00000E+00
    0.29201E+05        -0.71933E+08         0.00000E+00
    0.00000E+00         0.00000E+00        -0.30830E+08
 
   -0.30915E+08         0.28718E+05         0.00000E+00
    0.28718E+05        -0.72073E+08         0.00000E+00
    0.00000E+00         0.00000E+00        -0.30896E+08
 
   -0.30999E+08         0.28124E+05         0.00000E+00
    0.28124E+05        -0.72215E+08         0.00000E+00
    0.00000E+00         0.00000E+00        -0.30964E+08
 
   -0.31087E+08         0.27404E+05         0.00000E+00
    0.27404E+05        -0.72358E+08         0.00000E+00
    0.00000E+00         0.00000E+00        -0.31033E+08
 
   -0.31177E+08         0.26537E+05         0.00000E+00
    0.26537E+05        -0.72503E+08         0.00000E+00
    0.00000E+00         0.00000E+00        -0.31104E+08
 
   -0.31271E+08         0.25501E+05         0.00000E+00
    0.25501E+05        -0.72649E+08         0.00000E+00
    0.00000E+00         0.00000E+00        -0.31176E+08
 
   -0.31369E+08         0.24270E+05         0.00000E+00
    0.24270E+05        -0.72797E+08         0.00000E+00
    0.00000E+00         0.00000E+00        -0.31250E+08
 
   -0.31471E+08         0.22815E+05         0.00000E+00
    0.22815E+05        -0.72947E+08         0.00000E+00
    0.00000E+00         0.00000E+00        -0.31325E+08
 
   -0.31577E+08         0.21103E+05         0.00000E+00
    0.21103E+05        -0.73097E+08         0.00000E+00
    0.00000E+00         0.00000E+00        -0.31402E+08
 
   -0.31688E+08         0.19099E+05         0.00000E+00
    0.19099E+05        -0.73250E+08         0.00000E+00
    0.00000E+00         0.00000E+00        -0.31481E+08
 
   -0.31805E+08         0.16769E+05         0.00000E+00
    0.16769E+05        -0.73403E+08         0.00000E+00
    0.00000E+00         0.00000E+00        -0.31562E+08
 
   -0.31927E+08         0.14080E+05         0.00000E+00
    0.14080E+05        -0.73557E+08         0.00000E+00
    0.00000E+00         0.00000E+00        -0.31645E+08
 
   -0.32056E+08         0.11003E+05         0.00000E+00
    0.11003E+05        -0.73713E+08         0.00000E+00
    0.00000E+00         0.00000E+00        -0.31731E+08
 
   -0.32193E+08         0.75218E+04         0.00000E+00
    0.75218E+04        -0.73869E+08         0.00000E+00
    0.00000E+00         0.00000E+00        -0.31819E+08
 
   -0.32337E+08         0.36344E+04         0.00000E+00
    0.36344E+04        -0.74027E+08         0.00000E+00
    0.00000E+00         0.00000E+00        -0.31909E+08
 
   -0.32489E+08        -0.63948E+03         0.00000E+00
   -0.63948E+03        -0.74185E+08         0.00000E+00
    0.00000E+00         0.00000E+00        -0.32002E+08
 
   -0.32651E+08        -0.52469E+04         0.00000E+00
   -0.52469E+04        -0.74344E+08         0.00000E+00
    0.00000E+00         0.00000E+00        -0.32099E+08
 
   -0.32822E+08        -0.10108E+05         0.00000E+00
   -0.10108E+05        -0.74504E+08         0.00000E+00
    0.00000E+00         0.00000E+00        -0.32198E+08
 
   -0.33002E+08        -0.15101E+05         0.00000E+00
   -0.15101E+05        -0.74664E+08         0.00000E+00
    0.00000E+00         0.00000E+00        -0.32300E+08
 
   -0.33191E+08        -0.20036E+05         0.00000E+00
   -0.20036E+05        -0.74825E+08         0.00000E+00
    0.00000E+00         0.00000E+00        -0.32405E+08
 
   -0.33388E+08        -0.24858E+05         0.00000E+00
   -0.24858E+05        -0.74987E+08         0.00000E+00
    0.00000E+00         0.00000E+00        -0.32512E+08
 
   -0.33592E+08        -0.28542E+05         0.00000E+00
   -0.28542E+05        -0.75147E+08         0.00000E+00
    0.00000E+00         0.00000E+00        -0.32622E+08
 
   -0.33798E+08        -0.32850E+05         0.00000E+00
   -0.32850E+05        -0.75310E+08         0.00000E+00
    0.00000E+00         0.00000E+00        -0.32732E+08
 
   -0.33986E+08        -0.22479E+05         0.00000E+00
   -0.22479E+05        -0.75470E+08         0.00000E+00
    0.00000E+00         0.00000E+00        -0.32837E+08
 
   -0.27842E+08        -0.52546E+04         0.00000E+00
   -0.52546E+04        -0.66119E+08         0.00000E+00
    0.00000E+00         0.00000E+00        -0.28188E+08
 
   -0.27893E+08        -0.53692E+04         0.00000E+00
   -0.53692E+04        -0.66162E+08         0.00000E+00
    0.00000E+00         0.00000E+00        -0.28216E+08
 
   -0.27946E+08        -0.42092E+04         0.00000E+00
   -0.42092E+04        -0.66202E+08         0.00000E+00
    0.00000E+00         0.00000E+00        -0.28245E+08
 
   -0.27998E+08        -0.34215E+04         0.00000E+00
   -0.34215E+04        -0.66243E+08         0.00000E+00
    0.00000E+00         0.00000E+00        -0.28272E+08
 
   -0.28046E+08        -0.24014E+04         0.00000E+00
   -0.24014E+04        -0.66284E+08         0.00000E+00
    0.00000E+00         0.00000E+00        -0.28299E+08
 
   -0.28092E+08        -0.14548E+04         0.00000E+00
   -0.14548E+04        -0.66325E+08         0.00000E+00
    0.00000E+00         0.00000E+00        -0.28325E+08
 
   -0.28136E+08        -0.48718E+03         0.00000E+00
   -0.48718E+03        -0.66366E+08         0.00000E+00
    0.00000E+00         0.00000E+00        -0.28350E+08
 
   -0.28177E+08         0.43571E+03         0.00000E+00
    0.43571E+03        -0.66407E+08         0.00000E+00
    0.00000E+00         0.00000E+00        -0.28375E+08
 
   -0.28215E+08         0.13182E+04         0.00000E+00
    0.13182E+04        -0.66449E+08         0.00000E+00
    0.00000E+00         0.00000E+00        -0.28399E+08
 
   -0.28250E+08         0.21420E+04         0.00000E+00
    0.21420E+04        -0.66491E+08         0.00000E+00
    0.00000E+00         0.00000E+00        -0.28422E+08
 
   -0.28284E+08         0.29047E+04         0.00000E+00
    0.29047E+04        -0.66533E+08         0.00000E+00
    0.00000E+00         0.00000E+00        -0.28445E+08
 
   -0.28316E+08         0.36034E+04         0.00000E+00
    0.36034E+04        -0.66576E+08         0.00000E+00
    0.00000E+00         0.00000E+00        -0.28467E+08
 
   -0.28346E+08         0.42402E+04         0.00000E+00
    0.42402E+04        -0.66619E+08         0.00000E+00
    0.00000E+00         0.00000E+00        -0.28489E+08
 
   -0.28374E+08         0.48187E+04         0.00000E+00
    0.48187E+04        -0.66662E+08         0.00000E+00
    0.00000E+00         0.00000E+00        -0.28511E+08
 
   -0.28401E+08         0.53443E+04         0.00000E+00
    0.53443E+04        -0.66707E+08         0.00000E+00
    0.00000E+00         0.00000E+00        -0.28532E+08
 
   -0.28427E+08         0.58230E+04         0.00000E+00
    0.58230E+04        -0.66751E+08         0.00000E+00
    0.00000E+00         0.00000E+00        -0.28554E+08
 
   -0.28452E+08         0.62607E+04         0.00000E+00
    0.62607E+04        -0.66797E+08         0.00000E+00
    0.00000E+00         0.00000E+00        -0.28575E+08
 
   -0.28477E+08         0.66632E+04         0.00000E+00
    0.66632E+04        -0.66842E+08         0.00000E+00
    0.00000E+00         0.00000E+00        -0.28596E+08
 
   -0.28501E+08         0.70361E+04         0.00000E+00
    0.70361E+04        -0.66889E+08         0.00000E+00
    0.00000E+00         0.00000E+00        -0.28617E+08
 
   -0.28524E+08         0.73840E+04         0.00000E+00
    0.73840E+04        -0.66936E+08         0.00000E+00
    0.00000E+00         0.00000E+00        -0.28638E+08
 
   -0.28547E+08         0.77113E+04         0.00000E+00
    0.77113E+04        -0.66984E+08         0.00000E+00
    0.00000E+00         0.00000E+00        -0.28659E+08
 
   -0.28570E+08         0.80217E+04         0.00000E+00
    0.80217E+04        -0.67033E+08         0.00000E+00
    0.00000E+00         0.00000E+00        -0.28681E+08
 
   -0.28592E+08         0.83181E+04         0.00000E+00
    0.83181E+04        -0.67083E+08         0.00000E+00
    0.00000E+00         0.00000E+00        -0.28703E+08
 
   -0.28615E+08         0.86032E+04         0.00000E+00
    0.86032E+04        -0.67134E+08         0.00000E+00
    0.00000E+00         0.00000E+00        -0.28724E+08
 
   -0.28637E+08         0.88792E+04         0.00000E+00
    0.88792E+04        -0.67185E+08         0.00000E+00
    0.00000E+00         0.00000E+00        -0.28747E+08
 
   -0.28659E+08         0.91479E+04         0.00000E+00
    0.91479E+04        -0.67237E+08         0.00000E+00
    0.00000E+00         0.00000E+00        -0.28769E+08
 
   -0.28682E+08         0.94107E+04         0.00000E+00
    0.94107E+04        -0.67291E+08         0.00000E+00
    0.00000E+00         0.00000E+00        -0.28792E+08
 
   -0.28705E+08         0.96689E+04         0.00000E+00
    0.96689E+04        -0.67345E+08         0.00000E+00
    0.00000E+00         0.00000E+00        -0.28815E+08
 
   -0.28728E+08         0.99234E+04         0.00000E+00
    0.99234E+04        -0.67401E+08         0.00000E+00
    0.00000E+00         0.00000E+00        -0.28839E+08
 
   -0.28751E+08         0.10175E+05         0.00000E+00
    0.10175E+05        -0.67457E+08         0.00000E+00
    0.00000E+00         0.00000E+00        -0.28862E+08
 
   -0.28774E+08         0.10425E+05         0.00000E+00
    0.10425E+05        -0.67515E+08         0.00000E+00
    0.00000E+00         0.00000E+00        -0.28887E+08
 
   -0.28798E+08         0.10673E+05         0.00000E+00
    0.10673E+05        -0.67574E+08         0.00000E+00
    0.00000E+00         0.00000E+00        -0.28912E+08
 
   -0.28822E+08         0.10919E+05         0.00000E+00
    0.10919E+05        -0.67634E+08         0.00000E+00
    0.00000E+00         0.00000E+00        -0.28937E+08
 
   -0.28847E+08         0.11165E+05         0.00000E+00
    0.11165E+05        -0.67696E+08         0.00000E+00
    0.00000E+00         0.00000E+00        -0.28963E+08
 
   -0.28872E+08         0.11411E+05         0.00000E+00
    0.11411E+05        -0.67758E+08         0.00000E+00
    0.00000E+00         0.00000E+00        -0.28989E+08
 
   -0.28898E+08         0.11656E+05         0.00000E+00
    0.11656E+05        -0.67822E+08         0.00000E+00
    0.00000E+00         0.00000E+00        -0.29016E+08
 
   -0.28924E+08         0.11900E+05         0.00000E+00
    0.11900E+05        -0.67888E+08         0.00000E+00
    0.00000E+00         0.00000E+00        -0.29044E+08
 
   -0.28951E+08         0.12145E+05         0.00000E+00
    0.12145E+05        -0.67955E+08         0.00000E+00
    0.00000E+00         0.00000E+00        -0.29072E+08
 
   -0.28978E+08         0.12390E+05         0.00000E+00
    0.12390E+05        -0.68023E+08         0.00000E+00
    0.00000E+00         0.00000E+00        -0.29100E+08
 
   -0.29006E+08         0.12635E+05         0.00000E+00
    0.12635E+05        -0.68093E+08         0.00000E+00
    0.00000E+00         0.00000E+00        -0.29130E+08
 
   -0.29035E+08         0.12879E+05         0.00000E+00
    0.12879E+05        -0.68164E+08         0.00000E+00
    0.00000E+00         0.00000E+00        -0.29160E+08
 
   -0.29065E+08         0.13124E+05         0.00000E+00
    0.13124E+05        -0.68237E+08         0.00000E+00
    0.00000E+00         0.00000E+00        -0.29190E+08
 
   -0.29095E+08         0.13368E+05         0.00000E+00
    0.13368E+05        -0.68311E+08         0.00000E+00
    0.00000E+00         0.00000E+00        -0.29222E+08
 
   -0.29126E+08         0.13612E+05         0.00000E+00
    0.13612E+05        -0.68387E+08         0.00000E+00
    0.00000E+00         0.00000E+00        -0.29254E+08
 
   -0.29158E+08         0.13855E+05         0.00000E+00
    0.13855E+05        -0.68464E+08         0.00000E+00
    0.00000E+00         0.00000E+00        -0.29287E+08
 
   -0.29190E+08         0.14098E+05         0.00000E+00
    0.14098E+05        -0.68544E+08         0.00000E+00
    0.00000E+00         0.00000E+00        -0.29320E+08
 
   -0.29224E+08         0.14339E+05         0.00000E+00
    0.14339E+05        -0.68625E+08         0.00000E+00
    0.00000E+00         0.00000E+00        -0.29355E+08
 
   -0.29259E+08         0.14579E+05         0.00000E+00
    0.14579E+05        -0.68707E+08         0.00000E+00
    0.00000E+00         0.00000E+00        -0.29390E+08
 
   -0.29294E+08         0.14817E+05         0.00000E+00
    0.14817E+05        -0.68792E+08         0.00000E+00
    0.00000E+00         0.00000E+00        -0.29426E+08
 
   -0.29330E+08         0.15053E+05         0.00000E+00
    0.15053E+05        -0.68878E+08         0.00000E+00
    0.00000E+00         0.00000E+00        -0.29463E+08
 
   -0.29368E+08         0.15287E+05         0.00000E+00
    0.15287E+05        -0.68966E+08         0.00000E+00
    0.00000E+00         0.00000E+00        -0.29500E+08
 
   -0.29407E+08         0.15517E+05         0.00000E+00
    0.15517E+05        -0.69056E+08         0.00000E+00
    0.00000E+00         0.00000E+00        -0.29539E+08
 
   -0.29446E+08         0.15744E+05         0.00000E+00
    0.15744E+05        -0.69148E+08         0.00000E+00
    0.00000E+00         0.00000E+00        -0.29578E+08
 
   -0.29487E+08         0.15967E+05         0.00000E+00
    0.15967E+05        -0.69241E+08         0.00000E+00
    0.00000E+00         0.00000E+00        -0.29618E+08
 
   -0.29529E+08         0.16184E+05         0.00000E+00
    0.16184E+05        -0.69337E+08         0.00000E+00
    0.00000E+00         0.00000E+00        -0.29660E+08
 
   -0.29572E+08         0.16397E+05         0.00000E+00
    0.16397E+05        -0.69434E+08         0.00000E+00
    0.00000E+00         0.00000E+00        -0.29702E+08
 
   -0.29616E+08         0.16603E+05         0.00000E+00
    0.16603E+05        -0.69533E+08         0.00000E+00
    0.00000E+00         0.00000E+00        -0.29745E+08
 
   -0.29662E+08         0.16802E+05         0.00000E+00
    0.16802E+05        -0.69635E+08         0.00000E+00
    0.00000E+00         0.00000E+00        -0.29789E+08
 
   -0.29709E+08         0.16993E+05         0.00000E+00
    0.16993E+05        -0.69738E+08         0.00000E+00
    0.00000E+00         0.00000E+00        -0.29834E+08
 
   -0.29757E+08         0.17175E+05         0.00000E+00
    0.17175E+05        -0.69843E+08         0.00000E+00
    0.00000E+00         0.00000E+00        -0.29880E+08
 
   -0.29807E+08         0.17347E+05         0.00000E+00
    0.17347E+05        -0.69950E+08         0.00000E+00
    0.00000E+00         0.00000E+00        -0.29927E+08
 
   -0.29858E+08         0.17509E+05         0.00000E+00
    0.17509E+05        -0.70060E+08         0.00000E+00
    0.00000E+00         0.00000E+00        -0.29975E+08
 
   -0.29910E+08         0.17658E+05         0.00000E+00
    0.17658E+05        -0.70171E+08         0.00000E+00
    0.00000E+00         0.00000E+00        -0.30024E+08
 
   -0.29965E+08         0.17794E+05         0.00000E+00
    0.17794E+05        -0.70284E+08         0.00000E+00
    0.00000E+00         0.00000E+00        -0.30075E+08
 
   -0.30020E+08         0.17916E+05         0.00000E+00
    0.17916E+05        -0.70399E+08         0.00000E+00
    0.00000E+00         0.00000E+00        -0.30126E+08
 
   -0.30077E+08         0.18021E+05         0.00000E+00
    0.18021E+05        -0.70516E+08         0.00000E+00
    0.00000E+00         0.00000E+00        -0.30178E+08
 
   -0.30136E+08         0.18109E+05         0.00000E+00
    0.18109E+05        -0.70636E+08         0.00000E+00
    0.00000E+00         0.00000E+00        -0.30232E+08
 
   -0.30197E+08         0.18177E+05         0.00000E+00
    0.18177E+05        -0.70757E+08         0.00000E+00
    0.00000E+00         0.00000E+00        -0.30286E+08
 
   -0.30259E+08         0.18225E+05         0.00000E+00
    0.18225E+05        -0.70880E+08         0.00000E+00
    0.00000E+00         0.00000E+00        -0.30342E+08
 
   -0.30324E+08         0.18248E+05         0.00000E+00
    0.18248E+05        -0.71005E+08         0.00000E+00
    0.00000E+00         0.00000E+00        -0.30398E+08
 
   -0.30390E+08         0.18246E+05         0.00000E+00
    0.18246E+05        -0.71132E+08         0.00000E+00
    0.00000E+00         0.00000E+00        -0.30456E+08
 
   -0.30458E+08         0.18215E+05         0.00000E+00
    0.18215E+05        -0.71261E+08         0.00000E+00
    0.00000E+00         0.00000E+00        -0.30516E+08
 
   -0.30528E+08         0.18153E+05         0.00000E+00
    0.18153E+05        -0.71392E+08         0.00000E+00
    0.00000E+00         0.00000E+00        -0.30576E+08
 
   -0.30600E+08         0.18055E+05         0.00000E+00
    0.18055E+05        -0.71524E+08         0.00000E+00
    0.00000E+00         0.00000E+00        -0.30637E+08
 
   -0.30675E+08         0.17917E+05         0.00000E+00
    0.17917E+05        -0.71659E+08         0.00000E+00
    0.00000E+00         0.00000E+00        -0.30700E+08
 
   -0.30751E+08         0.17734E+05         0.00000E+00
    0.17734E+05        -0.71795E+08         0.00000E+00
    0.00000E+00         0.00000E+00        -0.30764E+08
 
   -0.30831E+08         0.17501E+05         0.00000E+00
    0.17501E+05        -0.71933E+08         0.00000E+00
    0.00000E+00         0.00000E+00        -0.30829E+08
 
   -0.30913E+08         0.17209E+05         0.00000E+00
    0.17209E+05        -0.72073E+08         0.00000E+00
    0.00000E+00         0.00000E+00        -0.30896E+08
 
   -0.30997E+08         0.16851E+05         0.00000E+00
    0.16851E+05        -0.72215E+08         0.00000E+00
    0.00000E+00         0.00000E+00        -0.30964E+08
 
   -0.31085E+08         0.16416E+05         0.00000E+00
    0.16416E+05        -0.72358E+08         0.00000E+00
    0.00000E+00         0.00000E+00        -0.31033E+08
 
   -0.31176E+08         0.15892E+05         0.00000E+00
    0.15892E+05        -0.72503E+08         0.00000E+00
    0.00000E+00         0.00000E+00        -0.31104E+08
 
   -0.31270E+08         0.15266E+05         0.00000E+00
    0.15266E+05        -0.72649E+08         0.00000E+00
    0.00000E+00         0.00000E+00        -0.31176E+08
 
   -0.31368E+08         0.14520E+05         0.00000E+00
    0.14520E+05        -0.72797E+08         0.00000E+00
    0.00000E+00         0.00000E+00        -0.31250E+08
 
   -0.31470E+08         0.13637E+05         0.00000E+00
    0.13637E+05        -0.72946E+08         0.00000E+00
    0.00000E+00         0.00000E+00        -0.31325E+08
 
   -0.31577E+08         0.12596E+05         0.00000E+00
    0.12596E+05        -0.73097E+08         0.00000E+00
    0.00000E+00         0.00000E+00        -0.31402E+08
 
   -0.31688E+08         0.11375E+05         0.00000E+00
    0.11375E+05        -0.73249E+08         0.00000E+00
    0.00000E+00         0.00000E+00        -0.31481E+08
 
   -0.31805E+08         0.99519E+04         0.00000E+00
    0.99519E+04        -0.73402E+08         0.00000E+00
    0.00000E+00         0.00000E+00        -0.31562E+08
 
   -0.31928E+08         0.83053E+04         0.00000E+00
    0.83053E+04        -0.73557E+08         0.00000E+00
    0.00000E+00         0.00000E+00        -0.31646E+08
 
   -0.32058E+08         0.64162E+04         0.00000E+00
    0.64162E+04        -0.73712E+08         0.00000E+00
    0.00000E+00         0.00000E+00        -0.31731E+08
 
   -0.32196E+08         0.42727E+04         0.00000E+00
    0.42727E+04        -0.73869E+08         0.00000E+00
    0.00000E+00         0.00000E+00        -0.31819E+08
 
   -0.32341E+08         0.18693E+04         0.00000E+00
    0.18693E+04        -0.74026E+08         0.00000E+00
    0.00000E+00         0.00000E+00        -0.31910E+08
 
   -0.32496E+08        -0.77852E+03         0.00000E+00
   -0.77852E+03        -0.74185E+08         0.00000E+00
    0.00000E+00         0.00000E+00        -0.32004E+08
 
   -0.32659E+08        -0.36571E+04         0.00000E+00
   -0.36571E+04        -0.74344E+08         0.00000E+00
    0.00000E+00         0.00000E+00        -0.32101E+08
 
   -0.32833E+08        -0.66890E+04         0.00000E+00
   -0.66890E+04        -0.74503E+08         0.00000E+00
    0.00000E+00         0.00000E+00        -0.32201E+08
 
   -0.33017E+08        -0.98868E+04         0.00000E+00
   -0.98868E+04        -0.74664E+08         0.00000E+00
    0.00000E+00         0.00000E+00        -0.32304E+08
 
   -0.33210E+08        -0.12983E+05         0.00000E+00
   -0.12983E+05        -0.74824E+08         0.00000E+00
    0.00000E+00         0.00000E+00        -0.32410E+08
 
   -0.33413E+08        -0.16349E+05         0.00000E+00
   -0.16349E+05        -0.74986E+08         0.00000E+00
    0.00000E+00         0.00000E+00        -0.32520E+08
 
   -0.33624E+08        -0.18760E+05         0.00000E+00
   -0.18760E+05        -0.75147E+08         0.00000E+00
    0.00000E+00         0.00000E+00        -0.32631E+08
 
   -0.33842E+08        -0.22621E+05         0.00000E+00
   -0.22621E+05        -0.75308E+08         0.00000E+00
    0.00000E+00         0.00000E+00        -0.32745E+08
 
   -0.34048E+08        -0.21359E+05         0.00000E+00
   -0.21359E+05        -0.75477E+08         0.00000E+00
    0.00000E+00         0.00000E+00        -0.32857E+08
 
   -0.27824E+08        -0.44686E+04         0.00000E+00
   -0.44686E+04        -0.66118E+08         0.00000E+00
    0.00000E+00         0.00000E+00        -0.28182E+08
 
   -0.27882E+08        -0.17778E+04         0.00000E+00
   -0.17778E+04        -0.66163E+08         0.00000E+00
    0.00000E+00         0.00000E+00        -0.28214E+08
 
   -0.27938E+08        -0.18686E+04         0.00000E+00
   -0.18686E+04        -0.66202E+08         0.00000E+00
    0.00000E+00         0.00000E+00        -0.28242E+08
 
   -0.27991E+08        -0.13010E+04         0.00000E+00
   -0.13010E+04        -0.66243E+08         0.00000E+00
    0.00000E+00         0.00000E+00        -0.28270E+08
 
   -0.28041E+08        -0.98261E+03         0.00000E+00
   -0.98261E+03        -0.66284E+08         0.00000E+00
    0.00000E+00         0.00000E+00        -0.28297E+08
 
   -0.28088E+08        -0.60213E+03         0.00000E+00
   -0.60213E+03        -0.66325E+08         0.00000E+00
    0.00000E+00         0.00000E+00        -0.28324E+08
 
   -0.28132E+08        -0.26054E+03         0.00000E+00
   -0.26054E+03        -0.66366E+08         0.00000E+00
    0.00000E+00         0.00000E+00        -0.28349E+08
 
   -0.28174E+08         0.73997E+02         0.00000E+00
    0.73997E+02        -0.66407E+08         0.00000E+00
    0.00000E+00         0.00000E+00        -0.28374E+08
 
   -0.28212E+08         0.38535E+03         0.00000E+00
    0.38535E+03        -0.66449E+08         0.00000E+00
    0.00000E+00         0.00000E+00        -0.28398E+08
 
   -0.28249E+08         0.67550E+03         0.00000E+00
    0.67550E+03        -0.66491E+08         0.00000E+00
    0.00000E+00         0.00000E+00        -0.28422E+08
 
   -0.28282E+08         0.94141E+03         0.00000E+00
    0.94141E+03        -0.66533E+08         0.00000E+00
    0.00000E+00         0.00000E+00        -0.28445E+08
 
   -0.28314E+08         0.11837E+04         0.00000E+00
    0.11837E+04        -0.66576E+08         0.00000E+00
    0.00000E+00         0.00000E+00        -0.28467E+08
 
   -0.28344E+08         0.14030E+04         0.00000E+00
    0.14030E+04        -0.66619E+08         0.00000E+00
    0.00000E+00         0.00000E+00        -0.28489E+08
 
   -0.28373E+08         0.16013E+04         0.00000E+00
    0.16013E+04        -0.66663E+08         0.00000E+00
    0.00000E+00         0.00000E+00        -0.28511E+08
 
   -0.28400E+08         0.17804E+04         0.00000E+00
    0.17804E+04        -0.66707E+08         0.00000E+00
    0.00000E+00         0.00000E+00        -0.28532E+08
 
   -0.28426E+08         0.19429E+04         0.00000E+00
    0.19429E+04        -0.66751E+08         0.00000E+00
    0.00000E+00         0.00000E+00        -0.28553E+08
 
   -0.28451E+08         0.20908E+04         0.00000E+00
    0.20908E+04        -0.66797E+08         0.00000E+00
    0.00000E+00         0.00000E+00        -0.28574E+08
 
   -0.28475E+08         0.22264E+04         0.00000E+00
    0.22264E+04        -0.66843E+08         0.00000E+00
    0.00000E+00         0.00000E+00        -0.28595E+08
 
   -0.28499E+08         0.23516E+04         0.00000E+00
    0.23516E+04        -0.66889E+08         0.00000E+00
    0.00000E+00         0.00000E+00        -0.28617E+08
 
   -0.28523E+08         0.24682E+04         0.00000E+00
    0.24682E+04        -0.66936E+08         0.00000E+00
    0.00000E+00         0.00000E+00        -0.28638E+08
 
   -0.28545E+08         0.25776E+04         0.00000E+00
    0.25776E+04        -0.66985E+08         0.00000E+00
    0.00000E+00         0.00000E+00        -0.28659E+08
 
   -0.28568E+08         0.26813E+04         0.00000E+00
    0.26813E+04        -0.67033E+08         0.00000E+00
    0.00000E+00         0.00000E+00        -0.28680E+08
 
   -0.28591E+08         0.27802E+04         0.00000E+00
    0.27802E+04        -0.67083E+08         0.00000E+00
    0.00000E+00         0.00000E+00        -0.28702E+08
 
   -0.28613E+08         0.28753E+04         0.00000E+00
    0.28753E+04        -0.67134E+08         0.00000E+00
    0.00000E+00         0.00000E+00        -0.28724E+08
 
   -0.28635E+08         0.29673E+04         0.00000E+00
    0.29673E+04        -0.67185E+08         0.00000E+00
    0.00000E+00         0.00000E+00        -0.28746E+08
 
   -0.28658E+08         0.30568E+04         0.00000E+00
    0.30568E+04        -0.67238E+08         0.00000E+00
    0.00000E+00         0.00000E+00        -0.28769E+08
 
   -0.28680E+08         0.31444E+04         0.00000E+00
    0.31444E+04        -0.67291E+08         0.00000E+00
    0.00000E+00         0.00000E+00        -0.28791E+08
 
   -0.28703E+08         0.32304E+04         0.00000E+00
    0.32304E+04        -0.67345E+08         0.00000E+00
    0.00000E+00         0.00000E+00        -0.28814E+08
 
   -0.28726E+08         0.33152E+04         0.00000E+00
    0.33152E+04        -0.67401E+08         0.00000E+00
    0.00000E+00         0.00000E+00        -0.28838E+08
 
   -0.28749E+08         0.33991E+04         0.00000E+00
    0.33991E+04        -0.67457E+08         0.00000E+00
    0.00000E+00         0.00000E+00        -0.28862E+08
 
   -0.28772E+08         0.34822E+04         0.00000E+00
    0.34822E+04        -0.67515E+08         0.00000E+00
    0.00000E+00         0.00000E+00        -0.28886E+08
 
   -0.28796E+08         0.35648E+04         0.00000E+00
    0.35648E+04        -0.67574E+08         0.00000E+00
    0.00000E+00         0.00000E+00        -0.28911E+08
 
   -0.28820E+08         0.36470E+04         0.00000E+00
    0.36470E+04        -0.67634E+08         0.00000E+00
    0.00000E+00         0.00000E+00        -0.28936E+08
 
   -0.28845E+08         0.37289E+04         0.00000E+00
    0.37289E+04        -0.67696E+08         0.00000E+00
    0.00000E+00         0.00000E+00        -0.28962E+08
 
   -0.28870E+08         0.38106E+04         0.00000E+00
    0.38106E+04        -0.67758E+08         0.00000E+00
    0.00000E+00         0.00000E+00        -0.28989E+08
 
   -0.28896E+08         0.38922E+04         0.00000E+00
    0.38922E+04        -0.67822E+08         0.00000E+00
    0.00000E+00         0.00000E+00        -0.29015E+08
 
   -0.28922E+08         0.39738E+04         0.00000E+00
    0.39738E+04        -0.67888E+08         0.00000E+00
    0.00000E+00         0.00000E+00        -0.29043E+08
 
   -0.28948E+08         0.40552E+04         0.00000E+00
    0.40552E+04        -0.67955E+08         0.00000E+00
    0.00000E+00         0.00000E+00        -0.29071E+08
 
   -0.28976E+08         0.41367E+04         0.00000E+00
    0.41367E+04        -0.68023E+08         0.00000E+00
    0.00000E+00         0.00000E+00        -0.29100E+08
 
   -0.29004E+08         0.42181E+04         0.00000E+00
    0.42181E+04        -0.68093E+08         0.00000E+00
    0.00000E+00         0.00000E+00        -0.29129E+08
 
   -0.29033E+08         0.42995E+04         0.00000E+00
    0.42995E+04        -0.68164E+08         0.00000E+00
    0.00000E+00         0.00000E+00        -0.29159E+08
 
   -0.29062E+08         0.43809E+04         0.00000E+00
    0.43809E+04        -0.68237E+08         0.00000E+00
    0.00000E+00         0.00000E+00        -0.29190E+08
 
   -0.29092E+08         0.44621E+04         0.00000E+00
    0.44621E+04        -0.68311E+08         0.00000E+00
    0.00000E+00         0.00000E+00        -0.29221E+08
 
   -0.29123E+08         0.45432E+04         0.00000E+00
    0.45432E+04        -0.68387E+08         0.00000E+00
    0.00000E+00         0.00000E+00        -0.29253E+08
 
   -0.29155E+08         0.46241E+04         0.00000E+00
    0.46241E+04        -0.68465E+08         0.00000E+00
    0.00000E+00         0.00000E+00        -0.29286E+08
 
   -0.29188E+08         0.47047E+04         0.00000E+00
    0.47047E+04        -0.68544E+08         0.00000E+00
    0.00000E+00         0.00000E+00        -0.29319E+08
 
   -0.29221E+08         0.47849E+04         0.00000E+00
    0.47849E+04        -0.68625E+08         0.00000E+00
    0.00000E+00         0.00000E+00        -0.29354E+08
 
   -0.29256E+08         0.48647E+04         0.00000E+00
    0.48647E+04        -0.68707E+08         0.00000E+00
    0.00000E+00         0.00000E+00        -0.29389E+08
 
   -0.29291E+08         0.49438E+04         0.00000E+00
    0.49438E+04        -0.68792E+08         0.00000E+00
    0.00000E+00         0.00000E+00        -0.29425E+08
 
   -0.29328E+08         0.50222E+04         0.00000E+00
    0.50222E+04        -0.68878E+08         0.00000E+00
    0.00000E+00         0.00000E+00        -0.29462E+08
 
   -0.29365E+08         0.50997E+04         0.00000E+00
    0.50997E+04        -0.68966E+08         0.00000E+00
    0.00000E+00         0.00000E+00        -0.29499E+08
 
   -0.29404E+08         0.51761E+04         0.00000E+00
    0.51761E+04        -0.69056E+08         0.00000E+00
    0.00000E+00         0.00000E+00        -0.29538E+08
 
   -0.29443E+08         0.52513E+04         0.00000E+00
    0.52513E+04        -0.69148E+08         0.00000E+00
    0.00000E+00         0.00000E+00        -0.29577E+08
 
   -0.29484E+08         0.53251E+04         0.00000E+00
    0.53251E+04        -0.69241E+08         0.00000E+00
    0.00000E+00         0.00000E+00        -0.29618E+08
 
   -0.29526E+08         0.53973E+04         0.00000E+00
    0.53973E+04        -0.69337E+08         0.00000E+00
    0.00000E+00         0.00000E+00        -0.29659E+08
 
   -0.29569E+08         0.54676E+04         0.00000E+00
    0.54676E+04        -0.69434E+08         0.00000E+00
    0.00000E+00         0.00000E+00        -0.29701E+08
 
   -0.29613E+08         0.55358E+04         0.00000E+00
    0.55358E+04        -0.69534E+08         0.00000E+00
    0.00000E+00         0.00000E+00        -0.29744E+08
 
   -0.29659E+08         0.56016E+04         0.00000E+00
    0.56016E+04        -0.69635E+08         0.00000E+00
    0.00000E+00         0.00000E+00        -0.29788E+08
 
   -0.29706E+08         0.56647E+04         0.00000E+00
    0.56647E+04        -0.69738E+08         0.00000E+00
    0.00000E+00         0.00000E+00        -0.29833E+08
 
   -0.29754E+08         0.57249E+04         0.00000E+00
    0.57249E+04        -0.69843E+08         0.00000E+00
    0.00000E+00         0.00000E+00        -0.29879E+08
 
   -0.29804E+08         0.57818E+04         0.00000E+00
    0.57818E+04        -0.69950E+08         0.00000E+00
    0.00000E+00         0.00000E+00        -0.29926E+08
 
   -0.29855E+08         0.58350E+04         0.00000E+00
    0.58350E+04        -0.70060E+08         0.00000E+00
    0.00000E+00         0.00000E+00        -0.29974E+08
 
   -0.29907E+08         0.58841E+04         0.00000E+00
    0.58841E+04        -0.70171E+08         0.00000E+00
    0.00000E+00         0.00000E+00        -0.30023E+08
 
   -0.29962E+08         0.59289E+04         0.00000E+00
    0.59289E+04        -0.70284E+08         0.00000E+00
    0.00000E+00         0.00000E+00        -0.30074E+08
 
   -0.30017E+08         0.59687E+04         0.00000E+00
    0.59687E+04        -0.70399E+08         0.00000E+00
    0.00000E+00         0.00000E+00        -0.30125E+08
 
   -0.30074E+08         0.60031E+04         0.00000E+00
    0.60031E+04        -0.70516E+08         0.00000E+00
    0.00000E+00         0.00000E+00        -0.30177E+08
 
   -0.30133E+08         0.60317E+04         0.00000E+00
    0.60317E+04        -0.70636E+08         0.00000E+00
    0.00000E+00         0.00000E+00        -0.30231E+08
 
   -0.30194E+08         0.60537E+04         0.00000E+00
    0.60537E+04        -0.70757E+08         0.00000E+00
    0.00000E+00         0.00000E+00        -0.30285E+08
 
   -0.30256E+08         0.60687E+04         0.00000E+00
    0.60687E+04        -0.70880E+08         0.00000E+00
    0.00000E+00         0.00000E+00        -0.30341E+08
 
   -0.30321E+08         0.60758E+04         0.00000E+00
    0.60758E+04        -0.71005E+08         0.00000E+00
    0.00000E+00         0.00000E+00        -0.30398E+08
 
   -0.30387E+08         0.60744E+04         0.00000E+00
    0.60744E+04        -0.71132E+08         0.00000E+00
    0.00000E+00         0.00000E+00        -0.30456E+08
 
   -0.30455E+08         0.60634E+04         0.00000E+00
    0.60634E+04        -0.71261E+08         0.00000E+00
    0.00000E+00         0.00000E+00        -0.30515E+08
 
   -0.30525E+08         0.60418E+04         0.00000E+00
    0.60418E+04        -0.71392E+08         0.00000E+00
    0.00000E+00         0.00000E+00        -0.30575E+08
 
   -0.30598E+08         0.60085E+04         0.00000E+00
    0.60085E+04        -0.71524E+08         0.00000E+00
    0.00000E+00         0.00000E+00        -0.30637E+08
 
   -0.30672E+08         0.59619E+04         0.00000E+00
    0.59619E+04        -0.71659E+08         0.00000E+00
    0.00000E+00         0.00000E+00        -0.30699E+08
 
   -0.30749E+08         0.59003E+04         0.00000E+00
    0.59003E+04        -0.71795E+08         0.00000E+00
    0.00000E+00         0.00000E+00        -0.30763E+08
 
   -0.30828E+08         0.58217E+04         0.00000E+00
    0.58217E+04        -0.71933E+08         0.00000E+00
    0.00000E+00         0.00000E+00        -0.30829E+08
 
   -0.30910E+08         0.57236E+04         0.00000E+00
    0.57236E+04        -0.72073E+08         0.00000E+00
    0.00000E+00         0.00000E+00        -0.30895E+08
 
   -0.30995E+08         0.56031E+04         0.00000E+00
    0.56031E+04        -0.72215E+08         0.00000E+00
    0.00000E+00         0.00000E+00        -0.30963E+08
 
   -0.31083E+08         0.54566E+04         0.00000E+00
    0.54566E+04        -0.72358E+08         0.00000E+00
    0.00000E+00         0.00000E+00        -0.31032E+08
 
   -0.31174E+08         0.52798E+04         0.00000E+00
    0.52798E+04        -0.72503E+08         0.00000E+00
    0.00000E+00         0.00000E+00        -0.31103E+08
 
   -0.31268E+08         0.50679E+04         0.00000E+00
    0.50679E+04        -0.72649E+08         0.00000E+00
    0.00000E+00         0.00000E+00        -0.31175E+08
 
   -0.31366E+08         0.48149E+04         0.00000E+00
    0.48149E+04        -0.72797E+08         0.00000E+00
    0.00000E+00         0.00000E+00        -0.31249E+08
 
   -0.31469E+08         0.45143E+04         0.00000E+00
    0.45143E+04        -0.72946E+08         0.00000E+00
    0.00000E+00         0.00000E+00        -0.31325E+08
 
   -0.31576E+08         0.41587E+04         0.00000E+00
    0.41587E+04        -0.73097E+08         0.00000E+00
    0.00000E+00         0.00000E+00        -0.31402E+08
 
   -0.31688E+08         0.37398E+04         0.00000E+00
    0.37398E+04        -0.73249E+08         0.00000E+00
    0.00000E+00         0.00000E+00        -0.31481E+08
 
   -0.31805E+08         0.32492E+04         0.00000E+00
    0.32492E+04        -0.73402E+08         0.00000E+00
    0.00000E+00         0.00000E+00        -0.31562E+08
 
   -0.31929E+08         0.26785E+04         0.00000E+00
    0.26785E+04        -0.73557E+08         0.00000E+00
    0.00000E+00         0.00000E+00        -0.31646E+08
 
   -0.32060E+08         0.20203E+04         0.00000E+00
    0.20203E+04        -0.73712E+08         0.00000E+00
    0.00000E+00         0.00000E+00        -0.31732E+08
 
   -0.32198E+08         0.12684E+04         0.00000E+00
    0.12684E+04        -0.73869E+08         0.00000E+00
    0.00000E+00         0.00000E+00        -0.31820E+08
 
   -0.32345E+08         0.42100E+03         0.00000E+00
    0.42100E+03        -0.74026E+08         0.00000E+00
    0.00000E+00         0.00000E+00        -0.31911E+08
 
   -0.32501E+08        -0.52303E+03         0.00000E+00
   -0.52303E+03        -0.74184E+08         0.00000E+00
    0.00000E+00         0.00000E+00        -0.32006E+08
 
   -0.32667E+08        -0.15501E+04         0.00000E+00
   -0.15501E+04        -0.74343E+08         0.00000E+00
    0.00000E+00         0.00000E+00        -0.32103E+08
 
   -0.32844E+08        -0.26665E+04         0.00000E+00
   -0.26665E+04        -0.74503E+08         0.00000E+00
    0.00000E+00         0.00000E+00        -0.32204E+08
 
   -0.33031E+08        -0.38062E+04         0.00000E+00
   -0.38062E+04        -0.74663E+08         0.00000E+00
    0.00000E+00         0.00000E+00        -0.32308E+08
 
   -0.33229E+08        -0.50941E+04         0.00000E+00
   -0.50941E+04        -0.74824E+08         0.00000E+00
    0.00000E+00         0.00000E+00        -0.32416E+08
 
   -0.33438E+08        -0.61259E+04         0.00000E+00
   -0.61259E+04        -0.74984E+08         0.00000E+00
    0.00000E+00         0.00000E+00        -0.32527E+08
 
   -0.33657E+08        -0.81393E+04         0.00000E+00
   -0.81393E+04        -0.75149E+08         0.00000E+00
    0.00000E+00         0.00000E+00        -0.32642E+08
 
   -0.33884E+08        -0.75158E+04         0.00000E+00
   -0.75158E+04        -0.75303E+08         0.00000E+00
    0.00000E+00         0.00000E+00        -0.32756E+08
 
   -0.34120E+08        -0.17958E+05         0.00000E+00
   -0.17958E+05        -0.75484E+08         0.00000E+00
    0.00000E+00         0.00000E+00        -0.32881E+08
 
TENSORS stresstot double 
   -0.59791E+08         0.18310E+05         0.00000E+00
    0.18310E+05        -0.97565E+08         0.00000E+00
    0.00000E+00         0.00000E+00        -0.59798E+08
 
   -0.59765E+08         0.47879E+05         0.00000E+00
    0.47879E+05        -0.97549E+08         0.00000E+00
    0.00000E+00         0.00000E+00        -0.59769E+08
 
   -0.59738E+08         0.68026E+05         0.00000E+00
    0.68026E+05        -0.97538E+08         0.00000E+00
    0.00000E+00         0.00000E+00        -0.59742E+08
 
   -0.59713E+08         0.84378E+05         0.00000E+00
    0.84378E+05        -0.97530E+08         0.00000E+00
    0.00000E+00         0.00000E+00        -0.59716E+08
 
   -0.59688E+08         0.98437E+05         0.00000E+00
    0.98437E+05        -0.97525E+08         0.00000E+00
    0.00000E+00         0.00000E+00        -0.59690E+08
 
   -0.59664E+08         0.11110E+06         0.00000E+00
    0.11110E+06        -0.97523E+08         0.00000E+00
    0.00000E+00         0.00000E+00        -0.59666E+08
 
   -0.59640E+08         0.12290E+06         0.00000E+00
    0.12290E+06        -0.97523E+08         0.00000E+00
    0.00000E+00         0.00000E+00        -0.59643E+08
 
   -0.59617E+08         0.13413E+06         0.00000E+00
    0.13413E+06        -0.97523E+08         0.00000E+00
    0.00000E+00         0.00000E+00        -0.59619E+08
 
   -0.59594E+08         0.14497E+06         0.00000E+00
    0.14497E+06        -0.97525E+08         0.00000E+00
    0.00000E+00         0.00000E+00        -0.59596E+08
 
   -0.59571E+08         0.15552E+06         0.00000E+00
    0.15552E+06        -0.97528E+08         0.00000E+00
    0.00000E+00         0.00000E+00        -0.59574E+08
 
   -0.59549E+08         0.16582E+06         0.00000E+00
    0.16582E+06        -0.97531E+08         0.00000E+00
    0.00000E+00         0.00000E+00        -0.59551E+08
 
   -0.59526E+08         0.17588E+06         0.00000E+00
    0.17588E+06        -0.97534E+08         0.00000E+00
    0.00000E+00         0.00000E+00        -0.59528E+08
 
   -0.59502E+08         0.18572E+06         0.00000E+00
    0.18572E+06        -0.97537E+08         0.00000E+00
    0.00000E+00         0.00000E+00        -0.59504E+08
 
   -0.59479E+08         0.19533E+06         0.00000E+00
    0.19533E+06        -0.97540E+08         0.00000E+00
    0.00000E+00         0.00000E+00        -0.59481E+08
 
   -0.59455E+08         0.20473E+06         0.00000E+00
    0.20473E+06        -0.97543E+08         0.00000E+00
    0.00000E+00         0.00000E+00        -0.59457E+08
 
   -0.59430E+08         0.21391E+06         0.00000E+00
    0.21391E+06        -0.97545E+08         0.00000E+00
    0.00000E+00         0.00000E+00        -0.59432E+08
 
   -0.59406E+08         0.22287E+06         0.00000E+00
    0.22287E+06        -0.97548E+08         0.00000E+00
    0.00000E+00         0.00000E+00        -0.59407E+08
 
   -0.59380E+08         0.23164E+06         0.00000E+00
    0.23164E+06        -0.97550E+08         0.00000E+00
    0.00000E+00         0.00000E+00        -0.59382E+08
 
   -0.59355E+08         0.24022E+06         0.00000E+00
    0.24022E+06        -0.97552E+08         0.00000E+00
    0.00000E+00         0.00000E+00        -0.59356E+08
 
   -0.59328E+08         0.24863E+06         0.00000E+00
    0.24863E+06        -0.97553E+08         0.00000E+00
    0.00000E+00         0.00000E+00        -0.59330E+08
 
   -0.59301E+08         0.25690E+06         0.00000E+00
    0.25690E+06        -0.97555E+08         0.00000E+00
    0.00000E+00         0.00000E+00        -0.59303E+08
 
   -0.59274E+08         0.26503E+06         0.00000E+00
    0.26503E+06        -0.97556E+08         0.00000E+00
    0.00000E+00         0.00000E+00        -0.59276E+08
 
   -0.59246E+08         0.27305E+06         0.00000E+00
    0.27305E+06        -0.97557E+08         0.00000E+00
    0.00000E+00         0.00000E+00        -0.59248E+08
 
   -0.59218E+08         0.28098E+06         0.00000E+00
    0.28098E+06        -0.97558E+08         0.00000E+00
    0.00000E+00         0.00000E+00        -0.59219E+08
 
   -0.59189E+08         0.28884E+06         0.00000E+00
    0.28884E+06        -0.97559E+08         0.00000E+00
    0.00000E+00         0.00000E+00        -0.59190E+08
 
   -0.59159E+08         0.29665E+06         0.00000E+00
    0.29665E+06        -0.97559E+08         0.00000E+00
    0.00000E+00         0.00000E+00        -0.59160E+08
 
   -0.59128E+08         0.30442E+06         0.00000E+00
    0.30442E+06        -0.97560E+08         0.00000E+00
    0.00000E+00         0.00000E+00        -0.59130E+08
 
   -0.59097E+08         0.31218E+06         0.00000E+00
    0.31218E+06        -0.97560E+08         0.00000E+00
    0.00000E+00         0.00000E+00        -0.59099E+08
 
   -0.59066E+08         0.31993E+06         0.00000E+00
    0.31993E+06        -0.97560E+08         0.00000E+00
    0.00000E+00         0.00000E+00        -0.59067E+08
 
   -0.59034E+08         0.32768E+06         0.00000E+00
    0.32768E+06        -0.97560E+08         0.00000E+00
    0.00000E+00         0.00000E+00        -0.59035E+08
 
   -0.59001E+08         0.33546E+06         0.00000E+00
    0.33546E+06        -0.97560E+08         0.00000E+00
    0.00000E+00         0.00000E+00        -0.59002E+08
 
   -0.58967E+08         0.34327E+06         0.00000E+00
    0.34327E+06        -0.97560E+08         0.00000E+00
    0.00000E+00         0.00000E+00        -0.58968E+08
 
   -0.58932E+08         0.35111E+06         0.00000E+00
    0.35111E+06        -0.97560E+08         0.00000E+00
    0.00000E+00         0.00000E+00        -0.58934E+08
 
   -0.58897E+08         0.35901E+06         0.00000E+00
    0.35901E+06        -0.97560E+08         0.00000E+00
    0.00000E+00         0.00000E+00        -0.58899E+08
 
   -0.58861E+08         0.36695E+06         0.00000E+00
    0.36695E+06        -0.97560E+08         0.00000E+00
    0.00000E+00         0.00000E+00        -0.58863E+08
 
   -0.58825E+08         0.37496E+06         0.00000E+00
    0.37496E+06        -0.97560E+08         0.00000E+00
    0.00000E+00         0.00000E+00        -0.58826E+08
 
   -0.58787E+08         0.38302E+06         0.00000E+00
    0.38302E+06        -0.97560E+08         0.00000E+00
    0.00000E+00         0.00000E+00        -0.58789E+08
 
   -0.58749E+08         0.39115E+06         0.00000E+00
    0.39115E+06        -0.97560E+08         0.00000E+00
    0.00000E+00         0.00000E+00        -0.58751E+08
 
   -0.58710E+08         0.39935E+06         0.00000E+00
    0.39935E+06        -0.97559E+08         0.00000E+00
    0.00000E+00         0.00000E+00        -0.58712E+08
 
   -0.58670E+08         0.40761E+06         0.00000E+00
    0.40761E+06        -0.97559E+08         0.00000E+00
    0.00000E+00         0.00000E+00        -0.58672E+08
 
   -0.58629E+08         0.41593E+06         0.00000E+00
    0.41593E+06        -0.97559E+08         0.00000E+00
    0.00000E+00         0.00000E+00        -0.58631E+08
 
   -0.58588E+08         0.42431E+06         0.00000E+00
    0.42431E+06        -0.97559E+08         0.00000E+00
    0.00000E+00         0.00000E+00        -0.58589E+08
 
   -0.58545E+08         0.43275E+06         0.00000E+00
    0.43275E+06        -0.97559E+08         0.00000E+00
    0.00000E+00         0.00000E+00        -0.58547E+08
 
   -0.58501E+08         0.44125E+06         0.00000E+00
    0.44125E+06        -0.97559E+08         0.00000E+00
    0.00000E+00         0.00000E+00        -0.58503E+08
 
   -0.58457E+08         0.44979E+06         0.00000E+00
    0.44979E+06        -0.97559E+08         0.00000E+00
    0.00000E+00         0.00000E+00        -0.58459E+08
 
   -0.58412E+08         0.45838E+06         0.00000E+00
    0.45838E+06        -0.97558E+08         0.00000E+00
    0.00000E+00         0.00000E+00        -0.58414E+08
 
   -0.58365E+08         0.46700E+06         0.00000E+00
    0.46700E+06        -0.97558E+08         0.00000E+00
    0.00000E+00         0.00000E+00        -0.58367E+08
 
   -0.58318E+08         0.47565E+06         0.00000E+00
    0.47565E+06        -0.97559E+08         0.00000E+00
    0.00000E+00         0.00000E+00        -0.58320E+08
 
   -0.58270E+08         0.48432E+06         0.00000E+00
    0.48432E+06        -0.97559E+08         0.00000E+00
    0.00000E+00         0.00000E+00        -0.58272E+08
 
   -0.58221E+08         0.49299E+06         0.00000E+00
    0.49299E+06        -0.97559E+08         0.00000E+00
    0.00000E+00         0.00000E+00        -0.58223E+08
 
   -0.58171E+08         0.50165E+06         0.00000E+00
    0.50165E+06        -0.97559E+08         0.00000E+00
    0.00000E+00         0.00000E+00        -0.58172E+08
 
   -0.58119E+08         0.51030E+06         0.00000E+00
    0.51030E+06        -0.97559E+08         0.00000E+00
    0.00000E+00         0.00000E+00        -0.58121E+08
 
   -0.58067E+08         0.51891E+06         0.00000E+00
    0.51891E+06        -0.97560E+08         0.00000E+00
    0.00000E+00         0.00000E+00        -0.58069E+08
 
   -0.58014E+08         0.52747E+06         0.00000E+00
    0.52747E+06        -0.97560E+08         0.00000E+00
    0.00000E+00         0.00000E+00        -0.58016E+08
 
   -0.57960E+08         0.53597E+06         0.00000E+00
    0.53597E+06        -0.97561E+08         0.00000E+00
    0.00000E+00         0.00000E+00        -0.57961E+08
 
   -0.57904E+08         0.54438E+06         0.00000E+00
    0.54438E+06        -0.97561E+08         0.00000E+00
    0.00000E+00         0.00000E+00        -0.57906E+08
 
   -0.57848E+08         0.55269E+06         0.00000E+00
    0.55269E+06        -0.97562E+08         0.00000E+00
    0.00000E+00         0.00000E+00        -0.57850E+08
 
   -0.57790E+08         0.56087E+06         0.00000E+00
    0.56087E+06        -0.97563E+08         0.00000E+00
    0.00000E+00         0.00000E+00        -0.57792E+08
 
   -0.57732E+08         0.56890E+06         0.00000E+00
    0.56890E+06        -0.97564E+08         0.00000E+00
    0.00000E+00         0.00000E+00        -0.57733E+08
 
   -0.57672E+08         0.57675E+06         0.00000E+00
    0.57675E+06        -0.97565E+08         0.00000E+00
    0.00000E+00         0.00000E+00        -0.57674E+08
 
   -0.57612E+08         0.58440E+06         0.00000E+00
    0.58440E+06        -0.97567E+08         0.00000E+00
    0.00000E+00         0.00000E+00        -0.57613E+08
 
   -0.57550E+08         0.59182E+06         0.00000E+00
    0.59182E+06        -0.97568E+08         0.00000E+00
    0.00000E+00         0.00000E+00        -0.57552E+08
 
   -0.57487E+08         0.59898E+06         0.00000E+00
    0.59898E+06        -0.97570E+08         0.00000E+00
    0.00000E+00         0.00000E+00        -0.57489E+08
 
   -0.57424E+08         0.60584E+06         0.00000E+00
    0.60584E+06        -0.97572E+08         0.00000E+00
    0.00000E+00         0.00000E+00        -0.57425E+08
 
   -0.57359E+08         0.61236E+06         0.00000E+00
    0.61236E+06        -0.97574E+08         0.00000E+00
    0.00000E+00         0.00000E+00        -0.57360E+08
 
   -0.57293E+08         0.61851E+06         0.00000E+00
    0.61851E+06        -0.97576E+08         0.00000E+00
    0.00000E+00         0.00000E+00        -0.57294E+08
 
   -0.57226E+08         0.62424E+06         0.00000E+00
    0.62424E+06        -0.97579E+08         0.00000E+00
    0.00000E+00         0.00000E+00        -0.57227E+08
 
   -0.57158E+08         0.62951E+06         0.00000E+00
    0.62951E+06        -0.97582E+08         0.00000E+00
    0.00000E+00         0.00000E+00        -0.57159E+08
 
   -0.57089E+08         0.63427E+06         0.00000E+00
    0.63427E+06        -0.97585E+08         0.00000E+00
    0.00000E+00         0.00000E+00        -0.57090E+08
 
   -0.57019E+08         0.63847E+06         0.00000E+00
    0.63847E+06        -0.97588E+08         0.00000E+00
    0.00000E+00         0.00000E+00        -0.57020E+08
 
   -0.56949E+08         0.64204E+06         0.00000E+00
    0.64204E+06        -0.97592E+08         0.00000E+00
    0.00000E+00         0.00000E+00        -0.56949E+08
 
   -0.56877E+08         0.64493E+06         0.00000E+00
    0.64493E+06        -0.97596E+08         0.00000E+00
    0.00000E+00         0.00000E+00        -0.56878E+08
 
   -0.56804E+08         0.64707E+06         0.00000E+00
    0.64707E+06        -0.97601E+08         0.00000E+00
    0.00000E+00         0.00000E+00        -0.56805E+08
 
   -0.56731E+08         0.64839E+06         0.00000E+00
    0.64839E+06        -0.97606E+08         0.00000E+00
    0.00000E+00         0.00000E+00        -0.56731E+08
 
   -0.56657E+08         0.64883E+06         0.00000E+00
    0.64883E+06        -0.97611E+08         0.00000E+00
    0.00000E+00         0.00000E+00        -0.56657E+08
 
   -0.56582E+08         0.64830E+06         0.00000E+00
    0.64830E+06        -0.97617E+08         0.00000E+00
    0.00000E+00         0.00000E+00        -0.56582E+08
 
   -0.56506E+08         0.64673E+06         0.00000E+00
    0.64673E+06        -0.97624E+08         0.00000E+00
    0.00000E+00         0.00000E+00        -0.56506E+08
 
   -0.56429E+08         0.64402E+06         0.00000E+00
    0.64402E+06        -0.97631E+08         0.00000E+00
    0.00000E+00         0.00000E+00        -0.56429E+08
 
   -0.56352E+08         0.64011E+06         0.00000E+00
    0.64011E+06        -0.97639E+08         0.00000E+00
    0.00000E+00         0.00000E+00        -0.56351E+08
 
   -0.56275E+08         0.63490E+06         0.00000E+00
    0.63490E+06        -0.97648E+08         0.00000E+00
    0.00000E+00         0.00000E+00        -0.56274E+08
 
   -0.56196E+08         0.62832E+06         0.00000E+00
    0.62832E+06        -0.97658E+08         0.00000E+00
    0.00000E+00         0.00000E+00        -0.56195E+08
 
   -0.56118E+08         0.62028E+06         0.00000E+00
    0.62028E+06        -0.97668E+08         0.00000E+00
    0.00000E+00         0.00000E+00        -0.56116E+08
 
   -0.56038E+08         0.61073E+06         0.00000E+00
    0.61073E+06        -0.97679E+08         0.00000E+00
    0.00000E+00         0.00000E+00        -0.56036E+08
 
   -0.55959E+08         0.59959E+06         0.00000E+00
    0.59959E+06        -0.97691E+08         0.00000E+00
    0.00000E+00         0.00000E+00        -0.55956E+08
 
   -0.55879E+08         0.58682E+06         0.00000E+00
    0.58682E+06        -0.97704E+08         0.00000E+00
    0.00000E+00         0.00000E+00        -0.55876E+08
 
   -0.55798E+08         0.57238E+06         0.00000E+00
    0.57238E+06        -0.97718E+08         0.00000E+00
    0.00000E+00         0.00000E+00        -0.55795E+08
 
   -0.55718E+08         0.55627E+06         0.00000E+00
    0.55627E+06        -0.97733E+08         0.00000E+00
    0.00000E+00         0.00000E+00        -0.55714E+08
 
   -0.55636E+08         0.53848E+06         0.00000E+00
    0.53848E+06        -0.97748E+08         0.00000E+00
    0.00000E+00         0.00000E+00        -0.55633E+08
 
   -0.55555E+08         0.51903E+06         0.00000E+00
    0.51903E+06        -0.97763E+08         0.00000E+00
    0.00000E+00         0.00000E+00        -0.55551E+08
 
   -0.55472E+08         0.49792E+06         0.00000E+00
    0.49792E+06        -0.97778E+08         0.00000E+00
    0.00000E+00         0.00000E+00        -0.55468E+08
 
   -0.55389E+08         0.47518E+06         0.00000E+00
    0.47518E+06        -0.97792E+08         0.00000E+00
    0.00000E+00         0.00000E+00        -0.55384E+08
 
   -0.55304E+08         0.45074E+06         0.00000E+00
    0.45074E+06        -0.97805E+08         0.00000E+00
    0.00000E+00         0.00000E+00        -0.55299E+08
 
   -0.55218E+08         0.42446E+06         0.00000E+00
    0.42446E+06        -0.97814E+08         0.00000E+00
    0.00000E+00         0.00000E+00        -0.55212E+08
 
   -0.55130E+08         0.39600E+06         0.00000E+00
    0.39600E+06        -0.97820E+08         0.00000E+00
    0.00000E+00         0.00000E+00        -0.55124E+08
 
   -0.55039E+08         0.36470E+06         0.00000E+00
    0.36470E+06        -0.97819E+08         0.00000E+00
    0.00000E+00         0.00000E+00        -0.55032E+08
 
   -0.54945E+08         0.32939E+06         0.00000E+00
    0.32939E+06        -0.97811E+08         0.00000E+00
    0.00000E+00         0.00000E+00        -0.54937E+08
 
   -0.54847E+08         0.28803E+06         0.00000E+00
    0.28803E+06        -0.97793E+08         0.00000E+00
    0.00000E+00         0.00000E+00        -0.54838E+08
 
   -0.54745E+08         0.23709E+06         0.00000E+00
    0.23709E+06        -0.97762E+08         0.00000E+00
    0.00000E+00         0.00000E+00        -0.54734E+08
 
   -0.54640E+08         0.17063E+06         0.00000E+00
    0.17063E+06        -0.97719E+08         0.00000E+00
    0.00000E+00         0.00000E+00        -0.54625E+08
 
   -0.54536E+08         0.66301E+05         0.00000E+00
    0.66301E+05        -0.97652E+08         0.00000E+00
    0.00000E+00         0.00000E+00        -0.54508E+08
 
   -0.59774E+08         0.15432E+05         0.00000E+00
    0.15432E+05        -0.97572E+08         0.00000E+00
    0.00000E+00         0.00000E+00        -0.59795E+08
 
   -0.59754E+08         0.42547E+05         0.00000E+00
    0.42547E+05        -0.97553E+08         0.00000E+00
    0.00000E+00         0.00000E+00        -0.59768E+08
 
   -0.59730E+08         0.63042E+05         0.00000E+00
    0.63042E+05        -0.97541E+08         0.00000E+00
    0.00000E+00         0.00000E+00        -0.59740E+08
 
   -0.59705E+08         0.79414E+05         0.00000E+00
    0.79414E+05        -0.97533E+08         0.00000E+00
    0.00000E+00         0.00000E+00        -0.59714E+08
 
   -0.59681E+08         0.93621E+05         0.00000E+00
    0.93621E+05        -0.97528E+08         0.00000E+00
    0.00000E+00         0.00000E+00        -0.59689E+08
 
   -0.59658E+08         0.10639E+06         0.00000E+00
    0.10639E+06        -0.97525E+08         0.00000E+00
    0.00000E+00         0.00000E+00        -0.59665E+08
 
   -0.59635E+08         0.11827E+06         0.00000E+00
    0.11827E+06        -0.97525E+08         0.00000E+00
    0.00000E+00         0.00000E+00        -0.59642E+08
 
   -0.59612E+08         0.12955E+06         0.00000E+00
    0.12955E+06        -0.97526E+08         0.00000E+00
    0.00000E+00         0.00000E+00        -0.59618E+08
 
   -0.59589E+08         0.14042E+06         0.00000E+00
    0.14042E+06        -0.97527E+08         0.00000E+00
    0.00000E+00         0.00000E+00        -0.59595E+08
 
   -0.59566E+08         0.15097E+06         0.00000E+00
    0.15097E+06        -0.97530E+08         0.00000E+00
    0.00000E+00         0.00000E+00        -0.59573E+08
 
   -0.59544E+08         0.16124E+06         0.00000E+00
    0.16124E+06        -0.97533E+08         0.00000E+00
    0.00000E+00         0.00000E+00        -0.59550E+08
 
   -0.59521E+08         0.17126E+06         0.00000E+00
    0.17126E+06        -0.97536E+08         0.00000E+00
    0.00000E+00         0.00000E+00        -0.59527E+08
 
   -0.59498E+08         0.18105E+06         0.00000E+00
    0.18105E+06        -0.97539E+08         0.00000E+00
    0.00000E+00         0.00000E+00        -0.59503E+08
 
   -0.59474E+08         0.19059E+06         0.00000E+00
    0.19059E+06        -0.97542E+08         0.00000E+00
    0.00000E+00         0.00000E+00        -0.59480E+08
 
   -0.59450E+08         0.19991E+06         0.00000E+00
    0.19991E+06        -0.97545E+08         0.00000E+00
    0.00000E+00         0.00000E+00        -0.59456E+08
 
   -0.59426E+08         0.20900E+06         0.00000E+00
    0.20900E+06        -0.97547E+08         0.00000E+00
    0.00000E+00         0.00000E+00        -0.59431E+08
 
   -0.59401E+08         0.21787E+06         0.00000E+00
    0.21787E+06        -0.97550E+08         0.00000E+00
    0.00000E+00         0.00000E+00        -0.59407E+08
 
   -0.59376E+08         0.22654E+06         0.00000E+00
    0.22654E+06        -0.97552E+08         0.00000E+00
    0.00000E+00         0.00000E+00        -0.59381E+08
 
   -0.59350E+08         0.23502E+06         0.00000E+00
    0.23502E+06        -0.97553E+08         0.00000E+00
    0.00000E+00         0.00000E+00        -0.59355E+08
 
   -0.59324E+08         0.24333E+06         0.00000E+00
    0.24333E+06        -0.97555E+08         0.00000E+00
    0.00000E+00         0.00000E+00        -0.59329E+08
 
   -0.59297E+08         0.25148E+06         0.00000E+00
    0.25148E+06        -0.97556E+08         0.00000E+00
    0.00000E+00         0.00000E+00        -0.59302E+08
 
   -0.59270E+08         0.25950E+06         0.00000E+00
    0.25950E+06        -0.97558E+08         0.00000E+00
    0.00000E+00         0.00000E+00        -0.59275E+08
 
   -0.59242E+08         0.26741E+06         0.00000E+00
    0.26741E+06        -0.97559E+08         0.00000E+00
    0.00000E+00         0.00000E+00        -0.59247E+08
 
   -0.59214E+08         0.27523E+06         0.00000E+00
    0.27523E+06        -0.97559E+08         0.00000E+00
    0.00000E+00         0.00000E+00        -0.59219E+08
 
   -0.59185E+08         0.28297E+06         0.00000E+00
    0.28297E+06        -0.97560E+08         0.00000E+00
    0.00000E+00         0.00000E+00        -0.59189E+08
 
   -0.59155E+08         0.29065E+06         0.00000E+00
    0.29065E+06        -0.97561E+08         0.00000E+00
    0.00000E+00         0.00000E+00        -0.59160E+08
 
   -0.59125E+08         0.29830E+06         0.00000E+00
    0.29830E+06        -0.97561E+08         0.00000E+00
    0.00000E+00         0.00000E+00        -0.59129E+08
 
   -0.59094E+08         0.30592E+06         0.00000E+00
    0.30592E+06        -0.97561E+08         0.00000E+00
    0.00000E+00         0.00000E+00        -0.59098E+08
 
   -0.59062E+08         0.31353E+06         0.00000E+00
    0.31353E+06        -0.97562E+08         0.00000E+00
    0.00000E+00         0.00000E+00        -0.59067E+08
 
   -0.59030E+08         0.32115E+06         0.00000E+00
    0.32115E+06        -0.97562E+08         0.00000E+00
    0.00000E+00         0.00000E+00        -0.59034E+08
 
   -0.58997E+08         0.32879E+06         0.00000E+00
    0.32879E+06        -0.97562E+08         0.00000E+00
    0.00000E+00         0.00000E+00        -0.59001E+08
 
   -0.58963E+08         0.33646E+06         0.00000E+00
    0.33646E+06        -0.97562E+08         0.00000E+00
    0.00000E+00         0.00000E+00        -0.58968E+08
 
   -0.58929E+08         0.34416E+06         0.00000E+00
    0.34416E+06        -0.97562E+08         0.00000E+00
    0.00000E+00         0.00000E+00        -0.58933E+08
 
   -0.58893E+08         0.35190E+06         0.00000E+00
    0.35190E+06        -0.97562E+08         0.00000E+00
    0.00000E+00         0.00000E+00        -0.58898E+08
 
   -0.58858E+08         0.35969E+06         0.00000E+00
    0.35969E+06        -0.97562E+08         0.00000E+00
    0.00000E+00         0.00000E+00        -0.58862E+08
 
   -0.58821E+08         0.36754E+06         0.00000E+00
    0.36754E+06        -0.97562E+08         0.00000E+00
    0.00000E+00         0.00000E+00        -0.58826E+08
 
   -0.58783E+08         0.37545E+06         0.00000E+00
    0.37545E+06        -0.97561E+08         0.00000E+00
    0.00000E+00         0.00000E+00        -0.58788E+08
 
   -0.58745E+08         0.38341E+06         0.00000E+00
    0.38341E+06        -0.97561E+08         0.00000E+00
    0.00000E+00         0.00000E+00        -0.58750E+08
 
   -0.58706E+08         0.39144E+06         0.00000E+00
    0.39144E+06        -0.97561E+08         0.00000E+00
    0.00000E+00         0.00000E+00        -0.58711E+08
 
   -0.58666E+08         0.39953E+06         0.00000E+00
    0.39953E+06        -0.97561E+08         0.00000E+00
    0.00000E+00         0.00000E+00        -0.58671E+08
 
   -0.58625E+08         0.40768E+06         0.00000E+00
    0.40768E+06        -0.97561E+08         0.00000E+00
    0.00000E+00         0.00000E+00        -0.58630E+08
 
   -0.58583E+08         0.41589E+06         0.00000E+00
    0.41589E+06        -0.97561E+08         0.00000E+00
    0.00000E+00         0.00000E+00        -0.58588E+08
 
   -0.58541E+08         0.42415E+06         0.00000E+00
    0.42415E+06        -0.97560E+08         0.00000E+00
    0.00000E+00         0.00000E+00        -0.58546E+08
 
   -0.58497E+08         0.43246E+06         0.00000E+00
    0.43246E+06        -0.97560E+08         0.00000E+00
    0.00000E+00         0.00000E+00        -0.58502E+08
 
   -0.58453E+08         0.44082E+06         0.00000E+00
    0.44082E+06        -0.97560E+08         0.00000E+00
    0.00000E+00         0.00000E+00        -0.58458E+08
 
   -0.58408E+08         0.44922E+06         0.00000E+00
    0.44922E+06        -0.97560E+08         0.00000E+00
    0.00000E+00         0.00000E+00        -0.58413E+08
 
   -0.58361E+08         0.45765E+06         0.00000E+00
    0.45765E+06        -0.97560E+08         0.00000E+00
    0.00000E+00         0.00000E+00        -0.58366E+08
 
   -0.58314E+08         0.46611E+06         0.00000E+00
    0.46611E+06        -0.97560E+08         0.00000E+00
    0.00000E+00         0.00000E+00        -0.58319E+08
 
   -0.58266E+08         0.47457E+06         0.00000E+00
    0.47457E+06        -0.97560E+08         0.00000E+00
    0.00000E+00         0.00000E+00        -0.58271E+08
 
   -0.58217E+08         0.48305E+06         0.00000E+00
    0.48305E+06        -0.97561E+08         0.00000E+00
    0.00000E+00         0.00000E+00        -0.58222E+08
 
   -0.58166E+08         0.49151E+06         0.00000E+00
    0.49151E+06        -0.97561E+08         0.00000E+00
    0.00000E+00         0.00000E+00        -0.58172E+08
 
   -0.58115E+08         0.49995E+06         0.00000E+00
    0.49995E+06        -0.97561E+08         0.00000E+00
    0.00000E+00         0.00000E+00        -0.58120E+08
 
   -0.58063E+08         0.50836E+06         0.00000E+00
    0.50836E+06        -0.97561E+08         0.00000E+00
    0.00000E+00         0.00000E+00        -0.58068E+08
 
   -0.58010E+08         0.51672E+06         0.00000E+00
    0.51672E+06        -0.97562E+08         0.00000E+00
    0.00000E+00         0.00000E+00        -0.58015E+08
 
   -0.57955E+08         0.52501E+06         0.00000E+00
    0.52501E+06        -0.97562E+08         0.00000E+00
    0.00000E+00         0.00000E+00        -0.57961E+08
 
   -0.57900E+08         0.53321E+06         0.00000E+00
    0.53321E+06        -0.97563E+08         0.00000E+00
    0.00000E+00         0.00000E+00        -0.57905E+08
 
   -0.57844E+08         0.54131E+06         0.00000E+00
    0.54131E+06        -0.97564E+08         0.00000E+00
    0.00000E+00         0.00000E+00        -0.57849E+08
 
   -0.57786E+08         0.54928E+06         0.00000E+00
    0.54928E+06        -0.97565E+08         0.00000E+00
    0.00000E+00         0.00000E+00        -0.57791E+08
 
   -0.57728E+08         0.55710E+06         0.00000E+00
    0.55710E+06        -0.97566E+08         0.00000E+00
    0.00000E+00         0.00000E+00        -0.57733E+08
 
   -0.57669E+08         0.56474E+06         0.00000E+00
    0.56474E+06        -0.97567E+08         0.00000E+00
    0.00000E+00         0.00000E+00        -0.57673E+08
 
   -0.57608E+08         0.57218E+06         0.00000E+00
    0.57218E+06        -0.97568E+08         0.00000E+00
    0.00000E+00         0.00000E+00        -0.57613E+08
 
   -0.57546E+08         0.57939E+06         0.00000E+00
    0.57939E+06        -0.97570E+08         0.00000E+00
    0.00000E+00         0.00000E+00        -0.57551E+08
 
   -0.57484E+08         0.58634E+06         0.00000E+00
    0.58634E+06        -0.97571E+08         0.00000E+00
    0.00000E+00         0.00000E+00        -0.57488E+08
 
   -0.57420E+08         0.59299E+06         0.00000E+00
    0.59299E+06        -0.97573E+08         0.00000E+00
    0.00000E+00         0.00000E+00        -0.57424E+08
 
   -0.57356E+08         0.59931E+06         0.00000E+00
    0.59931E+06        -0.97575E+08         0.00000E+00
    0.00000E+00         0.00000E+00        -0.57359E+08
 
   -0.57290E+08         0.60526E+06         0.00000E+00
    0.60526E+06        -0.97577E+08         0.00000E+00
    0.00000E+00         0.00000E+00        -0.57294E+08
 
   -0.57223E+08         0.61079E+06         0.00000E+00
    0.61079E+06        -0.97580E+08         0.00000E+00
    0.00000E+00         0.00000E+00        -0.57227E+08
 
   -0.57156E+08         0.61587E+06         0.00000E+00
    0.61587E+06        -0.97583E+08         0.00000E+00
    0.00000E+00         0.00000E+00        -0.57159E+08
 
   -0.57087E+08         0.62043E+06         0.00000E+00
    0.62043E+06        -0.97586E+08         0.00000E+00
    0.00000E+00         0.00000E+00        -0.57090E+08
 
   -0.57018E+08         0.62444E+06         0.00000E+00
    0.62444E+06        -0.97589E+08         0.00000E+00
    0.00000E+00         0.00000E+00        -0.57020E+08
 
   -0.56947E+08         0.62783E+06         0.00000E+00
    0.62783E+06        -0.97593E+08         0.00000E+00
    0.00000E+00         0.00000E+00        -0.56949E+08
 
   -0.56876E+08         0.63054E+06         0.00000E+00
    0.63054E+06        -0.97597E+08         0.00000E+00
    0.00000E+00         0.00000E+00        -0.56877E+08
 
   -0.56804E+08         0.63251E+06         0.00000E+00
    0.63251E+06        -0.97601E+08         0.00000E+00
    0.00000E+00         0.00000E+00        -0.56805E+08
 
   -0.56731E+08         0.63367E+06         0.00000E+00
    0.63367E+06        -0.97606E+08         0.00000E+00
    0.00000E+00         0.00000E+00        -0.56731E+08
 
   -0.56657E+08         0.63395E+06         0.00000E+00
    0.63395E+06        -0.97611E+08         0.00000E+00
    0.00000E+00         0.00000E+00        -0.56657E+08
 
   -0.56582E+08         0.63327E+06         0.00000E+00
    0.63327E+06        -0.97617E+08         0.00000E+00
    0.00000E+00         0.00000E+00        -0.56582E+08
 
   -0.56507E+08         0.63155E+06         0.00000E+00
    0.63155E+06        -0.97624E+08         0.00000E+00
    0.00000E+00         0.00000E+00        -0.56506E+08
 
   -0.56431E+08         0.62872E+06         0.00000E+00
    0.62872E+06        -0.97631E+08         0.00000E+00
    0.00000E+00         0.00000E+00        -0.56429E+08
 
   -0.56355E+08         0.62469E+06         0.00000E+00
    0.62469E+06        -0.97638E+08         0.00000E+00
    0.00000E+00         0.00000E+00        -0.56352E+08
 
   -0.56277E+08         0.61937E+06         0.00000E+00
    0.61937E+06        -0.97647E+08         0.00000E+00
    0.00000E+00         0.00000E+00        -0.56274E+08
 
   -0.56200E+08         0.61269E+06         0.00000E+00
    0.61269E+06        -0.97656E+08         0.00000E+00
    0.00000E+00         0.00000E+00        -0.56196E+08
 
   -0.56122E+08         0.60456E+06         0.00000E+00
    0.60456E+06        -0.97666E+08         0.00000E+00
    0.00000E+00         0.00000E+00        -0.56117E+08
 
   -0.56043E+08         0.59492E+06         0.00000E+00
    0.59492E+06        -0.97677E+08         0.00000E+00
    0.00000E+00         0.00000E+00        -0.56037E+08
 
   -0.55965E+08         0.58370E+06         0.00000E+00
    0.58370E+06        -0.97689E+08         0.00000E+00
    0.00000E+00         0.00000E+00        -0.55957E+08
 
   -0.55885E+08         0.57086E+06         0.00000E+00
    0.57086E+06        -0.97702E+08         0.00000E+00
    0.00000E+00         0.00000E+00        -0.55877E+08
 
   -0.55806E+08         0.55635E+06         0.00000E+00
    0.55635E+06        -0.97715E+08         0.00000E+00
    0.00000E+00         0.00000E+00        -0.55797E+08
 
   -0.55726E+08         0.54015E+06         0.00000E+00
    0.54015E+06        -0.97730E+08         0.00000E+00
    0.00000E+00         0.00000E+00        -0.55716E+08
 
   -0.55645E+08         0.52226E+06         0.00000E+00
    0.52226E+06        -0.97744E+08         0.00000E+00
    0.00000E+00         0.00000E+00        -0.55634E+08
 
   -0.55564E+08         0.50268E+06         0.00000E+00
    0.50268E+06        -0.97759E+08         0.00000E+00
    0.00000E+00         0.00000E+00        -0.55552E+08
 
   -0.55483E+08         0.48142E+06         0.00000E+00
    0.48142E+06        -0.97774E+08         0.00000E+00
    0.00000E+00         0.00000E+00        -0.55470E+08
 
   -0.55400E+08         0.45847E+06         0.00000E+00
    0.45847E+06        -0.97788E+08         0.00000E+00
    0.00000E+00         0.00000E+00        -0.55386E+08
 
   -0.55316E+08         0.43376E+06         0.00000E+00
    0.43376E+06        -0.97800E+08         0.00000E+00
    0.00000E+00         0.00000E+00        -0.55301E+08
 
   -0.55231E+08         0.40713E+06         0.00000E+00
    0.40713E+06        -0.97809E+08         0.00000E+00
    0.00000E+00         0.00000E+00        -0.55215E+08
 
   -0.55144E+08         0.37824E+06         0.00000E+00
    0.37824E+06        -0.97814E+08         0.00000E+00
    0.00000E+00         0.00000E+00        -0.55126E+08
 
   -0.55055E+08         0.34641E+06         0.00000E+00
    0.34641E+06        -0.97812E+08         0.00000E+00
    0.00000E+00         0.00000E+00        -0.55035E+08
 
   -0.54963E+08         0.31053E+06         0.00000E+00
    0.31053E+06        -0.97803E+08         0.00000E+00
    0.00000E+00         0.00000E+00        -0.54940E+08
 
   -0.54869E+08         0.26844E+06         0.00000E+00
    0.26844E+06        -0.97783E+08         0.00000E+00
    0.00000E+00         0.00000E+00        -0.54842E+08
 
   -0.54773E+08         0.21731E+06         0.00000E+00
    0.21731E+06        -0.97751E+08         0.00000E+00
    0.00000E+00         0.00000E+00        -0.54739E+08
 
   -0.54677E+08         0.14940E+06         0.00000E+00
    0.14940E+06        -0.97702E+08         0.00000E+00
    0.00000E+00         0.00000E+00        -0.54631E+08
 
   -0.54598E+08         0.54817E+05         0.00000E+00
    0.54817E+05        -0.97629E+08         0.00000E+00
    0.00000E+00         0.00000E+00        -0.54520E+08
 
   -0.59758E+08         0.13376E+05         0.00000E+00
    0.13376E+05        -0.97577E+08         0.00000E+00
    0.00000E+00         0.00000E+00        -0.59792E+08
 
   -0.59742E+08         0.38113E+05         0.00000E+00
    0.38113E+05        -0.97558E+08         0.00000E+00
    0.00000E+00         0.00000E+00        -0.59765E+08
 
   -0.59721E+08         0.58316E+05         0.00000E+00
    0.58316E+05        -0.97545E+08         0.00000E+00
    0.00000E+00         0.00000E+00        -0.59739E+08
 
   -0.59698E+08         0.74697E+05         0.00000E+00
    0.74697E+05        -0.97536E+08         0.00000E+00
    0.00000E+00         0.00000E+00        -0.59713E+08
 
   -0.59675E+08         0.88929E+05         0.00000E+00
    0.88929E+05        -0.97531E+08         0.00000E+00
    0.00000E+00         0.00000E+00        -0.59688E+08
 
   -0.59652E+08         0.10177E+06         0.00000E+00
    0.10177E+06        -0.97528E+08         0.00000E+00
    0.00000E+00         0.00000E+00        -0.59664E+08
 
   -0.59629E+08         0.11370E+06         0.00000E+00
    0.11370E+06        -0.97527E+08         0.00000E+00
    0.00000E+00         0.00000E+00        -0.59641E+08
 
   -0.59606E+08         0.12502E+06         0.00000E+00
    0.12502E+06        -0.97528E+08         0.00000E+00
    0.00000E+00         0.00000E+00        -0.59617E+08
 
   -0.59584E+08         0.13590E+06         0.00000E+00
    0.13590E+06        -0.97530E+08         0.00000E+00
    0.00000E+00         0.00000E+00        -0.59595E+08
 
   -0.59561E+08         0.14644E+06         0.00000E+00
    0.14644E+06        -0.97532E+08         0.00000E+00
    0.00000E+00         0.00000E+00        -0.59572E+08
 
   -0.59539E+08         0.15669E+06         0.00000E+00
    0.15669E+06        -0.97535E+08         0.00000E+00
    0.00000E+00         0.00000E+00        -0.59549E+08
 
   -0.59516E+08         0.16667E+06         0.00000E+00
    0.16667E+06        -0.97538E+08         0.00000E+00
    0.00000E+00         0.00000E+00        -0.59526E+08
 
   -0.59493E+08         0.17640E+06         0.00000E+00
    0.17640E+06        -0.97541E+08         0.00000E+00
    0.00000E+00         0.00000E+00        -0.59503E+08
 
   -0.59469E+08         0.18588E+06         0.00000E+00
    0.18588E+06        -0.97544E+08         0.00000E+00
    0.00000E+00         0.00000E+00        -0.59479E+08
 
   -0.59446E+08         0.19511E+06         0.00000E+00
    0.19511E+06        -0.97546E+08         0.00000E+00
    0.00000E+00         0.00000E+00        -0.59455E+08
 
   -0.59422E+08         0.20412E+06         0.00000E+00
    0.20412E+06        -0.97549E+08         0.00000E+00
    0.00000E+00         0.00000E+00        -0.59431E+08
 
   -0.59397E+08         0.21290E+06         0.00000E+00
    0.21290E+06        -0.97551E+08         0.00000E+00
    0.00000E+00         0.00000E+00        -0.59406E+08
 
   -0.59372E+08         0.22147E+06         0.00000E+00
    0.22147E+06        -0.97553E+08         0.00000E+00
    0.00000E+00         0.00000E+00        -0.59381E+08
 
   -0.59346E+08         0.22984E+06         0.00000E+00
    0.22984E+06        -0.97555E+08         0.00000E+00
    0.00000E+00         0.00000E+00        -0.59355E+08
 
   -0.59320E+08         0.23804E+06         0.00000E+00
    0.23804E+06        -0.97557E+08         0.00000E+00
    0.00000E+00         0.00000E+00        -0.59328E+08
 
   -0.59294E+08         0.24608E+06         0.00000E+00
    0.24608E+06        -0.97558E+08         0.00000E+00
    0.00000E+00         0.00000E+00        -0.59302E+08
 
   -0.59266E+08         0.25399E+06         0.00000E+00
    0.25399E+06        -0.97559E+08         0.00000E+00
    0.00000E+00         0.00000E+00        -0.59274E+08
 
   -0.59238E+08         0.26178E+06         0.00000E+00
    0.26178E+06        -0.97560E+08         0.00000E+00
    0.00000E+00         0.00000E+00        -0.59246E+08
 
   -0.59210E+08         0.26948E+06         0.00000E+00
    0.26948E+06        -0.97561E+08         0.00000E+00
    0.00000E+00         0.00000E+00        -0.59218E+08
 
   -0.59181E+08         0.27709E+06         0.00000E+00
    0.27709E+06        -0.97562E+08         0.00000E+00
    0.00000E+00         0.00000E+00        -0.59189E+08
 
   -0.59151E+08         0.28465E+06         0.00000E+00
    0.28465E+06        -0.97562E+08         0.00000E+00
    0.00000E+00         0.00000E+00        -0.59159E+08
 
   -0.59121E+08         0.29217E+06         0.00000E+00
    0.29217E+06        -0.97563E+08         0.00000E+00
    0.00000E+00         0.00000E+00        -0.59129E+08
 
   -0.59090E+08         0.29966E+06         0.00000E+00
    0.29966E+06        -0.97563E+08         0.00000E+00
    0.00000E+00         0.00000E+00        -0.59098E+08
 
   -0.59058E+08         0.30714E+06         0.00000E+00
    0.30714E+06        -0.97563E+08         0.00000E+00
    0.00000E+00         0.00000E+00        -0.59066E+08
 
   -0.59026E+08         0.31462E+06         0.00000E+00
    0.31462E+06        -0.97563E+08         0.00000E+00
    0.00000E+00         0.00000E+00        -0.59034E+08
 
   -0.58993E+08         0.32212E+06         0.00000E+00
    0.32212E+06        -0.97563E+08         0.00000E+00
    0.00000E+00         0.00000E+00        -0.59001E+08
 
   -0.58959E+08         0.32964E+06         0.00000E+00
    0.32964E+06        -0.97563E+08         0.00000E+00
    0.00000E+00         0.00000E+00        -0.58967E+08
 
   -0.58925E+08         0.33719E+06         0.00000E+00
    0.33719E+06        -0.97563E+08         0.00000E+00
    0.00000E+00         0.00000E+00        -0.58933E+08
 
   -0.58890E+08         0.34479E+06         0.00000E+00
    0.34479E+06        -0.97563E+08         0.00000E+00
    0.00000E+00         0.00000E+00        -0.58898E+08
 
   -0.58854E+08         0.35243E+06         0.00000E+00
    0.35243E+06        -0.97563E+08         0.00000E+00
    0.00000E+00         0.00000E+00        -0.58862E+08
 
   -0.58817E+08         0.36012E+06         0.00000E+00
    0.36012E+06        -0.97563E+08         0.00000E+00
    0.00000E+00         0.00000E+00        -0.58825E+08
 
   -0.58779E+08         0.36787E+06         0.00000E+00
    0.36787E+06        -0.97563E+08         0.00000E+00
    0.00000E+00         0.00000E+00        -0.58788E+08
 
   -0.58741E+08         0.37567E+06         0.00000E+00
    0.37567E+06        -0.97563E+08         0.00000E+00
    0.00000E+00         0.00000E+00        -0.58749E+08
 
   -0.58702E+08         0.38353E+06         0.00000E+00
    0.38353E+06        -0.97563E+08         0.00000E+00
    0.00000E+00         0.00000E+00        -0.58710E+08
 
   -0.58662E+08         0.39145E+06         0.00000E+00
    0.39145E+06        -0.97562E+08         0.00000E+00
    0.00000E+00         0.00000E+00        -0.58670E+08
 
   -0.58621E+08         0.39942E+06         0.00000E+00
    0.39942E+06        -0.97562E+08         0.00000E+00
    0.00000E+00         0.00000E+00        -0.58629E+08
 
   -0.58579E+08         0.40745E+06         0.00000E+00
    0.40745E+06        -0.97562E+08         0.00000E+00
    0.00000E+00         0.00000E+00        -0.58588E+08
 
   -0.58537E+08         0.41554E+06         0.00000E+00
    0.41554E+06        -0.97562E+08         0.00000E+00
    0.00000E+00         0.00000E+00        -0.58545E+08
 
   -0.58493E+08         0.42367E+06         0.00000E+00
    0.42367E+06        -0.97562E+08         0.00000E+00
    0.00000E+00         0.00000E+00        -0.58502E+08
 
   -0.58449E+08         0.43184E+06         0.00000E+00
    0.43184E+06        -0.97562E+08         0.00000E+00
    0.00000E+00         0.00000E+00        -0.58457E+08
 
   -0.58403E+08         0.44006E+06         0.00000E+00
    0.44006E+06        -0.97562E+08         0.00000E+00
    0.00000E+00         0.00000E+00        -0.58412E+08
 
   -0.58357E+08         0.44830E+06         0.00000E+00
    0.44830E+06        -0.97562E+08         0.00000E+00
    0.00000E+00         0.00000E+00        -0.58366E+08
 
   -0.58310E+08         0.45656E+06         0.00000E+00
    0.45656E+06        -0.97562E+08         0.00000E+00
    0.00000E+00         0.00000E+00        -0.58318E+08
 
   -0.58262E+08         0.46483E+06         0.00000E+00
    0.46483E+06        -0.97562E+08         0.00000E+00
    0.00000E+00         0.00000E+00        -0.58270E+08
 
   -0.58212E+08         0.47311E+06         0.00000E+00
    0.47311E+06        -0.97562E+08         0.00000E+00
    0.00000E+00         0.00000E+00        -0.58221E+08
 
   -0.58162E+08         0.48137E+06         0.00000E+00
    0.48137E+06        -0.97562E+08         0.00000E+00
    0.00000E+00         0.00000E+00        -0.58171E+08
 
   -0.58111E+08         0.48961E+06         0.00000E+00
    0.48961E+06        -0.97563E+08         0.00000E+00
    0.00000E+00         0.00000E+00        -0.58120E+08
 
   -0.58059E+08         0.49782E+06         0.00000E+00
    0.49782E+06        -0.97563E+08         0.00000E+00
    0.00000E+00         0.00000E+00        -0.58067E+08
 
   -0.58006E+08         0.50597E+06         0.00000E+00
    0.50597E+06        -0.97563E+08         0.00000E+00
    0.00000E+00         0.00000E+00        -0.58014E+08
 
   -0.57951E+08         0.51405E+06         0.00000E+00
    0.51405E+06        -0.97564E+08         0.00000E+00
    0.00000E+00         0.00000E+00        -0.57960E+08
 
   -0.57896E+08         0.52205E+06         0.00000E+00
    0.52205E+06        -0.97565E+08         0.00000E+00
    0.00000E+00         0.00000E+00        -0.57904E+08
 
   -0.57840E+08         0.52994E+06         0.00000E+00
    0.52994E+06        -0.97565E+08         0.00000E+00
    0.00000E+00         0.00000E+00        -0.57848E+08
 
   -0.57783E+08         0.53770E+06         0.00000E+00
    0.53770E+06        -0.97566E+08         0.00000E+00
    0.00000E+00         0.00000E+00        -0.57791E+08
 
   -0.57724E+08         0.54532E+06         0.00000E+00
    0.54532E+06        -0.97567E+08         0.00000E+00
    0.00000E+00         0.00000E+00        -0.57732E+08
 
   -0.57665E+08         0.55275E+06         0.00000E+00
    0.55275E+06        -0.97568E+08         0.00000E+00
    0.00000E+00         0.00000E+00        -0.57673E+08
 
   -0.57604E+08         0.55999E+06         0.00000E+00
    0.55999E+06        -0.97570E+08         0.00000E+00
    0.00000E+00         0.00000E+00        -0.57612E+08
 
   -0.57543E+08         0.56699E+06         0.00000E+00
    0.56699E+06        -0.97571E+08         0.00000E+00
    0.00000E+00         0.00000E+00        -0.57550E+08
 
   -0.57480E+08         0.57374E+06         0.00000E+00
    0.57374E+06        -0.97573E+08         0.00000E+00
    0.00000E+00         0.00000E+00        -0.57487E+08
 
   -0.57417E+08         0.58018E+06         0.00000E+00
    0.58018E+06        -0.97574E+08         0.00000E+00
    0.00000E+00         0.00000E+00        -0.57424E+08
 
   -0.57353E+08         0.58630E+06         0.00000E+00
    0.58630E+06        -0.97576E+08         0.00000E+00
    0.00000E+00         0.00000E+00        -0.57359E+08
 
   -0.57287E+08         0.59205E+06         0.00000E+00
    0.59205E+06        -0.97578E+08         0.00000E+00
    0.00000E+00         0.00000E+00        -0.57293E+08
 
   -0.57221E+08         0.59739E+06         0.00000E+00
    0.59739E+06        -0.97581E+08         0.00000E+00
    0.00000E+00         0.00000E+00        -0.57226E+08
 
   -0.57153E+08         0.60227E+06         0.00000E+00
    0.60227E+06        -0.97584E+08         0.00000E+00
    0.00000E+00         0.00000E+00        -0.57158E+08
 
   -0.57085E+08         0.60665E+06         0.00000E+00
    0.60665E+06        -0.97586E+08         0.00000E+00
    0.00000E+00         0.00000E+00        -0.57089E+08
 
   -0.57016E+08         0.61047E+06         0.00000E+00
    0.61047E+06        -0.97590E+08         0.00000E+00
    0.00000E+00         0.00000E+00        -0.57020E+08
 
   -0.56945E+08         0.61368E+06         0.00000E+00
    0.61368E+06        -0.97593E+08         0.00000E+00
    0.00000E+00         0.00000E+00        -0.56949E+08
 
   -0.56874E+08         0.61622E+06         0.00000E+00
    0.61622E+06        -0.97597E+08         0.00000E+00
    0.00000E+00         0.00000E+00        -0.56877E+08
 
   -0.56803E+08         0.61802E+06         0.00000E+00
    0.61802E+06        -0.97601E+08         0.00000E+00
    0.00000E+00         0.00000E+00        -0.56804E+08
 
   -0.56730E+08         0.61903E+06         0.00000E+00
    0.61903E+06        -0.97606E+08         0.00000E+00
    0.00000E+00         0.00000E+00        -0.56731E+08
 
   -0.56657E+08         0.61916E+06         0.00000E+00
    0.61916E+06        -0.97611E+08         0.00000E+00
    0.00000E+00         0.00000E+00        -0.56657E+08
 
   -0.56583E+08         0.61834E+06         0.00000E+00
    0.61834E+06        -0.97617E+08         0.00000E+00
    0.00000E+00         0.00000E+00        -0.56582E+08
 
   -0.56508E+08         0.61649E+06         0.00000E+00
    0.61649E+06        -0.97623E+08         0.00000E+00
    0.00000E+00         0.00000E+00        -0.56506E+08
 
   -0.56433E+08         0.61354E+06         0.00000E+00
    0.61354E+06        -0.97630E+08         0.00000E+00
    0.00000E+00         0.00000E+00        -0.56429E+08
 
   -0.56357E+08         0.60939E+06         0.00000E+00
    0.60939E+06        -0.97637E+08         0.00000E+00
    0.00000E+00         0.00000E+00        -0.56352E+08
 
   -0.56280E+08         0.60397E+06         0.00000E+00
    0.60397E+06        -0.97646E+08         0.00000E+00
    0.00000E+00         0.00000E+00        -0.56274E+08
 
   -0.56203E+08         0.59720E+06         0.00000E+00
    0.59720E+06        -0.97655E+08         0.00000E+00
    0.00000E+00         0.00000E+00        -0.56196E+08
 
   -0.56126E+08         0.58899E+06         0.00000E+00
    0.58899E+06        -0.97664E+08         0.00000E+00
    0.00000E+00         0.00000E+00        -0.56117E+08
 
   -0.56048E+08         0.57927E+06         0.00000E+00
    0.57927E+06        -0.97675E+08         0.00000E+00
    0.00000E+00         0.00000E+00        -0.56038E+08
 
   -0.55970E+08         0.56798E+06         0.00000E+00
    0.56798E+06        -0.97687E+08         0.00000E+00
    0.00000E+00         0.00000E+00        -0.55958E+08
 
   -0.55892E+08         0.55506E+06         0.00000E+00
    0.55506E+06        -0.97699E+08         0.00000E+00
    0.00000E+00         0.00000E+00        -0.55878E+08
 
   -0.55813E+08         0.54048E+06         0.00000E+00
    0.54048E+06        -0.97712E+08         0.00000E+00
    0.00000E+00         0.00000E+00        -0.55798E+08
 
   -0.55734E+08         0.52420E+06         0.00000E+00
    0.52420E+06        -0.97726E+08         0.00000E+00
    0.00000E+00         0.00000E+00        -0.55717E+08
 
   -0.55654E+08         0.50621E+06         0.00000E+00
    0.50621E+06        -0.97741E+08         0.00000E+00
    0.00000E+00         0.00000E+00        -0.55636E+08
 
   -0.55574E+08         0.48651E+06         0.00000E+00
    0.48651E+06        -0.97755E+08         0.00000E+00
    0.00000E+00         0.00000E+00        -0.55554E+08
 
   -0.55494E+08         0.46509E+06         0.00000E+00
    0.46509E+06        -0.97770E+08         0.00000E+00
    0.00000E+00         0.00000E+00        -0.55471E+08
 
   -0.55412E+08         0.44193E+06         0.00000E+00
    0.44193E+06        -0.97783E+08         0.00000E+00
    0.00000E+00         0.00000E+00        -0.55388E+08
 
   -0.55329E+08         0.41697E+06         0.00000E+00
    0.41697E+06        -0.97795E+08         0.00000E+00
    0.00000E+00         0.00000E+00        -0.55303E+08
 
   -0.55245E+08         0.39003E+06         0.00000E+00
    0.39003E+06        -0.97803E+08         0.00000E+00
    0.00000E+00         0.00000E+00        -0.55217E+08
 
   -0.55159E+08         0.36077E+06         0.00000E+00
    0.36077E+06        -0.97807E+08         0.00000E+00
    0.00000E+00         0.00000E+00        -0.55129E+08
 
   -0.55072E+08         0.32854E+06         0.00000E+00
    0.32854E+06        -0.97806E+08         0.00000E+00
    0.00000E+00         0.00000E+00        -0.55038E+08
 
   -0.54983E+08         0.29221E+06         0.00000E+00
    0.29221E+06        -0.97795E+08         0.00000E+00
    0.00000E+00         0.00000E+00        -0.54944E+08
 
   -0.54892E+08         0.24988E+06         0.00000E+00
    0.24988E+06        -0.97774E+08         0.00000E+00
    0.00000E+00         0.00000E+00        -0.54846E+08
 
   -0.54802E+08         0.19860E+06         0.00000E+00
    0.19860E+06        -0.97740E+08         0.00000E+00
    0.00000E+00         0.00000E+00        -0.54744E+08
 
   -0.54716E+08         0.13177E+06         0.00000E+00
    0.13177E+06        -0.97686E+08         0.00000E+00
    0.00000E+00         0.00000E+00        -0.54637E+08
 
   -0.54654E+08         0.46625E+05         0.00000E+00
    0.46625E+05        -0.97610E+08         0.00000E+00
    0.00000E+00         0.00000E+00        -0.54531E+08
 
   -0.59744E+08         0.11814E+05         0.00000E+00
    0.11814E+05        -0.97582E+08         0.00000E+00
    0.00000E+00         0.00000E+00        -0.59789E+08
 
   -0.59731E+08         0.34385E+05         0.00000E+00
    0.34385E+05        -0.97563E+08         0.00000E+00
    0.00000E+00         0.00000E+00        -0.59763E+08
 
   -0.59712E+08         0.53921E+05         0.00000E+00
    0.53921E+05        -0.97548E+08         0.00000E+00
    0.00000E+00         0.00000E+00        -0.59737E+08
 
   -0.59690E+08         0.70191E+05         0.00000E+00
    0.70191E+05        -0.97539E+08         0.00000E+00
    0.00000E+00         0.00000E+00        -0.59712E+08
 
   -0.59668E+08         0.84381E+05         0.00000E+00
    0.84381E+05        -0.97533E+08         0.00000E+00
    0.00000E+00         0.00000E+00        -0.59687E+08
 
   -0.59645E+08         0.97236E+05         0.00000E+00
    0.97236E+05        -0.97530E+08         0.00000E+00
    0.00000E+00         0.00000E+00        -0.59663E+08
 
   -0.59623E+08         0.10919E+06         0.00000E+00
    0.10919E+06        -0.97529E+08         0.00000E+00
    0.00000E+00         0.00000E+00        -0.59639E+08
 
   -0.59601E+08         0.12053E+06         0.00000E+00
    0.12053E+06        -0.97530E+08         0.00000E+00
    0.00000E+00         0.00000E+00        -0.59616E+08
 
   -0.59578E+08         0.13142E+06         0.00000E+00
    0.13142E+06        -0.97532E+08         0.00000E+00
    0.00000E+00         0.00000E+00        -0.59594E+08
 
   -0.59556E+08         0.14195E+06         0.00000E+00
    0.14195E+06        -0.97534E+08         0.00000E+00
    0.00000E+00         0.00000E+00        -0.59571E+08
 
   -0.59534E+08         0.15217E+06         0.00000E+00
    0.15217E+06        -0.97537E+08         0.00000E+00
    0.00000E+00         0.00000E+00        -0.59548E+08
 
   -0.59511E+08         0.16211E+06         0.00000E+00
    0.16211E+06        -0.97540E+08         0.00000E+00
    0.00000E+00         0.00000E+00        -0.59525E+08
 
   -0.59488E+08         0.17178E+06         0.00000E+00
    0.17178E+06        -0.97543E+08         0.00000E+00
    0.00000E+00         0.00000E+00        -0.59502E+08
 
   -0.59465E+08         0.18118E+06         0.00000E+00
    0.18118E+06        -0.97546E+08         0.00000E+00
    0.00000E+00         0.00000E+00        -0.59478E+08
 
   -0.59441E+08         0.19034E+06         0.00000E+00
    0.19034E+06        -0.97548E+08         0.00000E+00
    0.00000E+00         0.00000E+00        -0.59454E+08
 
   -0.59417E+08         0.19925E+06         0.00000E+00
    0.19925E+06        -0.97551E+08         0.00000E+00
    0.00000E+00         0.00000E+00        -0.59430E+08
 
   -0.59393E+08         0.20794E+06         0.00000E+00
    0.20794E+06        -0.97553E+08         0.00000E+00
    0.00000E+00         0.00000E+00        -0.59405E+08
 
   -0.59368E+08         0.21641E+06         0.00000E+00
    0.21641E+06        -0.97555E+08         0.00000E+00
    0.00000E+00         0.00000E+00        -0.59380E+08
 
   -0.59342E+08         0.22468E+06         0.00000E+00
    0.22468E+06        -0.97557E+08         0.00000E+00
    0.00000E+00         0.00000E+00        -0.59354E+08
 
   -0.59316E+08         0.23277E+06         0.00000E+00
    0.23277E+06        -0.97558E+08         0.00000E+00
    0.00000E+00         0.00000E+00        -0.59328E+08
 
   -0.59290E+08         0.24070E+06         0.00000E+00
    0.24070E+06        -0.97560E+08         0.00000E+00
    0.00000E+00         0.00000E+00        -0.59301E+08
 
   -0.59262E+08         0.24849E+06         0.00000E+00
    0.24849E+06        -0.97561E+08         0.00000E+00
    0.00000E+00         0.00000E+00        -0.59274E+08
 
   -0.59235E+08         0.25616E+06         0.00000E+00
    0.25616E+06        -0.97562E+08         0.00000E+00
    0.00000E+00         0.00000E+00        -0.59246E+08
 
   -0.59206E+08         0.26373E+06         0.00000E+00
    0.26373E+06        -0.97563E+08         0.00000E+00
    0.00000E+00         0.00000E+00        -0.59217E+08
 
   -0.59177E+08         0.27122E+06         0.00000E+00
    0.27122E+06        -0.97563E+08         0.00000E+00
    0.00000E+00         0.00000E+00        -0.59188E+08
 
   -0.59148E+08         0.27866E+06         0.00000E+00
    0.27866E+06        -0.97564E+08         0.00000E+00
    0.00000E+00         0.00000E+00        -0.59158E+08
 
   -0.59117E+08         0.28604E+06         0.00000E+00
    0.28604E+06        -0.97564E+08         0.00000E+00
    0.00000E+00         0.00000E+00        -0.59128E+08
 
   -0.59086E+08         0.29340E+06         0.00000E+00
    0.29340E+06        -0.97564E+08         0.00000E+00
    0.00000E+00         0.00000E+00        -0.59097E+08
 
   -0.59055E+08         0.30075E+06         0.00000E+00
    0.30075E+06        -0.97565E+08         0.00000E+00
    0.00000E+00         0.00000E+00        -0.59065E+08
 
   -0.59022E+08         0.30809E+06         0.00000E+00
    0.30809E+06        -0.97565E+08         0.00000E+00
    0.00000E+00         0.00000E+00        -0.59033E+08
 
   -0.58989E+08         0.31545E+06         0.00000E+00
    0.31545E+06        -0.97565E+08         0.00000E+00
    0.00000E+00         0.00000E+00        -0.59000E+08
 
   -0.58956E+08         0.32282E+06         0.00000E+00
    0.32282E+06        -0.97565E+08         0.00000E+00
    0.00000E+00         0.00000E+00        -0.58966E+08
 
   -0.58921E+08         0.33023E+06         0.00000E+00
    0.33023E+06        -0.97565E+08         0.00000E+00
    0.00000E+00         0.00000E+00        -0.58932E+08
 
   -0.58886E+08         0.33767E+06         0.00000E+00
    0.33767E+06        -0.97565E+08         0.00000E+00
    0.00000E+00         0.00000E+00        -0.58897E+08
 
   -0.58850E+08         0.34516E+06         0.00000E+00
    0.34516E+06        -0.97565E+08         0.00000E+00
    0.00000E+00         0.00000E+00        -0.58861E+08
 
   -0.58813E+08         0.35269E+06         0.00000E+00
    0.35269E+06        -0.97565E+08         0.00000E+00
    0.00000E+00         0.00000E+00        -0.58824E+08
 
   -0.58776E+08         0.36028E+06         0.00000E+00
    0.36028E+06        -0.97564E+08         0.00000E+00
    0.00000E+00         0.00000E+00        -0.58787E+08
 
   -0.58737E+08         0.36792E+06         0.00000E+00
    0.36792E+06        -0.97564E+08         0.00000E+00
    0.00000E+00         0.00000E+00        -0.58749E+08
 
   -0.58698E+08         0.37561E+06         0.00000E+00
    0.37561E+06        -0.97564E+08         0.00000E+00
    0.00000E+00         0.00000E+00        -0.58709E+08
 
   -0.58658E+08         0.38336E+06         0.00000E+00
    0.38336E+06        -0.97564E+08         0.00000E+00
    0.00000E+00         0.00000E+00        -0.58669E+08
 
   -0.58617E+08         0.39116E+06         0.00000E+00
    0.39116E+06        -0.97564E+08         0.00000E+00
    0.00000E+00         0.00000E+00        -0.58629E+08
 
   -0.58575E+08         0.39902E+06         0.00000E+00
    0.39902E+06        -0.97564E+08         0.00000E+00
    0.00000E+00         0.00000E+00        -0.58587E+08
 
   -0.58533E+08         0.40692E+06         0.00000E+00
    0.40692E+06        -0.97564E+08         0.00000E+00
    0.00000E+00         0.00000E+00        -0.58544E+08
 
   -0.58489E+08         0.41487E+06         0.00000E+00
    0.41487E+06        -0.97564E+08         0.00000E+00
    0.00000E+00         0.00000E+00        -0.58501E+08
 
   -0.58445E+08         0.42286E+06         0.00000E+00
    0.42286E+06        -0.97564E+08         0.00000E+00
    0.00000E+00         0.00000E+00        -0.58457E+08
 
   -0.58399E+08         0.43089E+06         0.00000E+00
    0.43089E+06        -0.97563E+08         0.00000E+00
    0.00000E+00         0.00000E+00        -0.58411E+08
 
   -0.58353E+08         0.43894E+06         0.00000E+00
    0.43894E+06        -0.97564E+08         0.00000E+00
    0.00000E+00         0.00000E+00        -0.58365E+08
 
   -0.58306E+08         0.44701E+06         0.00000E+00
    0.44701E+06        -0.97564E+08         0.00000E+00
    0.00000E+00         0.00000E+00        -0.58318E+08
 
   -0.58257E+08         0.45509E+06         0.00000E+00
    0.45509E+06        -0.97564E+08         0.00000E+00
    0.00000E+00         0.00000E+00        -0.58270E+08
 
   -0.58208E+08         0.46317E+06         0.00000E+00
    0.46317E+06        -0.97564E+08         0.00000E+00
    0.00000E+00         0.00000E+00        -0.58220E+08
 
   -0.58158E+08         0.47123E+06         0.00000E+00
    0.47123E+06        -0.97564E+08         0.00000E+00
    0.00000E+00         0.00000E+00        -0.58170E+08
 
   -0.58107E+08         0.47928E+06         0.00000E+00
    0.47928E+06        -0.97564E+08         0.00000E+00
    0.00000E+00         0.00000E+00        -0.58119E+08
 
   -0.58055E+08         0.48728E+06         0.00000E+00
    0.48728E+06        -0.97565E+08         0.00000E+00
    0.00000E+00         0.00000E+00        -0.58067E+08
 
   -0.58002E+08         0.49523E+06         0.00000E+00
    0.49523E+06        -0.97565E+08         0.00000E+00
    0.00000E+00         0.00000E+00        -0.58013E+08
 
   -0.57947E+08         0.50311E+06         0.00000E+00
    0.50311E+06        -0.97566E+08         0.00000E+00
    0.00000E+00         0.00000E+00        -0.57959E+08
 
   -0.57892E+08         0.51090E+06         0.00000E+00
    0.51090E+06        -0.97566E+08         0.00000E+00
    0.00000E+00         0.00000E+00        -0.57904E+08
 
   -0.57836E+08         0.51859E+06         0.00000E+00
    0.51859E+06        -0.97567E+08         0.00000E+00
    0.00000E+00         0.00000E+00        -0.57847E+08
 
   -0.57779E+08         0.52614E+06         0.00000E+00
    0.52614E+06        -0.97568E+08         0.00000E+00
    0.00000E+00         0.00000E+00        -0.57790E+08
 
   -0.57720E+08         0.53355E+06         0.00000E+00
    0.53355E+06        -0.97569E+08         0.00000E+00
    0.00000E+00         0.00000E+00        -0.57731E+08
 
   -0.57661E+08         0.54078E+06         0.00000E+00
    0.54078E+06        -0.97570E+08         0.00000E+00
    0.00000E+00         0.00000E+00        -0.57672E+08
 
   -0.57601E+08         0.54781E+06         0.00000E+00
    0.54781E+06        -0.97571E+08         0.00000E+00
    0.00000E+00         0.00000E+00        -0.57611E+08
 
   -0.57539E+08         0.55461E+06         0.00000E+00
    0.55461E+06        -0.97572E+08         0.00000E+00
    0.00000E+00         0.00000E+00        -0.57550E+08
 
   -0.57477E+08         0.56116E+06         0.00000E+00
    0.56116E+06        -0.97574E+08         0.00000E+00
    0.00000E+00         0.00000E+00        -0.57487E+08
 
   -0.57414E+08         0.56740E+06         0.00000E+00
    0.56740E+06        -0.97576E+08         0.00000E+00
    0.00000E+00         0.00000E+00        -0.57423E+08
 
   -0.57349E+08         0.57332E+06         0.00000E+00
    0.57332E+06        -0.97577E+08         0.00000E+00
    0.00000E+00         0.00000E+00        -0.57358E+08
 
   -0.57284E+08         0.57888E+06         0.00000E+00
    0.57888E+06        -0.97580E+08         0.00000E+00
    0.00000E+00         0.00000E+00        -0.57292E+08
 
   -0.57218E+08         0.58402E+06         0.00000E+00
    0.58402E+06        -0.97582E+08         0.00000E+00
    0.00000E+00         0.00000E+00        -0.57226E+08
 
   -0.57151E+08         0.58872E+06         0.00000E+00
    0.58872E+06        -0.97584E+08         0.00000E+00
    0.00000E+00         0.00000E+00        -0.57158E+08
 
   -0.57083E+08         0.59291E+06         0.00000E+00
    0.59291E+06        -0.97587E+08         0.00000E+00
    0.00000E+00         0.00000E+00        -0.57089E+08
 
   -0.57014E+08         0.59656E+06         0.00000E+00
    0.59656E+06        -0.97590E+08         0.00000E+00
    0.00000E+00         0.00000E+00        -0.57019E+08
 
   -0.56944E+08         0.59960E+06         0.00000E+00
    0.59960E+06        -0.97594E+08         0.00000E+00
    0.00000E+00         0.00000E+00        -0.56948E+08
 
   -0.56873E+08         0.60197E+06         0.00000E+00
    0.60197E+06        -0.97597E+08         0.00000E+00
    0.00000E+00         0.00000E+00        -0.56877E+08
 
   -0.56802E+08         0.60362E+06         0.00000E+00
    0.60362E+06        -0.97602E+08         0.00000E+00
    0.00000E+00         0.00000E+00        -0.56804E+08
 
   -0.56730E+08         0.60447E+06         0.00000E+00
    0.60447E+06        -0.97606E+08         0.00000E+00
    0.00000E+00         0.00000E+00        -0.56731E+08
 
   -0.56657E+08         0.60446E+06         0.00000E+00
    0.60446E+06        -0.97611E+08         0.00000E+00
    0.00000E+00         0.00000E+00        -0.56657E+08
 
   -0.56583E+08         0.60351E+06         0.00000E+00
    0.60351E+06        -0.97617E+08         0.00000E+00
    0.00000E+00         0.00000E+00        -0.56582E+08
 
   -0.56509E+08         0.60154E+06         0.00000E+00
    0.60154E+06        -0.97623E+08         0.00000E+00
    0.00000E+00         0.00000E+00        -0.56506E+08
 
   -0.56434E+08         0.59847E+06         0.00000E+00
    0.59847E+06        -0.97629E+08         0.00000E+00
    0.00000E+00         0.00000E+00        -0.56430E+08
 
   -0.56359E+08         0.59422E+06         0.00000E+00
    0.59422E+06        -0.97636E+08         0.00000E+00
    0.00000E+00         0.00000E+00        -0.56353E+08
 
   -0.56283E+08         0.58870E+06         0.00000E+00
    0.58870E+06        -0.97644E+08         0.00000E+00
    0.00000E+00         0.00000E+00        -0.56275E+08
 
   -0.56207E+08         0.58184E+06         0.00000E+00
    0.58184E+06        -0.97653E+08         0.00000E+00
    0.00000E+00         0.00000E+00        -0.56197E+08
 
   -0.56130E+08         0.57356E+06         0.00000E+00
    0.57356E+06        -0.97663E+08         0.00000E+00
    0.00000E+00         0.00000E+00        -0.56118E+08
 
   -0.56053E+08         0.56377E+06         0.00000E+00
    0.56377E+06        -0.97673E+08         0.00000E+00
    0.00000E+00         0.00000E+00        -0.56039E+08
 
   -0.55976E+08         0.55241E+06         0.00000E+00
    0.55241E+06        -0.97684E+08         0.00000E+00
    0.00000E+00         0.00000E+00        -0.55959E+08
 
   -0.55898E+08         0.53943E+06         0.00000E+00
    0.53943E+06        -0.97696E+08         0.00000E+00
    0.00000E+00         0.00000E+00        -0.55880E+08
 
   -0.55820E+08         0.52477E+06         0.00000E+00
    0.52477E+06        -0.97709E+08         0.00000E+00
    0.00000E+00         0.00000E+00        -0.55799E+08
 
   -0.55742E+08         0.50841E+06         0.00000E+00
    0.50841E+06        -0.97723E+08         0.00000E+00
    0.00000E+00         0.00000E+00        -0.55719E+08
 
   -0.55663E+08         0.49033E+06         0.00000E+00
    0.49033E+06        -0.97737E+08         0.00000E+00
    0.00000E+00         0.00000E+00        -0.55637E+08
 
   -0.55584E+08         0.47051E+06         0.00000E+00
    0.47051E+06        -0.97751E+08         0.00000E+00
    0.00000E+00         0.00000E+00        -0.55556E+08
 
   -0.55504E+08         0.44894E+06         0.00000E+00
    0.44894E+06        -0.97765E+08         0.00000E+00
    0.00000E+00         0.00000E+00        -0.55473E+08
 
   -0.55424E+08         0.42559E+06         0.00000E+00
    0.42559E+06        -0.97778E+08         0.00000E+00
    0.00000E+00         0.00000E+00        -0.55390E+08
 
   -0.55342E+08         0.40040E+06         0.00000E+00
    0.40040E+06        -0.97789E+08         0.00000E+00
    0.00000E+00         0.00000E+00        -0.55306E+08
 
   -0.55259E+08         0.37318E+06         0.00000E+00
    0.37318E+06        -0.97798E+08         0.00000E+00
    0.00000E+00         0.00000E+00        -0.55220E+08
 
   -0.55175E+08         0.34361E+06         0.00000E+00
    0.34361E+06        -0.97801E+08         0.00000E+00
    0.00000E+00         0.00000E+00        -0.55132E+08
 
   -0.55089E+08         0.31108E+06         0.00000E+00
    0.31108E+06        -0.97799E+08         0.00000E+00
    0.00000E+00         0.00000E+00        -0.55041E+08
 
   -0.55003E+08         0.27451E+06         0.00000E+00
    0.27451E+06        -0.97787E+08         0.00000E+00
    0.00000E+00         0.00000E+00        -0.54948E+08
 
   -0.54916E+08         0.23220E+06         0.00000E+00
    0.23220E+06        -0.97765E+08         0.00000E+00
    0.00000E+00         0.00000E+00        -0.54850E+08
 
   -0.54831E+08         0.18124E+06         0.00000E+00
    0.18124E+06        -0.97728E+08         0.00000E+00
    0.00000E+00         0.00000E+00        -0.54749E+08
 
   -0.54755E+08         0.11698E+06         0.00000E+00
    0.11698E+06        -0.97671E+08         0.00000E+00
    0.00000E+00         0.00000E+00        -0.54645E+08
 
   -0.54704E+08         0.40419E+05         0.00000E+00
    0.40419E+05        -0.97593E+08         0.00000E+00
    0.00000E+00         0.00000E+00        -0.54541E+08
 
   -0.59730E+08         0.10572E+05         0.00000E+00
    0.10572E+05        -0.97587E+08         0.00000E+00
    0.00000E+00         0.00000E+00        -0.59787E+08
 
   -0.59720E+08         0.31205E+05         0.00000E+00
    0.31205E+05        -0.97567E+08         0.00000E+00
    0.00000E+00         0.00000E+00        -0.59761E+08
 
   -0.59703E+08         0.49870E+05         0.00000E+00
    0.49870E+05        -0.97552E+08         0.00000E+00
    0.00000E+00         0.00000E+00        -0.59735E+08
 
   -0.59682E+08         0.65891E+05         0.00000E+00
    0.65891E+05        -0.97542E+08         0.00000E+00
    0.00000E+00         0.00000E+00        -0.59710E+08
 
   -0.59661E+08         0.79977E+05         0.00000E+00
    0.79977E+05        -0.97536E+08         0.00000E+00
    0.00000E+00         0.00000E+00        -0.59686E+08
 
   -0.59639E+08         0.92801E+05         0.00000E+00
    0.92801E+05        -0.97533E+08         0.00000E+00
    0.00000E+00         0.00000E+00        -0.59662E+08
 
   -0.59617E+08         0.10476E+06         0.00000E+00
    0.10476E+06        -0.97532E+08         0.00000E+00
    0.00000E+00         0.00000E+00        -0.59638E+08
 
   -0.59595E+08         0.11610E+06         0.00000E+00
    0.11610E+06        -0.97532E+08         0.00000E+00
    0.00000E+00         0.00000E+00        -0.59615E+08
 
   -0.59573E+08         0.12698E+06         0.00000E+00
    0.12698E+06        -0.97534E+08         0.00000E+00
    0.00000E+00         0.00000E+00        -0.59593E+08
 
   -0.59551E+08         0.13749E+06         0.00000E+00
    0.13749E+06        -0.97536E+08         0.00000E+00
    0.00000E+00         0.00000E+00        -0.59570E+08
 
   -0.59529E+08         0.14768E+06         0.00000E+00
    0.14768E+06        -0.97539E+08         0.00000E+00
    0.00000E+00         0.00000E+00        -0.59547E+08
 
   -0.59506E+08         0.15757E+06         0.00000E+00
    0.15757E+06        -0.97542E+08         0.00000E+00
    0.00000E+00         0.00000E+00        -0.59524E+08
 
   -0.59483E+08         0.16718E+06         0.00000E+00
    0.16718E+06        -0.97545E+08         0.00000E+00
    0.00000E+00         0.00000E+00        -0.59501E+08
 
   -0.59460E+08         0.17651E+06         0.00000E+00
    0.17651E+06        -0.97547E+08         0.00000E+00
    0.00000E+00         0.00000E+00        -0.59477E+08
 
   -0.59437E+08         0.18559E+06         0.00000E+00
    0.18559E+06        -0.97550E+08         0.00000E+00
    0.00000E+00         0.00000E+00        -0.59453E+08
 
   -0.59413E+08         0.19441E+06         0.00000E+00
    0.19441E+06        -0.97552E+08         0.00000E+00
    0.00000E+00         0.00000E+00        -0.59429E+08
 
   -0.59389E+08         0.20300E+06         0.00000E+00
    0.20300E+06        -0.97555E+08         0.00000E+00
    0.00000E+00         0.00000E+00        -0.59404E+08
 
   -0.59364E+08         0.21137E+06         0.00000E+00
    0.21137E+06        -0.97557E+08         0.00000E+00
    0.00000E+00         0.00000E+00        -0.59379E+08
 
   -0.59338E+08         0.21953E+06         0.00000E+00
    0.21953E+06        -0.97558E+08         0.00000E+00
    0.00000E+00         0.00000E+00        -0.59353E+08
 
   -0.59312E+08         0.22751E+06         0.00000E+00
    0.22751E+06        -0.97560E+08         0.00000E+00
    0.00000E+00         0.00000E+00        -0.59327E+08
 
   -0.59286E+08         0.23532E+06         0.00000E+00
    0.23532E+06        -0.97561E+08         0.00000E+00
    0.00000E+00         0.00000E+00        -0.59300E+08
 
   -0.59259E+08         0.24300E+06         0.00000E+00
    0.24300E+06        -0.97562E+08         0.00000E+00
    0.00000E+00         0.00000E+00        -0.59273E+08
 
   -0.59231E+08         0.25055E+06         0.00000E+00
    0.25055E+06        -0.97563E+08         0.00000E+00
    0.00000E+00         0.00000E+00        -0.59245E+08
 
   -0.59202E+08         0.25799E+06         0.00000E+00
    0.25799E+06        -0.97564E+08         0.00000E+00
    0.00000E+00         0.00000E+00        -0.59216E+08
 
   -0.59174E+08         0.26536E+06         0.00000E+00
    0.26536E+06        -0.97565E+08         0.00000E+00
    0.00000E+00         0.00000E+00        -0.59187E+08
 
   -0.59144E+08         0.27266E+06         0.00000E+00
    0.27266E+06        -0.97565E+08         0.00000E+00
    0.00000E+00         0.00000E+00        -0.59158E+08
 
   -0.59114E+08         0.27992E+06         0.00000E+00
    0.27992E+06        -0.97566E+08         0.00000E+00
    0.00000E+00         0.00000E+00        -0.59127E+08
 
   -0.59083E+08         0.28714E+06         0.00000E+00
    0.28714E+06        -0.97566E+08         0.00000E+00
    0.00000E+00         0.00000E+00        -0.59096E+08
 
   -0.59051E+08         0.29435E+06         0.00000E+00
    0.29435E+06        -0.97566E+08         0.00000E+00
    0.00000E+00         0.00000E+00        -0.59065E+08
 
   -0.59019E+08         0.30156E+06         0.00000E+00
    0.30156E+06        -0.97566E+08         0.00000E+00
    0.00000E+00         0.00000E+00        -0.59032E+08
 
   -0.58986E+08         0.30877E+06         0.00000E+00
    0.30877E+06        -0.97566E+08         0.00000E+00
    0.00000E+00         0.00000E+00        -0.58999E+08
 
   -0.58952E+08         0.31600E+06         0.00000E+00
    0.31600E+06        -0.97566E+08         0.00000E+00
    0.00000E+00         0.00000E+00        -0.58966E+08
 
   -0.58917E+08         0.32326E+06         0.00000E+00
    0.32326E+06        -0.97566E+08         0.00000E+00
    0.00000E+00         0.00000E+00        -0.58931E+08
 
   -0.58882E+08         0.33055E+06         0.00000E+00
    0.33055E+06        -0.97566E+08         0.00000E+00
    0.00000E+00         0.00000E+00        -0.58896E+08
 
   -0.58846E+08         0.33788E+06         0.00000E+00
    0.33788E+06        -0.97566E+08         0.00000E+00
    0.00000E+00         0.00000E+00        -0.58860E+08
 
   -0.58809E+08         0.34526E+06         0.00000E+00
    0.34526E+06        -0.97566E+08         0.00000E+00
    0.00000E+00         0.00000E+00        -0.58824E+08
 
   -0.58772E+08         0.35268E+06         0.00000E+00
    0.35268E+06        -0.97566E+08         0.00000E+00
    0.00000E+00         0.00000E+00        -0.58786E+08
 
   -0.58733E+08         0.36016E+06         0.00000E+00
    0.36016E+06        -0.97566E+08         0.00000E+00
    0.00000E+00         0.00000E+00        -0.58748E+08
 
   -0.58694E+08         0.36768E+06         0.00000E+00
    0.36768E+06        -0.97566E+08         0.00000E+00
    0.00000E+00         0.00000E+00        -0.58709E+08
 
   -0.58654E+08         0.37526E+06         0.00000E+00
    0.37526E+06        -0.97566E+08         0.00000E+00
    0.00000E+00         0.00000E+00        -0.58669E+08
 
   -0.58613E+08         0.38290E+06         0.00000E+00
    0.38290E+06        -0.97565E+08         0.00000E+00
    0.00000E+00         0.00000E+00        -0.58628E+08
 
   -0.58571E+08         0.39058E+06         0.00000E+00
    0.39058E+06        -0.97565E+08         0.00000E+00
    0.00000E+00         0.00000E+00        -0.58586E+08
 
   -0.58529E+08         0.39830E+06         0.00000E+00
    0.39830E+06        -0.97565E+08         0.00000E+00
    0.00000E+00         0.00000E+00        -0.58544E+08
 
   -0.58485E+08         0.40607E+06         0.00000E+00
    0.40607E+06        -0.97565E+08         0.00000E+00
    0.00000E+00         0.00000E+00        -0.58500E+08
 
   -0.58441E+08         0.41388E+06         0.00000E+00
    0.41388E+06        -0.97565E+08         0.00000E+00
    0.00000E+00         0.00000E+00        -0.58456E+08
 
   -0.58395E+08         0.42172E+06         0.00000E+00
    0.42172E+06        -0.97565E+08         0.00000E+00
    0.00000E+00         0.00000E+00        -0.58411E+08
 
   -0.58349E+08         0.42958E+06         0.00000E+00
    0.42958E+06        -0.97565E+08         0.00000E+00
    0.00000E+00         0.00000E+00        -0.58364E+08
 
   -0.58302E+08         0.43746E+06         0.00000E+00
    0.43746E+06        -0.97565E+08         0.00000E+00
    0.00000E+00         0.00000E+00        -0.58317E+08
 
   -0.58253E+08         0.44534E+06         0.00000E+00
    0.44534E+06        -0.97565E+08         0.00000E+00
    0.00000E+00         0.00000E+00        -0.58269E+08
 
   -0.58204E+08         0.45323E+06         0.00000E+00
    0.45323E+06        -0.97565E+08         0.00000E+00
    0.00000E+00         0.00000E+00        -0.58220E+08
 
   -0.58154E+08         0.46110E+06         0.00000E+00
    0.46110E+06        -0.97566E+08         0.00000E+00
    0.00000E+00         0.00000E+00        -0.58169E+08
 
   -0.58103E+08         0.46894E+06         0.00000E+00
    0.46894E+06        -0.97566E+08         0.00000E+00
    0.00000E+00         0.00000E+00        -0.58118E+08
 
   -0.58051E+08         0.47675E+06         0.00000E+00
    0.47675E+06        -0.97566E+08         0.00000E+00
    0.00000E+00         0.00000E+00        -0.58066E+08
 
   -0.57997E+08         0.48449E+06         0.00000E+00
    0.48449E+06        -0.97567E+08         0.00000E+00
    0.00000E+00         0.00000E+00        -0.58013E+08
 
   -0.57943E+08         0.49217E+06         0.00000E+00
    0.49217E+06        -0.97567E+08         0.00000E+00
    0.00000E+00         0.00000E+00        -0.57958E+08
 
   -0.57888E+08         0.49976E+06         0.00000E+00
    0.49976E+06        -0.97568E+08         0.00000E+00
    0.00000E+00         0.00000E+00        -0.57903E+08
 
   -0.57832E+08         0.50724E+06         0.00000E+00
    0.50724E+06        -0.97568E+08         0.00000E+00
    0.00000E+00         0.00000E+00        -0.57847E+08
 
   -0.57775E+08         0.51460E+06         0.00000E+00
    0.51460E+06        -0.97569E+08         0.00000E+00
    0.00000E+00         0.00000E+00        -0.57789E+08
 
   -0.57717E+08         0.52180E+06         0.00000E+00
    0.52180E+06        -0.97570E+08         0.00000E+00
    0.00000E+00         0.00000E+00        -0.57731E+08
 
   -0.57657E+08         0.52883E+06         0.00000E+00
    0.52883E+06        -0.97571E+08         0.00000E+00
    0.00000E+00         0.00000E+00        -0.57671E+08
 
   -0.57597E+08         0.53566E+06         0.00000E+00
    0.53566E+06        -0.97572E+08         0.00000E+00
    0.00000E+00         0.00000E+00        -0.57611E+08
 
   -0.57536E+08         0.54226E+06         0.00000E+00
    0.54226E+06        -0.97574E+08         0.00000E+00
    0.00000E+00         0.00000E+00        -0.57549E+08
 
   -0.57474E+08         0.54860E+06         0.00000E+00
    0.54860E+06        -0.97575E+08         0.00000E+00
    0.00000E+00         0.00000E+00        -0.57486E+08
 
   -0.57411E+08         0.55466E+06         0.00000E+00
    0.55466E+06        -0.97577E+08         0.00000E+00
    0.00000E+00         0.00000E+00        -0.57423E+08
 
   -0.57346E+08         0.56038E+06         0.00000E+00
    0.56038E+06        -0.97579E+08         0.00000E+00
    0.00000E+00         0.00000E+00        -0.57358E+08
 
   -0.57281E+08         0.56575E+06         0.00000E+00
    0.56575E+06        -0.97581E+08         0.00000E+00
    0.00000E+00         0.00000E+00        -0.57292E+08
 
   -0.57215E+08         0.57071E+06         0.00000E+00
    0.57071E+06        -0.97583E+08         0.00000E+00
    0.00000E+00         0.00000E+00        -0.57225E+08
 
   -0.57148E+08         0.57522E+06         0.00000E+00
    0.57522E+06        -0.97585E+08         0.00000E+00
    0.00000E+00         0.00000E+00        -0.57157E+08
 
   -0.57081E+08         0.57923E+06         0.00000E+00
    0.57923E+06        -0.97588E+08         0.00000E+00
    0.00000E+00         0.00000E+00        -0.57089E+08
 
   -0.57012E+08         0.58271E+06         0.00000E+00
    0.58271E+06        -0.97591E+08         0.00000E+00
    0.00000E+00         0.00000E+00        -0.57019E+08
 
   -0.56942E+08         0.58558E+06         0.00000E+00
    0.58558E+06        -0.97594E+08         0.00000E+00
    0.00000E+00         0.00000E+00        -0.56948E+08
 
   -0.56872E+08         0.58779E+06         0.00000E+00
    0.58779E+06        -0.97598E+08         0.00000E+00
    0.00000E+00         0.00000E+00        -0.56877E+08
 
   -0.56801E+08         0.58929E+06         0.00000E+00
    0.58929E+06        -0.97602E+08         0.00000E+00
    0.00000E+00         0.00000E+00        -0.56804E+08
 
   -0.56729E+08         0.59000E+06         0.00000E+00
    0.59000E+06        -0.97606E+08         0.00000E+00
    0.00000E+00         0.00000E+00        -0.56731E+08
 
   -0.56657E+08         0.58985E+06         0.00000E+00
    0.58985E+06        -0.97611E+08         0.00000E+00
    0.00000E+00         0.00000E+00        -0.56657E+08
 
   -0.56584E+08         0.58877E+06         0.00000E+00
    0.58877E+06        -0.97616E+08         0.00000E+00
    0.00000E+00         0.00000E+00        -0.56582E+08
 
   -0.56510E+08         0.58669E+06         0.00000E+00
    0.58669E+06        -0.97622E+08         0.00000E+00
    0.00000E+00         0.00000E+00        -0.56506E+08
 
   -0.56436E+08         0.58351E+06         0.00000E+00
    0.58351E+06        -0.97628E+08         0.00000E+00
    0.00000E+00         0.00000E+00        -0.56430E+08
 
   -0.56361E+08         0.57917E+06         0.00000E+00
    0.57917E+06        -0.97635E+08         0.00000E+00
    0.00000E+00         0.00000E+00        -0.56353E+08
 
   -0.56286E+08         0.57357E+06         0.00000E+00
    0.57357E+06        -0.97643E+08         0.00000E+00
    0.00000E+00         0.00000E+00        -0.56275E+08
 
   -0.56210E+08         0.56663E+06         0.00000E+00
    0.56663E+06        -0.97652E+08         0.00000E+00
    0.00000E+00         0.00000E+00        -0.56197E+08
 
   -0.56134E+08         0.55827E+06         0.00000E+00
    0.55827E+06        -0.97661E+08         0.00000E+00
    0.00000E+00         0.00000E+00        -0.56119E+08
 
   -0.56058E+08         0.54842E+06         0.00000E+00
    0.54842E+06        -0.97671E+08         0.00000E+00
    0.00000E+00         0.00000E+00        -0.56040E+08
 
   -0.55982E+08         0.53701E+06         0.00000E+00
    0.53701E+06        -0.97682E+08         0.00000E+00
    0.00000E+00         0.00000E+00        -0.55960E+08
 
   -0.55905E+08         0.52396E+06         0.00000E+00
    0.52396E+06        -0.97693E+08         0.00000E+00
    0.00000E+00         0.00000E+00        -0.55881E+08
 
   -0.55828E+08         0.50924E+06         0.00000E+00
    0.50924E+06        -0.97706E+08         0.00000E+00
    0.00000E+00         0.00000E+00        -0.55800E+08
 
   -0.55750E+08         0.49281E+06         0.00000E+00
    0.49281E+06        -0.97719E+08         0.00000E+00
    0.00000E+00         0.00000E+00        -0.55720E+08
 
   -0.55673E+08         0.47463E+06         0.00000E+00
    0.47463E+06        -0.97733E+08         0.00000E+00
    0.00000E+00         0.00000E+00        -0.55639E+08
 
   -0.55594E+08         0.45469E+06         0.00000E+00
    0.45469E+06        -0.97747E+08         0.00000E+00
    0.00000E+00         0.00000E+00        -0.55557E+08
 
   -0.55515E+08         0.43298E+06         0.00000E+00
    0.43298E+06        -0.97761E+08         0.00000E+00
    0.00000E+00         0.00000E+00        -0.55475E+08
 
   -0.55436E+08         0.40945E+06         0.00000E+00
    0.40945E+06        -0.97773E+08         0.00000E+00
    0.00000E+00         0.00000E+00        -0.55392E+08
 
   -0.55355E+08         0.38405E+06         0.00000E+00
    0.38405E+06        -0.97784E+08         0.00000E+00
    0.00000E+00         0.00000E+00        -0.55308E+08
 
   -0.55273E+08         0.35660E+06         0.00000E+00
    0.35660E+06        -0.97792E+08         0.00000E+00
    0.00000E+00         0.00000E+00        -0.55222E+08
 
   -0.55191E+08         0.32679E+06         0.00000E+00
    0.32679E+06        -0.97795E+08         0.00000E+00
    0.00000E+00         0.00000E+00        -0.55135E+08
 
   -0.55107E+08         0.29406E+06         0.00000E+00
    0.29406E+06        -0.97792E+08         0.00000E+00
    0.00000E+00         0.00000E+00        -0.55044E+08
 
   -0.55023E+08         0.25743E+06         0.00000E+00
    0.25743E+06        -0.97780E+08         0.00000E+00
    0.00000E+00         0.00000E+00        -0.54951E+08
 
   -0.54940E+08         0.21539E+06         0.00000E+00
    0.21539E+06        -0.97756E+08         0.00000E+00
    0.00000E+00         0.00000E+00        -0.54855E+08
 
   -0.54861E+08         0.16530E+06         0.00000E+00
    0.16530E+06        -0.97717E+08         0.00000E+00
    0.00000E+00         0.00000E+00        -0.54755E+08
 
   -0.54792E+08         0.10440E+06         0.00000E+00
    0.10440E+06        -0.97658E+08         0.00000E+00
    0.00000E+00         0.00000E+00        -0.54652E+08
 
   -0.54751E+08         0.35494E+05         0.00000E+00
    0.35494E+05        -0.97578E+08         0.00000E+00
    0.00000E+00         0.00000E+00        -0.54551E+08
 
   -0.59718E+08         0.95461E+04         0.00000E+00
    0.95461E+04        -0.97591E+08         0.00000E+00
    0.00000E+00         0.00000E+00        -0.59784E+08
 
   -0.59709E+08         0.28451E+05         0.00000E+00
    0.28451E+05        -0.97571E+08         0.00000E+00
    0.00000E+00         0.00000E+00        -0.59759E+08
 
   -0.59693E+08         0.46148E+05         0.00000E+00
    0.46148E+05        -0.97555E+08         0.00000E+00
    0.00000E+00         0.00000E+00        -0.59734E+08
 
   -0.59674E+08         0.61794E+05         0.00000E+00
    0.61794E+05        -0.97545E+08         0.00000E+00
    0.00000E+00         0.00000E+00        -0.59709E+08
 
   -0.59654E+08         0.75717E+05         0.00000E+00
    0.75717E+05        -0.97539E+08         0.00000E+00
    0.00000E+00         0.00000E+00        -0.59684E+08
 
   -0.59633E+08         0.88467E+05         0.00000E+00
    0.88467E+05        -0.97535E+08         0.00000E+00
    0.00000E+00         0.00000E+00        -0.59661E+08
 
   -0.59611E+08         0.10039E+06         0.00000E+00
    0.10039E+06        -0.97534E+08         0.00000E+00
    0.00000E+00         0.00000E+00        -0.59637E+08
 
   -0.59590E+08         0.11172E+06         0.00000E+00
    0.11172E+06        -0.97535E+08         0.00000E+00
    0.00000E+00         0.00000E+00        -0.59614E+08
 
   -0.59568E+08         0.12259E+06         0.00000E+00
    0.12259E+06        -0.97536E+08         0.00000E+00
    0.00000E+00         0.00000E+00        -0.59592E+08
 
   -0.59546E+08         0.13307E+06         0.00000E+00
    0.13307E+06        -0.97538E+08         0.00000E+00
    0.00000E+00         0.00000E+00        -0.59569E+08
 
   -0.59524E+08         0.14322E+06         0.00000E+00
    0.14322E+06        -0.97541E+08         0.00000E+00
    0.00000E+00         0.00000E+00        -0.59546E+08
 
   -0.59501E+08         0.15306E+06         0.00000E+00
    0.15306E+06        -0.97544E+08         0.00000E+00
    0.00000E+00         0.00000E+00        -0.59523E+08
 
   -0.59479E+08         0.16261E+06         0.00000E+00
    0.16261E+06        -0.97546E+08         0.00000E+00
    0.00000E+00         0.00000E+00        -0.59500E+08
 
   -0.59456E+08         0.17187E+06         0.00000E+00
    0.17187E+06        -0.97549E+08         0.00000E+00
    0.00000E+00         0.00000E+00        -0.59477E+08
 
   -0.59433E+08         0.18086E+06         0.00000E+00
    0.18086E+06        -0.97552E+08         0.00000E+00
    0.00000E+00         0.00000E+00        -0.59453E+08
 
   -0.59409E+08         0.18959E+06         0.00000E+00
    0.18959E+06        -0.97554E+08         0.00000E+00
    0.00000E+00         0.00000E+00        -0.59428E+08
 
   -0.59384E+08         0.19808E+06         0.00000E+00
    0.19808E+06        -0.97556E+08         0.00000E+00
    0.00000E+00         0.00000E+00        -0.59404E+08
 
   -0.59360E+08         0.20634E+06         0.00000E+00
    0.20634E+06        -0.97558E+08         0.00000E+00
    0.00000E+00         0.00000E+00        -0.59378E+08
 
   -0.59334E+08         0.21440E+06         0.00000E+00
    0.21440E+06        -0.97560E+08         0.00000E+00
    0.00000E+00         0.00000E+00        -0.59353E+08
 
   -0.59308E+08         0.22226E+06         0.00000E+00
    0.22226E+06        -0.97561E+08         0.00000E+00
    0.00000E+00         0.00000E+00        -0.59326E+08
 
   -0.59282E+08         0.22996E+06         0.00000E+00
    0.22996E+06        -0.97563E+08         0.00000E+00
    0.00000E+00         0.00000E+00        -0.59300E+08
 
   -0.59255E+08         0.23751E+06         0.00000E+00
    0.23751E+06        -0.97564E+08         0.00000E+00
    0.00000E+00         0.00000E+00        -0.59272E+08
 
   -0.59227E+08         0.24494E+06         0.00000E+00
    0.24494E+06        -0.97565E+08         0.00000E+00
    0.00000E+00         0.00000E+00        -0.59244E+08
 
   -0.59199E+08         0.25226E+06         0.00000E+00
    0.25226E+06        -0.97565E+08         0.00000E+00
    0.00000E+00         0.00000E+00        -0.59216E+08
 
   -0.59170E+08         0.25950E+06         0.00000E+00
    0.25950E+06        -0.97566E+08         0.00000E+00
    0.00000E+00         0.00000E+00        -0.59187E+08
 
   -0.59140E+08         0.26667E+06         0.00000E+00
    0.26667E+06        -0.97567E+08         0.00000E+00
    0.00000E+00         0.00000E+00        -0.59157E+08
 
   -0.59110E+08         0.27380E+06         0.00000E+00
    0.27380E+06        -0.97567E+08         0.00000E+00
    0.00000E+00         0.00000E+00        -0.59127E+08
 
   -0.59079E+08         0.28088E+06         0.00000E+00
    0.28088E+06        -0.97567E+08         0.00000E+00
    0.00000E+00         0.00000E+00        -0.59096E+08
 
   -0.59047E+08         0.28795E+06         0.00000E+00
    0.28795E+06        -0.97568E+08         0.00000E+00
    0.00000E+00         0.00000E+00        -0.59064E+08
 
   -0.59015E+08         0.29502E+06         0.00000E+00
    0.29502E+06        -0.97568E+08         0.00000E+00
    0.00000E+00         0.00000E+00        -0.59032E+08
 
   -0.58982E+08         0.30209E+06         0.00000E+00
    0.30209E+06        -0.97568E+08         0.00000E+00
    0.00000E+00         0.00000E+00        -0.58999E+08
 
   -0.58948E+08         0.30917E+06         0.00000E+00
    0.30917E+06        -0.97568E+08         0.00000E+00
    0.00000E+00         0.00000E+00        -0.58965E+08
 
   -0.58914E+08         0.31628E+06         0.00000E+00
    0.31628E+06        -0.97568E+08         0.00000E+00
    0.00000E+00         0.00000E+00        -0.58931E+08
 
   -0.58878E+08         0.32342E+06         0.00000E+00
    0.32342E+06        -0.97568E+08         0.00000E+00
    0.00000E+00         0.00000E+00        -0.58896E+08
 
   -0.58842E+08         0.33060E+06         0.00000E+00
    0.33060E+06        -0.97568E+08         0.00000E+00
    0.00000E+00         0.00000E+00        -0.58860E+08
 
   -0.58806E+08         0.33782E+06         0.00000E+00
    0.33782E+06        -0.97568E+08         0.00000E+00
    0.00000E+00         0.00000E+00        -0.58823E+08
 
   -0.58768E+08         0.34508E+06         0.00000E+00
    0.34508E+06        -0.97567E+08         0.00000E+00
    0.00000E+00         0.00000E+00        -0.58785E+08
 
   -0.58729E+08         0.35239E+06         0.00000E+00
    0.35239E+06        -0.97567E+08         0.00000E+00
    0.00000E+00         0.00000E+00        -0.58747E+08
 
   -0.58690E+08         0.35975E+06         0.00000E+00
    0.35975E+06        -0.97567E+08         0.00000E+00
    0.00000E+00         0.00000E+00        -0.58708E+08
 
   -0.58650E+08         0.36716E+06         0.00000E+00
    0.36716E+06        -0.97567E+08         0.00000E+00
    0.00000E+00         0.00000E+00        -0.58668E+08
 
   -0.58609E+08         0.37462E+06         0.00000E+00
    0.37462E+06        -0.97567E+08         0.00000E+00
    0.00000E+00         0.00000E+00        -0.58627E+08
 
   -0.58567E+08         0.38213E+06         0.00000E+00
    0.38213E+06        -0.97567E+08         0.00000E+00
    0.00000E+00         0.00000E+00        -0.58586E+08
 
   -0.58525E+08         0.38968E+06         0.00000E+00
    0.38968E+06        -0.97567E+08         0.00000E+00
    0.00000E+00         0.00000E+00        -0.58543E+08
 
   -0.58481E+08         0.39726E+06         0.00000E+00
    0.39726E+06        -0.97567E+08         0.00000E+00
    0.00000E+00         0.00000E+00        -0.58500E+08
 
   -0.58437E+08         0.40489E+06         0.00000E+00
    0.40489E+06        -0.97567E+08         0.00000E+00
    0.00000E+00         0.00000E+00        -0.58455E+08
 
   -0.58391E+08         0.41254E+06         0.00000E+00
    0.41254E+06        -0.97567E+08         0.00000E+00
    0.00000E+00         0.00000E+00        -0.58410E+08
 
   -0.58345E+08         0.42022E+06         0.00000E+00
    0.42022E+06        -0.97567E+08         0.00000E+00
    0.00000E+00         0.00000E+00        -0.58363E+08
 
   -0.58298E+08         0.42790E+06         0.00000E+00
    0.42790E+06        -0.97567E+08         0.00000E+00
    0.00000E+00         0.00000E+00        -0.58316E+08
 
   -0.58249E+08         0.43560E+06         0.00000E+00
    0.43560E+06        -0.97567E+08         0.00000E+00
    0.00000E+00         0.00000E+00        -0.58268E+08
 
   -0.58200E+08         0.44329E+06         0.00000E+00
    0.44329E+06        -0.97567E+08         0.00000E+00
    0.00000E+00         0.00000E+00        -0.58219E+08
 
   -0.58150E+08         0.45096E+06         0.00000E+00
    0.45096E+06        -0.97567E+08         0.00000E+00
    0.00000E+00         0.00000E+00        -0.58169E+08
 
   -0.58099E+08         0.45861E+06         0.00000E+00
    0.45861E+06        -0.97567E+08         0.00000E+00
    0.00000E+00         0.00000E+00        -0.58117E+08
 
   -0.58047E+08         0.46622E+06         0.00000E+00
    0.46622E+06        -0.97568E+08         0.00000E+00
    0.00000E+00         0.00000E+00        -0.58065E+08
 
   -0.57993E+08         0.47377E+06         0.00000E+00
    0.47377E+06        -0.97568E+08         0.00000E+00
    0.00000E+00         0.00000E+00        -0.58012E+08
 
   -0.57939E+08         0.48124E+06         0.00000E+00
    0.48124E+06        -0.97569E+08         0.00000E+00
    0.00000E+00         0.00000E+00        -0.57958E+08
 
   -0.57884E+08         0.48863E+06         0.00000E+00
    0.48863E+06        -0.97569E+08         0.00000E+00
    0.00000E+00         0.00000E+00        -0.57902E+08
 
   -0.57828E+08         0.49591E+06         0.00000E+00
    0.49591E+06        -0.97570E+08         0.00000E+00
    0.00000E+00         0.00000E+00        -0.57846E+08
 
   -0.57771E+08         0.50307E+06         0.00000E+00
    0.50307E+06        -0.97571E+08         0.00000E+00
    0.00000E+00         0.00000E+00        -0.57788E+08
 
   -0.57713E+08         0.51007E+06         0.00000E+00
    0.51007E+06        -0.97572E+08         0.00000E+00
    0.00000E+00         0.00000E+00        -0.57730E+08
 
   -0.57654E+08         0.51690E+06         0.00000E+00
    0.51690E+06        -0.97573E+08         0.00000E+00
    0.00000E+00         0.00000E+00        -0.57670E+08
 
   -0.57594E+08         0.52353E+06         0.00000E+00
    0.52353E+06        -0.97574E+08         0.00000E+00
    0.00000E+00         0.00000E+00        -0.57610E+08
 
   -0.57533E+08         0.52993E+06         0.00000E+00
    0.52993E+06        -0.97575E+08         0.00000E+00
    0.00000E+00         0.00000E+00        -0.57548E+08
 
   -0.57470E+08         0.53608E+06         0.00000E+00
    0.53608E+06        -0.97576E+08         0.00000E+00
    0.00000E+00         0.00000E+00        -0.57486E+08
 
   -0.57407E+08         0.54194E+06         0.00000E+00
    0.54194E+06        -0.97578E+08         0.00000E+00
    0.00000E+00         0.00000E+00        -0.57422E+08
 
   -0.57343E+08         0.54748E+06         0.00000E+00
    0.54748E+06        -0.97580E+08         0.00000E+00
    0.00000E+00         0.00000E+00        -0.57357E+08
 
   -0.57279E+08         0.55265E+06         0.00000E+00
    0.55265E+06        -0.97582E+08         0.00000E+00
    0.00000E+00         0.00000E+00        -0.57291E+08
 
   -0.57213E+08         0.55743E+06         0.00000E+00
    0.55743E+06        -0.97584E+08         0.00000E+00
    0.00000E+00         0.00000E+00        -0.57225E+08
 
   -0.57146E+08         0.56176E+06         0.00000E+00
    0.56176E+06        -0.97586E+08         0.00000E+00
    0.00000E+00         0.00000E+00        -0.57157E+08
 
   -0.57078E+08         0.56561E+06         0.00000E+00
    0.56561E+06        -0.97589E+08         0.00000E+00
    0.00000E+00         0.00000E+00        -0.57088E+08
 
   -0.57010E+08         0.56891E+06         0.00000E+00
    0.56891E+06        -0.97592E+08         0.00000E+00
    0.00000E+00         0.00000E+00        -0.57018E+08
 
   -0.56941E+08         0.57162E+06         0.00000E+00
    0.57162E+06        -0.97595E+08         0.00000E+00
    0.00000E+00         0.00000E+00        -0.56948E+08
 
   -0.56871E+08         0.57369E+06         0.00000E+00
    0.57369E+06        -0.97598E+08         0.00000E+00
    0.00000E+00         0.00000E+00        -0.56876E+08
 
   -0.56800E+08         0.57504E+06         0.00000E+00
    0.57504E+06        -0.97602E+08         0.00000E+00
    0.00000E+00         0.00000E+00        -0.56804E+08
 
   -0.56729E+08         0.57561E+06         0.00000E+00
    0.57561E+06        -0.97606E+08         0.00000E+00
    0.00000E+00         0.00000E+00        -0.56731E+08
 
   -0.56657E+08         0.57533E+06         0.00000E+00
    0.57533E+06        -0.97611E+08         0.00000E+00
    0.00000E+00         0.00000E+00        -0.56657E+08
 
   -0.56584E+08         0.57414E+06         0.00000E+00
    0.57414E+06        -0.97616E+08         0.00000E+00
    0.00000E+00         0.00000E+00        -0.56582E+08
 
   -0.56511E+08         0.57194E+06         0.00000E+00
    0.57194E+06        -0.97622E+08         0.00000E+00
    0.00000E+00         0.00000E+00        -0.56506E+08
 
   -0.56437E+08         0.56867E+06         0.00000E+00
    0.56867E+06        -0.97628E+08         0.00000E+00
    0.00000E+00         0.00000E+00        -0.56430E+08
 
   -0.56363E+08         0.56424E+06         0.00000E+00
    0.56424E+06        -0.97634E+08         0.00000E+00
    0.00000E+00         0.00000E+00        -0.56353E+08
 
   -0.56288E+08         0.55856E+06         0.00000E+00
    0.55856E+06        -0.97642E+08         0.00000E+00
    0.00000E+00         0.00000E+00        -0.56276E+08
 
   -0.56213E+08         0.55156E+06         0.00000E+00
    0.55156E+06        -0.97650E+08         0.00000E+00
    0.00000E+00         0.00000E+00        -0.56198E+08
 
   -0.56138E+08         0.54314E+06         0.00000E+00
    0.54314E+06        -0.97659E+08         0.00000E+00
    0.00000E+00         0.00000E+00        -0.56119E+08
 
   -0.56063E+08         0.53323E+06         0.00000E+00
    0.53323E+06        -0.97669E+08         0.00000E+00
    0.00000E+00         0.00000E+00        -0.56041E+08
 
   -0.55987E+08         0.52176E+06         0.00000E+00
    0.52176E+06        -0.97679E+08         0.00000E+00
    0.00000E+00         0.00000E+00        -0.55961E+08
 
   -0.55911E+08         0.50866E+06         0.00000E+00
    0.50866E+06        -0.97691E+08         0.00000E+00
    0.00000E+00         0.00000E+00        -0.55882E+08
 
   -0.55835E+08         0.49388E+06         0.00000E+00
    0.49388E+06        -0.97703E+08         0.00000E+00
    0.00000E+00         0.00000E+00        -0.55802E+08
 
   -0.55759E+08         0.47738E+06         0.00000E+00
    0.47738E+06        -0.97716E+08         0.00000E+00
    0.00000E+00         0.00000E+00        -0.55721E+08
 
   -0.55682E+08         0.45911E+06         0.00000E+00
    0.45911E+06        -0.97729E+08         0.00000E+00
    0.00000E+00         0.00000E+00        -0.55641E+08
 
   -0.55604E+08         0.43907E+06         0.00000E+00
    0.43907E+06        -0.97743E+08         0.00000E+00
    0.00000E+00         0.00000E+00        -0.55559E+08
 
   -0.55526E+08         0.41722E+06         0.00000E+00
    0.41722E+06        -0.97756E+08         0.00000E+00
    0.00000E+00         0.00000E+00        -0.55477E+08
 
   -0.55448E+08         0.39353E+06         0.00000E+00
    0.39353E+06        -0.97768E+08         0.00000E+00
    0.00000E+00         0.00000E+00        -0.55394E+08
 
   -0.55368E+08         0.36794E+06         0.00000E+00
    0.36794E+06        -0.97779E+08         0.00000E+00
    0.00000E+00         0.00000E+00        -0.55310E+08
 
   -0.55288E+08         0.34029E+06         0.00000E+00
    0.34029E+06        -0.97786E+08         0.00000E+00
    0.00000E+00         0.00000E+00        -0.55225E+08
 
   -0.55207E+08         0.31031E+06         0.00000E+00
    0.31031E+06        -0.97789E+08         0.00000E+00
    0.00000E+00         0.00000E+00        -0.55138E+08
 
   -0.55125E+08         0.27749E+06         0.00000E+00
    0.27749E+06        -0.97785E+08         0.00000E+00
    0.00000E+00         0.00000E+00        -0.55048E+08
 
   -0.55044E+08         0.24098E+06         0.00000E+00
    0.24098E+06        -0.97772E+08         0.00000E+00
    0.00000E+00         0.00000E+00        -0.54955E+08
 
   -0.54965E+08         0.19942E+06         0.00000E+00
    0.19942E+06        -0.97747E+08         0.00000E+00
    0.00000E+00         0.00000E+00        -0.54859E+08
 
   -0.54890E+08         0.15069E+06         0.00000E+00
    0.15069E+06        -0.97706E+08         0.00000E+00
    0.00000E+00         0.00000E+00        -0.54760E+08
 
   -0.54829E+08         0.93541E+05         0.00000E+00
    0.93541E+05        -0.97645E+08         0.00000E+00
    0.00000E+00         0.00000E+00        -0.54659E+08
 
   -0.54793E+08         0.31443E+05         0.00000E+00
    0.31443E+05        -0.97564E+08         0.00000E+00
    0.00000E+00         0.00000E+00        -0.54559E+08
 
   -0.59706E+08         0.86743E+04         0.00000E+00
    0.86743E+04        -0.97594E+08         0.00000E+00
    0.00000E+00         0.00000E+00        -0.59782E+08
 
   -0.59698E+08         0.26031E+05         0.00000E+00
    0.26031E+05        -0.97574E+08         0.00000E+00
    0.00000E+00         0.00000E+00        -0.59757E+08
 
   -0.59684E+08         0.42724E+05         0.00000E+00
    0.42724E+05        -0.97559E+08         0.00000E+00
    0.00000E+00         0.00000E+00        -0.59732E+08
 
   -0.59667E+08         0.57897E+05         0.00000E+00
    0.57897E+05        -0.97548E+08         0.00000E+00
    0.00000E+00         0.00000E+00        -0.59707E+08
 
   -0.59647E+08         0.71599E+05         0.00000E+00
    0.71599E+05        -0.97541E+08         0.00000E+00
    0.00000E+00         0.00000E+00        -0.59683E+08
 
   -0.59626E+08         0.84235E+05         0.00000E+00
    0.84235E+05        -0.97538E+08         0.00000E+00
    0.00000E+00         0.00000E+00        -0.59659E+08
 
   -0.59605E+08         0.96103E+05         0.00000E+00
    0.96103E+05        -0.97536E+08         0.00000E+00
    0.00000E+00         0.00000E+00        -0.59636E+08
 
   -0.59584E+08         0.10740E+06         0.00000E+00
    0.10740E+06        -0.97537E+08         0.00000E+00
    0.00000E+00         0.00000E+00        -0.59613E+08
 
   -0.59562E+08         0.11824E+06         0.00000E+00
    0.11824E+06        -0.97538E+08         0.00000E+00
    0.00000E+00         0.00000E+00        -0.59591E+08
 
   -0.59541E+08         0.12869E+06         0.00000E+00
    0.12869E+06        -0.97540E+08         0.00000E+00
    0.00000E+00         0.00000E+00        -0.59568E+08
 
   -0.59519E+08         0.13880E+06         0.00000E+00
    0.13880E+06        -0.97543E+08         0.00000E+00
    0.00000E+00         0.00000E+00        -0.59545E+08
 
   -0.59497E+08         0.14859E+06         0.00000E+00
    0.14859E+06        -0.97546E+08         0.00000E+00
    0.00000E+00         0.00000E+00        -0.59522E+08
 
   -0.59474E+08         0.15807E+06         0.00000E+00
    0.15807E+06        -0.97548E+08         0.00000E+00
    0.00000E+00         0.00000E+00        -0.59499E+08
 
   -0.59451E+08         0.16726E+06         0.00000E+00
    0.16726E+06        -0.97551E+08         0.00000E+00
    0.00000E+00         0.00000E+00        -0.59476E+08
 
   -0.59428E+08         0.17616E+06         0.00000E+00
    0.17616E+06        -0.97554E+08         0.00000E+00
    0.00000E+00         0.00000E+00        -0.59452E+08
 
   -0.59404E+08         0.18480E+06         0.00000E+00
    0.18480E+06        -0.97556E+08         0.00000E+00
    0.00000E+00         0.00000E+00        -0.59428E+08
 
   -0.59380E+08         0.19319E+06         0.00000E+00
    0.19319E+06        -0.97558E+08         0.00000E+00
    0.00000E+00         0.00000E+00        -0.59403E+08
 
   -0.59356E+08         0.20134E+06         0.00000E+00
    0.20134E+06        -0.97560E+08         0.00000E+00
    0.00000E+00         0.00000E+00        -0.59378E+08
 
   -0.59330E+08         0.20928E+06         0.00000E+00
    0.20928E+06        -0.97562E+08         0.00000E+00
    0.00000E+00         0.00000E+00        -0.59352E+08
 
   -0.59305E+08         0.21703E+06         0.00000E+00
    0.21703E+06        -0.97563E+08         0.00000E+00
    0.00000E+00         0.00000E+00        -0.59326E+08
 
   -0.59278E+08         0.22461E+06         0.00000E+00
    0.22461E+06        -0.97564E+08         0.00000E+00
    0.00000E+00         0.00000E+00        -0.59299E+08
 
   -0.59251E+08         0.23204E+06         0.00000E+00
    0.23204E+06        -0.97565E+08         0.00000E+00
    0.00000E+00         0.00000E+00        -0.59272E+08
 
   -0.59223E+08         0.23934E+06         0.00000E+00
    0.23934E+06        -0.97566E+08         0.00000E+00
    0.00000E+00         0.00000E+00        -0.59244E+08
 
   -0.59195E+08         0.24654E+06         0.00000E+00
    0.24654E+06        -0.97567E+08         0.00000E+00
    0.00000E+00         0.00000E+00        -0.59215E+08
 
   -0.59166E+08         0.25365E+06         0.00000E+00
    0.25365E+06        -0.97568E+08         0.00000E+00
    0.00000E+00         0.00000E+00        -0.59186E+08
 
   -0.59137E+08         0.26069E+06         0.00000E+00
    0.26069E+06        -0.97568E+08         0.00000E+00
    0.00000E+00         0.00000E+00        -0.59156E+08
 
   -0.59106E+08         0.26767E+06         0.00000E+00
    0.26767E+06        -0.97568E+08         0.00000E+00
    0.00000E+00         0.00000E+00        -0.59126E+08
 
   -0.59075E+08         0.27463E+06         0.00000E+00
    0.27463E+06        -0.97569E+08         0.00000E+00
    0.00000E+00         0.00000E+00        -0.59095E+08
 
   -0.59044E+08         0.28156E+06         0.00000E+00
    0.28156E+06        -0.97569E+08         0.00000E+00
    0.00000E+00         0.00000E+00        -0.59063E+08
 
   -0.59011E+08         0.28848E+06         0.00000E+00
    0.28848E+06        -0.97569E+08         0.00000E+00
    0.00000E+00         0.00000E+00        -0.59031E+08
 
   -0.58978E+08         0.29540E+06         0.00000E+00
    0.29540E+06        -0.97569E+08         0.00000E+00
    0.00000E+00         0.00000E+00        -0.58998E+08
 
   -0.58945E+08         0.30234E+06         0.00000E+00
    0.30234E+06        -0.97569E+08         0.00000E+00
    0.00000E+00         0.00000E+00        -0.58964E+08
 
   -0.58910E+08         0.30930E+06         0.00000E+00
    0.30930E+06        -0.97569E+08         0.00000E+00
    0.00000E+00         0.00000E+00        -0.58930E+08
 
   -0.58875E+08         0.31629E+06         0.00000E+00
    0.31629E+06        -0.97569E+08         0.00000E+00
    0.00000E+00         0.00000E+00        -0.58895E+08
 
   -0.58839E+08         0.32331E+06         0.00000E+00
    0.32331E+06        -0.97569E+08         0.00000E+00
    0.00000E+00         0.00000E+00        -0.58859E+08
 
   -0.58802E+08         0.33037E+06         0.00000E+00
    0.33037E+06        -0.97569E+08         0.00000E+00
    0.00000E+00         0.00000E+00        -0.58822E+08
 
   -0.58764E+08         0.33747E+06         0.00000E+00
    0.33747E+06        -0.97569E+08         0.00000E+00
    0.00000E+00         0.00000E+00        -0.58785E+08
 
   -0.58726E+08         0.34462E+06         0.00000E+00
    0.34462E+06        -0.97569E+08         0.00000E+00
    0.00000E+00         0.00000E+00        -0.58746E+08
 
   -0.58686E+08         0.35182E+06         0.00000E+00
    0.35182E+06        -0.97569E+08         0.00000E+00
    0.00000E+00         0.00000E+00        -0.58707E+08
 
   -0.58646E+08         0.35906E+06         0.00000E+00
    0.35906E+06        -0.97569E+08         0.00000E+00
    0.00000E+00         0.00000E+00        -0.58667E+08
 
   -0.58605E+08         0.36634E+06         0.00000E+00
    0.36634E+06        -0.97568E+08         0.00000E+00
    0.00000E+00         0.00000E+00        -0.58627E+08
 
   -0.58563E+08         0.37367E+06         0.00000E+00
    0.37367E+06        -0.97568E+08         0.00000E+00
    0.00000E+00         0.00000E+00        -0.58585E+08
 
   -0.58521E+08         0.38105E+06         0.00000E+00
    0.38105E+06        -0.97568E+08         0.00000E+00
    0.00000E+00         0.00000E+00        -0.58542E+08
 
   -0.58477E+08         0.38845E+06         0.00000E+00
    0.38845E+06        -0.97568E+08         0.00000E+00
    0.00000E+00         0.00000E+00        -0.58499E+08
 
   -0.58433E+08         0.39589E+06         0.00000E+00
    0.39589E+06        -0.97568E+08         0.00000E+00
    0.00000E+00         0.00000E+00        -0.58454E+08
 
   -0.58387E+08         0.40336E+06         0.00000E+00
    0.40336E+06        -0.97568E+08         0.00000E+00
    0.00000E+00         0.00000E+00        -0.58409E+08
 
   -0.58341E+08         0.41085E+06         0.00000E+00
    0.41085E+06        -0.97568E+08         0.00000E+00
    0.00000E+00         0.00000E+00        -0.58363E+08
 
   -0.58293E+08         0.41835E+06         0.00000E+00
    0.41835E+06        -0.97568E+08         0.00000E+00
    0.00000E+00         0.00000E+00        -0.58315E+08
 
   -0.58245E+08         0.42585E+06         0.00000E+00
    0.42585E+06        -0.97568E+08         0.00000E+00
    0.00000E+00         0.00000E+00        -0.58267E+08
 
   -0.58196E+08         0.43335E+06         0.00000E+00
    0.43335E+06        -0.97568E+08         0.00000E+00
    0.00000E+00         0.00000E+00        -0.58218E+08
 
   -0.58146E+08         0.44083E+06         0.00000E+00
    0.44083E+06        -0.97569E+08         0.00000E+00
    0.00000E+00         0.00000E+00        -0.58168E+08
 
   -0.58095E+08         0.44828E+06         0.00000E+00
    0.44828E+06        -0.97569E+08         0.00000E+00
    0.00000E+00         0.00000E+00        -0.58117E+08
 
   -0.58043E+08         0.45569E+06         0.00000E+00
    0.45569E+06        -0.97569E+08         0.00000E+00
    0.00000E+00         0.00000E+00        -0.58064E+08
 
   -0.57989E+08         0.46304E+06         0.00000E+00
    0.46304E+06        -0.97570E+08         0.00000E+00
    0.00000E+00         0.00000E+00        -0.58011E+08
 
   -0.57935E+08         0.47032E+06         0.00000E+00
    0.47032E+06        -0.97570E+08         0.00000E+00
    0.00000E+00         0.00000E+00        -0.57957E+08
 
   -0.57880E+08         0.47751E+06         0.00000E+00
    0.47751E+06        -0.97571E+08         0.00000E+00
    0.00000E+00         0.00000E+00        -0.57902E+08
 
   -0.57824E+08         0.48459E+06         0.00000E+00
    0.48459E+06        -0.97571E+08         0.00000E+00
    0.00000E+00         0.00000E+00        -0.57845E+08
 
   -0.57767E+08         0.49155E+06         0.00000E+00
    0.49155E+06        -0.97572E+08         0.00000E+00
    0.00000E+00         0.00000E+00        -0.57788E+08
 
   -0.57709E+08         0.49835E+06         0.00000E+00
    0.49835E+06        -0.97573E+08         0.00000E+00
    0.00000E+00         0.00000E+00        -0.57729E+08
 
   -0.57650E+08         0.50499E+06         0.00000E+00
    0.50499E+06        -0.97574E+08         0.00000E+00
    0.00000E+00         0.00000E+00        -0.57670E+08
 
   -0.57590E+08         0.51142E+06         0.00000E+00
    0.51142E+06        -0.97575E+08         0.00000E+00
    0.00000E+00         0.00000E+00        -0.57609E+08
 
   -0.57529E+08         0.51763E+06         0.00000E+00
    0.51763E+06        -0.97576E+08         0.00000E+00
    0.00000E+00         0.00000E+00        -0.57548E+08
 
   -0.57467E+08         0.52358E+06         0.00000E+00
    0.52358E+06        -0.97578E+08         0.00000E+00
    0.00000E+00         0.00000E+00        -0.57485E+08
 
   -0.57404E+08         0.52925E+06         0.00000E+00
    0.52925E+06        -0.97579E+08         0.00000E+00
    0.00000E+00         0.00000E+00        -0.57421E+08
 
   -0.57340E+08         0.53460E+06         0.00000E+00
    0.53460E+06        -0.97581E+08         0.00000E+00
    0.00000E+00         0.00000E+00        -0.57357E+08
 
   -0.57276E+08         0.53960E+06         0.00000E+00
    0.53960E+06        -0.97583E+08         0.00000E+00
    0.00000E+00         0.00000E+00        -0.57291E+08
 
   -0.57210E+08         0.54420E+06         0.00000E+00
    0.54420E+06        -0.97585E+08         0.00000E+00
    0.00000E+00         0.00000E+00        -0.57224E+08
 
   -0.57144E+08         0.54836E+06         0.00000E+00
    0.54836E+06        -0.97587E+08         0.00000E+00
    0.00000E+00         0.00000E+00        -0.57156E+08
 
   -0.57076E+08         0.55203E+06         0.00000E+00
    0.55203E+06        -0.97589E+08         0.00000E+00
    0.00000E+00         0.00000E+00        -0.57088E+08
 
   -0.57008E+08         0.55518E+06         0.00000E+00
    0.55518E+06        -0.97592E+08         0.00000E+00
    0.00000E+00         0.00000E+00        -0.57018E+08
 
   -0.56939E+08         0.55773E+06         0.00000E+00
    0.55773E+06        -0.97595E+08         0.00000E+00
    0.00000E+00         0.00000E+00        -0.56947E+08
 
   -0.56870E+08         0.55965E+06         0.00000E+00
    0.55965E+06        -0.97599E+08         0.00000E+00
    0.00000E+00         0.00000E+00        -0.56876E+08
 
   -0.56799E+08         0.56086E+06         0.00000E+00
    0.56086E+06        -0.97602E+08         0.00000E+00
    0.00000E+00         0.00000E+00        -0.56804E+08
 
   -0.56728E+08         0.56130E+06         0.00000E+00
    0.56130E+06        -0.97606E+08         0.00000E+00
    0.00000E+00         0.00000E+00        -0.56731E+08
 
   -0.56657E+08         0.56090E+06         0.00000E+00
    0.56090E+06        -0.97611E+08         0.00000E+00
    0.00000E+00         0.00000E+00        -0.56657E+08
 
   -0.56584E+08         0.55960E+06         0.00000E+00
    0.55960E+06        -0.97616E+08         0.00000E+00
    0.00000E+00         0.00000E+00        -0.56582E+08
 
   -0.56512E+08         0.55730E+06         0.00000E+00
    0.55730E+06        -0.97621E+08         0.00000E+00
    0.00000E+00         0.00000E+00        -0.56506E+08
 
   -0.56438E+08         0.55394E+06         0.00000E+00
    0.55394E+06        -0.97627E+08         0.00000E+00
    0.00000E+00         0.00000E+00        -0.56430E+08
 
   -0.56365E+08         0.54943E+06         0.00000E+00
    0.54943E+06        -0.97633E+08         0.00000E+00
    0.00000E+00         0.00000E+00        -0.56353E+08
 
   -0.56291E+08         0.54368E+06         0.00000E+00
    0.54368E+06        -0.97641E+08         0.00000E+00
    0.00000E+00         0.00000E+00        -0.56276E+08
 
   -0.56217E+08         0.53662E+06         0.00000E+00
    0.53662E+06        -0.97648E+08         0.00000E+00
    0.00000E+00         0.00000E+00        -0.56198E+08
 
   -0.56142E+08         0.52815E+06         0.00000E+00
    0.52815E+06        -0.97657E+08         0.00000E+00
    0.00000E+00         0.00000E+00        -0.56120E+08
 
   -0.56068E+08         0.51819E+06         0.00000E+00
    0.51819E+06        -0.97667E+08         0.00000E+00
    0.00000E+00         0.00000E+00        -0.56041E+08
 
   -0.55993E+08         0.50668E+06         0.00000E+00
    0.50668E+06        -0.97677E+08         0.00000E+00
    0.00000E+00         0.00000E+00        -0.55962E+08
 
   -0.55918E+08         0.49353E+06         0.00000E+00
    0.49353E+06        -0.97688E+08         0.00000E+00
    0.00000E+00         0.00000E+00        -0.55883E+08
 
   -0.55842E+08         0.47870E+06         0.00000E+00
    0.47870E+06        -0.97700E+08         0.00000E+00
    0.00000E+00         0.00000E+00        -0.55803E+08
 
   -0.55767E+08         0.46213E+06         0.00000E+00
    0.46213E+06        -0.97712E+08         0.00000E+00
    0.00000E+00         0.00000E+00        -0.55723E+08
 
   -0.55691E+08         0.44379E+06         0.00000E+00
    0.44379E+06        -0.97725E+08         0.00000E+00
    0.00000E+00         0.00000E+00        -0.55642E+08
 
   -0.55614E+08         0.42364E+06         0.00000E+00
    0.42364E+06        -0.97739E+08         0.00000E+00
    0.00000E+00         0.00000E+00        -0.55561E+08
 
   -0.55537E+08         0.40167E+06         0.00000E+00
    0.40167E+06        -0.97751E+08         0.00000E+00
    0.00000E+00         0.00000E+00        -0.55479E+08
 
   -0.55460E+08         0.37783E+06         0.00000E+00
    0.37783E+06        -0.97763E+08         0.00000E+00
    0.00000E+00         0.00000E+00        -0.55397E+08
 
   -0.55382E+08         0.35208E+06         0.00000E+00
    0.35208E+06        -0.97773E+08         0.00000E+00
    0.00000E+00         0.00000E+00        -0.55313E+08
 
   -0.55303E+08         0.32427E+06         0.00000E+00
    0.32427E+06        -0.97780E+08         0.00000E+00
    0.00000E+00         0.00000E+00        -0.55228E+08
 
   -0.55223E+08         0.29419E+06         0.00000E+00
    0.29419E+06        -0.97783E+08         0.00000E+00
    0.00000E+00         0.00000E+00        -0.55141E+08
 
   -0.55144E+08         0.26138E+06         0.00000E+00
    0.26138E+06        -0.97778E+08         0.00000E+00
    0.00000E+00         0.00000E+00        -0.55051E+08
 
   -0.55065E+08         0.22512E+06         0.00000E+00
    0.22512E+06        -0.97764E+08         0.00000E+00
    0.00000E+00         0.00000E+00        -0.54959E+08
 
   -0.54989E+08         0.18428E+06         0.00000E+00
    0.18428E+06        -0.97738E+08         0.00000E+00
    0.00000E+00         0.00000E+00        -0.54864E+08
 
   -0.54920E+08         0.13729E+06         0.00000E+00
    0.13729E+06        -0.97696E+08         0.00000E+00
    0.00000E+00         0.00000E+00        -0.54766E+08
 
   -0.54865E+08         0.84036E+05         0.00000E+00
    0.84036E+05        -0.97633E+08         0.00000E+00
    0.00000E+00         0.00000E+00        -0.54666E+08
 
   -0.54834E+08         0.28012E+05         0.00000E+00
    0.28012E+05        -0.97553E+08         0.00000E+00
    0.00000E+00         0.00000E+00        -0.54568E+08
 
   -0.59695E+08         0.79157E+04         0.00000E+00
    0.79157E+04        -0.97598E+08         0.00000E+00
    0.00000E+00         0.00000E+00        -0.59779E+08
 
   -0.59688E+08         0.23875E+05         0.00000E+00
    0.23875E+05        -0.97578E+08         0.00000E+00
    0.00000E+00         0.00000E+00        -0.59755E+08
 
   -0.59675E+08         0.39565E+05         0.00000E+00
    0.39565E+05        -0.97562E+08         0.00000E+00
    0.00000E+00         0.00000E+00        -0.59730E+08
 
   -0.59659E+08         0.54195E+05         0.00000E+00
    0.54195E+05        -0.97551E+08         0.00000E+00
    0.00000E+00         0.00000E+00        -0.59706E+08
 
   -0.59640E+08         0.67621E+05         0.00000E+00
    0.67621E+05        -0.97544E+08         0.00000E+00
    0.00000E+00         0.00000E+00        -0.59682E+08
 
   -0.59620E+08         0.80107E+05         0.00000E+00
    0.80107E+05        -0.97540E+08         0.00000E+00
    0.00000E+00         0.00000E+00        -0.59658E+08
 
   -0.59599E+08         0.91894E+05         0.00000E+00
    0.91894E+05        -0.97539E+08         0.00000E+00
    0.00000E+00         0.00000E+00        -0.59635E+08
 
   -0.59578E+08         0.10314E+06         0.00000E+00
    0.10314E+06        -0.97539E+08         0.00000E+00
    0.00000E+00         0.00000E+00        -0.59612E+08
 
   -0.59557E+08         0.11394E+06         0.00000E+00
    0.11394E+06        -0.97540E+08         0.00000E+00
    0.00000E+00         0.00000E+00        -0.59590E+08
 
   -0.59536E+08         0.12435E+06         0.00000E+00
    0.12435E+06        -0.97542E+08         0.00000E+00
    0.00000E+00         0.00000E+00        -0.59567E+08
 
   -0.59514E+08         0.13442E+06         0.00000E+00
    0.13442E+06        -0.97545E+08         0.00000E+00
    0.00000E+00         0.00000E+00        -0.59544E+08
 
   -0.59492E+08         0.14415E+06         0.00000E+00
    0.14415E+06        -0.97548E+08         0.00000E+00
    0.00000E+00         0.00000E+00        -0.59522E+08
 
   -0.59470E+08         0.15356E+06         0.00000E+00
    0.15356E+06        -0.97550E+08         0.00000E+00
    0.00000E+00         0.00000E+00        -0.59498E+08
 
   -0.59447E+08         0.16267E+06         0.00000E+00
    0.16267E+06        -0.97553E+08         0.00000E+00
    0.00000E+00         0.00000E+00        -0.59475E+08
 
   -0.59424E+08         0.17148E+06         0.00000E+00
    0.17148E+06        -0.97555E+08         0.00000E+00
    0.00000E+00         0.00000E+00        -0.59451E+08
 
   -0.59400E+08         0.18003E+06         0.00000E+00
    0.18003E+06        -0.97558E+08         0.00000E+00
    0.00000E+00         0.00000E+00        -0.59427E+08
 
   -0.59376E+08         0.18831E+06         0.00000E+00
    0.18831E+06        -0.97560E+08         0.00000E+00
    0.00000E+00         0.00000E+00        -0.59402E+08
 
   -0.59352E+08         0.19636E+06         0.00000E+00
    0.19636E+06        -0.97562E+08         0.00000E+00
    0.00000E+00         0.00000E+00        -0.59377E+08
 
   -0.59326E+08         0.20418E+06         0.00000E+00
    0.20418E+06        -0.97563E+08         0.00000E+00
    0.00000E+00         0.00000E+00        -0.59351E+08
 
   -0.59301E+08         0.21181E+06         0.00000E+00
    0.21181E+06        -0.97565E+08         0.00000E+00
    0.00000E+00         0.00000E+00        -0.59325E+08
 
   -0.59274E+08         0.21927E+06         0.00000E+00
    0.21927E+06        -0.97566E+08         0.00000E+00
    0.00000E+00         0.00000E+00        -0.59298E+08
 
   -0.59247E+08         0.22658E+06         0.00000E+00
    0.22658E+06        -0.97567E+08         0.00000E+00
    0.00000E+00         0.00000E+00        -0.59271E+08
 
   -0.59220E+08         0.23375E+06         0.00000E+00
    0.23375E+06        -0.97568E+08         0.00000E+00
    0.00000E+00         0.00000E+00        -0.59243E+08
 
   -0.59192E+08         0.24082E+06         0.00000E+00
    0.24082E+06        -0.97568E+08         0.00000E+00
    0.00000E+00         0.00000E+00        -0.59214E+08
 
   -0.59163E+08         0.24780E+06         0.00000E+00
    0.24780E+06        -0.97569E+08         0.00000E+00
    0.00000E+00         0.00000E+00        -0.59185E+08
 
   -0.59133E+08         0.25470E+06         0.00000E+00
    0.25470E+06        -0.97569E+08         0.00000E+00
    0.00000E+00         0.00000E+00        -0.59156E+08
 
   -0.59103E+08         0.26155E+06         0.00000E+00
    0.26155E+06        -0.97570E+08         0.00000E+00
    0.00000E+00         0.00000E+00        -0.59125E+08
 
   -0.59072E+08         0.26837E+06         0.00000E+00
    0.26837E+06        -0.97570E+08         0.00000E+00
    0.00000E+00         0.00000E+00        -0.59094E+08
 
   -0.59040E+08         0.27516E+06         0.00000E+00
    0.27516E+06        -0.97570E+08         0.00000E+00
    0.00000E+00         0.00000E+00        -0.59063E+08
 
   -0.59008E+08         0.28194E+06         0.00000E+00
    0.28194E+06        -0.97570E+08         0.00000E+00
    0.00000E+00         0.00000E+00        -0.59030E+08
 
   -0.58975E+08         0.28872E+06         0.00000E+00
    0.28872E+06        -0.97571E+08         0.00000E+00
    0.00000E+00         0.00000E+00        -0.58997E+08
 
   -0.58941E+08         0.29551E+06         0.00000E+00
    0.29551E+06        -0.97571E+08         0.00000E+00
    0.00000E+00         0.00000E+00        -0.58964E+08
 
   -0.58906E+08         0.30232E+06         0.00000E+00
    0.30232E+06        -0.97571E+08         0.00000E+00
    0.00000E+00         0.00000E+00        -0.58929E+08
 
   -0.58871E+08         0.30915E+06         0.00000E+00
    0.30915E+06        -0.97571E+08         0.00000E+00
    0.00000E+00         0.00000E+00        -0.58894E+08
 
   -0.58835E+08         0.31602E+06         0.00000E+00
    0.31602E+06        -0.97570E+08         0.00000E+00
    0.00000E+00         0.00000E+00        -0.58858E+08
 
   -0.58798E+08         0.32292E+06         0.00000E+00
    0.32292E+06        -0.97570E+08         0.00000E+00
    0.00000E+00         0.00000E+00        -0.58822E+08
 
   -0.58760E+08         0.32986E+06         0.00000E+00
    0.32986E+06        -0.97570E+08         0.00000E+00
    0.00000E+00         0.00000E+00        -0.58784E+08
 
   -0.58722E+08         0.33684E+06         0.00000E+00
    0.33684E+06        -0.97570E+08         0.00000E+00
    0.00000E+00         0.00000E+00        -0.58746E+08
 
   -0.58683E+08         0.34387E+06         0.00000E+00
    0.34387E+06        -0.97570E+08         0.00000E+00
    0.00000E+00         0.00000E+00        -0.58707E+08
 
   -0.58642E+08         0.35094E+06         0.00000E+00
    0.35094E+06        -0.97570E+08         0.00000E+00
    0.00000E+00         0.00000E+00        -0.58667E+08
 
   -0.58601E+08         0.35806E+06         0.00000E+00
    0.35806E+06        -0.97570E+08         0.00000E+00
    0.00000E+00         0.00000E+00        -0.58626E+08
 
   -0.58560E+08         0.36521E+06         0.00000E+00
    0.36521E+06        -0.97570E+08         0.00000E+00
    0.00000E+00         0.00000E+00        -0.58584E+08
 
   -0.58517E+08         0.37241E+06         0.00000E+00
    0.37241E+06        -0.97570E+08         0.00000E+00
    0.00000E+00         0.00000E+00        -0.58542E+08
 
   -0.58473E+08         0.37964E+06         0.00000E+00
    0.37964E+06        -0.97570E+08         0.00000E+00
    0.00000E+00         0.00000E+00        -0.58498E+08
 
   -0.58429E+08         0.38690E+06         0.00000E+00
    0.38690E+06        -0.97570E+08         0.00000E+00
    0.00000E+00         0.00000E+00        -0.58454E+08
 
   -0.58383E+08         0.39418E+06         0.00000E+00
    0.39418E+06        -0.97570E+08         0.00000E+00
    0.00000E+00         0.00000E+00        -0.58408E+08
 
   -0.58337E+08         0.40148E+06         0.00000E+00
    0.40148E+06        -0.97570E+08         0.00000E+00
    0.00000E+00         0.00000E+00        -0.58362E+08
 
   -0.58289E+08         0.40879E+06         0.00000E+00
    0.40879E+06        -0.97570E+08         0.00000E+00
    0.00000E+00         0.00000E+00        -0.58315E+08
 
   -0.58241E+08         0.41611E+06         0.00000E+00
    0.41611E+06        -0.97570E+08         0.00000E+00
    0.00000E+00         0.00000E+00        -0.58266E+08
 
   -0.58192E+08         0.42341E+06         0.00000E+00
    0.42341E+06        -0.97570E+08         0.00000E+00
    0.00000E+00         0.00000E+00        -0.58217E+08
 
   -0.58142E+08         0.43070E+06         0.00000E+00
    0.43070E+06        -0.97570E+08         0.00000E+00
    0.00000E+00         0.00000E+00        -0.58167E+08
 
   -0.58091E+08         0.43796E+06         0.00000E+00
    0.43796E+06        -0.97570E+08         0.00000E+00
    0.00000E+00         0.00000E+00        -0.58116E+08
 
   -0.58039E+08         0.44517E+06         0.00000E+00
    0.44517E+06        -0.97571E+08         0.00000E+00
    0.00000E+00         0.00000E+00        -0.58064E+08
 
   -0.57986E+08         0.45233E+06         0.00000E+00
    0.45233E+06        -0.97571E+08         0.00000E+00
    0.00000E+00         0.00000E+00        -0.58010E+08
 
   -0.57931E+08         0.45941E+06         0.00000E+00
    0.45941E+06        -0.97572E+08         0.00000E+00
    0.00000E+00         0.00000E+00        -0.57956E+08
 
   -0.57876E+08         0.46640E+06         0.00000E+00
    0.46640E+06        -0.97572E+08         0.00000E+00
    0.00000E+00         0.00000E+00        -0.57901E+08
 
   -0.57820E+08         0.47329E+06         0.00000E+00
    0.47329E+06        -0.97573E+08         0.00000E+00
    0.00000E+00         0.00000E+00        -0.57844E+08
 
   -0.57763E+08         0.48004E+06         0.00000E+00
    0.48004E+06        -0.97573E+08         0.00000E+00
    0.00000E+00         0.00000E+00        -0.57787E+08
 
   -0.57705E+08         0.48665E+06         0.00000E+00
    0.48665E+06        -0.97574E+08         0.00000E+00
    0.00000E+00         0.00000E+00        -0.57729E+08
 
   -0.57646E+08         0.49309E+06         0.00000E+00
    0.49309E+06        -0.97575E+08         0.00000E+00
    0.00000E+00         0.00000E+00        -0.57669E+08
 
   -0.57587E+08         0.49933E+06         0.00000E+00
    0.49933E+06        -0.97576E+08         0.00000E+00
    0.00000E+00         0.00000E+00        -0.57609E+08
 
   -0.57526E+08         0.50535E+06         0.00000E+00
    0.50535E+06        -0.97577E+08         0.00000E+00
    0.00000E+00         0.00000E+00        -0.57547E+08
 
   -0.57464E+08         0.51112E+06         0.00000E+00
    0.51112E+06        -0.97579E+08         0.00000E+00
    0.00000E+00         0.00000E+00        -0.57484E+08
 
   -0.57401E+08         0.51660E+06         0.00000E+00
    0.51660E+06        -0.97580E+08         0.00000E+00
    0.00000E+00         0.00000E+00        -0.57421E+08
 
   -0.57337E+08         0.52177E+06         0.00000E+00
    0.52177E+06        -0.97582E+08         0.00000E+00
    0.00000E+00         0.00000E+00        -0.57356E+08
 
   -0.57273E+08         0.52658E+06         0.00000E+00
    0.52658E+06        -0.97584E+08         0.00000E+00
    0.00000E+00         0.00000E+00        -0.57290E+08
 
   -0.57208E+08         0.53101E+06         0.00000E+00
    0.53101E+06        -0.97586E+08         0.00000E+00
    0.00000E+00         0.00000E+00        -0.57224E+08
 
   -0.57141E+08         0.53500E+06         0.00000E+00
    0.53500E+06        -0.97588E+08         0.00000E+00
    0.00000E+00         0.00000E+00        -0.57156E+08
 
   -0.57074E+08         0.53851E+06         0.00000E+00
    0.53851E+06        -0.97590E+08         0.00000E+00
    0.00000E+00         0.00000E+00        -0.57087E+08
 
   -0.57006E+08         0.54150E+06         0.00000E+00
    0.54150E+06        -0.97593E+08         0.00000E+00
    0.00000E+00         0.00000E+00        -0.57018E+08
 
   -0.56938E+08         0.54390E+06         0.00000E+00
    0.54390E+06        -0.97596E+08         0.00000E+00
    0.00000E+00         0.00000E+00        -0.56947E+08
 
   -0.56868E+08         0.54568E+06         0.00000E+00
    0.54568E+06        -0.97599E+08         0.00000E+00
    0.00000E+00         0.00000E+00        -0.56876E+08
 
   -0.56798E+08         0.54676E+06         0.00000E+00
    0.54676E+06        -0.97602E+08         0.00000E+00
    0.00000E+00         0.00000E+00        -0.56803E+08
 
   -0.56728E+08         0.54707E+06         0.00000E+00
    0.54707E+06        -0.97606E+08         0.00000E+00
    0.00000E+00         0.00000E+00        -0.56730E+08
 
   -0.56656E+08         0.54656E+06         0.00000E+00
    0.54656E+06        -0.97611E+08         0.00000E+00
    0.00000E+00         0.00000E+00        -0.56656E+08
 
   -0.56585E+08         0.54515E+06         0.00000E+00
    0.54515E+06        -0.97615E+08         0.00000E+00
    0.00000E+00         0.00000E+00        -0.56582E+08
 
   -0.56512E+08         0.54277E+06         0.00000E+00
    0.54277E+06        -0.97620E+08         0.00000E+00
    0.00000E+00         0.00000E+00        -0.56506E+08
 
   -0.56440E+08         0.53933E+06         0.00000E+00
    0.53933E+06        -0.97626E+08         0.00000E+00
    0.00000E+00         0.00000E+00        -0.56430E+08
 
   -0.56367E+08         0.53474E+06         0.00000E+00
    0.53474E+06        -0.97632E+08         0.00000E+00
    0.00000E+00         0.00000E+00        -0.56354E+08
 
   -0.56294E+08         0.52893E+06         0.00000E+00
    0.52893E+06        -0.97639E+08         0.00000E+00
    0.00000E+00         0.00000E+00        -0.56277E+08
 
   -0.56220E+08         0.52182E+06         0.00000E+00
    0.52182E+06        -0.97647E+08         0.00000E+00
    0.00000E+00         0.00000E+00        -0.56199E+08
 
   -0.56146E+08         0.51330E+06         0.00000E+00
    0.51330E+06        -0.97655E+08         0.00000E+00
    0.00000E+00         0.00000E+00        -0.56121E+08
 
   -0.56072E+08         0.50331E+06         0.00000E+00
    0.50331E+06        -0.97664E+08         0.00000E+00
    0.00000E+00         0.00000E+00        -0.56042E+08
 
   -0.55998E+08         0.49176E+06         0.00000E+00
    0.49176E+06        -0.97674E+08         0.00000E+00
    0.00000E+00         0.00000E+00        -0.55963E+08
 
   -0.55924E+08         0.47857E+06         0.00000E+00
    0.47857E+06        -0.97685E+08         0.00000E+00
    0.00000E+00         0.00000E+00        -0.55884E+08
 
   -0.55849E+08         0.46370E+06         0.00000E+00
    0.46370E+06        -0.97697E+08         0.00000E+00
    0.00000E+00         0.00000E+00        -0.55804E+08
 
   -0.55775E+08         0.44707E+06         0.00000E+00
    0.44707E+06        -0.97709E+08         0.00000E+00
    0.00000E+00         0.00000E+00        -0.55724E+08
 
   -0.55700E+08         0.42866E+06         0.00000E+00
    0.42866E+06        -0.97722E+08         0.00000E+00
    0.00000E+00         0.00000E+00        -0.55644E+08
 
   -0.55624E+08         0.40842E+06         0.00000E+00
    0.40842E+06        -0.97734E+08         0.00000E+00
    0.00000E+00         0.00000E+00        -0.55563E+08
 
   -0.55549E+08         0.38633E+06         0.00000E+00
    0.38633E+06        -0.97747E+08         0.00000E+00
    0.00000E+00         0.00000E+00        -0.55481E+08
 
   -0.55472E+08         0.36237E+06         0.00000E+00
    0.36237E+06        -0.97758E+08         0.00000E+00
    0.00000E+00         0.00000E+00        -0.55399E+08
 
   -0.55395E+08         0.33648E+06         0.00000E+00
    0.33648E+06        -0.97768E+08         0.00000E+00
    0.00000E+00         0.00000E+00        -0.55315E+08
 
   -0.55318E+08         0.30856E+06         0.00000E+00
    0.30856E+06        -0.97775E+08         0.00000E+00
    0.00000E+00         0.00000E+00        -0.55230E+08
 
   -0.55240E+08         0.27843E+06         0.00000E+00
    0.27843E+06        -0.97776E+08         0.00000E+00
    0.00000E+00         0.00000E+00        -0.55144E+08
 
   -0.55162E+08         0.24573E+06         0.00000E+00
    0.24573E+06        -0.97771E+08         0.00000E+00
    0.00000E+00         0.00000E+00        -0.55055E+08
 
   -0.55086E+08         0.20987E+06         0.00000E+00
    0.20987E+06        -0.97757E+08         0.00000E+00
    0.00000E+00         0.00000E+00        -0.54963E+08
 
   -0.55014E+08         0.16996E+06         0.00000E+00
    0.16996E+06        -0.97729E+08         0.00000E+00
    0.00000E+00         0.00000E+00        -0.54869E+08
 
   -0.54949E+08         0.12499E+06         0.00000E+00
    0.12499E+06        -0.97686E+08         0.00000E+00
    0.00000E+00         0.00000E+00        -0.54772E+08
 
   -0.54899E+08         0.75605E+05         0.00000E+00
    0.75605E+05        -0.97623E+08         0.00000E+00
    0.00000E+00         0.00000E+00        -0.54673E+08
 
   -0.54872E+08         0.25040E+05         0.00000E+00
    0.25040E+05        -0.97542E+08         0.00000E+00
    0.00000E+00         0.00000E+00        -0.54576E+08
 
   -0.59685E+08         0.72426E+04         0.00000E+00
    0.72426E+04        -0.97601E+08         0.00000E+00
    0.00000E+00         0.00000E+00        -0.59777E+08
 
   -0.59678E+08         0.21932E+05         0.00000E+00
    0.21932E+05        -0.97581E+08         0.00000E+00
    0.00000E+00         0.00000E+00        -0.59753E+08
 
   -0.59666E+08         0.36639E+05         0.00000E+00
    0.36639E+05        -0.97565E+08         0.00000E+00
    0.00000E+00         0.00000E+00        -0.59728E+08
 
   -0.59651E+08         0.50676E+05         0.00000E+00
    0.50676E+05        -0.97554E+08         0.00000E+00
    0.00000E+00         0.00000E+00        -0.59704E+08
 
   -0.59633E+08         0.63779E+05         0.00000E+00
    0.63779E+05        -0.97547E+08         0.00000E+00
    0.00000E+00         0.00000E+00        -0.59680E+08
 
   -0.59613E+08         0.76084E+05         0.00000E+00
    0.76084E+05        -0.97543E+08         0.00000E+00
    0.00000E+00         0.00000E+00        -0.59657E+08
 
   -0.59593E+08         0.87765E+05         0.00000E+00
    0.87765E+05        -0.97541E+08         0.00000E+00
    0.00000E+00         0.00000E+00        -0.59634E+08
 
   -0.59573E+08         0.98943E+05         0.00000E+00
    0.98943E+05        -0.97541E+08         0.00000E+00
    0.00000E+00         0.00000E+00        -0.59611E+08
 
   -0.59552E+08         0.10969E+06         0.00000E+00
    0.10969E+06        -0.97542E+08         0.00000E+00
    0.00000E+00         0.00000E+00        -0.59589E+08
 
   -0.59530E+08         0.12006E+06         0.00000E+00
    0.12006E+06        -0.97544E+08         0.00000E+00
    0.00000E+00         0.00000E+00        -0.59566E+08
 
   -0.59509E+08         0.13007E+06         0.00000E+00
    0.13007E+06        -0.97547E+08         0.00000E+00
    0.00000E+00         0.00000E+00        -0.59544E+08
 
   -0.59487E+08         0.13974E+06         0.00000E+00
    0.13974E+06        -0.97549E+08         0.00000E+00
    0.00000E+00         0.00000E+00        -0.59521E+08
 
   -0.59465E+08         0.14908E+06         0.00000E+00
    0.14908E+06        -0.97552E+08         0.00000E+00
    0.00000E+00         0.00000E+00        -0.59498E+08
 
   -0.59443E+08         0.15811E+06         0.00000E+00
    0.15811E+06        -0.97555E+08         0.00000E+00
    0.00000E+00         0.00000E+00        -0.59474E+08
 
   -0.59420E+08         0.16684E+06         0.00000E+00
    0.16684E+06        -0.97557E+08         0.00000E+00
    0.00000E+00         0.00000E+00        -0.59450E+08
 
   -0.59396E+08         0.17528E+06         0.00000E+00
    0.17528E+06        -0.97559E+08         0.00000E+00
    0.00000E+00         0.00000E+00        -0.59426E+08
 
   -0.59372E+08         0.18346E+06         0.00000E+00
    0.18346E+06        -0.97561E+08         0.00000E+00
    0.00000E+00         0.00000E+00        -0.59401E+08
 
   -0.59348E+08         0.19139E+06         0.00000E+00
    0.19139E+06        -0.97563E+08         0.00000E+00
    0.00000E+00         0.00000E+00        -0.59376E+08
 
   -0.59323E+08         0.19910E+06         0.00000E+00
    0.19910E+06        -0.97565E+08         0.00000E+00
    0.00000E+00         0.00000E+00        -0.59351E+08
 
   -0.59297E+08         0.20661E+06         0.00000E+00
    0.20661E+06        -0.97566E+08         0.00000E+00
    0.00000E+00         0.00000E+00        -0.59324E+08
 
   -0.59271E+08         0.21395E+06         0.00000E+00
    0.21395E+06        -0.97567E+08         0.00000E+00
    0.00000E+00         0.00000E+00        -0.59298E+08
 
   -0.59244E+08         0.22112E+06         0.00000E+00
    0.22112E+06        -0.97568E+08         0.00000E+00
    0.00000E+00         0.00000E+00        -0.59270E+08
 
   -0.59216E+08         0.22817E+06         0.00000E+00
    0.22817E+06        -0.97569E+08         0.00000E+00
    0.00000E+00         0.00000E+00        -0.59242E+08
 
   -0.59188E+08         0.23511E+06         0.00000E+00
    0.23511E+06        -0.97570E+08         0.00000E+00
    0.00000E+00         0.00000E+00        -0.59214E+08
 
   -0.59159E+08         0.24195E+06         0.00000E+00
    0.24195E+06        -0.97570E+08         0.00000E+00
    0.00000E+00         0.00000E+00        -0.59185E+08
 
   -0.59129E+08         0.24872E+06         0.00000E+00
    0.24872E+06        -0.97571E+08         0.00000E+00
    0.00000E+00         0.00000E+00        -0.59155E+08
 
   -0.59099E+08         0.25543E+06         0.00000E+00
    0.25543E+06        -0.97571E+08         0.00000E+00
    0.00000E+00         0.00000E+00        -0.59125E+08
 
   -0.59068E+08         0.26211E+06         0.00000E+00
    0.26211E+06        -0.97571E+08         0.00000E+00
    0.00000E+00         0.00000E+00        -0.59094E+08
 
   -0.59037E+08         0.26876E+06         0.00000E+00
    0.26876E+06        -0.97572E+08         0.00000E+00
    0.00000E+00         0.00000E+00        -0.59062E+08
 
   -0.59004E+08         0.27539E+06         0.00000E+00
    0.27539E+06        -0.97572E+08         0.00000E+00
    0.00000E+00         0.00000E+00        -0.59030E+08
 
   -0.58971E+08         0.28203E+06         0.00000E+00
    0.28203E+06        -0.97572E+08         0.00000E+00
    0.00000E+00         0.00000E+00        -0.58997E+08
 
   -0.58937E+08         0.28867E+06         0.00000E+00
    0.28867E+06        -0.97572E+08         0.00000E+00
    0.00000E+00         0.00000E+00        -0.58963E+08
 
   -0.58903E+08         0.29533E+06         0.00000E+00
    0.29533E+06        -0.97572E+08         0.00000E+00
    0.00000E+00         0.00000E+00        -0.58929E+08
 
   -0.58867E+08         0.30201E+06         0.00000E+00
    0.30201E+06        -0.97572E+08         0.00000E+00
    0.00000E+00         0.00000E+00        -0.58893E+08
 
   -0.58831E+08         0.30872E+06         0.00000E+00
    0.30872E+06        -0.97572E+08         0.00000E+00
    0.00000E+00         0.00000E+00        -0.58858E+08
 
   -0.58794E+08         0.31546E+06         0.00000E+00
    0.31546E+06        -0.97572E+08         0.00000E+00
    0.00000E+00         0.00000E+00        -0.58821E+08
 
   -0.58757E+08         0.32224E+06         0.00000E+00
    0.32224E+06        -0.97572E+08         0.00000E+00
    0.00000E+00         0.00000E+00        -0.58783E+08
 
   -0.58718E+08         0.32906E+06         0.00000E+00
    0.32906E+06        -0.97572E+08         0.00000E+00
    0.00000E+00         0.00000E+00        -0.58745E+08
 
   -0.58679E+08         0.33592E+06         0.00000E+00
    0.33592E+06        -0.97571E+08         0.00000E+00
    0.00000E+00         0.00000E+00        -0.58706E+08
 
   -0.58639E+08         0.34283E+06         0.00000E+00
    0.34283E+06        -0.97571E+08         0.00000E+00
    0.00000E+00         0.00000E+00        -0.58666E+08
 
   -0.58598E+08         0.34977E+06         0.00000E+00
    0.34977E+06        -0.97571E+08         0.00000E+00
    0.00000E+00         0.00000E+00        -0.58625E+08
 
   -0.58556E+08         0.35675E+06         0.00000E+00
    0.35675E+06        -0.97571E+08         0.00000E+00
    0.00000E+00         0.00000E+00        -0.58583E+08
 
   -0.58513E+08         0.36377E+06         0.00000E+00
    0.36377E+06        -0.97571E+08         0.00000E+00
    0.00000E+00         0.00000E+00        -0.58541E+08
 
   -0.58469E+08         0.37082E+06         0.00000E+00
    0.37082E+06        -0.97571E+08         0.00000E+00
    0.00000E+00         0.00000E+00        -0.58497E+08
 
   -0.58425E+08         0.37790E+06         0.00000E+00
    0.37790E+06        -0.97571E+08         0.00000E+00
    0.00000E+00         0.00000E+00        -0.58453E+08
 
   -0.58379E+08         0.38500E+06         0.00000E+00
    0.38500E+06        -0.97571E+08         0.00000E+00
    0.00000E+00         0.00000E+00        -0.58408E+08
 
   -0.58333E+08         0.39211E+06         0.00000E+00
    0.39211E+06        -0.97571E+08         0.00000E+00
    0.00000E+00         0.00000E+00        -0.58361E+08
 
   -0.58285E+08         0.39924E+06         0.00000E+00
    0.39924E+06        -0.97571E+08         0.00000E+00
    0.00000E+00         0.00000E+00        -0.58314E+08
 
   -0.58237E+08         0.40636E+06         0.00000E+00
    0.40636E+06        -0.97571E+08         0.00000E+00
    0.00000E+00         0.00000E+00        -0.58266E+08
 
   -0.58188E+08         0.41348E+06         0.00000E+00
    0.41348E+06        -0.97571E+08         0.00000E+00
    0.00000E+00         0.00000E+00        -0.58217E+08
 
   -0.58138E+08         0.42057E+06         0.00000E+00
    0.42057E+06        -0.97572E+08         0.00000E+00
    0.00000E+00         0.00000E+00        -0.58166E+08
 
   -0.58087E+08         0.42763E+06         0.00000E+00
    0.42763E+06        -0.97572E+08         0.00000E+00
    0.00000E+00         0.00000E+00        -0.58115E+08
 
   -0.58035E+08         0.43465E+06         0.00000E+00
    0.43465E+06        -0.97572E+08         0.00000E+00
    0.00000E+00         0.00000E+00        -0.58063E+08
 
   -0.57982E+08         0.44161E+06         0.00000E+00
    0.44161E+06        -0.97573E+08         0.00000E+00
    0.00000E+00         0.00000E+00        -0.58010E+08
 
   -0.57928E+08         0.44850E+06         0.00000E+00
    0.44850E+06        -0.97573E+08         0.00000E+00
    0.00000E+00         0.00000E+00        -0.57955E+08
 
   -0.57873E+08         0.45530E+06         0.00000E+00
    0.45530E+06        -0.97573E+08         0.00000E+00
    0.00000E+00         0.00000E+00        -0.57900E+08
 
   -0.57817E+08         0.46199E+06         0.00000E+00
    0.46199E+06        -0.97574E+08         0.00000E+00
    0.00000E+00         0.00000E+00        -0.57844E+08
 
   -0.57760E+08         0.46855E+06         0.00000E+00
    0.46855E+06        -0.97575E+08         0.00000E+00
    0.00000E+00         0.00000E+00        -0.57786E+08
 
   -0.57702E+08         0.47497E+06         0.00000E+00
    0.47497E+06        -0.97576E+08         0.00000E+00
    0.00000E+00         0.00000E+00        -0.57728E+08
 
   -0.57643E+08         0.48121E+06         0.00000E+00
    0.48121E+06        -0.97576E+08         0.00000E+00
    0.00000E+00         0.00000E+00        -0.57668E+08
 
   -0.57583E+08         0.48726E+06         0.00000E+00
    0.48726E+06        -0.97577E+08         0.00000E+00
    0.00000E+00         0.00000E+00        -0.57608E+08
 
   -0.57522E+08         0.49309E+06         0.00000E+00
    0.49309E+06        -0.97579E+08         0.00000E+00
    0.00000E+00         0.00000E+00        -0.57546E+08
 
   -0.57461E+08         0.49867E+06         0.00000E+00
    0.49867E+06        -0.97580E+08         0.00000E+00
    0.00000E+00         0.00000E+00        -0.57484E+08
 
   -0.57398E+08         0.50397E+06         0.00000E+00
    0.50397E+06        -0.97581E+08         0.00000E+00
    0.00000E+00         0.00000E+00        -0.57420E+08
 
   -0.57335E+08         0.50896E+06         0.00000E+00
    0.50896E+06        -0.97583E+08         0.00000E+00
    0.00000E+00         0.00000E+00        -0.57355E+08
 
   -0.57270E+08         0.51360E+06         0.00000E+00
    0.51360E+06        -0.97584E+08         0.00000E+00
    0.00000E+00         0.00000E+00        -0.57290E+08
 
   -0.57205E+08         0.51786E+06         0.00000E+00
    0.51786E+06        -0.97586E+08         0.00000E+00
    0.00000E+00         0.00000E+00        -0.57223E+08
 
   -0.57139E+08         0.52168E+06         0.00000E+00
    0.52168E+06        -0.97588E+08         0.00000E+00
    0.00000E+00         0.00000E+00        -0.57155E+08
 
   -0.57072E+08         0.52504E+06         0.00000E+00
    0.52504E+06        -0.97591E+08         0.00000E+00
    0.00000E+00         0.00000E+00        -0.57087E+08
 
   -0.57004E+08         0.52787E+06         0.00000E+00
    0.52787E+06        -0.97593E+08         0.00000E+00
    0.00000E+00         0.00000E+00        -0.57017E+08
 
   -0.56936E+08         0.53014E+06         0.00000E+00
    0.53014E+06        -0.97596E+08         0.00000E+00
    0.00000E+00         0.00000E+00        -0.56947E+08
 
   -0.56867E+08         0.53177E+06         0.00000E+00
    0.53177E+06        -0.97599E+08         0.00000E+00
    0.00000E+00         0.00000E+00        -0.56875E+08
 
   -0.56797E+08         0.53272E+06         0.00000E+00
    0.53272E+06        -0.97603E+08         0.00000E+00
    0.00000E+00         0.00000E+00        -0.56803E+08
 
   -0.56727E+08         0.53293E+06         0.00000E+00
    0.53293E+06        -0.97606E+08         0.00000E+00
    0.00000E+00         0.00000E+00        -0.56730E+08
 
   -0.56656E+08         0.53231E+06         0.00000E+00
    0.53231E+06        -0.97610E+08         0.00000E+00
    0.00000E+00         0.00000E+00        -0.56656E+08
 
   -0.56585E+08         0.53081E+06         0.00000E+00
    0.53081E+06        -0.97615E+08         0.00000E+00
    0.00000E+00         0.00000E+00        -0.56582E+08
 
   -0.56513E+08         0.52833E+06         0.00000E+00
    0.52833E+06        -0.97620E+08         0.00000E+00
    0.00000E+00         0.00000E+00        -0.56507E+08
 
   -0.56441E+08         0.52482E+06         0.00000E+00
    0.52482E+06        -0.97625E+08         0.00000E+00
    0.00000E+00         0.00000E+00        -0.56431E+08
 
   -0.56369E+08         0.52017E+06         0.00000E+00
    0.52017E+06        -0.97631E+08         0.00000E+00
    0.00000E+00         0.00000E+00        -0.56354E+08
 
   -0.56296E+08         0.51431E+06         0.00000E+00
    0.51431E+06        -0.97638E+08         0.00000E+00
    0.00000E+00         0.00000E+00        -0.56277E+08
 
   -0.56223E+08         0.50715E+06         0.00000E+00
    0.50715E+06        -0.97645E+08         0.00000E+00
    0.00000E+00         0.00000E+00        -0.56199E+08
 
   -0.56150E+08         0.49860E+06         0.00000E+00
    0.49860E+06        -0.97653E+08         0.00000E+00
    0.00000E+00         0.00000E+00        -0.56121E+08
 
   -0.56077E+08         0.48858E+06         0.00000E+00
    0.48858E+06        -0.97662E+08         0.00000E+00
    0.00000E+00         0.00000E+00        -0.56043E+08
 
   -0.56004E+08         0.47700E+06         0.00000E+00
    0.47700E+06        -0.97672E+08         0.00000E+00
    0.00000E+00         0.00000E+00        -0.55964E+08
 
   -0.55930E+08         0.46378E+06         0.00000E+00
    0.46378E+06        -0.97682E+08         0.00000E+00
    0.00000E+00         0.00000E+00        -0.55885E+08
 
   -0.55857E+08         0.44887E+06         0.00000E+00
    0.44887E+06        -0.97693E+08         0.00000E+00
    0.00000E+00         0.00000E+00        -0.55805E+08
 
   -0.55783E+08         0.43220E+06         0.00000E+00
    0.43220E+06        -0.97705E+08         0.00000E+00
    0.00000E+00         0.00000E+00        -0.55726E+08
 
   -0.55709E+08         0.41372E+06         0.00000E+00
    0.41372E+06        -0.97718E+08         0.00000E+00
    0.00000E+00         0.00000E+00        -0.55645E+08
 
   -0.55635E+08         0.39341E+06         0.00000E+00
    0.39341E+06        -0.97730E+08         0.00000E+00
    0.00000E+00         0.00000E+00        -0.55565E+08
 
   -0.55560E+08         0.37122E+06         0.00000E+00
    0.37122E+06        -0.97742E+08         0.00000E+00
    0.00000E+00         0.00000E+00        -0.55483E+08
 
   -0.55485E+08         0.34715E+06         0.00000E+00
    0.34715E+06        -0.97753E+08         0.00000E+00
    0.00000E+00         0.00000E+00        -0.55401E+08
 
   -0.55409E+08         0.32115E+06         0.00000E+00
    0.32115E+06        -0.97763E+08         0.00000E+00
    0.00000E+00         0.00000E+00        -0.55318E+08
 
   -0.55333E+08         0.29317E+06         0.00000E+00
    0.29317E+06        -0.97769E+08         0.00000E+00
    0.00000E+00         0.00000E+00        -0.55233E+08
 
   -0.55257E+08         0.26305E+06         0.00000E+00
    0.26305E+06        -0.97770E+08         0.00000E+00
    0.00000E+00         0.00000E+00        -0.55147E+08
 
   -0.55181E+08         0.23054E+06         0.00000E+00
    0.23054E+06        -0.97764E+08         0.00000E+00
    0.00000E+00         0.00000E+00        -0.55059E+08
 
   -0.55108E+08         0.19521E+06         0.00000E+00
    0.19521E+06        -0.97749E+08         0.00000E+00
    0.00000E+00         0.00000E+00        -0.54968E+08
 
   -0.55039E+08         0.15640E+06         0.00000E+00
    0.15640E+06        -0.97721E+08         0.00000E+00
    0.00000E+00         0.00000E+00        -0.54874E+08
 
   -0.54978E+08         0.11364E+06         0.00000E+00
    0.11364E+06        -0.97676E+08         0.00000E+00
    0.00000E+00         0.00000E+00        -0.54778E+08
 
   -0.54933E+08         0.68037E+05         0.00000E+00
    0.68037E+05        -0.97613E+08         0.00000E+00
    0.00000E+00         0.00000E+00        -0.54680E+08
 
   -0.54908E+08         0.22415E+05         0.00000E+00
    0.22415E+05        -0.97533E+08         0.00000E+00
    0.00000E+00         0.00000E+00        -0.54584E+08
 
   -0.59674E+08         0.66358E+04         0.00000E+00
    0.66358E+04        -0.97603E+08         0.00000E+00
    0.00000E+00         0.00000E+00        -0.59775E+08
 
   -0.59669E+08         0.20160E+05         0.00000E+00
    0.20160E+05        -0.97583E+08         0.00000E+00
    0.00000E+00         0.00000E+00        -0.59751E+08
 
   -0.59658E+08         0.33916E+05         0.00000E+00
    0.33916E+05        -0.97568E+08         0.00000E+00
    0.00000E+00         0.00000E+00        -0.59727E+08
 
   -0.59643E+08         0.47329E+05         0.00000E+00
    0.47329E+05        -0.97556E+08         0.00000E+00
    0.00000E+00         0.00000E+00        -0.59703E+08
 
   -0.59626E+08         0.60071E+05         0.00000E+00
    0.60071E+05        -0.97549E+08         0.00000E+00
    0.00000E+00         0.00000E+00        -0.59679E+08
 
   -0.59607E+08         0.72164E+05         0.00000E+00
    0.72164E+05        -0.97545E+08         0.00000E+00
    0.00000E+00         0.00000E+00        -0.59656E+08
 
   -0.59587E+08         0.83719E+05         0.00000E+00
    0.83719E+05        -0.97543E+08         0.00000E+00
    0.00000E+00         0.00000E+00        -0.59633E+08
 
   -0.59567E+08         0.94815E+05         0.00000E+00
    0.94815E+05        -0.97543E+08         0.00000E+00
    0.00000E+00         0.00000E+00        -0.59610E+08
 
   -0.59546E+08         0.10550E+06         0.00000E+00
    0.10550E+06        -0.97544E+08         0.00000E+00
    0.00000E+00         0.00000E+00        -0.59588E+08
 
   -0.59525E+08         0.11582E+06         0.00000E+00
    0.11582E+06        -0.97546E+08         0.00000E+00
    0.00000E+00         0.00000E+00        -0.59565E+08
 
   -0.59504E+08         0.12577E+06         0.00000E+00
    0.12577E+06        -0.97549E+08         0.00000E+00
    0.00000E+00         0.00000E+00        -0.59543E+08
 
   -0.59482E+08         0.13537E+06         0.00000E+00
    0.13537E+06        -0.97551E+08         0.00000E+00
    0.00000E+00         0.00000E+00        -0.59520E+08
 
   -0.59460E+08         0.14464E+06         0.00000E+00
    0.14464E+06        -0.97554E+08         0.00000E+00
    0.00000E+00         0.00000E+00        -0.59497E+08
 
   -0.59438E+08         0.15358E+06         0.00000E+00
    0.15358E+06        -0.97556E+08         0.00000E+00
    0.00000E+00         0.00000E+00        -0.59473E+08
 
   -0.59415E+08         0.16221E+06         0.00000E+00
    0.16221E+06        -0.97559E+08         0.00000E+00
    0.00000E+00         0.00000E+00        -0.59450E+08
 
   -0.59392E+08         0.17055E+06         0.00000E+00
    0.17055E+06        -0.97561E+08         0.00000E+00
    0.00000E+00         0.00000E+00        -0.59425E+08
 
   -0.59368E+08         0.17862E+06         0.00000E+00
    0.17862E+06        -0.97563E+08         0.00000E+00
    0.00000E+00         0.00000E+00        -0.59401E+08
 
   -0.59344E+08         0.18644E+06         0.00000E+00
    0.18644E+06        -0.97565E+08         0.00000E+00
    0.00000E+00         0.00000E+00        -0.59376E+08
 
   -0.59319E+08         0.19403E+06         0.00000E+00
    0.19403E+06        -0.97566E+08         0.00000E+00
    0.00000E+00         0.00000E+00        -0.59350E+08
 
   -0.59293E+08         0.20142E+06         0.00000E+00
    0.20142E+06        -0.97567E+08         0.00000E+00
    0.00000E+00         0.00000E+00        -0.59324E+08
 
   -0.59267E+08         0.20863E+06         0.00000E+00
    0.20863E+06        -0.97569E+08         0.00000E+00
    0.00000E+00         0.00000E+00        -0.59297E+08
 
   -0.59240E+08         0.21568E+06         0.00000E+00
    0.21568E+06        -0.97570E+08         0.00000E+00
    0.00000E+00         0.00000E+00        -0.59270E+08
 
   -0.59213E+08         0.22260E+06         0.00000E+00
    0.22260E+06        -0.97570E+08         0.00000E+00
    0.00000E+00         0.00000E+00        -0.59242E+08
 
   -0.59184E+08         0.22940E+06         0.00000E+00
    0.22940E+06        -0.97571E+08         0.00000E+00
    0.00000E+00         0.00000E+00        -0.59213E+08
 
   -0.59156E+08         0.23611E+06         0.00000E+00
    0.23611E+06        -0.97572E+08         0.00000E+00
    0.00000E+00         0.00000E+00        -0.59184E+08
 
   -0.59126E+08         0.24274E+06         0.00000E+00
    0.24274E+06        -0.97572E+08         0.00000E+00
    0.00000E+00         0.00000E+00        -0.59154E+08
 
   -0.59096E+08         0.24932E+06         0.00000E+00
    0.24932E+06        -0.97572E+08         0.00000E+00
    0.00000E+00         0.00000E+00        -0.59124E+08
 
   -0.59065E+08         0.25585E+06         0.00000E+00
    0.25585E+06        -0.97573E+08         0.00000E+00
    0.00000E+00         0.00000E+00        -0.59093E+08
 
   -0.59033E+08         0.26236E+06         0.00000E+00
    0.26236E+06        -0.97573E+08         0.00000E+00
    0.00000E+00         0.00000E+00        -0.59061E+08
 
   -0.59001E+08         0.26885E+06         0.00000E+00
    0.26885E+06        -0.97573E+08         0.00000E+00
    0.00000E+00         0.00000E+00        -0.59029E+08
 
   -0.58968E+08         0.27533E+06         0.00000E+00
    0.27533E+06        -0.97573E+08         0.00000E+00
    0.00000E+00         0.00000E+00        -0.58996E+08
 
   -0.58934E+08         0.28183E+06         0.00000E+00
    0.28183E+06        -0.97573E+08         0.00000E+00
    0.00000E+00         0.00000E+00        -0.58962E+08
 
   -0.58899E+08         0.28833E+06         0.00000E+00
    0.28833E+06        -0.97573E+08         0.00000E+00
    0.00000E+00         0.00000E+00        -0.58928E+08
 
   -0.58864E+08         0.29486E+06         0.00000E+00
    0.29486E+06        -0.97573E+08         0.00000E+00
    0.00000E+00         0.00000E+00        -0.58893E+08
 
   -0.58828E+08         0.30141E+06         0.00000E+00
    0.30141E+06        -0.97573E+08         0.00000E+00
    0.00000E+00         0.00000E+00        -0.58857E+08
 
   -0.58791E+08         0.30800E+06         0.00000E+00
    0.30800E+06        -0.97573E+08         0.00000E+00
    0.00000E+00         0.00000E+00        -0.58820E+08
 
   -0.58753E+08         0.31462E+06         0.00000E+00
    0.31462E+06        -0.97573E+08         0.00000E+00
    0.00000E+00         0.00000E+00        -0.58783E+08
 
   -0.58714E+08         0.32127E+06         0.00000E+00
    0.32127E+06        -0.97573E+08         0.00000E+00
    0.00000E+00         0.00000E+00        -0.58744E+08
 
   -0.58675E+08         0.32797E+06         0.00000E+00
    0.32797E+06        -0.97573E+08         0.00000E+00
    0.00000E+00         0.00000E+00        -0.58705E+08
 
   -0.58635E+08         0.33470E+06         0.00000E+00
    0.33470E+06        -0.97573E+08         0.00000E+00
    0.00000E+00         0.00000E+00        -0.58665E+08
 
   -0.58594E+08         0.34147E+06         0.00000E+00
    0.34147E+06        -0.97573E+08         0.00000E+00
    0.00000E+00         0.00000E+00        -0.58624E+08
 
   -0.58552E+08         0.34828E+06         0.00000E+00
    0.34828E+06        -0.97573E+08         0.00000E+00
    0.00000E+00         0.00000E+00        -0.58583E+08
 
   -0.58509E+08         0.35512E+06         0.00000E+00
    0.35512E+06        -0.97573E+08         0.00000E+00
    0.00000E+00         0.00000E+00        -0.58540E+08
 
   -0.58465E+08         0.36199E+06         0.00000E+00
    0.36199E+06        -0.97572E+08         0.00000E+00
    0.00000E+00         0.00000E+00        -0.58497E+08
 
   -0.58421E+08         0.36889E+06         0.00000E+00
    0.36889E+06        -0.97572E+08         0.00000E+00
    0.00000E+00         0.00000E+00        -0.58452E+08
 
   -0.58375E+08         0.37581E+06         0.00000E+00
    0.37581E+06        -0.97572E+08         0.00000E+00
    0.00000E+00         0.00000E+00        -0.58407E+08
 
   -0.58329E+08         0.38274E+06         0.00000E+00
    0.38274E+06        -0.97572E+08         0.00000E+00
    0.00000E+00         0.00000E+00        -0.58360E+08
 
   -0.58282E+08         0.38968E+06         0.00000E+00
    0.38968E+06        -0.97573E+08         0.00000E+00
    0.00000E+00         0.00000E+00        -0.58313E+08
 
   -0.58233E+08         0.39661E+06         0.00000E+00
    0.39661E+06        -0.97573E+08         0.00000E+00
    0.00000E+00         0.00000E+00        -0.58265E+08
 
   -0.58184E+08         0.40354E+06         0.00000E+00
    0.40354E+06        -0.97573E+08         0.00000E+00
    0.00000E+00         0.00000E+00        -0.58216E+08
 
   -0.58134E+08         0.41044E+06         0.00000E+00
    0.41044E+06        -0.97573E+08         0.00000E+00
    0.00000E+00         0.00000E+00        -0.58166E+08
 
   -0.58083E+08         0.41732E+06         0.00000E+00
    0.41732E+06        -0.97573E+08         0.00000E+00
    0.00000E+00         0.00000E+00        -0.58114E+08
 
   -0.58031E+08         0.42414E+06         0.00000E+00
    0.42414E+06        -0.97574E+08         0.00000E+00
    0.00000E+00         0.00000E+00        -0.58062E+08
 
   -0.57978E+08         0.43091E+06         0.00000E+00
    0.43091E+06        -0.97574E+08         0.00000E+00
    0.00000E+00         0.00000E+00        -0.58009E+08
 
   -0.57924E+08         0.43760E+06         0.00000E+00
    0.43760E+06        -0.97574E+08         0.00000E+00
    0.00000E+00         0.00000E+00        -0.57955E+08
 
   -0.57869E+08         0.44421E+06         0.00000E+00
    0.44421E+06        -0.97575E+08         0.00000E+00
    0.00000E+00         0.00000E+00        -0.57899E+08
 
   -0.57813E+08         0.45070E+06         0.00000E+00
    0.45070E+06        -0.97575E+08         0.00000E+00
    0.00000E+00         0.00000E+00        -0.57843E+08
 
   -0.57756E+08         0.45708E+06         0.00000E+00
    0.45708E+06        -0.97576E+08         0.00000E+00
    0.00000E+00         0.00000E+00        -0.57786E+08
 
   -0.57698E+08         0.46330E+06         0.00000E+00
    0.46330E+06        -0.97577E+08         0.00000E+00
    0.00000E+00         0.00000E+00        -0.57727E+08
 
   -0.57639E+08         0.46935E+06         0.00000E+00
    0.46935E+06        -0.97578E+08         0.00000E+00
    0.00000E+00         0.00000E+00        -0.57668E+08
 
   -0.57580E+08         0.47522E+06         0.00000E+00
    0.47522E+06        -0.97579E+08         0.00000E+00
    0.00000E+00         0.00000E+00        -0.57607E+08
 
   -0.57519E+08         0.48086E+06         0.00000E+00
    0.48086E+06        -0.97580E+08         0.00000E+00
    0.00000E+00         0.00000E+00        -0.57546E+08
 
   -0.57457E+08         0.48626E+06         0.00000E+00
    0.48626E+06        -0.97581E+08         0.00000E+00
    0.00000E+00         0.00000E+00        -0.57483E+08
 
   -0.57395E+08         0.49138E+06         0.00000E+00
    0.49138E+06        -0.97582E+08         0.00000E+00
    0.00000E+00         0.00000E+00        -0.57419E+08
 
   -0.57332E+08         0.49619E+06         0.00000E+00
    0.49619E+06        -0.97584E+08         0.00000E+00
    0.00000E+00         0.00000E+00        -0.57355E+08
 
   -0.57267E+08         0.50066E+06         0.00000E+00
    0.50066E+06        -0.97585E+08         0.00000E+00
    0.00000E+00         0.00000E+00        -0.57289E+08
 
   -0.57202E+08         0.50475E+06         0.00000E+00
    0.50475E+06        -0.97587E+08         0.00000E+00
    0.00000E+00         0.00000E+00        -0.57223E+08
 
   -0.57137E+08         0.50841E+06         0.00000E+00
    0.50841E+06        -0.97589E+08         0.00000E+00
    0.00000E+00         0.00000E+00        -0.57155E+08
 
   -0.57070E+08         0.51162E+06         0.00000E+00
    0.51162E+06        -0.97591E+08         0.00000E+00
    0.00000E+00         0.00000E+00        -0.57086E+08
 
   -0.57003E+08         0.51430E+06         0.00000E+00
    0.51430E+06        -0.97594E+08         0.00000E+00
    0.00000E+00         0.00000E+00        -0.57017E+08
 
   -0.56935E+08         0.51643E+06         0.00000E+00
    0.51643E+06        -0.97596E+08         0.00000E+00
    0.00000E+00         0.00000E+00        -0.56946E+08
 
   -0.56866E+08         0.51794E+06         0.00000E+00
    0.51794E+06        -0.97599E+08         0.00000E+00
    0.00000E+00         0.00000E+00        -0.56875E+08
 
   -0.56797E+08         0.51877E+06         0.00000E+00
    0.51877E+06        -0.97603E+08         0.00000E+00
    0.00000E+00         0.00000E+00        -0.56803E+08
 
   -0.56727E+08         0.51886E+06         0.00000E+00
    0.51886E+06        -0.97606E+08         0.00000E+00
    0.00000E+00         0.00000E+00        -0.56730E+08
 
   -0.56656E+08         0.51814E+06         0.00000E+00
    0.51814E+06        -0.97610E+08         0.00000E+00
    0.00000E+00         0.00000E+00        -0.56656E+08
 
   -0.56585E+08         0.51655E+06         0.00000E+00
    0.51655E+06        -0.97614E+08         0.00000E+00
    0.00000E+00         0.00000E+00        -0.56582E+08
 
   -0.56514E+08         0.51400E+06         0.00000E+00
    0.51400E+06        -0.97619E+08         0.00000E+00
    0.00000E+00         0.00000E+00        -0.56507E+08
 
   -0.56443E+08         0.51042E+06         0.00000E+00
    0.51042E+06        -0.97624E+08         0.00000E+00
    0.00000E+00         0.00000E+00        -0.56431E+08
 
   -0.56371E+08         0.50572E+06         0.00000E+00
    0.50572E+06        -0.97630E+08         0.00000E+00
    0.00000E+00         0.00000E+00        -0.56354E+08
 
   -0.56299E+08         0.49982E+06         0.00000E+00
    0.49982E+06        -0.97637E+08         0.00000E+00
    0.00000E+00         0.00000E+00        -0.56277E+08
 
   -0.56226E+08         0.49262E+06         0.00000E+00
    0.49262E+06        -0.97644E+08         0.00000E+00
    0.00000E+00         0.00000E+00        -0.56200E+08
 
   -0.56154E+08         0.48404E+06         0.00000E+00
    0.48404E+06        -0.97652E+08         0.00000E+00
    0.00000E+00         0.00000E+00        -0.56122E+08
 
   -0.56082E+08         0.47400E+06         0.00000E+00
    0.47400E+06        -0.97660E+08         0.00000E+00
    0.00000E+00         0.00000E+00        -0.56044E+08
 
   -0.56009E+08         0.46240E+06         0.00000E+00
    0.46240E+06        -0.97669E+08         0.00000E+00
    0.00000E+00         0.00000E+00        -0.55965E+08
 
   -0.55936E+08         0.44917E+06         0.00000E+00
    0.44917E+06        -0.97679E+08         0.00000E+00
    0.00000E+00         0.00000E+00        -0.55886E+08
 
   -0.55864E+08         0.43423E+06         0.00000E+00
    0.43423E+06        -0.97690E+08         0.00000E+00
    0.00000E+00         0.00000E+00        -0.55807E+08
 
   -0.55791E+08         0.41752E+06         0.00000E+00
    0.41752E+06        -0.97702E+08         0.00000E+00
    0.00000E+00         0.00000E+00        -0.55727E+08
 
   -0.55718E+08         0.39899E+06         0.00000E+00
    0.39899E+06        -0.97714E+08         0.00000E+00
    0.00000E+00         0.00000E+00        -0.55647E+08
 
   -0.55645E+08         0.37861E+06         0.00000E+00
    0.37861E+06        -0.97726E+08         0.00000E+00
    0.00000E+00         0.00000E+00        -0.55566E+08
 
   -0.55571E+08         0.35635E+06         0.00000E+00
    0.35635E+06        -0.97738E+08         0.00000E+00
    0.00000E+00         0.00000E+00        -0.55485E+08
 
   -0.55497E+08         0.33219E+06         0.00000E+00
    0.33219E+06        -0.97748E+08         0.00000E+00
    0.00000E+00         0.00000E+00        -0.55403E+08
 
   -0.55423E+08         0.30611E+06         0.00000E+00
    0.30611E+06        -0.97757E+08         0.00000E+00
    0.00000E+00         0.00000E+00        -0.55320E+08
 
   -0.55348E+08         0.27809E+06         0.00000E+00
    0.27809E+06        -0.97763E+08         0.00000E+00
    0.00000E+00         0.00000E+00        -0.55236E+08
 
   -0.55274E+08         0.24804E+06         0.00000E+00
    0.24804E+06        -0.97764E+08         0.00000E+00
    0.00000E+00         0.00000E+00        -0.55150E+08
 
   -0.55201E+08         0.21581E+06         0.00000E+00
    0.21581E+06        -0.97758E+08         0.00000E+00
    0.00000E+00         0.00000E+00        -0.55062E+08
 
   -0.55130E+08         0.18111E+06         0.00000E+00
    0.18111E+06        -0.97742E+08         0.00000E+00
    0.00000E+00         0.00000E+00        -0.54972E+08
 
   -0.55064E+08         0.14357E+06         0.00000E+00
    0.14357E+06        -0.97713E+08         0.00000E+00
    0.00000E+00         0.00000E+00        -0.54879E+08
 
   -0.55007E+08         0.10312E+06         0.00000E+00
    0.10312E+06        -0.97668E+08         0.00000E+00
    0.00000E+00         0.00000E+00        -0.54784E+08
 
   -0.54965E+08         0.61170E+05         0.00000E+00
    0.61170E+05        -0.97604E+08         0.00000E+00
    0.00000E+00         0.00000E+00        -0.54688E+08
 
   -0.54942E+08         0.20059E+05         0.00000E+00
    0.20059E+05        -0.97524E+08         0.00000E+00
    0.00000E+00         0.00000E+00        -0.54592E+08
 
   -0.59664E+08         0.60813E+04         0.00000E+00
    0.60813E+04        -0.97606E+08         0.00000E+00
    0.00000E+00         0.00000E+00        -0.59773E+08
 
   -0.59659E+08         0.18529E+05         0.00000E+00
    0.18529E+05        -0.97586E+08         0.00000E+00
    0.00000E+00         0.00000E+00        -0.59749E+08
 
   -0.59649E+08         0.31369E+05         0.00000E+00
    0.31369E+05        -0.97570E+08         0.00000E+00
    0.00000E+00         0.00000E+00        -0.59725E+08
 
   -0.59635E+08         0.44143E+05         0.00000E+00
    0.44143E+05        -0.97559E+08         0.00000E+00
    0.00000E+00         0.00000E+00        -0.59701E+08
 
   -0.59618E+08         0.56492E+05         0.00000E+00
    0.56492E+05        -0.97551E+08         0.00000E+00
    0.00000E+00         0.00000E+00        -0.59677E+08
 
   -0.59600E+08         0.68348E+05         0.00000E+00
    0.68348E+05        -0.97547E+08         0.00000E+00
    0.00000E+00         0.00000E+00        -0.59654E+08
 
   -0.59581E+08         0.79756E+05         0.00000E+00
    0.79756E+05        -0.97546E+08         0.00000E+00
    0.00000E+00         0.00000E+00        -0.59632E+08
 
   -0.59561E+08         0.90756E+05         0.00000E+00
    0.90756E+05        -0.97545E+08         0.00000E+00
    0.00000E+00         0.00000E+00        -0.59609E+08
 
   -0.59541E+08         0.10137E+06         0.00000E+00
    0.10137E+06        -0.97547E+08         0.00000E+00
    0.00000E+00         0.00000E+00        -0.59587E+08
 
   -0.59520E+08         0.11162E+06         0.00000E+00
    0.11162E+06        -0.97548E+08         0.00000E+00
    0.00000E+00         0.00000E+00        -0.59564E+08
 
   -0.59499E+08         0.12151E+06         0.00000E+00
    0.12151E+06        -0.97551E+08         0.00000E+00
    0.00000E+00         0.00000E+00        -0.59542E+08
 
   -0.59478E+08         0.13104E+06         0.00000E+00
    0.13104E+06        -0.97553E+08         0.00000E+00
    0.00000E+00         0.00000E+00        -0.59519E+08
 
   -0.59456E+08         0.14023E+06         0.00000E+00
    0.14023E+06        -0.97556E+08         0.00000E+00
    0.00000E+00         0.00000E+00        -0.59496E+08
 
   -0.59434E+08         0.14908E+06         0.00000E+00
    0.14908E+06        -0.97558E+08         0.00000E+00
    0.00000E+00         0.00000E+00        -0.59473E+08
 
   -0.59411E+08         0.15762E+06         0.00000E+00
    0.15762E+06        -0.97560E+08         0.00000E+00
    0.00000E+00         0.00000E+00        -0.59449E+08
 
   -0.59388E+08         0.16585E+06         0.00000E+00
    0.16585E+06        -0.97563E+08         0.00000E+00
    0.00000E+00         0.00000E+00        -0.59425E+08
 
   -0.59364E+08         0.17381E+06         0.00000E+00
    0.17381E+06        -0.97564E+08         0.00000E+00
    0.00000E+00         0.00000E+00        -0.59400E+08
 
   -0.59340E+08         0.18151E+06         0.00000E+00
    0.18151E+06        -0.97566E+08         0.00000E+00
    0.00000E+00         0.00000E+00        -0.59375E+08
 
   -0.59315E+08         0.18898E+06         0.00000E+00
    0.18898E+06        -0.97568E+08         0.00000E+00
    0.00000E+00         0.00000E+00        -0.59349E+08
 
   -0.59289E+08         0.19625E+06         0.00000E+00
    0.19625E+06        -0.97569E+08         0.00000E+00
    0.00000E+00         0.00000E+00        -0.59323E+08
 
   -0.59263E+08         0.20333E+06         0.00000E+00
    0.20333E+06        -0.97570E+08         0.00000E+00
    0.00000E+00         0.00000E+00        -0.59296E+08
 
   -0.59237E+08         0.21025E+06         0.00000E+00
    0.21025E+06        -0.97571E+08         0.00000E+00
    0.00000E+00         0.00000E+00        -0.59269E+08
 
   -0.59209E+08         0.21703E+06         0.00000E+00
    0.21703E+06        -0.97572E+08         0.00000E+00
    0.00000E+00         0.00000E+00        -0.59241E+08
 
   -0.59181E+08         0.22370E+06         0.00000E+00
    0.22370E+06        -0.97572E+08         0.00000E+00
    0.00000E+00         0.00000E+00        -0.59213E+08
 
   -0.59152E+08         0.23027E+06         0.00000E+00
    0.23027E+06        -0.97573E+08         0.00000E+00
    0.00000E+00         0.00000E+00        -0.59183E+08
 
   -0.59123E+08         0.23676E+06         0.00000E+00
    0.23676E+06        -0.97573E+08         0.00000E+00
    0.00000E+00         0.00000E+00        -0.59154E+08
 
   -0.59092E+08         0.24320E+06         0.00000E+00
    0.24320E+06        -0.97574E+08         0.00000E+00
    0.00000E+00         0.00000E+00        -0.59123E+08
 
   -0.59061E+08         0.24959E+06         0.00000E+00
    0.24959E+06        -0.97574E+08         0.00000E+00
    0.00000E+00         0.00000E+00        -0.59092E+08
 
   -0.59030E+08         0.25595E+06         0.00000E+00
    0.25595E+06        -0.97574E+08         0.00000E+00
    0.00000E+00         0.00000E+00        -0.59061E+08
 
   -0.58997E+08         0.26230E+06         0.00000E+00
    0.26230E+06        -0.97574E+08         0.00000E+00
    0.00000E+00         0.00000E+00        -0.59028E+08
 
   -0.58964E+08         0.26864E+06         0.00000E+00
    0.26864E+06        -0.97574E+08         0.00000E+00
    0.00000E+00         0.00000E+00        -0.58995E+08
 
   -0.58930E+08         0.27498E+06         0.00000E+00
    0.27498E+06        -0.97575E+08         0.00000E+00
    0.00000E+00         0.00000E+00        -0.58962E+08
 
   -0.58896E+08         0.28133E+06         0.00000E+00
    0.28133E+06        -0.97575E+08         0.00000E+00
    0.00000E+00         0.00000E+00        -0.58927E+08
 
   -0.58860E+08         0.28770E+06         0.00000E+00
    0.28770E+06        -0.97575E+08         0.00000E+00
    0.00000E+00         0.00000E+00        -0.58892E+08
 
   -0.58824E+08         0.29410E+06         0.00000E+00
    0.29410E+06        -0.97574E+08         0.00000E+00
    0.00000E+00         0.00000E+00        -0.58856E+08
 
   -0.58787E+08         0.30053E+06         0.00000E+00
    0.30053E+06        -0.97574E+08         0.00000E+00
    0.00000E+00         0.00000E+00        -0.58819E+08
 
   -0.58749E+08         0.30698E+06         0.00000E+00
    0.30698E+06        -0.97574E+08         0.00000E+00
    0.00000E+00         0.00000E+00        -0.58782E+08
 
   -0.58711E+08         0.31348E+06         0.00000E+00
    0.31348E+06        -0.97574E+08         0.00000E+00
    0.00000E+00         0.00000E+00        -0.58744E+08
 
   -0.58671E+08         0.32000E+06         0.00000E+00
    0.32000E+06        -0.97574E+08         0.00000E+00
    0.00000E+00         0.00000E+00        -0.58704E+08
 
   -0.58631E+08         0.32657E+06         0.00000E+00
    0.32657E+06        -0.97574E+08         0.00000E+00
    0.00000E+00         0.00000E+00        -0.58664E+08
 
   -0.58590E+08         0.33317E+06         0.00000E+00
    0.33317E+06        -0.97574E+08         0.00000E+00
    0.00000E+00         0.00000E+00        -0.58624E+08
 
   -0.58548E+08         0.33980E+06         0.00000E+00
    0.33980E+06        -0.97574E+08         0.00000E+00
    0.00000E+00         0.00000E+00        -0.58582E+08
 
   -0.58505E+08         0.34647E+06         0.00000E+00
    0.34647E+06        -0.97574E+08         0.00000E+00
    0.00000E+00         0.00000E+00        -0.58539E+08
 
   -0.58462E+08         0.35316E+06         0.00000E+00
    0.35316E+06        -0.97574E+08         0.00000E+00
    0.00000E+00         0.00000E+00        -0.58496E+08
 
   -0.58417E+08         0.35988E+06         0.00000E+00
    0.35988E+06        -0.97574E+08         0.00000E+00
    0.00000E+00         0.00000E+00        -0.58451E+08
 
   -0.58371E+08         0.36662E+06         0.00000E+00
    0.36662E+06        -0.97574E+08         0.00000E+00
    0.00000E+00         0.00000E+00        -0.58406E+08
 
   -0.58325E+08         0.37336E+06         0.00000E+00
    0.37336E+06        -0.97574E+08         0.00000E+00
    0.00000E+00         0.00000E+00        -0.58360E+08
 
   -0.58278E+08         0.38012E+06         0.00000E+00
    0.38012E+06        -0.97574E+08         0.00000E+00
    0.00000E+00         0.00000E+00        -0.58312E+08
 
   -0.58229E+08         0.38687E+06         0.00000E+00
    0.38687E+06        -0.97574E+08         0.00000E+00
    0.00000E+00         0.00000E+00        -0.58264E+08
 
   -0.58180E+08         0.39360E+06         0.00000E+00
    0.39360E+06        -0.97574E+08         0.00000E+00
    0.00000E+00         0.00000E+00        -0.58215E+08
 
   -0.58130E+08         0.40032E+06         0.00000E+00
    0.40032E+06        -0.97574E+08         0.00000E+00
    0.00000E+00         0.00000E+00        -0.58165E+08
 
   -0.58079E+08         0.40700E+06         0.00000E+00
    0.40700E+06        -0.97575E+08         0.00000E+00
    0.00000E+00         0.00000E+00        -0.58114E+08
 
   -0.58027E+08         0.41363E+06         0.00000E+00
    0.41363E+06        -0.97575E+08         0.00000E+00
    0.00000E+00         0.00000E+00        -0.58061E+08
 
   -0.57974E+08         0.42021E+06         0.00000E+00
    0.42021E+06        -0.97575E+08         0.00000E+00
    0.00000E+00         0.00000E+00        -0.58008E+08
 
   -0.57920E+08         0.42671E+06         0.00000E+00
    0.42671E+06        -0.97576E+08         0.00000E+00
    0.00000E+00         0.00000E+00        -0.57954E+08
 
   -0.57865E+08         0.43312E+06         0.00000E+00
    0.43312E+06        -0.97576E+08         0.00000E+00
    0.00000E+00         0.00000E+00        -0.57899E+08
 
   -0.57809E+08         0.43943E+06         0.00000E+00
    0.43943E+06        -0.97577E+08         0.00000E+00
    0.00000E+00         0.00000E+00        -0.57842E+08
 
   -0.57752E+08         0.44561E+06         0.00000E+00
    0.44561E+06        -0.97577E+08         0.00000E+00
    0.00000E+00         0.00000E+00        -0.57785E+08
 
   -0.57695E+08         0.45165E+06         0.00000E+00
    0.45165E+06        -0.97578E+08         0.00000E+00
    0.00000E+00         0.00000E+00        -0.57726E+08
 
   -0.57636E+08         0.45751E+06         0.00000E+00
    0.45751E+06        -0.97579E+08         0.00000E+00
    0.00000E+00         0.00000E+00        -0.57667E+08
 
   -0.57576E+08         0.46319E+06         0.00000E+00
    0.46319E+06        -0.97580E+08         0.00000E+00
    0.00000E+00         0.00000E+00        -0.57606E+08
 
   -0.57516E+08         0.46865E+06         0.00000E+00
    0.46865E+06        -0.97581E+08         0.00000E+00
    0.00000E+00         0.00000E+00        -0.57545E+08
 
   -0.57454E+08         0.47387E+06         0.00000E+00
    0.47387E+06        -0.97582E+08         0.00000E+00
    0.00000E+00         0.00000E+00        -0.57482E+08
 
   -0.57392E+08         0.47881E+06         0.00000E+00
    0.47881E+06        -0.97583E+08         0.00000E+00
    0.00000E+00         0.00000E+00        -0.57419E+08
 
   -0.57329E+08         0.48345E+06         0.00000E+00
    0.48345E+06        -0.97585E+08         0.00000E+00
    0.00000E+00         0.00000E+00        -0.57354E+08
 
   -0.57265E+08         0.48775E+06         0.00000E+00
    0.48775E+06        -0.97586E+08         0.00000E+00
    0.00000E+00         0.00000E+00        -0.57289E+08
 
   -0.57200E+08         0.49168E+06         0.00000E+00
    0.49168E+06        -0.97588E+08         0.00000E+00
    0.00000E+00         0.00000E+00        -0.57222E+08
 
   -0.57134E+08         0.49519E+06         0.00000E+00
    0.49519E+06        -0.97590E+08         0.00000E+00
    0.00000E+00         0.00000E+00        -0.57154E+08
 
   -0.57068E+08         0.49824E+06         0.00000E+00
    0.49824E+06        -0.97592E+08         0.00000E+00
    0.00000E+00         0.00000E+00        -0.57086E+08
 
   -0.57001E+08         0.50079E+06         0.00000E+00
    0.50079E+06        -0.97594E+08         0.00000E+00
    0.00000E+00         0.00000E+00        -0.57016E+08
 
   -0.56933E+08         0.50278E+06         0.00000E+00
    0.50278E+06        -0.97597E+08         0.00000E+00
    0.00000E+00         0.00000E+00        -0.56946E+08
 
   -0.56865E+08         0.50416E+06         0.00000E+00
    0.50416E+06        -0.97600E+08         0.00000E+00
    0.00000E+00         0.00000E+00        -0.56875E+08
 
   -0.56796E+08         0.50488E+06         0.00000E+00
    0.50488E+06        -0.97603E+08         0.00000E+00
    0.00000E+00         0.00000E+00        -0.56803E+08
 
   -0.56726E+08         0.50487E+06         0.00000E+00
    0.50487E+06        -0.97606E+08         0.00000E+00
    0.00000E+00         0.00000E+00        -0.56730E+08
 
   -0.56656E+08         0.50406E+06         0.00000E+00
    0.50406E+06        -0.97610E+08         0.00000E+00
    0.00000E+00         0.00000E+00        -0.56656E+08
 
   -0.56586E+08         0.50239E+06         0.00000E+00
    0.50239E+06        -0.97614E+08         0.00000E+00
    0.00000E+00         0.00000E+00        -0.56582E+08
 
   -0.56515E+08         0.49977E+06         0.00000E+00
    0.49977E+06        -0.97619E+08         0.00000E+00
    0.00000E+00         0.00000E+00        -0.56507E+08
 
   -0.56444E+08         0.49613E+06         0.00000E+00
    0.49613E+06        -0.97624E+08         0.00000E+00
    0.00000E+00         0.00000E+00        -0.56431E+08
 
   -0.56373E+08         0.49138E+06         0.00000E+00
    0.49138E+06        -0.97629E+08         0.00000E+00
    0.00000E+00         0.00000E+00        -0.56355E+08
 
   -0.56301E+08         0.48544E+06         0.00000E+00
    0.48544E+06        -0.97635E+08         0.00000E+00
    0.00000E+00         0.00000E+00        -0.56278E+08
 
   -0.56230E+08         0.47822E+06         0.00000E+00
    0.47822E+06        -0.97642E+08         0.00000E+00
    0.00000E+00         0.00000E+00        -0.56200E+08
 
   -0.56158E+08         0.46963E+06         0.00000E+00
    0.46963E+06        -0.97650E+08         0.00000E+00
    0.00000E+00         0.00000E+00        -0.56123E+08
 
   -0.56086E+08         0.45957E+06         0.00000E+00
    0.45957E+06        -0.97658E+08         0.00000E+00
    0.00000E+00         0.00000E+00        -0.56044E+08
 
   -0.56014E+08         0.44797E+06         0.00000E+00
    0.44797E+06        -0.97667E+08         0.00000E+00
    0.00000E+00         0.00000E+00        -0.55966E+08
 
   -0.55943E+08         0.43472E+06         0.00000E+00
    0.43472E+06        -0.97677E+08         0.00000E+00
    0.00000E+00         0.00000E+00        -0.55887E+08
 
   -0.55871E+08         0.41977E+06         0.00000E+00
    0.41977E+06        -0.97687E+08         0.00000E+00
    0.00000E+00         0.00000E+00        -0.55808E+08
 
   -0.55799E+08         0.40304E+06         0.00000E+00
    0.40304E+06        -0.97698E+08         0.00000E+00
    0.00000E+00         0.00000E+00        -0.55728E+08
 
   -0.55727E+08         0.38447E+06         0.00000E+00
    0.38447E+06        -0.97710E+08         0.00000E+00
    0.00000E+00         0.00000E+00        -0.55648E+08
 
   -0.55655E+08         0.36404E+06         0.00000E+00
    0.36404E+06        -0.97722E+08         0.00000E+00
    0.00000E+00         0.00000E+00        -0.55568E+08
 
   -0.55582E+08         0.34171E+06         0.00000E+00
    0.34171E+06        -0.97733E+08         0.00000E+00
    0.00000E+00         0.00000E+00        -0.55487E+08
 
   -0.55510E+08         0.31748E+06         0.00000E+00
    0.31748E+06        -0.97743E+08         0.00000E+00
    0.00000E+00         0.00000E+00        -0.55406E+08
 
   -0.55437E+08         0.29136E+06         0.00000E+00
    0.29136E+06        -0.97752E+08         0.00000E+00
    0.00000E+00         0.00000E+00        -0.55323E+08
 
   -0.55364E+08         0.26334E+06         0.00000E+00
    0.26334E+06        -0.97757E+08         0.00000E+00
    0.00000E+00         0.00000E+00        -0.55239E+08
 
   -0.55291E+08         0.23342E+06         0.00000E+00
    0.23342E+06        -0.97758E+08         0.00000E+00
    0.00000E+00         0.00000E+00        -0.55154E+08
 
   -0.55220E+08         0.20154E+06         0.00000E+00
    0.20154E+06        -0.97751E+08         0.00000E+00
    0.00000E+00         0.00000E+00        -0.55066E+08
 
   -0.55152E+08         0.16757E+06         0.00000E+00
    0.16757E+06        -0.97735E+08         0.00000E+00
    0.00000E+00         0.00000E+00        -0.54976E+08
 
   -0.55089E+08         0.13140E+06         0.00000E+00
    0.13140E+06        -0.97705E+08         0.00000E+00
    0.00000E+00         0.00000E+00        -0.54884E+08
 
   -0.55035E+08         0.93336E+05         0.00000E+00
    0.93336E+05        -0.97660E+08         0.00000E+00
    0.00000E+00         0.00000E+00        -0.54790E+08
 
   -0.54996E+08         0.54879E+05         0.00000E+00
    0.54879E+05        -0.97596E+08         0.00000E+00
    0.00000E+00         0.00000E+00        -0.54695E+08
 
   -0.54976E+08         0.17918E+05         0.00000E+00
    0.17918E+05        -0.97516E+08         0.00000E+00
    0.00000E+00         0.00000E+00        -0.54600E+08
 
   -0.59655E+08         0.55687E+04         0.00000E+00
    0.55687E+04        -0.97608E+08         0.00000E+00
    0.00000E+00         0.00000E+00        -0.59770E+08
 
   -0.59650E+08         0.17014E+05         0.00000E+00
    0.17014E+05        -0.97589E+08         0.00000E+00
    0.00000E+00         0.00000E+00        -0.59747E+08
 
   -0.59640E+08         0.28975E+05         0.00000E+00
    0.28975E+05        -0.97573E+08         0.00000E+00
    0.00000E+00         0.00000E+00        -0.59723E+08
 
   -0.59627E+08         0.41104E+05         0.00000E+00
    0.41104E+05        -0.97561E+08         0.00000E+00
    0.00000E+00         0.00000E+00        -0.59699E+08
 
   -0.59611E+08         0.53036E+05         0.00000E+00
    0.53036E+05        -0.97554E+08         0.00000E+00
    0.00000E+00         0.00000E+00        -0.59676E+08
 
   -0.59593E+08         0.64634E+05         0.00000E+00
    0.64634E+05        -0.97550E+08         0.00000E+00
    0.00000E+00         0.00000E+00        -0.59653E+08
 
   -0.59575E+08         0.75878E+05         0.00000E+00
    0.75878E+05        -0.97548E+08         0.00000E+00
    0.00000E+00         0.00000E+00        -0.59630E+08
 
   -0.59555E+08         0.86768E+05         0.00000E+00
    0.86768E+05        -0.97548E+08         0.00000E+00
    0.00000E+00         0.00000E+00        -0.59608E+08
 
   -0.59535E+08         0.97304E+05         0.00000E+00
    0.97304E+05        -0.97549E+08         0.00000E+00
    0.00000E+00         0.00000E+00        -0.59586E+08
 
   -0.59515E+08         0.10748E+06         0.00000E+00
    0.10748E+06        -0.97550E+08         0.00000E+00
    0.00000E+00         0.00000E+00        -0.59563E+08
 
   -0.59494E+08         0.11730E+06         0.00000E+00
    0.11730E+06        -0.97553E+08         0.00000E+00
    0.00000E+00         0.00000E+00        -0.59541E+08
 
   -0.59473E+08         0.12675E+06         0.00000E+00
    0.12675E+06        -0.97555E+08         0.00000E+00
    0.00000E+00         0.00000E+00        -0.59518E+08
 
   -0.59451E+08         0.13585E+06         0.00000E+00
    0.13585E+06        -0.97558E+08         0.00000E+00
    0.00000E+00         0.00000E+00        -0.59495E+08
 
   -0.59429E+08         0.14461E+06         0.00000E+00
    0.14461E+06        -0.97560E+08         0.00000E+00
    0.00000E+00         0.00000E+00        -0.59472E+08
 
   -0.59407E+08         0.15305E+06         0.00000E+00
    0.15305E+06        -0.97562E+08         0.00000E+00
    0.00000E+00         0.00000E+00        -0.59448E+08
 
   -0.59384E+08         0.16118E+06         0.00000E+00
    0.16118E+06        -0.97564E+08         0.00000E+00
    0.00000E+00         0.00000E+00        -0.59424E+08
 
   -0.59360E+08         0.16902E+06         0.00000E+00
    0.16902E+06        -0.97566E+08         0.00000E+00
    0.00000E+00         0.00000E+00        -0.59399E+08
 
   -0.59336E+08         0.17661E+06         0.00000E+00
    0.17661E+06        -0.97568E+08         0.00000E+00
    0.00000E+00         0.00000E+00        -0.59374E+08
 
   -0.59311E+08         0.18395E+06         0.00000E+00
    0.18395E+06        -0.97569E+08         0.00000E+00
    0.00000E+00         0.00000E+00        -0.59348E+08
 
   -0.59286E+08         0.19109E+06         0.00000E+00
    0.19109E+06        -0.97570E+08         0.00000E+00
    0.00000E+00         0.00000E+00        -0.59322E+08
 
   -0.59260E+08         0.19804E+06         0.00000E+00
    0.19804E+06        -0.97571E+08         0.00000E+00
    0.00000E+00         0.00000E+00        -0.59296E+08
 
   -0.59233E+08         0.20482E+06         0.00000E+00
    0.20482E+06        -0.97572E+08         0.00000E+00
    0.00000E+00         0.00000E+00        -0.59268E+08
 
   -0.59206E+08         0.21147E+06         0.00000E+00
    0.21147E+06        -0.97573E+08         0.00000E+00
    0.00000E+00         0.00000E+00        -0.59240E+08
 
   -0.59177E+08         0.21800E+06         0.00000E+00
    0.21800E+06        -0.97574E+08         0.00000E+00
    0.00000E+00         0.00000E+00        -0.59212E+08
 
   -0.59149E+08         0.22443E+06         0.00000E+00
    0.22443E+06        -0.97574E+08         0.00000E+00
    0.00000E+00         0.00000E+00        -0.59183E+08
 
   -0.59119E+08         0.23079E+06         0.00000E+00
    0.23079E+06        -0.97575E+08         0.00000E+00
    0.00000E+00         0.00000E+00        -0.59153E+08
 
   -0.59089E+08         0.23708E+06         0.00000E+00
    0.23708E+06        -0.97575E+08         0.00000E+00
    0.00000E+00         0.00000E+00        -0.59123E+08
 
   -0.59058E+08         0.24333E+06         0.00000E+00
    0.24333E+06        -0.97575E+08         0.00000E+00
    0.00000E+00         0.00000E+00        -0.59092E+08
 
   -0.59026E+08         0.24955E+06         0.00000E+00
    0.24955E+06        -0.97575E+08         0.00000E+00
    0.00000E+00         0.00000E+00        -0.59060E+08
 
   -0.58994E+08         0.25575E+06         0.00000E+00
    0.25575E+06        -0.97576E+08         0.00000E+00
    0.00000E+00         0.00000E+00        -0.59028E+08
 
   -0.58961E+08         0.26194E+06         0.00000E+00
    0.26194E+06        -0.97576E+08         0.00000E+00
    0.00000E+00         0.00000E+00        -0.58995E+08
 
   -0.58927E+08         0.26813E+06         0.00000E+00
    0.26813E+06        -0.97576E+08         0.00000E+00
    0.00000E+00         0.00000E+00        -0.58961E+08
 
   -0.58892E+08         0.27433E+06         0.00000E+00
    0.27433E+06        -0.97576E+08         0.00000E+00
    0.00000E+00         0.00000E+00        -0.58927E+08
 
   -0.58857E+08         0.28055E+06         0.00000E+00
    0.28055E+06        -0.97576E+08         0.00000E+00
    0.00000E+00         0.00000E+00        -0.58891E+08
 
   -0.58821E+08         0.28678E+06         0.00000E+00
    0.28678E+06        -0.97576E+08         0.00000E+00
    0.00000E+00         0.00000E+00        -0.58855E+08
 
   -0.58784E+08         0.29305E+06         0.00000E+00
    0.29305E+06        -0.97576E+08         0.00000E+00
    0.00000E+00         0.00000E+00        -0.58819E+08
 
   -0.58746E+08         0.29935E+06         0.00000E+00
    0.29935E+06        -0.97576E+08         0.00000E+00
    0.00000E+00         0.00000E+00        -0.58781E+08
 
   -0.58707E+08         0.30567E+06         0.00000E+00
    0.30567E+06        -0.97576E+08         0.00000E+00
    0.00000E+00         0.00000E+00        -0.58743E+08
 
   -0.58668E+08         0.31204E+06         0.00000E+00
    0.31204E+06        -0.97575E+08         0.00000E+00
    0.00000E+00         0.00000E+00        -0.58704E+08
 
   -0.58627E+08         0.31843E+06         0.00000E+00
    0.31843E+06        -0.97575E+08         0.00000E+00
    0.00000E+00         0.00000E+00        -0.58664E+08
 
   -0.58586E+08         0.32486E+06         0.00000E+00
    0.32486E+06        -0.97575E+08         0.00000E+00
    0.00000E+00         0.00000E+00        -0.58623E+08
 
   -0.58544E+08         0.33132E+06         0.00000E+00
    0.33132E+06        -0.97575E+08         0.00000E+00
    0.00000E+00         0.00000E+00        -0.58581E+08
 
   -0.58501E+08         0.33781E+06         0.00000E+00
    0.33781E+06        -0.97575E+08         0.00000E+00
    0.00000E+00         0.00000E+00        -0.58539E+08
 
   -0.58458E+08         0.34433E+06         0.00000E+00
    0.34433E+06        -0.97575E+08         0.00000E+00
    0.00000E+00         0.00000E+00        -0.58495E+08
 
   -0.58413E+08         0.35087E+06         0.00000E+00
    0.35087E+06        -0.97575E+08         0.00000E+00
    0.00000E+00         0.00000E+00        -0.58451E+08
 
   -0.58368E+08         0.35742E+06         0.00000E+00
    0.35742E+06        -0.97575E+08         0.00000E+00
    0.00000E+00         0.00000E+00        -0.58405E+08
 
   -0.58321E+08         0.36398E+06         0.00000E+00
    0.36398E+06        -0.97575E+08         0.00000E+00
    0.00000E+00         0.00000E+00        -0.58359E+08
 
   -0.58274E+08         0.37055E+06         0.00000E+00
    0.37055E+06        -0.97575E+08         0.00000E+00
    0.00000E+00         0.00000E+00        -0.58312E+08
 
   -0.58225E+08         0.37712E+06         0.00000E+00
    0.37712E+06        -0.97575E+08         0.00000E+00
    0.00000E+00         0.00000E+00        -0.58263E+08
 
   -0.58176E+08         0.38367E+06         0.00000E+00
    0.38367E+06        -0.97575E+08         0.00000E+00
    0.00000E+00         0.00000E+00        -0.58214E+08
 
   -0.58126E+08         0.39019E+06         0.00000E+00
    0.39019E+06        -0.97576E+08         0.00000E+00
    0.00000E+00         0.00000E+00        -0.58164E+08
 
   -0.58075E+08         0.39668E+06         0.00000E+00
    0.39668E+06        -0.97576E+08         0.00000E+00
    0.00000E+00         0.00000E+00        -0.58113E+08
 
   -0.58023E+08         0.40313E+06         0.00000E+00
    0.40313E+06        -0.97576E+08         0.00000E+00
    0.00000E+00         0.00000E+00        -0.58061E+08
 
   -0.57970E+08         0.40952E+06         0.00000E+00
    0.40952E+06        -0.97577E+08         0.00000E+00
    0.00000E+00         0.00000E+00        -0.58007E+08
 
   -0.57916E+08         0.41583E+06         0.00000E+00
    0.41583E+06        -0.97577E+08         0.00000E+00
    0.00000E+00         0.00000E+00        -0.57953E+08
 
   -0.57861E+08         0.42205E+06         0.00000E+00
    0.42205E+06        -0.97577E+08         0.00000E+00
    0.00000E+00         0.00000E+00        -0.57898E+08
 
   -0.57805E+08         0.42817E+06         0.00000E+00
    0.42817E+06        -0.97578E+08         0.00000E+00
    0.00000E+00         0.00000E+00        -0.57841E+08
 
   -0.57749E+08         0.43416E+06         0.00000E+00
    0.43416E+06        -0.97578E+08         0.00000E+00
    0.00000E+00         0.00000E+00        -0.57784E+08
 
   -0.57691E+08         0.44001E+06         0.00000E+00
    0.44001E+06        -0.97579E+08         0.00000E+00
    0.00000E+00         0.00000E+00        -0.57726E+08
 
   -0.57632E+08         0.44569E+06         0.00000E+00
    0.44569E+06        -0.97580E+08         0.00000E+00
    0.00000E+00         0.00000E+00        -0.57666E+08
 
   -0.57573E+08         0.45118E+06         0.00000E+00
    0.45118E+06        -0.97581E+08         0.00000E+00
    0.00000E+00         0.00000E+00        -0.57606E+08
 
   -0.57512E+08         0.45646E+06         0.00000E+00
    0.45646E+06        -0.97582E+08         0.00000E+00
    0.00000E+00         0.00000E+00        -0.57544E+08
 
   -0.57451E+08         0.46150E+06         0.00000E+00
    0.46150E+06        -0.97583E+08         0.00000E+00
    0.00000E+00         0.00000E+00        -0.57482E+08
 
   -0.57389E+08         0.46628E+06         0.00000E+00
    0.46628E+06        -0.97584E+08         0.00000E+00
    0.00000E+00         0.00000E+00        -0.57418E+08
 
   -0.57326E+08         0.47075E+06         0.00000E+00
    0.47075E+06        -0.97586E+08         0.00000E+00
    0.00000E+00         0.00000E+00        -0.57354E+08
 
   -0.57262E+08         0.47488E+06         0.00000E+00
    0.47488E+06        -0.97587E+08         0.00000E+00
    0.00000E+00         0.00000E+00        -0.57288E+08
 
   -0.57197E+08         0.47865E+06         0.00000E+00
    0.47865E+06        -0.97589E+08         0.00000E+00
    0.00000E+00         0.00000E+00        -0.57221E+08
 
   -0.57132E+08         0.48201E+06         0.00000E+00
    0.48201E+06        -0.97590E+08         0.00000E+00
    0.00000E+00         0.00000E+00        -0.57154E+08
 
   -0.57066E+08         0.48492E+06         0.00000E+00
    0.48492E+06        -0.97592E+08         0.00000E+00
    0.00000E+00         0.00000E+00        -0.57085E+08
 
   -0.56999E+08         0.48733E+06         0.00000E+00
    0.48733E+06        -0.97595E+08         0.00000E+00
    0.00000E+00         0.00000E+00        -0.57016E+08
 
   -0.56931E+08         0.48919E+06         0.00000E+00
    0.48919E+06        -0.97597E+08         0.00000E+00
    0.00000E+00         0.00000E+00        -0.56946E+08
 
   -0.56863E+08         0.49046E+06         0.00000E+00
    0.49046E+06        -0.97600E+08         0.00000E+00
    0.00000E+00         0.00000E+00        -0.56875E+08
 
   -0.56795E+08         0.49107E+06         0.00000E+00
    0.49107E+06        -0.97603E+08         0.00000E+00
    0.00000E+00         0.00000E+00        -0.56803E+08
 
   -0.56726E+08         0.49096E+06         0.00000E+00
    0.49096E+06        -0.97606E+08         0.00000E+00
    0.00000E+00         0.00000E+00        -0.56730E+08
 
   -0.56656E+08         0.49006E+06         0.00000E+00
    0.49006E+06        -0.97610E+08         0.00000E+00
    0.00000E+00         0.00000E+00        -0.56656E+08
 
   -0.56586E+08         0.48831E+06         0.00000E+00
    0.48831E+06        -0.97614E+08         0.00000E+00
    0.00000E+00         0.00000E+00        -0.56582E+08
 
   -0.56516E+08         0.48563E+06         0.00000E+00
    0.48563E+06        -0.97618E+08         0.00000E+00
    0.00000E+00         0.00000E+00        -0.56507E+08
 
   -0.56445E+08         0.48194E+06         0.00000E+00
    0.48194E+06        -0.97623E+08         0.00000E+00
    0.00000E+00         0.00000E+00        -0.56431E+08
 
   -0.56374E+08         0.47716E+06         0.00000E+00
    0.47716E+06        -0.97628E+08         0.00000E+00
    0.00000E+00         0.00000E+00        -0.56355E+08
 
   -0.56304E+08         0.47120E+06         0.00000E+00
    0.47120E+06        -0.97634E+08         0.00000E+00
    0.00000E+00         0.00000E+00        -0.56278E+08
 
   -0.56233E+08         0.46396E+06         0.00000E+00
    0.46396E+06        -0.97641E+08         0.00000E+00
    0.00000E+00         0.00000E+00        -0.56201E+08
 
   -0.56162E+08         0.45536E+06         0.00000E+00
    0.45536E+06        -0.97648E+08         0.00000E+00
    0.00000E+00         0.00000E+00        -0.56123E+08
 
   -0.56091E+08         0.44530E+06         0.00000E+00
    0.44530E+06        -0.97656E+08         0.00000E+00
    0.00000E+00         0.00000E+00        -0.56045E+08
 
   -0.56020E+08         0.43370E+06         0.00000E+00
    0.43370E+06        -0.97664E+08         0.00000E+00
    0.00000E+00         0.00000E+00        -0.55967E+08
 
   -0.55949E+08         0.42045E+06         0.00000E+00
    0.42045E+06        -0.97674E+08         0.00000E+00
    0.00000E+00         0.00000E+00        -0.55888E+08
 
   -0.55878E+08         0.40550E+06         0.00000E+00
    0.40550E+06        -0.97684E+08         0.00000E+00
    0.00000E+00         0.00000E+00        -0.55809E+08
 
   -0.55807E+08         0.38875E+06         0.00000E+00
    0.38875E+06        -0.97695E+08         0.00000E+00
    0.00000E+00         0.00000E+00        -0.55730E+08
 
   -0.55736E+08         0.37016E+06         0.00000E+00
    0.37016E+06        -0.97706E+08         0.00000E+00
    0.00000E+00         0.00000E+00        -0.55650E+08
 
   -0.55665E+08         0.34969E+06         0.00000E+00
    0.34969E+06        -0.97717E+08         0.00000E+00
    0.00000E+00         0.00000E+00        -0.55570E+08
 
   -0.55594E+08         0.32732E+06         0.00000E+00
    0.32732E+06        -0.97728E+08         0.00000E+00
    0.00000E+00         0.00000E+00        -0.55489E+08
 
   -0.55522E+08         0.30305E+06         0.00000E+00
    0.30305E+06        -0.97738E+08         0.00000E+00
    0.00000E+00         0.00000E+00        -0.55408E+08
 
   -0.55451E+08         0.27691E+06         0.00000E+00
    0.27691E+06        -0.97746E+08         0.00000E+00
    0.00000E+00         0.00000E+00        -0.55326E+08
 
   -0.55380E+08         0.24894E+06         0.00000E+00
    0.24894E+06        -0.97751E+08         0.00000E+00
    0.00000E+00         0.00000E+00        -0.55242E+08
 
   -0.55309E+08         0.21919E+06         0.00000E+00
    0.21919E+06        -0.97751E+08         0.00000E+00
    0.00000E+00         0.00000E+00        -0.55157E+08
 
   -0.55240E+08         0.18772E+06         0.00000E+00
    0.18772E+06        -0.97744E+08         0.00000E+00
    0.00000E+00         0.00000E+00        -0.55070E+08
 
   -0.55174E+08         0.15457E+06         0.00000E+00
    0.15457E+06        -0.97728E+08         0.00000E+00
    0.00000E+00         0.00000E+00        -0.54981E+08
 
   -0.55114E+08         0.11986E+06         0.00000E+00
    0.11986E+06        -0.97698E+08         0.00000E+00
    0.00000E+00         0.00000E+00        -0.54890E+08
 
   -0.55063E+08         0.84184E+05         0.00000E+00
    0.84184E+05        -0.97652E+08         0.00000E+00
    0.00000E+00         0.00000E+00        -0.54796E+08
 
   -0.55027E+08         0.49066E+05         0.00000E+00
    0.49066E+05        -0.97589E+08         0.00000E+00
    0.00000E+00         0.00000E+00        -0.54701E+08
 
   -0.55008E+08         0.15949E+05         0.00000E+00
    0.15949E+05        -0.97510E+08         0.00000E+00
    0.00000E+00         0.00000E+00        -0.54607E+08
 
   -0.59646E+08         0.50903E+04         0.00000E+00
    0.50903E+04        -0.97610E+08         0.00000E+00
    0.00000E+00         0.00000E+00        -0.59768E+08
 
   -0.59641E+08         0.15595E+05         0.00000E+00
    0.15595E+05        -0.97591E+08         0.00000E+00
    0.00000E+00         0.00000E+00        -0.59745E+08
 
   -0.59632E+08         0.26714E+05         0.00000E+00
    0.26714E+05        -0.97575E+08         0.00000E+00
    0.00000E+00         0.00000E+00        -0.59721E+08
 
   -0.59619E+08         0.38201E+05         0.00000E+00
    0.38201E+05        -0.97564E+08         0.00000E+00
    0.00000E+00         0.00000E+00        -0.59698E+08
 
   -0.59604E+08         0.49700E+05         0.00000E+00
    0.49700E+05        -0.97556E+08         0.00000E+00
    0.00000E+00         0.00000E+00        -0.59675E+08
 
   -0.59587E+08         0.61020E+05         0.00000E+00
    0.61020E+05        -0.97552E+08         0.00000E+00
    0.00000E+00         0.00000E+00        -0.59652E+08
 
   -0.59569E+08         0.72084E+05         0.00000E+00
    0.72084E+05        -0.97550E+08         0.00000E+00
    0.00000E+00         0.00000E+00        -0.59629E+08
 
   -0.59549E+08         0.82853E+05         0.00000E+00
    0.82853E+05        -0.97550E+08         0.00000E+00
    0.00000E+00         0.00000E+00        -0.59607E+08
 
   -0.59530E+08         0.93296E+05         0.00000E+00
    0.93296E+05        -0.97551E+08         0.00000E+00
    0.00000E+00         0.00000E+00        -0.59585E+08
 
   -0.59510E+08         0.10339E+06         0.00000E+00
    0.10339E+06        -0.97552E+08         0.00000E+00
    0.00000E+00         0.00000E+00        -0.59562E+08
 
   -0.59489E+08         0.11313E+06         0.00000E+00
    0.11313E+06        -0.97555E+08         0.00000E+00
    0.00000E+00         0.00000E+00        -0.59540E+08
 
   -0.59468E+08         0.12250E+06         0.00000E+00
    0.12250E+06        -0.97557E+08         0.00000E+00
    0.00000E+00         0.00000E+00        -0.59517E+08
 
   -0.59447E+08         0.13152E+06         0.00000E+00
    0.13152E+06        -0.97559E+08         0.00000E+00
    0.00000E+00         0.00000E+00        -0.59494E+08
 
   -0.59425E+08         0.14018E+06         0.00000E+00
    0.14018E+06        -0.97562E+08         0.00000E+00
    0.00000E+00         0.00000E+00        -0.59471E+08
 
   -0.59403E+08         0.14851E+06         0.00000E+00
    0.14851E+06        -0.97564E+08         0.00000E+00
    0.00000E+00         0.00000E+00        -0.59447E+08
 
   -0.59380E+08         0.15653E+06         0.00000E+00
    0.15653E+06        -0.97566E+08         0.00000E+00
    0.00000E+00         0.00000E+00        -0.59423E+08
 
   -0.59356E+08         0.16426E+06         0.00000E+00
    0.16426E+06        -0.97568E+08         0.00000E+00
    0.00000E+00         0.00000E+00        -0.59399E+08
 
   -0.59332E+08         0.17172E+06         0.00000E+00
    0.17172E+06        -0.97569E+08         0.00000E+00
    0.00000E+00         0.00000E+00        -0.59373E+08
 
   -0.59308E+08         0.17894E+06         0.00000E+00
    0.17894E+06        -0.97571E+08         0.00000E+00
    0.00000E+00         0.00000E+00        -0.59348E+08
 
   -0.59282E+08         0.18594E+06         0.00000E+00
    0.18594E+06        -0.97572E+08         0.00000E+00
    0.00000E+00         0.00000E+00        -0.59322E+08
 
   -0.59256E+08         0.19276E+06         0.00000E+00
    0.19276E+06        -0.97573E+08         0.00000E+00
    0.00000E+00         0.00000E+00        -0.59295E+08
 
   -0.59229E+08         0.19941E+06         0.00000E+00
    0.19941E+06        -0.97574E+08         0.00000E+00
    0.00000E+00         0.00000E+00        -0.59268E+08
 
   -0.59202E+08         0.20592E+06         0.00000E+00
    0.20592E+06        -0.97574E+08         0.00000E+00
    0.00000E+00         0.00000E+00        -0.59240E+08
 
   -0.59174E+08         0.21231E+06         0.00000E+00
    0.21231E+06        -0.97575E+08         0.00000E+00
    0.00000E+00         0.00000E+00        -0.59211E+08
 
   -0.59145E+08         0.21860E+06         0.00000E+00
    0.21860E+06        -0.97576E+08         0.00000E+00
    0.00000E+00         0.00000E+00        -0.59182E+08
 
   -0.59116E+08         0.22482E+06         0.00000E+00
    0.22482E+06        -0.97576E+08         0.00000E+00
    0.00000E+00         0.00000E+00        -0.59152E+08
 
   -0.59085E+08         0.23097E+06         0.00000E+00
    0.23097E+06        -0.97576E+08         0.00000E+00
    0.00000E+00         0.00000E+00        -0.59122E+08
 
   -0.59055E+08         0.23707E+06         0.00000E+00
    0.23707E+06        -0.97577E+08         0.00000E+00
    0.00000E+00         0.00000E+00        -0.59091E+08
 
   -0.59023E+08         0.24314E+06         0.00000E+00
    0.24314E+06        -0.97577E+08         0.00000E+00
    0.00000E+00         0.00000E+00        -0.59060E+08
 
   -0.58990E+08         0.24919E+06         0.00000E+00
    0.24919E+06        -0.97577E+08         0.00000E+00
    0.00000E+00         0.00000E+00        -0.59027E+08
 
   -0.58957E+08         0.25523E+06         0.00000E+00
    0.25523E+06        -0.97577E+08         0.00000E+00
    0.00000E+00         0.00000E+00        -0.58994E+08
 
   -0.58923E+08         0.26127E+06         0.00000E+00
    0.26127E+06        -0.97577E+08         0.00000E+00
    0.00000E+00         0.00000E+00        -0.58960E+08
 
   -0.58889E+08         0.26732E+06         0.00000E+00
    0.26732E+06        -0.97577E+08         0.00000E+00
    0.00000E+00         0.00000E+00        -0.58926E+08
 
   -0.58853E+08         0.27338E+06         0.00000E+00
    0.27338E+06        -0.97577E+08         0.00000E+00
    0.00000E+00         0.00000E+00        -0.58891E+08
 
   -0.58817E+08         0.27946E+06         0.00000E+00
    0.27946E+06        -0.97577E+08         0.00000E+00
    0.00000E+00         0.00000E+00        -0.58855E+08
 
   -0.58780E+08         0.28557E+06         0.00000E+00
    0.28557E+06        -0.97577E+08         0.00000E+00
    0.00000E+00         0.00000E+00        -0.58818E+08
 
   -0.58742E+08         0.29170E+06         0.00000E+00
    0.29170E+06        -0.97577E+08         0.00000E+00
    0.00000E+00         0.00000E+00        -0.58781E+08
 
   -0.58704E+08         0.29787E+06         0.00000E+00
    0.29787E+06        -0.97577E+08         0.00000E+00
    0.00000E+00         0.00000E+00        -0.58742E+08
 
   -0.58664E+08         0.30406E+06         0.00000E+00
    0.30406E+06        -0.97577E+08         0.00000E+00
    0.00000E+00         0.00000E+00        -0.58703E+08
 
   -0.58624E+08         0.31029E+06         0.00000E+00
    0.31029E+06        -0.97577E+08         0.00000E+00
    0.00000E+00         0.00000E+00        -0.58663E+08
 
   -0.58583E+08         0.31655E+06         0.00000E+00
    0.31655E+06        -0.97577E+08         0.00000E+00
    0.00000E+00         0.00000E+00        -0.58622E+08
 
   -0.58541E+08         0.32284E+06         0.00000E+00
    0.32284E+06        -0.97577E+08         0.00000E+00
    0.00000E+00         0.00000E+00        -0.58580E+08
 
   -0.58498E+08         0.32915E+06         0.00000E+00
    0.32915E+06        -0.97576E+08         0.00000E+00
    0.00000E+00         0.00000E+00        -0.58538E+08
 
   -0.58454E+08         0.33549E+06         0.00000E+00
    0.33549E+06        -0.97576E+08         0.00000E+00
    0.00000E+00         0.00000E+00        -0.58494E+08
 
   -0.58409E+08         0.34185E+06         0.00000E+00
    0.34185E+06        -0.97576E+08         0.00000E+00
    0.00000E+00         0.00000E+00        -0.58450E+08
 
   -0.58364E+08         0.34822E+06         0.00000E+00
    0.34822E+06        -0.97576E+08         0.00000E+00
    0.00000E+00         0.00000E+00        -0.58404E+08
 
   -0.58317E+08         0.35460E+06         0.00000E+00
    0.35460E+06        -0.97576E+08         0.00000E+00
    0.00000E+00         0.00000E+00        -0.58358E+08
 
   -0.58270E+08         0.36099E+06         0.00000E+00
    0.36099E+06        -0.97577E+08         0.00000E+00
    0.00000E+00         0.00000E+00        -0.58311E+08
 
   -0.58222E+08         0.36737E+06         0.00000E+00
    0.36737E+06        -0.97577E+08         0.00000E+00
    0.00000E+00         0.00000E+00        -0.58263E+08
 
   -0.58172E+08         0.37373E+06         0.00000E+00
    0.37373E+06        -0.97577E+08         0.00000E+00
    0.00000E+00         0.00000E+00        -0.58213E+08
 
   -0.58122E+08         0.38007E+06         0.00000E+00
    0.38007E+06        -0.97577E+08         0.00000E+00
    0.00000E+00         0.00000E+00        -0.58163E+08
 
   -0.58071E+08         0.38637E+06         0.00000E+00
    0.38637E+06        -0.97577E+08         0.00000E+00
    0.00000E+00         0.00000E+00        -0.58112E+08
 
   -0.58019E+08         0.39263E+06         0.00000E+00
    0.39263E+06        -0.97577E+08         0.00000E+00
    0.00000E+00         0.00000E+00        -0.58060E+08
 
   -0.57966E+08         0.39883E+06         0.00000E+00
    0.39883E+06        -0.97578E+08         0.00000E+00
    0.00000E+00         0.00000E+00        -0.58007E+08
 
   -0.57912E+08         0.40495E+06         0.00000E+00
    0.40495E+06        -0.97578E+08         0.00000E+00
    0.00000E+00         0.00000E+00        -0.57952E+08
 
   -0.57857E+08         0.41098E+06         0.00000E+00
    0.41098E+06        -0.97579E+08         0.00000E+00
    0.00000E+00         0.00000E+00        -0.57897E+08
 
   -0.57802E+08         0.41691E+06         0.00000E+00
    0.41691E+06        -0.97579E+08         0.00000E+00
    0.00000E+00         0.00000E+00        -0.57841E+08
 
   -0.57745E+08         0.42272E+06         0.00000E+00
    0.42272E+06        -0.97580E+08         0.00000E+00
    0.00000E+00         0.00000E+00        -0.57783E+08
 
   -0.57687E+08         0.42838E+06         0.00000E+00
    0.42838E+06        -0.97580E+08         0.00000E+00
    0.00000E+00         0.00000E+00        -0.57725E+08
 
   -0.57629E+08         0.43388E+06         0.00000E+00
    0.43388E+06        -0.97581E+08         0.00000E+00
    0.00000E+00         0.00000E+00        -0.57666E+08
 
   -0.57569E+08         0.43920E+06         0.00000E+00
    0.43920E+06        -0.97582E+08         0.00000E+00
    0.00000E+00         0.00000E+00        -0.57605E+08
 
   -0.57509E+08         0.44430E+06         0.00000E+00
    0.44430E+06        -0.97583E+08         0.00000E+00
    0.00000E+00         0.00000E+00        -0.57544E+08
 
   -0.57448E+08         0.44917E+06         0.00000E+00
    0.44917E+06        -0.97584E+08         0.00000E+00
    0.00000E+00         0.00000E+00        -0.57481E+08
 
   -0.57386E+08         0.45377E+06         0.00000E+00
    0.45377E+06        -0.97585E+08         0.00000E+00
    0.00000E+00         0.00000E+00        -0.57418E+08
 
   -0.57323E+08         0.45807E+06         0.00000E+00
    0.45807E+06        -0.97586E+08         0.00000E+00
    0.00000E+00         0.00000E+00        -0.57353E+08
 
   -0.57259E+08         0.46205E+06         0.00000E+00
    0.46205E+06        -0.97588E+08         0.00000E+00
    0.00000E+00         0.00000E+00        -0.57287E+08
 
   -0.57195E+08         0.46566E+06         0.00000E+00
    0.46566E+06        -0.97589E+08         0.00000E+00
    0.00000E+00         0.00000E+00        -0.57221E+08
 
   -0.57130E+08         0.46888E+06         0.00000E+00
    0.46888E+06        -0.97591E+08         0.00000E+00
    0.00000E+00         0.00000E+00        -0.57153E+08
 
   -0.57064E+08         0.47164E+06         0.00000E+00
    0.47164E+06        -0.97593E+08         0.00000E+00
    0.00000E+00         0.00000E+00        -0.57085E+08
 
   -0.56997E+08         0.47392E+06         0.00000E+00
    0.47392E+06        -0.97595E+08         0.00000E+00
    0.00000E+00         0.00000E+00        -0.57016E+08
 
   -0.56930E+08         0.47566E+06         0.00000E+00
    0.47566E+06        -0.97597E+08         0.00000E+00
    0.00000E+00         0.00000E+00        -0.56945E+08
 
   -0.56862E+08         0.47681E+06         0.00000E+00
    0.47681E+06        -0.97600E+08         0.00000E+00
    0.00000E+00         0.00000E+00        -0.56874E+08
 
   -0.56794E+08         0.47732E+06         0.00000E+00
    0.47732E+06        -0.97603E+08         0.00000E+00
    0.00000E+00         0.00000E+00        -0.56802E+08
 
   -0.56725E+08         0.47712E+06         0.00000E+00
    0.47712E+06        -0.97606E+08         0.00000E+00
    0.00000E+00         0.00000E+00        -0.56729E+08
 
   -0.56656E+08         0.47614E+06         0.00000E+00
    0.47614E+06        -0.97609E+08         0.00000E+00
    0.00000E+00         0.00000E+00        -0.56656E+08
 
   -0.56586E+08         0.47433E+06         0.00000E+00
    0.47433E+06        -0.97613E+08         0.00000E+00
    0.00000E+00         0.00000E+00        -0.56582E+08
 
   -0.56516E+08         0.47160E+06         0.00000E+00
    0.47160E+06        -0.97617E+08         0.00000E+00
    0.00000E+00         0.00000E+00        -0.56507E+08
 
   -0.56446E+08         0.46787E+06         0.00000E+00
    0.46787E+06        -0.97622E+08         0.00000E+00
    0.00000E+00         0.00000E+00        -0.56431E+08
 
   -0.56376E+08         0.46305E+06         0.00000E+00
    0.46305E+06        -0.97627E+08         0.00000E+00
    0.00000E+00         0.00000E+00        -0.56355E+08
 
   -0.56306E+08         0.45707E+06         0.00000E+00
    0.45707E+06        -0.97633E+08         0.00000E+00
    0.00000E+00         0.00000E+00        -0.56278E+08
 
   -0.56236E+08         0.44983E+06         0.00000E+00
    0.44983E+06        -0.97639E+08         0.00000E+00
    0.00000E+00         0.00000E+00        -0.56201E+08
 
   -0.56165E+08         0.44123E+06         0.00000E+00
    0.44123E+06        -0.97646E+08         0.00000E+00
    0.00000E+00         0.00000E+00        -0.56124E+08
 
   -0.56095E+08         0.43118E+06         0.00000E+00
    0.43118E+06        -0.97654E+08         0.00000E+00
    0.00000E+00         0.00000E+00        -0.56046E+08
 
   -0.56025E+08         0.41959E+06         0.00000E+00
    0.41959E+06        -0.97662E+08         0.00000E+00
    0.00000E+00         0.00000E+00        -0.55967E+08
 
   -0.55955E+08         0.40636E+06         0.00000E+00
    0.40636E+06        -0.97671E+08         0.00000E+00
    0.00000E+00         0.00000E+00        -0.55889E+08
 
   -0.55885E+08         0.39141E+06         0.00000E+00
    0.39141E+06        -0.97681E+08         0.00000E+00
    0.00000E+00         0.00000E+00        -0.55810E+08
 
   -0.55815E+08         0.37467E+06         0.00000E+00
    0.37467E+06        -0.97691E+08         0.00000E+00
    0.00000E+00         0.00000E+00        -0.55731E+08
 
   -0.55745E+08         0.35607E+06         0.00000E+00
    0.35607E+06        -0.97702E+08         0.00000E+00
    0.00000E+00         0.00000E+00        -0.55651E+08
 
   -0.55675E+08         0.33558E+06         0.00000E+00
    0.33558E+06        -0.97713E+08         0.00000E+00
    0.00000E+00         0.00000E+00        -0.55572E+08
 
   -0.55605E+08         0.31319E+06         0.00000E+00
    0.31319E+06        -0.97724E+08         0.00000E+00
    0.00000E+00         0.00000E+00        -0.55491E+08
 
   -0.55535E+08         0.28890E+06         0.00000E+00
    0.28890E+06        -0.97733E+08         0.00000E+00
    0.00000E+00         0.00000E+00        -0.55410E+08
 
   -0.55465E+08         0.26276E+06         0.00000E+00
    0.26276E+06        -0.97741E+08         0.00000E+00
    0.00000E+00         0.00000E+00        -0.55328E+08
 
   -0.55395E+08         0.23487E+06         0.00000E+00
    0.23487E+06        -0.97746E+08         0.00000E+00
    0.00000E+00         0.00000E+00        -0.55245E+08
 
   -0.55327E+08         0.20534E+06         0.00000E+00
    0.20534E+06        -0.97745E+08         0.00000E+00
    0.00000E+00         0.00000E+00        -0.55160E+08
 
   -0.55259E+08         0.17434E+06         0.00000E+00
    0.17434E+06        -0.97738E+08         0.00000E+00
    0.00000E+00         0.00000E+00        -0.55074E+08
 
   -0.55196E+08         0.14207E+06         0.00000E+00
    0.14207E+06        -0.97721E+08         0.00000E+00
    0.00000E+00         0.00000E+00        -0.54986E+08
 
   -0.55138E+08         0.10888E+06         0.00000E+00
    0.10888E+06        -0.97691E+08         0.00000E+00
    0.00000E+00         0.00000E+00        -0.54895E+08
 
   -0.55090E+08         0.75586E+05         0.00000E+00
    0.75586E+05        -0.97645E+08         0.00000E+00
    0.00000E+00         0.00000E+00        -0.54802E+08
 
   -0.55056E+08         0.43652E+05         0.00000E+00
    0.43652E+05        -0.97583E+08         0.00000E+00
    0.00000E+00         0.00000E+00        -0.54708E+08
 
   -0.55039E+08         0.14122E+05         0.00000E+00
    0.14122E+05        -0.97504E+08         0.00000E+00
    0.00000E+00         0.00000E+00        -0.54615E+08
 
   -0.59637E+08         0.46399E+04         0.00000E+00
    0.46399E+04        -0.97612E+08         0.00000E+00
    0.00000E+00         0.00000E+00        -0.59766E+08
 
   -0.59632E+08         0.14257E+05         0.00000E+00
    0.14257E+05        -0.97593E+08         0.00000E+00
    0.00000E+00         0.00000E+00        -0.59743E+08
 
   -0.59624E+08         0.24570E+05         0.00000E+00
    0.24570E+05        -0.97577E+08         0.00000E+00
    0.00000E+00         0.00000E+00        -0.59719E+08
 
   -0.59612E+08         0.35421E+05         0.00000E+00
    0.35421E+05        -0.97566E+08         0.00000E+00
    0.00000E+00         0.00000E+00        -0.59696E+08
 
   -0.59597E+08         0.46477E+05         0.00000E+00
    0.46477E+05        -0.97558E+08         0.00000E+00
    0.00000E+00         0.00000E+00        -0.59673E+08
 
   -0.59580E+08         0.57505E+05         0.00000E+00
    0.57505E+05        -0.97554E+08         0.00000E+00
    0.00000E+00         0.00000E+00        -0.59650E+08
 
   -0.59562E+08         0.68377E+05         0.00000E+00
    0.68377E+05        -0.97552E+08         0.00000E+00
    0.00000E+00         0.00000E+00        -0.59628E+08
 
   -0.59544E+08         0.79012E+05         0.00000E+00
    0.79012E+05        -0.97552E+08         0.00000E+00
    0.00000E+00         0.00000E+00        -0.59606E+08
 
   -0.59524E+08         0.89353E+05         0.00000E+00
    0.89353E+05        -0.97553E+08         0.00000E+00
    0.00000E+00         0.00000E+00        -0.59584E+08
 
   -0.59505E+08         0.99362E+05         0.00000E+00
    0.99362E+05        -0.97554E+08         0.00000E+00
    0.00000E+00         0.00000E+00        -0.59561E+08
 
   -0.59484E+08         0.10901E+06         0.00000E+00
    0.10901E+06        -0.97556E+08         0.00000E+00
    0.00000E+00         0.00000E+00        -0.59539E+08
 
   -0.59464E+08         0.11830E+06         0.00000E+00
    0.11830E+06        -0.97559E+08         0.00000E+00
    0.00000E+00         0.00000E+00        -0.59516E+08
 
   -0.59443E+08         0.12722E+06         0.00000E+00
    0.12722E+06        -0.97561E+08         0.00000E+00
    0.00000E+00         0.00000E+00        -0.59494E+08
 
   -0.59421E+08         0.13578E+06         0.00000E+00
    0.13578E+06        -0.97563E+08         0.00000E+00
    0.00000E+00         0.00000E+00        -0.59470E+08
 
   -0.59399E+08         0.14400E+06         0.00000E+00
    0.14400E+06        -0.97565E+08         0.00000E+00
    0.00000E+00         0.00000E+00        -0.59447E+08
 
   -0.59376E+08         0.15191E+06         0.00000E+00
    0.15191E+06        -0.97567E+08         0.00000E+00
    0.00000E+00         0.00000E+00        -0.59422E+08
 
   -0.59353E+08         0.15951E+06         0.00000E+00
    0.15951E+06        -0.97569E+08         0.00000E+00
    0.00000E+00         0.00000E+00        -0.59398E+08
 
   -0.59329E+08         0.16685E+06         0.00000E+00
    0.16685E+06        -0.97571E+08         0.00000E+00
    0.00000E+00         0.00000E+00        -0.59373E+08
 
   -0.59304E+08         0.17394E+06         0.00000E+00
    0.17394E+06        -0.97572E+08         0.00000E+00
    0.00000E+00         0.00000E+00        -0.59347E+08
 
   -0.59279E+08         0.18081E+06         0.00000E+00
    0.18081E+06        -0.97573E+08         0.00000E+00
    0.00000E+00         0.00000E+00        -0.59321E+08
 
   -0.59253E+08         0.18749E+06         0.00000E+00
    0.18749E+06        -0.97574E+08         0.00000E+00
    0.00000E+00         0.00000E+00        -0.59294E+08
 
   -0.59226E+08         0.19400E+06         0.00000E+00
    0.19400E+06        -0.97575E+08         0.00000E+00
    0.00000E+00         0.00000E+00        -0.59267E+08
 
   -0.59199E+08         0.20038E+06         0.00000E+00
    0.20038E+06        -0.97576E+08         0.00000E+00
    0.00000E+00         0.00000E+00        -0.59239E+08
 
   -0.59171E+08         0.20663E+06         0.00000E+00
    0.20663E+06        -0.97576E+08         0.00000E+00
    0.00000E+00         0.00000E+00        -0.59211E+08
 
   -0.59142E+08         0.21278E+06         0.00000E+00
    0.21278E+06        -0.97577E+08         0.00000E+00
    0.00000E+00         0.00000E+00        -0.59182E+08
 
   -0.59112E+08         0.21885E+06         0.00000E+00
    0.21885E+06        -0.97577E+08         0.00000E+00
    0.00000E+00         0.00000E+00        -0.59152E+08
 
   -0.59082E+08         0.22485E+06         0.00000E+00
    0.22485E+06        -0.97577E+08         0.00000E+00
    0.00000E+00         0.00000E+00        -0.59121E+08
 
   -0.59051E+08         0.23081E+06         0.00000E+00
    0.23081E+06        -0.97578E+08         0.00000E+00
    0.00000E+00         0.00000E+00        -0.59091E+08
 
   -0.59020E+08         0.23674E+06         0.00000E+00
    0.23674E+06        -0.97578E+08         0.00000E+00
    0.00000E+00         0.00000E+00        -0.59059E+08
 
   -0.58987E+08         0.24264E+06         0.00000E+00
    0.24264E+06        -0.97578E+08         0.00000E+00
    0.00000E+00         0.00000E+00        -0.59027E+08
 
   -0.58954E+08         0.24853E+06         0.00000E+00
    0.24853E+06        -0.97578E+08         0.00000E+00
    0.00000E+00         0.00000E+00        -0.58993E+08
 
   -0.58920E+08         0.25441E+06         0.00000E+00
    0.25441E+06        -0.97578E+08         0.00000E+00
    0.00000E+00         0.00000E+00        -0.58960E+08
 
   -0.58885E+08         0.26031E+06         0.00000E+00
    0.26031E+06        -0.97578E+08         0.00000E+00
    0.00000E+00         0.00000E+00        -0.58925E+08
 
   -0.58850E+08         0.26621E+06         0.00000E+00
    0.26621E+06        -0.97578E+08         0.00000E+00
    0.00000E+00         0.00000E+00        -0.58890E+08
 
   -0.58814E+08         0.27214E+06         0.00000E+00
    0.27214E+06        -0.97578E+08         0.00000E+00
    0.00000E+00         0.00000E+00        -0.58854E+08
 
   -0.58777E+08         0.27808E+06         0.00000E+00
    0.27808E+06        -0.97578E+08         0.00000E+00
    0.00000E+00         0.00000E+00        -0.58817E+08
 
   -0.58739E+08         0.28405E+06         0.00000E+00
    0.28405E+06        -0.97578E+08         0.00000E+00
    0.00000E+00         0.00000E+00        -0.58780E+08
 
   -0.58700E+08         0.29005E+06         0.00000E+00
    0.29005E+06        -0.97578E+08         0.00000E+00
    0.00000E+00         0.00000E+00        -0.58741E+08
 
   -0.58660E+08         0.29608E+06         0.00000E+00
    0.29608E+06        -0.97578E+08         0.00000E+00
    0.00000E+00         0.00000E+00        -0.58702E+08
 
   -0.58620E+08         0.30214E+06         0.00000E+00
    0.30214E+06        -0.97578E+08         0.00000E+00
    0.00000E+00         0.00000E+00        -0.58662E+08
 
   -0.58579E+08         0.30823E+06         0.00000E+00
    0.30823E+06        -0.97578E+08         0.00000E+00
    0.00000E+00         0.00000E+00        -0.58621E+08
 
   -0.58537E+08         0.31434E+06         0.00000E+00
    0.31434E+06        -0.97578E+08         0.00000E+00
    0.00000E+00         0.00000E+00        -0.58580E+08
 
   -0.58494E+08         0.32048E+06         0.00000E+00
    0.32048E+06        -0.97578E+08         0.00000E+00
    0.00000E+00         0.00000E+00        -0.58537E+08
 
   -0.58450E+08         0.32665E+06         0.00000E+00
    0.32665E+06        -0.97578E+08         0.00000E+00
    0.00000E+00         0.00000E+00        -0.58494E+08
 
   -0.58406E+08         0.33283E+06         0.00000E+00
    0.33283E+06        -0.97578E+08         0.00000E+00
    0.00000E+00         0.00000E+00        -0.58449E+08
 
   -0.58360E+08         0.33902E+06         0.00000E+00
    0.33902E+06        -0.97578E+08         0.00000E+00
    0.00000E+00         0.00000E+00        -0.58404E+08
 
   -0.58314E+08         0.34522E+06         0.00000E+00
    0.34522E+06        -0.97578E+08         0.00000E+00
    0.00000E+00         0.00000E+00        -0.58357E+08
 
   -0.58266E+08         0.35142E+06         0.00000E+00
    0.35142E+06        -0.97578E+08         0.00000E+00
    0.00000E+00         0.00000E+00        -0.58310E+08
 
   -0.58218E+08         0.35761E+06         0.00000E+00
    0.35761E+06        -0.97578E+08         0.00000E+00
    0.00000E+00         0.00000E+00        -0.58262E+08
 
   -0.58169E+08         0.36379E+06         0.00000E+00
    0.36379E+06        -0.97578E+08         0.00000E+00
    0.00000E+00         0.00000E+00        -0.58213E+08
 
   -0.58118E+08         0.36995E+06         0.00000E+00
    0.36995E+06        -0.97578E+08         0.00000E+00
    0.00000E+00         0.00000E+00        -0.58162E+08
 
   -0.58067E+08         0.37606E+06         0.00000E+00
    0.37606E+06        -0.97578E+08         0.00000E+00
    0.00000E+00         0.00000E+00        -0.58111E+08
 
   -0.58015E+08         0.38213E+06         0.00000E+00
    0.38213E+06        -0.97579E+08         0.00000E+00
    0.00000E+00         0.00000E+00        -0.58059E+08
 
   -0.57962E+08         0.38814E+06         0.00000E+00
    0.38814E+06        -0.97579E+08         0.00000E+00
    0.00000E+00         0.00000E+00        -0.58006E+08
 
   -0.57909E+08         0.39408E+06         0.00000E+00
    0.39408E+06        -0.97579E+08         0.00000E+00
    0.00000E+00         0.00000E+00        -0.57952E+08
 
   -0.57854E+08         0.39993E+06         0.00000E+00
    0.39993E+06        -0.97580E+08         0.00000E+00
    0.00000E+00         0.00000E+00        -0.57896E+08
 
   -0.57798E+08         0.40567E+06         0.00000E+00
    0.40567E+06        -0.97580E+08         0.00000E+00
    0.00000E+00         0.00000E+00        -0.57840E+08
 
   -0.57741E+08         0.41129E+06         0.00000E+00
    0.41129E+06        -0.97581E+08         0.00000E+00
    0.00000E+00         0.00000E+00        -0.57783E+08
 
   -0.57684E+08         0.41677E+06         0.00000E+00
    0.41677E+06        -0.97581E+08         0.00000E+00
    0.00000E+00         0.00000E+00        -0.57724E+08
 
   -0.57625E+08         0.42209E+06         0.00000E+00
    0.42209E+06        -0.97582E+08         0.00000E+00
    0.00000E+00         0.00000E+00        -0.57665E+08
 
   -0.57566E+08         0.42723E+06         0.00000E+00
    0.42723E+06        -0.97583E+08         0.00000E+00
    0.00000E+00         0.00000E+00        -0.57604E+08
 
   -0.57506E+08         0.43216E+06         0.00000E+00
    0.43216E+06        -0.97584E+08         0.00000E+00
    0.00000E+00         0.00000E+00        -0.57543E+08
 
   -0.57445E+08         0.43685E+06         0.00000E+00
    0.43685E+06        -0.97585E+08         0.00000E+00
    0.00000E+00         0.00000E+00        -0.57480E+08
 
   -0.57383E+08         0.44129E+06         0.00000E+00
    0.44129E+06        -0.97586E+08         0.00000E+00
    0.00000E+00         0.00000E+00        -0.57417E+08
 
   -0.57320E+08         0.44543E+06         0.00000E+00
    0.44543E+06        -0.97587E+08         0.00000E+00
    0.00000E+00         0.00000E+00        -0.57352E+08
 
   -0.57257E+08         0.44925E+06         0.00000E+00
    0.44925E+06        -0.97589E+08         0.00000E+00
    0.00000E+00         0.00000E+00        -0.57287E+08
 
   -0.57192E+08         0.45272E+06         0.00000E+00
    0.45272E+06        -0.97590E+08         0.00000E+00
    0.00000E+00         0.00000E+00        -0.57220E+08
 
   -0.57127E+08         0.45578E+06         0.00000E+00
    0.45578E+06        -0.97592E+08         0.00000E+00
    0.00000E+00         0.00000E+00        -0.57153E+08
 
   -0.57062E+08         0.45841E+06         0.00000E+00
    0.45841E+06        -0.97594E+08         0.00000E+00
    0.00000E+00         0.00000E+00        -0.57085E+08
 
   -0.56995E+08         0.46057E+06         0.00000E+00
    0.46057E+06        -0.97596E+08         0.00000E+00
    0.00000E+00         0.00000E+00        -0.57015E+08
 
   -0.56928E+08         0.46219E+06         0.00000E+00
    0.46219E+06        -0.97598E+08         0.00000E+00
    0.00000E+00         0.00000E+00        -0.56945E+08
 
   -0.56861E+08         0.46323E+06         0.00000E+00
    0.46323E+06        -0.97600E+08         0.00000E+00
    0.00000E+00         0.00000E+00        -0.56874E+08
 
   -0.56793E+08         0.46364E+06         0.00000E+00
    0.46364E+06        -0.97603E+08         0.00000E+00
    0.00000E+00         0.00000E+00        -0.56802E+08
 
   -0.56724E+08         0.46335E+06         0.00000E+00
    0.46335E+06        -0.97606E+08         0.00000E+00
    0.00000E+00         0.00000E+00        -0.56729E+08
 
   -0.56656E+08         0.46231E+06         0.00000E+00
    0.46231E+06        -0.97609E+08         0.00000E+00
    0.00000E+00         0.00000E+00        -0.56656E+08
 
   -0.56586E+08         0.46043E+06         0.00000E+00
    0.46043E+06        -0.97613E+08         0.00000E+00
    0.00000E+00         0.00000E+00        -0.56582E+08
 
   -0.56517E+08         0.45765E+06         0.00000E+00
    0.45765E+06        -0.97617E+08         0.00000E+00
    0.00000E+00         0.00000E+00        -0.56507E+08
 
   -0.56448E+08         0.45389E+06         0.00000E+00
    0.45389E+06        -0.97621E+08         0.00000E+00
    0.00000E+00         0.00000E+00        -0.56431E+08
 
   -0.56378E+08         0.44906E+06         0.00000E+00
    0.44906E+06        -0.97626E+08         0.00000E+00
    0.00000E+00         0.00000E+00        -0.56355E+08
 
   -0.56308E+08         0.44307E+06         0.00000E+00
    0.44307E+06        -0.97631E+08         0.00000E+00
    0.00000E+00         0.00000E+00        -0.56279E+08
 
   -0.56238E+08         0.43583E+06         0.00000E+00
    0.43583E+06        -0.97637E+08         0.00000E+00
    0.00000E+00         0.00000E+00        -0.56202E+08
 
   -0.56169E+08         0.42725E+06         0.00000E+00
    0.42725E+06        -0.97644E+08         0.00000E+00
    0.00000E+00         0.00000E+00        -0.56124E+08
 
   -0.56099E+08         0.41722E+06         0.00000E+00
    0.41722E+06        -0.97651E+08         0.00000E+00
    0.00000E+00         0.00000E+00        -0.56046E+08
 
   -0.56030E+08         0.40565E+06         0.00000E+00
    0.40565E+06        -0.97659E+08         0.00000E+00
    0.00000E+00         0.00000E+00        -0.55968E+08
 
   -0.55961E+08         0.39244E+06         0.00000E+00
    0.39244E+06        -0.97668E+08         0.00000E+00
    0.00000E+00         0.00000E+00        -0.55890E+08
 
   -0.55892E+08         0.37752E+06         0.00000E+00
    0.37752E+06        -0.97678E+08         0.00000E+00
    0.00000E+00         0.00000E+00        -0.55811E+08
 
   -0.55823E+08         0.36079E+06         0.00000E+00
    0.36079E+06        -0.97688E+08         0.00000E+00
    0.00000E+00         0.00000E+00        -0.55732E+08
 
   -0.55754E+08         0.34220E+06         0.00000E+00
    0.34220E+06        -0.97698E+08         0.00000E+00
    0.00000E+00         0.00000E+00        -0.55653E+08
 
   -0.55685E+08         0.32171E+06         0.00000E+00
    0.32171E+06        -0.97709E+08         0.00000E+00
    0.00000E+00         0.00000E+00        -0.55573E+08
 
   -0.55616E+08         0.29931E+06         0.00000E+00
    0.29931E+06        -0.97719E+08         0.00000E+00
    0.00000E+00         0.00000E+00        -0.55493E+08
 
   -0.55548E+08         0.27503E+06         0.00000E+00
    0.27503E+06        -0.97728E+08         0.00000E+00
    0.00000E+00         0.00000E+00        -0.55412E+08
 
   -0.55479E+08         0.24893E+06         0.00000E+00
    0.24893E+06        -0.97736E+08         0.00000E+00
    0.00000E+00         0.00000E+00        -0.55331E+08
 
   -0.55411E+08         0.22115E+06         0.00000E+00
    0.22115E+06        -0.97740E+08         0.00000E+00
    0.00000E+00         0.00000E+00        -0.55248E+08
 
   -0.55344E+08         0.19189E+06         0.00000E+00
    0.19189E+06        -0.97739E+08         0.00000E+00
    0.00000E+00         0.00000E+00        -0.55164E+08
 
   -0.55279E+08         0.16140E+06         0.00000E+00
    0.16140E+06        -0.97732E+08         0.00000E+00
    0.00000E+00         0.00000E+00        -0.55078E+08
 
   -0.55218E+08         0.13007E+06         0.00000E+00
    0.13007E+06        -0.97715E+08         0.00000E+00
    0.00000E+00         0.00000E+00        -0.54990E+08
 
   -0.55163E+08         0.98430E+05         0.00000E+00
    0.98430E+05        -0.97685E+08         0.00000E+00
    0.00000E+00         0.00000E+00        -0.54900E+08
 
   -0.55117E+08         0.67475E+05         0.00000E+00
    0.67475E+05        -0.97639E+08         0.00000E+00
    0.00000E+00         0.00000E+00        -0.54808E+08
 
   -0.55085E+08         0.38575E+05         0.00000E+00
    0.38575E+05        -0.97577E+08         0.00000E+00
    0.00000E+00         0.00000E+00        -0.54715E+08
 
   -0.55069E+08         0.12410E+05         0.00000E+00
    0.12410E+05        -0.97498E+08         0.00000E+00
    0.00000E+00         0.00000E+00        -0.54622E+08
 
   -0.59628E+08         0.42129E+04         0.00000E+00
    0.42129E+04        -0.97614E+08         0.00000E+00
    0.00000E+00         0.00000E+00        -0.59764E+08
 
   -0.59624E+08         0.12987E+05         0.00000E+00
    0.12987E+05        -0.97595E+08         0.00000E+00
    0.00000E+00         0.00000E+00        -0.59741E+08
 
   -0.59615E+08         0.22528E+05         0.00000E+00
    0.22528E+05        -0.97579E+08         0.00000E+00
    0.00000E+00         0.00000E+00        -0.59717E+08
 
   -0.59604E+08         0.32754E+05         0.00000E+00
    0.32754E+05        -0.97568E+08         0.00000E+00
    0.00000E+00         0.00000E+00        -0.59694E+08
 
   -0.59590E+08         0.43362E+05         0.00000E+00
    0.43362E+05        -0.97561E+08         0.00000E+00
    0.00000E+00         0.00000E+00        -0.59672E+08
 
   -0.59573E+08         0.54087E+05         0.00000E+00
    0.54087E+05        -0.97556E+08         0.00000E+00
    0.00000E+00         0.00000E+00        -0.59649E+08
 
   -0.59556E+08         0.64755E+05         0.00000E+00
    0.64755E+05        -0.97554E+08         0.00000E+00
    0.00000E+00         0.00000E+00        -0.59627E+08
 
   -0.59538E+08         0.75245E+05         0.00000E+00
    0.75245E+05        -0.97554E+08         0.00000E+00
    0.00000E+00         0.00000E+00        -0.59605E+08
 
   -0.59519E+08         0.85475E+05         0.00000E+00
    0.85475E+05        -0.97555E+08         0.00000E+00
    0.00000E+00         0.00000E+00        -0.59583E+08
 
   -0.59499E+08         0.95388E+05         0.00000E+00
    0.95388E+05        -0.97556E+08         0.00000E+00
    0.00000E+00         0.00000E+00        -0.59560E+08
 
   -0.59479E+08         0.10495E+06         0.00000E+00
    0.10495E+06        -0.97558E+08         0.00000E+00
    0.00000E+00         0.00000E+00        -0.59538E+08
 
   -0.59459E+08         0.11414E+06         0.00000E+00
    0.11414E+06        -0.97561E+08         0.00000E+00
    0.00000E+00         0.00000E+00        -0.59516E+08
 
   -0.59438E+08         0.12296E+06         0.00000E+00
    0.12296E+06        -0.97563E+08         0.00000E+00
    0.00000E+00         0.00000E+00        -0.59493E+08
 
   -0.59417E+08         0.13142E+06         0.00000E+00
    0.13142E+06        -0.97565E+08         0.00000E+00
    0.00000E+00         0.00000E+00        -0.59469E+08
 
   -0.59395E+08         0.13952E+06         0.00000E+00
    0.13952E+06        -0.97567E+08         0.00000E+00
    0.00000E+00         0.00000E+00        -0.59446E+08
 
   -0.59372E+08         0.14731E+06         0.00000E+00
    0.14731E+06        -0.97569E+08         0.00000E+00
    0.00000E+00         0.00000E+00        -0.59422E+08
 
   -0.59349E+08         0.15479E+06         0.00000E+00
    0.15479E+06        -0.97571E+08         0.00000E+00
    0.00000E+00         0.00000E+00        -0.59397E+08
 
   -0.59325E+08         0.16199E+06         0.00000E+00
    0.16199E+06        -0.97572E+08         0.00000E+00
    0.00000E+00         0.00000E+00        -0.59372E+08
 
   -0.59300E+08         0.16895E+06         0.00000E+00
    0.16895E+06        -0.97573E+08         0.00000E+00
    0.00000E+00         0.00000E+00        -0.59346E+08
 
   -0.59275E+08         0.17569E+06         0.00000E+00
    0.17569E+06        -0.97574E+08         0.00000E+00
    0.00000E+00         0.00000E+00        -0.59320E+08
 
   -0.59249E+08         0.18223E+06         0.00000E+00
    0.18223E+06        -0.97575E+08         0.00000E+00
    0.00000E+00         0.00000E+00        -0.59294E+08
 
   -0.59223E+08         0.18861E+06         0.00000E+00
    0.18861E+06        -0.97576E+08         0.00000E+00
    0.00000E+00         0.00000E+00        -0.59266E+08
 
   -0.59195E+08         0.19484E+06         0.00000E+00
    0.19484E+06        -0.97577E+08         0.00000E+00
    0.00000E+00         0.00000E+00        -0.59238E+08
 
   -0.59167E+08         0.20095E+06         0.00000E+00
    0.20095E+06        -0.97578E+08         0.00000E+00
    0.00000E+00         0.00000E+00        -0.59210E+08
 
   -0.59139E+08         0.20695E+06         0.00000E+00
    0.20695E+06        -0.97578E+08         0.00000E+00
    0.00000E+00         0.00000E+00        -0.59181E+08
 
   -0.59109E+08         0.21288E+06         0.00000E+00
    0.21288E+06        -0.97578E+08         0.00000E+00
    0.00000E+00         0.00000E+00        -0.59151E+08
 
   -0.59079E+08         0.21874E+06         0.00000E+00
    0.21874E+06        -0.97579E+08         0.00000E+00
    0.00000E+00         0.00000E+00        -0.59121E+08
 
   -0.59048E+08         0.22455E+06         0.00000E+00
    0.22455E+06        -0.97579E+08         0.00000E+00
    0.00000E+00         0.00000E+00        -0.59090E+08
 
   -0.59016E+08         0.23033E+06         0.00000E+00
    0.23033E+06        -0.97579E+08         0.00000E+00
    0.00000E+00         0.00000E+00        -0.59058E+08
 
   -0.58984E+08         0.23608E+06         0.00000E+00
    0.23608E+06        -0.97579E+08         0.00000E+00
    0.00000E+00         0.00000E+00        -0.59026E+08
 
   -0.58951E+08         0.24181E+06         0.00000E+00
    0.24181E+06        -0.97579E+08         0.00000E+00
    0.00000E+00         0.00000E+00        -0.58993E+08
 
   -0.58917E+08         0.24755E+06         0.00000E+00
    0.24755E+06        -0.97579E+08         0.00000E+00
    0.00000E+00         0.00000E+00        -0.58959E+08
 
   -0.58882E+08         0.25329E+06         0.00000E+00
    0.25329E+06        -0.97579E+08         0.00000E+00
    0.00000E+00         0.00000E+00        -0.58925E+08
 
   -0.58846E+08         0.25904E+06         0.00000E+00
    0.25904E+06        -0.97579E+08         0.00000E+00
    0.00000E+00         0.00000E+00        -0.58889E+08
 
   -0.58810E+08         0.26480E+06         0.00000E+00
    0.26480E+06        -0.97579E+08         0.00000E+00
    0.00000E+00         0.00000E+00        -0.58853E+08
 
   -0.58773E+08         0.27059E+06         0.00000E+00
    0.27059E+06        -0.97579E+08         0.00000E+00
    0.00000E+00         0.00000E+00        -0.58817E+08
 
   -0.58735E+08         0.27640E+06         0.00000E+00
    0.27640E+06        -0.97579E+08         0.00000E+00
    0.00000E+00         0.00000E+00        -0.58779E+08
 
   -0.58696E+08         0.28223E+06         0.00000E+00
    0.28223E+06        -0.97579E+08         0.00000E+00
    0.00000E+00         0.00000E+00        -0.58741E+08
 
   -0.58657E+08         0.28809E+06         0.00000E+00
    0.28809E+06        -0.97579E+08         0.00000E+00
    0.00000E+00         0.00000E+00        -0.58702E+08
 
   -0.58617E+08         0.29398E+06         0.00000E+00
    0.29398E+06        -0.97579E+08         0.00000E+00
    0.00000E+00         0.00000E+00        -0.58662E+08
 
   -0.58575E+08         0.29990E+06         0.00000E+00
    0.29990E+06        -0.97579E+08         0.00000E+00
    0.00000E+00         0.00000E+00        -0.58621E+08
 
   -0.58533E+08         0.30584E+06         0.00000E+00
    0.30584E+06        -0.97579E+08         0.00000E+00
    0.00000E+00         0.00000E+00        -0.58579E+08
 
   -0.58490E+08         0.31181E+06         0.00000E+00
    0.31181E+06        -0.97579E+08         0.00000E+00
    0.00000E+00         0.00000E+00        -0.58536E+08
 
   -0.58447E+08         0.31780E+06         0.00000E+00
    0.31780E+06        -0.97579E+08         0.00000E+00
    0.00000E+00         0.00000E+00        -0.58493E+08
 
   -0.58402E+08         0.32380E+06         0.00000E+00
    0.32380E+06        -0.97579E+08         0.00000E+00
    0.00000E+00         0.00000E+00        -0.58448E+08
 
   -0.58356E+08         0.32981E+06         0.00000E+00
    0.32981E+06        -0.97579E+08         0.00000E+00
    0.00000E+00         0.00000E+00        -0.58403E+08
 
   -0.58310E+08         0.33583E+06         0.00000E+00
    0.33583E+06        -0.97579E+08         0.00000E+00
    0.00000E+00         0.00000E+00        -0.58357E+08
 
   -0.58262E+08         0.34185E+06         0.00000E+00
    0.34185E+06        -0.97579E+08         0.00000E+00
    0.00000E+00         0.00000E+00        -0.58309E+08
 
   -0.58214E+08         0.34786E+06         0.00000E+00
    0.34786E+06        -0.97579E+08         0.00000E+00
    0.00000E+00         0.00000E+00        -0.58261E+08
 
   -0.58165E+08         0.35386E+06         0.00000E+00
    0.35386E+06        -0.97579E+08         0.00000E+00
    0.00000E+00         0.00000E+00        -0.58212E+08
 
   -0.58115E+08         0.35982E+06         0.00000E+00
    0.35982E+06        -0.97579E+08         0.00000E+00
    0.00000E+00         0.00000E+00        -0.58162E+08
 
   -0.58064E+08         0.36576E+06         0.00000E+00
    0.36576E+06        -0.97580E+08         0.00000E+00
    0.00000E+00         0.00000E+00        -0.58111E+08
 
   -0.58012E+08         0.37164E+06         0.00000E+00
    0.37164E+06        -0.97580E+08         0.00000E+00
    0.00000E+00         0.00000E+00        -0.58058E+08
 
   -0.57959E+08         0.37746E+06         0.00000E+00
    0.37746E+06        -0.97580E+08         0.00000E+00
    0.00000E+00         0.00000E+00        -0.58005E+08
 
   -0.57905E+08         0.38322E+06         0.00000E+00
    0.38322E+06        -0.97580E+08         0.00000E+00
    0.00000E+00         0.00000E+00        -0.57951E+08
 
   -0.57850E+08         0.38888E+06         0.00000E+00
    0.38888E+06        -0.97581E+08         0.00000E+00
    0.00000E+00         0.00000E+00        -0.57896E+08
 
   -0.57794E+08         0.39444E+06         0.00000E+00
    0.39444E+06        -0.97581E+08         0.00000E+00
    0.00000E+00         0.00000E+00        -0.57839E+08
 
   -0.57738E+08         0.39988E+06         0.00000E+00
    0.39988E+06        -0.97582E+08         0.00000E+00
    0.00000E+00         0.00000E+00        -0.57782E+08
 
   -0.57680E+08         0.40518E+06         0.00000E+00
    0.40518E+06        -0.97582E+08         0.00000E+00
    0.00000E+00         0.00000E+00        -0.57724E+08
 
   -0.57622E+08         0.41032E+06         0.00000E+00
    0.41032E+06        -0.97583E+08         0.00000E+00
    0.00000E+00         0.00000E+00        -0.57664E+08
 
   -0.57563E+08         0.41528E+06         0.00000E+00
    0.41528E+06        -0.97584E+08         0.00000E+00
    0.00000E+00         0.00000E+00        -0.57604E+08
 
   -0.57503E+08         0.42004E+06         0.00000E+00
    0.42004E+06        -0.97585E+08         0.00000E+00
    0.00000E+00         0.00000E+00        -0.57542E+08
 
   -0.57442E+08         0.42456E+06         0.00000E+00
    0.42456E+06        -0.97586E+08         0.00000E+00
    0.00000E+00         0.00000E+00        -0.57480E+08
 
   -0.57380E+08         0.42883E+06         0.00000E+00
    0.42883E+06        -0.97587E+08         0.00000E+00
    0.00000E+00         0.00000E+00        -0.57416E+08
 
   -0.57317E+08         0.43282E+06         0.00000E+00
    0.43282E+06        -0.97588E+08         0.00000E+00
    0.00000E+00         0.00000E+00        -0.57352E+08
 
   -0.57254E+08         0.43649E+06         0.00000E+00
    0.43649E+06        -0.97589E+08         0.00000E+00
    0.00000E+00         0.00000E+00        -0.57286E+08
 
   -0.57190E+08         0.43980E+06         0.00000E+00
    0.43980E+06        -0.97591E+08         0.00000E+00
    0.00000E+00         0.00000E+00        -0.57220E+08
 
   -0.57125E+08         0.44273E+06         0.00000E+00
    0.44273E+06        -0.97592E+08         0.00000E+00
    0.00000E+00         0.00000E+00        -0.57152E+08
 
   -0.57059E+08         0.44523E+06         0.00000E+00
    0.44523E+06        -0.97594E+08         0.00000E+00
    0.00000E+00         0.00000E+00        -0.57084E+08
 
   -0.56993E+08         0.44726E+06         0.00000E+00
    0.44726E+06        -0.97596E+08         0.00000E+00
    0.00000E+00         0.00000E+00        -0.57015E+08
 
   -0.56927E+08         0.44877E+06         0.00000E+00
    0.44877E+06        -0.97598E+08         0.00000E+00
    0.00000E+00         0.00000E+00        -0.56945E+08
 
   -0.56859E+08         0.44971E+06         0.00000E+00
    0.44971E+06        -0.97600E+08         0.00000E+00
    0.00000E+00         0.00000E+00        -0.56874E+08
 
   -0.56792E+08         0.45003E+06         0.00000E+00
    0.45003E+06        -0.97603E+08         0.00000E+00
    0.00000E+00         0.00000E+00        -0.56802E+08
 
   -0.56724E+08         0.44967E+06         0.00000E+00
    0.44967E+06        -0.97606E+08         0.00000E+00
    0.00000E+00         0.00000E+00        -0.56729E+08
 
   -0.56655E+08         0.44855E+06         0.00000E+00
    0.44855E+06        -0.97609E+08         0.00000E+00
    0.00000E+00         0.00000E+00        -0.56656E+08
 
   -0.56587E+08         0.44663E+06         0.00000E+00
    0.44663E+06        -0.97612E+08         0.00000E+00
    0.00000E+00         0.00000E+00        -0.56581E+08
 
   -0.56518E+08         0.44381E+06         0.00000E+00
    0.44381E+06        -0.97616E+08         0.00000E+00
    0.00000E+00         0.00000E+00        -0.56507E+08
 
   -0.56449E+08         0.44002E+06         0.00000E+00
    0.44002E+06        -0.97620E+08         0.00000E+00
    0.00000E+00         0.00000E+00        -0.56431E+08
 
   -0.56380E+08         0.43518E+06         0.00000E+00
    0.43518E+06        -0.97625E+08         0.00000E+00
    0.00000E+00         0.00000E+00        -0.56355E+08
 
   -0.56310E+08         0.42919E+06         0.00000E+00
    0.42919E+06        -0.97630E+08         0.00000E+00
    0.00000E+00         0.00000E+00        -0.56279E+08
 
   -0.56241E+08         0.42196E+06         0.00000E+00
    0.42196E+06        -0.97636E+08         0.00000E+00
    0.00000E+00         0.00000E+00        -0.56202E+08
 
   -0.56172E+08         0.41340E+06         0.00000E+00
    0.41340E+06        -0.97642E+08         0.00000E+00
    0.00000E+00         0.00000E+00        -0.56125E+08
 
   -0.56104E+08         0.40341E+06         0.00000E+00
    0.40341E+06        -0.97649E+08         0.00000E+00
    0.00000E+00         0.00000E+00        -0.56047E+08
 
   -0.56035E+08         0.39187E+06         0.00000E+00
    0.39187E+06        -0.97657E+08         0.00000E+00
    0.00000E+00         0.00000E+00        -0.55969E+08
 
   -0.55967E+08         0.37871E+06         0.00000E+00
    0.37871E+06        -0.97665E+08         0.00000E+00
    0.00000E+00         0.00000E+00        -0.55891E+08
 
   -0.55899E+08         0.36382E+06         0.00000E+00
    0.36382E+06        -0.97675E+08         0.00000E+00
    0.00000E+00         0.00000E+00        -0.55812E+08
 
   -0.55831E+08         0.34712E+06         0.00000E+00
    0.34712E+06        -0.97684E+08         0.00000E+00
    0.00000E+00         0.00000E+00        -0.55733E+08
 
   -0.55763E+08         0.32856E+06         0.00000E+00
    0.32856E+06        -0.97694E+08         0.00000E+00
    0.00000E+00         0.00000E+00        -0.55654E+08
 
   -0.55695E+08         0.30809E+06         0.00000E+00
    0.30809E+06        -0.97704E+08         0.00000E+00
    0.00000E+00         0.00000E+00        -0.55575E+08
 
   -0.55628E+08         0.28570E+06         0.00000E+00
    0.28570E+06        -0.97714E+08         0.00000E+00
    0.00000E+00         0.00000E+00        -0.55495E+08
 
   -0.55561E+08         0.26145E+06         0.00000E+00
    0.26145E+06        -0.97723E+08         0.00000E+00
    0.00000E+00         0.00000E+00        -0.55415E+08
 
   -0.55494E+08         0.23542E+06         0.00000E+00
    0.23542E+06        -0.97730E+08         0.00000E+00
    0.00000E+00         0.00000E+00        -0.55333E+08
 
   -0.55427E+08         0.20778E+06         0.00000E+00
    0.20778E+06        -0.97734E+08         0.00000E+00
    0.00000E+00         0.00000E+00        -0.55251E+08
 
   -0.55362E+08         0.17882E+06         0.00000E+00
    0.17882E+06        -0.97733E+08         0.00000E+00
    0.00000E+00         0.00000E+00        -0.55168E+08
 
   -0.55299E+08         0.14889E+06         0.00000E+00
    0.14889E+06        -0.97726E+08         0.00000E+00
    0.00000E+00         0.00000E+00        -0.55082E+08
 
   -0.55240E+08         0.11853E+06         0.00000E+00
    0.11853E+06        -0.97708E+08         0.00000E+00
    0.00000E+00         0.00000E+00        -0.54995E+08
 
   -0.55187E+08         0.88460E+05         0.00000E+00
    0.88460E+05        -0.97679E+08         0.00000E+00
    0.00000E+00         0.00000E+00        -0.54906E+08
 
   -0.55144E+08         0.59793E+05         0.00000E+00
    0.59793E+05        -0.97633E+08         0.00000E+00
    0.00000E+00         0.00000E+00        -0.54815E+08
 
   -0.55114E+08         0.33784E+05         0.00000E+00
    0.33784E+05        -0.97572E+08         0.00000E+00
    0.00000E+00         0.00000E+00        -0.54722E+08
 
   -0.55098E+08         0.10797E+05         0.00000E+00
    0.10797E+05        -0.97494E+08         0.00000E+00
    0.00000E+00         0.00000E+00        -0.54630E+08
 
   -0.59619E+08         0.38054E+04         0.00000E+00
    0.38054E+04        -0.97616E+08         0.00000E+00
    0.00000E+00         0.00000E+00        -0.59762E+08
 
   -0.59615E+08         0.11776E+05         0.00000E+00
    0.11776E+05        -0.97596E+08         0.00000E+00
    0.00000E+00         0.00000E+00        -0.59739E+08
 
   -0.59607E+08         0.20575E+05         0.00000E+00
    0.20575E+05        -0.97581E+08         0.00000E+00
    0.00000E+00         0.00000E+00        -0.59716E+08
 
   -0.59596E+08         0.30191E+05         0.00000E+00
    0.30191E+05        -0.97570E+08         0.00000E+00
    0.00000E+00         0.00000E+00        -0.59693E+08
 
   -0.59582E+08         0.40350E+05         0.00000E+00
    0.40350E+05        -0.97563E+08         0.00000E+00
    0.00000E+00         0.00000E+00        -0.59670E+08
 
   -0.59567E+08         0.50765E+05         0.00000E+00
    0.50765E+05        -0.97558E+08         0.00000E+00
    0.00000E+00         0.00000E+00        -0.59648E+08
 
   -0.59550E+08         0.61218E+05         0.00000E+00
    0.61218E+05        -0.97556E+08         0.00000E+00
    0.00000E+00         0.00000E+00        -0.59626E+08
 
   -0.59532E+08         0.71555E+05         0.00000E+00
    0.71555E+05        -0.97556E+08         0.00000E+00
    0.00000E+00         0.00000E+00        -0.59604E+08
 
   -0.59513E+08         0.81665E+05         0.00000E+00
    0.81665E+05        -0.97557E+08         0.00000E+00
    0.00000E+00         0.00000E+00        -0.59582E+08
 
   -0.59494E+08         0.91474E+05         0.00000E+00
    0.91474E+05        -0.97558E+08         0.00000E+00
    0.00000E+00         0.00000E+00        -0.59559E+08
 
   -0.59475E+08         0.10093E+06         0.00000E+00
    0.10093E+06        -0.97560E+08         0.00000E+00
    0.00000E+00         0.00000E+00        -0.59537E+08
 
   -0.59454E+08         0.11003E+06         0.00000E+00
    0.11003E+06        -0.97562E+08         0.00000E+00
    0.00000E+00         0.00000E+00        -0.59515E+08
 
   -0.59434E+08         0.11874E+06         0.00000E+00
    0.11874E+06        -0.97564E+08         0.00000E+00
    0.00000E+00         0.00000E+00        -0.59492E+08
 
   -0.59412E+08         0.12709E+06         0.00000E+00
    0.12709E+06        -0.97567E+08         0.00000E+00
    0.00000E+00         0.00000E+00        -0.59469E+08
 
   -0.59391E+08         0.13508E+06         0.00000E+00
    0.13508E+06        -0.97569E+08         0.00000E+00
    0.00000E+00         0.00000E+00        -0.59445E+08
 
   -0.59368E+08         0.14274E+06         0.00000E+00
    0.14274E+06        -0.97570E+08         0.00000E+00
    0.00000E+00         0.00000E+00        -0.59421E+08
 
   -0.59345E+08         0.15009E+06         0.00000E+00
    0.15009E+06        -0.97572E+08         0.00000E+00
    0.00000E+00         0.00000E+00        -0.59396E+08
 
   -0.59321E+08         0.15716E+06         0.00000E+00
    0.15716E+06        -0.97573E+08         0.00000E+00
    0.00000E+00         0.00000E+00        -0.59371E+08
 
   -0.59297E+08         0.16398E+06         0.00000E+00
    0.16398E+06        -0.97575E+08         0.00000E+00
    0.00000E+00         0.00000E+00        -0.59346E+08
 
   -0.59272E+08         0.17058E+06         0.00000E+00
    0.17058E+06        -0.97576E+08         0.00000E+00
    0.00000E+00         0.00000E+00        -0.59320E+08
 
   -0.59246E+08         0.17699E+06         0.00000E+00
    0.17699E+06        -0.97577E+08         0.00000E+00
    0.00000E+00         0.00000E+00        -0.59293E+08
 
   -0.59219E+08         0.18322E+06         0.00000E+00
    0.18322E+06        -0.97577E+08         0.00000E+00
    0.00000E+00         0.00000E+00        -0.59266E+08
 
   -0.59192E+08         0.18931E+06         0.00000E+00
    0.18931E+06        -0.97578E+08         0.00000E+00
    0.00000E+00         0.00000E+00        -0.59238E+08
 
   -0.59164E+08         0.19527E+06         0.00000E+00
    0.19527E+06        -0.97579E+08         0.00000E+00
    0.00000E+00         0.00000E+00        -0.59209E+08
 
   -0.59135E+08         0.20113E+06         0.00000E+00
    0.20113E+06        -0.97579E+08         0.00000E+00
    0.00000E+00         0.00000E+00        -0.59180E+08
 
   -0.59106E+08         0.20691E+06         0.00000E+00
    0.20691E+06        -0.97580E+08         0.00000E+00
    0.00000E+00         0.00000E+00        -0.59151E+08
 
   -0.59076E+08         0.21263E+06         0.00000E+00
    0.21263E+06        -0.97580E+08         0.00000E+00
    0.00000E+00         0.00000E+00        -0.59120E+08
 
   -0.59045E+08         0.21829E+06         0.00000E+00
    0.21829E+06        -0.97580E+08         0.00000E+00
    0.00000E+00         0.00000E+00        -0.59089E+08
 
   -0.59013E+08         0.22391E+06         0.00000E+00
    0.22391E+06        -0.97580E+08         0.00000E+00
    0.00000E+00         0.00000E+00        -0.59058E+08
 
   -0.58980E+08         0.22951E+06         0.00000E+00
    0.22951E+06        -0.97580E+08         0.00000E+00
    0.00000E+00         0.00000E+00        -0.59025E+08
 
   -0.58947E+08         0.23510E+06         0.00000E+00
    0.23510E+06        -0.97580E+08         0.00000E+00
    0.00000E+00         0.00000E+00        -0.58992E+08
 
   -0.58913E+08         0.24068E+06         0.00000E+00
    0.24068E+06        -0.97580E+08         0.00000E+00
    0.00000E+00         0.00000E+00        -0.58958E+08
 
   -0.58879E+08         0.24626E+06         0.00000E+00
    0.24626E+06        -0.97581E+08         0.00000E+00
    0.00000E+00         0.00000E+00        -0.58924E+08
 
   -0.58843E+08         0.25186E+06         0.00000E+00
    0.25186E+06        -0.97581E+08         0.00000E+00
    0.00000E+00         0.00000E+00        -0.58889E+08
 
   -0.58807E+08         0.25746E+06         0.00000E+00
    0.25746E+06        -0.97580E+08         0.00000E+00
    0.00000E+00         0.00000E+00        -0.58853E+08
 
   -0.58770E+08         0.26309E+06         0.00000E+00
    0.26309E+06        -0.97580E+08         0.00000E+00
    0.00000E+00         0.00000E+00        -0.58816E+08
 
   -0.58732E+08         0.26873E+06         0.00000E+00
    0.26873E+06        -0.97580E+08         0.00000E+00
    0.00000E+00         0.00000E+00        -0.58778E+08
 
   -0.58693E+08         0.27441E+06         0.00000E+00
    0.27441E+06        -0.97580E+08         0.00000E+00
    0.00000E+00         0.00000E+00        -0.58740E+08
 
   -0.58653E+08         0.28010E+06         0.00000E+00
    0.28010E+06        -0.97580E+08         0.00000E+00
    0.00000E+00         0.00000E+00        -0.58701E+08
 
   -0.58613E+08         0.28582E+06         0.00000E+00
    0.28582E+06        -0.97580E+08         0.00000E+00
    0.00000E+00         0.00000E+00        -0.58661E+08
 
   -0.58572E+08         0.29157E+06         0.00000E+00
    0.29157E+06        -0.97580E+08         0.00000E+00
    0.00000E+00         0.00000E+00        -0.58620E+08
 
   -0.58530E+08         0.29734E+06         0.00000E+00
    0.29734E+06        -0.97580E+08         0.00000E+00
    0.00000E+00         0.00000E+00        -0.58578E+08
 
   -0.58487E+08         0.30313E+06         0.00000E+00
    0.30313E+06        -0.97580E+08         0.00000E+00
    0.00000E+00         0.00000E+00        -0.58536E+08
 
   -0.58443E+08         0.30894E+06         0.00000E+00
    0.30894E+06        -0.97580E+08         0.00000E+00
    0.00000E+00         0.00000E+00        -0.58492E+08
 
   -0.58398E+08         0.31477E+06         0.00000E+00
    0.31477E+06        -0.97580E+08         0.00000E+00
    0.00000E+00         0.00000E+00        -0.58448E+08
 
   -0.58353E+08         0.32060E+06         0.00000E+00
    0.32060E+06        -0.97580E+08         0.00000E+00
    0.00000E+00         0.00000E+00        -0.58402E+08
 
   -0.58306E+08         0.32644E+06         0.00000E+00
    0.32644E+06        -0.97580E+08         0.00000E+00
    0.00000E+00         0.00000E+00        -0.58356E+08
 
   -0.58259E+08         0.33228E+06         0.00000E+00
    0.33228E+06        -0.97580E+08         0.00000E+00
    0.00000E+00         0.00000E+00        -0.58309E+08
 
   -0.58210E+08         0.33811E+06         0.00000E+00
    0.33811E+06        -0.97580E+08         0.00000E+00
    0.00000E+00         0.00000E+00        -0.58260E+08
 
   -0.58161E+08         0.34392E+06         0.00000E+00
    0.34392E+06        -0.97580E+08         0.00000E+00
    0.00000E+00         0.00000E+00        -0.58211E+08
 
   -0.58111E+08         0.34970E+06         0.00000E+00
    0.34970E+06        -0.97581E+08         0.00000E+00
    0.00000E+00         0.00000E+00        -0.58161E+08
 
   -0.58060E+08         0.35545E+06         0.00000E+00
    0.35545E+06        -0.97581E+08         0.00000E+00
    0.00000E+00         0.00000E+00        -0.58110E+08
 
   -0.58008E+08         0.36115E+06         0.00000E+00
    0.36115E+06        -0.97581E+08         0.00000E+00
    0.00000E+00         0.00000E+00        -0.58058E+08
 
   -0.57955E+08         0.36679E+06         0.00000E+00
    0.36679E+06        -0.97581E+08         0.00000E+00
    0.00000E+00         0.00000E+00        -0.58004E+08
 
   -0.57901E+08         0.37236E+06         0.00000E+00
    0.37236E+06        -0.97582E+08         0.00000E+00
    0.00000E+00         0.00000E+00        -0.57950E+08
 
   -0.57846E+08         0.37784E+06         0.00000E+00
    0.37784E+06        -0.97582E+08         0.00000E+00
    0.00000E+00         0.00000E+00        -0.57895E+08
 
   -0.57791E+08         0.38322E+06         0.00000E+00
    0.38322E+06        -0.97582E+08         0.00000E+00
    0.00000E+00         0.00000E+00        -0.57838E+08
 
   -0.57734E+08         0.38848E+06         0.00000E+00
    0.38848E+06        -0.97583E+08         0.00000E+00
    0.00000E+00         0.00000E+00        -0.57781E+08
 
   -0.57677E+08         0.39360E+06         0.00000E+00
    0.39360E+06        -0.97584E+08         0.00000E+00
    0.00000E+00         0.00000E+00        -0.57723E+08
 
   -0.57619E+08         0.39856E+06         0.00000E+00
    0.39856E+06        -0.97584E+08         0.00000E+00
    0.00000E+00         0.00000E+00        -0.57663E+08
 
   -0.57559E+08         0.40335E+06         0.00000E+00
    0.40335E+06        -0.97585E+08         0.00000E+00
    0.00000E+00         0.00000E+00        -0.57603E+08
 
   -0.57499E+08         0.40794E+06         0.00000E+00
    0.40794E+06        -0.97586E+08         0.00000E+00
    0.00000E+00         0.00000E+00        -0.57542E+08
 
   -0.57438E+08         0.41230E+06         0.00000E+00
    0.41230E+06        -0.97587E+08         0.00000E+00
    0.00000E+00         0.00000E+00        -0.57479E+08
 
   -0.57377E+08         0.41641E+06         0.00000E+00
    0.41641E+06        -0.97588E+08         0.00000E+00
    0.00000E+00         0.00000E+00        -0.57416E+08
 
   -0.57314E+08         0.42024E+06         0.00000E+00
    0.42024E+06        -0.97589E+08         0.00000E+00
    0.00000E+00         0.00000E+00        -0.57351E+08
 
   -0.57251E+08         0.42376E+06         0.00000E+00
    0.42376E+06        -0.97590E+08         0.00000E+00
    0.00000E+00         0.00000E+00        -0.57286E+08
 
   -0.57187E+08         0.42693E+06         0.00000E+00
    0.42693E+06        -0.97591E+08         0.00000E+00
    0.00000E+00         0.00000E+00        -0.57219E+08
 
   -0.57123E+08         0.42972E+06         0.00000E+00
    0.42972E+06        -0.97593E+08         0.00000E+00
    0.00000E+00         0.00000E+00        -0.57152E+08
 
   -0.57057E+08         0.43210E+06         0.00000E+00
    0.43210E+06        -0.97594E+08         0.00000E+00
    0.00000E+00         0.00000E+00        -0.57084E+08
 
   -0.56992E+08         0.43401E+06         0.00000E+00
    0.43401E+06        -0.97596E+08         0.00000E+00
    0.00000E+00         0.00000E+00        -0.57014E+08
 
   -0.56925E+08         0.43541E+06         0.00000E+00
    0.43541E+06        -0.97598E+08         0.00000E+00
    0.00000E+00         0.00000E+00        -0.56944E+08
 
   -0.56858E+08         0.43625E+06         0.00000E+00
    0.43625E+06        -0.97600E+08         0.00000E+00
    0.00000E+00         0.00000E+00        -0.56873E+08
 
   -0.56791E+08         0.43649E+06         0.00000E+00
    0.43649E+06        -0.97603E+08         0.00000E+00
    0.00000E+00         0.00000E+00        -0.56801E+08
 
   -0.56723E+08         0.43605E+06         0.00000E+00
    0.43605E+06        -0.97605E+08         0.00000E+00
    0.00000E+00         0.00000E+00        -0.56729E+08
 
   -0.56655E+08         0.43488E+06         0.00000E+00
    0.43488E+06        -0.97608E+08         0.00000E+00
    0.00000E+00         0.00000E+00        -0.56655E+08
 
   -0.56587E+08         0.43290E+06         0.00000E+00
    0.43290E+06        -0.97612E+08         0.00000E+00
    0.00000E+00         0.00000E+00        -0.56581E+08
 
   -0.56518E+08         0.43005E+06         0.00000E+00
    0.43005E+06        -0.97615E+08         0.00000E+00
    0.00000E+00         0.00000E+00        -0.56507E+08
 
   -0.56450E+08         0.42625E+06         0.00000E+00
    0.42625E+06        -0.97619E+08         0.00000E+00
    0.00000E+00         0.00000E+00        -0.56431E+08
 
   -0.56381E+08         0.42140E+06         0.00000E+00
    0.42140E+06        -0.97624E+08         0.00000E+00
    0.00000E+00         0.00000E+00        -0.56355E+08
 
   -0.56313E+08         0.41543E+06         0.00000E+00
    0.41543E+06        -0.97629E+08         0.00000E+00
    0.00000E+00         0.00000E+00        -0.56279E+08
 
   -0.56244E+08         0.40823E+06         0.00000E+00
    0.40823E+06        -0.97634E+08         0.00000E+00
    0.00000E+00         0.00000E+00        -0.56202E+08
 
   -0.56176E+08         0.39970E+06         0.00000E+00
    0.39970E+06        -0.97640E+08         0.00000E+00
    0.00000E+00         0.00000E+00        -0.56125E+08
 
   -0.56108E+08         0.38974E+06         0.00000E+00
    0.38974E+06        -0.97647E+08         0.00000E+00
    0.00000E+00         0.00000E+00        -0.56048E+08
 
   -0.56040E+08         0.37826E+06         0.00000E+00
    0.37826E+06        -0.97655E+08         0.00000E+00
    0.00000E+00         0.00000E+00        -0.55970E+08
 
   -0.55973E+08         0.36515E+06         0.00000E+00
    0.36515E+06        -0.97663E+08         0.00000E+00
    0.00000E+00         0.00000E+00        -0.55892E+08
 
   -0.55905E+08         0.35031E+06         0.00000E+00
    0.35031E+06        -0.97671E+08         0.00000E+00
    0.00000E+00         0.00000E+00        -0.55813E+08
 
   -0.55838E+08         0.33366E+06         0.00000E+00
    0.33366E+06        -0.97681E+08         0.00000E+00
    0.00000E+00         0.00000E+00        -0.55735E+08
 
   -0.55772E+08         0.31514E+06         0.00000E+00
    0.31514E+06        -0.97690E+08         0.00000E+00
    0.00000E+00         0.00000E+00        -0.55656E+08
 
   -0.55705E+08         0.29471E+06         0.00000E+00
    0.29471E+06        -0.97700E+08         0.00000E+00
    0.00000E+00         0.00000E+00        -0.55577E+08
 
   -0.55639E+08         0.27237E+06         0.00000E+00
    0.27237E+06        -0.97710E+08         0.00000E+00
    0.00000E+00         0.00000E+00        -0.55497E+08
 
   -0.55574E+08         0.24816E+06         0.00000E+00
    0.24816E+06        -0.97718E+08         0.00000E+00
    0.00000E+00         0.00000E+00        -0.55417E+08
 
   -0.55508E+08         0.22223E+06         0.00000E+00
    0.22223E+06        -0.97725E+08         0.00000E+00
    0.00000E+00         0.00000E+00        -0.55336E+08
 
   -0.55443E+08         0.19477E+06         0.00000E+00
    0.19477E+06        -0.97729E+08         0.00000E+00
    0.00000E+00         0.00000E+00        -0.55254E+08
 
   -0.55380E+08         0.16614E+06         0.00000E+00
    0.16614E+06        -0.97728E+08         0.00000E+00
    0.00000E+00         0.00000E+00        -0.55171E+08
 
   -0.55319E+08         0.13681E+06         0.00000E+00
    0.13681E+06        -0.97720E+08         0.00000E+00
    0.00000E+00         0.00000E+00        -0.55086E+08
 
   -0.55262E+08         0.10743E+06         0.00000E+00
    0.10743E+06        -0.97702E+08         0.00000E+00
    0.00000E+00         0.00000E+00        -0.55000E+08
 
   -0.55212E+08         0.78932E+05         0.00000E+00
    0.78932E+05        -0.97673E+08         0.00000E+00
    0.00000E+00         0.00000E+00        -0.54911E+08
 
   -0.55170E+08         0.52488E+05         0.00000E+00
    0.52488E+05        -0.97628E+08         0.00000E+00
    0.00000E+00         0.00000E+00        -0.54821E+08
 
   -0.55141E+08         0.29239E+05         0.00000E+00
    0.29239E+05        -0.97567E+08         0.00000E+00
    0.00000E+00         0.00000E+00        -0.54729E+08
 
   -0.55126E+08         0.92661E+04         0.00000E+00
    0.92661E+04        -0.97490E+08         0.00000E+00
    0.00000E+00         0.00000E+00        -0.54637E+08
 
   -0.59611E+08         0.34144E+04         0.00000E+00
    0.34144E+04        -0.97617E+08         0.00000E+00
    0.00000E+00         0.00000E+00        -0.59760E+08
 
   -0.59607E+08         0.10615E+05         0.00000E+00
    0.10615E+05        -0.97598E+08         0.00000E+00
    0.00000E+00         0.00000E+00        -0.59737E+08
 
   -0.59599E+08         0.18701E+05         0.00000E+00
    0.18701E+05        -0.97583E+08         0.00000E+00
    0.00000E+00         0.00000E+00        -0.59714E+08
 
   -0.59589E+08         0.27723E+05         0.00000E+00
    0.27723E+05        -0.97572E+08         0.00000E+00
    0.00000E+00         0.00000E+00        -0.59691E+08
 
   -0.59575E+08         0.37436E+05         0.00000E+00
    0.37436E+05        -0.97565E+08         0.00000E+00
    0.00000E+00         0.00000E+00        -0.59669E+08
 
   -0.59560E+08         0.47535E+05         0.00000E+00
    0.47535E+05        -0.97560E+08         0.00000E+00
    0.00000E+00         0.00000E+00        -0.59646E+08
 
   -0.59544E+08         0.57767E+05         0.00000E+00
    0.57767E+05        -0.97558E+08         0.00000E+00
    0.00000E+00         0.00000E+00        -0.59624E+08
 
   -0.59526E+08         0.67942E+05         0.00000E+00
    0.67942E+05        -0.97558E+08         0.00000E+00
    0.00000E+00         0.00000E+00        -0.59602E+08
 
   -0.59508E+08         0.77924E+05         0.00000E+00
    0.77924E+05        -0.97559E+08         0.00000E+00
    0.00000E+00         0.00000E+00        -0.59581E+08
 
   -0.59489E+08         0.87620E+05         0.00000E+00
    0.87620E+05        -0.97560E+08         0.00000E+00
    0.00000E+00         0.00000E+00        -0.59559E+08
 
   -0.59470E+08         0.96975E+05         0.00000E+00
    0.96975E+05        -0.97562E+08         0.00000E+00
    0.00000E+00         0.00000E+00        -0.59536E+08
 
   -0.59450E+08         0.10596E+06         0.00000E+00
    0.10596E+06        -0.97564E+08         0.00000E+00
    0.00000E+00         0.00000E+00        -0.59514E+08
 
   -0.59429E+08         0.11456E+06         0.00000E+00
    0.11456E+06        -0.97566E+08         0.00000E+00
    0.00000E+00         0.00000E+00        -0.59491E+08
 
   -0.59408E+08         0.12279E+06         0.00000E+00
    0.12279E+06        -0.97568E+08         0.00000E+00
    0.00000E+00         0.00000E+00        -0.59468E+08
 
   -0.59387E+08         0.13066E+06         0.00000E+00
    0.13066E+06        -0.97570E+08         0.00000E+00
    0.00000E+00         0.00000E+00        -0.59444E+08
 
   -0.59364E+08         0.13819E+06         0.00000E+00
    0.13819E+06        -0.97572E+08         0.00000E+00
    0.00000E+00         0.00000E+00        -0.59420E+08
 
   -0.59341E+08         0.14541E+06         0.00000E+00
    0.14541E+06        -0.97573E+08         0.00000E+00
    0.00000E+00         0.00000E+00        -0.59396E+08
 
   -0.59318E+08         0.15235E+06         0.00000E+00
    0.15235E+06        -0.97575E+08         0.00000E+00
    0.00000E+00         0.00000E+00        -0.59371E+08
 
   -0.59293E+08         0.15903E+06         0.00000E+00
    0.15903E+06        -0.97576E+08         0.00000E+00
    0.00000E+00         0.00000E+00        -0.59345E+08
 
   -0.59268E+08         0.16549E+06         0.00000E+00
    0.16549E+06        -0.97577E+08         0.00000E+00
    0.00000E+00         0.00000E+00        -0.59319E+08
 
   -0.59242E+08         0.17175E+06         0.00000E+00
    0.17175E+06        -0.97578E+08         0.00000E+00
    0.00000E+00         0.00000E+00        -0.59292E+08
 
   -0.59216E+08         0.17784E+06         0.00000E+00
    0.17784E+06        -0.97579E+08         0.00000E+00
    0.00000E+00         0.00000E+00        -0.59265E+08
 
   -0.59189E+08         0.18378E+06         0.00000E+00
    0.18378E+06        -0.97579E+08         0.00000E+00
    0.00000E+00         0.00000E+00        -0.59237E+08
 
   -0.59161E+08         0.18960E+06         0.00000E+00
    0.18960E+06        -0.97580E+08         0.00000E+00
    0.00000E+00         0.00000E+00        -0.59209E+08
 
   -0.59132E+08         0.19532E+06         0.00000E+00
    0.19532E+06        -0.97580E+08         0.00000E+00
    0.00000E+00         0.00000E+00        -0.59180E+08
 
   -0.59103E+08         0.20095E+06         0.00000E+00
    0.20095E+06        -0.97581E+08         0.00000E+00
    0.00000E+00         0.00000E+00        -0.59150E+08
 
   -0.59072E+08         0.20651E+06         0.00000E+00
    0.20651E+06        -0.97581E+08         0.00000E+00
    0.00000E+00         0.00000E+00        -0.59120E+08
 
   -0.59041E+08         0.21202E+06         0.00000E+00
    0.21202E+06        -0.97581E+08         0.00000E+00
    0.00000E+00         0.00000E+00        -0.59089E+08
 
   -0.59010E+08         0.21750E+06         0.00000E+00
    0.21750E+06        -0.97581E+08         0.00000E+00
    0.00000E+00         0.00000E+00        -0.59057E+08
 
   -0.58977E+08         0.22295E+06         0.00000E+00
    0.22295E+06        -0.97581E+08         0.00000E+00
    0.00000E+00         0.00000E+00        -0.59025E+08
 
   -0.58944E+08         0.22838E+06         0.00000E+00
    0.22838E+06        -0.97582E+08         0.00000E+00
    0.00000E+00         0.00000E+00        -0.58992E+08
 
   -0.58910E+08         0.23381E+06         0.00000E+00
    0.23381E+06        -0.97582E+08         0.00000E+00
    0.00000E+00         0.00000E+00        -0.58958E+08
 
   -0.58875E+08         0.23924E+06         0.00000E+00
    0.23924E+06        -0.97582E+08         0.00000E+00
    0.00000E+00         0.00000E+00        -0.58923E+08
 
   -0.58840E+08         0.24467E+06         0.00000E+00
    0.24467E+06        -0.97582E+08         0.00000E+00
    0.00000E+00         0.00000E+00        -0.58888E+08
 
   -0.58803E+08         0.25012E+06         0.00000E+00
    0.25012E+06        -0.97582E+08         0.00000E+00
    0.00000E+00         0.00000E+00        -0.58852E+08
 
   -0.58766E+08         0.25558E+06         0.00000E+00
    0.25558E+06        -0.97582E+08         0.00000E+00
    0.00000E+00         0.00000E+00        -0.58815E+08
 
   -0.58728E+08         0.26107E+06         0.00000E+00
    0.26107E+06        -0.97582E+08         0.00000E+00
    0.00000E+00         0.00000E+00        -0.58778E+08
 
   -0.58689E+08         0.26657E+06         0.00000E+00
    0.26657E+06        -0.97581E+08         0.00000E+00
    0.00000E+00         0.00000E+00        -0.58739E+08
 
   -0.58650E+08         0.27210E+06         0.00000E+00
    0.27210E+06        -0.97581E+08         0.00000E+00
    0.00000E+00         0.00000E+00        -0.58700E+08
 
   -0.58609E+08         0.27766E+06         0.00000E+00
    0.27766E+06        -0.97581E+08         0.00000E+00
    0.00000E+00         0.00000E+00        -0.58660E+08
 
   -0.58568E+08         0.28323E+06         0.00000E+00
    0.28323E+06        -0.97581E+08         0.00000E+00
    0.00000E+00         0.00000E+00        -0.58619E+08
 
   -0.58526E+08         0.28883E+06         0.00000E+00
    0.28883E+06        -0.97581E+08         0.00000E+00
    0.00000E+00         0.00000E+00        -0.58577E+08
 
   -0.58483E+08         0.29445E+06         0.00000E+00
    0.29445E+06        -0.97581E+08         0.00000E+00
    0.00000E+00         0.00000E+00        -0.58535E+08
 
   -0.58439E+08         0.30009E+06         0.00000E+00
    0.30009E+06        -0.97581E+08         0.00000E+00
    0.00000E+00         0.00000E+00        -0.58491E+08
 
   -0.58394E+08         0.30573E+06         0.00000E+00
    0.30573E+06        -0.97581E+08         0.00000E+00
    0.00000E+00         0.00000E+00        -0.58447E+08
 
   -0.58349E+08         0.31139E+06         0.00000E+00
    0.31139E+06        -0.97581E+08         0.00000E+00
    0.00000E+00         0.00000E+00        -0.58401E+08
 
   -0.58302E+08         0.31705E+06         0.00000E+00
    0.31705E+06        -0.97581E+08         0.00000E+00
    0.00000E+00         0.00000E+00        -0.58355E+08
 
   -0.58255E+08         0.32271E+06         0.00000E+00
    0.32271E+06        -0.97581E+08         0.00000E+00
    0.00000E+00         0.00000E+00        -0.58308E+08
 
   -0.58207E+08         0.32835E+06         0.00000E+00
    0.32835E+06        -0.97581E+08         0.00000E+00
    0.00000E+00         0.00000E+00        -0.58260E+08
 
   -0.58157E+08         0.33398E+06         0.00000E+00
    0.33398E+06        -0.97582E+08         0.00000E+00
    0.00000E+00         0.00000E+00        -0.58210E+08
 
   -0.58107E+08         0.33958E+06         0.00000E+00
    0.33958E+06        -0.97582E+08         0.00000E+00
    0.00000E+00         0.00000E+00        -0.58160E+08
 
   -0.58056E+08         0.34515E+06         0.00000E+00
    0.34515E+06        -0.97582E+08         0.00000E+00
    0.00000E+00         0.00000E+00        -0.58109E+08
 
   -0.58004E+08         0.35067E+06         0.00000E+00
    0.35067E+06        -0.97582E+08         0.00000E+00
    0.00000E+00         0.00000E+00        -0.58057E+08
 
   -0.57951E+08         0.35612E+06         0.00000E+00
    0.35612E+06        -0.97582E+08         0.00000E+00
    0.00000E+00         0.00000E+00        -0.58004E+08
 
   -0.57898E+08         0.36151E+06         0.00000E+00
    0.36151E+06        -0.97583E+08         0.00000E+00
    0.00000E+00         0.00000E+00        -0.57949E+08
 
   -0.57843E+08         0.36681E+06         0.00000E+00
    0.36681E+06        -0.97583E+08         0.00000E+00
    0.00000E+00         0.00000E+00        -0.57894E+08
 
   -0.57787E+08         0.37201E+06         0.00000E+00
    0.37201E+06        -0.97583E+08         0.00000E+00
    0.00000E+00         0.00000E+00        -0.57838E+08
 
   -0.57731E+08         0.37709E+06         0.00000E+00
    0.37709E+06        -0.97584E+08         0.00000E+00
    0.00000E+00         0.00000E+00        -0.57780E+08
 
   -0.57673E+08         0.38203E+06         0.00000E+00
    0.38203E+06        -0.97585E+08         0.00000E+00
    0.00000E+00         0.00000E+00        -0.57722E+08
 
   -0.57615E+08         0.38682E+06         0.00000E+00
    0.38682E+06        -0.97585E+08         0.00000E+00
    0.00000E+00         0.00000E+00        -0.57663E+08
 
   -0.57556E+08         0.39144E+06         0.00000E+00
    0.39144E+06        -0.97586E+08         0.00000E+00
    0.00000E+00         0.00000E+00        -0.57602E+08
 
   -0.57496E+08         0.39586E+06         0.00000E+00
    0.39586E+06        -0.97587E+08         0.00000E+00
    0.00000E+00         0.00000E+00        -0.57541E+08
 
   -0.57435E+08         0.40006E+06         0.00000E+00
    0.40006E+06        -0.97587E+08         0.00000E+00
    0.00000E+00         0.00000E+00        -0.57478E+08
 
   -0.57374E+08         0.40401E+06         0.00000E+00
    0.40401E+06        -0.97588E+08         0.00000E+00
    0.00000E+00         0.00000E+00        -0.57415E+08
 
   -0.57312E+08         0.40769E+06         0.00000E+00
    0.40769E+06        -0.97589E+08         0.00000E+00
    0.00000E+00         0.00000E+00        -0.57351E+08
 
   -0.57248E+08         0.41106E+06         0.00000E+00
    0.41106E+06        -0.97591E+08         0.00000E+00
    0.00000E+00         0.00000E+00        -0.57285E+08
 
   -0.57185E+08         0.41409E+06         0.00000E+00
    0.41409E+06        -0.97592E+08         0.00000E+00
    0.00000E+00         0.00000E+00        -0.57219E+08
 
   -0.57120E+08         0.41675E+06         0.00000E+00
    0.41675E+06        -0.97593E+08         0.00000E+00
    0.00000E+00         0.00000E+00        -0.57151E+08
 
   -0.57055E+08         0.41900E+06         0.00000E+00
    0.41900E+06        -0.97595E+08         0.00000E+00
    0.00000E+00         0.00000E+00        -0.57083E+08
 
   -0.56990E+08         0.42080E+06         0.00000E+00
    0.42080E+06        -0.97597E+08         0.00000E+00
    0.00000E+00         0.00000E+00        -0.57014E+08
 
   -0.56923E+08         0.42210E+06         0.00000E+00
    0.42210E+06        -0.97598E+08         0.00000E+00
    0.00000E+00         0.00000E+00        -0.56944E+08
 
   -0.56857E+08         0.42285E+06         0.00000E+00
    0.42285E+06        -0.97601E+08         0.00000E+00
    0.00000E+00         0.00000E+00        -0.56873E+08
 
   -0.56790E+08         0.42301E+06         0.00000E+00
    0.42301E+06        -0.97603E+08         0.00000E+00
    0.00000E+00         0.00000E+00        -0.56801E+08
 
   -0.56722E+08         0.42250E+06         0.00000E+00
    0.42250E+06        -0.97605E+08         0.00000E+00
    0.00000E+00         0.00000E+00        -0.56729E+08
 
   -0.56655E+08         0.42128E+06         0.00000E+00
    0.42128E+06        -0.97608E+08         0.00000E+00
    0.00000E+00         0.00000E+00        -0.56655E+08
 
   -0.56587E+08         0.41927E+06         0.00000E+00
    0.41927E+06        -0.97611E+08         0.00000E+00
    0.00000E+00         0.00000E+00        -0.56581E+08
 
   -0.56519E+08         0.41639E+06         0.00000E+00
    0.41639E+06        -0.97615E+08         0.00000E+00
    0.00000E+00         0.00000E+00        -0.56507E+08
 
   -0.56451E+08         0.41258E+06         0.00000E+00
    0.41258E+06        -0.97619E+08         0.00000E+00
    0.00000E+00         0.00000E+00        -0.56431E+08
 
   -0.56383E+08         0.40774E+06         0.00000E+00
    0.40774E+06        -0.97623E+08         0.00000E+00
    0.00000E+00         0.00000E+00        -0.56356E+08
 
   -0.56315E+08         0.40178E+06         0.00000E+00
    0.40178E+06        -0.97627E+08         0.00000E+00
    0.00000E+00         0.00000E+00        -0.56279E+08
 
   -0.56247E+08         0.39462E+06         0.00000E+00
    0.39462E+06        -0.97633E+08         0.00000E+00
    0.00000E+00         0.00000E+00        -0.56203E+08
 
   -0.56179E+08         0.38613E+06         0.00000E+00
    0.38613E+06        -0.97639E+08         0.00000E+00
    0.00000E+00         0.00000E+00        -0.56126E+08
 
   -0.56112E+08         0.37624E+06         0.00000E+00
    0.37624E+06        -0.97645E+08         0.00000E+00
    0.00000E+00         0.00000E+00        -0.56048E+08
 
   -0.56045E+08         0.36481E+06         0.00000E+00
    0.36481E+06        -0.97652E+08         0.00000E+00
    0.00000E+00         0.00000E+00        -0.55970E+08
 
   -0.55978E+08         0.35177E+06         0.00000E+00
    0.35177E+06        -0.97660E+08         0.00000E+00
    0.00000E+00         0.00000E+00        -0.55893E+08
 
   -0.55912E+08         0.33700E+06         0.00000E+00
    0.33700E+06        -0.97668E+08         0.00000E+00
    0.00000E+00         0.00000E+00        -0.55814E+08
 
   -0.55846E+08         0.32042E+06         0.00000E+00
    0.32042E+06        -0.97677E+08         0.00000E+00
    0.00000E+00         0.00000E+00        -0.55736E+08
 
   -0.55781E+08         0.30196E+06         0.00000E+00
    0.30196E+06        -0.97686E+08         0.00000E+00
    0.00000E+00         0.00000E+00        -0.55657E+08
 
   -0.55715E+08         0.28159E+06         0.00000E+00
    0.28159E+06        -0.97696E+08         0.00000E+00
    0.00000E+00         0.00000E+00        -0.55579E+08
 
   -0.55651E+08         0.25931E+06         0.00000E+00
    0.25931E+06        -0.97705E+08         0.00000E+00
    0.00000E+00         0.00000E+00        -0.55499E+08
 
   -0.55586E+08         0.23518E+06         0.00000E+00
    0.23518E+06        -0.97713E+08         0.00000E+00
    0.00000E+00         0.00000E+00        -0.55419E+08
 
   -0.55523E+08         0.20937E+06         0.00000E+00
    0.20937E+06        -0.97720E+08         0.00000E+00
    0.00000E+00         0.00000E+00        -0.55339E+08
 
   -0.55460E+08         0.18212E+06         0.00000E+00
    0.18212E+06        -0.97723E+08         0.00000E+00
    0.00000E+00         0.00000E+00        -0.55258E+08
 
   -0.55398E+08         0.15385E+06         0.00000E+00
    0.15385E+06        -0.97722E+08         0.00000E+00
    0.00000E+00         0.00000E+00        -0.55175E+08
 
   -0.55339E+08         0.12513E+06         0.00000E+00
    0.12513E+06        -0.97714E+08         0.00000E+00
    0.00000E+00         0.00000E+00        -0.55091E+08
 
   -0.55284E+08         0.96767E+05         0.00000E+00
    0.96767E+05        -0.97697E+08         0.00000E+00
    0.00000E+00         0.00000E+00        -0.55005E+08
 
   -0.55236E+08         0.69812E+05         0.00000E+00
    0.69812E+05        -0.97667E+08         0.00000E+00
    0.00000E+00         0.00000E+00        -0.54917E+08
 
   -0.55196E+08         0.45518E+05         0.00000E+00
    0.45518E+05        -0.97623E+08         0.00000E+00
    0.00000E+00         0.00000E+00        -0.54827E+08
 
   -0.55169E+08         0.24907E+05         0.00000E+00
    0.24907E+05        -0.97563E+08         0.00000E+00
    0.00000E+00         0.00000E+00        -0.54736E+08
 
   -0.55154E+08         0.78052E+04         0.00000E+00
    0.78052E+04        -0.97486E+08         0.00000E+00
    0.00000E+00         0.00000E+00        -0.54644E+08
 
   -0.59602E+08         0.30374E+04         0.00000E+00
    0.30374E+04        -0.97619E+08         0.00000E+00
    0.00000E+00         0.00000E+00        -0.59758E+08
 
   -0.59599E+08         0.94973E+04         0.00000E+00
    0.94973E+04        -0.97600E+08         0.00000E+00
    0.00000E+00         0.00000E+00        -0.59735E+08
 
   -0.59591E+08         0.16897E+05         0.00000E+00
    0.16897E+05        -0.97585E+08         0.00000E+00
    0.00000E+00         0.00000E+00        -0.59712E+08
 
   -0.59581E+08         0.25342E+05         0.00000E+00
    0.25342E+05        -0.97574E+08         0.00000E+00
    0.00000E+00         0.00000E+00        -0.59689E+08
 
   -0.59568E+08         0.34615E+05         0.00000E+00
    0.34615E+05        -0.97567E+08         0.00000E+00
    0.00000E+00         0.00000E+00        -0.59667E+08
 
   -0.59554E+08         0.44397E+05         0.00000E+00
    0.44397E+05        -0.97562E+08         0.00000E+00
    0.00000E+00         0.00000E+00        -0.59645E+08
 
   -0.59537E+08         0.54402E+05         0.00000E+00
    0.54402E+05        -0.97560E+08         0.00000E+00
    0.00000E+00         0.00000E+00        -0.59623E+08
 
   -0.59520E+08         0.64408E+05         0.00000E+00
    0.64408E+05        -0.97560E+08         0.00000E+00
    0.00000E+00         0.00000E+00        -0.59601E+08
 
   -0.59503E+08         0.74253E+05         0.00000E+00
    0.74253E+05        -0.97561E+08         0.00000E+00
    0.00000E+00         0.00000E+00        -0.59579E+08
 
   -0.59484E+08         0.83830E+05         0.00000E+00
    0.83830E+05        -0.97562E+08         0.00000E+00
    0.00000E+00         0.00000E+00        -0.59558E+08
 
   -0.59465E+08         0.93070E+05         0.00000E+00
    0.93070E+05        -0.97564E+08         0.00000E+00
    0.00000E+00         0.00000E+00        -0.59535E+08
 
   -0.59445E+08         0.10194E+06         0.00000E+00
    0.10194E+06        -0.97566E+08         0.00000E+00
    0.00000E+00         0.00000E+00        -0.59513E+08
 
   -0.59425E+08         0.11043E+06         0.00000E+00
    0.11043E+06        -0.97568E+08         0.00000E+00
    0.00000E+00         0.00000E+00        -0.59490E+08
 
   -0.59404E+08         0.11853E+06         0.00000E+00
    0.11853E+06        -0.97570E+08         0.00000E+00
    0.00000E+00         0.00000E+00        -0.59467E+08
 
   -0.59383E+08         0.12627E+06         0.00000E+00
    0.12627E+06        -0.97572E+08         0.00000E+00
    0.00000E+00         0.00000E+00        -0.59444E+08
 
   -0.59360E+08         0.13367E+06         0.00000E+00
    0.13367E+06        -0.97573E+08         0.00000E+00
    0.00000E+00         0.00000E+00        -0.59420E+08
 
   -0.59338E+08         0.14076E+06         0.00000E+00
    0.14076E+06        -0.97575E+08         0.00000E+00
    0.00000E+00         0.00000E+00        -0.59395E+08
 
   -0.59314E+08         0.14756E+06         0.00000E+00
    0.14756E+06        -0.97576E+08         0.00000E+00
    0.00000E+00         0.00000E+00        -0.59370E+08
 
   -0.59290E+08         0.15410E+06         0.00000E+00
    0.15410E+06        -0.97577E+08         0.00000E+00
    0.00000E+00         0.00000E+00        -0.59344E+08
 
   -0.59265E+08         0.16041E+06         0.00000E+00
    0.16041E+06        -0.97578E+08         0.00000E+00
    0.00000E+00         0.00000E+00        -0.59318E+08
 
   -0.59239E+08         0.16653E+06         0.00000E+00
    0.16653E+06        -0.97579E+08         0.00000E+00
    0.00000E+00         0.00000E+00        -0.59292E+08
 
   -0.59213E+08         0.17247E+06         0.00000E+00
    0.17247E+06        -0.97580E+08         0.00000E+00
    0.00000E+00         0.00000E+00        -0.59264E+08
 
   -0.59185E+08         0.17826E+06         0.00000E+00
    0.17826E+06        -0.97581E+08         0.00000E+00
    0.00000E+00         0.00000E+00        -0.59237E+08
 
   -0.59157E+08         0.18393E+06         0.00000E+00
    0.18393E+06        -0.97581E+08         0.00000E+00
    0.00000E+00         0.00000E+00        -0.59208E+08
 
   -0.59129E+08         0.18950E+06         0.00000E+00
    0.18950E+06        -0.97581E+08         0.00000E+00
    0.00000E+00         0.00000E+00        -0.59179E+08
 
   -0.59099E+08         0.19498E+06         0.00000E+00
    0.19498E+06        -0.97582E+08         0.00000E+00
    0.00000E+00         0.00000E+00        -0.59149E+08
 
   -0.59069E+08         0.20040E+06         0.00000E+00
    0.20040E+06        -0.97582E+08         0.00000E+00
    0.00000E+00         0.00000E+00        -0.59119E+08
 
   -0.59038E+08         0.20576E+06         0.00000E+00
    0.20576E+06        -0.97582E+08         0.00000E+00
    0.00000E+00         0.00000E+00        -0.59088E+08
 
   -0.59006E+08         0.21108E+06         0.00000E+00
    0.21108E+06        -0.97582E+08         0.00000E+00
    0.00000E+00         0.00000E+00        -0.59056E+08
 
   -0.58974E+08         0.21638E+06         0.00000E+00
    0.21638E+06        -0.97583E+08         0.00000E+00
    0.00000E+00         0.00000E+00        -0.59024E+08
 
   -0.58941E+08         0.22166E+06         0.00000E+00
    0.22166E+06        -0.97583E+08         0.00000E+00
    0.00000E+00         0.00000E+00        -0.58991E+08
 
   -0.58907E+08         0.22693E+06         0.00000E+00
    0.22693E+06        -0.97583E+08         0.00000E+00
    0.00000E+00         0.00000E+00        -0.58957E+08
 
   -0.58872E+08         0.23220E+06         0.00000E+00
    0.23220E+06        -0.97583E+08         0.00000E+00
    0.00000E+00         0.00000E+00        -0.58923E+08
 
   -0.58836E+08         0.23748E+06         0.00000E+00
    0.23748E+06        -0.97583E+08         0.00000E+00
    0.00000E+00         0.00000E+00        -0.58887E+08
 
   -0.58800E+08         0.24277E+06         0.00000E+00
    0.24277E+06        -0.97583E+08         0.00000E+00
    0.00000E+00         0.00000E+00        -0.58851E+08
 
   -0.58763E+08         0.24807E+06         0.00000E+00
    0.24807E+06        -0.97583E+08         0.00000E+00
    0.00000E+00         0.00000E+00        -0.58815E+08
 
   -0.58725E+08         0.25339E+06         0.00000E+00
    0.25339E+06        -0.97583E+08         0.00000E+00
    0.00000E+00         0.00000E+00        -0.58777E+08
 
   -0.58686E+08         0.25873E+06         0.00000E+00
    0.25873E+06        -0.97583E+08         0.00000E+00
    0.00000E+00         0.00000E+00        -0.58739E+08
 
   -0.58646E+08         0.26410E+06         0.00000E+00
    0.26410E+06        -0.97583E+08         0.00000E+00
    0.00000E+00         0.00000E+00        -0.58699E+08
 
   -0.58606E+08         0.26948E+06         0.00000E+00
    0.26948E+06        -0.97582E+08         0.00000E+00
    0.00000E+00         0.00000E+00        -0.58659E+08
 
   -0.58565E+08         0.27489E+06         0.00000E+00
    0.27489E+06        -0.97582E+08         0.00000E+00
    0.00000E+00         0.00000E+00        -0.58619E+08
 
   -0.58522E+08         0.28032E+06         0.00000E+00
    0.28032E+06        -0.97582E+08         0.00000E+00
    0.00000E+00         0.00000E+00        -0.58577E+08
 
   -0.58479E+08         0.28576E+06         0.00000E+00
    0.28576E+06        -0.97582E+08         0.00000E+00
    0.00000E+00         0.00000E+00        -0.58534E+08
 
   -0.58436E+08         0.29122E+06         0.00000E+00
    0.29122E+06        -0.97582E+08         0.00000E+00
    0.00000E+00         0.00000E+00        -0.58491E+08
 
   -0.58391E+08         0.29669E+06         0.00000E+00
    0.29669E+06        -0.97582E+08         0.00000E+00
    0.00000E+00         0.00000E+00        -0.58446E+08
 
   -0.58345E+08         0.30217E+06         0.00000E+00
    0.30217E+06        -0.97582E+08         0.00000E+00
    0.00000E+00         0.00000E+00        -0.58401E+08
 
   -0.58299E+08         0.30766E+06         0.00000E+00
    0.30766E+06        -0.97582E+08         0.00000E+00
    0.00000E+00         0.00000E+00        -0.58354E+08
 
   -0.58251E+08         0.31313E+06         0.00000E+00
    0.31313E+06        -0.97582E+08         0.00000E+00
    0.00000E+00         0.00000E+00        -0.58307E+08
 
   -0.58203E+08         0.31860E+06         0.00000E+00
    0.31860E+06        -0.97583E+08         0.00000E+00
    0.00000E+00         0.00000E+00        -0.58259E+08
 
   -0.58154E+08         0.32405E+06         0.00000E+00
    0.32405E+06        -0.97583E+08         0.00000E+00
    0.00000E+00         0.00000E+00        -0.58210E+08
 
   -0.58103E+08         0.32947E+06         0.00000E+00
    0.32947E+06        -0.97583E+08         0.00000E+00
    0.00000E+00         0.00000E+00        -0.58159E+08
 
   -0.58052E+08         0.33485E+06         0.00000E+00
    0.33485E+06        -0.97583E+08         0.00000E+00
    0.00000E+00         0.00000E+00        -0.58108E+08
 
   -0.58000E+08         0.34018E+06         0.00000E+00
    0.34018E+06        -0.97583E+08         0.00000E+00
    0.00000E+00         0.00000E+00        -0.58056E+08
 
   -0.57948E+08         0.34546E+06         0.00000E+00
    0.34546E+06        -0.97583E+08         0.00000E+00
    0.00000E+00         0.00000E+00        -0.58003E+08
 
   -0.57894E+08         0.35066E+06         0.00000E+00
    0.35066E+06        -0.97584E+08         0.00000E+00
    0.00000E+00         0.00000E+00        -0.57949E+08
 
   -0.57839E+08         0.35578E+06         0.00000E+00
    0.35578E+06        -0.97584E+08         0.00000E+00
    0.00000E+00         0.00000E+00        -0.57893E+08
 
   -0.57784E+08         0.36080E+06         0.00000E+00
    0.36080E+06        -0.97584E+08         0.00000E+00
    0.00000E+00         0.00000E+00        -0.57837E+08
 
   -0.57727E+08         0.36571E+06         0.00000E+00
    0.36571E+06        -0.97585E+08         0.00000E+00
    0.00000E+00         0.00000E+00        -0.57780E+08
 
   -0.57670E+08         0.37048E+06         0.00000E+00
    0.37048E+06        -0.97585E+08         0.00000E+00
    0.00000E+00         0.00000E+00        -0.57721E+08
 
   -0.57612E+08         0.37510E+06         0.00000E+00
    0.37510E+06        -0.97586E+08         0.00000E+00
    0.00000E+00         0.00000E+00        -0.57662E+08
 
   -0.57553E+08         0.37955E+06         0.00000E+00
    0.37955E+06        -0.97587E+08         0.00000E+00
    0.00000E+00         0.00000E+00        -0.57602E+08
 
   -0.57493E+08         0.38380E+06         0.00000E+00
    0.38380E+06        -0.97587E+08         0.00000E+00
    0.00000E+00         0.00000E+00        -0.57540E+08
 
   -0.57432E+08         0.38784E+06         0.00000E+00
    0.38784E+06        -0.97588E+08         0.00000E+00
    0.00000E+00         0.00000E+00        -0.57478E+08
 
   -0.57371E+08         0.39164E+06         0.00000E+00
    0.39164E+06        -0.97589E+08         0.00000E+00
    0.00000E+00         0.00000E+00        -0.57414E+08
 
   -0.57309E+08         0.39516E+06         0.00000E+00
    0.39516E+06        -0.97590E+08         0.00000E+00
    0.00000E+00         0.00000E+00        -0.57350E+08
 
   -0.57246E+08         0.39839E+06         0.00000E+00
    0.39839E+06        -0.97591E+08         0.00000E+00
    0.00000E+00         0.00000E+00        -0.57284E+08
 
   -0.57182E+08         0.40129E+06         0.00000E+00
    0.40129E+06        -0.97592E+08         0.00000E+00
    0.00000E+00         0.00000E+00        -0.57218E+08
 
   -0.57118E+08         0.40383E+06         0.00000E+00
    0.40383E+06        -0.97594E+08         0.00000E+00
    0.00000E+00         0.00000E+00        -0.57151E+08
 
   -0.57053E+08         0.40596E+06         0.00000E+00
    0.40596E+06        -0.97595E+08         0.00000E+00
    0.00000E+00         0.00000E+00        -0.57083E+08
 
   -0.56988E+08         0.40765E+06         0.00000E+00
    0.40765E+06        -0.97597E+08         0.00000E+00
    0.00000E+00         0.00000E+00        -0.57013E+08
 
   -0.56922E+08         0.40885E+06         0.00000E+00
    0.40885E+06        -0.97599E+08         0.00000E+00
    0.00000E+00         0.00000E+00        -0.56943E+08
 
   -0.56856E+08         0.40951E+06         0.00000E+00
    0.40951E+06        -0.97601E+08         0.00000E+00
    0.00000E+00         0.00000E+00        -0.56872E+08
 
   -0.56789E+08         0.40959E+06         0.00000E+00
    0.40959E+06        -0.97603E+08         0.00000E+00
    0.00000E+00         0.00000E+00        -0.56801E+08
 
   -0.56722E+08         0.40903E+06         0.00000E+00
    0.40903E+06        -0.97605E+08         0.00000E+00
    0.00000E+00         0.00000E+00        -0.56728E+08
 
   -0.56654E+08         0.40776E+06         0.00000E+00
    0.40776E+06        -0.97608E+08         0.00000E+00
    0.00000E+00         0.00000E+00        -0.56655E+08
 
   -0.56587E+08         0.40571E+06         0.00000E+00
    0.40571E+06        -0.97611E+08         0.00000E+00
    0.00000E+00         0.00000E+00        -0.56581E+08
 
   -0.56519E+08         0.40282E+06         0.00000E+00
    0.40282E+06        -0.97614E+08         0.00000E+00
    0.00000E+00         0.00000E+00        -0.56507E+08
 
   -0.56452E+08         0.39901E+06         0.00000E+00
    0.39901E+06        -0.97618E+08         0.00000E+00
    0.00000E+00         0.00000E+00        -0.56431E+08
 
   -0.56384E+08         0.39418E+06         0.00000E+00
    0.39418E+06        -0.97622E+08         0.00000E+00
    0.00000E+00         0.00000E+00        -0.56356E+08
 
   -0.56317E+08         0.38826E+06         0.00000E+00
    0.38826E+06        -0.97626E+08         0.00000E+00
    0.00000E+00         0.00000E+00        -0.56280E+08
 
   -0.56249E+08         0.38113E+06         0.00000E+00
    0.38113E+06        -0.97631E+08         0.00000E+00
    0.00000E+00         0.00000E+00        -0.56203E+08
 
   -0.56183E+08         0.37271E+06         0.00000E+00
    0.37271E+06        -0.97637E+08         0.00000E+00
    0.00000E+00         0.00000E+00        -0.56126E+08
 
   -0.56116E+08         0.36288E+06         0.00000E+00
    0.36288E+06        -0.97643E+08         0.00000E+00
    0.00000E+00         0.00000E+00        -0.56049E+08
 
   -0.56050E+08         0.35153E+06         0.00000E+00
    0.35153E+06        -0.97650E+08         0.00000E+00
    0.00000E+00         0.00000E+00        -0.55971E+08
 
   -0.55984E+08         0.33857E+06         0.00000E+00
    0.33857E+06        -0.97657E+08         0.00000E+00
    0.00000E+00         0.00000E+00        -0.55893E+08
 
   -0.55919E+08         0.32388E+06         0.00000E+00
    0.32388E+06        -0.97665E+08         0.00000E+00
    0.00000E+00         0.00000E+00        -0.55815E+08
 
   -0.55854E+08         0.30738E+06         0.00000E+00
    0.30738E+06        -0.97674E+08         0.00000E+00
    0.00000E+00         0.00000E+00        -0.55737E+08
 
   -0.55789E+08         0.28901E+06         0.00000E+00
    0.28901E+06        -0.97683E+08         0.00000E+00
    0.00000E+00         0.00000E+00        -0.55659E+08
 
   -0.55726E+08         0.26872E+06         0.00000E+00
    0.26872E+06        -0.97692E+08         0.00000E+00
    0.00000E+00         0.00000E+00        -0.55580E+08
 
   -0.55662E+08         0.24653E+06         0.00000E+00
    0.24653E+06        -0.97700E+08         0.00000E+00
    0.00000E+00         0.00000E+00        -0.55501E+08
 
   -0.55599E+08         0.22251E+06         0.00000E+00
    0.22251E+06        -0.97708E+08         0.00000E+00
    0.00000E+00         0.00000E+00        -0.55422E+08
 
   -0.55537E+08         0.19685E+06         0.00000E+00
    0.19685E+06        -0.97714E+08         0.00000E+00
    0.00000E+00         0.00000E+00        -0.55342E+08
 
   -0.55476E+08         0.16983E+06         0.00000E+00
    0.16983E+06        -0.97717E+08         0.00000E+00
    0.00000E+00         0.00000E+00        -0.55261E+08
 
   -0.55416E+08         0.14194E+06         0.00000E+00
    0.14194E+06        -0.97716E+08         0.00000E+00
    0.00000E+00         0.00000E+00        -0.55179E+08
 
   -0.55359E+08         0.11386E+06         0.00000E+00
    0.11386E+06        -0.97708E+08         0.00000E+00
    0.00000E+00         0.00000E+00        -0.55095E+08
 
   -0.55307E+08         0.86506E+05         0.00000E+00
    0.86506E+05        -0.97691E+08         0.00000E+00
    0.00000E+00         0.00000E+00        -0.55010E+08
 
   -0.55260E+08         0.61068E+05         0.00000E+00
    0.61068E+05        -0.97662E+08         0.00000E+00
    0.00000E+00         0.00000E+00        -0.54923E+08
 
   -0.55222E+08         0.38849E+05         0.00000E+00
    0.38849E+05        -0.97619E+08         0.00000E+00
    0.00000E+00         0.00000E+00        -0.54834E+08
 
   -0.55195E+08         0.20759E+05         0.00000E+00
    0.20759E+05        -0.97560E+08         0.00000E+00
    0.00000E+00         0.00000E+00        -0.54743E+08
 
   -0.55182E+08         0.64044E+04         0.00000E+00
    0.64044E+04        -0.97483E+08         0.00000E+00
    0.00000E+00         0.00000E+00        -0.54652E+08
 
   -0.59594E+08         0.26724E+04         0.00000E+00
    0.26724E+04        -0.97620E+08         0.00000E+00
    0.00000E+00         0.00000E+00        -0.59756E+08
 
   -0.59590E+08         0.84166E+04         0.00000E+00
    0.84166E+04        -0.97601E+08         0.00000E+00
    0.00000E+00         0.00000E+00        -0.59733E+08
 
   -0.59583E+08         0.15155E+05         0.00000E+00
    0.15155E+05        -0.97586E+08         0.00000E+00
    0.00000E+00         0.00000E+00        -0.59710E+08
 
   -0.59574E+08         0.23042E+05         0.00000E+00
    0.23042E+05        -0.97576E+08         0.00000E+00
    0.00000E+00         0.00000E+00        -0.59688E+08
 
   -0.59561E+08         0.31883E+05         0.00000E+00
    0.31883E+05        -0.97569E+08         0.00000E+00
    0.00000E+00         0.00000E+00        -0.59665E+08
 
   -0.59547E+08         0.41348E+05         0.00000E+00
    0.41348E+05        -0.97564E+08         0.00000E+00
    0.00000E+00         0.00000E+00        -0.59644E+08
 
   -0.59531E+08         0.51122E+05         0.00000E+00
    0.51122E+05        -0.97562E+08         0.00000E+00
    0.00000E+00         0.00000E+00        -0.59622E+08
 
   -0.59515E+08         0.60952E+05         0.00000E+00
    0.60952E+05        -0.97562E+08         0.00000E+00
    0.00000E+00         0.00000E+00        -0.59600E+08
 
   -0.59497E+08         0.70654E+05         0.00000E+00
    0.70654E+05        -0.97563E+08         0.00000E+00
    0.00000E+00         0.00000E+00        -0.59578E+08
 
   -0.59479E+08         0.80103E+05         0.00000E+00
    0.80103E+05        -0.97564E+08         0.00000E+00
    0.00000E+00         0.00000E+00        -0.59557E+08
 
   -0.59460E+08         0.89222E+05         0.00000E+00
    0.89222E+05        -0.97566E+08         0.00000E+00
    0.00000E+00         0.00000E+00        -0.59535E+08
 
   -0.59441E+08         0.97971E+05         0.00000E+00
    0.97971E+05        -0.97568E+08         0.00000E+00
    0.00000E+00         0.00000E+00        -0.59512E+08
 
   -0.59421E+08         0.10633E+06         0.00000E+00
    0.10633E+06        -0.97570E+08         0.00000E+00
    0.00000E+00         0.00000E+00        -0.59490E+08
 
   -0.59400E+08         0.11431E+06         0.00000E+00
    0.11431E+06        -0.97571E+08         0.00000E+00
    0.00000E+00         0.00000E+00        -0.59466E+08
 
   -0.59379E+08         0.12192E+06         0.00000E+00
    0.12192E+06        -0.97573E+08         0.00000E+00
    0.00000E+00         0.00000E+00        -0.59443E+08
 
   -0.59357E+08         0.12918E+06         0.00000E+00
    0.12918E+06        -0.97575E+08         0.00000E+00
    0.00000E+00         0.00000E+00        -0.59419E+08
 
   -0.59334E+08         0.13613E+06         0.00000E+00
    0.13613E+06        -0.97576E+08         0.00000E+00
    0.00000E+00         0.00000E+00        -0.59394E+08
 
   -0.59311E+08         0.14278E+06         0.00000E+00
    0.14278E+06        -0.97577E+08         0.00000E+00
    0.00000E+00         0.00000E+00        -0.59369E+08
 
   -0.59286E+08         0.14918E+06         0.00000E+00
    0.14918E+06        -0.97579E+08         0.00000E+00
    0.00000E+00         0.00000E+00        -0.59344E+08
 
   -0.59261E+08         0.15535E+06         0.00000E+00
    0.15535E+06        -0.97580E+08         0.00000E+00
    0.00000E+00         0.00000E+00        -0.59318E+08
 
   -0.59236E+08         0.16131E+06         0.00000E+00
    0.16131E+06        -0.97580E+08         0.00000E+00
    0.00000E+00         0.00000E+00        -0.59291E+08
 
   -0.59209E+08         0.16711E+06         0.00000E+00
    0.16711E+06        -0.97581E+08         0.00000E+00
    0.00000E+00         0.00000E+00        -0.59264E+08
 
   -0.59182E+08         0.17275E+06         0.00000E+00
    0.17275E+06        -0.97582E+08         0.00000E+00
    0.00000E+00         0.00000E+00        -0.59236E+08
 
   -0.59154E+08         0.17827E+06         0.00000E+00
    0.17827E+06        -0.97582E+08         0.00000E+00
    0.00000E+00         0.00000E+00        -0.59207E+08
 
   -0.59126E+08         0.18369E+06         0.00000E+00
    0.18369E+06        -0.97583E+08         0.00000E+00
    0.00000E+00         0.00000E+00        -0.59178E+08
 
   -0.59096E+08         0.18902E+06         0.00000E+00
    0.18902E+06        -0.97583E+08         0.00000E+00
    0.00000E+00         0.00000E+00        -0.59149E+08
 
   -0.59066E+08         0.19428E+06         0.00000E+00
    0.19428E+06        -0.97583E+08         0.00000E+00
    0.00000E+00         0.00000E+00        -0.59118E+08
 
   -0.59035E+08         0.19949E+06         0.00000E+00
    0.19949E+06        -0.97583E+08         0.00000E+00
    0.00000E+00         0.00000E+00        -0.59087E+08
 
   -0.59003E+08         0.20467E+06         0.00000E+00
    0.20467E+06        -0.97583E+08         0.00000E+00
    0.00000E+00         0.00000E+00        -0.59056E+08
 
   -0.58971E+08         0.20981E+06         0.00000E+00
    0.20981E+06        -0.97584E+08         0.00000E+00
    0.00000E+00         0.00000E+00        -0.59023E+08
 
   -0.58938E+08         0.21493E+06         0.00000E+00
    0.21493E+06        -0.97584E+08         0.00000E+00
    0.00000E+00         0.00000E+00        -0.58990E+08
 
   -0.58904E+08         0.22005E+06         0.00000E+00
    0.22005E+06        -0.97584E+08         0.00000E+00
    0.00000E+00         0.00000E+00        -0.58956E+08
 
   -0.58869E+08         0.22516E+06         0.00000E+00
    0.22516E+06        -0.97584E+08         0.00000E+00
    0.00000E+00         0.00000E+00        -0.58922E+08
 
   -0.58833E+08         0.23028E+06         0.00000E+00
    0.23028E+06        -0.97584E+08         0.00000E+00
    0.00000E+00         0.00000E+00        -0.58887E+08
 
   -0.58797E+08         0.23541E+06         0.00000E+00
    0.23541E+06        -0.97584E+08         0.00000E+00
    0.00000E+00         0.00000E+00        -0.58851E+08
 
   -0.58759E+08         0.24055E+06         0.00000E+00
    0.24055E+06        -0.97584E+08         0.00000E+00
    0.00000E+00         0.00000E+00        -0.58814E+08
 
   -0.58721E+08         0.24571E+06         0.00000E+00
    0.24571E+06        -0.97584E+08         0.00000E+00
    0.00000E+00         0.00000E+00        -0.58776E+08
 
   -0.58683E+08         0.25089E+06         0.00000E+00
    0.25089E+06        -0.97584E+08         0.00000E+00
    0.00000E+00         0.00000E+00        -0.58738E+08
 
   -0.58643E+08         0.25608E+06         0.00000E+00
    0.25608E+06        -0.97584E+08         0.00000E+00
    0.00000E+00         0.00000E+00        -0.58699E+08
 
   -0.58602E+08         0.26130E+06         0.00000E+00
    0.26130E+06        -0.97584E+08         0.00000E+00
    0.00000E+00         0.00000E+00        -0.58659E+08
 
   -0.58561E+08         0.26654E+06         0.00000E+00
    0.26654E+06        -0.97584E+08         0.00000E+00
    0.00000E+00         0.00000E+00        -0.58618E+08
 
   -0.58519E+08         0.27180E+06         0.00000E+00
    0.27180E+06        -0.97583E+08         0.00000E+00
    0.00000E+00         0.00000E+00        -0.58576E+08
 
   -0.58476E+08         0.27707E+06         0.00000E+00
    0.27707E+06        -0.97583E+08         0.00000E+00
    0.00000E+00         0.00000E+00        -0.58533E+08
 
   -0.58432E+08         0.28235E+06         0.00000E+00
    0.28235E+06        -0.97583E+08         0.00000E+00
    0.00000E+00         0.00000E+00        -0.58490E+08
 
   -0.58387E+08         0.28765E+06         0.00000E+00
    0.28765E+06        -0.97583E+08         0.00000E+00
    0.00000E+00         0.00000E+00        -0.58445E+08
 
   -0.58342E+08         0.29295E+06         0.00000E+00
    0.29295E+06        -0.97583E+08         0.00000E+00
    0.00000E+00         0.00000E+00        -0.58400E+08
 
   -0.58295E+08         0.29826E+06         0.00000E+00
    0.29826E+06        -0.97584E+08         0.00000E+00
    0.00000E+00         0.00000E+00        -0.58354E+08
 
   -0.58248E+08         0.30356E+06         0.00000E+00
    0.30356E+06        -0.97584E+08         0.00000E+00
    0.00000E+00         0.00000E+00        -0.58306E+08
 
   -0.58199E+08         0.30884E+06         0.00000E+00
    0.30884E+06        -0.97584E+08         0.00000E+00
    0.00000E+00         0.00000E+00        -0.58258E+08
 
   -0.58150E+08         0.31411E+06         0.00000E+00
    0.31411E+06        -0.97584E+08         0.00000E+00
    0.00000E+00         0.00000E+00        -0.58209E+08
 
   -0.58100E+08         0.31935E+06         0.00000E+00
    0.31935E+06        -0.97584E+08         0.00000E+00
    0.00000E+00         0.00000E+00        -0.58159E+08
 
   -0.58049E+08         0.32455E+06         0.00000E+00
    0.32455E+06        -0.97584E+08         0.00000E+00
    0.00000E+00         0.00000E+00        -0.58107E+08
 
   -0.57997E+08         0.32970E+06         0.00000E+00
    0.32970E+06        -0.97584E+08         0.00000E+00
    0.00000E+00         0.00000E+00        -0.58055E+08
 
   -0.57944E+08         0.33480E+06         0.00000E+00
    0.33480E+06        -0.97584E+08         0.00000E+00
    0.00000E+00         0.00000E+00        -0.58002E+08
 
   -0.57890E+08         0.33982E+06         0.00000E+00
    0.33982E+06        -0.97585E+08         0.00000E+00
    0.00000E+00         0.00000E+00        -0.57948E+08
 
   -0.57836E+08         0.34477E+06         0.00000E+00
    0.34477E+06        -0.97585E+08         0.00000E+00
    0.00000E+00         0.00000E+00        -0.57892E+08
 
   -0.57780E+08         0.34961E+06         0.00000E+00
    0.34961E+06        -0.97585E+08         0.00000E+00
    0.00000E+00         0.00000E+00        -0.57836E+08
 
   -0.57724E+08         0.35434E+06         0.00000E+00
    0.35434E+06        -0.97586E+08         0.00000E+00
    0.00000E+00         0.00000E+00        -0.57779E+08
 
   -0.57667E+08         0.35894E+06         0.00000E+00
    0.35894E+06        -0.97586E+08         0.00000E+00
    0.00000E+00         0.00000E+00        -0.57721E+08
 
   -0.57608E+08         0.36339E+06         0.00000E+00
    0.36339E+06        -0.97587E+08         0.00000E+00
    0.00000E+00         0.00000E+00        -0.57661E+08
 
   -0.57549E+08         0.36767E+06         0.00000E+00
    0.36767E+06        -0.97588E+08         0.00000E+00
    0.00000E+00         0.00000E+00        -0.57601E+08
 
   -0.57490E+08         0.37176E+06         0.00000E+00
    0.37176E+06        -0.97588E+08         0.00000E+00
    0.00000E+00         0.00000E+00        -0.57539E+08
 
   -0.57429E+08         0.37565E+06         0.00000E+00
    0.37565E+06        -0.97589E+08         0.00000E+00
    0.00000E+00         0.00000E+00        -0.57477E+08
 
   -0.57368E+08         0.37929E+06         0.00000E+00
    0.37929E+06        -0.97590E+08         0.00000E+00
    0.00000E+00         0.00000E+00        -0.57414E+08
 
   -0.57306E+08         0.38267E+06         0.00000E+00
    0.38267E+06        -0.97591E+08         0.00000E+00
    0.00000E+00         0.00000E+00        -0.57349E+08
 
   -0.57243E+08         0.38576E+06         0.00000E+00
    0.38576E+06        -0.97592E+08         0.00000E+00
    0.00000E+00         0.00000E+00        -0.57284E+08
 
   -0.57180E+08         0.38853E+06         0.00000E+00
    0.38853E+06        -0.97593E+08         0.00000E+00
    0.00000E+00         0.00000E+00        -0.57218E+08
 
   -0.57116E+08         0.39094E+06         0.00000E+00
    0.39094E+06        -0.97594E+08         0.00000E+00
    0.00000E+00         0.00000E+00        -0.57150E+08
 
   -0.57051E+08         0.39295E+06         0.00000E+00
    0.39295E+06        -0.97596E+08         0.00000E+00
    0.00000E+00         0.00000E+00        -0.57082E+08
 
   -0.56986E+08         0.39454E+06         0.00000E+00
    0.39454E+06        -0.97597E+08         0.00000E+00
    0.00000E+00         0.00000E+00        -0.57013E+08
 
   -0.56920E+08         0.39565E+06         0.00000E+00
    0.39565E+06        -0.97599E+08         0.00000E+00
    0.00000E+00         0.00000E+00        -0.56943E+08
 
   -0.56854E+08         0.39623E+06         0.00000E+00
    0.39623E+06        -0.97601E+08         0.00000E+00
    0.00000E+00         0.00000E+00        -0.56872E+08
 
   -0.56788E+08         0.39624E+06         0.00000E+00
    0.39624E+06        -0.97603E+08         0.00000E+00
    0.00000E+00         0.00000E+00        -0.56800E+08
 
   -0.56721E+08         0.39562E+06         0.00000E+00
    0.39562E+06        -0.97605E+08         0.00000E+00
    0.00000E+00         0.00000E+00        -0.56728E+08
 
   -0.56654E+08         0.39431E+06         0.00000E+00
    0.39431E+06        -0.97607E+08         0.00000E+00
    0.00000E+00         0.00000E+00        -0.56655E+08
 
   -0.56587E+08         0.39224E+06         0.00000E+00
    0.39224E+06        -0.97610E+08         0.00000E+00
    0.00000E+00         0.00000E+00        -0.56581E+08
 
   -0.56520E+08         0.38934E+06         0.00000E+00
    0.38934E+06        -0.97613E+08         0.00000E+00
    0.00000E+00         0.00000E+00        -0.56507E+08
 
   -0.56453E+08         0.38554E+06         0.00000E+00
    0.38554E+06        -0.97617E+08         0.00000E+00
    0.00000E+00         0.00000E+00        -0.56431E+08
 
   -0.56386E+08         0.38074E+06         0.00000E+00
    0.38074E+06        -0.97621E+08         0.00000E+00
    0.00000E+00         0.00000E+00        -0.56356E+08
 
   -0.56319E+08         0.37485E+06         0.00000E+00
    0.37485E+06        -0.97625E+08         0.00000E+00
    0.00000E+00         0.00000E+00        -0.56280E+08
 
   -0.56252E+08         0.36778E+06         0.00000E+00
    0.36778E+06        -0.97630E+08         0.00000E+00
    0.00000E+00         0.00000E+00        -0.56203E+08
 
   -0.56186E+08         0.35942E+06         0.00000E+00
    0.35942E+06        -0.97635E+08         0.00000E+00
    0.00000E+00         0.00000E+00        -0.56126E+08
 
   -0.56120E+08         0.34967E+06         0.00000E+00
    0.34967E+06        -0.97641E+08         0.00000E+00
    0.00000E+00         0.00000E+00        -0.56049E+08
 
   -0.56054E+08         0.33842E+06         0.00000E+00
    0.33842E+06        -0.97647E+08         0.00000E+00
    0.00000E+00         0.00000E+00        -0.55972E+08
 
   -0.55990E+08         0.32555E+06         0.00000E+00
    0.32555E+06        -0.97654E+08         0.00000E+00
    0.00000E+00         0.00000E+00        -0.55894E+08
 
   -0.55925E+08         0.31096E+06         0.00000E+00
    0.31096E+06        -0.97662E+08         0.00000E+00
    0.00000E+00         0.00000E+00        -0.55816E+08
 
   -0.55861E+08         0.29457E+06         0.00000E+00
    0.29457E+06        -0.97670E+08         0.00000E+00
    0.00000E+00         0.00000E+00        -0.55739E+08
 
   -0.55798E+08         0.27630E+06         0.00000E+00
    0.27630E+06        -0.97679E+08         0.00000E+00
    0.00000E+00         0.00000E+00        -0.55660E+08
 
   -0.55735E+08         0.25612E+06         0.00000E+00
    0.25612E+06        -0.97687E+08         0.00000E+00
    0.00000E+00         0.00000E+00        -0.55582E+08
 
   -0.55673E+08         0.23404E+06         0.00000E+00
    0.23404E+06        -0.97696E+08         0.00000E+00
    0.00000E+00         0.00000E+00        -0.55503E+08
 
   -0.55612E+08         0.21015E+06         0.00000E+00
    0.21015E+06        -0.97703E+08         0.00000E+00
    0.00000E+00         0.00000E+00        -0.55424E+08
 
   -0.55552E+08         0.18467E+06         0.00000E+00
    0.18467E+06        -0.97709E+08         0.00000E+00
    0.00000E+00         0.00000E+00        -0.55344E+08
 
   -0.55492E+08         0.15791E+06         0.00000E+00
    0.15791E+06        -0.97712E+08         0.00000E+00
    0.00000E+00         0.00000E+00        -0.55264E+08
 
   -0.55435E+08         0.13043E+06         0.00000E+00
    0.13043E+06        -0.97711E+08         0.00000E+00
    0.00000E+00         0.00000E+00        -0.55182E+08
 
   -0.55380E+08         0.10299E+06         0.00000E+00
    0.10299E+06        -0.97703E+08         0.00000E+00
    0.00000E+00         0.00000E+00        -0.55099E+08
 
   -0.55329E+08         0.76635E+05         0.00000E+00
    0.76635E+05        -0.97686E+08         0.00000E+00
    0.00000E+00         0.00000E+00        -0.55015E+08
 
   -0.55284E+08         0.52674E+05         0.00000E+00
    0.52674E+05        -0.97658E+08         0.00000E+00
    0.00000E+00         0.00000E+00        -0.54928E+08
 
   -0.55247E+08         0.32449E+05         0.00000E+00
    0.32449E+05        -0.97615E+08         0.00000E+00
    0.00000E+00         0.00000E+00        -0.54840E+08
 
   -0.55222E+08         0.16772E+05         0.00000E+00
    0.16772E+05        -0.97557E+08         0.00000E+00
    0.00000E+00         0.00000E+00        -0.54750E+08
 
   -0.55209E+08         0.50554E+04         0.00000E+00
    0.50554E+04        -0.97481E+08         0.00000E+00
    0.00000E+00         0.00000E+00        -0.54659E+08
 
   -0.59586E+08         0.23176E+04         0.00000E+00
    0.23176E+04        -0.97621E+08         0.00000E+00
    0.00000E+00         0.00000E+00        -0.59754E+08
 
   -0.59582E+08         0.73685E+04         0.00000E+00
    0.73685E+04        -0.97602E+08         0.00000E+00
    0.00000E+00         0.00000E+00        -0.59731E+08
 
   -0.59576E+08         0.13470E+05         0.00000E+00
    0.13470E+05        -0.97588E+08         0.00000E+00
    0.00000E+00         0.00000E+00        -0.59708E+08
 
   -0.59566E+08         0.20818E+05         0.00000E+00
    0.20818E+05        -0.97577E+08         0.00000E+00
    0.00000E+00         0.00000E+00        -0.59686E+08
 
   -0.59554E+08         0.29237E+05         0.00000E+00
    0.29237E+05        -0.97570E+08         0.00000E+00
    0.00000E+00         0.00000E+00        -0.59664E+08
 
   -0.59540E+08         0.38388E+05         0.00000E+00
    0.38388E+05        -0.97566E+08         0.00000E+00
    0.00000E+00         0.00000E+00        -0.59642E+08
 
   -0.59525E+08         0.47928E+05         0.00000E+00
    0.47928E+05        -0.97564E+08         0.00000E+00
    0.00000E+00         0.00000E+00        -0.59621E+08
 
   -0.59509E+08         0.57576E+05         0.00000E+00
    0.57576E+05        -0.97564E+08         0.00000E+00
    0.00000E+00         0.00000E+00        -0.59599E+08
 
   -0.59492E+08         0.67127E+05         0.00000E+00
    0.67127E+05        -0.97565E+08         0.00000E+00
    0.00000E+00         0.00000E+00        -0.59577E+08
 
   -0.59474E+08         0.76441E+05         0.00000E+00
    0.76441E+05        -0.97566E+08         0.00000E+00
    0.00000E+00         0.00000E+00        -0.59556E+08
 
   -0.59456E+08         0.85431E+05         0.00000E+00
    0.85431E+05        -0.97567E+08         0.00000E+00
    0.00000E+00         0.00000E+00        -0.59534E+08
 
   -0.59436E+08         0.94052E+05         0.00000E+00
    0.94052E+05        -0.97569E+08         0.00000E+00
    0.00000E+00         0.00000E+00        -0.59511E+08
 
   -0.59417E+08         0.10228E+06         0.00000E+00
    0.10228E+06        -0.97571E+08         0.00000E+00
    0.00000E+00         0.00000E+00        -0.59489E+08
 
   -0.59396E+08         0.11013E+06         0.00000E+00
    0.11013E+06        -0.97573E+08         0.00000E+00
    0.00000E+00         0.00000E+00        -0.59466E+08
 
   -0.59375E+08         0.11760E+06         0.00000E+00
    0.11760E+06        -0.97575E+08         0.00000E+00
    0.00000E+00         0.00000E+00        -0.59442E+08
 
   -0.59353E+08         0.12472E+06         0.00000E+00
    0.12472E+06        -0.97576E+08         0.00000E+00
    0.00000E+00         0.00000E+00        -0.59418E+08
 
   -0.59330E+08         0.13152E+06         0.00000E+00
    0.13152E+06        -0.97578E+08         0.00000E+00
    0.00000E+00         0.00000E+00        -0.59394E+08
 
   -0.59307E+08         0.13803E+06         0.00000E+00
    0.13803E+06        -0.97579E+08         0.00000E+00
    0.00000E+00         0.00000E+00        -0.59369E+08
 
   -0.59283E+08         0.14428E+06         0.00000E+00
    0.14428E+06        -0.97580E+08         0.00000E+00
    0.00000E+00         0.00000E+00        -0.59343E+08
 
   -0.59258E+08         0.15029E+06         0.00000E+00
    0.15029E+06        -0.97581E+08         0.00000E+00
    0.00000E+00         0.00000E+00        -0.59317E+08
 
   -0.59233E+08         0.15611E+06         0.00000E+00
    0.15611E+06        -0.97582E+08         0.00000E+00
    0.00000E+00         0.00000E+00        -0.59290E+08
 
   -0.59206E+08         0.16175E+06         0.00000E+00
    0.16175E+06        -0.97582E+08         0.00000E+00
    0.00000E+00         0.00000E+00        -0.59263E+08
 
   -0.59179E+08         0.16725E+06         0.00000E+00
    0.16725E+06        -0.97583E+08         0.00000E+00
    0.00000E+00         0.00000E+00        -0.59235E+08
 
   -0.59151E+08         0.17261E+06         0.00000E+00
    0.17261E+06        -0.97583E+08         0.00000E+00
    0.00000E+00         0.00000E+00        -0.59207E+08
 
   -0.59122E+08         0.17788E+06         0.00000E+00
    0.17788E+06        -0.97584E+08         0.00000E+00
    0.00000E+00         0.00000E+00        -0.59178E+08
 
   -0.59093E+08         0.18306E+06         0.00000E+00
    0.18306E+06        -0.97584E+08         0.00000E+00
    0.00000E+00         0.00000E+00        -0.59148E+08
 
   -0.59063E+08         0.18817E+06         0.00000E+00
    0.18817E+06        -0.97584E+08         0.00000E+00
    0.00000E+00         0.00000E+00        -0.59118E+08
 
   -0.59032E+08         0.19323E+06         0.00000E+00
    0.19323E+06        -0.97584E+08         0.00000E+00
    0.00000E+00         0.00000E+00        -0.59087E+08
 
   -0.59000E+08         0.19824E+06         0.00000E+00
    0.19824E+06        -0.97584E+08         0.00000E+00
    0.00000E+00         0.00000E+00        -0.59055E+08
 
   -0.58968E+08         0.20323E+06         0.00000E+00
    0.20323E+06        -0.97585E+08         0.00000E+00
    0.00000E+00         0.00000E+00        -0.59023E+08
 
   -0.58934E+08         0.20820E+06         0.00000E+00
    0.20820E+06        -0.97585E+08         0.00000E+00
    0.00000E+00         0.00000E+00        -0.58990E+08
 
   -0.58900E+08         0.21316E+06         0.00000E+00
    0.21316E+06        -0.97585E+08         0.00000E+00
    0.00000E+00         0.00000E+00        -0.58956E+08
 
   -0.58865E+08         0.21812E+06         0.00000E+00
    0.21812E+06        -0.97585E+08         0.00000E+00
    0.00000E+00         0.00000E+00        -0.58921E+08
 
   -0.58830E+08         0.22308E+06         0.00000E+00
    0.22308E+06        -0.97585E+08         0.00000E+00
    0.00000E+00         0.00000E+00        -0.58886E+08
 
   -0.58793E+08         0.22805E+06         0.00000E+00
    0.22805E+06        -0.97585E+08         0.00000E+00
    0.00000E+00         0.00000E+00        -0.58850E+08
 
   -0.58756E+08         0.23303E+06         0.00000E+00
    0.23303E+06        -0.97585E+08         0.00000E+00
    0.00000E+00         0.00000E+00        -0.58813E+08
 
   -0.58718E+08         0.23802E+06         0.00000E+00
    0.23802E+06        -0.97585E+08         0.00000E+00
    0.00000E+00         0.00000E+00        -0.58776E+08
 
   -0.58679E+08         0.24304E+06         0.00000E+00
    0.24304E+06        -0.97585E+08         0.00000E+00
    0.00000E+00         0.00000E+00        -0.58737E+08
 
   -0.58640E+08         0.24807E+06         0.00000E+00
    0.24807E+06        -0.97585E+08         0.00000E+00
    0.00000E+00         0.00000E+00        -0.58698E+08
 
   -0.58599E+08         0.25312E+06         0.00000E+00
    0.25312E+06        -0.97585E+08         0.00000E+00
    0.00000E+00         0.00000E+00        -0.58658E+08
 
   -0.58558E+08         0.25818E+06         0.00000E+00
    0.25818E+06        -0.97585E+08         0.00000E+00
    0.00000E+00         0.00000E+00        -0.58617E+08
 
   -0.58515E+08         0.26327E+06         0.00000E+00
    0.26327E+06        -0.97585E+08         0.00000E+00
    0.00000E+00         0.00000E+00        -0.58575E+08
 
   -0.58472E+08         0.26837E+06         0.00000E+00
    0.26837E+06        -0.97584E+08         0.00000E+00
    0.00000E+00         0.00000E+00        -0.58533E+08
 
   -0.58428E+08         0.27348E+06         0.00000E+00
    0.27348E+06        -0.97584E+08         0.00000E+00
    0.00000E+00         0.00000E+00        -0.58489E+08
 
   -0.58384E+08         0.27860E+06         0.00000E+00
    0.27860E+06        -0.97584E+08         0.00000E+00
    0.00000E+00         0.00000E+00        -0.58445E+08
 
   -0.58338E+08         0.28373E+06         0.00000E+00
    0.28373E+06        -0.97585E+08         0.00000E+00
    0.00000E+00         0.00000E+00        -0.58399E+08
 
   -0.58291E+08         0.28886E+06         0.00000E+00
    0.28886E+06        -0.97585E+08         0.00000E+00
    0.00000E+00         0.00000E+00        -0.58353E+08
 
   -0.58244E+08         0.29398E+06         0.00000E+00
    0.29398E+06        -0.97585E+08         0.00000E+00
    0.00000E+00         0.00000E+00        -0.58306E+08
 
   -0.58196E+08         0.29908E+06         0.00000E+00
    0.29908E+06        -0.97585E+08         0.00000E+00
    0.00000E+00         0.00000E+00        -0.58257E+08
 
   -0.58146E+08         0.30417E+06         0.00000E+00
    0.30417E+06        -0.97585E+08         0.00000E+00
    0.00000E+00         0.00000E+00        -0.58208E+08
 
   -0.58096E+08         0.30923E+06         0.00000E+00
    0.30923E+06        -0.97585E+08         0.00000E+00
    0.00000E+00         0.00000E+00        -0.58158E+08
 
   -0.58045E+08         0.31425E+06         0.00000E+00
    0.31425E+06        -0.97585E+08         0.00000E+00
    0.00000E+00         0.00000E+00        -0.58107E+08
 
   -0.57993E+08         0.31923E+06         0.00000E+00
    0.31923E+06        -0.97585E+08         0.00000E+00
    0.00000E+00         0.00000E+00        -0.58054E+08
 
   -0.57940E+08         0.32414E+06         0.00000E+00
    0.32414E+06        -0.97585E+08         0.00000E+00
    0.00000E+00         0.00000E+00        -0.58001E+08
 
   -0.57887E+08         0.32899E+06         0.00000E+00
    0.32899E+06        -0.97586E+08         0.00000E+00
    0.00000E+00         0.00000E+00        -0.57947E+08
 
   -0.57832E+08         0.33376E+06         0.00000E+00
    0.33376E+06        -0.97586E+08         0.00000E+00
    0.00000E+00         0.00000E+00        -0.57892E+08
 
   -0.57777E+08         0.33842E+06         0.00000E+00
    0.33842E+06        -0.97586E+08         0.00000E+00
    0.00000E+00         0.00000E+00        -0.57835E+08
 
   -0.57720E+08         0.34298E+06         0.00000E+00
    0.34298E+06        -0.97587E+08         0.00000E+00
    0.00000E+00         0.00000E+00        -0.57778E+08
 
   -0.57663E+08         0.34741E+06         0.00000E+00
    0.34741E+06        -0.97587E+08         0.00000E+00
    0.00000E+00         0.00000E+00        -0.57720E+08
 
   -0.57605E+08         0.35169E+06         0.00000E+00
    0.35169E+06        -0.97588E+08         0.00000E+00
    0.00000E+00         0.00000E+00        -0.57660E+08
 
   -0.57546E+08         0.35581E+06         0.00000E+00
    0.35581E+06        -0.97588E+08         0.00000E+00
    0.00000E+00         0.00000E+00        -0.57600E+08
 
   -0.57487E+08         0.35975E+06         0.00000E+00
    0.35975E+06        -0.97589E+08         0.00000E+00
    0.00000E+00         0.00000E+00        -0.57539E+08
 
   -0.57426E+08         0.36347E+06         0.00000E+00
    0.36347E+06        -0.97590E+08         0.00000E+00
    0.00000E+00         0.00000E+00        -0.57476E+08
 
   -0.57365E+08         0.36697E+06         0.00000E+00
    0.36697E+06        -0.97591E+08         0.00000E+00
    0.00000E+00         0.00000E+00        -0.57413E+08
 
   -0.57303E+08         0.37021E+06         0.00000E+00
    0.37021E+06        -0.97591E+08         0.00000E+00
    0.00000E+00         0.00000E+00        -0.57349E+08
 
   -0.57240E+08         0.37316E+06         0.00000E+00
    0.37316E+06        -0.97592E+08         0.00000E+00
    0.00000E+00         0.00000E+00        -0.57283E+08
 
   -0.57177E+08         0.37580E+06         0.00000E+00
    0.37580E+06        -0.97593E+08         0.00000E+00
    0.00000E+00         0.00000E+00        -0.57217E+08
 
   -0.57113E+08         0.37809E+06         0.00000E+00
    0.37809E+06        -0.97595E+08         0.00000E+00
    0.00000E+00         0.00000E+00        -0.57150E+08
 
   -0.57049E+08         0.37999E+06         0.00000E+00
    0.37999E+06        -0.97596E+08         0.00000E+00
    0.00000E+00         0.00000E+00        -0.57081E+08
 
   -0.56984E+08         0.38148E+06         0.00000E+00
    0.38148E+06        -0.97597E+08         0.00000E+00
    0.00000E+00         0.00000E+00        -0.57012E+08
 
   -0.56919E+08         0.38250E+06         0.00000E+00
    0.38250E+06        -0.97599E+08         0.00000E+00
    0.00000E+00         0.00000E+00        -0.56942E+08
 
   -0.56853E+08         0.38300E+06         0.00000E+00
    0.38300E+06        -0.97601E+08         0.00000E+00
    0.00000E+00         0.00000E+00        -0.56872E+08
 
   -0.56787E+08         0.38295E+06         0.00000E+00
    0.38295E+06        -0.97603E+08         0.00000E+00
    0.00000E+00         0.00000E+00        -0.56800E+08
 
   -0.56720E+08         0.38228E+06         0.00000E+00
    0.38228E+06        -0.97605E+08         0.00000E+00
    0.00000E+00         0.00000E+00        -0.56728E+08
 
   -0.56654E+08         0.38094E+06         0.00000E+00
    0.38094E+06        -0.97607E+08         0.00000E+00
    0.00000E+00         0.00000E+00        -0.56655E+08
 
   -0.56587E+08         0.37885E+06         0.00000E+00
    0.37885E+06        -0.97610E+08         0.00000E+00
    0.00000E+00         0.00000E+00        -0.56581E+08
 
   -0.56520E+08         0.37595E+06         0.00000E+00
    0.37595E+06        -0.97613E+08         0.00000E+00
    0.00000E+00         0.00000E+00        -0.56506E+08
 
   -0.56453E+08         0.37216E+06         0.00000E+00
    0.37216E+06        -0.97616E+08         0.00000E+00
    0.00000E+00         0.00000E+00        -0.56431E+08
 
   -0.56387E+08         0.36739E+06         0.00000E+00
    0.36739E+06        -0.97620E+08         0.00000E+00
    0.00000E+00         0.00000E+00        -0.56356E+08
 
   -0.56321E+08         0.36155E+06         0.00000E+00
    0.36155E+06        -0.97624E+08         0.00000E+00
    0.00000E+00         0.00000E+00        -0.56280E+08
 
   -0.56254E+08         0.35455E+06         0.00000E+00
    0.35455E+06        -0.97628E+08         0.00000E+00
    0.00000E+00         0.00000E+00        -0.56204E+08
 
   -0.56189E+08         0.34627E+06         0.00000E+00
    0.34627E+06        -0.97633E+08         0.00000E+00
    0.00000E+00         0.00000E+00        -0.56127E+08
 
   -0.56124E+08         0.33662E+06         0.00000E+00
    0.33662E+06        -0.97639E+08         0.00000E+00
    0.00000E+00         0.00000E+00        -0.56050E+08
 
   -0.56059E+08         0.32547E+06         0.00000E+00
    0.32547E+06        -0.97645E+08         0.00000E+00
    0.00000E+00         0.00000E+00        -0.55973E+08
 
   -0.55995E+08         0.31271E+06         0.00000E+00
    0.31271E+06        -0.97652E+08         0.00000E+00
    0.00000E+00         0.00000E+00        -0.55895E+08
 
   -0.55932E+08         0.29825E+06         0.00000E+00
    0.29825E+06        -0.97659E+08         0.00000E+00
    0.00000E+00         0.00000E+00        -0.55817E+08
 
   -0.55869E+08         0.28198E+06         0.00000E+00
    0.28198E+06        -0.97667E+08         0.00000E+00
    0.00000E+00         0.00000E+00        -0.55740E+08
 
   -0.55807E+08         0.26383E+06         0.00000E+00
    0.26383E+06        -0.97675E+08         0.00000E+00
    0.00000E+00         0.00000E+00        -0.55662E+08
 
   -0.55745E+08         0.24378E+06         0.00000E+00
    0.24378E+06        -0.97683E+08         0.00000E+00
    0.00000E+00         0.00000E+00        -0.55584E+08
 
   -0.55685E+08         0.22184E+06         0.00000E+00
    0.22184E+06        -0.97691E+08         0.00000E+00
    0.00000E+00         0.00000E+00        -0.55505E+08
 
   -0.55625E+08         0.19812E+06         0.00000E+00
    0.19812E+06        -0.97698E+08         0.00000E+00
    0.00000E+00         0.00000E+00        -0.55427E+08
 
   -0.55566E+08         0.17283E+06         0.00000E+00
    0.17283E+06        -0.97704E+08         0.00000E+00
    0.00000E+00         0.00000E+00        -0.55347E+08
 
   -0.55509E+08         0.14636E+06         0.00000E+00
    0.14636E+06        -0.97707E+08         0.00000E+00
    0.00000E+00         0.00000E+00        -0.55267E+08
 
   -0.55453E+08         0.11930E+06         0.00000E+00
    0.11930E+06        -0.97705E+08         0.00000E+00
    0.00000E+00         0.00000E+00        -0.55186E+08
 
   -0.55400E+08         0.92506E+05         0.00000E+00
    0.92506E+05        -0.97697E+08         0.00000E+00
    0.00000E+00         0.00000E+00        -0.55104E+08
 
   -0.55351E+08         0.67140E+05         0.00000E+00
    0.67140E+05        -0.97681E+08         0.00000E+00
    0.00000E+00         0.00000E+00        -0.55020E+08
 
   -0.55308E+08         0.44607E+05         0.00000E+00
    0.44607E+05        -0.97654E+08         0.00000E+00
    0.00000E+00         0.00000E+00        -0.54934E+08
 
   -0.55273E+08         0.26293E+05         0.00000E+00
    0.26293E+05        -0.97612E+08         0.00000E+00
    0.00000E+00         0.00000E+00        -0.54847E+08
 
   -0.55248E+08         0.12926E+05         0.00000E+00
    0.12926E+05        -0.97554E+08         0.00000E+00
    0.00000E+00         0.00000E+00        -0.54757E+08
 
   -0.55235E+08         0.37512E+04         0.00000E+00
    0.37512E+04        -0.97479E+08         0.00000E+00
    0.00000E+00         0.00000E+00        -0.54666E+08
 
   -0.59578E+08         0.19716E+04         0.00000E+00
    0.19716E+04        -0.97622E+08         0.00000E+00
    0.00000E+00         0.00000E+00        -0.59751E+08
 
   -0.59575E+08         0.63489E+04         0.00000E+00
    0.63489E+04        -0.97603E+08         0.00000E+00
    0.00000E+00         0.00000E+00        -0.59729E+08
 
   -0.59568E+08         0.11835E+05         0.00000E+00
    0.11835E+05        -0.97589E+08         0.00000E+00
    0.00000E+00         0.00000E+00        -0.59706E+08
 
   -0.59559E+08         0.18663E+05         0.00000E+00
    0.18663E+05        -0.97579E+08         0.00000E+00
    0.00000E+00         0.00000E+00        -0.59684E+08
 
   -0.59547E+08         0.26673E+05         0.00000E+00
    0.26673E+05        -0.97572E+08         0.00000E+00
    0.00000E+00         0.00000E+00        -0.59662E+08
 
   -0.59534E+08         0.35515E+05         0.00000E+00
    0.35515E+05        -0.97568E+08         0.00000E+00
    0.00000E+00         0.00000E+00        -0.59641E+08
 
   -0.59519E+08         0.44820E+05         0.00000E+00
    0.44820E+05        -0.97566E+08         0.00000E+00
    0.00000E+00         0.00000E+00        -0.59619E+08
 
   -0.59503E+08         0.54282E+05         0.00000E+00
    0.54282E+05        -0.97566E+08         0.00000E+00
    0.00000E+00         0.00000E+00        -0.59598E+08
 
   -0.59486E+08         0.63674E+05         0.00000E+00
    0.63674E+05        -0.97566E+08         0.00000E+00
    0.00000E+00         0.00000E+00        -0.59576E+08
 
   -0.59469E+08         0.72845E+05         0.00000E+00
    0.72845E+05        -0.97568E+08         0.00000E+00
    0.00000E+00         0.00000E+00        -0.59555E+08
 
   -0.59451E+08         0.81699E+05         0.00000E+00
    0.81699E+05        -0.97569E+08         0.00000E+00
    0.00000E+00         0.00000E+00        -0.59533E+08
 
   -0.59432E+08         0.90184E+05         0.00000E+00
    0.90184E+05        -0.97571E+08         0.00000E+00
    0.00000E+00         0.00000E+00        -0.59511E+08
 
   -0.59412E+08         0.98279E+05         0.00000E+00
    0.98279E+05        -0.97573E+08         0.00000E+00
    0.00000E+00         0.00000E+00        -0.59488E+08
 
   -0.59392E+08         0.10598E+06         0.00000E+00
    0.10598E+06        -0.97574E+08         0.00000E+00
    0.00000E+00         0.00000E+00        -0.59465E+08
 
   -0.59371E+08         0.11331E+06         0.00000E+00
    0.11331E+06        -0.97576E+08         0.00000E+00
    0.00000E+00         0.00000E+00        -0.59442E+08
 
   -0.59349E+08         0.12029E+06         0.00000E+00
    0.12029E+06        -0.97578E+08         0.00000E+00
    0.00000E+00         0.00000E+00        -0.59418E+08
 
   -0.59327E+08         0.12694E+06         0.00000E+00
    0.12694E+06        -0.97579E+08         0.00000E+00
    0.00000E+00         0.00000E+00        -0.59393E+08
 
   -0.59304E+08         0.13330E+06         0.00000E+00
    0.13330E+06        -0.97580E+08         0.00000E+00
    0.00000E+00         0.00000E+00        -0.59368E+08
 
   -0.59280E+08         0.13939E+06         0.00000E+00
    0.13939E+06        -0.97581E+08         0.00000E+00
    0.00000E+00         0.00000E+00        -0.59343E+08
 
   -0.59255E+08         0.14525E+06         0.00000E+00
    0.14525E+06        -0.97582E+08         0.00000E+00
    0.00000E+00         0.00000E+00        -0.59316E+08
 
   -0.59229E+08         0.15092E+06         0.00000E+00
    0.15092E+06        -0.97583E+08         0.00000E+00
    0.00000E+00         0.00000E+00        -0.59290E+08
 
   -0.59203E+08         0.15640E+06         0.00000E+00
    0.15640E+06        -0.97583E+08         0.00000E+00
    0.00000E+00         0.00000E+00        -0.59263E+08
 
   -0.59176E+08         0.16174E+06         0.00000E+00
    0.16174E+06        -0.97584E+08         0.00000E+00
    0.00000E+00         0.00000E+00        -0.59235E+08
 
   -0.59148E+08         0.16696E+06         0.00000E+00
    0.16696E+06        -0.97584E+08         0.00000E+00
    0.00000E+00         0.00000E+00        -0.59206E+08
 
   -0.59119E+08         0.17207E+06         0.00000E+00
    0.17207E+06        -0.97585E+08         0.00000E+00
    0.00000E+00         0.00000E+00        -0.59177E+08
 
   -0.59090E+08         0.17710E+06         0.00000E+00
    0.17710E+06        -0.97585E+08         0.00000E+00
    0.00000E+00         0.00000E+00        -0.59147E+08
 
   -0.59060E+08         0.18205E+06         0.00000E+00
    0.18205E+06        -0.97585E+08         0.00000E+00
    0.00000E+00         0.00000E+00        -0.59117E+08
 
   -0.59029E+08         0.18696E+06         0.00000E+00
    0.18696E+06        -0.97585E+08         0.00000E+00
    0.00000E+00         0.00000E+00        -0.59086E+08
 
   -0.58997E+08         0.19182E+06         0.00000E+00
    0.19182E+06        -0.97585E+08         0.00000E+00
    0.00000E+00         0.00000E+00        -0.59054E+08
 
   -0.58965E+08         0.19665E+06         0.00000E+00
    0.19665E+06        -0.97586E+08         0.00000E+00
    0.00000E+00         0.00000E+00        -0.59022E+08
 
   -0.58931E+08         0.20147E+06         0.00000E+00
    0.20147E+06        -0.97586E+08         0.00000E+00
    0.00000E+00         0.00000E+00        -0.58989E+08
 
   -0.58897E+08         0.20627E+06         0.00000E+00
    0.20627E+06        -0.97586E+08         0.00000E+00
    0.00000E+00         0.00000E+00        -0.58955E+08
 
   -0.58862E+08         0.21107E+06         0.00000E+00
    0.21107E+06        -0.97586E+08         0.00000E+00
    0.00000E+00         0.00000E+00        -0.58921E+08
 
   -0.58827E+08         0.21587E+06         0.00000E+00
    0.21587E+06        -0.97586E+08         0.00000E+00
    0.00000E+00         0.00000E+00        -0.58885E+08
 
   -0.58790E+08         0.22068E+06         0.00000E+00
    0.22068E+06        -0.97586E+08         0.00000E+00
    0.00000E+00         0.00000E+00        -0.58849E+08
 
   -0.58753E+08         0.22550E+06         0.00000E+00
    0.22550E+06        -0.97586E+08         0.00000E+00
    0.00000E+00         0.00000E+00        -0.58813E+08
 
   -0.58715E+08         0.23033E+06         0.00000E+00
    0.23033E+06        -0.97586E+08         0.00000E+00
    0.00000E+00         0.00000E+00        -0.58775E+08
 
   -0.58676E+08         0.23518E+06         0.00000E+00
    0.23518E+06        -0.97586E+08         0.00000E+00
    0.00000E+00         0.00000E+00        -0.58737E+08
 
   -0.58636E+08         0.24004E+06         0.00000E+00
    0.24004E+06        -0.97586E+08         0.00000E+00
    0.00000E+00         0.00000E+00        -0.58697E+08
 
   -0.58596E+08         0.24492E+06         0.00000E+00
    0.24492E+06        -0.97586E+08         0.00000E+00
    0.00000E+00         0.00000E+00        -0.58657E+08
 
   -0.58554E+08         0.24982E+06         0.00000E+00
    0.24982E+06        -0.97586E+08         0.00000E+00
    0.00000E+00         0.00000E+00        -0.58616E+08
 
   -0.58512E+08         0.25474E+06         0.00000E+00
    0.25474E+06        -0.97586E+08         0.00000E+00
    0.00000E+00         0.00000E+00        -0.58575E+08
 
   -0.58469E+08         0.25966E+06         0.00000E+00
    0.25966E+06        -0.97586E+08         0.00000E+00
    0.00000E+00         0.00000E+00        -0.58532E+08
 
   -0.58425E+08         0.26460E+06         0.00000E+00
    0.26460E+06        -0.97585E+08         0.00000E+00
    0.00000E+00         0.00000E+00        -0.58488E+08
 
   -0.58380E+08         0.26955E+06         0.00000E+00
    0.26955E+06        -0.97585E+08         0.00000E+00
    0.00000E+00         0.00000E+00        -0.58444E+08
 
   -0.58334E+08         0.27450E+06         0.00000E+00
    0.27450E+06        -0.97586E+08         0.00000E+00
    0.00000E+00         0.00000E+00        -0.58398E+08
 
   -0.58288E+08         0.27945E+06         0.00000E+00
    0.27945E+06        -0.97586E+08         0.00000E+00
    0.00000E+00         0.00000E+00        -0.58352E+08
 
   -0.58240E+08         0.28439E+06         0.00000E+00
    0.28439E+06        -0.97586E+08         0.00000E+00
    0.00000E+00         0.00000E+00        -0.58305E+08
 
   -0.58192E+08         0.28932E+06         0.00000E+00
    0.28932E+06        -0.97586E+08         0.00000E+00
    0.00000E+00         0.00000E+00        -0.58256E+08
 
   -0.58143E+08         0.29423E+06         0.00000E+00
    0.29423E+06        -0.97586E+08         0.00000E+00
    0.00000E+00         0.00000E+00        -0.58207E+08
 
   -0.58093E+08         0.29911E+06         0.00000E+00
    0.29911E+06        -0.97586E+08         0.00000E+00
    0.00000E+00         0.00000E+00        -0.58157E+08
 
   -0.58042E+08         0.30396E+06         0.00000E+00
    0.30396E+06        -0.97586E+08         0.00000E+00
    0.00000E+00         0.00000E+00        -0.58106E+08
 
   -0.57990E+08         0.30875E+06         0.00000E+00
    0.30875E+06        -0.97586E+08         0.00000E+00
    0.00000E+00         0.00000E+00        -0.58054E+08
 
   -0.57937E+08         0.31349E+06         0.00000E+00
    0.31349E+06        -0.97586E+08         0.00000E+00
    0.00000E+00         0.00000E+00        -0.58000E+08
 
   -0.57883E+08         0.31816E+06         0.00000E+00
    0.31816E+06        -0.97587E+08         0.00000E+00
    0.00000E+00         0.00000E+00        -0.57946E+08
 
   -0.57829E+08         0.32275E+06         0.00000E+00
    0.32275E+06        -0.97587E+08         0.00000E+00
    0.00000E+00         0.00000E+00        -0.57891E+08
 
   -0.57773E+08         0.32725E+06         0.00000E+00
    0.32725E+06        -0.97587E+08         0.00000E+00
    0.00000E+00         0.00000E+00        -0.57835E+08
 
   -0.57717E+08         0.33163E+06         0.00000E+00
    0.33163E+06        -0.97588E+08         0.00000E+00
    0.00000E+00         0.00000E+00        -0.57777E+08
 
   -0.57660E+08         0.33590E+06         0.00000E+00
    0.33590E+06        -0.97588E+08         0.00000E+00
    0.00000E+00         0.00000E+00        -0.57719E+08
 
   -0.57602E+08         0.34001E+06         0.00000E+00
    0.34001E+06        -0.97589E+08         0.00000E+00
    0.00000E+00         0.00000E+00        -0.57660E+08
 
   -0.57543E+08         0.34397E+06         0.00000E+00
    0.34397E+06        -0.97589E+08         0.00000E+00
    0.00000E+00         0.00000E+00        -0.57599E+08
 
   -0.57483E+08         0.34775E+06         0.00000E+00
    0.34775E+06        -0.97590E+08         0.00000E+00
    0.00000E+00         0.00000E+00        -0.57538E+08
 
   -0.57423E+08         0.35132E+06         0.00000E+00
    0.35132E+06        -0.97590E+08         0.00000E+00
    0.00000E+00         0.00000E+00        -0.57476E+08
 
   -0.57362E+08         0.35467E+06         0.00000E+00
    0.35467E+06        -0.97591E+08         0.00000E+00
    0.00000E+00         0.00000E+00        -0.57412E+08
 
   -0.57300E+08         0.35777E+06         0.00000E+00
    0.35777E+06        -0.97592E+08         0.00000E+00
    0.00000E+00         0.00000E+00        -0.57348E+08
 
   -0.57238E+08         0.36059E+06         0.00000E+00
    0.36059E+06        -0.97593E+08         0.00000E+00
    0.00000E+00         0.00000E+00        -0.57283E+08
 
   -0.57175E+08         0.36310E+06         0.00000E+00
    0.36310E+06        -0.97594E+08         0.00000E+00
    0.00000E+00         0.00000E+00        -0.57216E+08
 
   -0.57111E+08         0.36527E+06         0.00000E+00
    0.36527E+06        -0.97595E+08         0.00000E+00
    0.00000E+00         0.00000E+00        -0.57149E+08
 
   -0.57047E+08         0.36707E+06         0.00000E+00
    0.36707E+06        -0.97596E+08         0.00000E+00
    0.00000E+00         0.00000E+00        -0.57081E+08
 
   -0.56982E+08         0.36846E+06         0.00000E+00
    0.36846E+06        -0.97598E+08         0.00000E+00
    0.00000E+00         0.00000E+00        -0.57012E+08
 
   -0.56917E+08         0.36940E+06         0.00000E+00
    0.36940E+06        -0.97599E+08         0.00000E+00
    0.00000E+00         0.00000E+00        -0.56942E+08
 
   -0.56851E+08         0.36983E+06         0.00000E+00
    0.36983E+06        -0.97601E+08         0.00000E+00
    0.00000E+00         0.00000E+00        -0.56871E+08
 
   -0.56786E+08         0.36972E+06         0.00000E+00
    0.36972E+06        -0.97603E+08         0.00000E+00
    0.00000E+00         0.00000E+00        -0.56800E+08
 
   -0.56719E+08         0.36901E+06         0.00000E+00
    0.36901E+06        -0.97605E+08         0.00000E+00
    0.00000E+00         0.00000E+00        -0.56727E+08
 
   -0.56653E+08         0.36764E+06         0.00000E+00
    0.36764E+06        -0.97607E+08         0.00000E+00
    0.00000E+00         0.00000E+00        -0.56654E+08
 
   -0.56587E+08         0.36554E+06         0.00000E+00
    0.36554E+06        -0.97609E+08         0.00000E+00
    0.00000E+00         0.00000E+00        -0.56581E+08
 
   -0.56520E+08         0.36264E+06         0.00000E+00
    0.36264E+06        -0.97612E+08         0.00000E+00
    0.00000E+00         0.00000E+00        -0.56506E+08
 
   -0.56454E+08         0.35888E+06         0.00000E+00
    0.35888E+06        -0.97615E+08         0.00000E+00
    0.00000E+00         0.00000E+00        -0.56431E+08
 
   -0.56388E+08         0.35415E+06         0.00000E+00
    0.35415E+06        -0.97618E+08         0.00000E+00
    0.00000E+00         0.00000E+00        -0.56356E+08
 
   -0.56322E+08         0.34837E+06         0.00000E+00
    0.34837E+06        -0.97622E+08         0.00000E+00
    0.00000E+00         0.00000E+00        -0.56280E+08
 
   -0.56257E+08         0.34144E+06         0.00000E+00
    0.34144E+06        -0.97627E+08         0.00000E+00
    0.00000E+00         0.00000E+00        -0.56204E+08
 
   -0.56192E+08         0.33326E+06         0.00000E+00
    0.33326E+06        -0.97631E+08         0.00000E+00
    0.00000E+00         0.00000E+00        -0.56127E+08
 
   -0.56127E+08         0.32371E+06         0.00000E+00
    0.32371E+06        -0.97637E+08         0.00000E+00
    0.00000E+00         0.00000E+00        -0.56050E+08
 
   -0.56064E+08         0.31268E+06         0.00000E+00
    0.31268E+06        -0.97642E+08         0.00000E+00
    0.00000E+00         0.00000E+00        -0.55973E+08
 
   -0.56000E+08         0.30005E+06         0.00000E+00
    0.30005E+06        -0.97649E+08         0.00000E+00
    0.00000E+00         0.00000E+00        -0.55896E+08
 
   -0.55938E+08         0.28573E+06         0.00000E+00
    0.28573E+06        -0.97656E+08         0.00000E+00
    0.00000E+00         0.00000E+00        -0.55818E+08
 
   -0.55876E+08         0.26960E+06         0.00000E+00
    0.26960E+06        -0.97663E+08         0.00000E+00
    0.00000E+00         0.00000E+00        -0.55741E+08
 
   -0.55815E+08         0.25161E+06         0.00000E+00
    0.25161E+06        -0.97671E+08         0.00000E+00
    0.00000E+00         0.00000E+00        -0.55663E+08
 
   -0.55755E+08         0.23171E+06         0.00000E+00
    0.23171E+06        -0.97679E+08         0.00000E+00
    0.00000E+00         0.00000E+00        -0.55585E+08
 
   -0.55696E+08         0.20993E+06         0.00000E+00
    0.20993E+06        -0.97687E+08         0.00000E+00
    0.00000E+00         0.00000E+00        -0.55507E+08
 
   -0.55638E+08         0.18640E+06         0.00000E+00
    0.18640E+06        -0.97693E+08         0.00000E+00
    0.00000E+00         0.00000E+00        -0.55429E+08
 
   -0.55581E+08         0.16134E+06         0.00000E+00
    0.16134E+06        -0.97699E+08         0.00000E+00
    0.00000E+00         0.00000E+00        -0.55350E+08
 
   -0.55525E+08         0.13518E+06         0.00000E+00
    0.13518E+06        -0.97701E+08         0.00000E+00
    0.00000E+00         0.00000E+00        -0.55271E+08
 
   -0.55471E+08         0.10856E+06         0.00000E+00
    0.10856E+06        -0.97700E+08         0.00000E+00
    0.00000E+00         0.00000E+00        -0.55190E+08
 
   -0.55420E+08         0.82413E+05         0.00000E+00
    0.82413E+05        -0.97692E+08         0.00000E+00
    0.00000E+00         0.00000E+00        -0.55108E+08
 
   -0.55373E+08         0.58008E+05         0.00000E+00
    0.58008E+05        -0.97676E+08         0.00000E+00
    0.00000E+00         0.00000E+00        -0.55025E+08
 
   -0.55331E+08         0.36847E+05         0.00000E+00
    0.36847E+05        -0.97650E+08         0.00000E+00
    0.00000E+00         0.00000E+00        -0.54940E+08
 
   -0.55298E+08         0.20359E+05         0.00000E+00
    0.20359E+05        -0.97609E+08         0.00000E+00
    0.00000E+00         0.00000E+00        -0.54853E+08
 
   -0.55274E+08         0.92074E+04         0.00000E+00
    0.92074E+04        -0.97552E+08         0.00000E+00
    0.00000E+00         0.00000E+00        -0.54765E+08
 
   -0.55261E+08         0.24862E+04         0.00000E+00
    0.24862E+04        -0.97478E+08         0.00000E+00
    0.00000E+00         0.00000E+00        -0.54674E+08
 
   -0.59570E+08         0.16331E+04         0.00000E+00
    0.16331E+04        -0.97622E+08         0.00000E+00
    0.00000E+00         0.00000E+00        -0.59749E+08
 
   -0.59567E+08         0.53546E+04         0.00000E+00
    0.53546E+04        -0.97604E+08         0.00000E+00
    0.00000E+00         0.00000E+00        -0.59727E+08
 
   -0.59560E+08         0.10247E+05         0.00000E+00
    0.10247E+05        -0.97590E+08         0.00000E+00
    0.00000E+00         0.00000E+00        -0.59704E+08
 
   -0.59551E+08         0.16576E+05         0.00000E+00
    0.16576E+05        -0.97580E+08         0.00000E+00
    0.00000E+00         0.00000E+00        -0.59682E+08
 
   -0.59540E+08         0.24190E+05         0.00000E+00
    0.24190E+05        -0.97574E+08         0.00000E+00
    0.00000E+00         0.00000E+00        -0.59661E+08
 
   -0.59527E+08         0.32728E+05         0.00000E+00
    0.32728E+05        -0.97570E+08         0.00000E+00
    0.00000E+00         0.00000E+00        -0.59639E+08
 
   -0.59513E+08         0.41798E+05         0.00000E+00
    0.41798E+05        -0.97568E+08         0.00000E+00
    0.00000E+00         0.00000E+00        -0.59618E+08
 
   -0.59497E+08         0.51069E+05         0.00000E+00
    0.51069E+05        -0.97568E+08         0.00000E+00
    0.00000E+00         0.00000E+00        -0.59597E+08
 
   -0.59481E+08         0.60297E+05         0.00000E+00
    0.60297E+05        -0.97568E+08         0.00000E+00
    0.00000E+00         0.00000E+00        -0.59575E+08
 
   -0.59464E+08         0.69318E+05         0.00000E+00
    0.69318E+05        -0.97569E+08         0.00000E+00
    0.00000E+00         0.00000E+00        -0.59554E+08
 
   -0.59446E+08         0.78027E+05         0.00000E+00
    0.78027E+05        -0.97571E+08         0.00000E+00
    0.00000E+00         0.00000E+00        -0.59532E+08
 
   -0.59428E+08         0.86369E+05         0.00000E+00
    0.86369E+05        -0.97573E+08         0.00000E+00
    0.00000E+00         0.00000E+00        -0.59510E+08
 
   -0.59408E+08         0.94319E+05         0.00000E+00
    0.94319E+05        -0.97574E+08         0.00000E+00
    0.00000E+00         0.00000E+00        -0.59487E+08
 
   -0.59388E+08         0.10188E+06         0.00000E+00
    0.10188E+06        -0.97576E+08         0.00000E+00
    0.00000E+00         0.00000E+00        -0.59464E+08
 
   -0.59367E+08         0.10906E+06         0.00000E+00
    0.10906E+06        -0.97577E+08         0.00000E+00
    0.00000E+00         0.00000E+00        -0.59441E+08
 
   -0.59346E+08         0.11588E+06         0.00000E+00
    0.11588E+06        -0.97579E+08         0.00000E+00
    0.00000E+00         0.00000E+00        -0.59417E+08
 
   -0.59323E+08         0.12238E+06         0.00000E+00
    0.12238E+06        -0.97580E+08         0.00000E+00
    0.00000E+00         0.00000E+00        -0.59392E+08
 
   -0.59300E+08         0.12858E+06         0.00000E+00
    0.12858E+06        -0.97581E+08         0.00000E+00
    0.00000E+00         0.00000E+00        -0.59367E+08
 
   -0.59276E+08         0.13452E+06         0.00000E+00
    0.13452E+06        -0.97582E+08         0.00000E+00
    0.00000E+00         0.00000E+00        -0.59342E+08
 
   -0.59252E+08         0.14023E+06         0.00000E+00
    0.14023E+06        -0.97583E+08         0.00000E+00
    0.00000E+00         0.00000E+00        -0.59316E+08
 
   -0.59226E+08         0.14573E+06         0.00000E+00
    0.14573E+06        -0.97584E+08         0.00000E+00
    0.00000E+00         0.00000E+00        -0.59289E+08
 
   -0.59200E+08         0.15106E+06         0.00000E+00
    0.15106E+06        -0.97584E+08         0.00000E+00
    0.00000E+00         0.00000E+00        -0.59262E+08
 
   -0.59173E+08         0.15625E+06         0.00000E+00
    0.15625E+06        -0.97585E+08         0.00000E+00
    0.00000E+00         0.00000E+00        -0.59234E+08
 
   -0.59145E+08         0.16131E+06         0.00000E+00
    0.16131E+06        -0.97585E+08         0.00000E+00
    0.00000E+00         0.00000E+00        -0.59206E+08
 
   -0.59116E+08         0.16626E+06         0.00000E+00
    0.16626E+06        -0.97586E+08         0.00000E+00
    0.00000E+00         0.00000E+00        -0.59177E+08
 
   -0.59087E+08         0.17113E+06         0.00000E+00
    0.17113E+06        -0.97586E+08         0.00000E+00
    0.00000E+00         0.00000E+00        -0.59147E+08
 
   -0.59057E+08         0.17594E+06         0.00000E+00
    0.17594E+06        -0.97586E+08         0.00000E+00
    0.00000E+00         0.00000E+00        -0.59116E+08
 
   -0.59026E+08         0.18069E+06         0.00000E+00
    0.18069E+06        -0.97586E+08         0.00000E+00
    0.00000E+00         0.00000E+00        -0.59085E+08
 
   -0.58994E+08         0.18539E+06         0.00000E+00
    0.18539E+06        -0.97586E+08         0.00000E+00
    0.00000E+00         0.00000E+00        -0.59054E+08
 
   -0.58961E+08         0.19007E+06         0.00000E+00
    0.19007E+06        -0.97586E+08         0.00000E+00
    0.00000E+00         0.00000E+00        -0.59021E+08
 
   -0.58928E+08         0.19473E+06         0.00000E+00
    0.19473E+06        -0.97587E+08         0.00000E+00
    0.00000E+00         0.00000E+00        -0.58988E+08
 
   -0.58894E+08         0.19937E+06         0.00000E+00
    0.19937E+06        -0.97587E+08         0.00000E+00
    0.00000E+00         0.00000E+00        -0.58954E+08
 
   -0.58859E+08         0.20401E+06         0.00000E+00
    0.20401E+06        -0.97587E+08         0.00000E+00
    0.00000E+00         0.00000E+00        -0.58920E+08
 
   -0.58823E+08         0.20866E+06         0.00000E+00
    0.20866E+06        -0.97587E+08         0.00000E+00
    0.00000E+00         0.00000E+00        -0.58885E+08
 
   -0.58787E+08         0.21330E+06         0.00000E+00
    0.21330E+06        -0.97587E+08         0.00000E+00
    0.00000E+00         0.00000E+00        -0.58849E+08
 
   -0.58750E+08         0.21796E+06         0.00000E+00
    0.21796E+06        -0.97587E+08         0.00000E+00
    0.00000E+00         0.00000E+00        -0.58812E+08
 
   -0.58712E+08         0.22263E+06         0.00000E+00
    0.22263E+06        -0.97587E+08         0.00000E+00
    0.00000E+00         0.00000E+00        -0.58774E+08
 
   -0.58673E+08         0.22731E+06         0.00000E+00
    0.22731E+06        -0.97587E+08         0.00000E+00
    0.00000E+00         0.00000E+00        -0.58736E+08
 
   -0.58633E+08         0.23201E+06         0.00000E+00
    0.23201E+06        -0.97587E+08         0.00000E+00
    0.00000E+00         0.00000E+00        -0.58697E+08
 
   -0.58592E+08         0.23672E+06         0.00000E+00
    0.23672E+06        -0.97587E+08         0.00000E+00
    0.00000E+00         0.00000E+00        -0.58657E+08
 
   -0.58551E+08         0.24145E+06         0.00000E+00
    0.24145E+06        -0.97587E+08         0.00000E+00
    0.00000E+00         0.00000E+00        -0.58616E+08
 
   -0.58509E+08         0.24620E+06         0.00000E+00
    0.24620E+06        -0.97586E+08         0.00000E+00
    0.00000E+00         0.00000E+00        -0.58574E+08
 
   -0.58465E+08         0.25095E+06         0.00000E+00
    0.25095E+06        -0.97586E+08         0.00000E+00
    0.00000E+00         0.00000E+00        -0.58531E+08
 
   -0.58421E+08         0.25572E+06         0.00000E+00
    0.25572E+06        -0.97586E+08         0.00000E+00
    0.00000E+00         0.00000E+00        -0.58488E+08
 
   -0.58377E+08         0.26049E+06         0.00000E+00
    0.26049E+06        -0.97586E+08         0.00000E+00
    0.00000E+00         0.00000E+00        -0.58443E+08
 
   -0.58331E+08         0.26527E+06         0.00000E+00
    0.26527E+06        -0.97586E+08         0.00000E+00
    0.00000E+00         0.00000E+00        -0.58398E+08
 
   -0.58284E+08         0.27004E+06         0.00000E+00
    0.27004E+06        -0.97587E+08         0.00000E+00
    0.00000E+00         0.00000E+00        -0.58351E+08
 
   -0.58237E+08         0.27481E+06         0.00000E+00
    0.27481E+06        -0.97587E+08         0.00000E+00
    0.00000E+00         0.00000E+00        -0.58304E+08
 
   -0.58188E+08         0.27956E+06         0.00000E+00
    0.27956E+06        -0.97587E+08         0.00000E+00
    0.00000E+00         0.00000E+00        -0.58256E+08
 
   -0.58139E+08         0.28429E+06         0.00000E+00
    0.28429E+06        -0.97587E+08         0.00000E+00
    0.00000E+00         0.00000E+00        -0.58206E+08
 
   -0.58089E+08         0.28900E+06         0.00000E+00
    0.28900E+06        -0.97587E+08         0.00000E+00
    0.00000E+00         0.00000E+00        -0.58156E+08
 
   -0.58038E+08         0.29366E+06         0.00000E+00
    0.29366E+06        -0.97587E+08         0.00000E+00
    0.00000E+00         0.00000E+00        -0.58105E+08
 
   -0.57986E+08         0.29828E+06         0.00000E+00
    0.29828E+06        -0.97587E+08         0.00000E+00
    0.00000E+00         0.00000E+00        -0.58053E+08
 
   -0.57933E+08         0.30285E+06         0.00000E+00
    0.30285E+06        -0.97587E+08         0.00000E+00
    0.00000E+00         0.00000E+00        -0.58000E+08
 
   -0.57880E+08         0.30734E+06         0.00000E+00
    0.30734E+06        -0.97588E+08         0.00000E+00
    0.00000E+00         0.00000E+00        -0.57945E+08
 
   -0.57825E+08         0.31176E+06         0.00000E+00
    0.31176E+06        -0.97588E+08         0.00000E+00
    0.00000E+00         0.00000E+00        -0.57890E+08
 
   -0.57770E+08         0.31608E+06         0.00000E+00
    0.31608E+06        -0.97588E+08         0.00000E+00
    0.00000E+00         0.00000E+00        -0.57834E+08
 
   -0.57713E+08         0.32030E+06         0.00000E+00
    0.32030E+06        -0.97589E+08         0.00000E+00
    0.00000E+00         0.00000E+00        -0.57777E+08
 
   -0.57656E+08         0.32439E+06         0.00000E+00
    0.32439E+06        -0.97589E+08         0.00000E+00
    0.00000E+00         0.00000E+00        -0.57718E+08
 
   -0.57598E+08         0.32835E+06         0.00000E+00
    0.32835E+06        -0.97589E+08         0.00000E+00
    0.00000E+00         0.00000E+00        -0.57659E+08
 
   -0.57540E+08         0.33215E+06         0.00000E+00
    0.33215E+06        -0.97590E+08         0.00000E+00
    0.00000E+00         0.00000E+00        -0.57599E+08
 
   -0.57480E+08         0.33577E+06         0.00000E+00
    0.33577E+06        -0.97590E+08         0.00000E+00
    0.00000E+00         0.00000E+00        -0.57537E+08
 
   -0.57420E+08         0.33919E+06         0.00000E+00
    0.33919E+06        -0.97591E+08         0.00000E+00
    0.00000E+00         0.00000E+00        -0.57475E+08
 
   -0.57359E+08         0.34240E+06         0.00000E+00
    0.34240E+06        -0.97592E+08         0.00000E+00
    0.00000E+00         0.00000E+00        -0.57412E+08
 
   -0.57297E+08         0.34536E+06         0.00000E+00
    0.34536E+06        -0.97593E+08         0.00000E+00
    0.00000E+00         0.00000E+00        -0.57347E+08
 
   -0.57235E+08         0.34805E+06         0.00000E+00
    0.34805E+06        -0.97593E+08         0.00000E+00
    0.00000E+00         0.00000E+00        -0.57282E+08
 
   -0.57172E+08         0.35044E+06         0.00000E+00
    0.35044E+06        -0.97594E+08         0.00000E+00
    0.00000E+00         0.00000E+00        -0.57216E+08
 
   -0.57109E+08         0.35250E+06         0.00000E+00
    0.35250E+06        -0.97595E+08         0.00000E+00
    0.00000E+00         0.00000E+00        -0.57149E+08
 
   -0.57045E+08         0.35420E+06         0.00000E+00
    0.35420E+06        -0.97597E+08         0.00000E+00
    0.00000E+00         0.00000E+00        -0.57080E+08
 
   -0.56980E+08         0.35549E+06         0.00000E+00
    0.35549E+06        -0.97598E+08         0.00000E+00
    0.00000E+00         0.00000E+00        -0.57011E+08
 
   -0.56915E+08         0.35635E+06         0.00000E+00
    0.35635E+06        -0.97599E+08         0.00000E+00
    0.00000E+00         0.00000E+00        -0.56942E+08
 
   -0.56850E+08         0.35671E+06         0.00000E+00
    0.35671E+06        -0.97601E+08         0.00000E+00
    0.00000E+00         0.00000E+00        -0.56871E+08
 
   -0.56784E+08         0.35655E+06         0.00000E+00
    0.35655E+06        -0.97602E+08         0.00000E+00
    0.00000E+00         0.00000E+00        -0.56799E+08
 
   -0.56719E+08         0.35580E+06         0.00000E+00
    0.35580E+06        -0.97604E+08         0.00000E+00
    0.00000E+00         0.00000E+00        -0.56727E+08
 
   -0.56653E+08         0.35441E+06         0.00000E+00
    0.35441E+06        -0.97606E+08         0.00000E+00
    0.00000E+00         0.00000E+00        -0.56654E+08
 
   -0.56587E+08         0.35230E+06         0.00000E+00
    0.35230E+06        -0.97609E+08         0.00000E+00
    0.00000E+00         0.00000E+00        -0.56580E+08
 
   -0.56521E+08         0.34942E+06         0.00000E+00
    0.34942E+06        -0.97611E+08         0.00000E+00
    0.00000E+00         0.00000E+00        -0.56506E+08
 
   -0.56455E+08         0.34569E+06         0.00000E+00
    0.34569E+06        -0.97614E+08         0.00000E+00
    0.00000E+00         0.00000E+00        -0.56431E+08
 
   -0.56389E+08         0.34101E+06         0.00000E+00
    0.34101E+06        -0.97617E+08         0.00000E+00
    0.00000E+00         0.00000E+00        -0.56356E+08
 
   -0.56324E+08         0.33530E+06         0.00000E+00
    0.33530E+06        -0.97621E+08         0.00000E+00
    0.00000E+00         0.00000E+00        -0.56280E+08
 
   -0.56259E+08         0.32846E+06         0.00000E+00
    0.32846E+06        -0.97625E+08         0.00000E+00
    0.00000E+00         0.00000E+00        -0.56204E+08
 
   -0.56195E+08         0.32038E+06         0.00000E+00
    0.32038E+06        -0.97630E+08         0.00000E+00
    0.00000E+00         0.00000E+00        -0.56128E+08
 
   -0.56131E+08         0.31095E+06         0.00000E+00
    0.31095E+06        -0.97635E+08         0.00000E+00
    0.00000E+00         0.00000E+00        -0.56051E+08
 
   -0.56068E+08         0.30006E+06         0.00000E+00
    0.30006E+06        -0.97640E+08         0.00000E+00
    0.00000E+00         0.00000E+00        -0.55974E+08
 
   -0.56006E+08         0.28758E+06         0.00000E+00
    0.28758E+06        -0.97646E+08         0.00000E+00
    0.00000E+00         0.00000E+00        -0.55897E+08
 
   -0.55944E+08         0.27341E+06         0.00000E+00
    0.27341E+06        -0.97653E+08         0.00000E+00
    0.00000E+00         0.00000E+00        -0.55819E+08
 
   -0.55884E+08         0.25745E+06         0.00000E+00
    0.25745E+06        -0.97660E+08         0.00000E+00
    0.00000E+00         0.00000E+00        -0.55742E+08
 
   -0.55824E+08         0.23963E+06         0.00000E+00
    0.23963E+06        -0.97667E+08         0.00000E+00
    0.00000E+00         0.00000E+00        -0.55665E+08
 
   -0.55765E+08         0.21991E+06         0.00000E+00
    0.21991E+06        -0.97675E+08         0.00000E+00
    0.00000E+00         0.00000E+00        -0.55587E+08
 
   -0.55707E+08         0.19833E+06         0.00000E+00
    0.19833E+06        -0.97682E+08         0.00000E+00
    0.00000E+00         0.00000E+00        -0.55509E+08
 
   -0.55651E+08         0.17501E+06         0.00000E+00
    0.17501E+06        -0.97689E+08         0.00000E+00
    0.00000E+00         0.00000E+00        -0.55431E+08
 
   -0.55595E+08         0.15021E+06         0.00000E+00
    0.15021E+06        -0.97693E+08         0.00000E+00
    0.00000E+00         0.00000E+00        -0.55353E+08
 
   -0.55541E+08         0.12438E+06         0.00000E+00
    0.12438E+06        -0.97696E+08         0.00000E+00
    0.00000E+00         0.00000E+00        -0.55274E+08
 
   -0.55489E+08         0.98204E+05         0.00000E+00
    0.98204E+05        -0.97694E+08         0.00000E+00
    0.00000E+00         0.00000E+00        -0.55194E+08
 
   -0.55440E+08         0.72704E+05         0.00000E+00
    0.72704E+05        -0.97687E+08         0.00000E+00
    0.00000E+00         0.00000E+00        -0.55113E+08
 
   -0.55395E+08         0.49229E+05         0.00000E+00
    0.49229E+05        -0.97672E+08         0.00000E+00
    0.00000E+00         0.00000E+00        -0.55030E+08
 
   -0.55355E+08         0.29380E+05         0.00000E+00
    0.29380E+05        -0.97646E+08         0.00000E+00
    0.00000E+00         0.00000E+00        -0.54946E+08
 
   -0.55322E+08         0.14630E+05         0.00000E+00
    0.14630E+05        -0.97606E+08         0.00000E+00
    0.00000E+00         0.00000E+00        -0.54860E+08
 
   -0.55299E+08         0.56007E+04         0.00000E+00
    0.56007E+04        -0.97551E+08         0.00000E+00
    0.00000E+00         0.00000E+00        -0.54772E+08
 
   -0.55287E+08         0.12554E+04         0.00000E+00
    0.12554E+04        -0.97477E+08         0.00000E+00
    0.00000E+00         0.00000E+00        -0.54681E+08
 
   -0.59562E+08         0.13012E+04         0.00000E+00
    0.13012E+04        -0.97623E+08         0.00000E+00
    0.00000E+00         0.00000E+00        -0.59747E+08
 
   -0.59559E+08         0.43827E+04         0.00000E+00
    0.43827E+04        -0.97605E+08         0.00000E+00
    0.00000E+00         0.00000E+00        -0.59724E+08
 
   -0.59553E+08         0.87022E+04         0.00000E+00
    0.87022E+04        -0.97591E+08         0.00000E+00
    0.00000E+00         0.00000E+00        -0.59702E+08
 
   -0.59544E+08         0.14551E+05         0.00000E+00
    0.14551E+05        -0.97582E+08         0.00000E+00
    0.00000E+00         0.00000E+00        -0.59680E+08
 
   -0.59533E+08         0.21785E+05         0.00000E+00
    0.21785E+05        -0.97575E+08         0.00000E+00
    0.00000E+00         0.00000E+00        -0.59659E+08
 
   -0.59520E+08         0.30027E+05         0.00000E+00
    0.30027E+05        -0.97572E+08         0.00000E+00
    0.00000E+00         0.00000E+00        -0.59638E+08
 
   -0.59507E+08         0.38862E+05         0.00000E+00
    0.38862E+05        -0.97570E+08         0.00000E+00
    0.00000E+00         0.00000E+00        -0.59617E+08
 
   -0.59492E+08         0.47939E+05         0.00000E+00
    0.47939E+05        -0.97570E+08         0.00000E+00
    0.00000E+00         0.00000E+00        -0.59596E+08
 
   -0.59476E+08         0.56996E+05         0.00000E+00
    0.56996E+05        -0.97570E+08         0.00000E+00
    0.00000E+00         0.00000E+00        -0.59574E+08
 
   -0.59459E+08         0.65859E+05         0.00000E+00
    0.65859E+05        -0.97571E+08         0.00000E+00
    0.00000E+00         0.00000E+00        -0.59553E+08
 
   -0.59442E+08         0.74415E+05         0.00000E+00
    0.74415E+05        -0.97573E+08         0.00000E+00
    0.00000E+00         0.00000E+00        -0.59531E+08
 
   -0.59423E+08         0.82606E+05         0.00000E+00
    0.82606E+05        -0.97574E+08         0.00000E+00
    0.00000E+00         0.00000E+00        -0.59509E+08
 
   -0.59404E+08         0.90405E+05         0.00000E+00
    0.90405E+05        -0.97576E+08         0.00000E+00
    0.00000E+00         0.00000E+00        -0.59486E+08
 
   -0.59384E+08         0.97809E+05         0.00000E+00
    0.97809E+05        -0.97577E+08         0.00000E+00
    0.00000E+00         0.00000E+00        -0.59464E+08
 
   -0.59364E+08         0.10483E+06         0.00000E+00
    0.10483E+06        -0.97579E+08         0.00000E+00
    0.00000E+00         0.00000E+00        -0.59440E+08
 
   -0.59342E+08         0.11150E+06         0.00000E+00
    0.11150E+06        -0.97580E+08         0.00000E+00
    0.00000E+00         0.00000E+00        -0.59416E+08
 
   -0.59320E+08         0.11784E+06         0.00000E+00
    0.11784E+06        -0.97581E+08         0.00000E+00
    0.00000E+00         0.00000E+00        -0.59392E+08
 
   -0.59297E+08         0.12388E+06         0.00000E+00
    0.12388E+06        -0.97582E+08         0.00000E+00
    0.00000E+00         0.00000E+00        -0.59367E+08
 
   -0.59273E+08         0.12966E+06         0.00000E+00
    0.12966E+06        -0.97583E+08         0.00000E+00
    0.00000E+00         0.00000E+00        -0.59341E+08
 
   -0.59249E+08         0.13521E+06         0.00000E+00
    0.13521E+06        -0.97584E+08         0.00000E+00
    0.00000E+00         0.00000E+00        -0.59315E+08
 
   -0.59223E+08         0.14056E+06         0.00000E+00
    0.14056E+06        -0.97585E+08         0.00000E+00
    0.00000E+00         0.00000E+00        -0.59289E+08
 
   -0.59197E+08         0.14573E+06         0.00000E+00
    0.14573E+06        -0.97585E+08         0.00000E+00
    0.00000E+00         0.00000E+00        -0.59261E+08
 
   -0.59170E+08         0.15076E+06         0.00000E+00
    0.15076E+06        -0.97586E+08         0.00000E+00
    0.00000E+00         0.00000E+00        -0.59233E+08
 
   -0.59142E+08         0.15566E+06         0.00000E+00
    0.15566E+06        -0.97586E+08         0.00000E+00
    0.00000E+00         0.00000E+00        -0.59205E+08
 
   -0.59113E+08         0.16046E+06         0.00000E+00
    0.16046E+06        -0.97587E+08         0.00000E+00
    0.00000E+00         0.00000E+00        -0.59176E+08
 
   -0.59084E+08         0.16517E+06         0.00000E+00
    0.16517E+06        -0.97587E+08         0.00000E+00
    0.00000E+00         0.00000E+00        -0.59146E+08
 
   -0.59054E+08         0.16982E+06         0.00000E+00
    0.16982E+06        -0.97587E+08         0.00000E+00
    0.00000E+00         0.00000E+00        -0.59116E+08
 
   -0.59023E+08         0.17441E+06         0.00000E+00
    0.17441E+06        -0.97587E+08         0.00000E+00
    0.00000E+00         0.00000E+00        -0.59085E+08
 
   -0.58991E+08         0.17896E+06         0.00000E+00
    0.17896E+06        -0.97587E+08         0.00000E+00
    0.00000E+00         0.00000E+00        -0.59053E+08
 
   -0.58958E+08         0.18348E+06         0.00000E+00
    0.18348E+06        -0.97587E+08         0.00000E+00
    0.00000E+00         0.00000E+00        -0.59021E+08
 
   -0.58925E+08         0.18798E+06         0.00000E+00
    0.18798E+06        -0.97587E+08         0.00000E+00
    0.00000E+00         0.00000E+00        -0.58988E+08
 
   -0.58891E+08         0.19247E+06         0.00000E+00
    0.19247E+06        -0.97588E+08         0.00000E+00
    0.00000E+00         0.00000E+00        -0.58954E+08
 
   -0.58856E+08         0.19695E+06         0.00000E+00
    0.19695E+06        -0.97588E+08         0.00000E+00
    0.00000E+00         0.00000E+00        -0.58919E+08
 
   -0.58820E+08         0.20144E+06         0.00000E+00
    0.20144E+06        -0.97588E+08         0.00000E+00
    0.00000E+00         0.00000E+00        -0.58884E+08
 
   -0.58784E+08         0.20592E+06         0.00000E+00
    0.20592E+06        -0.97588E+08         0.00000E+00
    0.00000E+00         0.00000E+00        -0.58848E+08
 
   -0.58746E+08         0.21042E+06         0.00000E+00
    0.21042E+06        -0.97588E+08         0.00000E+00
    0.00000E+00         0.00000E+00        -0.58811E+08
 
   -0.58708E+08         0.21492E+06         0.00000E+00
    0.21492E+06        -0.97588E+08         0.00000E+00
    0.00000E+00         0.00000E+00        -0.58774E+08
 
   -0.58669E+08         0.21944E+06         0.00000E+00
    0.21944E+06        -0.97588E+08         0.00000E+00
    0.00000E+00         0.00000E+00        -0.58735E+08
 
   -0.58630E+08         0.22397E+06         0.00000E+00
    0.22397E+06        -0.97587E+08         0.00000E+00
    0.00000E+00         0.00000E+00        -0.58696E+08
 
   -0.58589E+08         0.22852E+06         0.00000E+00
    0.22852E+06        -0.97587E+08         0.00000E+00
    0.00000E+00         0.00000E+00        -0.58656E+08
 
   -0.58547E+08         0.23308E+06         0.00000E+00
    0.23308E+06        -0.97587E+08         0.00000E+00
    0.00000E+00         0.00000E+00        -0.58615E+08
 
   -0.58505E+08         0.23765E+06         0.00000E+00
    0.23765E+06        -0.97587E+08         0.00000E+00
    0.00000E+00         0.00000E+00        -0.58573E+08
 
   -0.58462E+08         0.24224E+06         0.00000E+00
    0.24224E+06        -0.97587E+08         0.00000E+00
    0.00000E+00         0.00000E+00        -0.58530E+08
 
   -0.58418E+08         0.24683E+06         0.00000E+00
    0.24683E+06        -0.97587E+08         0.00000E+00
    0.00000E+00         0.00000E+00        -0.58487E+08
 
   -0.58373E+08         0.25143E+06         0.00000E+00
    0.25143E+06        -0.97587E+08         0.00000E+00
    0.00000E+00         0.00000E+00        -0.58442E+08
 
   -0.58327E+08         0.25603E+06         0.00000E+00
    0.25603E+06        -0.97587E+08         0.00000E+00
    0.00000E+00         0.00000E+00        -0.58397E+08
 
   -0.58281E+08         0.26063E+06         0.00000E+00
    0.26063E+06        -0.97587E+08         0.00000E+00
    0.00000E+00         0.00000E+00        -0.58351E+08
 
   -0.58233E+08         0.26522E+06         0.00000E+00
    0.26522E+06        -0.97588E+08         0.00000E+00
    0.00000E+00         0.00000E+00        -0.58303E+08
 
   -0.58185E+08         0.26980E+06         0.00000E+00
    0.26980E+06        -0.97588E+08         0.00000E+00
    0.00000E+00         0.00000E+00        -0.58255E+08
 
   -0.58136E+08         0.27435E+06         0.00000E+00
    0.27435E+06        -0.97588E+08         0.00000E+00
    0.00000E+00         0.00000E+00        -0.58206E+08
 
   -0.58085E+08         0.27888E+06         0.00000E+00
    0.27888E+06        -0.97588E+08         0.00000E+00
    0.00000E+00         0.00000E+00        -0.58155E+08
 
   -0.58034E+08         0.28337E+06         0.00000E+00
    0.28337E+06        -0.97588E+08         0.00000E+00
    0.00000E+00         0.00000E+00        -0.58104E+08
 
   -0.57983E+08         0.28781E+06         0.00000E+00
    0.28781E+06        -0.97588E+08         0.00000E+00
    0.00000E+00         0.00000E+00        -0.58052E+08
 
   -0.57930E+08         0.29220E+06         0.00000E+00
    0.29220E+06        -0.97588E+08         0.00000E+00
    0.00000E+00         0.00000E+00        -0.57999E+08
 
   -0.57876E+08         0.29652E+06         0.00000E+00
    0.29652E+06        -0.97588E+08         0.00000E+00
    0.00000E+00         0.00000E+00        -0.57945E+08
 
   -0.57822E+08         0.30077E+06         0.00000E+00
    0.30077E+06        -0.97589E+08         0.00000E+00
    0.00000E+00         0.00000E+00        -0.57889E+08
 
   -0.57766E+08         0.30492E+06         0.00000E+00
    0.30492E+06        -0.97589E+08         0.00000E+00
    0.00000E+00         0.00000E+00        -0.57833E+08
 
   -0.57710E+08         0.30897E+06         0.00000E+00
    0.30897E+06        -0.97589E+08         0.00000E+00
    0.00000E+00         0.00000E+00        -0.57776E+08
 
   -0.57653E+08         0.31290E+06         0.00000E+00
    0.31290E+06        -0.97590E+08         0.00000E+00
    0.00000E+00         0.00000E+00        -0.57718E+08
 
   -0.57595E+08         0.31670E+06         0.00000E+00
    0.31670E+06        -0.97590E+08         0.00000E+00
    0.00000E+00         0.00000E+00        -0.57658E+08
 
   -0.57537E+08         0.32034E+06         0.00000E+00
    0.32034E+06        -0.97591E+08         0.00000E+00
    0.00000E+00         0.00000E+00        -0.57598E+08
 
   -0.57477E+08         0.32381E+06         0.00000E+00
    0.32381E+06        -0.97591E+08         0.00000E+00
    0.00000E+00         0.00000E+00        -0.57537E+08
 
   -0.57417E+08         0.32708E+06         0.00000E+00
    0.32708E+06        -0.97592E+08         0.00000E+00
    0.00000E+00         0.00000E+00        -0.57474E+08
 
   -0.57356E+08         0.33015E+06         0.00000E+00
    0.33015E+06        -0.97592E+08         0.00000E+00
    0.00000E+00         0.00000E+00        -0.57411E+08
 
   -0.57295E+08         0.33297E+06         0.00000E+00
    0.33297E+06        -0.97593E+08         0.00000E+00
    0.00000E+00         0.00000E+00        -0.57347E+08
 
   -0.57233E+08         0.33554E+06         0.00000E+00
    0.33554E+06        -0.97594E+08         0.00000E+00
    0.00000E+00         0.00000E+00        -0.57281E+08
 
   -0.57170E+08         0.33781E+06         0.00000E+00
    0.33781E+06        -0.97595E+08         0.00000E+00
    0.00000E+00         0.00000E+00        -0.57215E+08
 
   -0.57106E+08         0.33976E+06         0.00000E+00
    0.33976E+06        -0.97596E+08         0.00000E+00
    0.00000E+00         0.00000E+00        -0.57148E+08
 
   -0.57043E+08         0.34136E+06         0.00000E+00
    0.34136E+06        -0.97597E+08         0.00000E+00
    0.00000E+00         0.00000E+00        -0.57080E+08
 
   -0.56978E+08         0.34256E+06         0.00000E+00
    0.34256E+06        -0.97598E+08         0.00000E+00
    0.00000E+00         0.00000E+00        -0.57011E+08
 
   -0.56914E+08         0.34334E+06         0.00000E+00
    0.34334E+06        -0.97599E+08         0.00000E+00
    0.00000E+00         0.00000E+00        -0.56941E+08
 
   -0.56848E+08         0.34365E+06         0.00000E+00
    0.34365E+06        -0.97601E+08         0.00000E+00
    0.00000E+00         0.00000E+00        -0.56870E+08
 
   -0.56783E+08         0.34344E+06         0.00000E+00
    0.34344E+06        -0.97602E+08         0.00000E+00
    0.00000E+00         0.00000E+00        -0.56799E+08
 
   -0.56718E+08         0.34266E+06         0.00000E+00
    0.34266E+06        -0.97604E+08         0.00000E+00
    0.00000E+00         0.00000E+00        -0.56727E+08
 
   -0.56652E+08         0.34125E+06         0.00000E+00
    0.34125E+06        -0.97606E+08         0.00000E+00
    0.00000E+00         0.00000E+00        -0.56654E+08
 
   -0.56586E+08         0.33915E+06         0.00000E+00
    0.33915E+06        -0.97608E+08         0.00000E+00
    0.00000E+00         0.00000E+00        -0.56580E+08
 
   -0.56521E+08         0.33629E+06         0.00000E+00
    0.33629E+06        -0.97611E+08         0.00000E+00
    0.00000E+00         0.00000E+00        -0.56506E+08
 
   -0.56456E+08         0.33259E+06         0.00000E+00
    0.33259E+06        -0.97613E+08         0.00000E+00
    0.00000E+00         0.00000E+00        -0.56431E+08
 
   -0.56390E+08         0.32797E+06         0.00000E+00
    0.32797E+06        -0.97616E+08         0.00000E+00
    0.00000E+00         0.00000E+00        -0.56356E+08
 
   -0.56326E+08         0.32234E+06         0.00000E+00
    0.32234E+06        -0.97620E+08         0.00000E+00
    0.00000E+00         0.00000E+00        -0.56280E+08
 
   -0.56261E+08         0.31560E+06         0.00000E+00
    0.31560E+06        -0.97624E+08         0.00000E+00
    0.00000E+00         0.00000E+00        -0.56204E+08
 
   -0.56198E+08         0.30764E+06         0.00000E+00
    0.30764E+06        -0.97628E+08         0.00000E+00
    0.00000E+00         0.00000E+00        -0.56128E+08
 
   -0.56135E+08         0.29834E+06         0.00000E+00
    0.29834E+06        -0.97633E+08         0.00000E+00
    0.00000E+00         0.00000E+00        -0.56051E+08
 
   -0.56072E+08         0.28760E+06         0.00000E+00
    0.28760E+06        -0.97638E+08         0.00000E+00
    0.00000E+00         0.00000E+00        -0.55974E+08
 
   -0.56011E+08         0.27528E+06         0.00000E+00
    0.27528E+06        -0.97644E+08         0.00000E+00
    0.00000E+00         0.00000E+00        -0.55897E+08
 
   -0.55950E+08         0.26129E+06         0.00000E+00
    0.26129E+06        -0.97650E+08         0.00000E+00
    0.00000E+00         0.00000E+00        -0.55820E+08
 
   -0.55891E+08         0.24552E+06         0.00000E+00
    0.24552E+06        -0.97657E+08         0.00000E+00
    0.00000E+00         0.00000E+00        -0.55743E+08
 
   -0.55832E+08         0.22789E+06         0.00000E+00
    0.22789E+06        -0.97664E+08         0.00000E+00
    0.00000E+00         0.00000E+00        -0.55666E+08
 
   -0.55775E+08         0.20839E+06         0.00000E+00
    0.20839E+06        -0.97671E+08         0.00000E+00
    0.00000E+00         0.00000E+00        -0.55589E+08
 
   -0.55718E+08         0.18703E+06         0.00000E+00
    0.18703E+06        -0.97678E+08         0.00000E+00
    0.00000E+00         0.00000E+00        -0.55511E+08
 
   -0.55663E+08         0.16395E+06         0.00000E+00
    0.16395E+06        -0.97684E+08         0.00000E+00
    0.00000E+00         0.00000E+00        -0.55434E+08
 
   -0.55610E+08         0.13944E+06         0.00000E+00
    0.13944E+06        -0.97688E+08         0.00000E+00
    0.00000E+00         0.00000E+00        -0.55356E+08
 
   -0.55558E+08         0.11395E+06         0.00000E+00
    0.11395E+06        -0.97691E+08         0.00000E+00
    0.00000E+00         0.00000E+00        -0.55277E+08
 
   -0.55508E+08         0.88241E+05         0.00000E+00
    0.88241E+05        -0.97689E+08         0.00000E+00
    0.00000E+00         0.00000E+00        -0.55198E+08
 
   -0.55460E+08         0.63376E+05         0.00000E+00
    0.63376E+05        -0.97682E+08         0.00000E+00
    0.00000E+00         0.00000E+00        -0.55117E+08
 
   -0.55417E+08         0.40797E+05         0.00000E+00
    0.40797E+05        -0.97668E+08         0.00000E+00
    0.00000E+00         0.00000E+00        -0.55036E+08
 
   -0.55378E+08         0.22192E+05         0.00000E+00
    0.22192E+05        -0.97643E+08         0.00000E+00
    0.00000E+00         0.00000E+00        -0.54952E+08
 
   -0.55347E+08         0.90918E+04         0.00000E+00
    0.90918E+04        -0.97604E+08         0.00000E+00
    0.00000E+00         0.00000E+00        -0.54867E+08
 
   -0.55325E+08         0.20954E+04         0.00000E+00
    0.20954E+04        -0.97550E+08         0.00000E+00
    0.00000E+00         0.00000E+00        -0.54779E+08
 
   -0.55313E+08         0.54561E+02         0.00000E+00
    0.54561E+02        -0.97477E+08         0.00000E+00
    0.00000E+00         0.00000E+00        -0.54689E+08
 
   -0.59554E+08         0.97496E+03         0.00000E+00
    0.97496E+03        -0.97623E+08         0.00000E+00
    0.00000E+00         0.00000E+00        -0.59745E+08
 
   -0.59551E+08         0.34310E+04         0.00000E+00
    0.34310E+04        -0.97605E+08         0.00000E+00
    0.00000E+00         0.00000E+00        -0.59722E+08
 
   -0.59545E+08         0.71971E+04         0.00000E+00
    0.71971E+04        -0.97592E+08         0.00000E+00
    0.00000E+00         0.00000E+00        -0.59700E+08
 
   -0.59537E+08         0.12588E+05         0.00000E+00
    0.12588E+05        -0.97583E+08         0.00000E+00
    0.00000E+00         0.00000E+00        -0.59679E+08
 
   -0.59526E+08         0.19458E+05         0.00000E+00
    0.19458E+05        -0.97577E+08         0.00000E+00
    0.00000E+00         0.00000E+00        -0.59657E+08
 
   -0.59514E+08         0.27412E+05         0.00000E+00
    0.27412E+05        -0.97573E+08         0.00000E+00
    0.00000E+00         0.00000E+00        -0.59636E+08
 
   -0.59501E+08         0.36014E+05         0.00000E+00
    0.36014E+05        -0.97572E+08         0.00000E+00
    0.00000E+00         0.00000E+00        -0.59615E+08
 
   -0.59486E+08         0.44892E+05         0.00000E+00
    0.44892E+05        -0.97571E+08         0.00000E+00
    0.00000E+00         0.00000E+00        -0.59594E+08
 
   -0.59471E+08         0.53773E+05         0.00000E+00
    0.53773E+05        -0.97572E+08         0.00000E+00
    0.00000E+00         0.00000E+00        -0.59573E+08
 
   -0.59454E+08         0.62469E+05         0.00000E+00
    0.62469E+05        -0.97573E+08         0.00000E+00
    0.00000E+00         0.00000E+00        -0.59552E+08
 
   -0.59437E+08         0.70865E+05         0.00000E+00
    0.70865E+05        -0.97574E+08         0.00000E+00
    0.00000E+00         0.00000E+00        -0.59530E+08
 
   -0.59419E+08         0.78897E+05         0.00000E+00
    0.78897E+05        -0.97576E+08         0.00000E+00
    0.00000E+00         0.00000E+00        -0.59508E+08
 
   -0.59400E+08         0.86537E+05         0.00000E+00
    0.86537E+05        -0.97577E+08         0.00000E+00
    0.00000E+00         0.00000E+00        -0.59486E+08
 
   -0.59381E+08         0.93781E+05         0.00000E+00
    0.93781E+05        -0.97579E+08         0.00000E+00
    0.00000E+00         0.00000E+00        -0.59463E+08
 
   -0.59360E+08         0.10064E+06         0.00000E+00
    0.10064E+06        -0.97580E+08         0.00000E+00
    0.00000E+00         0.00000E+00        -0.59439E+08
 
   -0.59339E+08         0.10715E+06         0.00000E+00
    0.10715E+06        -0.97581E+08         0.00000E+00
    0.00000E+00         0.00000E+00        -0.59416E+08
 
   -0.59317E+08         0.11332E+06         0.00000E+00
    0.11332E+06        -0.97583E+08         0.00000E+00
    0.00000E+00         0.00000E+00        -0.59391E+08
 
   -0.59294E+08         0.11920E+06         0.00000E+00
    0.11920E+06        -0.97584E+08         0.00000E+00
    0.00000E+00         0.00000E+00        -0.59366E+08
 
   -0.59270E+08         0.12482E+06         0.00000E+00
    0.12482E+06        -0.97584E+08         0.00000E+00
    0.00000E+00         0.00000E+00        -0.59341E+08
 
   -0.59245E+08         0.13021E+06         0.00000E+00
    0.13021E+06        -0.97585E+08         0.00000E+00
    0.00000E+00         0.00000E+00        -0.59315E+08
 
   -0.59220E+08         0.13539E+06         0.00000E+00
    0.13539E+06        -0.97586E+08         0.00000E+00
    0.00000E+00         0.00000E+00        -0.59288E+08
 
   -0.59194E+08         0.14041E+06         0.00000E+00
    0.14041E+06        -0.97586E+08         0.00000E+00
    0.00000E+00         0.00000E+00        -0.59261E+08
 
   -0.59167E+08         0.14527E+06         0.00000E+00
    0.14527E+06        -0.97587E+08         0.00000E+00
    0.00000E+00         0.00000E+00        -0.59233E+08
 
   -0.59139E+08         0.15002E+06         0.00000E+00
    0.15002E+06        -0.97587E+08         0.00000E+00
    0.00000E+00         0.00000E+00        -0.59204E+08
 
   -0.59110E+08         0.15466E+06         0.00000E+00
    0.15466E+06        -0.97588E+08         0.00000E+00
    0.00000E+00         0.00000E+00        -0.59175E+08
 
   -0.59081E+08         0.15921E+06         0.00000E+00
    0.15921E+06        -0.97588E+08         0.00000E+00
    0.00000E+00         0.00000E+00        -0.59146E+08
 
   -0.59051E+08         0.16370E+06         0.00000E+00
    0.16370E+06        -0.97588E+08         0.00000E+00
    0.00000E+00         0.00000E+00        -0.59115E+08
 
   -0.59020E+08         0.16814E+06         0.00000E+00
    0.16814E+06        -0.97588E+08         0.00000E+00
    0.00000E+00         0.00000E+00        -0.59084E+08
 
   -0.58988E+08         0.17253E+06         0.00000E+00
    0.17253E+06        -0.97588E+08         0.00000E+00
    0.00000E+00         0.00000E+00        -0.59052E+08
 
   -0.58955E+08         0.17689E+06         0.00000E+00
    0.17689E+06        -0.97588E+08         0.00000E+00
    0.00000E+00         0.00000E+00        -0.59020E+08
 
   -0.58922E+08         0.18124E+06         0.00000E+00
    0.18124E+06        -0.97588E+08         0.00000E+00
    0.00000E+00         0.00000E+00        -0.58987E+08
 
   -0.58888E+08         0.18557E+06         0.00000E+00
    0.18557E+06        -0.97588E+08         0.00000E+00
    0.00000E+00         0.00000E+00        -0.58953E+08
 
   -0.58853E+08         0.18989E+06         0.00000E+00
    0.18989E+06        -0.97588E+08         0.00000E+00
    0.00000E+00         0.00000E+00        -0.58919E+08
 
   -0.58817E+08         0.19421E+06         0.00000E+00
    0.19421E+06        -0.97588E+08         0.00000E+00
    0.00000E+00         0.00000E+00        -0.58883E+08
 
   -0.58781E+08         0.19853E+06         0.00000E+00
    0.19853E+06        -0.97588E+08         0.00000E+00
    0.00000E+00         0.00000E+00        -0.58847E+08
 
   -0.58743E+08         0.20287E+06         0.00000E+00
    0.20287E+06        -0.97588E+08         0.00000E+00
    0.00000E+00         0.00000E+00        -0.58810E+08
 
   -0.58705E+08         0.20721E+06         0.00000E+00
    0.20721E+06        -0.97588E+08         0.00000E+00
    0.00000E+00         0.00000E+00        -0.58773E+08
 
   -0.58666E+08         0.21156E+06         0.00000E+00
    0.21156E+06        -0.97588E+08         0.00000E+00
    0.00000E+00         0.00000E+00        -0.58734E+08
 
   -0.58626E+08         0.21593E+06         0.00000E+00
    0.21593E+06        -0.97588E+08         0.00000E+00
    0.00000E+00         0.00000E+00        -0.58695E+08
 
   -0.58586E+08         0.22031E+06         0.00000E+00
    0.22031E+06        -0.97588E+08         0.00000E+00
    0.00000E+00         0.00000E+00        -0.58655E+08
 
   -0.58544E+08         0.22470E+06         0.00000E+00
    0.22470E+06        -0.97588E+08         0.00000E+00
    0.00000E+00         0.00000E+00        -0.58614E+08
 
   -0.58502E+08         0.22910E+06         0.00000E+00
    0.22910E+06        -0.97588E+08         0.00000E+00
    0.00000E+00         0.00000E+00        -0.58572E+08
 
   -0.58459E+08         0.23352E+06         0.00000E+00
    0.23352E+06        -0.97588E+08         0.00000E+00
    0.00000E+00         0.00000E+00        -0.58530E+08
 
   -0.58415E+08         0.23794E+06         0.00000E+00
    0.23794E+06        -0.97588E+08         0.00000E+00
    0.00000E+00         0.00000E+00        -0.58486E+08
 
   -0.58370E+08         0.24237E+06         0.00000E+00
    0.24237E+06        -0.97588E+08         0.00000E+00
    0.00000E+00         0.00000E+00        -0.58442E+08
 
   -0.58324E+08         0.24679E+06         0.00000E+00
    0.24679E+06        -0.97588E+08         0.00000E+00
    0.00000E+00         0.00000E+00        -0.58396E+08
 
   -0.58277E+08         0.25122E+06         0.00000E+00
    0.25122E+06        -0.97588E+08         0.00000E+00
    0.00000E+00         0.00000E+00        -0.58350E+08
 
   -0.58230E+08         0.25563E+06         0.00000E+00
    0.25563E+06        -0.97588E+08         0.00000E+00
    0.00000E+00         0.00000E+00        -0.58302E+08
 
   -0.58181E+08         0.26003E+06         0.00000E+00
    0.26003E+06        -0.97588E+08         0.00000E+00
    0.00000E+00         0.00000E+00        -0.58254E+08
 
   -0.58132E+08         0.26441E+06         0.00000E+00
    0.26441E+06        -0.97589E+08         0.00000E+00
    0.00000E+00         0.00000E+00        -0.58205E+08
 
   -0.58082E+08         0.26876E+06         0.00000E+00
    0.26876E+06        -0.97589E+08         0.00000E+00
    0.00000E+00         0.00000E+00        -0.58155E+08
 
   -0.58031E+08         0.27308E+06         0.00000E+00
    0.27308E+06        -0.97589E+08         0.00000E+00
    0.00000E+00         0.00000E+00        -0.58103E+08
 
   -0.57979E+08         0.27735E+06         0.00000E+00
    0.27735E+06        -0.97589E+08         0.00000E+00
    0.00000E+00         0.00000E+00        -0.58051E+08
 
   -0.57926E+08         0.28156E+06         0.00000E+00
    0.28156E+06        -0.97589E+08         0.00000E+00
    0.00000E+00         0.00000E+00        -0.57998E+08
 
   -0.57873E+08         0.28571E+06         0.00000E+00
    0.28571E+06        -0.97589E+08         0.00000E+00
    0.00000E+00         0.00000E+00        -0.57944E+08
 
   -0.57818E+08         0.28979E+06         0.00000E+00
    0.28979E+06        -0.97590E+08         0.00000E+00
    0.00000E+00         0.00000E+00        -0.57889E+08
 
   -0.57763E+08         0.29377E+06         0.00000E+00
    0.29377E+06        -0.97590E+08         0.00000E+00
    0.00000E+00         0.00000E+00        -0.57832E+08
 
   -0.57707E+08         0.29766E+06         0.00000E+00
    0.29766E+06        -0.97590E+08         0.00000E+00
    0.00000E+00         0.00000E+00        -0.57775E+08
 
   -0.57650E+08         0.30142E+06         0.00000E+00
    0.30142E+06        -0.97590E+08         0.00000E+00
    0.00000E+00         0.00000E+00        -0.57717E+08
 
   -0.57592E+08         0.30506E+06         0.00000E+00
    0.30506E+06        -0.97591E+08         0.00000E+00
    0.00000E+00         0.00000E+00        -0.57657E+08
 
   -0.57533E+08         0.30854E+06         0.00000E+00
    0.30854E+06        -0.97591E+08         0.00000E+00
    0.00000E+00         0.00000E+00        -0.57597E+08
 
   -0.57474E+08         0.31186E+06         0.00000E+00
    0.31186E+06        -0.97592E+08         0.00000E+00
    0.00000E+00         0.00000E+00        -0.57536E+08
 
   -0.57414E+08         0.31500E+06         0.00000E+00
    0.31500E+06        -0.97592E+08         0.00000E+00
    0.00000E+00         0.00000E+00        -0.57474E+08
 
   -0.57353E+08         0.31792E+06         0.00000E+00
    0.31792E+06        -0.97593E+08         0.00000E+00
    0.00000E+00         0.00000E+00        -0.57410E+08
 
   -0.57292E+08         0.32062E+06         0.00000E+00
    0.32062E+06        -0.97594E+08         0.00000E+00
    0.00000E+00         0.00000E+00        -0.57346E+08
 
   -0.57230E+08         0.32305E+06         0.00000E+00
    0.32305E+06        -0.97594E+08         0.00000E+00
    0.00000E+00         0.00000E+00        -0.57281E+08
 
   -0.57167E+08         0.32521E+06         0.00000E+00
    0.32521E+06        -0.97595E+08         0.00000E+00
    0.00000E+00         0.00000E+00        -0.57214E+08
 
   -0.57104E+08         0.32706E+06         0.00000E+00
    0.32706E+06        -0.97596E+08         0.00000E+00
    0.00000E+00         0.00000E+00        -0.57147E+08
 
   -0.57040E+08         0.32856E+06         0.00000E+00
    0.32856E+06        -0.97597E+08         0.00000E+00
    0.00000E+00         0.00000E+00        -0.57079E+08
 
   -0.56976E+08         0.32968E+06         0.00000E+00
    0.32968E+06        -0.97598E+08         0.00000E+00
    0.00000E+00         0.00000E+00        -0.57010E+08
 
   -0.56912E+08         0.33039E+06         0.00000E+00
    0.33039E+06        -0.97599E+08         0.00000E+00
    0.00000E+00         0.00000E+00        -0.56941E+08
 
   -0.56847E+08         0.33064E+06         0.00000E+00
    0.33064E+06        -0.97601E+08         0.00000E+00
    0.00000E+00         0.00000E+00        -0.56870E+08
 
   -0.56782E+08         0.33038E+06         0.00000E+00
    0.33038E+06        -0.97602E+08         0.00000E+00
    0.00000E+00         0.00000E+00        -0.56799E+08
 
   -0.56717E+08         0.32957E+06         0.00000E+00
    0.32957E+06        -0.97604E+08         0.00000E+00
    0.00000E+00         0.00000E+00        -0.56726E+08
 
   -0.56651E+08         0.32815E+06         0.00000E+00
    0.32815E+06        -0.97606E+08         0.00000E+00
    0.00000E+00         0.00000E+00        -0.56654E+08
 
   -0.56586E+08         0.32606E+06         0.00000E+00
    0.32606E+06        -0.97608E+08         0.00000E+00
    0.00000E+00         0.00000E+00        -0.56580E+08
 
   -0.56521E+08         0.32323E+06         0.00000E+00
    0.32323E+06        -0.97610E+08         0.00000E+00
    0.00000E+00         0.00000E+00        -0.56506E+08
 
   -0.56456E+08         0.31958E+06         0.00000E+00
    0.31958E+06        -0.97613E+08         0.00000E+00
    0.00000E+00         0.00000E+00        -0.56431E+08
 
   -0.56391E+08         0.31503E+06         0.00000E+00
    0.31503E+06        -0.97615E+08         0.00000E+00
    0.00000E+00         0.00000E+00        -0.56356E+08
 
   -0.56327E+08         0.30949E+06         0.00000E+00
    0.30949E+06        -0.97619E+08         0.00000E+00
    0.00000E+00         0.00000E+00        -0.56280E+08
 
   -0.56263E+08         0.30286E+06         0.00000E+00
    0.30286E+06        -0.97622E+08         0.00000E+00
    0.00000E+00         0.00000E+00        -0.56204E+08
 
   -0.56200E+08         0.29502E+06         0.00000E+00
    0.29502E+06        -0.97626E+08         0.00000E+00
    0.00000E+00         0.00000E+00        -0.56128E+08
 
   -0.56138E+08         0.28588E+06         0.00000E+00
    0.28588E+06        -0.97631E+08         0.00000E+00
    0.00000E+00         0.00000E+00        -0.56052E+08
 
   -0.56076E+08         0.27530E+06         0.00000E+00
    0.27530E+06        -0.97636E+08         0.00000E+00
    0.00000E+00         0.00000E+00        -0.55975E+08
 
   -0.56016E+08         0.26317E+06         0.00000E+00
    0.26317E+06        -0.97641E+08         0.00000E+00
    0.00000E+00         0.00000E+00        -0.55898E+08
 
   -0.55956E+08         0.24938E+06         0.00000E+00
    0.24938E+06        -0.97647E+08         0.00000E+00
    0.00000E+00         0.00000E+00        -0.55821E+08
 
   -0.55898E+08         0.23381E+06         0.00000E+00
    0.23381E+06        -0.97653E+08         0.00000E+00
    0.00000E+00         0.00000E+00        -0.55744E+08
 
   -0.55840E+08         0.21641E+06         0.00000E+00
    0.21641E+06        -0.97660E+08         0.00000E+00
    0.00000E+00         0.00000E+00        -0.55667E+08
 
   -0.55784E+08         0.19714E+06         0.00000E+00
    0.19714E+06        -0.97667E+08         0.00000E+00
    0.00000E+00         0.00000E+00        -0.55590E+08
 
   -0.55729E+08         0.17603E+06         0.00000E+00
    0.17603E+06        -0.97673E+08         0.00000E+00
    0.00000E+00         0.00000E+00        -0.55513E+08
 
   -0.55676E+08         0.15323E+06         0.00000E+00
    0.15323E+06        -0.97679E+08         0.00000E+00
    0.00000E+00         0.00000E+00        -0.55436E+08
 
   -0.55624E+08         0.12903E+06         0.00000E+00
    0.12903E+06        -0.97683E+08         0.00000E+00
    0.00000E+00         0.00000E+00        -0.55359E+08
 
   -0.55574E+08         0.10391E+06         0.00000E+00
    0.10391E+06        -0.97686E+08         0.00000E+00
    0.00000E+00         0.00000E+00        -0.55281E+08
 
   -0.55526E+08         0.78671E+05         0.00000E+00
    0.78671E+05        -0.97684E+08         0.00000E+00
    0.00000E+00         0.00000E+00        -0.55202E+08
 
   -0.55480E+08         0.54431E+05         0.00000E+00
    0.54431E+05        -0.97678E+08         0.00000E+00
    0.00000E+00         0.00000E+00        -0.55122E+08
 
   -0.55439E+08         0.32706E+05         0.00000E+00
    0.32706E+05        -0.97663E+08         0.00000E+00
    0.00000E+00         0.00000E+00        -0.55041E+08
 
   -0.55402E+08         0.15275E+05         0.00000E+00
    0.15275E+05        -0.97639E+08         0.00000E+00
    0.00000E+00         0.00000E+00        -0.54958E+08
 
   -0.55372E+08         0.37326E+04         0.00000E+00
    0.37326E+04        -0.97602E+08         0.00000E+00
    0.00000E+00         0.00000E+00        -0.54874E+08
 
   -0.55350E+08        -0.13178E+04         0.00000E+00
   -0.13178E+04        -0.97549E+08         0.00000E+00
    0.00000E+00         0.00000E+00        -0.54787E+08
 
   -0.55339E+08        -0.11197E+04         0.00000E+00
   -0.11197E+04        -0.97477E+08         0.00000E+00
    0.00000E+00         0.00000E+00        -0.54697E+08
 
   -0.59547E+08         0.65363E+03         0.00000E+00
    0.65363E+03        -0.97624E+08         0.00000E+00
    0.00000E+00         0.00000E+00        -0.59743E+08
 
   -0.59544E+08         0.24976E+04         0.00000E+00
    0.24976E+04        -0.97606E+08         0.00000E+00
    0.00000E+00         0.00000E+00        -0.59720E+08
 
   -0.59538E+08         0.57301E+04         0.00000E+00
    0.57301E+04        -0.97593E+08         0.00000E+00
    0.00000E+00         0.00000E+00        -0.59698E+08
 
   -0.59529E+08         0.10685E+05         0.00000E+00
    0.10685E+05        -0.97584E+08         0.00000E+00
    0.00000E+00         0.00000E+00        -0.59677E+08
 
   -0.59519E+08         0.17207E+05         0.00000E+00
    0.17207E+05        -0.97578E+08         0.00000E+00
    0.00000E+00         0.00000E+00        -0.59656E+08
 
   -0.59507E+08         0.24883E+05         0.00000E+00
    0.24883E+05        -0.97575E+08         0.00000E+00
    0.00000E+00         0.00000E+00        -0.59635E+08
 
   -0.59494E+08         0.33254E+05         0.00000E+00
    0.33254E+05        -0.97574E+08         0.00000E+00
    0.00000E+00         0.00000E+00        -0.59614E+08
 
   -0.59480E+08         0.41931E+05         0.00000E+00
    0.41931E+05        -0.97573E+08         0.00000E+00
    0.00000E+00         0.00000E+00        -0.59593E+08
 
   -0.59465E+08         0.50628E+05         0.00000E+00
    0.50628E+05        -0.97574E+08         0.00000E+00
    0.00000E+00         0.00000E+00        -0.59572E+08
 
   -0.59449E+08         0.59151E+05         0.00000E+00
    0.59151E+05        -0.97575E+08         0.00000E+00
    0.00000E+00         0.00000E+00        -0.59551E+08
 
   -0.59433E+08         0.67378E+05         0.00000E+00
    0.67378E+05        -0.97576E+08         0.00000E+00
    0.00000E+00         0.00000E+00        -0.59529E+08
 
   -0.59415E+08         0.75242E+05         0.00000E+00
    0.75242E+05        -0.97577E+08         0.00000E+00
    0.00000E+00         0.00000E+00        -0.59507E+08
 
   -0.59396E+08         0.82715E+05         0.00000E+00
    0.82715E+05        -0.97579E+08         0.00000E+00
    0.00000E+00         0.00000E+00        -0.59485E+08
 
   -0.59377E+08         0.89792E+05         0.00000E+00
    0.89792E+05        -0.97580E+08         0.00000E+00
    0.00000E+00         0.00000E+00        -0.59462E+08
 
   -0.59357E+08         0.96487E+05         0.00000E+00
    0.96487E+05        -0.97582E+08         0.00000E+00
    0.00000E+00         0.00000E+00        -0.59439E+08
 
   -0.59335E+08         0.10282E+06         0.00000E+00
    0.10282E+06        -0.97583E+08         0.00000E+00
    0.00000E+00         0.00000E+00        -0.59415E+08
 
   -0.59313E+08         0.10883E+06         0.00000E+00
    0.10883E+06        -0.97584E+08         0.00000E+00
    0.00000E+00         0.00000E+00        -0.59391E+08
 
   -0.59291E+08         0.11454E+06         0.00000E+00
    0.11454E+06        -0.97585E+08         0.00000E+00
    0.00000E+00         0.00000E+00        -0.59366E+08
 
   -0.59267E+08         0.12000E+06         0.00000E+00
    0.12000E+06        -0.97586E+08         0.00000E+00
    0.00000E+00         0.00000E+00        -0.59340E+08
 
   -0.59242E+08         0.12522E+06         0.00000E+00
    0.12522E+06        -0.97586E+08         0.00000E+00
    0.00000E+00         0.00000E+00        -0.59314E+08
 
   -0.59217E+08         0.13024E+06         0.00000E+00
    0.13024E+06        -0.97587E+08         0.00000E+00
    0.00000E+00         0.00000E+00        -0.59287E+08
 
   -0.59191E+08         0.13509E+06         0.00000E+00
    0.13509E+06        -0.97587E+08         0.00000E+00
    0.00000E+00         0.00000E+00        -0.59260E+08
 
   -0.59164E+08         0.13979E+06         0.00000E+00
    0.13979E+06        -0.97588E+08         0.00000E+00
    0.00000E+00         0.00000E+00        -0.59232E+08
 
   -0.59136E+08         0.14437E+06         0.00000E+00
    0.14437E+06        -0.97588E+08         0.00000E+00
    0.00000E+00         0.00000E+00        -0.59204E+08
 
   -0.59107E+08         0.14885E+06         0.00000E+00
    0.14885E+06        -0.97588E+08         0.00000E+00
    0.00000E+00         0.00000E+00        -0.59175E+08
 
   -0.59078E+08         0.15325E+06         0.00000E+00
    0.15325E+06        -0.97589E+08         0.00000E+00
    0.00000E+00         0.00000E+00        -0.59145E+08
 
   -0.59048E+08         0.15758E+06         0.00000E+00
    0.15758E+06        -0.97589E+08         0.00000E+00
    0.00000E+00         0.00000E+00        -0.59115E+08
 
   -0.59017E+08         0.16186E+06         0.00000E+00
    0.16186E+06        -0.97589E+08         0.00000E+00
    0.00000E+00         0.00000E+00        -0.59084E+08
 
   -0.58985E+08         0.16609E+06         0.00000E+00
    0.16609E+06        -0.97589E+08         0.00000E+00
    0.00000E+00         0.00000E+00        -0.59052E+08
 
   -0.58952E+08         0.17030E+06         0.00000E+00
    0.17030E+06        -0.97589E+08         0.00000E+00
    0.00000E+00         0.00000E+00        -0.59019E+08
 
   -0.58919E+08         0.17448E+06         0.00000E+00
    0.17448E+06        -0.97589E+08         0.00000E+00
    0.00000E+00         0.00000E+00        -0.58986E+08
 
   -0.58885E+08         0.17865E+06         0.00000E+00
    0.17865E+06        -0.97589E+08         0.00000E+00
    0.00000E+00         0.00000E+00        -0.58953E+08
 
   -0.58850E+08         0.18282E+06         0.00000E+00
    0.18282E+06        -0.97589E+08         0.00000E+00
    0.00000E+00         0.00000E+00        -0.58918E+08
 
   -0.58814E+08         0.18698E+06         0.00000E+00
    0.18698E+06        -0.97589E+08         0.00000E+00
    0.00000E+00         0.00000E+00        -0.58883E+08
 
   -0.58778E+08         0.19114E+06         0.00000E+00
    0.19114E+06        -0.97589E+08         0.00000E+00
    0.00000E+00         0.00000E+00        -0.58847E+08
 
   -0.58740E+08         0.19531E+06         0.00000E+00
    0.19531E+06        -0.97589E+08         0.00000E+00
    0.00000E+00         0.00000E+00        -0.58810E+08
 
   -0.58702E+08         0.19949E+06         0.00000E+00
    0.19949E+06        -0.97589E+08         0.00000E+00
    0.00000E+00         0.00000E+00        -0.58772E+08
 
   -0.58663E+08         0.20368E+06         0.00000E+00
    0.20368E+06        -0.97589E+08         0.00000E+00
    0.00000E+00         0.00000E+00        -0.58734E+08
 
   -0.58623E+08         0.20788E+06         0.00000E+00
    0.20788E+06        -0.97589E+08         0.00000E+00
    0.00000E+00         0.00000E+00        -0.58694E+08
 
   -0.58582E+08         0.21209E+06         0.00000E+00
    0.21209E+06        -0.97589E+08         0.00000E+00
    0.00000E+00         0.00000E+00        -0.58654E+08
 
   -0.58541E+08         0.21631E+06         0.00000E+00
    0.21631E+06        -0.97589E+08         0.00000E+00
    0.00000E+00         0.00000E+00        -0.58613E+08
 
   -0.58498E+08         0.22055E+06         0.00000E+00
    0.22055E+06        -0.97589E+08         0.00000E+00
    0.00000E+00         0.00000E+00        -0.58572E+08
 
   -0.58455E+08         0.22479E+06         0.00000E+00
    0.22479E+06        -0.97589E+08         0.00000E+00
    0.00000E+00         0.00000E+00        -0.58529E+08
 
   -0.58411E+08         0.22904E+06         0.00000E+00
    0.22904E+06        -0.97589E+08         0.00000E+00
    0.00000E+00         0.00000E+00        -0.58485E+08
 
   -0.58366E+08         0.23330E+06         0.00000E+00
    0.23330E+06        -0.97589E+08         0.00000E+00
    0.00000E+00         0.00000E+00        -0.58441E+08
 
   -0.58320E+08         0.23755E+06         0.00000E+00
    0.23755E+06        -0.97589E+08         0.00000E+00
    0.00000E+00         0.00000E+00        -0.58395E+08
 
   -0.58274E+08         0.24180E+06         0.00000E+00
    0.24180E+06        -0.97589E+08         0.00000E+00
    0.00000E+00         0.00000E+00        -0.58349E+08
 
   -0.58226E+08         0.24604E+06         0.00000E+00
    0.24604E+06        -0.97589E+08         0.00000E+00
    0.00000E+00         0.00000E+00        -0.58302E+08
 
   -0.58178E+08         0.25026E+06         0.00000E+00
    0.25026E+06        -0.97589E+08         0.00000E+00
    0.00000E+00         0.00000E+00        -0.58253E+08
 
   -0.58129E+08         0.25447E+06         0.00000E+00
    0.25447E+06        -0.97589E+08         0.00000E+00
    0.00000E+00         0.00000E+00        -0.58204E+08
 
   -0.58078E+08         0.25864E+06         0.00000E+00
    0.25864E+06        -0.97590E+08         0.00000E+00
    0.00000E+00         0.00000E+00        -0.58154E+08
 
   -0.58027E+08         0.26279E+06         0.00000E+00
    0.26279E+06        -0.97590E+08         0.00000E+00
    0.00000E+00         0.00000E+00        -0.58103E+08
 
   -0.57976E+08         0.26688E+06         0.00000E+00
    0.26688E+06        -0.97590E+08         0.00000E+00
    0.00000E+00         0.00000E+00        -0.58050E+08
 
   -0.57923E+08         0.27093E+06         0.00000E+00
    0.27093E+06        -0.97590E+08         0.00000E+00
    0.00000E+00         0.00000E+00        -0.57997E+08
 
   -0.57869E+08         0.27491E+06         0.00000E+00
    0.27491E+06        -0.97590E+08         0.00000E+00
    0.00000E+00         0.00000E+00        -0.57943E+08
 
   -0.57815E+08         0.27881E+06         0.00000E+00
    0.27881E+06        -0.97590E+08         0.00000E+00
    0.00000E+00         0.00000E+00        -0.57888E+08
 
   -0.57759E+08         0.28263E+06         0.00000E+00
    0.28263E+06        -0.97591E+08         0.00000E+00
    0.00000E+00         0.00000E+00        -0.57832E+08
 
   -0.57703E+08         0.28635E+06         0.00000E+00
    0.28635E+06        -0.97591E+08         0.00000E+00
    0.00000E+00         0.00000E+00        -0.57774E+08
 
   -0.57646E+08         0.28995E+06         0.00000E+00
    0.28995E+06        -0.97591E+08         0.00000E+00
    0.00000E+00         0.00000E+00        -0.57716E+08
 
   -0.57589E+08         0.29343E+06         0.00000E+00
    0.29343E+06        -0.97592E+08         0.00000E+00
    0.00000E+00         0.00000E+00        -0.57657E+08
 
   -0.57530E+08         0.29677E+06         0.00000E+00
    0.29677E+06        -0.97592E+08         0.00000E+00
    0.00000E+00         0.00000E+00        -0.57596E+08
 
   -0.57471E+08         0.29994E+06         0.00000E+00
    0.29994E+06        -0.97592E+08         0.00000E+00
    0.00000E+00         0.00000E+00        -0.57535E+08
 
   -0.57411E+08         0.30293E+06         0.00000E+00
    0.30293E+06        -0.97593E+08         0.00000E+00
    0.00000E+00         0.00000E+00        -0.57473E+08
 
   -0.57350E+08         0.30572E+06         0.00000E+00
    0.30572E+06        -0.97594E+08         0.00000E+00
    0.00000E+00         0.00000E+00        -0.57410E+08
 
   -0.57289E+08         0.30828E+06         0.00000E+00
    0.30828E+06        -0.97594E+08         0.00000E+00
    0.00000E+00         0.00000E+00        -0.57345E+08
 
   -0.57227E+08         0.31060E+06         0.00000E+00
    0.31060E+06        -0.97595E+08         0.00000E+00
    0.00000E+00         0.00000E+00        -0.57280E+08
 
   -0.57165E+08         0.31264E+06         0.00000E+00
    0.31264E+06        -0.97596E+08         0.00000E+00
    0.00000E+00         0.00000E+00        -0.57214E+08
 
   -0.57102E+08         0.31439E+06         0.00000E+00
    0.31439E+06        -0.97596E+08         0.00000E+00
    0.00000E+00         0.00000E+00        -0.57147E+08
 
   -0.57038E+08         0.31580E+06         0.00000E+00
    0.31580E+06        -0.97597E+08         0.00000E+00
    0.00000E+00         0.00000E+00        -0.57079E+08
 
   -0.56974E+08         0.31684E+06         0.00000E+00
    0.31684E+06        -0.97598E+08         0.00000E+00
    0.00000E+00         0.00000E+00        -0.57010E+08
 
   -0.56910E+08         0.31748E+06         0.00000E+00
    0.31748E+06        -0.97600E+08         0.00000E+00
    0.00000E+00         0.00000E+00        -0.56940E+08
 
   -0.56845E+08         0.31767E+06         0.00000E+00
    0.31767E+06        -0.97601E+08         0.00000E+00
    0.00000E+00         0.00000E+00        -0.56870E+08
 
   -0.56781E+08         0.31738E+06         0.00000E+00
    0.31738E+06        -0.97602E+08         0.00000E+00
    0.00000E+00         0.00000E+00        -0.56798E+08
 
   -0.56716E+08         0.31655E+06         0.00000E+00
    0.31655E+06        -0.97604E+08         0.00000E+00
    0.00000E+00         0.00000E+00        -0.56726E+08
 
   -0.56651E+08         0.31513E+06         0.00000E+00
    0.31513E+06        -0.97605E+08         0.00000E+00
    0.00000E+00         0.00000E+00        -0.56653E+08
 
   -0.56586E+08         0.31305E+06         0.00000E+00
    0.31305E+06        -0.97607E+08         0.00000E+00
    0.00000E+00         0.00000E+00        -0.56580E+08
 
   -0.56521E+08         0.31025E+06         0.00000E+00
    0.31025E+06        -0.97609E+08         0.00000E+00
    0.00000E+00         0.00000E+00        -0.56506E+08
 
   -0.56457E+08         0.30666E+06         0.00000E+00
    0.30666E+06        -0.97612E+08         0.00000E+00
    0.00000E+00         0.00000E+00        -0.56431E+08
 
   -0.56392E+08         0.30219E+06         0.00000E+00
    0.30219E+06        -0.97614E+08         0.00000E+00
    0.00000E+00         0.00000E+00        -0.56356E+08
 
   -0.56329E+08         0.29674E+06         0.00000E+00
    0.29674E+06        -0.97617E+08         0.00000E+00
    0.00000E+00         0.00000E+00        -0.56281E+08
 
   -0.56265E+08         0.29023E+06         0.00000E+00
    0.29023E+06        -0.97621E+08         0.00000E+00
    0.00000E+00         0.00000E+00        -0.56205E+08
 
   -0.56203E+08         0.28254E+06         0.00000E+00
    0.28254E+06        -0.97624E+08         0.00000E+00
    0.00000E+00         0.00000E+00        -0.56128E+08
 
   -0.56141E+08         0.27356E+06         0.00000E+00
    0.27356E+06        -0.97629E+08         0.00000E+00
    0.00000E+00         0.00000E+00        -0.56052E+08
 
   -0.56081E+08         0.26316E+06         0.00000E+00
    0.26316E+06        -0.97633E+08         0.00000E+00
    0.00000E+00         0.00000E+00        -0.55976E+08
 
   -0.56021E+08         0.25124E+06         0.00000E+00
    0.25124E+06        -0.97638E+08         0.00000E+00
    0.00000E+00         0.00000E+00        -0.55899E+08
 
   -0.55962E+08         0.23766E+06         0.00000E+00
    0.23766E+06        -0.97644E+08         0.00000E+00
    0.00000E+00         0.00000E+00        -0.55822E+08
 
   -0.55905E+08         0.22233E+06         0.00000E+00
    0.22233E+06        -0.97650E+08         0.00000E+00
    0.00000E+00         0.00000E+00        -0.55745E+08
 
   -0.55849E+08         0.20518E+06         0.00000E+00
    0.20518E+06        -0.97656E+08         0.00000E+00
    0.00000E+00         0.00000E+00        -0.55669E+08
 
   -0.55794E+08         0.18617E+06         0.00000E+00
    0.18617E+06        -0.97663E+08         0.00000E+00
    0.00000E+00         0.00000E+00        -0.55592E+08
 
   -0.55740E+08         0.16535E+06         0.00000E+00
    0.16535E+06        -0.97669E+08         0.00000E+00
    0.00000E+00         0.00000E+00        -0.55515E+08
 
   -0.55688E+08         0.14285E+06         0.00000E+00
    0.14285E+06        -0.97674E+08         0.00000E+00
    0.00000E+00         0.00000E+00        -0.55438E+08
 
   -0.55638E+08         0.11898E+06         0.00000E+00
    0.11898E+06        -0.97679E+08         0.00000E+00
    0.00000E+00         0.00000E+00        -0.55361E+08
 
   -0.55590E+08         0.94264E+05         0.00000E+00
    0.94264E+05        -0.97681E+08         0.00000E+00
    0.00000E+00         0.00000E+00        -0.55284E+08
 
   -0.55544E+08         0.69499E+05         0.00000E+00
    0.69499E+05        -0.97679E+08         0.00000E+00
    0.00000E+00         0.00000E+00        -0.55206E+08
 
   -0.55501E+08         0.45868E+05         0.00000E+00
    0.45868E+05        -0.97673E+08         0.00000E+00
    0.00000E+00         0.00000E+00        -0.55127E+08
 
   -0.55461E+08         0.24956E+05         0.00000E+00
    0.24956E+05        -0.97660E+08         0.00000E+00
    0.00000E+00         0.00000E+00        -0.55047E+08
 
   -0.55425E+08         0.86218E+04         0.00000E+00
    0.86218E+04        -0.97637E+08         0.00000E+00
    0.00000E+00         0.00000E+00        -0.54965E+08
 
   -0.55396E+08        -0.14558E+04         0.00000E+00
   -0.14558E+04        -0.97601E+08         0.00000E+00
    0.00000E+00         0.00000E+00        -0.54881E+08
 
   -0.55375E+08        -0.46466E+04         0.00000E+00
   -0.46466E+04        -0.97549E+08         0.00000E+00
    0.00000E+00         0.00000E+00        -0.54794E+08
 
   -0.55364E+08        -0.22706E+04         0.00000E+00
   -0.22706E+04        -0.97478E+08         0.00000E+00
    0.00000E+00         0.00000E+00        -0.54705E+08
 
   -0.59539E+08         0.33655E+03         0.00000E+00
    0.33655E+03        -0.97624E+08         0.00000E+00
    0.00000E+00         0.00000E+00        -0.59740E+08
 
   -0.59536E+08         0.15809E+04         0.00000E+00
    0.15809E+04        -0.97606E+08         0.00000E+00
    0.00000E+00         0.00000E+00        -0.59718E+08
 
   -0.59530E+08         0.42997E+04         0.00000E+00
    0.42997E+04        -0.97594E+08         0.00000E+00
    0.00000E+00         0.00000E+00        -0.59696E+08
 
   -0.59522E+08         0.88401E+04         0.00000E+00
    0.88401E+04        -0.97585E+08         0.00000E+00
    0.00000E+00         0.00000E+00        -0.59675E+08
 
   -0.59512E+08         0.15034E+05         0.00000E+00
    0.15034E+05        -0.97580E+08         0.00000E+00
    0.00000E+00         0.00000E+00        -0.59654E+08
 
   -0.59501E+08         0.22441E+05         0.00000E+00
    0.22441E+05        -0.97577E+08         0.00000E+00
    0.00000E+00         0.00000E+00        -0.59633E+08
 
   -0.59488E+08         0.30583E+05         0.00000E+00
    0.30583E+05        -0.97575E+08         0.00000E+00
    0.00000E+00         0.00000E+00        -0.59613E+08
 
   -0.59475E+08         0.39056E+05         0.00000E+00
    0.39056E+05        -0.97575E+08         0.00000E+00
    0.00000E+00         0.00000E+00        -0.59592E+08
 
   -0.59460E+08         0.47563E+05         0.00000E+00
    0.47563E+05        -0.97575E+08         0.00000E+00
    0.00000E+00         0.00000E+00        -0.59571E+08
 
   -0.59445E+08         0.55904E+05         0.00000E+00
    0.55904E+05        -0.97576E+08         0.00000E+00
    0.00000E+00         0.00000E+00        -0.59550E+08
 
   -0.59428E+08         0.63953E+05         0.00000E+00
    0.63953E+05        -0.97578E+08         0.00000E+00
    0.00000E+00         0.00000E+00        -0.59528E+08
 
   -0.59411E+08         0.71642E+05         0.00000E+00
    0.71642E+05        -0.97579E+08         0.00000E+00
    0.00000E+00         0.00000E+00        -0.59507E+08
 
   -0.59392E+08         0.78940E+05         0.00000E+00
    0.78940E+05        -0.97580E+08         0.00000E+00
    0.00000E+00         0.00000E+00        -0.59484E+08
 
   -0.59373E+08         0.85843E+05         0.00000E+00
    0.85843E+05        -0.97582E+08         0.00000E+00
    0.00000E+00         0.00000E+00        -0.59461E+08
 
   -0.59353E+08         0.92363E+05         0.00000E+00
    0.92363E+05        -0.97583E+08         0.00000E+00
    0.00000E+00         0.00000E+00        -0.59438E+08
 
   -0.59332E+08         0.98526E+05         0.00000E+00
    0.98526E+05        -0.97584E+08         0.00000E+00
    0.00000E+00         0.00000E+00        -0.59414E+08
 
   -0.59310E+08         0.10436E+06         0.00000E+00
    0.10436E+06        -0.97585E+08         0.00000E+00
    0.00000E+00         0.00000E+00        -0.59390E+08
 
   -0.59287E+08         0.10990E+06         0.00000E+00
    0.10990E+06        -0.97586E+08         0.00000E+00
    0.00000E+00         0.00000E+00        -0.59365E+08
 
   -0.59264E+08         0.11518E+06         0.00000E+00
    0.11518E+06        -0.97587E+08         0.00000E+00
    0.00000E+00         0.00000E+00        -0.59339E+08
 
   -0.59239E+08         0.12023E+06         0.00000E+00
    0.12023E+06        -0.97587E+08         0.00000E+00
    0.00000E+00         0.00000E+00        -0.59313E+08
 
   -0.59214E+08         0.12509E+06         0.00000E+00
    0.12509E+06        -0.97588E+08         0.00000E+00
    0.00000E+00         0.00000E+00        -0.59287E+08
 
   -0.59188E+08         0.12977E+06         0.00000E+00
    0.12977E+06        -0.97588E+08         0.00000E+00
    0.00000E+00         0.00000E+00        -0.59260E+08
 
   -0.59161E+08         0.13431E+06         0.00000E+00
    0.13431E+06        -0.97589E+08         0.00000E+00
    0.00000E+00         0.00000E+00        -0.59232E+08
 
   -0.59133E+08         0.13873E+06         0.00000E+00
    0.13873E+06        -0.97589E+08         0.00000E+00
    0.00000E+00         0.00000E+00        -0.59203E+08
 
   -0.59105E+08         0.14305E+06         0.00000E+00
    0.14305E+06        -0.97589E+08         0.00000E+00
    0.00000E+00         0.00000E+00        -0.59174E+08
 
   -0.59075E+08         0.14729E+06         0.00000E+00
    0.14729E+06        -0.97589E+08         0.00000E+00
    0.00000E+00         0.00000E+00        -0.59144E+08
 
   -0.59045E+08         0.15146E+06         0.00000E+00
    0.15146E+06        -0.97590E+08         0.00000E+00
    0.00000E+00         0.00000E+00        -0.59114E+08
 
   -0.59014E+08         0.15558E+06         0.00000E+00
    0.15558E+06        -0.97590E+08         0.00000E+00
    0.00000E+00         0.00000E+00        -0.59083E+08
 
   -0.58982E+08         0.15965E+06         0.00000E+00
    0.15965E+06        -0.97590E+08         0.00000E+00
    0.00000E+00         0.00000E+00        -0.59051E+08
 
   -0.58950E+08         0.16370E+06         0.00000E+00
    0.16370E+06        -0.97590E+08         0.00000E+00
    0.00000E+00         0.00000E+00        -0.59019E+08
 
   -0.58916E+08         0.16772E+06         0.00000E+00
    0.16772E+06        -0.97590E+08         0.00000E+00
    0.00000E+00         0.00000E+00        -0.58986E+08
 
   -0.58882E+08         0.17173E+06         0.00000E+00
    0.17173E+06        -0.97590E+08         0.00000E+00
    0.00000E+00         0.00000E+00        -0.58952E+08
 
   -0.58847E+08         0.17574E+06         0.00000E+00
    0.17574E+06        -0.97590E+08         0.00000E+00
    0.00000E+00         0.00000E+00        -0.58917E+08
 
   -0.58811E+08         0.17974E+06         0.00000E+00
    0.17974E+06        -0.97590E+08         0.00000E+00
    0.00000E+00         0.00000E+00        -0.58882E+08
 
   -0.58775E+08         0.18374E+06         0.00000E+00
    0.18374E+06        -0.97590E+08         0.00000E+00
    0.00000E+00         0.00000E+00        -0.58846E+08
 
   -0.58737E+08         0.18775E+06         0.00000E+00
    0.18775E+06        -0.97590E+08         0.00000E+00
    0.00000E+00         0.00000E+00        -0.58809E+08
 
   -0.58699E+08         0.19176E+06         0.00000E+00
    0.19176E+06        -0.97590E+08         0.00000E+00
    0.00000E+00         0.00000E+00        -0.58771E+08
 
   -0.58660E+08         0.19579E+06         0.00000E+00
    0.19579E+06        -0.97590E+08         0.00000E+00
    0.00000E+00         0.00000E+00        -0.58733E+08
 
   -0.58620E+08         0.19982E+06         0.00000E+00
    0.19982E+06        -0.97590E+08         0.00000E+00
    0.00000E+00         0.00000E+00        -0.58694E+08
 
   -0.58579E+08         0.20386E+06         0.00000E+00
    0.20386E+06        -0.97590E+08         0.00000E+00
    0.00000E+00         0.00000E+00        -0.58654E+08
 
   -0.58538E+08         0.20792E+06         0.00000E+00
    0.20792E+06        -0.97590E+08         0.00000E+00
    0.00000E+00         0.00000E+00        -0.58613E+08
 
   -0.58495E+08         0.21199E+06         0.00000E+00
    0.21199E+06        -0.97590E+08         0.00000E+00
    0.00000E+00         0.00000E+00        -0.58571E+08
 
   -0.58452E+08         0.21606E+06         0.00000E+00
    0.21606E+06        -0.97590E+08         0.00000E+00
    0.00000E+00         0.00000E+00        -0.58528E+08
 
   -0.58408E+08         0.22014E+06         0.00000E+00
    0.22014E+06        -0.97590E+08         0.00000E+00
    0.00000E+00         0.00000E+00        -0.58485E+08
 
   -0.58363E+08         0.22422E+06         0.00000E+00
    0.22422E+06        -0.97590E+08         0.00000E+00
    0.00000E+00         0.00000E+00        -0.58440E+08
 
   -0.58317E+08         0.22830E+06         0.00000E+00
    0.22830E+06        -0.97590E+08         0.00000E+00
    0.00000E+00         0.00000E+00        -0.58395E+08
 
   -0.58270E+08         0.23238E+06         0.00000E+00
    0.23238E+06        -0.97590E+08         0.00000E+00
    0.00000E+00         0.00000E+00        -0.58348E+08
 
   -0.58223E+08         0.23644E+06         0.00000E+00
    0.23644E+06        -0.97590E+08         0.00000E+00
    0.00000E+00         0.00000E+00        -0.58301E+08
 
   -0.58174E+08         0.24049E+06         0.00000E+00
    0.24049E+06        -0.97590E+08         0.00000E+00
    0.00000E+00         0.00000E+00        -0.58253E+08
 
   -0.58125E+08         0.24452E+06         0.00000E+00
    0.24452E+06        -0.97590E+08         0.00000E+00
    0.00000E+00         0.00000E+00        -0.58203E+08
 
   -0.58075E+08         0.24853E+06         0.00000E+00
    0.24853E+06        -0.97590E+08         0.00000E+00
    0.00000E+00         0.00000E+00        -0.58153E+08
 
   -0.58024E+08         0.25250E+06         0.00000E+00
    0.25250E+06        -0.97590E+08         0.00000E+00
    0.00000E+00         0.00000E+00        -0.58102E+08
 
   -0.57972E+08         0.25642E+06         0.00000E+00
    0.25642E+06        -0.97591E+08         0.00000E+00
    0.00000E+00         0.00000E+00        -0.58050E+08
 
   -0.57919E+08         0.26029E+06         0.00000E+00
    0.26029E+06        -0.97591E+08         0.00000E+00
    0.00000E+00         0.00000E+00        -0.57996E+08
 
   -0.57866E+08         0.26410E+06         0.00000E+00
    0.26410E+06        -0.97591E+08         0.00000E+00
    0.00000E+00         0.00000E+00        -0.57942E+08
 
   -0.57811E+08         0.26784E+06         0.00000E+00
    0.26784E+06        -0.97591E+08         0.00000E+00
    0.00000E+00         0.00000E+00        -0.57887E+08
 
   -0.57756E+08         0.27149E+06         0.00000E+00
    0.27149E+06        -0.97591E+08         0.00000E+00
    0.00000E+00         0.00000E+00        -0.57831E+08
 
   -0.57700E+08         0.27505E+06         0.00000E+00
    0.27505E+06        -0.97592E+08         0.00000E+00
    0.00000E+00         0.00000E+00        -0.57773E+08
 
   -0.57643E+08         0.27850E+06         0.00000E+00
    0.27850E+06        -0.97592E+08         0.00000E+00
    0.00000E+00         0.00000E+00        -0.57715E+08
 
   -0.57585E+08         0.28182E+06         0.00000E+00
    0.28182E+06        -0.97592E+08         0.00000E+00
    0.00000E+00         0.00000E+00        -0.57656E+08
 
   -0.57527E+08         0.28500E+06         0.00000E+00
    0.28500E+06        -0.97593E+08         0.00000E+00
    0.00000E+00         0.00000E+00        -0.57596E+08
 
   -0.57468E+08         0.28803E+06         0.00000E+00
    0.28803E+06        -0.97593E+08         0.00000E+00
    0.00000E+00         0.00000E+00        -0.57534E+08
 
   -0.57408E+08         0.29088E+06         0.00000E+00
    0.29088E+06        -0.97594E+08         0.00000E+00
    0.00000E+00         0.00000E+00        -0.57472E+08
 
   -0.57348E+08         0.29353E+06         0.00000E+00
    0.29353E+06        -0.97594E+08         0.00000E+00
    0.00000E+00         0.00000E+00        -0.57409E+08
 
   -0.57286E+08         0.29597E+06         0.00000E+00
    0.29597E+06        -0.97595E+08         0.00000E+00
    0.00000E+00         0.00000E+00        -0.57345E+08
 
   -0.57225E+08         0.29817E+06         0.00000E+00
    0.29817E+06        -0.97595E+08         0.00000E+00
    0.00000E+00         0.00000E+00        -0.57279E+08
 
   -0.57162E+08         0.30011E+06         0.00000E+00
    0.30011E+06        -0.97596E+08         0.00000E+00
    0.00000E+00         0.00000E+00        -0.57213E+08
 
   -0.57099E+08         0.30175E+06         0.00000E+00
    0.30175E+06        -0.97597E+08         0.00000E+00
    0.00000E+00         0.00000E+00        -0.57146E+08
 
   -0.57036E+08         0.30307E+06         0.00000E+00
    0.30307E+06        -0.97598E+08         0.00000E+00
    0.00000E+00         0.00000E+00        -0.57078E+08
 
   -0.56972E+08         0.30404E+06         0.00000E+00
    0.30404E+06        -0.97599E+08         0.00000E+00
    0.00000E+00         0.00000E+00        -0.57009E+08
 
   -0.56908E+08         0.30461E+06         0.00000E+00
    0.30461E+06        -0.97600E+08         0.00000E+00
    0.00000E+00         0.00000E+00        -0.56940E+08
 
   -0.56844E+08         0.30476E+06         0.00000E+00
    0.30476E+06        -0.97601E+08         0.00000E+00
    0.00000E+00         0.00000E+00        -0.56869E+08
 
   -0.56779E+08         0.30444E+06         0.00000E+00
    0.30444E+06        -0.97602E+08         0.00000E+00
    0.00000E+00         0.00000E+00        -0.56798E+08
 
   -0.56715E+08         0.30359E+06         0.00000E+00
    0.30359E+06        -0.97603E+08         0.00000E+00
    0.00000E+00         0.00000E+00        -0.56726E+08
 
   -0.56650E+08         0.30217E+06         0.00000E+00
    0.30217E+06        -0.97605E+08         0.00000E+00
    0.00000E+00         0.00000E+00        -0.56653E+08
 
   -0.56586E+08         0.30011E+06         0.00000E+00
    0.30011E+06        -0.97607E+08         0.00000E+00
    0.00000E+00         0.00000E+00        -0.56580E+08
 
   -0.56521E+08         0.29736E+06         0.00000E+00
    0.29736E+06        -0.97609E+08         0.00000E+00
    0.00000E+00         0.00000E+00        -0.56506E+08
 
   -0.56457E+08         0.29382E+06         0.00000E+00
    0.29382E+06        -0.97611E+08         0.00000E+00
    0.00000E+00         0.00000E+00        -0.56431E+08
 
   -0.56393E+08         0.28944E+06         0.00000E+00
    0.28944E+06        -0.97613E+08         0.00000E+00
    0.00000E+00         0.00000E+00        -0.56356E+08
 
   -0.56330E+08         0.28410E+06         0.00000E+00
    0.28410E+06        -0.97616E+08         0.00000E+00
    0.00000E+00         0.00000E+00        -0.56281E+08
 
   -0.56267E+08         0.27772E+06         0.00000E+00
    0.27772E+06        -0.97619E+08         0.00000E+00
    0.00000E+00         0.00000E+00        -0.56205E+08
 
   -0.56205E+08         0.27019E+06         0.00000E+00
    0.27019E+06        -0.97623E+08         0.00000E+00
    0.00000E+00         0.00000E+00        -0.56129E+08
 
   -0.56144E+08         0.26138E+06         0.00000E+00
    0.26138E+06        -0.97627E+08         0.00000E+00
    0.00000E+00         0.00000E+00        -0.56052E+08
 
   -0.56084E+08         0.25119E+06         0.00000E+00
    0.25119E+06        -0.97631E+08         0.00000E+00
    0.00000E+00         0.00000E+00        -0.55976E+08
 
   -0.56026E+08         0.23948E+06         0.00000E+00
    0.23948E+06        -0.97636E+08         0.00000E+00
    0.00000E+00         0.00000E+00        -0.55900E+08
 
   -0.55968E+08         0.22615E+06         0.00000E+00
    0.22615E+06        -0.97641E+08         0.00000E+00
    0.00000E+00         0.00000E+00        -0.55823E+08
 
   -0.55911E+08         0.21108E+06         0.00000E+00
    0.21108E+06        -0.97647E+08         0.00000E+00
    0.00000E+00         0.00000E+00        -0.55747E+08
 
   -0.55856E+08         0.19420E+06         0.00000E+00
    0.19420E+06        -0.97653E+08         0.00000E+00
    0.00000E+00         0.00000E+00        -0.55670E+08
 
   -0.55803E+08         0.17549E+06         0.00000E+00
    0.17549E+06        -0.97659E+08         0.00000E+00
    0.00000E+00         0.00000E+00        -0.55594E+08
 
   -0.55751E+08         0.15497E+06         0.00000E+00
    0.15497E+06        -0.97664E+08         0.00000E+00
    0.00000E+00         0.00000E+00        -0.55517E+08
 
   -0.55701E+08         0.13281E+06         0.00000E+00
    0.13281E+06        -0.97670E+08         0.00000E+00
    0.00000E+00         0.00000E+00        -0.55441E+08
 
   -0.55653E+08         0.10931E+06         0.00000E+00
    0.10931E+06        -0.97674E+08         0.00000E+00
    0.00000E+00         0.00000E+00        -0.55364E+08
 
   -0.55606E+08         0.85008E+05         0.00000E+00
    0.85008E+05        -0.97676E+08         0.00000E+00
    0.00000E+00         0.00000E+00        -0.55287E+08
 
   -0.55562E+08         0.60728E+05         0.00000E+00
    0.60728E+05        -0.97674E+08         0.00000E+00
    0.00000E+00         0.00000E+00        -0.55210E+08
 
   -0.55521E+08         0.37693E+05         0.00000E+00
    0.37693E+05        -0.97668E+08         0.00000E+00
    0.00000E+00         0.00000E+00        -0.55132E+08
 
   -0.55483E+08         0.17545E+05         0.00000E+00
    0.17545E+05        -0.97656E+08         0.00000E+00
    0.00000E+00         0.00000E+00        -0.55052E+08
 
   -0.55449E+08         0.22308E+04         0.00000E+00
    0.22308E+04        -0.97634E+08         0.00000E+00
    0.00000E+00         0.00000E+00        -0.54971E+08
 
   -0.55421E+08        -0.64790E+04         0.00000E+00
   -0.64790E+04        -0.97600E+08         0.00000E+00
    0.00000E+00         0.00000E+00        -0.54888E+08
 
   -0.55401E+08        -0.78967E+04         0.00000E+00
   -0.78967E+04        -0.97549E+08         0.00000E+00
    0.00000E+00         0.00000E+00        -0.54802E+08
 
   -0.55390E+08        -0.34006E+04         0.00000E+00
   -0.34006E+04        -0.97479E+08         0.00000E+00
    0.00000E+00         0.00000E+00        -0.54713E+08
 
   -0.59531E+08         0.23184E+02         0.00000E+00
    0.23184E+02        -0.97624E+08         0.00000E+00
    0.00000E+00         0.00000E+00        -0.59738E+08
 
   -0.59528E+08         0.67993E+03         0.00000E+00
    0.67993E+03        -0.97607E+08         0.00000E+00
    0.00000E+00         0.00000E+00        -0.59716E+08
 
   -0.59523E+08         0.29052E+04         0.00000E+00
    0.29052E+04        -0.97594E+08         0.00000E+00
    0.00000E+00         0.00000E+00        -0.59694E+08
 
   -0.59515E+08         0.70550E+04         0.00000E+00
    0.70550E+04        -0.97586E+08         0.00000E+00
    0.00000E+00         0.00000E+00        -0.59673E+08
 
   -0.59505E+08         0.12938E+05         0.00000E+00
    0.12938E+05        -0.97581E+08         0.00000E+00
    0.00000E+00         0.00000E+00        -0.59652E+08
 
   -0.59495E+08         0.20088E+05         0.00000E+00
    0.20088E+05        -0.97578E+08         0.00000E+00
    0.00000E+00         0.00000E+00        -0.59632E+08
 
   -0.59482E+08         0.28004E+05         0.00000E+00
    0.28004E+05        -0.97577E+08         0.00000E+00
    0.00000E+00         0.00000E+00        -0.59611E+08
 
   -0.59469E+08         0.36269E+05         0.00000E+00
    0.36269E+05        -0.97577E+08         0.00000E+00
    0.00000E+00         0.00000E+00        -0.59591E+08
 
   -0.59455E+08         0.44579E+05         0.00000E+00
    0.44579E+05        -0.97577E+08         0.00000E+00
    0.00000E+00         0.00000E+00        -0.59570E+08
 
   -0.59440E+08         0.52730E+05         0.00000E+00
    0.52730E+05        -0.97578E+08         0.00000E+00
    0.00000E+00         0.00000E+00        -0.59549E+08
 
   -0.59424E+08         0.60593E+05         0.00000E+00
    0.60593E+05        -0.97579E+08         0.00000E+00
    0.00000E+00         0.00000E+00        -0.59528E+08
 
   -0.59407E+08         0.68097E+05         0.00000E+00
    0.68097E+05        -0.97580E+08         0.00000E+00
    0.00000E+00         0.00000E+00        -0.59506E+08
 
   -0.59388E+08         0.75212E+05         0.00000E+00
    0.75212E+05        -0.97582E+08         0.00000E+00
    0.00000E+00         0.00000E+00        -0.59483E+08
 
   -0.59369E+08         0.81933E+05         0.00000E+00
    0.81933E+05        -0.97583E+08         0.00000E+00
    0.00000E+00         0.00000E+00        -0.59461E+08
 
   -0.59350E+08         0.88273E+05         0.00000E+00
    0.88273E+05        -0.97584E+08         0.00000E+00
    0.00000E+00         0.00000E+00        -0.59437E+08
 
   -0.59329E+08         0.94256E+05         0.00000E+00
    0.94256E+05        -0.97585E+08         0.00000E+00
    0.00000E+00         0.00000E+00        -0.59414E+08
 
   -0.59307E+08         0.99914E+05         0.00000E+00
    0.99914E+05        -0.97586E+08         0.00000E+00
    0.00000E+00         0.00000E+00        -0.59389E+08
 
   -0.59284E+08         0.10528E+06         0.00000E+00
    0.10528E+06        -0.97587E+08         0.00000E+00
    0.00000E+00         0.00000E+00        -0.59364E+08
 
   -0.59261E+08         0.11039E+06         0.00000E+00
    0.11039E+06        -0.97588E+08         0.00000E+00
    0.00000E+00         0.00000E+00        -0.59339E+08
 
   -0.59236E+08         0.11526E+06         0.00000E+00
    0.11526E+06        -0.97588E+08         0.00000E+00
    0.00000E+00         0.00000E+00        -0.59313E+08
 
   -0.59211E+08         0.11995E+06         0.00000E+00
    0.11995E+06        -0.97589E+08         0.00000E+00
    0.00000E+00         0.00000E+00        -0.59286E+08
 
   -0.59185E+08         0.12446E+06         0.00000E+00
    0.12446E+06        -0.97589E+08         0.00000E+00
    0.00000E+00         0.00000E+00        -0.59259E+08
 
   -0.59158E+08         0.12884E+06         0.00000E+00
    0.12884E+06        -0.97590E+08         0.00000E+00
    0.00000E+00         0.00000E+00        -0.59231E+08
 
   -0.59130E+08         0.13309E+06         0.00000E+00
    0.13309E+06        -0.97590E+08         0.00000E+00
    0.00000E+00         0.00000E+00        -0.59203E+08
 
   -0.59102E+08         0.13725E+06         0.00000E+00
    0.13725E+06        -0.97590E+08         0.00000E+00
    0.00000E+00         0.00000E+00        -0.59174E+08
 
   -0.59072E+08         0.14133E+06         0.00000E+00
    0.14133E+06        -0.97590E+08         0.00000E+00
    0.00000E+00         0.00000E+00        -0.59144E+08
 
   -0.59042E+08         0.14533E+06         0.00000E+00
    0.14533E+06        -0.97590E+08         0.00000E+00
    0.00000E+00         0.00000E+00        -0.59113E+08
 
   -0.59011E+08         0.14929E+06         0.00000E+00
    0.14929E+06        -0.97591E+08         0.00000E+00
    0.00000E+00         0.00000E+00        -0.59082E+08
 
   -0.58979E+08         0.15321E+06         0.00000E+00
    0.15321E+06        -0.97591E+08         0.00000E+00
    0.00000E+00         0.00000E+00        -0.59051E+08
 
   -0.58947E+08         0.15710E+06         0.00000E+00
    0.15710E+06        -0.97591E+08         0.00000E+00
    0.00000E+00         0.00000E+00        -0.59018E+08
 
   -0.58913E+08         0.16096E+06         0.00000E+00
    0.16096E+06        -0.97591E+08         0.00000E+00
    0.00000E+00         0.00000E+00        -0.58985E+08
 
   -0.58879E+08         0.16481E+06         0.00000E+00
    0.16481E+06        -0.97591E+08         0.00000E+00
    0.00000E+00         0.00000E+00        -0.58951E+08
 
   -0.58844E+08         0.16865E+06         0.00000E+00
    0.16865E+06        -0.97591E+08         0.00000E+00
    0.00000E+00         0.00000E+00        -0.58917E+08
 
   -0.58808E+08         0.17249E+06         0.00000E+00
    0.17249E+06        -0.97591E+08         0.00000E+00
    0.00000E+00         0.00000E+00        -0.58881E+08
 
   -0.58771E+08         0.17633E+06         0.00000E+00
    0.17633E+06        -0.97591E+08         0.00000E+00
    0.00000E+00         0.00000E+00        -0.58845E+08
 
   -0.58734E+08         0.18018E+06         0.00000E+00
    0.18018E+06        -0.97591E+08         0.00000E+00
    0.00000E+00         0.00000E+00        -0.58808E+08
 
   -0.58696E+08         0.18403E+06         0.00000E+00
    0.18403E+06        -0.97591E+08         0.00000E+00
    0.00000E+00         0.00000E+00        -0.58771E+08
 
   -0.58657E+08         0.18789E+06         0.00000E+00
    0.18789E+06        -0.97591E+08         0.00000E+00
    0.00000E+00         0.00000E+00        -0.58732E+08
 
   -0.58617E+08         0.19176E+06         0.00000E+00
    0.19176E+06        -0.97591E+08         0.00000E+00
    0.00000E+00         0.00000E+00        -0.58693E+08
 
   -0.58576E+08         0.19563E+06         0.00000E+00
    0.19563E+06        -0.97591E+08         0.00000E+00
    0.00000E+00         0.00000E+00        -0.58653E+08
 
   -0.58534E+08         0.19952E+06         0.00000E+00
    0.19952E+06        -0.97591E+08         0.00000E+00
    0.00000E+00         0.00000E+00        -0.58612E+08
 
   -0.58492E+08         0.20342E+06         0.00000E+00
    0.20342E+06        -0.97591E+08         0.00000E+00
    0.00000E+00         0.00000E+00        -0.58570E+08
 
   -0.58449E+08         0.20732E+06         0.00000E+00
    0.20732E+06        -0.97591E+08         0.00000E+00
    0.00000E+00         0.00000E+00        -0.58527E+08
 
   -0.58405E+08         0.21123E+06         0.00000E+00
    0.21123E+06        -0.97591E+08         0.00000E+00
    0.00000E+00         0.00000E+00        -0.58484E+08
 
   -0.58360E+08         0.21514E+06         0.00000E+00
    0.21514E+06        -0.97591E+08         0.00000E+00
    0.00000E+00         0.00000E+00        -0.58439E+08
 
   -0.58314E+08         0.21905E+06         0.00000E+00
    0.21905E+06        -0.97591E+08         0.00000E+00
    0.00000E+00         0.00000E+00        -0.58394E+08
 
   -0.58267E+08         0.22295E+06         0.00000E+00
    0.22295E+06        -0.97591E+08         0.00000E+00
    0.00000E+00         0.00000E+00        -0.58347E+08
 
   -0.58219E+08         0.22684E+06         0.00000E+00
    0.22684E+06        -0.97591E+08         0.00000E+00
    0.00000E+00         0.00000E+00        -0.58300E+08
 
   -0.58171E+08         0.23072E+06         0.00000E+00
    0.23072E+06        -0.97591E+08         0.00000E+00
    0.00000E+00         0.00000E+00        -0.58252E+08
 
   -0.58122E+08         0.23458E+06         0.00000E+00
    0.23458E+06        -0.97591E+08         0.00000E+00
    0.00000E+00         0.00000E+00        -0.58203E+08
 
   -0.58071E+08         0.23841E+06         0.00000E+00
    0.23841E+06        -0.97591E+08         0.00000E+00
    0.00000E+00         0.00000E+00        -0.58152E+08
 
   -0.58020E+08         0.24221E+06         0.00000E+00
    0.24221E+06        -0.97591E+08         0.00000E+00
    0.00000E+00         0.00000E+00        -0.58101E+08
 
   -0.57969E+08         0.24596E+06         0.00000E+00
    0.24596E+06        -0.97591E+08         0.00000E+00
    0.00000E+00         0.00000E+00        -0.58049E+08
 
   -0.57916E+08         0.24966E+06         0.00000E+00
    0.24966E+06        -0.97591E+08         0.00000E+00
    0.00000E+00         0.00000E+00        -0.57996E+08
 
   -0.57862E+08         0.25330E+06         0.00000E+00
    0.25330E+06        -0.97592E+08         0.00000E+00
    0.00000E+00         0.00000E+00        -0.57941E+08
 
   -0.57808E+08         0.25687E+06         0.00000E+00
    0.25687E+06        -0.97592E+08         0.00000E+00
    0.00000E+00         0.00000E+00        -0.57886E+08
 
   -0.57753E+08         0.26036E+06         0.00000E+00
    0.26036E+06        -0.97592E+08         0.00000E+00
    0.00000E+00         0.00000E+00        -0.57830E+08
 
   -0.57697E+08         0.26376E+06         0.00000E+00
    0.26376E+06        -0.97592E+08         0.00000E+00
    0.00000E+00         0.00000E+00        -0.57773E+08
 
   -0.57640E+08         0.26705E+06         0.00000E+00
    0.26705E+06        -0.97593E+08         0.00000E+00
    0.00000E+00         0.00000E+00        -0.57714E+08
 
   -0.57582E+08         0.27022E+06         0.00000E+00
    0.27022E+06        -0.97593E+08         0.00000E+00
    0.00000E+00         0.00000E+00        -0.57655E+08
 
   -0.57524E+08         0.27325E+06         0.00000E+00
    0.27325E+06        -0.97593E+08         0.00000E+00
    0.00000E+00         0.00000E+00        -0.57595E+08
 
   -0.57465E+08         0.27613E+06         0.00000E+00
    0.27613E+06        -0.97594E+08         0.00000E+00
    0.00000E+00         0.00000E+00        -0.57534E+08
 
   -0.57405E+08         0.27885E+06         0.00000E+00
    0.27885E+06        -0.97594E+08         0.00000E+00
    0.00000E+00         0.00000E+00        -0.57471E+08
 
   -0.57345E+08         0.28137E+06         0.00000E+00
    0.28137E+06        -0.97595E+08         0.00000E+00
    0.00000E+00         0.00000E+00        -0.57408E+08
 
   -0.57284E+08         0.28369E+06         0.00000E+00
    0.28369E+06        -0.97595E+08         0.00000E+00
    0.00000E+00         0.00000E+00        -0.57344E+08
 
   -0.57222E+08         0.28577E+06         0.00000E+00
    0.28577E+06        -0.97596E+08         0.00000E+00
    0.00000E+00         0.00000E+00        -0.57279E+08
 
   -0.57160E+08         0.28760E+06         0.00000E+00
    0.28760E+06        -0.97596E+08         0.00000E+00
    0.00000E+00         0.00000E+00        -0.57213E+08
 
   -0.57097E+08         0.28915E+06         0.00000E+00
    0.28915E+06        -0.97597E+08         0.00000E+00
    0.00000E+00         0.00000E+00        -0.57145E+08
 
   -0.57034E+08         0.29038E+06         0.00000E+00
    0.29038E+06        -0.97598E+08         0.00000E+00
    0.00000E+00         0.00000E+00        -0.57078E+08
 
   -0.56970E+08         0.29128E+06         0.00000E+00
    0.29128E+06        -0.97599E+08         0.00000E+00
    0.00000E+00         0.00000E+00        -0.57009E+08
 
   -0.56906E+08         0.29179E+06         0.00000E+00
    0.29179E+06        -0.97600E+08         0.00000E+00
    0.00000E+00         0.00000E+00        -0.56939E+08
 
   -0.56842E+08         0.29190E+06         0.00000E+00
    0.29190E+06        -0.97601E+08         0.00000E+00
    0.00000E+00         0.00000E+00        -0.56869E+08
 
   -0.56778E+08         0.29154E+06         0.00000E+00
    0.29154E+06        -0.97602E+08         0.00000E+00
    0.00000E+00         0.00000E+00        -0.56797E+08
 
   -0.56714E+08         0.29068E+06         0.00000E+00
    0.29068E+06        -0.97603E+08         0.00000E+00
    0.00000E+00         0.00000E+00        -0.56725E+08
 
   -0.56649E+08         0.28927E+06         0.00000E+00
    0.28927E+06        -0.97605E+08         0.00000E+00
    0.00000E+00         0.00000E+00        -0.56653E+08
 
   -0.56585E+08         0.28724E+06         0.00000E+00
    0.28724E+06        -0.97606E+08         0.00000E+00
    0.00000E+00         0.00000E+00        -0.56579E+08
 
   -0.56521E+08         0.28453E+06         0.00000E+00
    0.28453E+06        -0.97608E+08         0.00000E+00
    0.00000E+00         0.00000E+00        -0.56505E+08
 
   -0.56457E+08         0.28107E+06         0.00000E+00
    0.28107E+06        -0.97610E+08         0.00000E+00
    0.00000E+00         0.00000E+00        -0.56431E+08
 
   -0.56394E+08         0.27678E+06         0.00000E+00
    0.27678E+06        -0.97612E+08         0.00000E+00
    0.00000E+00         0.00000E+00        -0.56356E+08
 
   -0.56331E+08         0.27156E+06         0.00000E+00
    0.27156E+06        -0.97615E+08         0.00000E+00
    0.00000E+00         0.00000E+00        -0.56281E+08
 
   -0.56269E+08         0.26532E+06         0.00000E+00
    0.26532E+06        -0.97618E+08         0.00000E+00
    0.00000E+00         0.00000E+00        -0.56205E+08
 
   -0.56208E+08         0.25796E+06         0.00000E+00
    0.25796E+06        -0.97621E+08         0.00000E+00
    0.00000E+00         0.00000E+00        -0.56129E+08
 
   -0.56148E+08         0.24935E+06         0.00000E+00
    0.24935E+06        -0.97625E+08         0.00000E+00
    0.00000E+00         0.00000E+00        -0.56053E+08
 
   -0.56088E+08         0.23937E+06         0.00000E+00
    0.23937E+06        -0.97629E+08         0.00000E+00
    0.00000E+00         0.00000E+00        -0.55977E+08
 
   -0.56030E+08         0.22790E+06         0.00000E+00
    0.22790E+06        -0.97633E+08         0.00000E+00
    0.00000E+00         0.00000E+00        -0.55900E+08
 
   -0.55973E+08         0.21483E+06         0.00000E+00
    0.21483E+06        -0.97638E+08         0.00000E+00
    0.00000E+00         0.00000E+00        -0.55824E+08
 
   -0.55918E+08         0.20005E+06         0.00000E+00
    0.20005E+06        -0.97644E+08         0.00000E+00
    0.00000E+00         0.00000E+00        -0.55748E+08
 
   -0.55864E+08         0.18348E+06         0.00000E+00
    0.18348E+06        -0.97649E+08         0.00000E+00
    0.00000E+00         0.00000E+00        -0.55671E+08
 
   -0.55812E+08         0.16509E+06         0.00000E+00
    0.16509E+06        -0.97655E+08         0.00000E+00
    0.00000E+00         0.00000E+00        -0.55595E+08
 
   -0.55762E+08         0.14492E+06         0.00000E+00
    0.14492E+06        -0.97660E+08         0.00000E+00
    0.00000E+00         0.00000E+00        -0.55519E+08
 
   -0.55713E+08         0.12312E+06         0.00000E+00
    0.12312E+06        -0.97665E+08         0.00000E+00
    0.00000E+00         0.00000E+00        -0.55443E+08
 
   -0.55667E+08         0.10002E+06         0.00000E+00
    0.10002E+06        -0.97669E+08         0.00000E+00
    0.00000E+00         0.00000E+00        -0.55367E+08
 
   -0.55622E+08         0.76151E+05         0.00000E+00
    0.76151E+05        -0.97671E+08         0.00000E+00
    0.00000E+00         0.00000E+00        -0.55291E+08
 
   -0.55580E+08         0.52364E+05         0.00000E+00
    0.52364E+05        -0.97670E+08         0.00000E+00
    0.00000E+00         0.00000E+00        -0.55214E+08
 
   -0.55541E+08         0.29909E+05         0.00000E+00
    0.29909E+05        -0.97664E+08         0.00000E+00
    0.00000E+00         0.00000E+00        -0.55136E+08
 
   -0.55505E+08         0.10479E+05         0.00000E+00
    0.10479E+05        -0.97652E+08         0.00000E+00
    0.00000E+00         0.00000E+00        -0.55058E+08
 
   -0.55473E+08        -0.38978E+04         0.00000E+00
   -0.38978E+04        -0.97632E+08         0.00000E+00
    0.00000E+00         0.00000E+00        -0.54977E+08
 
   -0.55446E+08        -0.11340E+05         0.00000E+00
   -0.11340E+05        -0.97599E+08         0.00000E+00
    0.00000E+00         0.00000E+00        -0.54895E+08
 
   -0.55426E+08        -0.11073E+05         0.00000E+00
   -0.11073E+05        -0.97550E+08         0.00000E+00
    0.00000E+00         0.00000E+00        -0.54809E+08
 
   -0.55415E+08        -0.45119E+04         0.00000E+00
   -0.45119E+04        -0.97480E+08         0.00000E+00
    0.00000E+00         0.00000E+00        -0.54721E+08
 
   -0.59524E+08        -0.28695E+03         0.00000E+00
   -0.28695E+03        -0.97624E+08         0.00000E+00
    0.00000E+00         0.00000E+00        -0.59736E+08
 
   -0.59521E+08        -0.20618E+03         0.00000E+00
   -0.20618E+03        -0.97607E+08         0.00000E+00
    0.00000E+00         0.00000E+00        -0.59714E+08
 
   -0.59515E+08         0.15466E+04         0.00000E+00
    0.15466E+04        -0.97595E+08         0.00000E+00
    0.00000E+00         0.00000E+00        -0.59692E+08
 
   -0.59508E+08         0.53300E+04         0.00000E+00
    0.53300E+04        -0.97587E+08         0.00000E+00
    0.00000E+00         0.00000E+00        -0.59671E+08
 
   -0.59499E+08         0.10922E+05         0.00000E+00
    0.10922E+05        -0.97582E+08         0.00000E+00
    0.00000E+00         0.00000E+00        -0.59651E+08
 
   -0.59488E+08         0.17825E+05         0.00000E+00
    0.17825E+05        -0.97580E+08         0.00000E+00
    0.00000E+00         0.00000E+00        -0.59630E+08
 
   -0.59476E+08         0.25517E+05         0.00000E+00
    0.25517E+05        -0.97578E+08         0.00000E+00
    0.00000E+00         0.00000E+00        -0.59610E+08
 
   -0.59464E+08         0.33571E+05         0.00000E+00
    0.33571E+05        -0.97578E+08         0.00000E+00
    0.00000E+00         0.00000E+00        -0.59590E+08
 
   -0.59450E+08         0.41678E+05         0.00000E+00
    0.41678E+05        -0.97579E+08         0.00000E+00
    0.00000E+00         0.00000E+00        -0.59569E+08
 
   -0.59435E+08         0.49629E+05         0.00000E+00
    0.49629E+05        -0.97580E+08         0.00000E+00
    0.00000E+00         0.00000E+00        -0.59548E+08
 
   -0.59419E+08         0.57297E+05         0.00000E+00
    0.57297E+05        -0.97581E+08         0.00000E+00
    0.00000E+00         0.00000E+00        -0.59527E+08
 
   -0.59403E+08         0.64608E+05         0.00000E+00
    0.64608E+05        -0.97582E+08         0.00000E+00
    0.00000E+00         0.00000E+00        -0.59505E+08
 
   -0.59385E+08         0.71531E+05         0.00000E+00
    0.71531E+05        -0.97583E+08         0.00000E+00
    0.00000E+00         0.00000E+00        -0.59483E+08
 
   -0.59366E+08         0.78062E+05         0.00000E+00
    0.78062E+05        -0.97584E+08         0.00000E+00
    0.00000E+00         0.00000E+00        -0.59460E+08
 
   -0.59346E+08         0.84215E+05         0.00000E+00
    0.84215E+05        -0.97585E+08         0.00000E+00
    0.00000E+00         0.00000E+00        -0.59437E+08
 
   -0.59326E+08         0.90013E+05         0.00000E+00
    0.90013E+05        -0.97586E+08         0.00000E+00
    0.00000E+00         0.00000E+00        -0.59413E+08
 
   -0.59304E+08         0.95488E+05         0.00000E+00
    0.95488E+05        -0.97587E+08         0.00000E+00
    0.00000E+00         0.00000E+00        -0.59389E+08
 
   -0.59281E+08         0.10067E+06         0.00000E+00
    0.10067E+06        -0.97588E+08         0.00000E+00
    0.00000E+00         0.00000E+00        -0.59364E+08
 
   -0.59258E+08         0.10560E+06         0.00000E+00
    0.10560E+06        -0.97589E+08         0.00000E+00
    0.00000E+00         0.00000E+00        -0.59338E+08
 
   -0.59234E+08         0.11031E+06         0.00000E+00
    0.11031E+06        -0.97589E+08         0.00000E+00
    0.00000E+00         0.00000E+00        -0.59312E+08
 
   -0.59208E+08         0.11482E+06         0.00000E+00
    0.11482E+06        -0.97590E+08         0.00000E+00
    0.00000E+00         0.00000E+00        -0.59286E+08
 
   -0.59182E+08         0.11916E+06         0.00000E+00
    0.11916E+06        -0.97590E+08         0.00000E+00
    0.00000E+00         0.00000E+00        -0.59258E+08
 
   -0.59155E+08         0.12337E+06         0.00000E+00
    0.12337E+06        -0.97590E+08         0.00000E+00
    0.00000E+00         0.00000E+00        -0.59230E+08
 
   -0.59128E+08         0.12746E+06         0.00000E+00
    0.12746E+06        -0.97591E+08         0.00000E+00
    0.00000E+00         0.00000E+00        -0.59202E+08
 
   -0.59099E+08         0.13145E+06         0.00000E+00
    0.13145E+06        -0.97591E+08         0.00000E+00
    0.00000E+00         0.00000E+00        -0.59173E+08
 
   -0.59070E+08         0.13536E+06         0.00000E+00
    0.13536E+06        -0.97591E+08         0.00000E+00
    0.00000E+00         0.00000E+00        -0.59143E+08
 
   -0.59039E+08         0.13921E+06         0.00000E+00
    0.13921E+06        -0.97591E+08         0.00000E+00
    0.00000E+00         0.00000E+00        -0.59113E+08
 
   -0.59008E+08         0.14300E+06         0.00000E+00
    0.14300E+06        -0.97591E+08         0.00000E+00
    0.00000E+00         0.00000E+00        -0.59082E+08
 
   -0.58976E+08         0.14676E+06         0.00000E+00
    0.14676E+06        -0.97591E+08         0.00000E+00
    0.00000E+00         0.00000E+00        -0.59050E+08
 
   -0.58944E+08         0.15049E+06         0.00000E+00
    0.15049E+06        -0.97592E+08         0.00000E+00
    0.00000E+00         0.00000E+00        -0.59018E+08
 
   -0.58910E+08         0.15419E+06         0.00000E+00
    0.15419E+06        -0.97592E+08         0.00000E+00
    0.00000E+00         0.00000E+00        -0.58984E+08
 
   -0.58876E+08         0.15788E+06         0.00000E+00
    0.15788E+06        -0.97592E+08         0.00000E+00
    0.00000E+00         0.00000E+00        -0.58951E+08
 
   -0.58841E+08         0.16156E+06         0.00000E+00
    0.16156E+06        -0.97592E+08         0.00000E+00
    0.00000E+00         0.00000E+00        -0.58916E+08
 
   -0.58805E+08         0.16524E+06         0.00000E+00
    0.16524E+06        -0.97592E+08         0.00000E+00
    0.00000E+00         0.00000E+00        -0.58881E+08
 
   -0.58768E+08         0.16892E+06         0.00000E+00
    0.16892E+06        -0.97592E+08         0.00000E+00
    0.00000E+00         0.00000E+00        -0.58845E+08
 
   -0.58731E+08         0.17260E+06         0.00000E+00
    0.17260E+06        -0.97592E+08         0.00000E+00
    0.00000E+00         0.00000E+00        -0.58808E+08
 
   -0.58693E+08         0.17629E+06         0.00000E+00
    0.17629E+06        -0.97592E+08         0.00000E+00
    0.00000E+00         0.00000E+00        -0.58770E+08
 
   -0.58654E+08         0.17998E+06         0.00000E+00
    0.17998E+06        -0.97592E+08         0.00000E+00
    0.00000E+00         0.00000E+00        -0.58732E+08
 
   -0.58614E+08         0.18368E+06         0.00000E+00
    0.18368E+06        -0.97592E+08         0.00000E+00
    0.00000E+00         0.00000E+00        -0.58692E+08
 
   -0.58573E+08         0.18740E+06         0.00000E+00
    0.18740E+06        -0.97592E+08         0.00000E+00
    0.00000E+00         0.00000E+00        -0.58652E+08
 
   -0.58531E+08         0.19112E+06         0.00000E+00
    0.19112E+06        -0.97592E+08         0.00000E+00
    0.00000E+00         0.00000E+00        -0.58611E+08
 
   -0.58489E+08         0.19484E+06         0.00000E+00
    0.19484E+06        -0.97592E+08         0.00000E+00
    0.00000E+00         0.00000E+00        -0.58569E+08
 
   -0.58445E+08         0.19858E+06         0.00000E+00
    0.19858E+06        -0.97592E+08         0.00000E+00
    0.00000E+00         0.00000E+00        -0.58527E+08
 
   -0.58401E+08         0.20231E+06         0.00000E+00
    0.20231E+06        -0.97592E+08         0.00000E+00
    0.00000E+00         0.00000E+00        -0.58483E+08
 
   -0.58356E+08         0.20605E+06         0.00000E+00
    0.20605E+06        -0.97592E+08         0.00000E+00
    0.00000E+00         0.00000E+00        -0.58438E+08
 
   -0.58310E+08         0.20979E+06         0.00000E+00
    0.20979E+06        -0.97592E+08         0.00000E+00
    0.00000E+00         0.00000E+00        -0.58393E+08
 
   -0.58264E+08         0.21352E+06         0.00000E+00
    0.21352E+06        -0.97592E+08         0.00000E+00
    0.00000E+00         0.00000E+00        -0.58347E+08
 
   -0.58216E+08         0.21724E+06         0.00000E+00
    0.21724E+06        -0.97592E+08         0.00000E+00
    0.00000E+00         0.00000E+00        -0.58299E+08
 
   -0.58168E+08         0.22095E+06         0.00000E+00
    0.22095E+06        -0.97592E+08         0.00000E+00
    0.00000E+00         0.00000E+00        -0.58251E+08
 
   -0.58118E+08         0.22463E+06         0.00000E+00
    0.22463E+06        -0.97592E+08         0.00000E+00
    0.00000E+00         0.00000E+00        -0.58202E+08
 
   -0.58068E+08         0.22829E+06         0.00000E+00
    0.22829E+06        -0.97592E+08         0.00000E+00
    0.00000E+00         0.00000E+00        -0.58151E+08
 
   -0.58017E+08         0.23192E+06         0.00000E+00
    0.23192E+06        -0.97592E+08         0.00000E+00
    0.00000E+00         0.00000E+00        -0.58100E+08
 
   -0.57965E+08         0.23550E+06         0.00000E+00
    0.23550E+06        -0.97592E+08         0.00000E+00
    0.00000E+00         0.00000E+00        -0.58048E+08
 
   -0.57912E+08         0.23903E+06         0.00000E+00
    0.23903E+06        -0.97592E+08         0.00000E+00
    0.00000E+00         0.00000E+00        -0.57995E+08
 
   -0.57859E+08         0.24251E+06         0.00000E+00
    0.24251E+06        -0.97592E+08         0.00000E+00
    0.00000E+00         0.00000E+00        -0.57941E+08
 
   -0.57805E+08         0.24591E+06         0.00000E+00
    0.24591E+06        -0.97593E+08         0.00000E+00
    0.00000E+00         0.00000E+00        -0.57885E+08
 
   -0.57749E+08         0.24924E+06         0.00000E+00
    0.24924E+06        -0.97593E+08         0.00000E+00
    0.00000E+00         0.00000E+00        -0.57829E+08
 
   -0.57693E+08         0.25248E+06         0.00000E+00
    0.25248E+06        -0.97593E+08         0.00000E+00
    0.00000E+00         0.00000E+00        -0.57772E+08
 
   -0.57637E+08         0.25561E+06         0.00000E+00
    0.25561E+06        -0.97593E+08         0.00000E+00
    0.00000E+00         0.00000E+00        -0.57714E+08
 
   -0.57579E+08         0.25863E+06         0.00000E+00
    0.25863E+06        -0.97593E+08         0.00000E+00
    0.00000E+00         0.00000E+00        -0.57654E+08
 
   -0.57521E+08         0.26152E+06         0.00000E+00
    0.26152E+06        -0.97594E+08         0.00000E+00
    0.00000E+00         0.00000E+00        -0.57594E+08
 
   -0.57462E+08         0.26426E+06         0.00000E+00
    0.26426E+06        -0.97594E+08         0.00000E+00
    0.00000E+00         0.00000E+00        -0.57533E+08
 
   -0.57402E+08         0.26683E+06         0.00000E+00
    0.26683E+06        -0.97595E+08         0.00000E+00
    0.00000E+00         0.00000E+00        -0.57471E+08
 
   -0.57342E+08         0.26923E+06         0.00000E+00
    0.26923E+06        -0.97595E+08         0.00000E+00
    0.00000E+00         0.00000E+00        -0.57407E+08
 
   -0.57281E+08         0.27142E+06         0.00000E+00
    0.27142E+06        -0.97596E+08         0.00000E+00
    0.00000E+00         0.00000E+00        -0.57343E+08
 
   -0.57219E+08         0.27339E+06         0.00000E+00
    0.27339E+06        -0.97596E+08         0.00000E+00
    0.00000E+00         0.00000E+00        -0.57278E+08
 
   -0.57157E+08         0.27512E+06         0.00000E+00
    0.27512E+06        -0.97597E+08         0.00000E+00
    0.00000E+00         0.00000E+00        -0.57212E+08
 
   -0.57095E+08         0.27657E+06         0.00000E+00
    0.27657E+06        -0.97597E+08         0.00000E+00
    0.00000E+00         0.00000E+00        -0.57145E+08
 
   -0.57032E+08         0.27773E+06         0.00000E+00
    0.27773E+06        -0.97598E+08         0.00000E+00
    0.00000E+00         0.00000E+00        -0.57077E+08
 
   -0.56968E+08         0.27855E+06         0.00000E+00
    0.27855E+06        -0.97599E+08         0.00000E+00
    0.00000E+00         0.00000E+00        -0.57008E+08
 
   -0.56905E+08         0.27902E+06         0.00000E+00
    0.27902E+06        -0.97600E+08         0.00000E+00
    0.00000E+00         0.00000E+00        -0.56939E+08
 
   -0.56841E+08         0.27908E+06         0.00000E+00
    0.27908E+06        -0.97601E+08         0.00000E+00
    0.00000E+00         0.00000E+00        -0.56868E+08
 
   -0.56777E+08         0.27870E+06         0.00000E+00
    0.27870E+06        -0.97602E+08         0.00000E+00
    0.00000E+00         0.00000E+00        -0.56797E+08
 
   -0.56713E+08         0.27784E+06         0.00000E+00
    0.27784E+06        -0.97603E+08         0.00000E+00
    0.00000E+00         0.00000E+00        -0.56725E+08
 
   -0.56649E+08         0.27644E+06         0.00000E+00
    0.27644E+06        -0.97604E+08         0.00000E+00
    0.00000E+00         0.00000E+00        -0.56652E+08
 
   -0.56585E+08         0.27444E+06         0.00000E+00
    0.27444E+06        -0.97606E+08         0.00000E+00
    0.00000E+00         0.00000E+00        -0.56579E+08
 
   -0.56521E+08         0.27179E+06         0.00000E+00
    0.27179E+06        -0.97608E+08         0.00000E+00
    0.00000E+00         0.00000E+00        -0.56505E+08
 
   -0.56458E+08         0.26840E+06         0.00000E+00
    0.26840E+06        -0.97609E+08         0.00000E+00
    0.00000E+00         0.00000E+00        -0.56431E+08
 
   -0.56395E+08         0.26421E+06         0.00000E+00
    0.26421E+06        -0.97612E+08         0.00000E+00
    0.00000E+00         0.00000E+00        -0.56356E+08
 
   -0.56332E+08         0.25913E+06         0.00000E+00
    0.25913E+06        -0.97614E+08         0.00000E+00
    0.00000E+00         0.00000E+00        -0.56281E+08
 
   -0.56271E+08         0.25304E+06         0.00000E+00
    0.25304E+06        -0.97617E+08         0.00000E+00
    0.00000E+00         0.00000E+00        -0.56205E+08
 
   -0.56210E+08         0.24585E+06         0.00000E+00
    0.24585E+06        -0.97620E+08         0.00000E+00
    0.00000E+00         0.00000E+00        -0.56129E+08
 
   -0.56150E+08         0.23745E+06         0.00000E+00
    0.23745E+06        -0.97623E+08         0.00000E+00
    0.00000E+00         0.00000E+00        -0.56053E+08
 
   -0.56092E+08         0.22771E+06         0.00000E+00
    0.22771E+06        -0.97627E+08         0.00000E+00
    0.00000E+00         0.00000E+00        -0.55977E+08
 
   -0.56035E+08         0.21650E+06         0.00000E+00
    0.21650E+06        -0.97631E+08         0.00000E+00
    0.00000E+00         0.00000E+00        -0.55901E+08
 
   -0.55979E+08         0.20372E+06         0.00000E+00
    0.20372E+06        -0.97636E+08         0.00000E+00
    0.00000E+00         0.00000E+00        -0.55825E+08
 
   -0.55925E+08         0.18924E+06         0.00000E+00
    0.18924E+06        -0.97640E+08         0.00000E+00
    0.00000E+00         0.00000E+00        -0.55749E+08
 
   -0.55872E+08         0.17301E+06         0.00000E+00
    0.17301E+06        -0.97646E+08         0.00000E+00
    0.00000E+00         0.00000E+00        -0.55673E+08
 
   -0.55821E+08         0.15497E+06         0.00000E+00
    0.15497E+06        -0.97651E+08         0.00000E+00
    0.00000E+00         0.00000E+00        -0.55597E+08
 
   -0.55772E+08         0.13518E+06         0.00000E+00
    0.13518E+06        -0.97656E+08         0.00000E+00
    0.00000E+00         0.00000E+00        -0.55521E+08
 
   -0.55725E+08         0.11379E+06         0.00000E+00
    0.11379E+06        -0.97661E+08         0.00000E+00
    0.00000E+00         0.00000E+00        -0.55445E+08
 
   -0.55681E+08         0.91111E+05         0.00000E+00
    0.91111E+05        -0.97664E+08         0.00000E+00
    0.00000E+00         0.00000E+00        -0.55370E+08
 
   -0.55638E+08         0.67699E+05         0.00000E+00
    0.67699E+05        -0.97666E+08         0.00000E+00
    0.00000E+00         0.00000E+00        -0.55294E+08
 
   -0.55598E+08         0.44414E+05         0.00000E+00
    0.44414E+05        -0.97665E+08         0.00000E+00
    0.00000E+00         0.00000E+00        -0.55218E+08
 
   -0.55561E+08         0.22525E+05         0.00000E+00
    0.22525E+05        -0.97660E+08         0.00000E+00
    0.00000E+00         0.00000E+00        -0.55141E+08
 
   -0.55527E+08         0.37643E+04         0.00000E+00
    0.37643E+04        -0.97649E+08         0.00000E+00
    0.00000E+00         0.00000E+00        -0.55063E+08
 
   -0.55496E+08        -0.97599E+04         0.00000E+00
   -0.97599E+04        -0.97630E+08         0.00000E+00
    0.00000E+00         0.00000E+00        -0.54984E+08
 
   -0.55470E+08        -0.16039E+05         0.00000E+00
   -0.16039E+05        -0.97598E+08         0.00000E+00
    0.00000E+00         0.00000E+00        -0.54902E+08
 
   -0.55451E+08        -0.14178E+05         0.00000E+00
   -0.14178E+05        -0.97551E+08         0.00000E+00
    0.00000E+00         0.00000E+00        -0.54817E+08
 
   -0.55441E+08        -0.56064E+04         0.00000E+00
   -0.56064E+04        -0.97482E+08         0.00000E+00
    0.00000E+00         0.00000E+00        -0.54729E+08
 
   -0.59516E+08        -0.59425E+03         0.00000E+00
   -0.59425E+03        -0.97624E+08         0.00000E+00
    0.00000E+00         0.00000E+00        -0.59734E+08
 
   -0.59513E+08        -0.10779E+04         0.00000E+00
   -0.10779E+04        -0.97607E+08         0.00000E+00
    0.00000E+00         0.00000E+00        -0.59711E+08
 
   -0.59508E+08         0.22434E+03         0.00000E+00
    0.22434E+03        -0.97596E+08         0.00000E+00
    0.00000E+00         0.00000E+00        -0.59690E+08
 
   -0.59501E+08         0.36670E+04         0.00000E+00
    0.36670E+04        -0.97588E+08         0.00000E+00
    0.00000E+00         0.00000E+00        -0.59669E+08
 
   -0.59492E+08         0.89886E+04         0.00000E+00
    0.89886E+04        -0.97584E+08         0.00000E+00
    0.00000E+00         0.00000E+00        -0.59649E+08
 
   -0.59482E+08         0.15655E+05         0.00000E+00
    0.15655E+05        -0.97581E+08         0.00000E+00
    0.00000E+00         0.00000E+00        -0.59629E+08
 
   -0.59471E+08         0.23124E+05         0.00000E+00
    0.23124E+05        -0.97580E+08         0.00000E+00
    0.00000E+00         0.00000E+00        -0.59609E+08
 
   -0.59458E+08         0.30963E+05         0.00000E+00
    0.30963E+05        -0.97580E+08         0.00000E+00
    0.00000E+00         0.00000E+00        -0.59589E+08
 
   -0.59445E+08         0.38859E+05         0.00000E+00
    0.38859E+05        -0.97580E+08         0.00000E+00
    0.00000E+00         0.00000E+00        -0.59568E+08
 
   -0.59431E+08         0.46603E+05         0.00000E+00
    0.46603E+05        -0.97581E+08         0.00000E+00
    0.00000E+00         0.00000E+00        -0.59547E+08
 
   -0.59415E+08         0.54066E+05         0.00000E+00
    0.54066E+05        -0.97582E+08         0.00000E+00
    0.00000E+00         0.00000E+00        -0.59526E+08
 
   -0.59399E+08         0.61174E+05         0.00000E+00
    0.61174E+05        -0.97583E+08         0.00000E+00
    0.00000E+00         0.00000E+00        -0.59504E+08
 
   -0.59381E+08         0.67898E+05         0.00000E+00
    0.67898E+05        -0.97584E+08         0.00000E+00
    0.00000E+00         0.00000E+00        -0.59482E+08
 
   -0.59362E+08         0.74232E+05         0.00000E+00
    0.74232E+05        -0.97585E+08         0.00000E+00
    0.00000E+00         0.00000E+00        -0.59459E+08
 
   -0.59343E+08         0.80190E+05         0.00000E+00
    0.80190E+05        -0.97586E+08         0.00000E+00
    0.00000E+00         0.00000E+00        -0.59436E+08
 
   -0.59322E+08         0.85797E+05         0.00000E+00
    0.85797E+05        -0.97587E+08         0.00000E+00
    0.00000E+00         0.00000E+00        -0.59412E+08
 
   -0.59301E+08         0.91083E+05         0.00000E+00
    0.91083E+05        -0.97588E+08         0.00000E+00
    0.00000E+00         0.00000E+00        -0.59388E+08
 
   -0.59278E+08         0.96083E+05         0.00000E+00
    0.96083E+05        -0.97589E+08         0.00000E+00
    0.00000E+00         0.00000E+00        -0.59363E+08
 
   -0.59255E+08         0.10083E+06         0.00000E+00
    0.10083E+06        -0.97590E+08         0.00000E+00
    0.00000E+00         0.00000E+00        -0.59338E+08
 
   -0.59231E+08         0.10536E+06         0.00000E+00
    0.10536E+06        -0.97590E+08         0.00000E+00
    0.00000E+00         0.00000E+00        -0.59312E+08
 
   -0.59206E+08         0.10969E+06         0.00000E+00
    0.10969E+06        -0.97591E+08         0.00000E+00
    0.00000E+00         0.00000E+00        -0.59285E+08
 
   -0.59180E+08         0.11386E+06         0.00000E+00
    0.11386E+06        -0.97591E+08         0.00000E+00
    0.00000E+00         0.00000E+00        -0.59258E+08
 
   -0.59153E+08         0.11790E+06         0.00000E+00
    0.11790E+06        -0.97591E+08         0.00000E+00
    0.00000E+00         0.00000E+00        -0.59230E+08
 
   -0.59125E+08         0.12182E+06         0.00000E+00
    0.12182E+06        -0.97591E+08         0.00000E+00
    0.00000E+00         0.00000E+00        -0.59201E+08
 
   -0.59096E+08         0.12565E+06         0.00000E+00
    0.12565E+06        -0.97592E+08         0.00000E+00
    0.00000E+00         0.00000E+00        -0.59172E+08
 
   -0.59067E+08         0.12939E+06         0.00000E+00
    0.12939E+06        -0.97592E+08         0.00000E+00
    0.00000E+00         0.00000E+00        -0.59143E+08
 
   -0.59037E+08         0.13308E+06         0.00000E+00
    0.13308E+06        -0.97592E+08         0.00000E+00
    0.00000E+00         0.00000E+00        -0.59112E+08
 
   -0.59006E+08         0.13671E+06         0.00000E+00
    0.13671E+06        -0.97592E+08         0.00000E+00
    0.00000E+00         0.00000E+00        -0.59081E+08
 
   -0.58974E+08         0.14031E+06         0.00000E+00
    0.14031E+06        -0.97592E+08         0.00000E+00
    0.00000E+00         0.00000E+00        -0.59049E+08
 
   -0.58941E+08         0.14387E+06         0.00000E+00
    0.14387E+06        -0.97592E+08         0.00000E+00
    0.00000E+00         0.00000E+00        -0.59017E+08
 
   -0.58908E+08         0.14742E+06         0.00000E+00
    0.14742E+06        -0.97592E+08         0.00000E+00
    0.00000E+00         0.00000E+00        -0.58984E+08
 
   -0.58873E+08         0.15095E+06         0.00000E+00
    0.15095E+06        -0.97592E+08         0.00000E+00
    0.00000E+00         0.00000E+00        -0.58950E+08
 
   -0.58838E+08         0.15447E+06         0.00000E+00
    0.15447E+06        -0.97592E+08         0.00000E+00
    0.00000E+00         0.00000E+00        -0.58915E+08
 
   -0.58802E+08         0.15798E+06         0.00000E+00
    0.15798E+06        -0.97592E+08         0.00000E+00
    0.00000E+00         0.00000E+00        -0.58880E+08
 
   -0.58766E+08         0.16150E+06         0.00000E+00
    0.16150E+06        -0.97592E+08         0.00000E+00
    0.00000E+00         0.00000E+00        -0.58844E+08
 
   -0.58728E+08         0.16502E+06         0.00000E+00
    0.16502E+06        -0.97592E+08         0.00000E+00
    0.00000E+00         0.00000E+00        -0.58807E+08
 
   -0.58690E+08         0.16854E+06         0.00000E+00
    0.16854E+06        -0.97592E+08         0.00000E+00
    0.00000E+00         0.00000E+00        -0.58769E+08
 
   -0.58650E+08         0.17207E+06         0.00000E+00
    0.17207E+06        -0.97592E+08         0.00000E+00
    0.00000E+00         0.00000E+00        -0.58731E+08
 
   -0.58610E+08         0.17561E+06         0.00000E+00
    0.17561E+06        -0.97592E+08         0.00000E+00
    0.00000E+00         0.00000E+00        -0.58692E+08
 
   -0.58570E+08         0.17915E+06         0.00000E+00
    0.17915E+06        -0.97592E+08         0.00000E+00
    0.00000E+00         0.00000E+00        -0.58651E+08
 
   -0.58528E+08         0.18270E+06         0.00000E+00
    0.18270E+06        -0.97592E+08         0.00000E+00
    0.00000E+00         0.00000E+00        -0.58610E+08
 
   -0.58485E+08         0.18626E+06         0.00000E+00
    0.18626E+06        -0.97592E+08         0.00000E+00
    0.00000E+00         0.00000E+00        -0.58569E+08
 
   -0.58442E+08         0.18983E+06         0.00000E+00
    0.18983E+06        -0.97592E+08         0.00000E+00
    0.00000E+00         0.00000E+00        -0.58526E+08
 
   -0.58398E+08         0.19339E+06         0.00000E+00
    0.19339E+06        -0.97592E+08         0.00000E+00
    0.00000E+00         0.00000E+00        -0.58482E+08
 
   -0.58353E+08         0.19696E+06         0.00000E+00
    0.19696E+06        -0.97592E+08         0.00000E+00
    0.00000E+00         0.00000E+00        -0.58438E+08
 
   -0.58307E+08         0.20053E+06         0.00000E+00
    0.20053E+06        -0.97592E+08         0.00000E+00
    0.00000E+00         0.00000E+00        -0.58392E+08
 
   -0.58260E+08         0.20409E+06         0.00000E+00
    0.20409E+06        -0.97592E+08         0.00000E+00
    0.00000E+00         0.00000E+00        -0.58346E+08
 
   -0.58213E+08         0.20764E+06         0.00000E+00
    0.20764E+06        -0.97592E+08         0.00000E+00
    0.00000E+00         0.00000E+00        -0.58298E+08
 
   -0.58164E+08         0.21117E+06         0.00000E+00
    0.21117E+06        -0.97592E+08         0.00000E+00
    0.00000E+00         0.00000E+00        -0.58250E+08
 
   -0.58115E+08         0.21468E+06         0.00000E+00
    0.21468E+06        -0.97592E+08         0.00000E+00
    0.00000E+00         0.00000E+00        -0.58201E+08
 
   -0.58065E+08         0.21817E+06         0.00000E+00
    0.21817E+06        -0.97593E+08         0.00000E+00
    0.00000E+00         0.00000E+00        -0.58151E+08
 
   -0.58014E+08         0.22163E+06         0.00000E+00
    0.22163E+06        -0.97593E+08         0.00000E+00
    0.00000E+00         0.00000E+00        -0.58099E+08
 
   -0.57962E+08         0.22504E+06         0.00000E+00
    0.22504E+06        -0.97593E+08         0.00000E+00
    0.00000E+00         0.00000E+00        -0.58047E+08
 
   -0.57909E+08         0.22841E+06         0.00000E+00
    0.22841E+06        -0.97593E+08         0.00000E+00
    0.00000E+00         0.00000E+00        -0.57994E+08
 
   -0.57856E+08         0.23172E+06         0.00000E+00
    0.23172E+06        -0.97593E+08         0.00000E+00
    0.00000E+00         0.00000E+00        -0.57940E+08
 
   -0.57801E+08         0.23496E+06         0.00000E+00
    0.23496E+06        -0.97593E+08         0.00000E+00
    0.00000E+00         0.00000E+00        -0.57885E+08
 
   -0.57746E+08         0.23813E+06         0.00000E+00
    0.23813E+06        -0.97593E+08         0.00000E+00
    0.00000E+00         0.00000E+00        -0.57828E+08
 
   -0.57690E+08         0.24121E+06         0.00000E+00
    0.24121E+06        -0.97594E+08         0.00000E+00
    0.00000E+00         0.00000E+00        -0.57771E+08
 
   -0.57633E+08         0.24419E+06         0.00000E+00
    0.24419E+06        -0.97594E+08         0.00000E+00
    0.00000E+00         0.00000E+00        -0.57713E+08
 
   -0.57576E+08         0.24705E+06         0.00000E+00
    0.24705E+06        -0.97594E+08         0.00000E+00
    0.00000E+00         0.00000E+00        -0.57654E+08
 
   -0.57518E+08         0.24980E+06         0.00000E+00
    0.24980E+06        -0.97594E+08         0.00000E+00
    0.00000E+00         0.00000E+00        -0.57593E+08
 
   -0.57459E+08         0.25240E+06         0.00000E+00
    0.25240E+06        -0.97595E+08         0.00000E+00
    0.00000E+00         0.00000E+00        -0.57532E+08
 
   -0.57399E+08         0.25484E+06         0.00000E+00
    0.25484E+06        -0.97595E+08         0.00000E+00
    0.00000E+00         0.00000E+00        -0.57470E+08
 
   -0.57339E+08         0.25711E+06         0.00000E+00
    0.25711E+06        -0.97595E+08         0.00000E+00
    0.00000E+00         0.00000E+00        -0.57407E+08
 
   -0.57278E+08         0.25918E+06         0.00000E+00
    0.25918E+06        -0.97596E+08         0.00000E+00
    0.00000E+00         0.00000E+00        -0.57342E+08
 
   -0.57217E+08         0.26104E+06         0.00000E+00
    0.26104E+06        -0.97596E+08         0.00000E+00
    0.00000E+00         0.00000E+00        -0.57277E+08
 
   -0.57155E+08         0.26267E+06         0.00000E+00
    0.26267E+06        -0.97597E+08         0.00000E+00
    0.00000E+00         0.00000E+00        -0.57211E+08
 
   -0.57092E+08         0.26403E+06         0.00000E+00
    0.26403E+06        -0.97598E+08         0.00000E+00
    0.00000E+00         0.00000E+00        -0.57144E+08
 
   -0.57029E+08         0.26511E+06         0.00000E+00
    0.26511E+06        -0.97598E+08         0.00000E+00
    0.00000E+00         0.00000E+00        -0.57076E+08
 
   -0.56966E+08         0.26587E+06         0.00000E+00
    0.26587E+06        -0.97599E+08         0.00000E+00
    0.00000E+00         0.00000E+00        -0.57008E+08
 
   -0.56903E+08         0.26628E+06         0.00000E+00
    0.26628E+06        -0.97600E+08         0.00000E+00
    0.00000E+00         0.00000E+00        -0.56938E+08
 
   -0.56839E+08         0.26631E+06         0.00000E+00
    0.26631E+06        -0.97601E+08         0.00000E+00
    0.00000E+00         0.00000E+00        -0.56868E+08
 
   -0.56775E+08         0.26591E+06         0.00000E+00
    0.26591E+06        -0.97602E+08         0.00000E+00
    0.00000E+00         0.00000E+00        -0.56796E+08
 
   -0.56711E+08         0.26504E+06         0.00000E+00
    0.26504E+06        -0.97603E+08         0.00000E+00
    0.00000E+00         0.00000E+00        -0.56724E+08
 
   -0.56648E+08         0.26366E+06         0.00000E+00
    0.26366E+06        -0.97604E+08         0.00000E+00
    0.00000E+00         0.00000E+00        -0.56652E+08
 
   -0.56584E+08         0.26170E+06         0.00000E+00
    0.26170E+06        -0.97605E+08         0.00000E+00
    0.00000E+00         0.00000E+00        -0.56579E+08
 
   -0.56521E+08         0.25911E+06         0.00000E+00
    0.25911E+06        -0.97607E+08         0.00000E+00
    0.00000E+00         0.00000E+00        -0.56505E+08
 
   -0.56458E+08         0.25582E+06         0.00000E+00
    0.25582E+06        -0.97609E+08         0.00000E+00
    0.00000E+00         0.00000E+00        -0.56431E+08
 
   -0.56395E+08         0.25174E+06         0.00000E+00
    0.25174E+06        -0.97611E+08         0.00000E+00
    0.00000E+00         0.00000E+00        -0.56356E+08
 
   -0.56333E+08         0.24679E+06         0.00000E+00
    0.24679E+06        -0.97613E+08         0.00000E+00
    0.00000E+00         0.00000E+00        -0.56281E+08
 
   -0.56272E+08         0.24087E+06         0.00000E+00
    0.24087E+06        -0.97615E+08         0.00000E+00
    0.00000E+00         0.00000E+00        -0.56205E+08
 
   -0.56212E+08         0.23387E+06         0.00000E+00
    0.23387E+06        -0.97618E+08         0.00000E+00
    0.00000E+00         0.00000E+00        -0.56129E+08
 
   -0.56153E+08         0.22569E+06         0.00000E+00
    0.22569E+06        -0.97621E+08         0.00000E+00
    0.00000E+00         0.00000E+00        -0.56053E+08
 
   -0.56095E+08         0.21620E+06         0.00000E+00
    0.21620E+06        -0.97625E+08         0.00000E+00
    0.00000E+00         0.00000E+00        -0.55977E+08
 
   -0.56039E+08         0.20528E+06         0.00000E+00
    0.20528E+06        -0.97629E+08         0.00000E+00
    0.00000E+00         0.00000E+00        -0.55901E+08
 
   -0.55984E+08         0.19280E+06         0.00000E+00
    0.19280E+06        -0.97633E+08         0.00000E+00
    0.00000E+00         0.00000E+00        -0.55825E+08
 
   -0.55931E+08         0.17866E+06         0.00000E+00
    0.17866E+06        -0.97637E+08         0.00000E+00
    0.00000E+00         0.00000E+00        -0.55750E+08
 
   -0.55879E+08         0.16279E+06         0.00000E+00
    0.16279E+06        -0.97642E+08         0.00000E+00
    0.00000E+00         0.00000E+00        -0.55674E+08
 
   -0.55830E+08         0.14514E+06         0.00000E+00
    0.14514E+06        -0.97647E+08         0.00000E+00
    0.00000E+00         0.00000E+00        -0.55598E+08
 
   -0.55783E+08         0.12576E+06         0.00000E+00
    0.12576E+06        -0.97652E+08         0.00000E+00
    0.00000E+00         0.00000E+00        -0.55523E+08
 
   -0.55737E+08         0.10480E+06         0.00000E+00
    0.10480E+06        -0.97656E+08         0.00000E+00
    0.00000E+00         0.00000E+00        -0.55448E+08
 
   -0.55695E+08         0.82587E+05         0.00000E+00
    0.82587E+05        -0.97660E+08         0.00000E+00
    0.00000E+00         0.00000E+00        -0.55373E+08
 
   -0.55654E+08         0.59659E+05         0.00000E+00
    0.59659E+05        -0.97661E+08         0.00000E+00
    0.00000E+00         0.00000E+00        -0.55297E+08
 
   -0.55616E+08         0.36887E+05         0.00000E+00
    0.36887E+05        -0.97660E+08         0.00000E+00
    0.00000E+00         0.00000E+00        -0.55222E+08
 
   -0.55581E+08         0.15549E+05         0.00000E+00
    0.15549E+05        -0.97656E+08         0.00000E+00
    0.00000E+00         0.00000E+00        -0.55146E+08
 
   -0.55549E+08        -0.25903E+04         0.00000E+00
   -0.25903E+04        -0.97646E+08         0.00000E+00
    0.00000E+00         0.00000E+00        -0.55069E+08
 
   -0.55520E+08        -0.15348E+05         0.00000E+00
   -0.15348E+05        -0.97628E+08         0.00000E+00
    0.00000E+00         0.00000E+00        -0.54990E+08
 
   -0.55495E+08        -0.20573E+05         0.00000E+00
   -0.20573E+05        -0.97598E+08         0.00000E+00
    0.00000E+00         0.00000E+00        -0.54909E+08
 
   -0.55477E+08        -0.17214E+05         0.00000E+00
   -0.17214E+05        -0.97552E+08         0.00000E+00
    0.00000E+00         0.00000E+00        -0.54825E+08
 
   -0.55466E+08        -0.66856E+04         0.00000E+00
   -0.66856E+04        -0.97485E+08         0.00000E+00
    0.00000E+00         0.00000E+00        -0.54737E+08
 
   -0.59509E+08        -0.89905E+03         0.00000E+00
   -0.89905E+03        -0.97623E+08         0.00000E+00
    0.00000E+00         0.00000E+00        -0.59731E+08
 
   -0.59506E+08        -0.19352E+04         0.00000E+00
   -0.19352E+04        -0.97607E+08         0.00000E+00
    0.00000E+00         0.00000E+00        -0.59709E+08
 
   -0.59500E+08        -0.10600E+04         0.00000E+00
   -0.10600E+04        -0.97596E+08         0.00000E+00
    0.00000E+00         0.00000E+00        -0.59688E+08
 
   -0.59493E+08         0.20689E+04         0.00000E+00
    0.20689E+04        -0.97589E+08         0.00000E+00
    0.00000E+00         0.00000E+00        -0.59668E+08
 
   -0.59485E+08         0.71401E+04         0.00000E+00
    0.71401E+04        -0.97585E+08         0.00000E+00
    0.00000E+00         0.00000E+00        -0.59647E+08
 
   -0.59475E+08         0.13579E+05         0.00000E+00
    0.13579E+05        -0.97583E+08         0.00000E+00
    0.00000E+00         0.00000E+00        -0.59628E+08
 
   -0.59465E+08         0.20829E+05         0.00000E+00
    0.20829E+05        -0.97582E+08         0.00000E+00
    0.00000E+00         0.00000E+00        -0.59608E+08
 
   -0.59453E+08         0.28448E+05         0.00000E+00
    0.28448E+05        -0.97581E+08         0.00000E+00
    0.00000E+00         0.00000E+00        -0.59587E+08
 
   -0.59440E+08         0.36125E+05         0.00000E+00
    0.36125E+05        -0.97582E+08         0.00000E+00
    0.00000E+00         0.00000E+00        -0.59567E+08
 
   -0.59426E+08         0.43652E+05         0.00000E+00
    0.43652E+05        -0.97583E+08         0.00000E+00
    0.00000E+00         0.00000E+00        -0.59546E+08
 
   -0.59411E+08         0.50900E+05         0.00000E+00
    0.50900E+05        -0.97584E+08         0.00000E+00
    0.00000E+00         0.00000E+00        -0.59525E+08
 
   -0.59395E+08         0.57797E+05         0.00000E+00
    0.57797E+05        -0.97585E+08         0.00000E+00
    0.00000E+00         0.00000E+00        -0.59503E+08
 
   -0.59377E+08         0.64311E+05         0.00000E+00
    0.64311E+05        -0.97586E+08         0.00000E+00
    0.00000E+00         0.00000E+00        -0.59481E+08
 
   -0.59359E+08         0.70440E+05         0.00000E+00
    0.70440E+05        -0.97587E+08         0.00000E+00
    0.00000E+00         0.00000E+00        -0.59459E+08
 
   -0.59340E+08         0.76197E+05         0.00000E+00
    0.76197E+05        -0.97588E+08         0.00000E+00
    0.00000E+00         0.00000E+00        -0.59436E+08
 
   -0.59319E+08         0.81606E+05         0.00000E+00
    0.81606E+05        -0.97588E+08         0.00000E+00
    0.00000E+00         0.00000E+00        -0.59412E+08
 
   -0.59298E+08         0.86699E+05         0.00000E+00
    0.86699E+05        -0.97589E+08         0.00000E+00
    0.00000E+00         0.00000E+00        -0.59387E+08
 
   -0.59276E+08         0.91510E+05         0.00000E+00
    0.91510E+05        -0.97590E+08         0.00000E+00
    0.00000E+00         0.00000E+00        -0.59363E+08
 
   -0.59252E+08         0.96071E+05         0.00000E+00
    0.96071E+05        -0.97590E+08         0.00000E+00
    0.00000E+00         0.00000E+00        -0.59337E+08
 
   -0.59228E+08         0.10041E+06         0.00000E+00
    0.10041E+06        -0.97591E+08         0.00000E+00
    0.00000E+00         0.00000E+00        -0.59311E+08
 
   -0.59203E+08         0.10457E+06         0.00000E+00
    0.10457E+06        -0.97591E+08         0.00000E+00
    0.00000E+00         0.00000E+00        -0.59284E+08
 
   -0.59177E+08         0.10857E+06         0.00000E+00
    0.10857E+06        -0.97592E+08         0.00000E+00
    0.00000E+00         0.00000E+00        -0.59257E+08
 
   -0.59150E+08         0.11243E+06         0.00000E+00
    0.11243E+06        -0.97592E+08         0.00000E+00
    0.00000E+00         0.00000E+00        -0.59229E+08
 
   -0.59122E+08         0.11619E+06         0.00000E+00
    0.11619E+06        -0.97592E+08         0.00000E+00
    0.00000E+00         0.00000E+00        -0.59201E+08
 
   -0.59094E+08         0.11984E+06         0.00000E+00
    0.11984E+06        -0.97592E+08         0.00000E+00
    0.00000E+00         0.00000E+00        -0.59172E+08
 
   -0.59064E+08         0.12343E+06         0.00000E+00
    0.12343E+06        -0.97593E+08         0.00000E+00
    0.00000E+00         0.00000E+00        -0.59142E+08
 
   -0.59034E+08         0.12695E+06         0.00000E+00
    0.12695E+06        -0.97593E+08         0.00000E+00
    0.00000E+00         0.00000E+00        -0.59112E+08
 
   -0.59003E+08         0.13042E+06         0.00000E+00
    0.13042E+06        -0.97593E+08         0.00000E+00
    0.00000E+00         0.00000E+00        -0.59081E+08
 
   -0.58971E+08         0.13385E+06         0.00000E+00
    0.13385E+06        -0.97593E+08         0.00000E+00
    0.00000E+00         0.00000E+00        -0.59049E+08
 
   -0.58938E+08         0.13725E+06         0.00000E+00
    0.13725E+06        -0.97593E+08         0.00000E+00
    0.00000E+00         0.00000E+00        -0.59016E+08
 
   -0.58905E+08         0.14064E+06         0.00000E+00
    0.14064E+06        -0.97593E+08         0.00000E+00
    0.00000E+00         0.00000E+00        -0.58983E+08
 
   -0.58870E+08         0.14400E+06         0.00000E+00
    0.14400E+06        -0.97593E+08         0.00000E+00
    0.00000E+00         0.00000E+00        -0.58949E+08
 
   -0.58835E+08         0.14736E+06         0.00000E+00
    0.14736E+06        -0.97593E+08         0.00000E+00
    0.00000E+00         0.00000E+00        -0.58915E+08
 
   -0.58799E+08         0.15072E+06         0.00000E+00
    0.15072E+06        -0.97593E+08         0.00000E+00
    0.00000E+00         0.00000E+00        -0.58879E+08
 
   -0.58763E+08         0.15407E+06         0.00000E+00
    0.15407E+06        -0.97593E+08         0.00000E+00
    0.00000E+00         0.00000E+00        -0.58843E+08
 
   -0.58725E+08         0.15742E+06         0.00000E+00
    0.15742E+06        -0.97593E+08         0.00000E+00
    0.00000E+00         0.00000E+00        -0.58806E+08
 
   -0.58687E+08         0.16078E+06         0.00000E+00
    0.16078E+06        -0.97593E+08         0.00000E+00
    0.00000E+00         0.00000E+00        -0.58769E+08
 
   -0.58647E+08         0.16415E+06         0.00000E+00
    0.16415E+06        -0.97593E+08         0.00000E+00
    0.00000E+00         0.00000E+00        -0.58730E+08
 
   -0.58607E+08         0.16752E+06         0.00000E+00
    0.16752E+06        -0.97593E+08         0.00000E+00
    0.00000E+00         0.00000E+00        -0.58691E+08
 
   -0.58567E+08         0.17090E+06         0.00000E+00
    0.17090E+06        -0.97593E+08         0.00000E+00
    0.00000E+00         0.00000E+00        -0.58651E+08
 
   -0.58525E+08         0.17428E+06         0.00000E+00
    0.17428E+06        -0.97593E+08         0.00000E+00
    0.00000E+00         0.00000E+00        -0.58610E+08
 
   -0.58482E+08         0.17767E+06         0.00000E+00
    0.17767E+06        -0.97593E+08         0.00000E+00
    0.00000E+00         0.00000E+00        -0.58568E+08
 
   -0.58439E+08         0.18107E+06         0.00000E+00
    0.18107E+06        -0.97593E+08         0.00000E+00
    0.00000E+00         0.00000E+00        -0.58525E+08
 
   -0.58395E+08         0.18447E+06         0.00000E+00
    0.18447E+06        -0.97593E+08         0.00000E+00
    0.00000E+00         0.00000E+00        -0.58481E+08
 
   -0.58350E+08         0.18786E+06         0.00000E+00
    0.18786E+06        -0.97593E+08         0.00000E+00
    0.00000E+00         0.00000E+00        -0.58437E+08
 
   -0.58304E+08         0.19126E+06         0.00000E+00
    0.19126E+06        -0.97593E+08         0.00000E+00
    0.00000E+00         0.00000E+00        -0.58391E+08
 
   -0.58257E+08         0.19465E+06         0.00000E+00
    0.19465E+06        -0.97593E+08         0.00000E+00
    0.00000E+00         0.00000E+00        -0.58345E+08
 
   -0.58209E+08         0.19803E+06         0.00000E+00
    0.19803E+06        -0.97593E+08         0.00000E+00
    0.00000E+00         0.00000E+00        -0.58298E+08
 
   -0.58161E+08         0.20139E+06         0.00000E+00
    0.20139E+06        -0.97593E+08         0.00000E+00
    0.00000E+00         0.00000E+00        -0.58249E+08
 
   -0.58111E+08         0.20473E+06         0.00000E+00
    0.20473E+06        -0.97593E+08         0.00000E+00
    0.00000E+00         0.00000E+00        -0.58200E+08
 
   -0.58061E+08         0.20805E+06         0.00000E+00
    0.20805E+06        -0.97593E+08         0.00000E+00
    0.00000E+00         0.00000E+00        -0.58150E+08
 
   -0.58010E+08         0.21134E+06         0.00000E+00
    0.21134E+06        -0.97593E+08         0.00000E+00
    0.00000E+00         0.00000E+00        -0.58099E+08
 
   -0.57958E+08         0.21458E+06         0.00000E+00
    0.21458E+06        -0.97593E+08         0.00000E+00
    0.00000E+00         0.00000E+00        -0.58046E+08
 
   -0.57906E+08         0.21778E+06         0.00000E+00
    0.21778E+06        -0.97594E+08         0.00000E+00
    0.00000E+00         0.00000E+00        -0.57993E+08
 
   -0.57852E+08         0.22093E+06         0.00000E+00
    0.22093E+06        -0.97594E+08         0.00000E+00
    0.00000E+00         0.00000E+00        -0.57939E+08
 
   -0.57798E+08         0.22401E+06         0.00000E+00
    0.22401E+06        -0.97594E+08         0.00000E+00
    0.00000E+00         0.00000E+00        -0.57884E+08
 
   -0.57743E+08         0.22702E+06         0.00000E+00
    0.22702E+06        -0.97594E+08         0.00000E+00
    0.00000E+00         0.00000E+00        -0.57828E+08
 
   -0.57687E+08         0.22994E+06         0.00000E+00
    0.22994E+06        -0.97594E+08         0.00000E+00
    0.00000E+00         0.00000E+00        -0.57770E+08
 
   -0.57630E+08         0.23277E+06         0.00000E+00
    0.23277E+06        -0.97594E+08         0.00000E+00
    0.00000E+00         0.00000E+00        -0.57712E+08
 
   -0.57573E+08         0.23549E+06         0.00000E+00
    0.23549E+06        -0.97595E+08         0.00000E+00
    0.00000E+00         0.00000E+00        -0.57653E+08
 
   -0.57515E+08         0.23809E+06         0.00000E+00
    0.23809E+06        -0.97595E+08         0.00000E+00
    0.00000E+00         0.00000E+00        -0.57593E+08
 
   -0.57456E+08         0.24055E+06         0.00000E+00
    0.24055E+06        -0.97595E+08         0.00000E+00
    0.00000E+00         0.00000E+00        -0.57531E+08
 
   -0.57396E+08         0.24286E+06         0.00000E+00
    0.24286E+06        -0.97596E+08         0.00000E+00
    0.00000E+00         0.00000E+00        -0.57469E+08
 
   -0.57336E+08         0.24501E+06         0.00000E+00
    0.24501E+06        -0.97596E+08         0.00000E+00
    0.00000E+00         0.00000E+00        -0.57406E+08
 
   -0.57275E+08         0.24696E+06         0.00000E+00
    0.24696E+06        -0.97596E+08         0.00000E+00
    0.00000E+00         0.00000E+00        -0.57342E+08
 
   -0.57214E+08         0.24872E+06         0.00000E+00
    0.24872E+06        -0.97597E+08         0.00000E+00
    0.00000E+00         0.00000E+00        -0.57277E+08
 
   -0.57152E+08         0.25024E+06         0.00000E+00
    0.25024E+06        -0.97597E+08         0.00000E+00
    0.00000E+00         0.00000E+00        -0.57211E+08
 
   -0.57090E+08         0.25152E+06         0.00000E+00
    0.25152E+06        -0.97598E+08         0.00000E+00
    0.00000E+00         0.00000E+00        -0.57144E+08
 
   -0.57027E+08         0.25252E+06         0.00000E+00
    0.25252E+06        -0.97598E+08         0.00000E+00
    0.00000E+00         0.00000E+00        -0.57076E+08
 
   -0.56964E+08         0.25322E+06         0.00000E+00
    0.25322E+06        -0.97599E+08         0.00000E+00
    0.00000E+00         0.00000E+00        -0.57007E+08
 
   -0.56901E+08         0.25358E+06         0.00000E+00
    0.25358E+06        -0.97600E+08         0.00000E+00
    0.00000E+00         0.00000E+00        -0.56937E+08
 
   -0.56837E+08         0.25358E+06         0.00000E+00
    0.25358E+06        -0.97601E+08         0.00000E+00
    0.00000E+00         0.00000E+00        -0.56867E+08
 
   -0.56774E+08         0.25316E+06         0.00000E+00
    0.25316E+06        -0.97602E+08         0.00000E+00
    0.00000E+00         0.00000E+00        -0.56796E+08
 
   -0.56710E+08         0.25230E+06         0.00000E+00
    0.25230E+06        -0.97603E+08         0.00000E+00
    0.00000E+00         0.00000E+00        -0.56724E+08
 
   -0.56647E+08         0.25094E+06         0.00000E+00
    0.25094E+06        -0.97604E+08         0.00000E+00
    0.00000E+00         0.00000E+00        -0.56652E+08
 
   -0.56583E+08         0.24903E+06         0.00000E+00
    0.24903E+06        -0.97605E+08         0.00000E+00
    0.00000E+00         0.00000E+00        -0.56578E+08
 
   -0.56520E+08         0.24651E+06         0.00000E+00
    0.24651E+06        -0.97606E+08         0.00000E+00
    0.00000E+00         0.00000E+00        -0.56505E+08
 
   -0.56458E+08         0.24331E+06         0.00000E+00
    0.24331E+06        -0.97608E+08         0.00000E+00
    0.00000E+00         0.00000E+00        -0.56430E+08
 
   -0.56396E+08         0.23935E+06         0.00000E+00
    0.23935E+06        -0.97610E+08         0.00000E+00
    0.00000E+00         0.00000E+00        -0.56356E+08
 
   -0.56334E+08         0.23454E+06         0.00000E+00
    0.23454E+06        -0.97612E+08         0.00000E+00
    0.00000E+00         0.00000E+00        -0.56281E+08
 
   -0.56274E+08         0.22880E+06         0.00000E+00
    0.22880E+06        -0.97614E+08         0.00000E+00
    0.00000E+00         0.00000E+00        -0.56205E+08
 
   -0.56214E+08         0.22201E+06         0.00000E+00
    0.22201E+06        -0.97617E+08         0.00000E+00
    0.00000E+00         0.00000E+00        -0.56130E+08
 
   -0.56156E+08         0.21407E+06         0.00000E+00
    0.21407E+06        -0.97619E+08         0.00000E+00
    0.00000E+00         0.00000E+00        -0.56054E+08
 
   -0.56099E+08         0.20485E+06         0.00000E+00
    0.20485E+06        -0.97623E+08         0.00000E+00
    0.00000E+00         0.00000E+00        -0.55978E+08
 
   -0.56043E+08         0.19422E+06         0.00000E+00
    0.19422E+06        -0.97626E+08         0.00000E+00
    0.00000E+00         0.00000E+00        -0.55902E+08
 
   -0.55989E+08         0.18208E+06         0.00000E+00
    0.18208E+06        -0.97630E+08         0.00000E+00
    0.00000E+00         0.00000E+00        -0.55826E+08
 
   -0.55937E+08         0.16831E+06         0.00000E+00
    0.16831E+06        -0.97634E+08         0.00000E+00
    0.00000E+00         0.00000E+00        -0.55750E+08
 
   -0.55887E+08         0.15282E+06         0.00000E+00
    0.15282E+06        -0.97639E+08         0.00000E+00
    0.00000E+00         0.00000E+00        -0.55675E+08
 
   -0.55839E+08         0.13559E+06         0.00000E+00
    0.13559E+06        -0.97644E+08         0.00000E+00
    0.00000E+00         0.00000E+00        -0.55600E+08
 
   -0.55793E+08         0.11666E+06         0.00000E+00
    0.11666E+06        -0.97648E+08         0.00000E+00
    0.00000E+00         0.00000E+00        -0.55525E+08
 
   -0.55749E+08         0.96177E+05         0.00000E+00
    0.96177E+05        -0.97652E+08         0.00000E+00
    0.00000E+00         0.00000E+00        -0.55450E+08
 
   -0.55708E+08         0.74454E+05         0.00000E+00
    0.74454E+05        -0.97655E+08         0.00000E+00
    0.00000E+00         0.00000E+00        -0.55375E+08
 
   -0.55670E+08         0.52038E+05         0.00000E+00
    0.52038E+05        -0.97657E+08         0.00000E+00
    0.00000E+00         0.00000E+00        -0.55301E+08
 
   -0.55634E+08         0.29791E+05         0.00000E+00
    0.29791E+05        -0.97656E+08         0.00000E+00
    0.00000E+00         0.00000E+00        -0.55226E+08
 
   -0.55601E+08         0.89934E+04         0.00000E+00
    0.89934E+04        -0.97652E+08         0.00000E+00
    0.00000E+00         0.00000E+00        -0.55151E+08
 
   -0.55571E+08        -0.85716E+04         0.00000E+00
   -0.85716E+04        -0.97643E+08         0.00000E+00
    0.00000E+00         0.00000E+00        -0.55075E+08
 
   -0.55544E+08        -0.20651E+05         0.00000E+00
   -0.20651E+05        -0.97626E+08         0.00000E+00
    0.00000E+00         0.00000E+00        -0.54997E+08
 
   -0.55520E+08        -0.24937E+05         0.00000E+00
   -0.24937E+05        -0.97598E+08         0.00000E+00
    0.00000E+00         0.00000E+00        -0.54917E+08
 
   -0.55502E+08        -0.20181E+05         0.00000E+00
   -0.20181E+05        -0.97554E+08         0.00000E+00
    0.00000E+00         0.00000E+00        -0.54834E+08
 
   -0.55492E+08        -0.77510E+04         0.00000E+00
   -0.77510E+04        -0.97488E+08         0.00000E+00
    0.00000E+00         0.00000E+00        -0.54746E+08
 
   -0.59501E+08        -0.12016E+04         0.00000E+00
   -0.12016E+04        -0.97623E+08         0.00000E+00
    0.00000E+00         0.00000E+00        -0.59729E+08
 
   -0.59498E+08        -0.27779E+04         0.00000E+00
   -0.27779E+04        -0.97607E+08         0.00000E+00
    0.00000E+00         0.00000E+00        -0.59707E+08
 
   -0.59493E+08        -0.23043E+04         0.00000E+00
   -0.23043E+04        -0.97596E+08         0.00000E+00
    0.00000E+00         0.00000E+00        -0.59686E+08
 
   -0.59486E+08         0.53933E+03         0.00000E+00
    0.53933E+03        -0.97590E+08         0.00000E+00
    0.00000E+00         0.00000E+00        -0.59666E+08
 
   -0.59478E+08         0.53807E+04         0.00000E+00
    0.53807E+04        -0.97586E+08         0.00000E+00
    0.00000E+00         0.00000E+00        -0.59646E+08
 
   -0.59469E+08         0.11603E+05         0.00000E+00
    0.11603E+05        -0.97584E+08         0.00000E+00
    0.00000E+00         0.00000E+00        -0.59626E+08
 
   -0.59459E+08         0.18632E+05         0.00000E+00
    0.18632E+05        -0.97583E+08         0.00000E+00
    0.00000E+00         0.00000E+00        -0.59606E+08
 
   -0.59448E+08         0.26027E+05         0.00000E+00
    0.26027E+05        -0.97583E+08         0.00000E+00
    0.00000E+00         0.00000E+00        -0.59586E+08
 
   -0.59435E+08         0.33477E+05         0.00000E+00
    0.33477E+05        -0.97583E+08         0.00000E+00
    0.00000E+00         0.00000E+00        -0.59566E+08
 
   -0.59421E+08         0.40777E+05         0.00000E+00
    0.40777E+05        -0.97584E+08         0.00000E+00
    0.00000E+00         0.00000E+00        -0.59545E+08
 
   -0.59407E+08         0.47800E+05         0.00000E+00
    0.47800E+05        -0.97585E+08         0.00000E+00
    0.00000E+00         0.00000E+00        -0.59524E+08
 
   -0.59391E+08         0.54475E+05         0.00000E+00
    0.54475E+05        -0.97586E+08         0.00000E+00
    0.00000E+00         0.00000E+00        -0.59503E+08
 
   -0.59374E+08         0.60772E+05         0.00000E+00
    0.60772E+05        -0.97587E+08         0.00000E+00
    0.00000E+00         0.00000E+00        -0.59481E+08
 
   -0.59356E+08         0.66687E+05         0.00000E+00
    0.66687E+05        -0.97588E+08         0.00000E+00
    0.00000E+00         0.00000E+00        -0.59458E+08
 
   -0.59336E+08         0.72235E+05         0.00000E+00
    0.72235E+05        -0.97589E+08         0.00000E+00
    0.00000E+00         0.00000E+00        -0.59435E+08
 
   -0.59316E+08         0.77441E+05         0.00000E+00
    0.77441E+05        -0.97589E+08         0.00000E+00
    0.00000E+00         0.00000E+00        -0.59411E+08
 
   -0.59295E+08         0.82336E+05         0.00000E+00
    0.82336E+05        -0.97590E+08         0.00000E+00
    0.00000E+00         0.00000E+00        -0.59387E+08
 
   -0.59273E+08         0.86952E+05         0.00000E+00
    0.86952E+05        -0.97591E+08         0.00000E+00
    0.00000E+00         0.00000E+00        -0.59362E+08
 
   -0.59249E+08         0.91324E+05         0.00000E+00
    0.91324E+05        -0.97591E+08         0.00000E+00
    0.00000E+00         0.00000E+00        -0.59337E+08
 
   -0.59225E+08         0.95483E+05         0.00000E+00
    0.95483E+05        -0.97592E+08         0.00000E+00
    0.00000E+00         0.00000E+00        -0.59311E+08
 
   -0.59200E+08         0.99459E+05         0.00000E+00
    0.99459E+05        -0.97592E+08         0.00000E+00
    0.00000E+00         0.00000E+00        -0.59284E+08
 
   -0.59174E+08         0.10328E+06         0.00000E+00
    0.10328E+06        -0.97592E+08         0.00000E+00
    0.00000E+00         0.00000E+00        -0.59257E+08
 
   -0.59147E+08         0.10697E+06         0.00000E+00
    0.10697E+06        -0.97593E+08         0.00000E+00
    0.00000E+00         0.00000E+00        -0.59229E+08
 
   -0.59120E+08         0.11055E+06         0.00000E+00
    0.11055E+06        -0.97593E+08         0.00000E+00
    0.00000E+00         0.00000E+00        -0.59200E+08
 
   -0.59091E+08         0.11404E+06         0.00000E+00
    0.11404E+06        -0.97593E+08         0.00000E+00
    0.00000E+00         0.00000E+00        -0.59171E+08
 
   -0.59062E+08         0.11746E+06         0.00000E+00
    0.11746E+06        -0.97593E+08         0.00000E+00
    0.00000E+00         0.00000E+00        -0.59141E+08
 
   -0.59031E+08         0.12081E+06         0.00000E+00
    0.12081E+06        -0.97593E+08         0.00000E+00
    0.00000E+00         0.00000E+00        -0.59111E+08
 
   -0.59000E+08         0.12412E+06         0.00000E+00
    0.12412E+06        -0.97593E+08         0.00000E+00
    0.00000E+00         0.00000E+00        -0.59080E+08
 
   -0.58968E+08         0.12739E+06         0.00000E+00
    0.12739E+06        -0.97594E+08         0.00000E+00
    0.00000E+00         0.00000E+00        -0.59048E+08
 
   -0.58936E+08         0.13063E+06         0.00000E+00
    0.13063E+06        -0.97594E+08         0.00000E+00
    0.00000E+00         0.00000E+00        -0.59016E+08
 
   -0.58902E+08         0.13385E+06         0.00000E+00
    0.13385E+06        -0.97594E+08         0.00000E+00
    0.00000E+00         0.00000E+00        -0.58983E+08
 
   -0.58868E+08         0.13706E+06         0.00000E+00
    0.13706E+06        -0.97594E+08         0.00000E+00
    0.00000E+00         0.00000E+00        -0.58949E+08
 
   -0.58832E+08         0.14025E+06         0.00000E+00
    0.14025E+06        -0.97594E+08         0.00000E+00
    0.00000E+00         0.00000E+00        -0.58914E+08
 
   -0.58796E+08         0.14344E+06         0.00000E+00
    0.14344E+06        -0.97594E+08         0.00000E+00
    0.00000E+00         0.00000E+00        -0.58879E+08
 
   -0.58760E+08         0.14663E+06         0.00000E+00
    0.14663E+06        -0.97594E+08         0.00000E+00
    0.00000E+00         0.00000E+00        -0.58843E+08
 
   -0.58722E+08         0.14983E+06         0.00000E+00
    0.14983E+06        -0.97594E+08         0.00000E+00
    0.00000E+00         0.00000E+00        -0.58806E+08
 
   -0.58684E+08         0.15302E+06         0.00000E+00
    0.15302E+06        -0.97594E+08         0.00000E+00
    0.00000E+00         0.00000E+00        -0.58768E+08
 
   -0.58644E+08         0.15622E+06         0.00000E+00
    0.15622E+06        -0.97594E+08         0.00000E+00
    0.00000E+00         0.00000E+00        -0.58730E+08
 
   -0.58604E+08         0.15943E+06         0.00000E+00
    0.15943E+06        -0.97594E+08         0.00000E+00
    0.00000E+00         0.00000E+00        -0.58690E+08
 
   -0.58563E+08         0.16264E+06         0.00000E+00
    0.16264E+06        -0.97594E+08         0.00000E+00
    0.00000E+00         0.00000E+00        -0.58650E+08
 
   -0.58522E+08         0.16586E+06         0.00000E+00
    0.16586E+06        -0.97594E+08         0.00000E+00
    0.00000E+00         0.00000E+00        -0.58609E+08
 
   -0.58479E+08         0.16908E+06         0.00000E+00
    0.16908E+06        -0.97594E+08         0.00000E+00
    0.00000E+00         0.00000E+00        -0.58567E+08
 
   -0.58436E+08         0.17231E+06         0.00000E+00
    0.17231E+06        -0.97594E+08         0.00000E+00
    0.00000E+00         0.00000E+00        -0.58524E+08
 
   -0.58391E+08         0.17553E+06         0.00000E+00
    0.17553E+06        -0.97594E+08         0.00000E+00
    0.00000E+00         0.00000E+00        -0.58481E+08
 
   -0.58346E+08         0.17876E+06         0.00000E+00
    0.17876E+06        -0.97594E+08         0.00000E+00
    0.00000E+00         0.00000E+00        -0.58436E+08
 
   -0.58300E+08         0.18199E+06         0.00000E+00
    0.18199E+06        -0.97594E+08         0.00000E+00
    0.00000E+00         0.00000E+00        -0.58391E+08
 
   -0.58254E+08         0.18521E+06         0.00000E+00
    0.18521E+06        -0.97594E+08         0.00000E+00
    0.00000E+00         0.00000E+00        -0.58344E+08
 
   -0.58206E+08         0.18841E+06         0.00000E+00
    0.18841E+06        -0.97594E+08         0.00000E+00
    0.00000E+00         0.00000E+00        -0.58297E+08
 
   -0.58158E+08         0.19161E+06         0.00000E+00
    0.19161E+06        -0.97594E+08         0.00000E+00
    0.00000E+00         0.00000E+00        -0.58249E+08
 
   -0.58108E+08         0.19478E+06         0.00000E+00
    0.19478E+06        -0.97594E+08         0.00000E+00
    0.00000E+00         0.00000E+00        -0.58199E+08
 
   -0.58058E+08         0.19793E+06         0.00000E+00
    0.19793E+06        -0.97594E+08         0.00000E+00
    0.00000E+00         0.00000E+00        -0.58149E+08
 
   -0.58007E+08         0.20105E+06         0.00000E+00
    0.20105E+06        -0.97594E+08         0.00000E+00
    0.00000E+00         0.00000E+00        -0.58098E+08
 
   -0.57955E+08         0.20413E+06         0.00000E+00
    0.20413E+06        -0.97594E+08         0.00000E+00
    0.00000E+00         0.00000E+00        -0.58046E+08
 
   -0.57902E+08         0.20716E+06         0.00000E+00
    0.20716E+06        -0.97594E+08         0.00000E+00
    0.00000E+00         0.00000E+00        -0.57992E+08
 
   -0.57849E+08         0.21014E+06         0.00000E+00
    0.21014E+06        -0.97594E+08         0.00000E+00
    0.00000E+00         0.00000E+00        -0.57938E+08
 
   -0.57795E+08         0.21306E+06         0.00000E+00
    0.21306E+06        -0.97594E+08         0.00000E+00
    0.00000E+00         0.00000E+00        -0.57883E+08
 
   -0.57739E+08         0.21591E+06         0.00000E+00
    0.21591E+06        -0.97595E+08         0.00000E+00
    0.00000E+00         0.00000E+00        -0.57827E+08
 
   -0.57684E+08         0.21868E+06         0.00000E+00
    0.21868E+06        -0.97595E+08         0.00000E+00
    0.00000E+00         0.00000E+00        -0.57769E+08
 
   -0.57627E+08         0.22136E+06         0.00000E+00
    0.22136E+06        -0.97595E+08         0.00000E+00
    0.00000E+00         0.00000E+00        -0.57711E+08
 
   -0.57569E+08         0.22393E+06         0.00000E+00
    0.22393E+06        -0.97595E+08         0.00000E+00
    0.00000E+00         0.00000E+00        -0.57652E+08
 
   -0.57511E+08         0.22639E+06         0.00000E+00
    0.22639E+06        -0.97595E+08         0.00000E+00
    0.00000E+00         0.00000E+00        -0.57592E+08
 
   -0.57453E+08         0.22872E+06         0.00000E+00
    0.22872E+06        -0.97596E+08         0.00000E+00
    0.00000E+00         0.00000E+00        -0.57531E+08
 
   -0.57393E+08         0.23090E+06         0.00000E+00
    0.23090E+06        -0.97596E+08         0.00000E+00
    0.00000E+00         0.00000E+00        -0.57468E+08
 
   -0.57333E+08         0.23292E+06         0.00000E+00
    0.23292E+06        -0.97596E+08         0.00000E+00
    0.00000E+00         0.00000E+00        -0.57405E+08
 
   -0.57272E+08         0.23477E+06         0.00000E+00
    0.23477E+06        -0.97597E+08         0.00000E+00
    0.00000E+00         0.00000E+00        -0.57341E+08
 
   -0.57211E+08         0.23642E+06         0.00000E+00
    0.23642E+06        -0.97597E+08         0.00000E+00
    0.00000E+00         0.00000E+00        -0.57276E+08
 
   -0.57150E+08         0.23785E+06         0.00000E+00
    0.23785E+06        -0.97598E+08         0.00000E+00
    0.00000E+00         0.00000E+00        -0.57210E+08
 
   -0.57087E+08         0.23904E+06         0.00000E+00
    0.23904E+06        -0.97598E+08         0.00000E+00
    0.00000E+00         0.00000E+00        -0.57143E+08
 
   -0.57025E+08         0.23997E+06         0.00000E+00
    0.23997E+06        -0.97599E+08         0.00000E+00
    0.00000E+00         0.00000E+00        -0.57075E+08
 
   -0.56962E+08         0.24061E+06         0.00000E+00
    0.24061E+06        -0.97599E+08         0.00000E+00
    0.00000E+00         0.00000E+00        -0.57006E+08
 
   -0.56899E+08         0.24093E+06         0.00000E+00
    0.24093E+06        -0.97600E+08         0.00000E+00
    0.00000E+00         0.00000E+00        -0.56937E+08
 
   -0.56836E+08         0.24089E+06         0.00000E+00
    0.24089E+06        -0.97601E+08         0.00000E+00
    0.00000E+00         0.00000E+00        -0.56867E+08
 
   -0.56772E+08         0.24047E+06         0.00000E+00
    0.24047E+06        -0.97601E+08         0.00000E+00
    0.00000E+00         0.00000E+00        -0.56795E+08
 
   -0.56709E+08         0.23961E+06         0.00000E+00
    0.23961E+06        -0.97602E+08         0.00000E+00
    0.00000E+00         0.00000E+00        -0.56724E+08
 
   -0.56646E+08         0.23828E+06         0.00000E+00
    0.23828E+06        -0.97603E+08         0.00000E+00
    0.00000E+00         0.00000E+00        -0.56651E+08
 
   -0.56583E+08         0.23642E+06         0.00000E+00
    0.23642E+06        -0.97605E+08         0.00000E+00
    0.00000E+00         0.00000E+00        -0.56578E+08
 
   -0.56520E+08         0.23397E+06         0.00000E+00
    0.23397E+06        -0.97606E+08         0.00000E+00
    0.00000E+00         0.00000E+00        -0.56504E+08
 
   -0.56458E+08         0.23087E+06         0.00000E+00
    0.23087E+06        -0.97607E+08         0.00000E+00
    0.00000E+00         0.00000E+00        -0.56430E+08
 
   -0.56396E+08         0.22704E+06         0.00000E+00
    0.22704E+06        -0.97609E+08         0.00000E+00
    0.00000E+00         0.00000E+00        -0.56356E+08
 
   -0.56335E+08         0.22239E+06         0.00000E+00
    0.22239E+06        -0.97611E+08         0.00000E+00
    0.00000E+00         0.00000E+00        -0.56280E+08
 
   -0.56275E+08         0.21684E+06         0.00000E+00
    0.21684E+06        -0.97613E+08         0.00000E+00
    0.00000E+00         0.00000E+00        -0.56205E+08
 
   -0.56216E+08         0.21027E+06         0.00000E+00
    0.21027E+06        -0.97615E+08         0.00000E+00
    0.00000E+00         0.00000E+00        -0.56130E+08
 
   -0.56158E+08         0.20258E+06         0.00000E+00
    0.20258E+06        -0.97618E+08         0.00000E+00
    0.00000E+00         0.00000E+00        -0.56054E+08
 
   -0.56102E+08         0.19365E+06         0.00000E+00
    0.19365E+06        -0.97621E+08         0.00000E+00
    0.00000E+00         0.00000E+00        -0.55978E+08
 
   -0.56047E+08         0.18334E+06         0.00000E+00
    0.18334E+06        -0.97624E+08         0.00000E+00
    0.00000E+00         0.00000E+00        -0.55902E+08
 
   -0.55994E+08         0.17155E+06         0.00000E+00
    0.17155E+06        -0.97628E+08         0.00000E+00
    0.00000E+00         0.00000E+00        -0.55827E+08
 
   -0.55943E+08         0.15817E+06         0.00000E+00
    0.15817E+06        -0.97632E+08         0.00000E+00
    0.00000E+00         0.00000E+00        -0.55751E+08
 
   -0.55894E+08         0.14311E+06         0.00000E+00
    0.14311E+06        -0.97636E+08         0.00000E+00
    0.00000E+00         0.00000E+00        -0.55676E+08
 
   -0.55847E+08         0.12634E+06         0.00000E+00
    0.12634E+06        -0.97640E+08         0.00000E+00
    0.00000E+00         0.00000E+00        -0.55601E+08
 
   -0.55803E+08         0.10789E+06         0.00000E+00
    0.10789E+06        -0.97644E+08         0.00000E+00
    0.00000E+00         0.00000E+00        -0.55527E+08
 
   -0.55761E+08         0.87912E+05         0.00000E+00
    0.87912E+05        -0.97648E+08         0.00000E+00
    0.00000E+00         0.00000E+00        -0.55452E+08
 
   -0.55722E+08         0.66717E+05         0.00000E+00
    0.66717E+05        -0.97651E+08         0.00000E+00
    0.00000E+00         0.00000E+00        -0.55378E+08
 
   -0.55686E+08         0.44841E+05         0.00000E+00
    0.44841E+05        -0.97652E+08         0.00000E+00
    0.00000E+00         0.00000E+00        -0.55304E+08
 
   -0.55652E+08         0.23136E+05         0.00000E+00
    0.23136E+05        -0.97652E+08         0.00000E+00
    0.00000E+00         0.00000E+00        -0.55230E+08
 
   -0.55621E+08         0.28714E+04         0.00000E+00
    0.28714E+04        -0.97648E+08         0.00000E+00
    0.00000E+00         0.00000E+00        -0.55156E+08
 
   -0.55593E+08        -0.14163E+05         0.00000E+00
   -0.14163E+05        -0.97640E+08         0.00000E+00
    0.00000E+00         0.00000E+00        -0.55080E+08
 
   -0.55568E+08        -0.25653E+05         0.00000E+00
   -0.25653E+05        -0.97624E+08         0.00000E+00
    0.00000E+00         0.00000E+00        -0.55004E+08
 
   -0.55545E+08        -0.29122E+05         0.00000E+00
   -0.29122E+05        -0.97598E+08         0.00000E+00
    0.00000E+00         0.00000E+00        -0.54924E+08
 
   -0.55528E+08        -0.23078E+05         0.00000E+00
   -0.23078E+05        -0.97556E+08         0.00000E+00
    0.00000E+00         0.00000E+00        -0.54842E+08
 
   -0.55518E+08        -0.88033E+04         0.00000E+00
   -0.88033E+04        -0.97491E+08         0.00000E+00
    0.00000E+00         0.00000E+00        -0.54755E+08
 
   -0.59493E+08        -0.15021E+04         0.00000E+00
   -0.15021E+04        -0.97623E+08         0.00000E+00
    0.00000E+00         0.00000E+00        -0.59726E+08
 
   -0.59490E+08        -0.36052E+04         0.00000E+00
   -0.36052E+04        -0.97607E+08         0.00000E+00
    0.00000E+00         0.00000E+00        -0.59704E+08
 
   -0.59485E+08        -0.35052E+04         0.00000E+00
   -0.35052E+04        -0.97597E+08         0.00000E+00
    0.00000E+00         0.00000E+00        -0.59684E+08
 
   -0.59479E+08        -0.91678E+03         0.00000E+00
   -0.91678E+03        -0.97591E+08         0.00000E+00
    0.00000E+00         0.00000E+00        -0.59664E+08
 
   -0.59471E+08         0.37153E+04         0.00000E+00
    0.37153E+04        -0.97587E+08         0.00000E+00
    0.00000E+00         0.00000E+00        -0.59644E+08
 
   -0.59463E+08         0.97290E+04         0.00000E+00
    0.97290E+04        -0.97585E+08         0.00000E+00
    0.00000E+00         0.00000E+00        -0.59625E+08
 
   -0.59453E+08         0.16538E+05         0.00000E+00
    0.16538E+05        -0.97585E+08         0.00000E+00
    0.00000E+00         0.00000E+00        -0.59605E+08
 
   -0.59442E+08         0.23702E+05         0.00000E+00
    0.23702E+05        -0.97584E+08         0.00000E+00
    0.00000E+00         0.00000E+00        -0.59585E+08
 
   -0.59430E+08         0.30916E+05         0.00000E+00
    0.30916E+05        -0.97585E+08         0.00000E+00
    0.00000E+00         0.00000E+00        -0.59565E+08
 
   -0.59417E+08         0.37979E+05         0.00000E+00
    0.37979E+05        -0.97585E+08         0.00000E+00
    0.00000E+00         0.00000E+00        -0.59544E+08
 
   -0.59403E+08         0.44766E+05         0.00000E+00
    0.44766E+05        -0.97586E+08         0.00000E+00
    0.00000E+00         0.00000E+00        -0.59523E+08
 
   -0.59387E+08         0.51209E+05         0.00000E+00
    0.51209E+05        -0.97587E+08         0.00000E+00
    0.00000E+00         0.00000E+00        -0.59502E+08
 
   -0.59370E+08         0.57279E+05         0.00000E+00
    0.57279E+05        -0.97588E+08         0.00000E+00
    0.00000E+00         0.00000E+00        -0.59480E+08
 
   -0.59352E+08         0.62973E+05         0.00000E+00
    0.62973E+05        -0.97589E+08         0.00000E+00
    0.00000E+00         0.00000E+00        -0.59457E+08
 
   -0.59333E+08         0.68306E+05         0.00000E+00
    0.68306E+05        -0.97590E+08         0.00000E+00
    0.00000E+00         0.00000E+00        -0.59434E+08
 
   -0.59313E+08         0.73302E+05         0.00000E+00
    0.73302E+05        -0.97590E+08         0.00000E+00
    0.00000E+00         0.00000E+00        -0.59411E+08
 
   -0.59292E+08         0.77992E+05         0.00000E+00
    0.77992E+05        -0.97591E+08         0.00000E+00
    0.00000E+00         0.00000E+00        -0.59386E+08
 
   -0.59270E+08         0.82410E+05         0.00000E+00
    0.82410E+05        -0.97592E+08         0.00000E+00
    0.00000E+00         0.00000E+00        -0.59361E+08
 
   -0.59247E+08         0.86588E+05         0.00000E+00
    0.86588E+05        -0.97592E+08         0.00000E+00
    0.00000E+00         0.00000E+00        -0.59336E+08
 
   -0.59223E+08         0.90559E+05         0.00000E+00
    0.90559E+05        -0.97593E+08         0.00000E+00
    0.00000E+00         0.00000E+00        -0.59310E+08
 
   -0.59198E+08         0.94352E+05         0.00000E+00
    0.94352E+05        -0.97593E+08         0.00000E+00
    0.00000E+00         0.00000E+00        -0.59283E+08
 
   -0.59172E+08         0.97994E+05         0.00000E+00
    0.97994E+05        -0.97593E+08         0.00000E+00
    0.00000E+00         0.00000E+00        -0.59256E+08
 
   -0.59145E+08         0.10151E+06         0.00000E+00
    0.10151E+06        -0.97593E+08         0.00000E+00
    0.00000E+00         0.00000E+00        -0.59228E+08
 
   -0.59117E+08         0.10491E+06         0.00000E+00
    0.10491E+06        -0.97594E+08         0.00000E+00
    0.00000E+00         0.00000E+00        -0.59200E+08
 
   -0.59088E+08         0.10823E+06         0.00000E+00
    0.10823E+06        -0.97594E+08         0.00000E+00
    0.00000E+00         0.00000E+00        -0.59171E+08
 
   -0.59059E+08         0.11148E+06         0.00000E+00
    0.11148E+06        -0.97594E+08         0.00000E+00
    0.00000E+00         0.00000E+00        -0.59141E+08
 
   -0.59029E+08         0.11467E+06         0.00000E+00
    0.11467E+06        -0.97594E+08         0.00000E+00
    0.00000E+00         0.00000E+00        -0.59110E+08
 
   -0.58998E+08         0.11781E+06         0.00000E+00
    0.11781E+06        -0.97594E+08         0.00000E+00
    0.00000E+00         0.00000E+00        -0.59079E+08
 
   -0.58966E+08         0.12092E+06         0.00000E+00
    0.12092E+06        -0.97594E+08         0.00000E+00
    0.00000E+00         0.00000E+00        -0.59048E+08
 
   -0.58933E+08         0.12400E+06         0.00000E+00
    0.12400E+06        -0.97594E+08         0.00000E+00
    0.00000E+00         0.00000E+00        -0.59015E+08
 
   -0.58899E+08         0.12706E+06         0.00000E+00
    0.12706E+06        -0.97594E+08         0.00000E+00
    0.00000E+00         0.00000E+00        -0.58982E+08
 
   -0.58865E+08         0.13010E+06         0.00000E+00
    0.13010E+06        -0.97594E+08         0.00000E+00
    0.00000E+00         0.00000E+00        -0.58948E+08
 
   -0.58830E+08         0.13313E+06         0.00000E+00
    0.13313E+06        -0.97594E+08         0.00000E+00
    0.00000E+00         0.00000E+00        -0.58913E+08
 
   -0.58794E+08         0.13616E+06         0.00000E+00
    0.13616E+06        -0.97594E+08         0.00000E+00
    0.00000E+00         0.00000E+00        -0.58878E+08
 
   -0.58757E+08         0.13919E+06         0.00000E+00
    0.13919E+06        -0.97594E+08         0.00000E+00
    0.00000E+00         0.00000E+00        -0.58842E+08
 
   -0.58719E+08         0.14222E+06         0.00000E+00
    0.14222E+06        -0.97594E+08         0.00000E+00
    0.00000E+00         0.00000E+00        -0.58805E+08
 
   -0.58681E+08         0.14525E+06         0.00000E+00
    0.14525E+06        -0.97594E+08         0.00000E+00
    0.00000E+00         0.00000E+00        -0.58767E+08
 
   -0.58641E+08         0.14829E+06         0.00000E+00
    0.14829E+06        -0.97594E+08         0.00000E+00
    0.00000E+00         0.00000E+00        -0.58729E+08
 
   -0.58601E+08         0.15133E+06         0.00000E+00
    0.15133E+06        -0.97594E+08         0.00000E+00
    0.00000E+00         0.00000E+00        -0.58689E+08
 
   -0.58560E+08         0.15437E+06         0.00000E+00
    0.15437E+06        -0.97594E+08         0.00000E+00
    0.00000E+00         0.00000E+00        -0.58649E+08
 
   -0.58519E+08         0.15742E+06         0.00000E+00
    0.15742E+06        -0.97594E+08         0.00000E+00
    0.00000E+00         0.00000E+00        -0.58608E+08
 
   -0.58476E+08         0.16048E+06         0.00000E+00
    0.16048E+06        -0.97594E+08         0.00000E+00
    0.00000E+00         0.00000E+00        -0.58566E+08
 
   -0.58433E+08         0.16354E+06         0.00000E+00
    0.16354E+06        -0.97594E+08         0.00000E+00
    0.00000E+00         0.00000E+00        -0.58524E+08
 
   -0.58388E+08         0.16660E+06         0.00000E+00
    0.16660E+06        -0.97594E+08         0.00000E+00
    0.00000E+00         0.00000E+00        -0.58480E+08
 
   -0.58343E+08         0.16966E+06         0.00000E+00
    0.16966E+06        -0.97594E+08         0.00000E+00
    0.00000E+00         0.00000E+00        -0.58435E+08
 
   -0.58297E+08         0.17271E+06         0.00000E+00
    0.17271E+06        -0.97594E+08         0.00000E+00
    0.00000E+00         0.00000E+00        -0.58390E+08
 
   -0.58250E+08         0.17576E+06         0.00000E+00
    0.17576E+06        -0.97594E+08         0.00000E+00
    0.00000E+00         0.00000E+00        -0.58343E+08
 
   -0.58203E+08         0.17880E+06         0.00000E+00
    0.17880E+06        -0.97594E+08         0.00000E+00
    0.00000E+00         0.00000E+00        -0.58296E+08
 
   -0.58154E+08         0.18182E+06         0.00000E+00
    0.18182E+06        -0.97594E+08         0.00000E+00
    0.00000E+00         0.00000E+00        -0.58248E+08
 
   -0.58105E+08         0.18483E+06         0.00000E+00
    0.18483E+06        -0.97594E+08         0.00000E+00
    0.00000E+00         0.00000E+00        -0.58199E+08
 
   -0.58055E+08         0.18781E+06         0.00000E+00
    0.18781E+06        -0.97594E+08         0.00000E+00
    0.00000E+00         0.00000E+00        -0.58148E+08
 
   -0.58004E+08         0.19076E+06         0.00000E+00
    0.19076E+06        -0.97595E+08         0.00000E+00
    0.00000E+00         0.00000E+00        -0.58097E+08
 
   -0.57952E+08         0.19367E+06         0.00000E+00
    0.19367E+06        -0.97595E+08         0.00000E+00
    0.00000E+00         0.00000E+00        -0.58045E+08
 
   -0.57899E+08         0.19654E+06         0.00000E+00
    0.19654E+06        -0.97595E+08         0.00000E+00
    0.00000E+00         0.00000E+00        -0.57992E+08
 
   -0.57846E+08         0.19936E+06         0.00000E+00
    0.19936E+06        -0.97595E+08         0.00000E+00
    0.00000E+00         0.00000E+00        -0.57937E+08
 
   -0.57791E+08         0.20212E+06         0.00000E+00
    0.20212E+06        -0.97595E+08         0.00000E+00
    0.00000E+00         0.00000E+00        -0.57882E+08
 
   -0.57736E+08         0.20481E+06         0.00000E+00
    0.20481E+06        -0.97595E+08         0.00000E+00
    0.00000E+00         0.00000E+00        -0.57826E+08
 
   -0.57680E+08         0.20743E+06         0.00000E+00
    0.20743E+06        -0.97595E+08         0.00000E+00
    0.00000E+00         0.00000E+00        -0.57769E+08
 
   -0.57624E+08         0.20996E+06         0.00000E+00
    0.20996E+06        -0.97595E+08         0.00000E+00
    0.00000E+00         0.00000E+00        -0.57710E+08
 
   -0.57566E+08         0.21239E+06         0.00000E+00
    0.21239E+06        -0.97596E+08         0.00000E+00
    0.00000E+00         0.00000E+00        -0.57651E+08
 
   -0.57508E+08         0.21470E+06         0.00000E+00
    0.21470E+06        -0.97596E+08         0.00000E+00
    0.00000E+00         0.00000E+00        -0.57591E+08
 
   -0.57450E+08         0.21690E+06         0.00000E+00
    0.21690E+06        -0.97596E+08         0.00000E+00
    0.00000E+00         0.00000E+00        -0.57530E+08
 
   -0.57390E+08         0.21895E+06         0.00000E+00
    0.21895E+06        -0.97596E+08         0.00000E+00
    0.00000E+00         0.00000E+00        -0.57468E+08
 
   -0.57330E+08         0.22086E+06         0.00000E+00
    0.22086E+06        -0.97597E+08         0.00000E+00
    0.00000E+00         0.00000E+00        -0.57404E+08
 
   -0.57270E+08         0.22259E+06         0.00000E+00
    0.22259E+06        -0.97597E+08         0.00000E+00
    0.00000E+00         0.00000E+00        -0.57340E+08
 
   -0.57209E+08         0.22414E+06         0.00000E+00
    0.22414E+06        -0.97597E+08         0.00000E+00
    0.00000E+00         0.00000E+00        -0.57275E+08
 
   -0.57147E+08         0.22547E+06         0.00000E+00
    0.22547E+06        -0.97598E+08         0.00000E+00
    0.00000E+00         0.00000E+00        -0.57209E+08
 
   -0.57085E+08         0.22659E+06         0.00000E+00
    0.22659E+06        -0.97598E+08         0.00000E+00
    0.00000E+00         0.00000E+00        -0.57142E+08
 
   -0.57023E+08         0.22744E+06         0.00000E+00
    0.22744E+06        -0.97599E+08         0.00000E+00
    0.00000E+00         0.00000E+00        -0.57074E+08
 
   -0.56960E+08         0.22803E+06         0.00000E+00
    0.22803E+06        -0.97599E+08         0.00000E+00
    0.00000E+00         0.00000E+00        -0.57006E+08
 
   -0.56897E+08         0.22831E+06         0.00000E+00
    0.22831E+06        -0.97600E+08         0.00000E+00
    0.00000E+00         0.00000E+00        -0.56936E+08
 
   -0.56834E+08         0.22825E+06         0.00000E+00
    0.22825E+06        -0.97601E+08         0.00000E+00
    0.00000E+00         0.00000E+00        -0.56866E+08
 
   -0.56771E+08         0.22782E+06         0.00000E+00
    0.22782E+06        -0.97601E+08         0.00000E+00
    0.00000E+00         0.00000E+00        -0.56795E+08
 
   -0.56708E+08         0.22697E+06         0.00000E+00
    0.22697E+06        -0.97602E+08         0.00000E+00
    0.00000E+00         0.00000E+00        -0.56723E+08
 
   -0.56645E+08         0.22568E+06         0.00000E+00
    0.22568E+06        -0.97603E+08         0.00000E+00
    0.00000E+00         0.00000E+00        -0.56651E+08
 
   -0.56582E+08         0.22387E+06         0.00000E+00
    0.22387E+06        -0.97604E+08         0.00000E+00
    0.00000E+00         0.00000E+00        -0.56578E+08
 
   -0.56520E+08         0.22151E+06         0.00000E+00
    0.22151E+06        -0.97605E+08         0.00000E+00
    0.00000E+00         0.00000E+00        -0.56504E+08
 
   -0.56458E+08         0.21851E+06         0.00000E+00
    0.21851E+06        -0.97607E+08         0.00000E+00
    0.00000E+00         0.00000E+00        -0.56430E+08
 
   -0.56396E+08         0.21482E+06         0.00000E+00
    0.21482E+06        -0.97608E+08         0.00000E+00
    0.00000E+00         0.00000E+00        -0.56355E+08
 
   -0.56336E+08         0.21034E+06         0.00000E+00
    0.21034E+06        -0.97610E+08         0.00000E+00
    0.00000E+00         0.00000E+00        -0.56280E+08
 
   -0.56276E+08         0.20498E+06         0.00000E+00
    0.20498E+06        -0.97612E+08         0.00000E+00
    0.00000E+00         0.00000E+00        -0.56205E+08
 
   -0.56218E+08         0.19865E+06         0.00000E+00
    0.19865E+06        -0.97614E+08         0.00000E+00
    0.00000E+00         0.00000E+00        -0.56130E+08
 
   -0.56161E+08         0.19122E+06         0.00000E+00
    0.19122E+06        -0.97616E+08         0.00000E+00
    0.00000E+00         0.00000E+00        -0.56054E+08
 
   -0.56105E+08         0.18259E+06         0.00000E+00
    0.18259E+06        -0.97619E+08         0.00000E+00
    0.00000E+00         0.00000E+00        -0.55979E+08
 
   -0.56051E+08         0.17263E+06         0.00000E+00
    0.17263E+06        -0.97622E+08         0.00000E+00
    0.00000E+00         0.00000E+00        -0.55903E+08
 
   -0.55999E+08         0.16122E+06         0.00000E+00
    0.16122E+06        -0.97625E+08         0.00000E+00
    0.00000E+00         0.00000E+00        -0.55828E+08
 
   -0.55949E+08         0.14826E+06         0.00000E+00
    0.14826E+06        -0.97629E+08         0.00000E+00
    0.00000E+00         0.00000E+00        -0.55752E+08
 
   -0.55901E+08         0.13365E+06         0.00000E+00
    0.13365E+06        -0.97633E+08         0.00000E+00
    0.00000E+00         0.00000E+00        -0.55677E+08
 
   -0.55855E+08         0.11737E+06         0.00000E+00
    0.11737E+06        -0.97636E+08         0.00000E+00
    0.00000E+00         0.00000E+00        -0.55603E+08
 
   -0.55813E+08         0.99439E+05         0.00000E+00
    0.99439E+05        -0.97640E+08         0.00000E+00
    0.00000E+00         0.00000E+00        -0.55528E+08
 
   -0.55773E+08         0.80010E+05         0.00000E+00
    0.80010E+05        -0.97644E+08         0.00000E+00
    0.00000E+00         0.00000E+00        -0.55454E+08
 
   -0.55735E+08         0.59382E+05         0.00000E+00
    0.59382E+05        -0.97646E+08         0.00000E+00
    0.00000E+00         0.00000E+00        -0.55381E+08
 
   -0.55701E+08         0.38078E+05         0.00000E+00
    0.38078E+05        -0.97648E+08         0.00000E+00
    0.00000E+00         0.00000E+00        -0.55307E+08
 
   -0.55670E+08         0.16933E+05         0.00000E+00
    0.16933E+05        -0.97648E+08         0.00000E+00
    0.00000E+00         0.00000E+00        -0.55234E+08
 
   -0.55642E+08        -0.28018E+04         0.00000E+00
   -0.28018E+04        -0.97644E+08         0.00000E+00
    0.00000E+00         0.00000E+00        -0.55160E+08
 
   -0.55616E+08        -0.19346E+05         0.00000E+00
   -0.19346E+05        -0.97637E+08         0.00000E+00
    0.00000E+00         0.00000E+00        -0.55086E+08
 
   -0.55592E+08        -0.30336E+05         0.00000E+00
   -0.30336E+05        -0.97623E+08         0.00000E+00
    0.00000E+00         0.00000E+00        -0.55010E+08
 
   -0.55571E+08        -0.33113E+05         0.00000E+00
   -0.33113E+05        -0.97598E+08         0.00000E+00
    0.00000E+00         0.00000E+00        -0.54932E+08
 
   -0.55554E+08        -0.25901E+05         0.00000E+00
   -0.25901E+05        -0.97558E+08         0.00000E+00
    0.00000E+00         0.00000E+00        -0.54851E+08
 
   -0.55545E+08        -0.98435E+04         0.00000E+00
   -0.98435E+04        -0.97495E+08         0.00000E+00
    0.00000E+00         0.00000E+00        -0.54764E+08
 
   -0.59485E+08        -0.18007E+04         0.00000E+00
   -0.18007E+04        -0.97622E+08         0.00000E+00
    0.00000E+00         0.00000E+00        -0.59724E+08
 
   -0.59483E+08        -0.44158E+04         0.00000E+00
   -0.44158E+04        -0.97606E+08         0.00000E+00
    0.00000E+00         0.00000E+00        -0.59702E+08
 
   -0.59478E+08        -0.46585E+04         0.00000E+00
   -0.46585E+04        -0.97597E+08         0.00000E+00
    0.00000E+00         0.00000E+00        -0.59681E+08
 
   -0.59472E+08        -0.22934E+04         0.00000E+00
   -0.22934E+04        -0.97591E+08         0.00000E+00
    0.00000E+00         0.00000E+00        -0.59662E+08
 
   -0.59464E+08         0.21493E+04         0.00000E+00
    0.21493E+04        -0.97588E+08         0.00000E+00
    0.00000E+00         0.00000E+00        -0.59642E+08
 
   -0.59456E+08         0.79616E+04         0.00000E+00
    0.79616E+04        -0.97587E+08         0.00000E+00
    0.00000E+00         0.00000E+00        -0.59623E+08
 
   -0.59447E+08         0.14548E+05         0.00000E+00
    0.14548E+05        -0.97586E+08         0.00000E+00
    0.00000E+00         0.00000E+00        -0.59604E+08
 
   -0.59437E+08         0.21474E+05         0.00000E+00
    0.21474E+05        -0.97586E+08         0.00000E+00
    0.00000E+00         0.00000E+00        -0.59584E+08
 
   -0.59426E+08         0.28442E+05         0.00000E+00
    0.28442E+05        -0.97586E+08         0.00000E+00
    0.00000E+00         0.00000E+00        -0.59564E+08
 
   -0.59413E+08         0.35257E+05         0.00000E+00
    0.35257E+05        -0.97587E+08         0.00000E+00
    0.00000E+00         0.00000E+00        -0.59544E+08
 
   -0.59399E+08         0.41798E+05         0.00000E+00
    0.41798E+05        -0.97588E+08         0.00000E+00
    0.00000E+00         0.00000E+00        -0.59523E+08
 
   -0.59383E+08         0.47999E+05         0.00000E+00
    0.47999E+05        -0.97588E+08         0.00000E+00
    0.00000E+00         0.00000E+00        -0.59501E+08
 
   -0.59367E+08         0.53833E+05         0.00000E+00
    0.53833E+05        -0.97589E+08         0.00000E+00
    0.00000E+00         0.00000E+00        -0.59479E+08
 
   -0.59349E+08         0.59297E+05         0.00000E+00
    0.59297E+05        -0.97590E+08         0.00000E+00
    0.00000E+00         0.00000E+00        -0.59457E+08
 
   -0.59330E+08         0.64406E+05         0.00000E+00
    0.64406E+05        -0.97591E+08         0.00000E+00
    0.00000E+00         0.00000E+00        -0.59434E+08
 
   -0.59310E+08         0.69186E+05         0.00000E+00
    0.69186E+05        -0.97591E+08         0.00000E+00
    0.00000E+00         0.00000E+00        -0.59410E+08
 
   -0.59289E+08         0.73667E+05         0.00000E+00
    0.73667E+05        -0.97592E+08         0.00000E+00
    0.00000E+00         0.00000E+00        -0.59386E+08
 
   -0.59267E+08         0.77882E+05         0.00000E+00
    0.77882E+05        -0.97593E+08         0.00000E+00
    0.00000E+00         0.00000E+00        -0.59361E+08
 
   -0.59244E+08         0.81864E+05         0.00000E+00
    0.81864E+05        -0.97593E+08         0.00000E+00
    0.00000E+00         0.00000E+00        -0.59335E+08
 
   -0.59220E+08         0.85643E+05         0.00000E+00
    0.85643E+05        -0.97593E+08         0.00000E+00
    0.00000E+00         0.00000E+00        -0.59309E+08
 
   -0.59195E+08         0.89250E+05         0.00000E+00
    0.89250E+05        -0.97594E+08         0.00000E+00
    0.00000E+00         0.00000E+00        -0.59283E+08
 
   -0.59169E+08         0.92710E+05         0.00000E+00
    0.92710E+05        -0.97594E+08         0.00000E+00
    0.00000E+00         0.00000E+00        -0.59256E+08
 
   -0.59142E+08         0.96046E+05         0.00000E+00
    0.96046E+05        -0.97594E+08         0.00000E+00
    0.00000E+00         0.00000E+00        -0.59228E+08
 
   -0.59114E+08         0.99279E+05         0.00000E+00
    0.99279E+05        -0.97594E+08         0.00000E+00
    0.00000E+00         0.00000E+00        -0.59199E+08
 
   -0.59086E+08         0.10243E+06         0.00000E+00
    0.10243E+06        -0.97594E+08         0.00000E+00
    0.00000E+00         0.00000E+00        -0.59170E+08
 
   -0.59056E+08         0.10551E+06         0.00000E+00
    0.10551E+06        -0.97595E+08         0.00000E+00
    0.00000E+00         0.00000E+00        -0.59140E+08
 
   -0.59026E+08         0.10853E+06         0.00000E+00
    0.10853E+06        -0.97595E+08         0.00000E+00
    0.00000E+00         0.00000E+00        -0.59110E+08
 
   -0.58995E+08         0.11151E+06         0.00000E+00
    0.11151E+06        -0.97595E+08         0.00000E+00
    0.00000E+00         0.00000E+00        -0.59079E+08
 
   -0.58963E+08         0.11445E+06         0.00000E+00
    0.11445E+06        -0.97595E+08         0.00000E+00
    0.00000E+00         0.00000E+00        -0.59047E+08
 
   -0.58930E+08         0.11736E+06         0.00000E+00
    0.11736E+06        -0.97595E+08         0.00000E+00
    0.00000E+00         0.00000E+00        -0.59014E+08
 
   -0.58897E+08         0.12026E+06         0.00000E+00
    0.12026E+06        -0.97595E+08         0.00000E+00
    0.00000E+00         0.00000E+00        -0.58981E+08
 
   -0.58862E+08         0.12314E+06         0.00000E+00
    0.12314E+06        -0.97595E+08         0.00000E+00
    0.00000E+00         0.00000E+00        -0.58947E+08
 
   -0.58827E+08         0.12601E+06         0.00000E+00
    0.12601E+06        -0.97595E+08         0.00000E+00
    0.00000E+00         0.00000E+00        -0.58913E+08
 
   -0.58791E+08         0.12888E+06         0.00000E+00
    0.12888E+06        -0.97595E+08         0.00000E+00
    0.00000E+00         0.00000E+00        -0.58877E+08
 
   -0.58754E+08         0.13174E+06         0.00000E+00
    0.13174E+06        -0.97595E+08         0.00000E+00
    0.00000E+00         0.00000E+00        -0.58841E+08
 
   -0.58716E+08         0.13461E+06         0.00000E+00
    0.13461E+06        -0.97595E+08         0.00000E+00
    0.00000E+00         0.00000E+00        -0.58804E+08
 
   -0.58678E+08         0.13747E+06         0.00000E+00
    0.13747E+06        -0.97595E+08         0.00000E+00
    0.00000E+00         0.00000E+00        -0.58767E+08
 
   -0.58639E+08         0.14034E+06         0.00000E+00
    0.14034E+06        -0.97595E+08         0.00000E+00
    0.00000E+00         0.00000E+00        -0.58728E+08
 
   -0.58598E+08         0.14322E+06         0.00000E+00
    0.14322E+06        -0.97595E+08         0.00000E+00
    0.00000E+00         0.00000E+00        -0.58689E+08
 
   -0.58557E+08         0.14610E+06         0.00000E+00
    0.14610E+06        -0.97595E+08         0.00000E+00
    0.00000E+00         0.00000E+00        -0.58649E+08
 
   -0.58516E+08         0.14898E+06         0.00000E+00
    0.14898E+06        -0.97595E+08         0.00000E+00
    0.00000E+00         0.00000E+00        -0.58608E+08
 
   -0.58473E+08         0.15187E+06         0.00000E+00
    0.15187E+06        -0.97595E+08         0.00000E+00
    0.00000E+00         0.00000E+00        -0.58566E+08
 
   -0.58429E+08         0.15476E+06         0.00000E+00
    0.15476E+06        -0.97595E+08         0.00000E+00
    0.00000E+00         0.00000E+00        -0.58523E+08
 
   -0.58385E+08         0.15765E+06         0.00000E+00
    0.15765E+06        -0.97595E+08         0.00000E+00
    0.00000E+00         0.00000E+00        -0.58479E+08
 
   -0.58340E+08         0.16054E+06         0.00000E+00
    0.16054E+06        -0.97595E+08         0.00000E+00
    0.00000E+00         0.00000E+00        -0.58435E+08
 
   -0.58294E+08         0.16343E+06         0.00000E+00
    0.16343E+06        -0.97595E+08         0.00000E+00
    0.00000E+00         0.00000E+00        -0.58389E+08
 
   -0.58247E+08         0.16631E+06         0.00000E+00
    0.16631E+06        -0.97595E+08         0.00000E+00
    0.00000E+00         0.00000E+00        -0.58343E+08
 
   -0.58199E+08         0.16918E+06         0.00000E+00
    0.16918E+06        -0.97595E+08         0.00000E+00
    0.00000E+00         0.00000E+00        -0.58295E+08
 
   -0.58151E+08         0.17203E+06         0.00000E+00
    0.17203E+06        -0.97595E+08         0.00000E+00
    0.00000E+00         0.00000E+00        -0.58247E+08
 
   -0.58102E+08         0.17487E+06         0.00000E+00
    0.17487E+06        -0.97595E+08         0.00000E+00
    0.00000E+00         0.00000E+00        -0.58198E+08
 
   -0.58051E+08         0.17768E+06         0.00000E+00
    0.17768E+06        -0.97595E+08         0.00000E+00
    0.00000E+00         0.00000E+00        -0.58147E+08
 
   -0.58000E+08         0.18047E+06         0.00000E+00
    0.18047E+06        -0.97595E+08         0.00000E+00
    0.00000E+00         0.00000E+00        -0.58096E+08
 
   -0.57948E+08         0.18322E+06         0.00000E+00
    0.18322E+06        -0.97595E+08         0.00000E+00
    0.00000E+00         0.00000E+00        -0.58044E+08
 
   -0.57896E+08         0.18592E+06         0.00000E+00
    0.18592E+06        -0.97595E+08         0.00000E+00
    0.00000E+00         0.00000E+00        -0.57991E+08
 
   -0.57842E+08         0.18858E+06         0.00000E+00
    0.18858E+06        -0.97595E+08         0.00000E+00
    0.00000E+00         0.00000E+00        -0.57937E+08
 
   -0.57788E+08         0.19118E+06         0.00000E+00
    0.19118E+06        -0.97595E+08         0.00000E+00
    0.00000E+00         0.00000E+00        -0.57881E+08
 
   -0.57733E+08         0.19372E+06         0.00000E+00
    0.19372E+06        -0.97596E+08         0.00000E+00
    0.00000E+00         0.00000E+00        -0.57825E+08
 
   -0.57677E+08         0.19618E+06         0.00000E+00
    0.19618E+06        -0.97596E+08         0.00000E+00
    0.00000E+00         0.00000E+00        -0.57768E+08
 
   -0.57620E+08         0.19856E+06         0.00000E+00
    0.19856E+06        -0.97596E+08         0.00000E+00
    0.00000E+00         0.00000E+00        -0.57710E+08
 
   -0.57563E+08         0.20085E+06         0.00000E+00
    0.20085E+06        -0.97596E+08         0.00000E+00
    0.00000E+00         0.00000E+00        -0.57650E+08
 
   -0.57505E+08         0.20303E+06         0.00000E+00
    0.20303E+06        -0.97596E+08         0.00000E+00
    0.00000E+00         0.00000E+00        -0.57590E+08
 
   -0.57447E+08         0.20509E+06         0.00000E+00
    0.20509E+06        -0.97597E+08         0.00000E+00
    0.00000E+00         0.00000E+00        -0.57529E+08
 
   -0.57387E+08         0.20702E+06         0.00000E+00
    0.20702E+06        -0.97597E+08         0.00000E+00
    0.00000E+00         0.00000E+00        -0.57467E+08
 
   -0.57327E+08         0.20881E+06         0.00000E+00
    0.20881E+06        -0.97597E+08         0.00000E+00
    0.00000E+00         0.00000E+00        -0.57404E+08
 
   -0.57267E+08         0.21043E+06         0.00000E+00
    0.21043E+06        -0.97597E+08         0.00000E+00
    0.00000E+00         0.00000E+00        -0.57340E+08
 
   -0.57206E+08         0.21188E+06         0.00000E+00
    0.21188E+06        -0.97598E+08         0.00000E+00
    0.00000E+00         0.00000E+00        -0.57274E+08
 
   -0.57144E+08         0.21313E+06         0.00000E+00
    0.21313E+06        -0.97598E+08         0.00000E+00
    0.00000E+00         0.00000E+00        -0.57208E+08
 
   -0.57082E+08         0.21416E+06         0.00000E+00
    0.21416E+06        -0.97598E+08         0.00000E+00
    0.00000E+00         0.00000E+00        -0.57142E+08
 
   -0.57020E+08         0.21495E+06         0.00000E+00
    0.21495E+06        -0.97599E+08         0.00000E+00
    0.00000E+00         0.00000E+00        -0.57074E+08
 
   -0.56958E+08         0.21548E+06         0.00000E+00
    0.21548E+06        -0.97599E+08         0.00000E+00
    0.00000E+00         0.00000E+00        -0.57005E+08
 
   -0.56895E+08         0.21572E+06         0.00000E+00
    0.21572E+06        -0.97600E+08         0.00000E+00
    0.00000E+00         0.00000E+00        -0.56936E+08
 
   -0.56832E+08         0.21564E+06         0.00000E+00
    0.21564E+06        -0.97601E+08         0.00000E+00
    0.00000E+00         0.00000E+00        -0.56865E+08
 
   -0.56769E+08         0.21521E+06         0.00000E+00
    0.21521E+06        -0.97601E+08         0.00000E+00
    0.00000E+00         0.00000E+00        -0.56794E+08
 
   -0.56706E+08         0.21438E+06         0.00000E+00
    0.21438E+06        -0.97602E+08         0.00000E+00
    0.00000E+00         0.00000E+00        -0.56723E+08
 
   -0.56644E+08         0.21312E+06         0.00000E+00
    0.21312E+06        -0.97603E+08         0.00000E+00
    0.00000E+00         0.00000E+00        -0.56650E+08
 
   -0.56581E+08         0.21138E+06         0.00000E+00
    0.21138E+06        -0.97604E+08         0.00000E+00
    0.00000E+00         0.00000E+00        -0.56577E+08
 
   -0.56519E+08         0.20910E+06         0.00000E+00
    0.20910E+06        -0.97605E+08         0.00000E+00
    0.00000E+00         0.00000E+00        -0.56504E+08
 
   -0.56457E+08         0.20622E+06         0.00000E+00
    0.20622E+06        -0.97606E+08         0.00000E+00
    0.00000E+00         0.00000E+00        -0.56430E+08
 
   -0.56396E+08         0.20267E+06         0.00000E+00
    0.20267E+06        -0.97607E+08         0.00000E+00
    0.00000E+00         0.00000E+00        -0.56355E+08
 
   -0.56336E+08         0.19837E+06         0.00000E+00
    0.19837E+06        -0.97609E+08         0.00000E+00
    0.00000E+00         0.00000E+00        -0.56280E+08
 
   -0.56277E+08         0.19322E+06         0.00000E+00
    0.19322E+06        -0.97610E+08         0.00000E+00
    0.00000E+00         0.00000E+00        -0.56205E+08
 
   -0.56219E+08         0.18713E+06         0.00000E+00
    0.18713E+06        -0.97612E+08         0.00000E+00
    0.00000E+00         0.00000E+00        -0.56130E+08
 
   -0.56163E+08         0.17999E+06         0.00000E+00
    0.17999E+06        -0.97615E+08         0.00000E+00
    0.00000E+00         0.00000E+00        -0.56054E+08
 
   -0.56108E+08         0.17168E+06         0.00000E+00
    0.17168E+06        -0.97617E+08         0.00000E+00
    0.00000E+00         0.00000E+00        -0.55979E+08
 
   -0.56054E+08         0.16209E+06         0.00000E+00
    0.16209E+06        -0.97620E+08         0.00000E+00
    0.00000E+00         0.00000E+00        -0.55903E+08
 
   -0.56003E+08         0.15108E+06         0.00000E+00
    0.15108E+06        -0.97623E+08         0.00000E+00
    0.00000E+00         0.00000E+00        -0.55828E+08
 
   -0.55954E+08         0.13856E+06         0.00000E+00
    0.13856E+06        -0.97626E+08         0.00000E+00
    0.00000E+00         0.00000E+00        -0.55753E+08
 
   -0.55907E+08         0.12444E+06         0.00000E+00
    0.12444E+06        -0.97630E+08         0.00000E+00
    0.00000E+00         0.00000E+00        -0.55678E+08
 
   -0.55863E+08         0.10868E+06         0.00000E+00
    0.10868E+06        -0.97633E+08         0.00000E+00
    0.00000E+00         0.00000E+00        -0.55604E+08
 
   -0.55822E+08         0.91315E+05         0.00000E+00
    0.91315E+05        -0.97637E+08         0.00000E+00
    0.00000E+00         0.00000E+00        -0.55530E+08
 
   -0.55784E+08         0.72475E+05         0.00000E+00
    0.72475E+05        -0.97640E+08         0.00000E+00
    0.00000E+00         0.00000E+00        -0.55457E+08
 
   -0.55749E+08         0.52452E+05         0.00000E+00
    0.52452E+05        -0.97642E+08         0.00000E+00
    0.00000E+00         0.00000E+00        -0.55384E+08
 
   -0.55717E+08         0.31755E+05         0.00000E+00
    0.31755E+05        -0.97644E+08         0.00000E+00
    0.00000E+00         0.00000E+00        -0.55311E+08
 
   -0.55688E+08         0.11195E+05         0.00000E+00
    0.11195E+05        -0.97643E+08         0.00000E+00
    0.00000E+00         0.00000E+00        -0.55238E+08
 
   -0.55661E+08        -0.80088E+04         0.00000E+00
   -0.80088E+04        -0.97641E+08         0.00000E+00
    0.00000E+00         0.00000E+00        -0.55165E+08
 
   -0.55638E+08        -0.24098E+05         0.00000E+00
   -0.24098E+05        -0.97634E+08         0.00000E+00
    0.00000E+00         0.00000E+00        -0.55092E+08
 
   -0.55616E+08        -0.34673E+05         0.00000E+00
   -0.34673E+05        -0.97621E+08         0.00000E+00
    0.00000E+00         0.00000E+00        -0.55017E+08
 
   -0.55597E+08        -0.36895E+05         0.00000E+00
   -0.36895E+05        -0.97599E+08         0.00000E+00
    0.00000E+00         0.00000E+00        -0.54940E+08
 
   -0.55581E+08        -0.28645E+05         0.00000E+00
   -0.28645E+05        -0.97561E+08         0.00000E+00
    0.00000E+00         0.00000E+00        -0.54859E+08
 
   -0.55572E+08        -0.10872E+05         0.00000E+00
   -0.10872E+05        -0.97499E+08         0.00000E+00
    0.00000E+00         0.00000E+00        -0.54773E+08
 
   -0.59477E+08        -0.20974E+04         0.00000E+00
   -0.20974E+04        -0.97621E+08         0.00000E+00
    0.00000E+00         0.00000E+00        -0.59721E+08
 
   -0.59475E+08        -0.52078E+04         0.00000E+00
   -0.52078E+04        -0.97606E+08         0.00000E+00
    0.00000E+00         0.00000E+00        -0.59700E+08
 
   -0.59470E+08        -0.57586E+04         0.00000E+00
   -0.57586E+04        -0.97597E+08         0.00000E+00
    0.00000E+00         0.00000E+00        -0.59679E+08
 
   -0.59464E+08        -0.35833E+04         0.00000E+00
   -0.35833E+04        -0.97592E+08         0.00000E+00
    0.00000E+00         0.00000E+00        -0.59660E+08
 
   -0.59458E+08         0.68938E+03         0.00000E+00
    0.68938E+03        -0.97589E+08         0.00000E+00
    0.00000E+00         0.00000E+00        -0.59641E+08
 
   -0.59450E+08         0.63055E+04         0.00000E+00
    0.63055E+04        -0.97588E+08         0.00000E+00
    0.00000E+00         0.00000E+00        -0.59622E+08
 
   -0.59442E+08         0.12666E+05         0.00000E+00
    0.12666E+05        -0.97587E+08         0.00000E+00
    0.00000E+00         0.00000E+00        -0.59602E+08
 
   -0.59432E+08         0.19346E+05         0.00000E+00
    0.19346E+05        -0.97587E+08         0.00000E+00
    0.00000E+00         0.00000E+00        -0.59583E+08
 
   -0.59421E+08         0.26058E+05         0.00000E+00
    0.26058E+05        -0.97588E+08         0.00000E+00
    0.00000E+00         0.00000E+00        -0.59563E+08
 
   -0.59409E+08         0.32613E+05         0.00000E+00
    0.32613E+05        -0.97588E+08         0.00000E+00
    0.00000E+00         0.00000E+00        -0.59543E+08
 
   -0.59395E+08         0.38897E+05         0.00000E+00
    0.38897E+05        -0.97589E+08         0.00000E+00
    0.00000E+00         0.00000E+00        -0.59522E+08
 
   -0.59380E+08         0.44845E+05         0.00000E+00
    0.44845E+05        -0.97590E+08         0.00000E+00
    0.00000E+00         0.00000E+00        -0.59501E+08
 
   -0.59364E+08         0.50433E+05         0.00000E+00
    0.50433E+05        -0.97590E+08         0.00000E+00
    0.00000E+00         0.00000E+00        -0.59479E+08
 
   -0.59346E+08         0.55659E+05         0.00000E+00
    0.55659E+05        -0.97591E+08         0.00000E+00
    0.00000E+00         0.00000E+00        -0.59456E+08
 
   -0.59327E+08         0.60537E+05         0.00000E+00
    0.60537E+05        -0.97592E+08         0.00000E+00
    0.00000E+00         0.00000E+00        -0.59433E+08
 
   -0.59308E+08         0.65095E+05         0.00000E+00
    0.65095E+05        -0.97592E+08         0.00000E+00
    0.00000E+00         0.00000E+00        -0.59409E+08
 
   -0.59287E+08         0.69361E+05         0.00000E+00
    0.69361E+05        -0.97593E+08         0.00000E+00
    0.00000E+00         0.00000E+00        -0.59385E+08
 
   -0.59265E+08         0.73368E+05         0.00000E+00
    0.73368E+05        -0.97593E+08         0.00000E+00
    0.00000E+00         0.00000E+00        -0.59360E+08
 
   -0.59242E+08         0.77149E+05         0.00000E+00
    0.77149E+05        -0.97594E+08         0.00000E+00
    0.00000E+00         0.00000E+00        -0.59335E+08
 
   -0.59218E+08         0.80735E+05         0.00000E+00
    0.80735E+05        -0.97594E+08         0.00000E+00
    0.00000E+00         0.00000E+00        -0.59309E+08
 
   -0.59193E+08         0.84152E+05         0.00000E+00
    0.84152E+05        -0.97594E+08         0.00000E+00
    0.00000E+00         0.00000E+00        -0.59282E+08
 
   -0.59167E+08         0.87428E+05         0.00000E+00
    0.87428E+05        -0.97595E+08         0.00000E+00
    0.00000E+00         0.00000E+00        -0.59255E+08
 
   -0.59140E+08         0.90585E+05         0.00000E+00
    0.90585E+05        -0.97595E+08         0.00000E+00
    0.00000E+00         0.00000E+00        -0.59227E+08
 
   -0.59112E+08         0.93642E+05         0.00000E+00
    0.93642E+05        -0.97595E+08         0.00000E+00
    0.00000E+00         0.00000E+00        -0.59199E+08
 
   -0.59083E+08         0.96618E+05         0.00000E+00
    0.96618E+05        -0.97595E+08         0.00000E+00
    0.00000E+00         0.00000E+00        -0.59169E+08
 
   -0.59054E+08         0.99526E+05         0.00000E+00
    0.99526E+05        -0.97595E+08         0.00000E+00
    0.00000E+00         0.00000E+00        -0.59140E+08
 
   -0.59024E+08         0.10238E+06         0.00000E+00
    0.10238E+06        -0.97595E+08         0.00000E+00
    0.00000E+00         0.00000E+00        -0.59109E+08
 
   -0.58992E+08         0.10519E+06         0.00000E+00
    0.10519E+06        -0.97595E+08         0.00000E+00
    0.00000E+00         0.00000E+00        -0.59078E+08
 
   -0.58960E+08         0.10797E+06         0.00000E+00
    0.10797E+06        -0.97595E+08         0.00000E+00
    0.00000E+00         0.00000E+00        -0.59046E+08
 
   -0.58928E+08         0.11072E+06         0.00000E+00
    0.11072E+06        -0.97595E+08         0.00000E+00
    0.00000E+00         0.00000E+00        -0.59014E+08
 
   -0.58894E+08         0.11345E+06         0.00000E+00
    0.11345E+06        -0.97595E+08         0.00000E+00
    0.00000E+00         0.00000E+00        -0.58981E+08
 
   -0.58859E+08         0.11617E+06         0.00000E+00
    0.11617E+06        -0.97595E+08         0.00000E+00
    0.00000E+00         0.00000E+00        -0.58947E+08
 
   -0.58824E+08         0.11888E+06         0.00000E+00
    0.11888E+06        -0.97595E+08         0.00000E+00
    0.00000E+00         0.00000E+00        -0.58912E+08
 
   -0.58788E+08         0.12158E+06         0.00000E+00
    0.12158E+06        -0.97595E+08         0.00000E+00
    0.00000E+00         0.00000E+00        -0.58877E+08
 
   -0.58751E+08         0.12428E+06         0.00000E+00
    0.12428E+06        -0.97595E+08         0.00000E+00
    0.00000E+00         0.00000E+00        -0.58841E+08
 
   -0.58714E+08         0.12699E+06         0.00000E+00
    0.12699E+06        -0.97595E+08         0.00000E+00
    0.00000E+00         0.00000E+00        -0.58804E+08
 
   -0.58675E+08         0.12969E+06         0.00000E+00
    0.12969E+06        -0.97595E+08         0.00000E+00
    0.00000E+00         0.00000E+00        -0.58766E+08
 
   -0.58636E+08         0.13239E+06         0.00000E+00
    0.13239E+06        -0.97595E+08         0.00000E+00
    0.00000E+00         0.00000E+00        -0.58727E+08
 
   -0.58595E+08         0.13510E+06         0.00000E+00
    0.13510E+06        -0.97595E+08         0.00000E+00
    0.00000E+00         0.00000E+00        -0.58688E+08
 
   -0.58554E+08         0.13782E+06         0.00000E+00
    0.13782E+06        -0.97595E+08         0.00000E+00
    0.00000E+00         0.00000E+00        -0.58648E+08
 
   -0.58513E+08         0.14054E+06         0.00000E+00
    0.14054E+06        -0.97595E+08         0.00000E+00
    0.00000E+00         0.00000E+00        -0.58607E+08
 
   -0.58470E+08         0.14326E+06         0.00000E+00
    0.14326E+06        -0.97595E+08         0.00000E+00
    0.00000E+00         0.00000E+00        -0.58565E+08
 
   -0.58426E+08         0.14598E+06         0.00000E+00
    0.14598E+06        -0.97595E+08         0.00000E+00
    0.00000E+00         0.00000E+00        -0.58522E+08
 
   -0.58382E+08         0.14870E+06         0.00000E+00
    0.14870E+06        -0.97595E+08         0.00000E+00
    0.00000E+00         0.00000E+00        -0.58478E+08
 
   -0.58337E+08         0.15142E+06         0.00000E+00
    0.15142E+06        -0.97595E+08         0.00000E+00
    0.00000E+00         0.00000E+00        -0.58434E+08
 
   -0.58291E+08         0.15414E+06         0.00000E+00
    0.15414E+06        -0.97595E+08         0.00000E+00
    0.00000E+00         0.00000E+00        -0.58388E+08
 
   -0.58244E+08         0.15685E+06         0.00000E+00
    0.15685E+06        -0.97595E+08         0.00000E+00
    0.00000E+00         0.00000E+00        -0.58342E+08
 
   -0.58196E+08         0.15955E+06         0.00000E+00
    0.15955E+06        -0.97595E+08         0.00000E+00
    0.00000E+00         0.00000E+00        -0.58295E+08
 
   -0.58148E+08         0.16224E+06         0.00000E+00
    0.16224E+06        -0.97596E+08         0.00000E+00
    0.00000E+00         0.00000E+00        -0.58246E+08
 
   -0.58098E+08         0.16491E+06         0.00000E+00
    0.16491E+06        -0.97596E+08         0.00000E+00
    0.00000E+00         0.00000E+00        -0.58197E+08
 
   -0.58048E+08         0.16756E+06         0.00000E+00
    0.16756E+06        -0.97596E+08         0.00000E+00
    0.00000E+00         0.00000E+00        -0.58147E+08
 
   -0.57997E+08         0.17017E+06         0.00000E+00
    0.17017E+06        -0.97596E+08         0.00000E+00
    0.00000E+00         0.00000E+00        -0.58095E+08
 
   -0.57945E+08         0.17276E+06         0.00000E+00
    0.17276E+06        -0.97596E+08         0.00000E+00
    0.00000E+00         0.00000E+00        -0.58043E+08
 
   -0.57892E+08         0.17530E+06         0.00000E+00
    0.17530E+06        -0.97596E+08         0.00000E+00
    0.00000E+00         0.00000E+00        -0.57990E+08
 
   -0.57839E+08         0.17780E+06         0.00000E+00
    0.17780E+06        -0.97596E+08         0.00000E+00
    0.00000E+00         0.00000E+00        -0.57936E+08
 
   -0.57785E+08         0.18025E+06         0.00000E+00
    0.18025E+06        -0.97596E+08         0.00000E+00
    0.00000E+00         0.00000E+00        -0.57880E+08
 
   -0.57730E+08         0.18263E+06         0.00000E+00
    0.18263E+06        -0.97596E+08         0.00000E+00
    0.00000E+00         0.00000E+00        -0.57824E+08
 
   -0.57674E+08         0.18495E+06         0.00000E+00
    0.18495E+06        -0.97596E+08         0.00000E+00
    0.00000E+00         0.00000E+00        -0.57767E+08
 
   -0.57617E+08         0.18718E+06         0.00000E+00
    0.18718E+06        -0.97596E+08         0.00000E+00
    0.00000E+00         0.00000E+00        -0.57709E+08
 
   -0.57560E+08         0.18932E+06         0.00000E+00
    0.18932E+06        -0.97597E+08         0.00000E+00
    0.00000E+00         0.00000E+00        -0.57650E+08
 
   -0.57502E+08         0.19137E+06         0.00000E+00
    0.19137E+06        -0.97597E+08         0.00000E+00
    0.00000E+00         0.00000E+00        -0.57589E+08
 
   -0.57443E+08         0.19330E+06         0.00000E+00
    0.19330E+06        -0.97597E+08         0.00000E+00
    0.00000E+00         0.00000E+00        -0.57528E+08
 
   -0.57384E+08         0.19511E+06         0.00000E+00
    0.19511E+06        -0.97597E+08         0.00000E+00
    0.00000E+00         0.00000E+00        -0.57466E+08
 
   -0.57324E+08         0.19678E+06         0.00000E+00
    0.19678E+06        -0.97597E+08         0.00000E+00
    0.00000E+00         0.00000E+00        -0.57403E+08
 
   -0.57264E+08         0.19829E+06         0.00000E+00
    0.19829E+06        -0.97598E+08         0.00000E+00
    0.00000E+00         0.00000E+00        -0.57339E+08
 
   -0.57203E+08         0.19964E+06         0.00000E+00
    0.19964E+06        -0.97598E+08         0.00000E+00
    0.00000E+00         0.00000E+00        -0.57274E+08
 
   -0.57142E+08         0.20080E+06         0.00000E+00
    0.20080E+06        -0.97598E+08         0.00000E+00
    0.00000E+00         0.00000E+00        -0.57208E+08
 
   -0.57080E+08         0.20176E+06         0.00000E+00
    0.20176E+06        -0.97599E+08         0.00000E+00
    0.00000E+00         0.00000E+00        -0.57141E+08
 
   -0.57018E+08         0.20249E+06         0.00000E+00
    0.20249E+06        -0.97599E+08         0.00000E+00
    0.00000E+00         0.00000E+00        -0.57073E+08
 
   -0.56956E+08         0.20297E+06         0.00000E+00
    0.20297E+06        -0.97599E+08         0.00000E+00
    0.00000E+00         0.00000E+00        -0.57005E+08
 
   -0.56893E+08         0.20317E+06         0.00000E+00
    0.20317E+06        -0.97600E+08         0.00000E+00
    0.00000E+00         0.00000E+00        -0.56935E+08
 
   -0.56830E+08         0.20308E+06         0.00000E+00
    0.20308E+06        -0.97600E+08         0.00000E+00
    0.00000E+00         0.00000E+00        -0.56865E+08
 
   -0.56768E+08         0.20264E+06         0.00000E+00
    0.20264E+06        -0.97601E+08         0.00000E+00
    0.00000E+00         0.00000E+00        -0.56794E+08
 
   -0.56705E+08         0.20184E+06         0.00000E+00
    0.20184E+06        -0.97602E+08         0.00000E+00
    0.00000E+00         0.00000E+00        -0.56722E+08
 
   -0.56642E+08         0.20062E+06         0.00000E+00
    0.20062E+06        -0.97602E+08         0.00000E+00
    0.00000E+00         0.00000E+00        -0.56650E+08
 
   -0.56580E+08         0.19895E+06         0.00000E+00
    0.19895E+06        -0.97603E+08         0.00000E+00
    0.00000E+00         0.00000E+00        -0.56577E+08
 
   -0.56518E+08         0.19676E+06         0.00000E+00
    0.19676E+06        -0.97604E+08         0.00000E+00
    0.00000E+00         0.00000E+00        -0.56503E+08
 
   -0.56457E+08         0.19400E+06         0.00000E+00
    0.19400E+06        -0.97605E+08         0.00000E+00
    0.00000E+00         0.00000E+00        -0.56429E+08
 
   -0.56397E+08         0.19060E+06         0.00000E+00
    0.19060E+06        -0.97606E+08         0.00000E+00
    0.00000E+00         0.00000E+00        -0.56355E+08
 
   -0.56337E+08         0.18648E+06         0.00000E+00
    0.18648E+06        -0.97608E+08         0.00000E+00
    0.00000E+00         0.00000E+00        -0.56280E+08
 
   -0.56278E+08         0.18156E+06         0.00000E+00
    0.18156E+06        -0.97609E+08         0.00000E+00
    0.00000E+00         0.00000E+00        -0.56205E+08
 
   -0.56221E+08         0.17573E+06         0.00000E+00
    0.17573E+06        -0.97611E+08         0.00000E+00
    0.00000E+00         0.00000E+00        -0.56130E+08
 
   -0.56165E+08         0.16889E+06         0.00000E+00
    0.16889E+06        -0.97613E+08         0.00000E+00
    0.00000E+00         0.00000E+00        -0.56054E+08
 
   -0.56110E+08         0.16092E+06         0.00000E+00
    0.16092E+06        -0.97615E+08         0.00000E+00
    0.00000E+00         0.00000E+00        -0.55979E+08
 
   -0.56058E+08         0.15170E+06         0.00000E+00
    0.15170E+06        -0.97618E+08         0.00000E+00
    0.00000E+00         0.00000E+00        -0.55904E+08
 
   -0.56007E+08         0.14113E+06         0.00000E+00
    0.14113E+06        -0.97620E+08         0.00000E+00
    0.00000E+00         0.00000E+00        -0.55829E+08
 
   -0.55959E+08         0.12908E+06         0.00000E+00
    0.12908E+06        -0.97623E+08         0.00000E+00
    0.00000E+00         0.00000E+00        -0.55754E+08
 
   -0.55914E+08         0.11548E+06         0.00000E+00
    0.11548E+06        -0.97627E+08         0.00000E+00
    0.00000E+00         0.00000E+00        -0.55679E+08
 
   -0.55871E+08         0.10029E+06         0.00000E+00
    0.10029E+06        -0.97630E+08         0.00000E+00
    0.00000E+00         0.00000E+00        -0.55605E+08
 
   -0.55831E+08         0.83518E+05         0.00000E+00
    0.83518E+05        -0.97633E+08         0.00000E+00
    0.00000E+00         0.00000E+00        -0.55532E+08
 
   -0.55795E+08         0.65308E+05         0.00000E+00
    0.65308E+05        -0.97636E+08         0.00000E+00
    0.00000E+00         0.00000E+00        -0.55459E+08
 
   -0.55762E+08         0.45933E+05         0.00000E+00
    0.45933E+05        -0.97638E+08         0.00000E+00
    0.00000E+00         0.00000E+00        -0.55386E+08
 
   -0.55732E+08         0.25881E+05         0.00000E+00
    0.25881E+05        -0.97640E+08         0.00000E+00
    0.00000E+00         0.00000E+00        -0.55314E+08
 
   -0.55705E+08         0.59334E+04         0.00000E+00
    0.59334E+04        -0.97639E+08         0.00000E+00
    0.00000E+00         0.00000E+00        -0.55242E+08
 
   -0.55681E+08        -0.12731E+05         0.00000E+00
   -0.12731E+05        -0.97637E+08         0.00000E+00
    0.00000E+00         0.00000E+00        -0.55170E+08
 
   -0.55660E+08        -0.28392E+05         0.00000E+00
   -0.28392E+05        -0.97631E+08         0.00000E+00
    0.00000E+00         0.00000E+00        -0.55098E+08
 
   -0.55641E+08        -0.38637E+05         0.00000E+00
   -0.38637E+05        -0.97620E+08         0.00000E+00
    0.00000E+00         0.00000E+00        -0.55024E+08
 
   -0.55623E+08        -0.40444E+05         0.00000E+00
   -0.40444E+05        -0.97600E+08         0.00000E+00
    0.00000E+00         0.00000E+00        -0.54948E+08
 
   -0.55608E+08        -0.31303E+05         0.00000E+00
   -0.31303E+05        -0.97564E+08         0.00000E+00
    0.00000E+00         0.00000E+00        -0.54868E+08
 
   -0.55599E+08        -0.11889E+05         0.00000E+00
   -0.11889E+05        -0.97503E+08         0.00000E+00
    0.00000E+00         0.00000E+00        -0.54783E+08
 
   -0.59469E+08        -0.23922E+04         0.00000E+00
   -0.23922E+04        -0.97620E+08         0.00000E+00
    0.00000E+00         0.00000E+00        -0.59718E+08
 
   -0.59467E+08        -0.59785E+04         0.00000E+00
   -0.59785E+04        -0.97606E+08         0.00000E+00
    0.00000E+00         0.00000E+00        -0.59697E+08
 
   -0.59462E+08        -0.67984E+04         0.00000E+00
   -0.67984E+04        -0.97597E+08         0.00000E+00
    0.00000E+00         0.00000E+00        -0.59677E+08
 
   -0.59457E+08        -0.47777E+04         0.00000E+00
   -0.47777E+04        -0.97593E+08         0.00000E+00
    0.00000E+00         0.00000E+00        -0.59658E+08
 
   -0.59451E+08        -0.65735E+03         0.00000E+00
   -0.65735E+03        -0.97590E+08         0.00000E+00
    0.00000E+00         0.00000E+00        -0.59639E+08
 
   -0.59444E+08         0.47657E+04         0.00000E+00
    0.47657E+04        -0.97589E+08         0.00000E+00
    0.00000E+00         0.00000E+00        -0.59620E+08
 
   -0.59436E+08         0.10895E+05         0.00000E+00
    0.10895E+05        -0.97589E+08         0.00000E+00
    0.00000E+00         0.00000E+00        -0.59601E+08
 
   -0.59427E+08         0.17319E+05         0.00000E+00
    0.17319E+05        -0.97589E+08         0.00000E+00
    0.00000E+00         0.00000E+00        -0.59582E+08
 
   -0.59416E+08         0.23763E+05         0.00000E+00
    0.23763E+05        -0.97589E+08         0.00000E+00
    0.00000E+00         0.00000E+00        -0.59562E+08
 
   -0.59404E+08         0.30047E+05         0.00000E+00
    0.30047E+05        -0.97589E+08         0.00000E+00
    0.00000E+00         0.00000E+00        -0.59542E+08
 
   -0.59391E+08         0.36061E+05         0.00000E+00
    0.36061E+05        -0.97590E+08         0.00000E+00
    0.00000E+00         0.00000E+00        -0.59521E+08
 
   -0.59376E+08         0.41746E+05         0.00000E+00
    0.41746E+05        -0.97591E+08         0.00000E+00
    0.00000E+00         0.00000E+00        -0.59500E+08
 
   -0.59360E+08         0.47078E+05         0.00000E+00
    0.47078E+05        -0.97591E+08         0.00000E+00
    0.00000E+00         0.00000E+00        -0.59478E+08
 
   -0.59343E+08         0.52057E+05         0.00000E+00
    0.52057E+05        -0.97592E+08         0.00000E+00
    0.00000E+00         0.00000E+00        -0.59456E+08
 
   -0.59325E+08         0.56698E+05         0.00000E+00
    0.56698E+05        -0.97593E+08         0.00000E+00
    0.00000E+00         0.00000E+00        -0.59432E+08
 
   -0.59305E+08         0.61026E+05         0.00000E+00
    0.61026E+05        -0.97593E+08         0.00000E+00
    0.00000E+00         0.00000E+00        -0.59409E+08
 
   -0.59284E+08         0.65072E+05         0.00000E+00
    0.65072E+05        -0.97594E+08         0.00000E+00
    0.00000E+00         0.00000E+00        -0.59385E+08
 
   -0.59262E+08         0.68868E+05         0.00000E+00
    0.68868E+05        -0.97594E+08         0.00000E+00
    0.00000E+00         0.00000E+00        -0.59360E+08
 
   -0.59239E+08         0.72444E+05         0.00000E+00
    0.72444E+05        -0.97594E+08         0.00000E+00
    0.00000E+00         0.00000E+00        -0.59334E+08
 
   -0.59215E+08         0.75832E+05         0.00000E+00
    0.75832E+05        -0.97595E+08         0.00000E+00
    0.00000E+00         0.00000E+00        -0.59308E+08
 
   -0.59190E+08         0.79058E+05         0.00000E+00
    0.79058E+05        -0.97595E+08         0.00000E+00
    0.00000E+00         0.00000E+00        -0.59282E+08
 
   -0.59164E+08         0.82148E+05         0.00000E+00
    0.82148E+05        -0.97595E+08         0.00000E+00
    0.00000E+00         0.00000E+00        -0.59254E+08
 
   -0.59137E+08         0.85123E+05         0.00000E+00
    0.85123E+05        -0.97595E+08         0.00000E+00
    0.00000E+00         0.00000E+00        -0.59227E+08
 
   -0.59110E+08         0.88004E+05         0.00000E+00
    0.88004E+05        -0.97596E+08         0.00000E+00
    0.00000E+00         0.00000E+00        -0.59198E+08
 
   -0.59081E+08         0.90805E+05         0.00000E+00
    0.90805E+05        -0.97596E+08         0.00000E+00
    0.00000E+00         0.00000E+00        -0.59169E+08
 
   -0.59051E+08         0.93543E+05         0.00000E+00
    0.93543E+05        -0.97596E+08         0.00000E+00
    0.00000E+00         0.00000E+00        -0.59139E+08
 
   -0.59021E+08         0.96228E+05         0.00000E+00
    0.96228E+05        -0.97596E+08         0.00000E+00
    0.00000E+00         0.00000E+00        -0.59109E+08
 
   -0.58990E+08         0.98873E+05         0.00000E+00
    0.98873E+05        -0.97596E+08         0.00000E+00
    0.00000E+00         0.00000E+00        -0.59078E+08
 
   -0.58958E+08         0.10148E+06         0.00000E+00
    0.10148E+06        -0.97596E+08         0.00000E+00
    0.00000E+00         0.00000E+00        -0.59046E+08
 
   -0.58925E+08         0.10407E+06         0.00000E+00
    0.10407E+06        -0.97596E+08         0.00000E+00
    0.00000E+00         0.00000E+00        -0.59013E+08
 
   -0.58891E+08         0.10664E+06         0.00000E+00
    0.10664E+06        -0.97596E+08         0.00000E+00
    0.00000E+00         0.00000E+00        -0.58980E+08
 
   -0.58857E+08         0.10919E+06         0.00000E+00
    0.10919E+06        -0.97596E+08         0.00000E+00
    0.00000E+00         0.00000E+00        -0.58946E+08
 
   -0.58822E+08         0.11174E+06         0.00000E+00
    0.11174E+06        -0.97596E+08         0.00000E+00
    0.00000E+00         0.00000E+00        -0.58911E+08
 
   -0.58785E+08         0.11428E+06         0.00000E+00
    0.11428E+06        -0.97596E+08         0.00000E+00
    0.00000E+00         0.00000E+00        -0.58876E+08
 
   -0.58748E+08         0.11682E+06         0.00000E+00
    0.11682E+06        -0.97596E+08         0.00000E+00
    0.00000E+00         0.00000E+00        -0.58840E+08
 
   -0.58711E+08         0.11936E+06         0.00000E+00
    0.11936E+06        -0.97596E+08         0.00000E+00
    0.00000E+00         0.00000E+00        -0.58803E+08
 
   -0.58672E+08         0.12190E+06         0.00000E+00
    0.12190E+06        -0.97596E+08         0.00000E+00
    0.00000E+00         0.00000E+00        -0.58765E+08
 
   -0.58633E+08         0.12444E+06         0.00000E+00
    0.12444E+06        -0.97596E+08         0.00000E+00
    0.00000E+00         0.00000E+00        -0.58727E+08
 
   -0.58593E+08         0.12698E+06         0.00000E+00
    0.12698E+06        -0.97596E+08         0.00000E+00
    0.00000E+00         0.00000E+00        -0.58687E+08
 
   -0.58551E+08         0.12953E+06         0.00000E+00
    0.12953E+06        -0.97596E+08         0.00000E+00
    0.00000E+00         0.00000E+00        -0.58647E+08
 
   -0.58510E+08         0.13208E+06         0.00000E+00
    0.13208E+06        -0.97596E+08         0.00000E+00
    0.00000E+00         0.00000E+00        -0.58606E+08
 
   -0.58467E+08         0.13463E+06         0.00000E+00
    0.13463E+06        -0.97596E+08         0.00000E+00
    0.00000E+00         0.00000E+00        -0.58564E+08
 
   -0.58423E+08         0.13719E+06         0.00000E+00
    0.13719E+06        -0.97596E+08         0.00000E+00
    0.00000E+00         0.00000E+00        -0.58521E+08
 
   -0.58379E+08         0.13975E+06         0.00000E+00
    0.13975E+06        -0.97596E+08         0.00000E+00
    0.00000E+00         0.00000E+00        -0.58478E+08
 
   -0.58334E+08         0.14230E+06         0.00000E+00
    0.14230E+06        -0.97596E+08         0.00000E+00
    0.00000E+00         0.00000E+00        -0.58433E+08
 
   -0.58288E+08         0.14485E+06         0.00000E+00
    0.14485E+06        -0.97596E+08         0.00000E+00
    0.00000E+00         0.00000E+00        -0.58388E+08
 
   -0.58241E+08         0.14739E+06         0.00000E+00
    0.14739E+06        -0.97596E+08         0.00000E+00
    0.00000E+00         0.00000E+00        -0.58341E+08
 
   -0.58193E+08         0.14992E+06         0.00000E+00
    0.14992E+06        -0.97596E+08         0.00000E+00
    0.00000E+00         0.00000E+00        -0.58294E+08
 
   -0.58144E+08         0.15244E+06         0.00000E+00
    0.15244E+06        -0.97596E+08         0.00000E+00
    0.00000E+00         0.00000E+00        -0.58245E+08
 
   -0.58095E+08         0.15495E+06         0.00000E+00
    0.15495E+06        -0.97596E+08         0.00000E+00
    0.00000E+00         0.00000E+00        -0.58196E+08
 
   -0.58045E+08         0.15743E+06         0.00000E+00
    0.15743E+06        -0.97596E+08         0.00000E+00
    0.00000E+00         0.00000E+00        -0.58146E+08
 
   -0.57994E+08         0.15988E+06         0.00000E+00
    0.15988E+06        -0.97596E+08         0.00000E+00
    0.00000E+00         0.00000E+00        -0.58095E+08
 
   -0.57942E+08         0.16230E+06         0.00000E+00
    0.16230E+06        -0.97596E+08         0.00000E+00
    0.00000E+00         0.00000E+00        -0.58042E+08
 
   -0.57889E+08         0.16469E+06         0.00000E+00
    0.16469E+06        -0.97596E+08         0.00000E+00
    0.00000E+00         0.00000E+00        -0.57989E+08
 
   -0.57836E+08         0.16703E+06         0.00000E+00
    0.16703E+06        -0.97596E+08         0.00000E+00
    0.00000E+00         0.00000E+00        -0.57935E+08
 
   -0.57781E+08         0.16932E+06         0.00000E+00
    0.16932E+06        -0.97596E+08         0.00000E+00
    0.00000E+00         0.00000E+00        -0.57880E+08
 
   -0.57726E+08         0.17155E+06         0.00000E+00
    0.17155E+06        -0.97597E+08         0.00000E+00
    0.00000E+00         0.00000E+00        -0.57823E+08
 
   -0.57671E+08         0.17371E+06         0.00000E+00
    0.17371E+06        -0.97597E+08         0.00000E+00
    0.00000E+00         0.00000E+00        -0.57766E+08
 
   -0.57614E+08         0.17580E+06         0.00000E+00
    0.17580E+06        -0.97597E+08         0.00000E+00
    0.00000E+00         0.00000E+00        -0.57708E+08
 
   -0.57557E+08         0.17780E+06         0.00000E+00
    0.17780E+06        -0.97597E+08         0.00000E+00
    0.00000E+00         0.00000E+00        -0.57649E+08
 
   -0.57499E+08         0.17971E+06         0.00000E+00
    0.17971E+06        -0.97597E+08         0.00000E+00
    0.00000E+00         0.00000E+00        -0.57589E+08
 
   -0.57440E+08         0.18152E+06         0.00000E+00
    0.18152E+06        -0.97597E+08         0.00000E+00
    0.00000E+00         0.00000E+00        -0.57527E+08
 
   -0.57381E+08         0.18320E+06         0.00000E+00
    0.18320E+06        -0.97597E+08         0.00000E+00
    0.00000E+00         0.00000E+00        -0.57465E+08
 
   -0.57322E+08         0.18476E+06         0.00000E+00
    0.18476E+06        -0.97598E+08         0.00000E+00
    0.00000E+00         0.00000E+00        -0.57402E+08
 
   -0.57261E+08         0.18617E+06         0.00000E+00
    0.18617E+06        -0.97598E+08         0.00000E+00
    0.00000E+00         0.00000E+00        -0.57338E+08
 
   -0.57200E+08         0.18742E+06         0.00000E+00
    0.18742E+06        -0.97598E+08         0.00000E+00
    0.00000E+00         0.00000E+00        -0.57273E+08
 
   -0.57139E+08         0.18850E+06         0.00000E+00
    0.18850E+06        -0.97598E+08         0.00000E+00
    0.00000E+00         0.00000E+00        -0.57207E+08
 
   -0.57078E+08         0.18938E+06         0.00000E+00
    0.18938E+06        -0.97599E+08         0.00000E+00
    0.00000E+00         0.00000E+00        -0.57140E+08
 
   -0.57016E+08         0.19005E+06         0.00000E+00
    0.19005E+06        -0.97599E+08         0.00000E+00
    0.00000E+00         0.00000E+00        -0.57072E+08
 
   -0.56953E+08         0.19048E+06         0.00000E+00
    0.19048E+06        -0.97600E+08         0.00000E+00
    0.00000E+00         0.00000E+00        -0.57004E+08
 
   -0.56891E+08         0.19066E+06         0.00000E+00
    0.19066E+06        -0.97600E+08         0.00000E+00
    0.00000E+00         0.00000E+00        -0.56934E+08
 
   -0.56828E+08         0.19055E+06         0.00000E+00
    0.19055E+06        -0.97600E+08         0.00000E+00
    0.00000E+00         0.00000E+00        -0.56864E+08
 
   -0.56766E+08         0.19012E+06         0.00000E+00
    0.19012E+06        -0.97601E+08         0.00000E+00
    0.00000E+00         0.00000E+00        -0.56793E+08
 
   -0.56703E+08         0.18934E+06         0.00000E+00
    0.18934E+06        -0.97602E+08         0.00000E+00
    0.00000E+00         0.00000E+00        -0.56722E+08
 
   -0.56641E+08         0.18817E+06         0.00000E+00
    0.18817E+06        -0.97602E+08         0.00000E+00
    0.00000E+00         0.00000E+00        -0.56649E+08
 
   -0.56579E+08         0.18657E+06         0.00000E+00
    0.18657E+06        -0.97603E+08         0.00000E+00
    0.00000E+00         0.00000E+00        -0.56576E+08
 
   -0.56518E+08         0.18448E+06         0.00000E+00
    0.18448E+06        -0.97604E+08         0.00000E+00
    0.00000E+00         0.00000E+00        -0.56503E+08
 
   -0.56457E+08         0.18185E+06         0.00000E+00
    0.18185E+06        -0.97605E+08         0.00000E+00
    0.00000E+00         0.00000E+00        -0.56429E+08
 
   -0.56396E+08         0.17861E+06         0.00000E+00
    0.17861E+06        -0.97606E+08         0.00000E+00
    0.00000E+00         0.00000E+00        -0.56355E+08
 
   -0.56337E+08         0.17468E+06         0.00000E+00
    0.17468E+06        -0.97607E+08         0.00000E+00
    0.00000E+00         0.00000E+00        -0.56280E+08
 
   -0.56279E+08         0.16999E+06         0.00000E+00
    0.16999E+06        -0.97608E+08         0.00000E+00
    0.00000E+00         0.00000E+00        -0.56205E+08
 
   -0.56222E+08         0.16443E+06         0.00000E+00
    0.16443E+06        -0.97610E+08         0.00000E+00
    0.00000E+00         0.00000E+00        -0.56130E+08
 
   -0.56167E+08         0.15790E+06         0.00000E+00
    0.15790E+06        -0.97612E+08         0.00000E+00
    0.00000E+00         0.00000E+00        -0.56055E+08
 
   -0.56113E+08         0.15029E+06         0.00000E+00
    0.15029E+06        -0.97614E+08         0.00000E+00
    0.00000E+00         0.00000E+00        -0.55979E+08
 
   -0.56061E+08         0.14148E+06         0.00000E+00
    0.14148E+06        -0.97616E+08         0.00000E+00
    0.00000E+00         0.00000E+00        -0.55904E+08
 
   -0.56011E+08         0.13136E+06         0.00000E+00
    0.13136E+06        -0.97618E+08         0.00000E+00
    0.00000E+00         0.00000E+00        -0.55829E+08
 
   -0.55964E+08         0.11982E+06         0.00000E+00
    0.11982E+06        -0.97621E+08         0.00000E+00
    0.00000E+00         0.00000E+00        -0.55755E+08
 
   -0.55920E+08         0.10677E+06         0.00000E+00
    0.10677E+06        -0.97624E+08         0.00000E+00
    0.00000E+00         0.00000E+00        -0.55680E+08
 
   -0.55879E+08         0.92172E+05         0.00000E+00
    0.92172E+05        -0.97627E+08         0.00000E+00
    0.00000E+00         0.00000E+00        -0.55607E+08
 
   -0.55840E+08         0.76045E+05         0.00000E+00
    0.76045E+05        -0.97630E+08         0.00000E+00
    0.00000E+00         0.00000E+00        -0.55534E+08
 
   -0.55806E+08         0.58510E+05         0.00000E+00
    0.58510E+05        -0.97632E+08         0.00000E+00
    0.00000E+00         0.00000E+00        -0.55461E+08
 
   -0.55774E+08         0.39828E+05         0.00000E+00
    0.39828E+05        -0.97634E+08         0.00000E+00
    0.00000E+00         0.00000E+00        -0.55389E+08
 
   -0.55747E+08         0.20464E+05         0.00000E+00
    0.20464E+05        -0.97636E+08         0.00000E+00
    0.00000E+00         0.00000E+00        -0.55317E+08
 
   -0.55722E+08         0.11624E+04         0.00000E+00
    0.11624E+04        -0.97636E+08         0.00000E+00
    0.00000E+00         0.00000E+00        -0.55246E+08
 
   -0.55701E+08        -0.16947E+05         0.00000E+00
   -0.16947E+05        -0.97634E+08         0.00000E+00
    0.00000E+00         0.00000E+00        -0.55175E+08
 
   -0.55683E+08        -0.32199E+05         0.00000E+00
   -0.32199E+05        -0.97628E+08         0.00000E+00
    0.00000E+00         0.00000E+00        -0.55104E+08
 
   -0.55666E+08        -0.42191E+05         0.00000E+00
   -0.42191E+05        -0.97619E+08         0.00000E+00
    0.00000E+00         0.00000E+00        -0.55031E+08
 
   -0.55649E+08        -0.43732E+05         0.00000E+00
   -0.43732E+05        -0.97600E+08         0.00000E+00
    0.00000E+00         0.00000E+00        -0.54956E+08
 
   -0.55635E+08        -0.33863E+05         0.00000E+00
   -0.33863E+05        -0.97567E+08         0.00000E+00
    0.00000E+00         0.00000E+00        -0.54877E+08
 
   -0.55627E+08        -0.12893E+05         0.00000E+00
   -0.12893E+05        -0.97508E+08         0.00000E+00
    0.00000E+00         0.00000E+00        -0.54792E+08
 
   -0.59461E+08        -0.26850E+04         0.00000E+00
   -0.26850E+04        -0.97619E+08         0.00000E+00
    0.00000E+00         0.00000E+00        -0.59716E+08
 
   -0.59459E+08        -0.67243E+04         0.00000E+00
   -0.67243E+04        -0.97605E+08         0.00000E+00
    0.00000E+00         0.00000E+00        -0.59694E+08
 
   -0.59455E+08        -0.77691E+04         0.00000E+00
   -0.77691E+04        -0.97597E+08         0.00000E+00
    0.00000E+00         0.00000E+00        -0.59675E+08
 
   -0.59450E+08        -0.58665E+04         0.00000E+00
   -0.58665E+04        -0.97593E+08         0.00000E+00
    0.00000E+00         0.00000E+00        -0.59656E+08
 
   -0.59444E+08        -0.18828E+04         0.00000E+00
   -0.18828E+04        -0.97591E+08         0.00000E+00
    0.00000E+00         0.00000E+00        -0.59637E+08
 
   -0.59438E+08         0.33476E+04         0.00000E+00
    0.33476E+04        -0.97590E+08         0.00000E+00
    0.00000E+00         0.00000E+00        -0.59619E+08
 
   -0.59431E+08         0.92381E+04         0.00000E+00
    0.92381E+04        -0.97590E+08         0.00000E+00
    0.00000E+00         0.00000E+00        -0.59600E+08
 
   -0.59422E+08         0.15396E+05         0.00000E+00
    0.15396E+05        -0.97590E+08         0.00000E+00
    0.00000E+00         0.00000E+00        -0.59581E+08
 
   -0.59412E+08         0.21560E+05         0.00000E+00
    0.21560E+05        -0.97590E+08         0.00000E+00
    0.00000E+00         0.00000E+00        -0.59561E+08
 
   -0.59400E+08         0.27559E+05         0.00000E+00
    0.27559E+05        -0.97591E+08         0.00000E+00
    0.00000E+00         0.00000E+00        -0.59541E+08
 
   -0.59387E+08         0.33292E+05         0.00000E+00
    0.33292E+05        -0.97591E+08         0.00000E+00
    0.00000E+00         0.00000E+00        -0.59520E+08
 
   -0.59373E+08         0.38702E+05         0.00000E+00
    0.38702E+05        -0.97592E+08         0.00000E+00
    0.00000E+00         0.00000E+00        -0.59499E+08
 
   -0.59357E+08         0.43768E+05         0.00000E+00
    0.43768E+05        -0.97592E+08         0.00000E+00
    0.00000E+00         0.00000E+00        -0.59477E+08
 
   -0.59340E+08         0.48491E+05         0.00000E+00
    0.48491E+05        -0.97593E+08         0.00000E+00
    0.00000E+00         0.00000E+00        -0.59455E+08
 
   -0.59322E+08         0.52886E+05         0.00000E+00
    0.52886E+05        -0.97594E+08         0.00000E+00
    0.00000E+00         0.00000E+00        -0.59432E+08
 
   -0.59302E+08         0.56980E+05         0.00000E+00
    0.56980E+05        -0.97594E+08         0.00000E+00
    0.00000E+00         0.00000E+00        -0.59408E+08
 
   -0.59281E+08         0.60800E+05         0.00000E+00
    0.60800E+05        -0.97594E+08         0.00000E+00
    0.00000E+00         0.00000E+00        -0.59384E+08
 
   -0.59260E+08         0.64379E+05         0.00000E+00
    0.64379E+05        -0.97595E+08         0.00000E+00
    0.00000E+00         0.00000E+00        -0.59359E+08
 
   -0.59237E+08         0.67748E+05         0.00000E+00
    0.67748E+05        -0.97595E+08         0.00000E+00
    0.00000E+00         0.00000E+00        -0.59334E+08
 
   -0.59213E+08         0.70935E+05         0.00000E+00
    0.70935E+05        -0.97595E+08         0.00000E+00
    0.00000E+00         0.00000E+00        -0.59308E+08
 
   -0.59188E+08         0.73967E+05         0.00000E+00
    0.73967E+05        -0.97596E+08         0.00000E+00
    0.00000E+00         0.00000E+00        -0.59281E+08
 
   -0.59162E+08         0.76869E+05         0.00000E+00
    0.76869E+05        -0.97596E+08         0.00000E+00
    0.00000E+00         0.00000E+00        -0.59254E+08
 
   -0.59135E+08         0.79661E+05         0.00000E+00
    0.79661E+05        -0.97596E+08         0.00000E+00
    0.00000E+00         0.00000E+00        -0.59226E+08
 
   -0.59107E+08         0.82363E+05         0.00000E+00
    0.82363E+05        -0.97596E+08         0.00000E+00
    0.00000E+00         0.00000E+00        -0.59197E+08
 
   -0.59079E+08         0.84990E+05         0.00000E+00
    0.84990E+05        -0.97596E+08         0.00000E+00
    0.00000E+00         0.00000E+00        -0.59168E+08
 
   -0.59049E+08         0.87555E+05         0.00000E+00
    0.87555E+05        -0.97596E+08         0.00000E+00
    0.00000E+00         0.00000E+00        -0.59139E+08
 
   -0.59019E+08         0.90071E+05         0.00000E+00
    0.90071E+05        -0.97596E+08         0.00000E+00
    0.00000E+00         0.00000E+00        -0.59108E+08
 
   -0.58987E+08         0.92548E+05         0.00000E+00
    0.92548E+05        -0.97596E+08         0.00000E+00
    0.00000E+00         0.00000E+00        -0.59077E+08
 
   -0.58955E+08         0.94994E+05         0.00000E+00
    0.94994E+05        -0.97596E+08         0.00000E+00
    0.00000E+00         0.00000E+00        -0.59045E+08
 
   -0.58922E+08         0.97416E+05         0.00000E+00
    0.97416E+05        -0.97596E+08         0.00000E+00
    0.00000E+00         0.00000E+00        -0.59013E+08
 
   -0.58889E+08         0.99820E+05         0.00000E+00
    0.99820E+05        -0.97596E+08         0.00000E+00
    0.00000E+00         0.00000E+00        -0.58979E+08
 
   -0.58854E+08         0.10221E+06         0.00000E+00
    0.10221E+06        -0.97596E+08         0.00000E+00
    0.00000E+00         0.00000E+00        -0.58946E+08
 
   -0.58819E+08         0.10459E+06         0.00000E+00
    0.10459E+06        -0.97596E+08         0.00000E+00
    0.00000E+00         0.00000E+00        -0.58911E+08
 
   -0.58783E+08         0.10697E+06         0.00000E+00
    0.10697E+06        -0.97596E+08         0.00000E+00
    0.00000E+00         0.00000E+00        -0.58875E+08
 
   -0.58746E+08         0.10935E+06         0.00000E+00
    0.10935E+06        -0.97596E+08         0.00000E+00
    0.00000E+00         0.00000E+00        -0.58839E+08
 
   -0.58708E+08         0.11172E+06         0.00000E+00
    0.11172E+06        -0.97596E+08         0.00000E+00
    0.00000E+00         0.00000E+00        -0.58802E+08
 
   -0.58669E+08         0.11409E+06         0.00000E+00
    0.11409E+06        -0.97596E+08         0.00000E+00
    0.00000E+00         0.00000E+00        -0.58765E+08
 
   -0.58630E+08         0.11647E+06         0.00000E+00
    0.11647E+06        -0.97596E+08         0.00000E+00
    0.00000E+00         0.00000E+00        -0.58726E+08
 
   -0.58590E+08         0.11885E+06         0.00000E+00
    0.11885E+06        -0.97596E+08         0.00000E+00
    0.00000E+00         0.00000E+00        -0.58687E+08
 
   -0.58549E+08         0.12123E+06         0.00000E+00
    0.12123E+06        -0.97596E+08         0.00000E+00
    0.00000E+00         0.00000E+00        -0.58646E+08
 
   -0.58507E+08         0.12362E+06         0.00000E+00
    0.12362E+06        -0.97596E+08         0.00000E+00
    0.00000E+00         0.00000E+00        -0.58605E+08
 
   -0.58464E+08         0.12601E+06         0.00000E+00
    0.12601E+06        -0.97596E+08         0.00000E+00
    0.00000E+00         0.00000E+00        -0.58563E+08
 
   -0.58420E+08         0.12839E+06         0.00000E+00
    0.12839E+06        -0.97596E+08         0.00000E+00
    0.00000E+00         0.00000E+00        -0.58521E+08
 
   -0.58376E+08         0.13078E+06         0.00000E+00
    0.13078E+06        -0.97596E+08         0.00000E+00
    0.00000E+00         0.00000E+00        -0.58477E+08
 
   -0.58331E+08         0.13317E+06         0.00000E+00
    0.13317E+06        -0.97596E+08         0.00000E+00
    0.00000E+00         0.00000E+00        -0.58432E+08
 
   -0.58285E+08         0.13555E+06         0.00000E+00
    0.13555E+06        -0.97596E+08         0.00000E+00
    0.00000E+00         0.00000E+00        -0.58387E+08
 
   -0.58238E+08         0.13793E+06         0.00000E+00
    0.13793E+06        -0.97596E+08         0.00000E+00
    0.00000E+00         0.00000E+00        -0.58340E+08
 
   -0.58190E+08         0.14029E+06         0.00000E+00
    0.14029E+06        -0.97597E+08         0.00000E+00
    0.00000E+00         0.00000E+00        -0.58293E+08
 
   -0.58141E+08         0.14264E+06         0.00000E+00
    0.14264E+06        -0.97597E+08         0.00000E+00
    0.00000E+00         0.00000E+00        -0.58245E+08
 
   -0.58092E+08         0.14498E+06         0.00000E+00
    0.14498E+06        -0.97597E+08         0.00000E+00
    0.00000E+00         0.00000E+00        -0.58195E+08
 
   -0.58042E+08         0.14730E+06         0.00000E+00
    0.14730E+06        -0.97597E+08         0.00000E+00
    0.00000E+00         0.00000E+00        -0.58145E+08
 
   -0.57991E+08         0.14959E+06         0.00000E+00
    0.14959E+06        -0.97597E+08         0.00000E+00
    0.00000E+00         0.00000E+00        -0.58094E+08
 
   -0.57939E+08         0.15185E+06         0.00000E+00
    0.15185E+06        -0.97597E+08         0.00000E+00
    0.00000E+00         0.00000E+00        -0.58041E+08
 
   -0.57886E+08         0.15407E+06         0.00000E+00
    0.15407E+06        -0.97597E+08         0.00000E+00
    0.00000E+00         0.00000E+00        -0.57988E+08
 
   -0.57833E+08         0.15625E+06         0.00000E+00
    0.15625E+06        -0.97597E+08         0.00000E+00
    0.00000E+00         0.00000E+00        -0.57934E+08
 
   -0.57778E+08         0.15839E+06         0.00000E+00
    0.15839E+06        -0.97597E+08         0.00000E+00
    0.00000E+00         0.00000E+00        -0.57879E+08
 
   -0.57723E+08         0.16047E+06         0.00000E+00
    0.16047E+06        -0.97597E+08         0.00000E+00
    0.00000E+00         0.00000E+00        -0.57823E+08
 
   -0.57667E+08         0.16248E+06         0.00000E+00
    0.16248E+06        -0.97597E+08         0.00000E+00
    0.00000E+00         0.00000E+00        -0.57765E+08
 
   -0.57611E+08         0.16443E+06         0.00000E+00
    0.16443E+06        -0.97597E+08         0.00000E+00
    0.00000E+00         0.00000E+00        -0.57707E+08
 
   -0.57554E+08         0.16629E+06         0.00000E+00
    0.16629E+06        -0.97597E+08         0.00000E+00
    0.00000E+00         0.00000E+00        -0.57648E+08
 
   -0.57496E+08         0.16807E+06         0.00000E+00
    0.16807E+06        -0.97597E+08         0.00000E+00
    0.00000E+00         0.00000E+00        -0.57588E+08
 
   -0.57437E+08         0.16975E+06         0.00000E+00
    0.16975E+06        -0.97598E+08         0.00000E+00
    0.00000E+00         0.00000E+00        -0.57527E+08
 
   -0.57378E+08         0.17131E+06         0.00000E+00
    0.17131E+06        -0.97598E+08         0.00000E+00
    0.00000E+00         0.00000E+00        -0.57464E+08
 
   -0.57319E+08         0.17276E+06         0.00000E+00
    0.17276E+06        -0.97598E+08         0.00000E+00
    0.00000E+00         0.00000E+00        -0.57401E+08
 
   -0.57258E+08         0.17407E+06         0.00000E+00
    0.17407E+06        -0.97598E+08         0.00000E+00
    0.00000E+00         0.00000E+00        -0.57337E+08
 
   -0.57198E+08         0.17522E+06         0.00000E+00
    0.17522E+06        -0.97598E+08         0.00000E+00
    0.00000E+00         0.00000E+00        -0.57272E+08
 
   -0.57137E+08         0.17622E+06         0.00000E+00
    0.17622E+06        -0.97599E+08         0.00000E+00
    0.00000E+00         0.00000E+00        -0.57206E+08
 
   -0.57075E+08         0.17703E+06         0.00000E+00
    0.17703E+06        -0.97599E+08         0.00000E+00
    0.00000E+00         0.00000E+00        -0.57139E+08
 
   -0.57013E+08         0.17764E+06         0.00000E+00
    0.17764E+06        -0.97599E+08         0.00000E+00
    0.00000E+00         0.00000E+00        -0.57072E+08
 
   -0.56951E+08         0.17803E+06         0.00000E+00
    0.17803E+06        -0.97600E+08         0.00000E+00
    0.00000E+00         0.00000E+00        -0.57003E+08
 
   -0.56889E+08         0.17818E+06         0.00000E+00
    0.17818E+06        -0.97600E+08         0.00000E+00
    0.00000E+00         0.00000E+00        -0.56934E+08
 
   -0.56826E+08         0.17805E+06         0.00000E+00
    0.17805E+06        -0.97600E+08         0.00000E+00
    0.00000E+00         0.00000E+00        -0.56864E+08
 
   -0.56764E+08         0.17763E+06         0.00000E+00
    0.17763E+06        -0.97601E+08         0.00000E+00
    0.00000E+00         0.00000E+00        -0.56793E+08
 
   -0.56702E+08         0.17688E+06         0.00000E+00
    0.17688E+06        -0.97601E+08         0.00000E+00
    0.00000E+00         0.00000E+00        -0.56721E+08
 
   -0.56640E+08         0.17577E+06         0.00000E+00
    0.17577E+06        -0.97602E+08         0.00000E+00
    0.00000E+00         0.00000E+00        -0.56649E+08
 
   -0.56578E+08         0.17424E+06         0.00000E+00
    0.17424E+06        -0.97603E+08         0.00000E+00
    0.00000E+00         0.00000E+00        -0.56576E+08
 
   -0.56517E+08         0.17226E+06         0.00000E+00
    0.17226E+06        -0.97603E+08         0.00000E+00
    0.00000E+00         0.00000E+00        -0.56503E+08
 
   -0.56456E+08         0.16976E+06         0.00000E+00
    0.16976E+06        -0.97604E+08         0.00000E+00
    0.00000E+00         0.00000E+00        -0.56429E+08
 
   -0.56396E+08         0.16669E+06         0.00000E+00
    0.16669E+06        -0.97605E+08         0.00000E+00
    0.00000E+00         0.00000E+00        -0.56354E+08
 
   -0.56337E+08         0.16297E+06         0.00000E+00
    0.16297E+06        -0.97606E+08         0.00000E+00
    0.00000E+00         0.00000E+00        -0.56280E+08
 
   -0.56280E+08         0.15851E+06         0.00000E+00
    0.15851E+06        -0.97607E+08         0.00000E+00
    0.00000E+00         0.00000E+00        -0.56205E+08
 
   -0.56223E+08         0.15324E+06         0.00000E+00
    0.15324E+06        -0.97609E+08         0.00000E+00
    0.00000E+00         0.00000E+00        -0.56130E+08
 
   -0.56168E+08         0.14703E+06         0.00000E+00
    0.14703E+06        -0.97610E+08         0.00000E+00
    0.00000E+00         0.00000E+00        -0.56055E+08
 
   -0.56115E+08         0.13980E+06         0.00000E+00
    0.13980E+06        -0.97612E+08         0.00000E+00
    0.00000E+00         0.00000E+00        -0.55980E+08
 
   -0.56064E+08         0.13142E+06         0.00000E+00
    0.13142E+06        -0.97614E+08         0.00000E+00
    0.00000E+00         0.00000E+00        -0.55905E+08
 
   -0.56015E+08         0.12177E+06         0.00000E+00
    0.12177E+06        -0.97616E+08         0.00000E+00
    0.00000E+00         0.00000E+00        -0.55830E+08
 
   -0.55969E+08         0.11076E+06         0.00000E+00
    0.11076E+06        -0.97619E+08         0.00000E+00
    0.00000E+00         0.00000E+00        -0.55755E+08
 
   -0.55926E+08         0.98301E+05         0.00000E+00
    0.98301E+05        -0.97621E+08         0.00000E+00
    0.00000E+00         0.00000E+00        -0.55681E+08
 
   -0.55886E+08         0.84341E+05         0.00000E+00
    0.84341E+05        -0.97624E+08         0.00000E+00
    0.00000E+00         0.00000E+00        -0.55608E+08
 
   -0.55849E+08         0.68899E+05         0.00000E+00
    0.68899E+05        -0.97626E+08         0.00000E+00
    0.00000E+00         0.00000E+00        -0.55535E+08
 
   -0.55816E+08         0.52084E+05         0.00000E+00
    0.52084E+05        -0.97629E+08         0.00000E+00
    0.00000E+00         0.00000E+00        -0.55463E+08
 
   -0.55787E+08         0.34142E+05         0.00000E+00
    0.34142E+05        -0.97631E+08         0.00000E+00
    0.00000E+00         0.00000E+00        -0.55391E+08
 
   -0.55761E+08         0.15512E+05         0.00000E+00
    0.15512E+05        -0.97632E+08         0.00000E+00
    0.00000E+00         0.00000E+00        -0.55321E+08
 
   -0.55740E+08        -0.31045E+04         0.00000E+00
   -0.31045E+04        -0.97632E+08         0.00000E+00
    0.00000E+00         0.00000E+00        -0.55250E+08
 
   -0.55721E+08        -0.20634E+05         0.00000E+00
   -0.20634E+05        -0.97630E+08         0.00000E+00
    0.00000E+00         0.00000E+00        -0.55180E+08
 
   -0.55705E+08        -0.35485E+05         0.00000E+00
   -0.35485E+05        -0.97626E+08         0.00000E+00
    0.00000E+00         0.00000E+00        -0.55110E+08
 
   -0.55691E+08        -0.45295E+05         0.00000E+00
   -0.45295E+05        -0.97617E+08         0.00000E+00
    0.00000E+00         0.00000E+00        -0.55038E+08
 
   -0.55676E+08        -0.46722E+05         0.00000E+00
   -0.46722E+05        -0.97601E+08         0.00000E+00
    0.00000E+00         0.00000E+00        -0.54965E+08
 
   -0.55664E+08        -0.36311E+05         0.00000E+00
   -0.36311E+05        -0.97570E+08         0.00000E+00
    0.00000E+00         0.00000E+00        -0.54887E+08
 
   -0.55655E+08        -0.13886E+05         0.00000E+00
   -0.13886E+05        -0.97513E+08         0.00000E+00
    0.00000E+00         0.00000E+00        -0.54803E+08
 
   -0.59453E+08        -0.29755E+04         0.00000E+00
   -0.29755E+04        -0.97618E+08         0.00000E+00
    0.00000E+00         0.00000E+00        -0.59713E+08
 
   -0.59450E+08        -0.74404E+04         0.00000E+00
   -0.74404E+04        -0.97604E+08         0.00000E+00
    0.00000E+00         0.00000E+00        -0.59692E+08
 
   -0.59447E+08        -0.86595E+04         0.00000E+00
   -0.86595E+04        -0.97597E+08         0.00000E+00
    0.00000E+00         0.00000E+00        -0.59672E+08
 
   -0.59442E+08        -0.68377E+04         0.00000E+00
   -0.68377E+04        -0.97594E+08         0.00000E+00
    0.00000E+00         0.00000E+00        -0.59654E+08
 
   -0.59438E+08        -0.29782E+04         0.00000E+00
   -0.29782E+04        -0.97592E+08         0.00000E+00
    0.00000E+00         0.00000E+00        -0.59635E+08
 
   -0.59432E+08         0.20569E+04         0.00000E+00
    0.20569E+04        -0.97591E+08         0.00000E+00
    0.00000E+00         0.00000E+00        -0.59617E+08
 
   -0.59425E+08         0.76994E+04         0.00000E+00
    0.76994E+04        -0.97591E+08         0.00000E+00
    0.00000E+00         0.00000E+00        -0.59599E+08
 
   -0.59417E+08         0.13578E+05         0.00000E+00
    0.13578E+05        -0.97591E+08         0.00000E+00
    0.00000E+00         0.00000E+00        -0.59580E+08
 
   -0.59408E+08         0.19447E+05         0.00000E+00
    0.19447E+05        -0.97591E+08         0.00000E+00
    0.00000E+00         0.00000E+00        -0.59560E+08
 
   -0.59396E+08         0.25149E+05         0.00000E+00
    0.25149E+05        -0.97592E+08         0.00000E+00
    0.00000E+00         0.00000E+00        -0.59540E+08
 
   -0.59384E+08         0.30588E+05         0.00000E+00
    0.30588E+05        -0.97592E+08         0.00000E+00
    0.00000E+00         0.00000E+00        -0.59520E+08
 
   -0.59370E+08         0.35712E+05         0.00000E+00
    0.35712E+05        -0.97593E+08         0.00000E+00
    0.00000E+00         0.00000E+00        -0.59498E+08
 
   -0.59354E+08         0.40502E+05         0.00000E+00
    0.40502E+05        -0.97593E+08         0.00000E+00
    0.00000E+00         0.00000E+00        -0.59477E+08
 
   -0.59337E+08         0.44960E+05         0.00000E+00
    0.44960E+05        -0.97594E+08         0.00000E+00
    0.00000E+00         0.00000E+00        -0.59454E+08
 
   -0.59319E+08         0.49103E+05         0.00000E+00
    0.49103E+05        -0.97594E+08         0.00000E+00
    0.00000E+00         0.00000E+00        -0.59431E+08
 
   -0.59300E+08         0.52954E+05         0.00000E+00
    0.52954E+05        -0.97595E+08         0.00000E+00
    0.00000E+00         0.00000E+00        -0.59408E+08
 
   -0.59279E+08         0.56544E+05         0.00000E+00
    0.56544E+05        -0.97595E+08         0.00000E+00
    0.00000E+00         0.00000E+00        -0.59384E+08
 
   -0.59257E+08         0.59902E+05         0.00000E+00
    0.59902E+05        -0.97595E+08         0.00000E+00
    0.00000E+00         0.00000E+00        -0.59359E+08
 
   -0.59234E+08         0.63059E+05         0.00000E+00
    0.63059E+05        -0.97596E+08         0.00000E+00
    0.00000E+00         0.00000E+00        -0.59333E+08
 
   -0.59210E+08         0.66043E+05         0.00000E+00
    0.66043E+05        -0.97596E+08         0.00000E+00
    0.00000E+00         0.00000E+00        -0.59307E+08
 
   -0.59185E+08         0.68879E+05         0.00000E+00
    0.68879E+05        -0.97596E+08         0.00000E+00
    0.00000E+00         0.00000E+00        -0.59281E+08
 
   -0.59159E+08         0.71591E+05         0.00000E+00
    0.71591E+05        -0.97596E+08         0.00000E+00
    0.00000E+00         0.00000E+00        -0.59253E+08
 
   -0.59133E+08         0.74198E+05         0.00000E+00
    0.74198E+05        -0.97596E+08         0.00000E+00
    0.00000E+00         0.00000E+00        -0.59225E+08
 
   -0.59105E+08         0.76720E+05         0.00000E+00
    0.76720E+05        -0.97597E+08         0.00000E+00
    0.00000E+00         0.00000E+00        -0.59197E+08
 
   -0.59076E+08         0.79170E+05         0.00000E+00
    0.79170E+05        -0.97597E+08         0.00000E+00
    0.00000E+00         0.00000E+00        -0.59168E+08
 
   -0.59047E+08         0.81563E+05         0.00000E+00
    0.81563E+05        -0.97597E+08         0.00000E+00
    0.00000E+00         0.00000E+00        -0.59138E+08
 
   -0.59016E+08         0.83909E+05         0.00000E+00
    0.83909E+05        -0.97597E+08         0.00000E+00
    0.00000E+00         0.00000E+00        -0.59108E+08
 
   -0.58985E+08         0.86218E+05         0.00000E+00
    0.86218E+05        -0.97597E+08         0.00000E+00
    0.00000E+00         0.00000E+00        -0.59076E+08
 
   -0.58953E+08         0.88497E+05         0.00000E+00
    0.88497E+05        -0.97597E+08         0.00000E+00
    0.00000E+00         0.00000E+00        -0.59045E+08
 
   -0.58920E+08         0.90754E+05         0.00000E+00
    0.90754E+05        -0.97597E+08         0.00000E+00
    0.00000E+00         0.00000E+00        -0.59012E+08
 
   -0.58886E+08         0.92994E+05         0.00000E+00
    0.92994E+05        -0.97597E+08         0.00000E+00
    0.00000E+00         0.00000E+00        -0.58979E+08
 
   -0.58852E+08         0.95221E+05         0.00000E+00
    0.95221E+05        -0.97597E+08         0.00000E+00
    0.00000E+00         0.00000E+00        -0.58945E+08
 
   -0.58816E+08         0.97440E+05         0.00000E+00
    0.97440E+05        -0.97597E+08         0.00000E+00
    0.00000E+00         0.00000E+00        -0.58910E+08
 
   -0.58780E+08         0.99654E+05         0.00000E+00
    0.99654E+05        -0.97597E+08         0.00000E+00
    0.00000E+00         0.00000E+00        -0.58875E+08
 
   -0.58743E+08         0.10186E+06         0.00000E+00
    0.10186E+06        -0.97597E+08         0.00000E+00
    0.00000E+00         0.00000E+00        -0.58839E+08
 
   -0.58705E+08         0.10407E+06         0.00000E+00
    0.10407E+06        -0.97597E+08         0.00000E+00
    0.00000E+00         0.00000E+00        -0.58802E+08
 
   -0.58667E+08         0.10629E+06         0.00000E+00
    0.10629E+06        -0.97597E+08         0.00000E+00
    0.00000E+00         0.00000E+00        -0.58764E+08
 
   -0.58627E+08         0.10850E+06         0.00000E+00
    0.10850E+06        -0.97597E+08         0.00000E+00
    0.00000E+00         0.00000E+00        -0.58725E+08
 
   -0.58587E+08         0.11071E+06         0.00000E+00
    0.11071E+06        -0.97597E+08         0.00000E+00
    0.00000E+00         0.00000E+00        -0.58686E+08
 
   -0.58546E+08         0.11293E+06         0.00000E+00
    0.11293E+06        -0.97597E+08         0.00000E+00
    0.00000E+00         0.00000E+00        -0.58646E+08
 
   -0.58504E+08         0.11515E+06         0.00000E+00
    0.11515E+06        -0.97597E+08         0.00000E+00
    0.00000E+00         0.00000E+00        -0.58605E+08
 
   -0.58461E+08         0.11737E+06         0.00000E+00
    0.11737E+06        -0.97597E+08         0.00000E+00
    0.00000E+00         0.00000E+00        -0.58563E+08
 
   -0.58417E+08         0.11959E+06         0.00000E+00
    0.11959E+06        -0.97597E+08         0.00000E+00
    0.00000E+00         0.00000E+00        -0.58520E+08
 
   -0.58373E+08         0.12181E+06         0.00000E+00
    0.12181E+06        -0.97597E+08         0.00000E+00
    0.00000E+00         0.00000E+00        -0.58476E+08
 
   -0.58328E+08         0.12403E+06         0.00000E+00
    0.12403E+06        -0.97597E+08         0.00000E+00
    0.00000E+00         0.00000E+00        -0.58432E+08
 
   -0.58281E+08         0.12625E+06         0.00000E+00
    0.12625E+06        -0.97597E+08         0.00000E+00
    0.00000E+00         0.00000E+00        -0.58386E+08
 
   -0.58235E+08         0.12846E+06         0.00000E+00
    0.12846E+06        -0.97597E+08         0.00000E+00
    0.00000E+00         0.00000E+00        -0.58340E+08
 
   -0.58187E+08         0.13065E+06         0.00000E+00
    0.13065E+06        -0.97597E+08         0.00000E+00
    0.00000E+00         0.00000E+00        -0.58292E+08
 
   -0.58138E+08         0.13284E+06         0.00000E+00
    0.13284E+06        -0.97597E+08         0.00000E+00
    0.00000E+00         0.00000E+00        -0.58244E+08
 
   -0.58089E+08         0.13501E+06         0.00000E+00
    0.13501E+06        -0.97597E+08         0.00000E+00
    0.00000E+00         0.00000E+00        -0.58194E+08
 
   -0.58038E+08         0.13716E+06         0.00000E+00
    0.13716E+06        -0.97597E+08         0.00000E+00
    0.00000E+00         0.00000E+00        -0.58144E+08
 
   -0.57987E+08         0.13929E+06         0.00000E+00
    0.13929E+06        -0.97597E+08         0.00000E+00
    0.00000E+00         0.00000E+00        -0.58093E+08
 
   -0.57935E+08         0.14139E+06         0.00000E+00
    0.14139E+06        -0.97597E+08         0.00000E+00
    0.00000E+00         0.00000E+00        -0.58041E+08
 
   -0.57883E+08         0.14345E+06         0.00000E+00
    0.14345E+06        -0.97597E+08         0.00000E+00
    0.00000E+00         0.00000E+00        -0.57987E+08
 
   -0.57829E+08         0.14548E+06         0.00000E+00
    0.14548E+06        -0.97597E+08         0.00000E+00
    0.00000E+00         0.00000E+00        -0.57933E+08
 
   -0.57775E+08         0.14746E+06         0.00000E+00
    0.14746E+06        -0.97597E+08         0.00000E+00
    0.00000E+00         0.00000E+00        -0.57878E+08
 
   -0.57720E+08         0.14939E+06         0.00000E+00
    0.14939E+06        -0.97597E+08         0.00000E+00
    0.00000E+00         0.00000E+00        -0.57822E+08
 
   -0.57664E+08         0.15126E+06         0.00000E+00
    0.15126E+06        -0.97597E+08         0.00000E+00
    0.00000E+00         0.00000E+00        -0.57765E+08
 
   -0.57608E+08         0.15306E+06         0.00000E+00
    0.15306E+06        -0.97598E+08         0.00000E+00
    0.00000E+00         0.00000E+00        -0.57706E+08
 
   -0.57551E+08         0.15479E+06         0.00000E+00
    0.15479E+06        -0.97598E+08         0.00000E+00
    0.00000E+00         0.00000E+00        -0.57647E+08
 
   -0.57493E+08         0.15644E+06         0.00000E+00
    0.15644E+06        -0.97598E+08         0.00000E+00
    0.00000E+00         0.00000E+00        -0.57587E+08
 
   -0.57434E+08         0.15799E+06         0.00000E+00
    0.15799E+06        -0.97598E+08         0.00000E+00
    0.00000E+00         0.00000E+00        -0.57526E+08
 
   -0.57375E+08         0.15944E+06         0.00000E+00
    0.15944E+06        -0.97598E+08         0.00000E+00
    0.00000E+00         0.00000E+00        -0.57464E+08
 
   -0.57316E+08         0.16077E+06         0.00000E+00
    0.16077E+06        -0.97598E+08         0.00000E+00
    0.00000E+00         0.00000E+00        -0.57401E+08
 
   -0.57256E+08         0.16198E+06         0.00000E+00
    0.16198E+06        -0.97598E+08         0.00000E+00
    0.00000E+00         0.00000E+00        -0.57336E+08
 
   -0.57195E+08         0.16305E+06         0.00000E+00
    0.16305E+06        -0.97599E+08         0.00000E+00
    0.00000E+00         0.00000E+00        -0.57271E+08
 
   -0.57134E+08         0.16396E+06         0.00000E+00
    0.16396E+06        -0.97599E+08         0.00000E+00
    0.00000E+00         0.00000E+00        -0.57206E+08
 
   -0.57072E+08         0.16470E+06         0.00000E+00
    0.16470E+06        -0.97599E+08         0.00000E+00
    0.00000E+00         0.00000E+00        -0.57139E+08
 
   -0.57011E+08         0.16526E+06         0.00000E+00
    0.16526E+06        -0.97599E+08         0.00000E+00
    0.00000E+00         0.00000E+00        -0.57071E+08
 
   -0.56949E+08         0.16560E+06         0.00000E+00
    0.16560E+06        -0.97600E+08         0.00000E+00
    0.00000E+00         0.00000E+00        -0.57003E+08
 
   -0.56887E+08         0.16573E+06         0.00000E+00
    0.16573E+06        -0.97600E+08         0.00000E+00
    0.00000E+00         0.00000E+00        -0.56933E+08
 
   -0.56824E+08         0.16560E+06         0.00000E+00
    0.16560E+06        -0.97600E+08         0.00000E+00
    0.00000E+00         0.00000E+00        -0.56863E+08
 
   -0.56762E+08         0.16519E+06         0.00000E+00
    0.16519E+06        -0.97601E+08         0.00000E+00
    0.00000E+00         0.00000E+00        -0.56792E+08
 
   -0.56700E+08         0.16447E+06         0.00000E+00
    0.16447E+06        -0.97601E+08         0.00000E+00
    0.00000E+00         0.00000E+00        -0.56721E+08
 
   -0.56638E+08         0.16341E+06         0.00000E+00
    0.16341E+06        -0.97602E+08         0.00000E+00
    0.00000E+00         0.00000E+00        -0.56648E+08
 
   -0.56577E+08         0.16197E+06         0.00000E+00
    0.16197E+06        -0.97602E+08         0.00000E+00
    0.00000E+00         0.00000E+00        -0.56576E+08
 
   -0.56516E+08         0.16009E+06         0.00000E+00
    0.16009E+06        -0.97603E+08         0.00000E+00
    0.00000E+00         0.00000E+00        -0.56502E+08
 
   -0.56456E+08         0.15773E+06         0.00000E+00
    0.15773E+06        -0.97604E+08         0.00000E+00
    0.00000E+00         0.00000E+00        -0.56428E+08
 
   -0.56396E+08         0.15484E+06         0.00000E+00
    0.15484E+06        -0.97604E+08         0.00000E+00
    0.00000E+00         0.00000E+00        -0.56354E+08
 
   -0.56337E+08         0.15132E+06         0.00000E+00
    0.15132E+06        -0.97605E+08         0.00000E+00
    0.00000E+00         0.00000E+00        -0.56280E+08
 
   -0.56280E+08         0.14712E+06         0.00000E+00
    0.14712E+06        -0.97606E+08         0.00000E+00
    0.00000E+00         0.00000E+00        -0.56205E+08
 
   -0.56224E+08         0.14214E+06         0.00000E+00
    0.14214E+06        -0.97608E+08         0.00000E+00
    0.00000E+00         0.00000E+00        -0.56130E+08
 
   -0.56170E+08         0.13628E+06         0.00000E+00
    0.13628E+06        -0.97609E+08         0.00000E+00
    0.00000E+00         0.00000E+00        -0.56055E+08
 
   -0.56117E+08         0.12944E+06         0.00000E+00
    0.12944E+06        -0.97611E+08         0.00000E+00
    0.00000E+00         0.00000E+00        -0.55980E+08
 
   -0.56067E+08         0.12151E+06         0.00000E+00
    0.12151E+06        -0.97612E+08         0.00000E+00
    0.00000E+00         0.00000E+00        -0.55905E+08
 
   -0.56019E+08         0.11236E+06         0.00000E+00
    0.11236E+06        -0.97614E+08         0.00000E+00
    0.00000E+00         0.00000E+00        -0.55830E+08
 
   -0.55974E+08         0.10192E+06         0.00000E+00
    0.10192E+06        -0.97616E+08         0.00000E+00
    0.00000E+00         0.00000E+00        -0.55756E+08
 
   -0.55932E+08         0.90074E+05         0.00000E+00
    0.90074E+05        -0.97618E+08         0.00000E+00
    0.00000E+00         0.00000E+00        -0.55682E+08
 
   -0.55893E+08         0.76791E+05         0.00000E+00
    0.76791E+05        -0.97621E+08         0.00000E+00
    0.00000E+00         0.00000E+00        -0.55609E+08
 
   -0.55858E+08         0.62076E+05         0.00000E+00
    0.62076E+05        -0.97623E+08         0.00000E+00
    0.00000E+00         0.00000E+00        -0.55537E+08
 
   -0.55826E+08         0.46030E+05         0.00000E+00
    0.46030E+05        -0.97625E+08         0.00000E+00
    0.00000E+00         0.00000E+00        -0.55465E+08
 
   -0.55799E+08         0.28879E+05         0.00000E+00
    0.28879E+05        -0.97627E+08         0.00000E+00
    0.00000E+00         0.00000E+00        -0.55394E+08
 
   -0.55776E+08         0.11032E+05         0.00000E+00
    0.11032E+05        -0.97628E+08         0.00000E+00
    0.00000E+00         0.00000E+00        -0.55324E+08
 
   -0.55756E+08        -0.68529E+04         0.00000E+00
   -0.68529E+04        -0.97628E+08         0.00000E+00
    0.00000E+00         0.00000E+00        -0.55254E+08
 
   -0.55741E+08        -0.23771E+05         0.00000E+00
   -0.23771E+05        -0.97627E+08         0.00000E+00
    0.00000E+00         0.00000E+00        -0.55185E+08
 
   -0.55728E+08        -0.38216E+05         0.00000E+00
   -0.38216E+05        -0.97623E+08         0.00000E+00
    0.00000E+00         0.00000E+00        -0.55116E+08
 
   -0.55716E+08        -0.47900E+05         0.00000E+00
   -0.47900E+05        -0.97616E+08         0.00000E+00
    0.00000E+00         0.00000E+00        -0.55046E+08
 
   -0.55704E+08        -0.49371E+05         0.00000E+00
   -0.49371E+05        -0.97602E+08         0.00000E+00
    0.00000E+00         0.00000E+00        -0.54973E+08
 
   -0.55692E+08        -0.38627E+05         0.00000E+00
   -0.38627E+05        -0.97574E+08         0.00000E+00
    0.00000E+00         0.00000E+00        -0.54897E+08
 
   -0.55684E+08        -0.14865E+05         0.00000E+00
   -0.14865E+05        -0.97519E+08         0.00000E+00
    0.00000E+00         0.00000E+00        -0.54813E+08
 
   -0.59444E+08        -0.32634E+04         0.00000E+00
   -0.32634E+04        -0.97617E+08         0.00000E+00
    0.00000E+00         0.00000E+00        -0.59710E+08
 
   -0.59442E+08        -0.81200E+04         0.00000E+00
   -0.81200E+04        -0.97604E+08         0.00000E+00
    0.00000E+00         0.00000E+00        -0.59689E+08
 
   -0.59439E+08        -0.94560E+04         0.00000E+00
   -0.94560E+04        -0.97598E+08         0.00000E+00
    0.00000E+00         0.00000E+00        -0.59670E+08
 
   -0.59435E+08        -0.76779E+04         0.00000E+00
   -0.76779E+04        -0.97595E+08         0.00000E+00
    0.00000E+00         0.00000E+00        -0.59652E+08
 
   -0.59431E+08        -0.39340E+04         0.00000E+00
   -0.39340E+04        -0.97593E+08         0.00000E+00
    0.00000E+00         0.00000E+00        -0.59634E+08
 
   -0.59426E+08         0.89937E+03         0.00000E+00
    0.89937E+03        -0.97592E+08         0.00000E+00
    0.00000E+00         0.00000E+00        -0.59616E+08
 
   -0.59420E+08         0.62817E+04         0.00000E+00
    0.62817E+04        -0.97592E+08         0.00000E+00
    0.00000E+00         0.00000E+00        -0.59597E+08
 
   -0.59412E+08         0.11867E+05         0.00000E+00
    0.11867E+05        -0.97592E+08         0.00000E+00
    0.00000E+00         0.00000E+00        -0.59578E+08
 
   -0.59403E+08         0.17428E+05         0.00000E+00
    0.17428E+05        -0.97592E+08         0.00000E+00
    0.00000E+00         0.00000E+00        -0.59559E+08
 
   -0.59393E+08         0.22818E+05         0.00000E+00
    0.22818E+05        -0.97593E+08         0.00000E+00
    0.00000E+00         0.00000E+00        -0.59539E+08
 
   -0.59380E+08         0.27949E+05         0.00000E+00
    0.27949E+05        -0.97593E+08         0.00000E+00
    0.00000E+00         0.00000E+00        -0.59519E+08
 
   -0.59367E+08         0.32775E+05         0.00000E+00
    0.32775E+05        -0.97594E+08         0.00000E+00
    0.00000E+00         0.00000E+00        -0.59498E+08
 
   -0.59351E+08         0.37279E+05         0.00000E+00
    0.37279E+05        -0.97594E+08         0.00000E+00
    0.00000E+00         0.00000E+00        -0.59476E+08
 
   -0.59335E+08         0.41463E+05         0.00000E+00
    0.41463E+05        -0.97595E+08         0.00000E+00
    0.00000E+00         0.00000E+00        -0.59454E+08
 
   -0.59316E+08         0.45345E+05         0.00000E+00
    0.45345E+05        -0.97595E+08         0.00000E+00
    0.00000E+00         0.00000E+00        -0.59431E+08
 
   -0.59297E+08         0.48949E+05         0.00000E+00
    0.48949E+05        -0.97595E+08         0.00000E+00
    0.00000E+00         0.00000E+00        -0.59407E+08
 
   -0.59277E+08         0.52303E+05         0.00000E+00
    0.52303E+05        -0.97596E+08         0.00000E+00
    0.00000E+00         0.00000E+00        -0.59383E+08
 
   -0.59255E+08         0.55436E+05         0.00000E+00
    0.55436E+05        -0.97596E+08         0.00000E+00
    0.00000E+00         0.00000E+00        -0.59358E+08
 
   -0.59232E+08         0.58377E+05         0.00000E+00
    0.58377E+05        -0.97596E+08         0.00000E+00
    0.00000E+00         0.00000E+00        -0.59333E+08
 
   -0.59208E+08         0.61155E+05         0.00000E+00
    0.61155E+05        -0.97597E+08         0.00000E+00
    0.00000E+00         0.00000E+00        -0.59307E+08
 
   -0.59183E+08         0.63792E+05         0.00000E+00
    0.63792E+05        -0.97597E+08         0.00000E+00
    0.00000E+00         0.00000E+00        -0.59280E+08
 
   -0.59157E+08         0.66312E+05         0.00000E+00
    0.66312E+05        -0.97597E+08         0.00000E+00
    0.00000E+00         0.00000E+00        -0.59253E+08
 
   -0.59130E+08         0.68733E+05         0.00000E+00
    0.68733E+05        -0.97597E+08         0.00000E+00
    0.00000E+00         0.00000E+00        -0.59225E+08
 
   -0.59103E+08         0.71074E+05         0.00000E+00
    0.71074E+05        -0.97597E+08         0.00000E+00
    0.00000E+00         0.00000E+00        -0.59196E+08
 
   -0.59074E+08         0.73347E+05         0.00000E+00
    0.73347E+05        -0.97597E+08         0.00000E+00
    0.00000E+00         0.00000E+00        -0.59167E+08
 
   -0.59044E+08         0.75566E+05         0.00000E+00
    0.75566E+05        -0.97597E+08         0.00000E+00
    0.00000E+00         0.00000E+00        -0.59137E+08
 
   -0.59014E+08         0.77741E+05         0.00000E+00
    0.77741E+05        -0.97597E+08         0.00000E+00
    0.00000E+00         0.00000E+00        -0.59107E+08
 
   -0.58983E+08         0.79881E+05         0.00000E+00
    0.79881E+05        -0.97597E+08         0.00000E+00
    0.00000E+00         0.00000E+00        -0.59076E+08
 
   -0.58950E+08         0.81994E+05         0.00000E+00
    0.81994E+05        -0.97597E+08         0.00000E+00
    0.00000E+00         0.00000E+00        -0.59044E+08
 
   -0.58918E+08         0.84085E+05         0.00000E+00
    0.84085E+05        -0.97597E+08         0.00000E+00
    0.00000E+00         0.00000E+00        -0.59011E+08
 
   -0.58884E+08         0.86160E+05         0.00000E+00
    0.86160E+05        -0.97597E+08         0.00000E+00
    0.00000E+00         0.00000E+00        -0.58978E+08
 
   -0.58849E+08         0.88223E+05         0.00000E+00
    0.88223E+05        -0.97597E+08         0.00000E+00
    0.00000E+00         0.00000E+00        -0.58944E+08
 
   -0.58814E+08         0.90278E+05         0.00000E+00
    0.90278E+05        -0.97597E+08         0.00000E+00
    0.00000E+00         0.00000E+00        -0.58910E+08
 
   -0.58777E+08         0.92328E+05         0.00000E+00
    0.92328E+05        -0.97597E+08         0.00000E+00
    0.00000E+00         0.00000E+00        -0.58874E+08
 
   -0.58740E+08         0.94376E+05         0.00000E+00
    0.94376E+05        -0.97597E+08         0.00000E+00
    0.00000E+00         0.00000E+00        -0.58838E+08
 
   -0.58703E+08         0.96422E+05         0.00000E+00
    0.96422E+05        -0.97597E+08         0.00000E+00
    0.00000E+00         0.00000E+00        -0.58801E+08
 
   -0.58664E+08         0.98469E+05         0.00000E+00
    0.98469E+05        -0.97597E+08         0.00000E+00
    0.00000E+00         0.00000E+00        -0.58763E+08
 
   -0.58624E+08         0.10052E+06         0.00000E+00
    0.10052E+06        -0.97597E+08         0.00000E+00
    0.00000E+00         0.00000E+00        -0.58725E+08
 
   -0.58584E+08         0.10257E+06         0.00000E+00
    0.10257E+06        -0.97597E+08         0.00000E+00
    0.00000E+00         0.00000E+00        -0.58685E+08
 
   -0.58543E+08         0.10462E+06         0.00000E+00
    0.10462E+06        -0.97597E+08         0.00000E+00
    0.00000E+00         0.00000E+00        -0.58645E+08
 
   -0.58501E+08         0.10667E+06         0.00000E+00
    0.10667E+06        -0.97597E+08         0.00000E+00
    0.00000E+00         0.00000E+00        -0.58604E+08
 
   -0.58458E+08         0.10873E+06         0.00000E+00
    0.10873E+06        -0.97597E+08         0.00000E+00
    0.00000E+00         0.00000E+00        -0.58562E+08
 
   -0.58414E+08         0.11078E+06         0.00000E+00
    0.11078E+06        -0.97597E+08         0.00000E+00
    0.00000E+00         0.00000E+00        -0.58519E+08
 
   -0.58370E+08         0.11284E+06         0.00000E+00
    0.11284E+06        -0.97597E+08         0.00000E+00
    0.00000E+00         0.00000E+00        -0.58475E+08
 
   -0.58325E+08         0.11489E+06         0.00000E+00
    0.11489E+06        -0.97597E+08         0.00000E+00
    0.00000E+00         0.00000E+00        -0.58431E+08
 
   -0.58278E+08         0.11694E+06         0.00000E+00
    0.11694E+06        -0.97597E+08         0.00000E+00
    0.00000E+00         0.00000E+00        -0.58385E+08
 
   -0.58231E+08         0.11898E+06         0.00000E+00
    0.11898E+06        -0.97597E+08         0.00000E+00
    0.00000E+00         0.00000E+00        -0.58339E+08
 
   -0.58184E+08         0.12101E+06         0.00000E+00
    0.12101E+06        -0.97597E+08         0.00000E+00
    0.00000E+00         0.00000E+00        -0.58291E+08
 
   -0.58135E+08         0.12303E+06         0.00000E+00
    0.12303E+06        -0.97597E+08         0.00000E+00
    0.00000E+00         0.00000E+00        -0.58243E+08
 
   -0.58086E+08         0.12504E+06         0.00000E+00
    0.12504E+06        -0.97597E+08         0.00000E+00
    0.00000E+00         0.00000E+00        -0.58194E+08
 
   -0.58035E+08         0.12703E+06         0.00000E+00
    0.12703E+06        -0.97597E+08         0.00000E+00
    0.00000E+00         0.00000E+00        -0.58143E+08
 
   -0.57984E+08         0.12899E+06         0.00000E+00
    0.12899E+06        -0.97597E+08         0.00000E+00
    0.00000E+00         0.00000E+00        -0.58092E+08
 
   -0.57932E+08         0.13093E+06         0.00000E+00
    0.13093E+06        -0.97598E+08         0.00000E+00
    0.00000E+00         0.00000E+00        -0.58040E+08
 
   -0.57880E+08         0.13284E+06         0.00000E+00
    0.13284E+06        -0.97598E+08         0.00000E+00
    0.00000E+00         0.00000E+00        -0.57987E+08
 
   -0.57826E+08         0.13471E+06         0.00000E+00
    0.13471E+06        -0.97598E+08         0.00000E+00
    0.00000E+00         0.00000E+00        -0.57932E+08
 
   -0.57772E+08         0.13654E+06         0.00000E+00
    0.13654E+06        -0.97598E+08         0.00000E+00
    0.00000E+00         0.00000E+00        -0.57877E+08
 
   -0.57717E+08         0.13832E+06         0.00000E+00
    0.13832E+06        -0.97598E+08         0.00000E+00
    0.00000E+00         0.00000E+00        -0.57821E+08
 
   -0.57661E+08         0.14004E+06         0.00000E+00
    0.14004E+06        -0.97598E+08         0.00000E+00
    0.00000E+00         0.00000E+00        -0.57764E+08
 
   -0.57605E+08         0.14170E+06         0.00000E+00
    0.14170E+06        -0.97598E+08         0.00000E+00
    0.00000E+00         0.00000E+00        -0.57706E+08
 
   -0.57548E+08         0.14330E+06         0.00000E+00
    0.14330E+06        -0.97598E+08         0.00000E+00
    0.00000E+00         0.00000E+00        -0.57646E+08
 
   -0.57490E+08         0.14481E+06         0.00000E+00
    0.14481E+06        -0.97598E+08         0.00000E+00
    0.00000E+00         0.00000E+00        -0.57586E+08
 
   -0.57431E+08         0.14624E+06         0.00000E+00
    0.14624E+06        -0.97598E+08         0.00000E+00
    0.00000E+00         0.00000E+00        -0.57525E+08
 
   -0.57372E+08         0.14757E+06         0.00000E+00
    0.14757E+06        -0.97598E+08         0.00000E+00
    0.00000E+00         0.00000E+00        -0.57463E+08
 
   -0.57313E+08         0.14880E+06         0.00000E+00
    0.14880E+06        -0.97598E+08         0.00000E+00
    0.00000E+00         0.00000E+00        -0.57400E+08
 
   -0.57253E+08         0.14991E+06         0.00000E+00
    0.14991E+06        -0.97599E+08         0.00000E+00
    0.00000E+00         0.00000E+00        -0.57336E+08
 
   -0.57192E+08         0.15088E+06         0.00000E+00
    0.15088E+06        -0.97599E+08         0.00000E+00
    0.00000E+00         0.00000E+00        -0.57271E+08
 
   -0.57131E+08         0.15172E+06         0.00000E+00
    0.15172E+06        -0.97599E+08         0.00000E+00
    0.00000E+00         0.00000E+00        -0.57205E+08
 
   -0.57070E+08         0.15239E+06         0.00000E+00
    0.15239E+06        -0.97599E+08         0.00000E+00
    0.00000E+00         0.00000E+00        -0.57138E+08
 
   -0.57008E+08         0.15290E+06         0.00000E+00
    0.15290E+06        -0.97599E+08         0.00000E+00
    0.00000E+00         0.00000E+00        -0.57070E+08
 
   -0.56946E+08         0.15321E+06         0.00000E+00
    0.15321E+06        -0.97600E+08         0.00000E+00
    0.00000E+00         0.00000E+00        -0.57002E+08
 
   -0.56884E+08         0.15330E+06         0.00000E+00
    0.15330E+06        -0.97600E+08         0.00000E+00
    0.00000E+00         0.00000E+00        -0.56933E+08
 
   -0.56822E+08         0.15317E+06         0.00000E+00
    0.15317E+06        -0.97600E+08         0.00000E+00
    0.00000E+00         0.00000E+00        -0.56862E+08
 
   -0.56760E+08         0.15278E+06         0.00000E+00
    0.15278E+06        -0.97601E+08         0.00000E+00
    0.00000E+00         0.00000E+00        -0.56792E+08
 
   -0.56699E+08         0.15210E+06         0.00000E+00
    0.15210E+06        -0.97601E+08         0.00000E+00
    0.00000E+00         0.00000E+00        -0.56720E+08
 
   -0.56637E+08         0.15109E+06         0.00000E+00
    0.15109E+06        -0.97601E+08         0.00000E+00
    0.00000E+00         0.00000E+00        -0.56648E+08
 
   -0.56576E+08         0.14974E+06         0.00000E+00
    0.14974E+06        -0.97602E+08         0.00000E+00
    0.00000E+00         0.00000E+00        -0.56575E+08
 
   -0.56515E+08         0.14798E+06         0.00000E+00
    0.14798E+06        -0.97602E+08         0.00000E+00
    0.00000E+00         0.00000E+00        -0.56502E+08
 
   -0.56455E+08         0.14577E+06         0.00000E+00
    0.14577E+06        -0.97603E+08         0.00000E+00
    0.00000E+00         0.00000E+00        -0.56428E+08
 
   -0.56396E+08         0.14305E+06         0.00000E+00
    0.14305E+06        -0.97604E+08         0.00000E+00
    0.00000E+00         0.00000E+00        -0.56354E+08
 
   -0.56337E+08         0.13976E+06         0.00000E+00
    0.13976E+06        -0.97605E+08         0.00000E+00
    0.00000E+00         0.00000E+00        -0.56279E+08
 
   -0.56280E+08         0.13582E+06         0.00000E+00
    0.13582E+06        -0.97606E+08         0.00000E+00
    0.00000E+00         0.00000E+00        -0.56205E+08
 
   -0.56225E+08         0.13114E+06         0.00000E+00
    0.13114E+06        -0.97607E+08         0.00000E+00
    0.00000E+00         0.00000E+00        -0.56130E+08
 
   -0.56171E+08         0.12564E+06         0.00000E+00
    0.12564E+06        -0.97608E+08         0.00000E+00
    0.00000E+00         0.00000E+00        -0.56055E+08
 
   -0.56119E+08         0.11921E+06         0.00000E+00
    0.11921E+06        -0.97609E+08         0.00000E+00
    0.00000E+00         0.00000E+00        -0.55980E+08
 
   -0.56069E+08         0.11174E+06         0.00000E+00
    0.11174E+06        -0.97611E+08         0.00000E+00
    0.00000E+00         0.00000E+00        -0.55905E+08
 
   -0.56022E+08         0.10313E+06         0.00000E+00
    0.10313E+06        -0.97612E+08         0.00000E+00
    0.00000E+00         0.00000E+00        -0.55831E+08
 
   -0.55978E+08         0.93271E+05         0.00000E+00
    0.93271E+05        -0.97614E+08         0.00000E+00
    0.00000E+00         0.00000E+00        -0.55757E+08
 
   -0.55937E+08         0.82084E+05         0.00000E+00
    0.82084E+05        -0.97616E+08         0.00000E+00
    0.00000E+00         0.00000E+00        -0.55683E+08
 
   -0.55899E+08         0.69518E+05         0.00000E+00
    0.69518E+05        -0.97618E+08         0.00000E+00
    0.00000E+00         0.00000E+00        -0.55610E+08
 
   -0.55866E+08         0.55577E+05         0.00000E+00
    0.55577E+05        -0.97620E+08         0.00000E+00
    0.00000E+00         0.00000E+00        -0.55538E+08
 
   -0.55836E+08         0.40349E+05         0.00000E+00
    0.40349E+05        -0.97622E+08         0.00000E+00
    0.00000E+00         0.00000E+00        -0.55467E+08
 
   -0.55811E+08         0.24042E+05         0.00000E+00
    0.24042E+05        -0.97624E+08         0.00000E+00
    0.00000E+00         0.00000E+00        -0.55397E+08
 
   -0.55790E+08         0.70340E+04         0.00000E+00
    0.70340E+04        -0.97625E+08         0.00000E+00
    0.00000E+00         0.00000E+00        -0.55327E+08
 
   -0.55773E+08        -0.10069E+05         0.00000E+00
   -0.10069E+05        -0.97625E+08         0.00000E+00
    0.00000E+00         0.00000E+00        -0.55258E+08
 
   -0.55760E+08        -0.26333E+05         0.00000E+00
   -0.26333E+05        -0.97624E+08         0.00000E+00
    0.00000E+00         0.00000E+00        -0.55190E+08
 
   -0.55750E+08        -0.40353E+05         0.00000E+00
   -0.40353E+05        -0.97621E+08         0.00000E+00
    0.00000E+00         0.00000E+00        -0.55122E+08
 
   -0.55741E+08        -0.49952E+05         0.00000E+00
   -0.49952E+05        -0.97615E+08         0.00000E+00
    0.00000E+00         0.00000E+00        -0.55053E+08
 
   -0.55732E+08        -0.51623E+05         0.00000E+00
   -0.51623E+05        -0.97603E+08         0.00000E+00
    0.00000E+00         0.00000E+00        -0.54982E+08
 
   -0.55722E+08        -0.40783E+05         0.00000E+00
   -0.40783E+05        -0.97577E+08         0.00000E+00
    0.00000E+00         0.00000E+00        -0.54907E+08
 
   -0.55714E+08        -0.15829E+05         0.00000E+00
   -0.15829E+05        -0.97525E+08         0.00000E+00
    0.00000E+00         0.00000E+00        -0.54824E+08
 
   -0.59436E+08        -0.35482E+04         0.00000E+00
   -0.35482E+04        -0.97616E+08         0.00000E+00
    0.00000E+00         0.00000E+00        -0.59707E+08
 
   -0.59434E+08        -0.87546E+04         0.00000E+00
   -0.87546E+04        -0.97603E+08         0.00000E+00
    0.00000E+00         0.00000E+00        -0.59686E+08
 
   -0.59431E+08        -0.10142E+05         0.00000E+00
   -0.10142E+05        -0.97598E+08         0.00000E+00
    0.00000E+00         0.00000E+00        -0.59668E+08
 
   -0.59428E+08        -0.83717E+04         0.00000E+00
   -0.83717E+04        -0.97595E+08         0.00000E+00
    0.00000E+00         0.00000E+00        -0.59650E+08
 
   -0.59424E+08        -0.47405E+04         0.00000E+00
   -0.47405E+04        -0.97594E+08         0.00000E+00
    0.00000E+00         0.00000E+00        -0.59632E+08
 
   -0.59420E+08        -0.11904E+03         0.00000E+00
   -0.11904E+03        -0.97593E+08         0.00000E+00
    0.00000E+00         0.00000E+00        -0.59614E+08
 
   -0.59415E+08         0.49887E+04         0.00000E+00
    0.49887E+04        -0.97593E+08         0.00000E+00
    0.00000E+00         0.00000E+00        -0.59596E+08
 
   -0.59408E+08         0.10265E+05         0.00000E+00
    0.10265E+05        -0.97593E+08         0.00000E+00
    0.00000E+00         0.00000E+00        -0.59577E+08
 
   -0.59399E+08         0.15501E+05         0.00000E+00
    0.15501E+05        -0.97593E+08         0.00000E+00
    0.00000E+00         0.00000E+00        -0.59558E+08
 
   -0.59389E+08         0.20565E+05         0.00000E+00
    0.20565E+05        -0.97594E+08         0.00000E+00
    0.00000E+00         0.00000E+00        -0.59539E+08
 
   -0.59377E+08         0.25375E+05         0.00000E+00
    0.25375E+05        -0.97594E+08         0.00000E+00
    0.00000E+00         0.00000E+00        -0.59518E+08
 
   -0.59363E+08         0.29891E+05         0.00000E+00
    0.29891E+05        -0.97595E+08         0.00000E+00
    0.00000E+00         0.00000E+00        -0.59497E+08
 
   -0.59348E+08         0.34098E+05         0.00000E+00
    0.34098E+05        -0.97595E+08         0.00000E+00
    0.00000E+00         0.00000E+00        -0.59475E+08
 
   -0.59332E+08         0.38000E+05         0.00000E+00
    0.38000E+05        -0.97595E+08         0.00000E+00
    0.00000E+00         0.00000E+00        -0.59453E+08
 
   -0.59314E+08         0.41613E+05         0.00000E+00
    0.41613E+05        -0.97596E+08         0.00000E+00
    0.00000E+00         0.00000E+00        -0.59430E+08
 
   -0.59295E+08         0.44963E+05         0.00000E+00
    0.44963E+05        -0.97596E+08         0.00000E+00
    0.00000E+00         0.00000E+00        -0.59407E+08
 
   -0.59274E+08         0.48075E+05         0.00000E+00
    0.48075E+05        -0.97596E+08         0.00000E+00
    0.00000E+00         0.00000E+00        -0.59383E+08
 
   -0.59253E+08         0.50979E+05         0.00000E+00
    0.50979E+05        -0.97597E+08         0.00000E+00
    0.00000E+00         0.00000E+00        -0.59358E+08
 
   -0.59230E+08         0.53702E+05         0.00000E+00
    0.53702E+05        -0.97597E+08         0.00000E+00
    0.00000E+00         0.00000E+00        -0.59332E+08
 
   -0.59206E+08         0.56270E+05         0.00000E+00
    0.56270E+05        -0.97597E+08         0.00000E+00
    0.00000E+00         0.00000E+00        -0.59306E+08
 
   -0.59181E+08         0.58706E+05         0.00000E+00
    0.58706E+05        -0.97597E+08         0.00000E+00
    0.00000E+00         0.00000E+00        -0.59280E+08
 
   -0.59155E+08         0.61032E+05         0.00000E+00
    0.61032E+05        -0.97597E+08         0.00000E+00
    0.00000E+00         0.00000E+00        -0.59252E+08
 
   -0.59128E+08         0.63266E+05         0.00000E+00
    0.63266E+05        -0.97597E+08         0.00000E+00
    0.00000E+00         0.00000E+00        -0.59224E+08
 
   -0.59100E+08         0.65424E+05         0.00000E+00
    0.65424E+05        -0.97597E+08         0.00000E+00
    0.00000E+00         0.00000E+00        -0.59196E+08
 
   -0.59072E+08         0.67519E+05         0.00000E+00
    0.67519E+05        -0.97598E+08         0.00000E+00
    0.00000E+00         0.00000E+00        -0.59167E+08
 
   -0.59042E+08         0.69564E+05         0.00000E+00
    0.69564E+05        -0.97598E+08         0.00000E+00
    0.00000E+00         0.00000E+00        -0.59137E+08
 
   -0.59012E+08         0.71567E+05         0.00000E+00
    0.71567E+05        -0.97598E+08         0.00000E+00
    0.00000E+00         0.00000E+00        -0.59106E+08
 
   -0.58980E+08         0.73538E+05         0.00000E+00
    0.73538E+05        -0.97598E+08         0.00000E+00
    0.00000E+00         0.00000E+00        -0.59075E+08
 
   -0.58948E+08         0.75483E+05         0.00000E+00
    0.75483E+05        -0.97598E+08         0.00000E+00
    0.00000E+00         0.00000E+00        -0.59043E+08
 
   -0.58915E+08         0.77408E+05         0.00000E+00
    0.77408E+05        -0.97598E+08         0.00000E+00
    0.00000E+00         0.00000E+00        -0.59011E+08
 
   -0.58881E+08         0.79318E+05         0.00000E+00
    0.79318E+05        -0.97598E+08         0.00000E+00
    0.00000E+00         0.00000E+00        -0.58978E+08
 
   -0.58847E+08         0.81217E+05         0.00000E+00
    0.81217E+05        -0.97598E+08         0.00000E+00
    0.00000E+00         0.00000E+00        -0.58944E+08
 
   -0.58811E+08         0.83108E+05         0.00000E+00
    0.83108E+05        -0.97598E+08         0.00000E+00
    0.00000E+00         0.00000E+00        -0.58909E+08
 
   -0.58775E+08         0.84995E+05         0.00000E+00
    0.84995E+05        -0.97598E+08         0.00000E+00
    0.00000E+00         0.00000E+00        -0.58873E+08
 
   -0.58738E+08         0.86878E+05         0.00000E+00
    0.86878E+05        -0.97598E+08         0.00000E+00
    0.00000E+00         0.00000E+00        -0.58837E+08
 
   -0.58700E+08         0.88761E+05         0.00000E+00
    0.88761E+05        -0.97598E+08         0.00000E+00
    0.00000E+00         0.00000E+00        -0.58800E+08
 
   -0.58661E+08         0.90643E+05         0.00000E+00
    0.90643E+05        -0.97598E+08         0.00000E+00
    0.00000E+00         0.00000E+00        -0.58762E+08
 
   -0.58622E+08         0.92527E+05         0.00000E+00
    0.92527E+05        -0.97598E+08         0.00000E+00
    0.00000E+00         0.00000E+00        -0.58724E+08
 
   -0.58581E+08         0.94412E+05         0.00000E+00
    0.94412E+05        -0.97598E+08         0.00000E+00
    0.00000E+00         0.00000E+00        -0.58684E+08
 
   -0.58540E+08         0.96298E+05         0.00000E+00
    0.96298E+05        -0.97598E+08         0.00000E+00
    0.00000E+00         0.00000E+00        -0.58644E+08
 
   -0.58498E+08         0.98187E+05         0.00000E+00
    0.98187E+05        -0.97598E+08         0.00000E+00
    0.00000E+00         0.00000E+00        -0.58603E+08
 
   -0.58455E+08         0.10008E+06         0.00000E+00
    0.10008E+06        -0.97598E+08         0.00000E+00
    0.00000E+00         0.00000E+00        -0.58561E+08
 
   -0.58411E+08         0.10197E+06         0.00000E+00
    0.10197E+06        -0.97598E+08         0.00000E+00
    0.00000E+00         0.00000E+00        -0.58518E+08
 
   -0.58367E+08         0.10385E+06         0.00000E+00
    0.10385E+06        -0.97598E+08         0.00000E+00
    0.00000E+00         0.00000E+00        -0.58475E+08
 
   -0.58322E+08         0.10574E+06         0.00000E+00
    0.10574E+06        -0.97598E+08         0.00000E+00
    0.00000E+00         0.00000E+00        -0.58430E+08
 
   -0.58275E+08         0.10762E+06         0.00000E+00
    0.10762E+06        -0.97598E+08         0.00000E+00
    0.00000E+00         0.00000E+00        -0.58384E+08
 
   -0.58228E+08         0.10950E+06         0.00000E+00
    0.10950E+06        -0.97598E+08         0.00000E+00
    0.00000E+00         0.00000E+00        -0.58338E+08
 
   -0.58181E+08         0.11136E+06         0.00000E+00
    0.11136E+06        -0.97598E+08         0.00000E+00
    0.00000E+00         0.00000E+00        -0.58290E+08
 
   -0.58132E+08         0.11322E+06         0.00000E+00
    0.11322E+06        -0.97598E+08         0.00000E+00
    0.00000E+00         0.00000E+00        -0.58242E+08
 
   -0.58082E+08         0.11506E+06         0.00000E+00
    0.11506E+06        -0.97598E+08         0.00000E+00
    0.00000E+00         0.00000E+00        -0.58193E+08
 
   -0.58032E+08         0.11689E+06         0.00000E+00
    0.11689E+06        -0.97598E+08         0.00000E+00
    0.00000E+00         0.00000E+00        -0.58142E+08
 
   -0.57981E+08         0.11869E+06         0.00000E+00
    0.11869E+06        -0.97598E+08         0.00000E+00
    0.00000E+00         0.00000E+00        -0.58091E+08
 
   -0.57929E+08         0.12047E+06         0.00000E+00
    0.12047E+06        -0.97598E+08         0.00000E+00
    0.00000E+00         0.00000E+00        -0.58039E+08
 
   -0.57876E+08         0.12222E+06         0.00000E+00
    0.12222E+06        -0.97598E+08         0.00000E+00
    0.00000E+00         0.00000E+00        -0.57986E+08
 
   -0.57823E+08         0.12394E+06         0.00000E+00
    0.12394E+06        -0.97598E+08         0.00000E+00
    0.00000E+00         0.00000E+00        -0.57932E+08
 
   -0.57769E+08         0.12561E+06         0.00000E+00
    0.12561E+06        -0.97598E+08         0.00000E+00
    0.00000E+00         0.00000E+00        -0.57876E+08
 
   -0.57714E+08         0.12725E+06         0.00000E+00
    0.12725E+06        -0.97598E+08         0.00000E+00
    0.00000E+00         0.00000E+00        -0.57820E+08
 
   -0.57658E+08         0.12883E+06         0.00000E+00
    0.12883E+06        -0.97598E+08         0.00000E+00
    0.00000E+00         0.00000E+00        -0.57763E+08
 
   -0.57602E+08         0.13035E+06         0.00000E+00
    0.13035E+06        -0.97598E+08         0.00000E+00
    0.00000E+00         0.00000E+00        -0.57705E+08
 
   -0.57544E+08         0.13181E+06         0.00000E+00
    0.13181E+06        -0.97598E+08         0.00000E+00
    0.00000E+00         0.00000E+00        -0.57645E+08
 
   -0.57487E+08         0.13320E+06         0.00000E+00
    0.13320E+06        -0.97598E+08         0.00000E+00
    0.00000E+00         0.00000E+00        -0.57585E+08
 
   -0.57428E+08         0.13450E+06         0.00000E+00
    0.13450E+06        -0.97598E+08         0.00000E+00
    0.00000E+00         0.00000E+00        -0.57524E+08
 
   -0.57369E+08         0.13572E+06         0.00000E+00
    0.13572E+06        -0.97599E+08         0.00000E+00
    0.00000E+00         0.00000E+00        -0.57462E+08
 
   -0.57310E+08         0.13684E+06         0.00000E+00
    0.13684E+06        -0.97599E+08         0.00000E+00
    0.00000E+00         0.00000E+00        -0.57399E+08
 
   -0.57250E+08         0.13785E+06         0.00000E+00
    0.13785E+06        -0.97599E+08         0.00000E+00
    0.00000E+00         0.00000E+00        -0.57335E+08
 
   -0.57189E+08         0.13874E+06         0.00000E+00
    0.13874E+06        -0.97599E+08         0.00000E+00
    0.00000E+00         0.00000E+00        -0.57270E+08
 
   -0.57129E+08         0.13950E+06         0.00000E+00
    0.13950E+06        -0.97599E+08         0.00000E+00
    0.00000E+00         0.00000E+00        -0.57204E+08
 
   -0.57067E+08         0.14011E+06         0.00000E+00
    0.14011E+06        -0.97599E+08         0.00000E+00
    0.00000E+00         0.00000E+00        -0.57137E+08
 
   -0.57006E+08         0.14056E+06         0.00000E+00
    0.14056E+06        -0.97600E+08         0.00000E+00
    0.00000E+00         0.00000E+00        -0.57070E+08
 
   -0.56944E+08         0.14083E+06         0.00000E+00
    0.14083E+06        -0.97600E+08         0.00000E+00
    0.00000E+00         0.00000E+00        -0.57001E+08
 
   -0.56882E+08         0.14091E+06         0.00000E+00
    0.14091E+06        -0.97600E+08         0.00000E+00
    0.00000E+00         0.00000E+00        -0.56932E+08
 
   -0.56820E+08         0.14078E+06         0.00000E+00
    0.14078E+06        -0.97600E+08         0.00000E+00
    0.00000E+00         0.00000E+00        -0.56862E+08
 
   -0.56758E+08         0.14040E+06         0.00000E+00
    0.14040E+06        -0.97601E+08         0.00000E+00
    0.00000E+00         0.00000E+00        -0.56791E+08
 
   -0.56697E+08         0.13976E+06         0.00000E+00
    0.13976E+06        -0.97601E+08         0.00000E+00
    0.00000E+00         0.00000E+00        -0.56720E+08
 
   -0.56635E+08         0.13882E+06         0.00000E+00
    0.13882E+06        -0.97601E+08         0.00000E+00
    0.00000E+00         0.00000E+00        -0.56647E+08
 
   -0.56574E+08         0.13755E+06         0.00000E+00
    0.13755E+06        -0.97602E+08         0.00000E+00
    0.00000E+00         0.00000E+00        -0.56575E+08
 
   -0.56514E+08         0.13591E+06         0.00000E+00
    0.13591E+06        -0.97602E+08         0.00000E+00
    0.00000E+00         0.00000E+00        -0.56501E+08
 
   -0.56454E+08         0.13386E+06         0.00000E+00
    0.13386E+06        -0.97603E+08         0.00000E+00
    0.00000E+00         0.00000E+00        -0.56428E+08
 
   -0.56395E+08         0.13133E+06         0.00000E+00
    0.13133E+06        -0.97603E+08         0.00000E+00
    0.00000E+00         0.00000E+00        -0.56354E+08
 
   -0.56337E+08         0.12826E+06         0.00000E+00
    0.12826E+06        -0.97604E+08         0.00000E+00
    0.00000E+00         0.00000E+00        -0.56279E+08
 
   -0.56280E+08         0.12459E+06         0.00000E+00
    0.12459E+06        -0.97605E+08         0.00000E+00
    0.00000E+00         0.00000E+00        -0.56204E+08
 
   -0.56225E+08         0.12024E+06         0.00000E+00
    0.12024E+06        -0.97606E+08         0.00000E+00
    0.00000E+00         0.00000E+00        -0.56130E+08
 
   -0.56172E+08         0.11510E+06         0.00000E+00
    0.11510E+06        -0.97607E+08         0.00000E+00
    0.00000E+00         0.00000E+00        -0.56055E+08
 
   -0.56121E+08         0.10910E+06         0.00000E+00
    0.10910E+06        -0.97608E+08         0.00000E+00
    0.00000E+00         0.00000E+00        -0.55980E+08
 
   -0.56072E+08         0.10212E+06         0.00000E+00
    0.10212E+06        -0.97609E+08         0.00000E+00
    0.00000E+00         0.00000E+00        -0.55905E+08
 
   -0.56025E+08         0.94063E+05         0.00000E+00
    0.94063E+05        -0.97610E+08         0.00000E+00
    0.00000E+00         0.00000E+00        -0.55831E+08
 
   -0.55982E+08         0.84826E+05         0.00000E+00
    0.84826E+05        -0.97612E+08         0.00000E+00
    0.00000E+00         0.00000E+00        -0.55757E+08
 
   -0.55942E+08         0.74329E+05         0.00000E+00
    0.74329E+05        -0.97614E+08         0.00000E+00
    0.00000E+00         0.00000E+00        -0.55684E+08
 
   -0.55906E+08         0.62519E+05         0.00000E+00
    0.62519E+05        -0.97615E+08         0.00000E+00
    0.00000E+00         0.00000E+00        -0.55611E+08
 
   -0.55873E+08         0.49398E+05         0.00000E+00
    0.49398E+05        -0.97617E+08         0.00000E+00
    0.00000E+00         0.00000E+00        -0.55540E+08
 
   -0.55846E+08         0.35040E+05         0.00000E+00
    0.35040E+05        -0.97619E+08         0.00000E+00
    0.00000E+00         0.00000E+00        -0.55469E+08
 
   -0.55822E+08         0.19634E+05         0.00000E+00
    0.19634E+05        -0.97620E+08         0.00000E+00
    0.00000E+00         0.00000E+00        -0.55399E+08
 
   -0.55804E+08         0.35236E+04         0.00000E+00
    0.35236E+04        -0.97621E+08         0.00000E+00
    0.00000E+00         0.00000E+00        -0.55330E+08
 
   -0.55790E+08        -0.12737E+05         0.00000E+00
   -0.12737E+05        -0.97621E+08         0.00000E+00
    0.00000E+00         0.00000E+00        -0.55262E+08
 
   -0.55779E+08        -0.28294E+05         0.00000E+00
   -0.28294E+05        -0.97621E+08         0.00000E+00
    0.00000E+00         0.00000E+00        -0.55195E+08
 
   -0.55773E+08        -0.41855E+05         0.00000E+00
   -0.41855E+05        -0.97618E+08         0.00000E+00
    0.00000E+00         0.00000E+00        -0.55128E+08
 
   -0.55767E+08        -0.51389E+05         0.00000E+00
   -0.51389E+05        -0.97613E+08         0.00000E+00
    0.00000E+00         0.00000E+00        -0.55060E+08
 
   -0.55761E+08        -0.53409E+05         0.00000E+00
   -0.53409E+05        -0.97603E+08         0.00000E+00
    0.00000E+00         0.00000E+00        -0.54991E+08
 
   -0.55753E+08        -0.42746E+05         0.00000E+00
   -0.42746E+05        -0.97581E+08         0.00000E+00
    0.00000E+00         0.00000E+00        -0.54917E+08
 
   -0.55746E+08        -0.16775E+05         0.00000E+00
   -0.16775E+05        -0.97531E+08         0.00000E+00
    0.00000E+00         0.00000E+00        -0.54835E+08
 
   -0.59427E+08        -0.38289E+04         0.00000E+00
   -0.38289E+04        -0.97614E+08         0.00000E+00
    0.00000E+00         0.00000E+00        -0.59704E+08
 
   -0.59425E+08        -0.93321E+04         0.00000E+00
   -0.93321E+04        -0.97603E+08         0.00000E+00
    0.00000E+00         0.00000E+00        -0.59683E+08
 
   -0.59422E+08        -0.10696E+05         0.00000E+00
   -0.10696E+05        -0.97598E+08         0.00000E+00
    0.00000E+00         0.00000E+00        -0.59665E+08
 
   -0.59420E+08        -0.89022E+04         0.00000E+00
   -0.89022E+04        -0.97596E+08         0.00000E+00
    0.00000E+00         0.00000E+00        -0.59648E+08
 
   -0.59418E+08        -0.53873E+04         0.00000E+00
   -0.53873E+04        -0.97595E+08         0.00000E+00
    0.00000E+00         0.00000E+00        -0.59630E+08
 
   -0.59414E+08        -0.99236E+03         0.00000E+00
   -0.99236E+03        -0.97594E+08         0.00000E+00
    0.00000E+00         0.00000E+00        -0.59613E+08
 
   -0.59410E+08         0.38236E+04         0.00000E+00
    0.38236E+04        -0.97594E+08         0.00000E+00
    0.00000E+00         0.00000E+00        -0.59595E+08
 
   -0.59403E+08         0.87725E+04         0.00000E+00
    0.87725E+04        -0.97594E+08         0.00000E+00
    0.00000E+00         0.00000E+00        -0.59576E+08
 
   -0.59395E+08         0.13668E+05         0.00000E+00
    0.13668E+05        -0.97594E+08         0.00000E+00
    0.00000E+00         0.00000E+00        -0.59557E+08
 
   -0.59385E+08         0.18389E+05         0.00000E+00
    0.18389E+05        -0.97595E+08         0.00000E+00
    0.00000E+00         0.00000E+00        -0.59538E+08
 
   -0.59374E+08         0.22865E+05         0.00000E+00
    0.22865E+05        -0.97595E+08         0.00000E+00
    0.00000E+00         0.00000E+00        -0.59517E+08
 
   -0.59361E+08         0.27058E+05         0.00000E+00
    0.27058E+05        -0.97595E+08         0.00000E+00
    0.00000E+00         0.00000E+00        -0.59496E+08
 
   -0.59346E+08         0.30957E+05         0.00000E+00
    0.30957E+05        -0.97596E+08         0.00000E+00
    0.00000E+00         0.00000E+00        -0.59475E+08
 
   -0.59329E+08         0.34567E+05         0.00000E+00
    0.34567E+05        -0.97596E+08         0.00000E+00
    0.00000E+00         0.00000E+00        -0.59453E+08
 
   -0.59312E+08         0.37905E+05         0.00000E+00
    0.37905E+05        -0.97596E+08         0.00000E+00
    0.00000E+00         0.00000E+00        -0.59430E+08
 
   -0.59292E+08         0.40994E+05         0.00000E+00
    0.40994E+05        -0.97597E+08         0.00000E+00
    0.00000E+00         0.00000E+00        -0.59406E+08
 
   -0.59272E+08         0.43860E+05         0.00000E+00
    0.43860E+05        -0.97597E+08         0.00000E+00
    0.00000E+00         0.00000E+00        -0.59382E+08
 
   -0.59250E+08         0.46530E+05         0.00000E+00
    0.46530E+05        -0.97597E+08         0.00000E+00
    0.00000E+00         0.00000E+00        -0.59357E+08
 
   -0.59228E+08         0.49031E+05         0.00000E+00
    0.49031E+05        -0.97597E+08         0.00000E+00
    0.00000E+00         0.00000E+00        -0.59332E+08
 
   -0.59204E+08         0.51387E+05         0.00000E+00
    0.51387E+05        -0.97598E+08         0.00000E+00
    0.00000E+00         0.00000E+00        -0.59306E+08
 
   -0.59179E+08         0.53620E+05         0.00000E+00
    0.53620E+05        -0.97598E+08         0.00000E+00
    0.00000E+00         0.00000E+00        -0.59279E+08
 
   -0.59153E+08         0.55751E+05         0.00000E+00
    0.55751E+05        -0.97598E+08         0.00000E+00
    0.00000E+00         0.00000E+00        -0.59252E+08
 
   -0.59126E+08         0.57796E+05         0.00000E+00
    0.57796E+05        -0.97598E+08         0.00000E+00
    0.00000E+00         0.00000E+00        -0.59224E+08
 
   -0.59098E+08         0.59770E+05         0.00000E+00
    0.59770E+05        -0.97598E+08         0.00000E+00
    0.00000E+00         0.00000E+00        -0.59195E+08
 
   -0.59069E+08         0.61687E+05         0.00000E+00
    0.61687E+05        -0.97598E+08         0.00000E+00
    0.00000E+00         0.00000E+00        -0.59166E+08
 
   -0.59040E+08         0.63556E+05         0.00000E+00
    0.63556E+05        -0.97598E+08         0.00000E+00
    0.00000E+00         0.00000E+00        -0.59136E+08
 
   -0.59009E+08         0.65387E+05         0.00000E+00
    0.65387E+05        -0.97598E+08         0.00000E+00
    0.00000E+00         0.00000E+00        -0.59106E+08
 
   -0.58978E+08         0.67188E+05         0.00000E+00
    0.67188E+05        -0.97598E+08         0.00000E+00
    0.00000E+00         0.00000E+00        -0.59075E+08
 
   -0.58946E+08         0.68965E+05         0.00000E+00
    0.68965E+05        -0.97598E+08         0.00000E+00
    0.00000E+00         0.00000E+00        -0.59043E+08
 
   -0.58913E+08         0.70724E+05         0.00000E+00
    0.70724E+05        -0.97598E+08         0.00000E+00
    0.00000E+00         0.00000E+00        -0.59010E+08
 
   -0.58879E+08         0.72469E+05         0.00000E+00
    0.72469E+05        -0.97598E+08         0.00000E+00
    0.00000E+00         0.00000E+00        -0.58977E+08
 
   -0.58844E+08         0.74203E+05         0.00000E+00
    0.74203E+05        -0.97598E+08         0.00000E+00
    0.00000E+00         0.00000E+00        -0.58943E+08
 
   -0.58809E+08         0.75930E+05         0.00000E+00
    0.75930E+05        -0.97598E+08         0.00000E+00
    0.00000E+00         0.00000E+00        -0.58908E+08
 
   -0.58772E+08         0.77653E+05         0.00000E+00
    0.77653E+05        -0.97598E+08         0.00000E+00
    0.00000E+00         0.00000E+00        -0.58873E+08
 
   -0.58735E+08         0.79372E+05         0.00000E+00
    0.79372E+05        -0.97598E+08         0.00000E+00
    0.00000E+00         0.00000E+00        -0.58837E+08
 
   -0.58697E+08         0.81091E+05         0.00000E+00
    0.81091E+05        -0.97598E+08         0.00000E+00
    0.00000E+00         0.00000E+00        -0.58800E+08
 
   -0.58658E+08         0.82809E+05         0.00000E+00
    0.82809E+05        -0.97598E+08         0.00000E+00
    0.00000E+00         0.00000E+00        -0.58762E+08
 
   -0.58619E+08         0.84529E+05         0.00000E+00
    0.84529E+05        -0.97598E+08         0.00000E+00
    0.00000E+00         0.00000E+00        -0.58723E+08
 
   -0.58578E+08         0.86249E+05         0.00000E+00
    0.86249E+05        -0.97598E+08         0.00000E+00
    0.00000E+00         0.00000E+00        -0.58684E+08
 
   -0.58537E+08         0.87971E+05         0.00000E+00
    0.87971E+05        -0.97598E+08         0.00000E+00
    0.00000E+00         0.00000E+00        -0.58643E+08
 
   -0.58495E+08         0.89694E+05         0.00000E+00
    0.89694E+05        -0.97598E+08         0.00000E+00
    0.00000E+00         0.00000E+00        -0.58602E+08
 
   -0.58452E+08         0.91417E+05         0.00000E+00
    0.91417E+05        -0.97598E+08         0.00000E+00
    0.00000E+00         0.00000E+00        -0.58560E+08
 
   -0.58409E+08         0.93141E+05         0.00000E+00
    0.93141E+05        -0.97598E+08         0.00000E+00
    0.00000E+00         0.00000E+00        -0.58518E+08
 
   -0.58364E+08         0.94863E+05         0.00000E+00
    0.94863E+05        -0.97598E+08         0.00000E+00
    0.00000E+00         0.00000E+00        -0.58474E+08
 
   -0.58319E+08         0.96583E+05         0.00000E+00
    0.96583E+05        -0.97598E+08         0.00000E+00
    0.00000E+00         0.00000E+00        -0.58429E+08
 
   -0.58272E+08         0.98299E+05         0.00000E+00
    0.98299E+05        -0.97598E+08         0.00000E+00
    0.00000E+00         0.00000E+00        -0.58384E+08
 
   -0.58225E+08         0.10001E+06         0.00000E+00
    0.10001E+06        -0.97598E+08         0.00000E+00
    0.00000E+00         0.00000E+00        -0.58337E+08
 
   -0.58177E+08         0.10171E+06         0.00000E+00
    0.10171E+06        -0.97598E+08         0.00000E+00
    0.00000E+00         0.00000E+00        -0.58290E+08
 
   -0.58129E+08         0.10340E+06         0.00000E+00
    0.10340E+06        -0.97598E+08         0.00000E+00
    0.00000E+00         0.00000E+00        -0.58241E+08
 
   -0.58079E+08         0.10508E+06         0.00000E+00
    0.10508E+06        -0.97598E+08         0.00000E+00
    0.00000E+00         0.00000E+00        -0.58192E+08
 
   -0.58029E+08         0.10675E+06         0.00000E+00
    0.10675E+06        -0.97598E+08         0.00000E+00
    0.00000E+00         0.00000E+00        -0.58142E+08
 
   -0.57978E+08         0.10839E+06         0.00000E+00
    0.10839E+06        -0.97598E+08         0.00000E+00
    0.00000E+00         0.00000E+00        -0.58090E+08
 
   -0.57926E+08         0.11001E+06         0.00000E+00
    0.11001E+06        -0.97598E+08         0.00000E+00
    0.00000E+00         0.00000E+00        -0.58038E+08
 
   -0.57873E+08         0.11160E+06         0.00000E+00
    0.11160E+06        -0.97598E+08         0.00000E+00
    0.00000E+00         0.00000E+00        -0.57985E+08
 
   -0.57820E+08         0.11317E+06         0.00000E+00
    0.11317E+06        -0.97598E+08         0.00000E+00
    0.00000E+00         0.00000E+00        -0.57931E+08
 
   -0.57766E+08         0.11469E+06         0.00000E+00
    0.11469E+06        -0.97598E+08         0.00000E+00
    0.00000E+00         0.00000E+00        -0.57875E+08
 
   -0.57711E+08         0.11618E+06         0.00000E+00
    0.11618E+06        -0.97598E+08         0.00000E+00
    0.00000E+00         0.00000E+00        -0.57819E+08
 
   -0.57655E+08         0.11762E+06         0.00000E+00
    0.11762E+06        -0.97598E+08         0.00000E+00
    0.00000E+00         0.00000E+00        -0.57762E+08
 
   -0.57598E+08         0.11900E+06         0.00000E+00
    0.11900E+06        -0.97598E+08         0.00000E+00
    0.00000E+00         0.00000E+00        -0.57704E+08
 
   -0.57541E+08         0.12033E+06         0.00000E+00
    0.12033E+06        -0.97599E+08         0.00000E+00
    0.00000E+00         0.00000E+00        -0.57645E+08
 
   -0.57484E+08         0.12159E+06         0.00000E+00
    0.12159E+06        -0.97599E+08         0.00000E+00
    0.00000E+00         0.00000E+00        -0.57584E+08
 
   -0.57425E+08         0.12277E+06         0.00000E+00
    0.12277E+06        -0.97599E+08         0.00000E+00
    0.00000E+00         0.00000E+00        -0.57523E+08
 
   -0.57366E+08         0.12388E+06         0.00000E+00
    0.12388E+06        -0.97599E+08         0.00000E+00
    0.00000E+00         0.00000E+00        -0.57461E+08
 
   -0.57307E+08         0.12489E+06         0.00000E+00
    0.12489E+06        -0.97599E+08         0.00000E+00
    0.00000E+00         0.00000E+00        -0.57398E+08
 
   -0.57247E+08         0.12581E+06         0.00000E+00
    0.12581E+06        -0.97599E+08         0.00000E+00
    0.00000E+00         0.00000E+00        -0.57334E+08
 
   -0.57187E+08         0.12661E+06         0.00000E+00
    0.12661E+06        -0.97599E+08         0.00000E+00
    0.00000E+00         0.00000E+00        -0.57269E+08
 
   -0.57126E+08         0.12729E+06         0.00000E+00
    0.12729E+06        -0.97599E+08         0.00000E+00
    0.00000E+00         0.00000E+00        -0.57203E+08
 
   -0.57065E+08         0.12784E+06         0.00000E+00
    0.12784E+06        -0.97599E+08         0.00000E+00
    0.00000E+00         0.00000E+00        -0.57137E+08
 
   -0.57003E+08         0.12824E+06         0.00000E+00
    0.12824E+06        -0.97600E+08         0.00000E+00
    0.00000E+00         0.00000E+00        -0.57069E+08
 
   -0.56942E+08         0.12848E+06         0.00000E+00
    0.12848E+06        -0.97600E+08         0.00000E+00
    0.00000E+00         0.00000E+00        -0.57000E+08
 
   -0.56880E+08         0.12855E+06         0.00000E+00
    0.12855E+06        -0.97600E+08         0.00000E+00
    0.00000E+00         0.00000E+00        -0.56931E+08
 
   -0.56818E+08         0.12841E+06         0.00000E+00
    0.12841E+06        -0.97600E+08         0.00000E+00
    0.00000E+00         0.00000E+00        -0.56861E+08
 
   -0.56757E+08         0.12806E+06         0.00000E+00
    0.12806E+06        -0.97600E+08         0.00000E+00
    0.00000E+00         0.00000E+00        -0.56790E+08
 
   -0.56695E+08         0.12746E+06         0.00000E+00
    0.12746E+06        -0.97601E+08         0.00000E+00
    0.00000E+00         0.00000E+00        -0.56719E+08
 
   -0.56634E+08         0.12659E+06         0.00000E+00
    0.12659E+06        -0.97601E+08         0.00000E+00
    0.00000E+00         0.00000E+00        -0.56647E+08
 
   -0.56573E+08         0.12541E+06         0.00000E+00
    0.12541E+06        -0.97601E+08         0.00000E+00
    0.00000E+00         0.00000E+00        -0.56574E+08
 
   -0.56513E+08         0.12390E+06         0.00000E+00
    0.12390E+06        -0.97602E+08         0.00000E+00
    0.00000E+00         0.00000E+00        -0.56501E+08
 
   -0.56453E+08         0.12200E+06         0.00000E+00
    0.12200E+06        -0.97602E+08         0.00000E+00
    0.00000E+00         0.00000E+00        -0.56427E+08
 
   -0.56394E+08         0.11966E+06         0.00000E+00
    0.11966E+06        -0.97603E+08         0.00000E+00
    0.00000E+00         0.00000E+00        -0.56353E+08
 
   -0.56337E+08         0.11683E+06         0.00000E+00
    0.11683E+06        -0.97603E+08         0.00000E+00
    0.00000E+00         0.00000E+00        -0.56279E+08
 
   -0.56280E+08         0.11344E+06         0.00000E+00
    0.11344E+06        -0.97604E+08         0.00000E+00
    0.00000E+00         0.00000E+00        -0.56204E+08
 
   -0.56226E+08         0.10942E+06         0.00000E+00
    0.10942E+06        -0.97605E+08         0.00000E+00
    0.00000E+00         0.00000E+00        -0.56129E+08
 
   -0.56173E+08         0.10467E+06         0.00000E+00
    0.10467E+06        -0.97606E+08         0.00000E+00
    0.00000E+00         0.00000E+00        -0.56055E+08
 
   -0.56122E+08         0.99111E+05         0.00000E+00
    0.99111E+05        -0.97606E+08         0.00000E+00
    0.00000E+00         0.00000E+00        -0.55980E+08
 
   -0.56074E+08         0.92641E+05         0.00000E+00
    0.92641E+05        -0.97608E+08         0.00000E+00
    0.00000E+00         0.00000E+00        -0.55906E+08
 
   -0.56028E+08         0.85160E+05         0.00000E+00
    0.85160E+05        -0.97609E+08         0.00000E+00
    0.00000E+00         0.00000E+00        -0.55831E+08
 
   -0.55986E+08         0.76574E+05         0.00000E+00
    0.76574E+05        -0.97610E+08         0.00000E+00
    0.00000E+00         0.00000E+00        -0.55758E+08
 
   -0.55947E+08         0.66802E+05         0.00000E+00
    0.66802E+05        -0.97612E+08         0.00000E+00
    0.00000E+00         0.00000E+00        -0.55685E+08
 
   -0.55912E+08         0.55791E+05         0.00000E+00
    0.55791E+05        -0.97613E+08         0.00000E+00
    0.00000E+00         0.00000E+00        -0.55613E+08
 
   -0.55881E+08         0.43537E+05         0.00000E+00
    0.43537E+05        -0.97615E+08         0.00000E+00
    0.00000E+00         0.00000E+00        -0.55541E+08
 
   -0.55855E+08         0.30103E+05         0.00000E+00
    0.30103E+05        -0.97616E+08         0.00000E+00
    0.00000E+00         0.00000E+00        -0.55471E+08
 
   -0.55833E+08         0.15658E+05         0.00000E+00
    0.15658E+05        -0.97617E+08         0.00000E+00
    0.00000E+00         0.00000E+00        -0.55401E+08
 
   -0.55817E+08         0.50829E+03         0.00000E+00
    0.50829E+03        -0.97618E+08         0.00000E+00
    0.00000E+00         0.00000E+00        -0.55333E+08
 
   -0.55806E+08        -0.14844E+05         0.00000E+00
   -0.14844E+05        -0.97618E+08         0.00000E+00
    0.00000E+00         0.00000E+00        -0.55266E+08
 
   -0.55799E+08        -0.29631E+05         0.00000E+00
   -0.29631E+05        -0.97618E+08         0.00000E+00
    0.00000E+00         0.00000E+00        -0.55200E+08
 
   -0.55795E+08        -0.42681E+05         0.00000E+00
   -0.42681E+05        -0.97616E+08         0.00000E+00
    0.00000E+00         0.00000E+00        -0.55134E+08
 
   -0.55793E+08        -0.52143E+05         0.00000E+00
   -0.52143E+05        -0.97612E+08         0.00000E+00
    0.00000E+00         0.00000E+00        -0.55067E+08
 
   -0.55790E+08        -0.54647E+05         0.00000E+00
   -0.54647E+05        -0.97604E+08         0.00000E+00
    0.00000E+00         0.00000E+00        -0.55000E+08
 
   -0.55784E+08        -0.44467E+05         0.00000E+00
   -0.44467E+05        -0.97585E+08         0.00000E+00
    0.00000E+00         0.00000E+00        -0.54927E+08
 
   -0.55778E+08        -0.17700E+05         0.00000E+00
   -0.17700E+05        -0.97538E+08         0.00000E+00
    0.00000E+00         0.00000E+00        -0.54847E+08
 
   -0.59418E+08        -0.41046E+04         0.00000E+00
   -0.41046E+04        -0.97613E+08         0.00000E+00
    0.00000E+00         0.00000E+00        -0.59701E+08
 
   -0.59416E+08        -0.98368E+04         0.00000E+00
   -0.98368E+04        -0.97602E+08         0.00000E+00
    0.00000E+00         0.00000E+00        -0.59681E+08
 
   -0.59414E+08        -0.11093E+05         0.00000E+00
   -0.11093E+05        -0.97598E+08         0.00000E+00
    0.00000E+00         0.00000E+00        -0.59663E+08
 
   -0.59413E+08        -0.92512E+04         0.00000E+00
   -0.92512E+04        -0.97596E+08         0.00000E+00
    0.00000E+00         0.00000E+00        -0.59645E+08
 
   -0.59411E+08        -0.58641E+04         0.00000E+00
   -0.58641E+04        -0.97596E+08         0.00000E+00
    0.00000E+00         0.00000E+00        -0.59628E+08
 
   -0.59409E+08        -0.17147E+04         0.00000E+00
   -0.17147E+04        -0.97595E+08         0.00000E+00
    0.00000E+00         0.00000E+00        -0.59611E+08
 
   -0.59405E+08         0.27894E+04         0.00000E+00
    0.27894E+04        -0.97595E+08         0.00000E+00
    0.00000E+00         0.00000E+00        -0.59594E+08
 
   -0.59399E+08         0.73920E+04         0.00000E+00
    0.73920E+04        -0.97595E+08         0.00000E+00
    0.00000E+00         0.00000E+00        -0.59575E+08
 
   -0.59391E+08         0.11928E+05         0.00000E+00
    0.11928E+05        -0.97595E+08         0.00000E+00
    0.00000E+00         0.00000E+00        -0.59556E+08
 
   -0.59382E+08         0.16290E+05         0.00000E+00
    0.16290E+05        -0.97596E+08         0.00000E+00
    0.00000E+00         0.00000E+00        -0.59537E+08
 
   -0.59371E+08         0.20417E+05         0.00000E+00
    0.20417E+05        -0.97596E+08         0.00000E+00
    0.00000E+00         0.00000E+00        -0.59517E+08
 
   -0.59358E+08         0.24275E+05         0.00000E+00
    0.24275E+05        -0.97596E+08         0.00000E+00
    0.00000E+00         0.00000E+00        -0.59496E+08
 
   -0.59343E+08         0.27856E+05         0.00000E+00
    0.27856E+05        -0.97597E+08         0.00000E+00
    0.00000E+00         0.00000E+00        -0.59474E+08
 
   -0.59327E+08         0.31165E+05         0.00000E+00
    0.31165E+05        -0.97597E+08         0.00000E+00
    0.00000E+00         0.00000E+00        -0.59452E+08
 
   -0.59309E+08         0.34220E+05         0.00000E+00
    0.34220E+05        -0.97597E+08         0.00000E+00
    0.00000E+00         0.00000E+00        -0.59429E+08
 
   -0.59290E+08         0.37042E+05         0.00000E+00
    0.37042E+05        -0.97597E+08         0.00000E+00
    0.00000E+00         0.00000E+00        -0.59406E+08
 
   -0.59270E+08         0.39656E+05         0.00000E+00
    0.39656E+05        -0.97598E+08         0.00000E+00
    0.00000E+00         0.00000E+00        -0.59382E+08
 
   -0.59248E+08         0.42089E+05         0.00000E+00
    0.42089E+05        -0.97598E+08         0.00000E+00
    0.00000E+00         0.00000E+00        -0.59357E+08
 
   -0.59225E+08         0.44364E+05         0.00000E+00
    0.44364E+05        -0.97598E+08         0.00000E+00
    0.00000E+00         0.00000E+00        -0.59331E+08
 
   -0.59202E+08         0.46506E+05         0.00000E+00
    0.46506E+05        -0.97598E+08         0.00000E+00
    0.00000E+00         0.00000E+00        -0.59305E+08
 
   -0.59177E+08         0.48534E+05         0.00000E+00
    0.48534E+05        -0.97598E+08         0.00000E+00
    0.00000E+00         0.00000E+00        -0.59279E+08
 
   -0.59151E+08         0.50467E+05         0.00000E+00
    0.50467E+05        -0.97598E+08         0.00000E+00
    0.00000E+00         0.00000E+00        -0.59251E+08
 
   -0.59124E+08         0.52322E+05         0.00000E+00
    0.52322E+05        -0.97598E+08         0.00000E+00
    0.00000E+00         0.00000E+00        -0.59223E+08
 
   -0.59096E+08         0.54112E+05         0.00000E+00
    0.54112E+05        -0.97598E+08         0.00000E+00
    0.00000E+00         0.00000E+00        -0.59195E+08
 
   -0.59067E+08         0.55848E+05         0.00000E+00
    0.55848E+05        -0.97598E+08         0.00000E+00
    0.00000E+00         0.00000E+00        -0.59166E+08
 
   -0.59038E+08         0.57541E+05         0.00000E+00
    0.57541E+05        -0.97598E+08         0.00000E+00
    0.00000E+00         0.00000E+00        -0.59136E+08
 
   -0.59007E+08         0.59200E+05         0.00000E+00
    0.59200E+05        -0.97598E+08         0.00000E+00
    0.00000E+00         0.00000E+00        -0.59105E+08
 
   -0.58976E+08         0.60831E+05         0.00000E+00
    0.60831E+05        -0.97598E+08         0.00000E+00
    0.00000E+00         0.00000E+00        -0.59074E+08
 
   -0.58943E+08         0.62440E+05         0.00000E+00
    0.62440E+05        -0.97598E+08         0.00000E+00
    0.00000E+00         0.00000E+00        -0.59042E+08
 
   -0.58910E+08         0.64032E+05         0.00000E+00
    0.64032E+05        -0.97598E+08         0.00000E+00
    0.00000E+00         0.00000E+00        -0.59010E+08
 
   -0.58877E+08         0.65611E+05         0.00000E+00
    0.65611E+05        -0.97598E+08         0.00000E+00
    0.00000E+00         0.00000E+00        -0.58976E+08
 
   -0.58842E+08         0.67180E+05         0.00000E+00
    0.67180E+05        -0.97598E+08         0.00000E+00
    0.00000E+00         0.00000E+00        -0.58942E+08
 
   -0.58806E+08         0.68743E+05         0.00000E+00
    0.68743E+05        -0.97598E+08         0.00000E+00
    0.00000E+00         0.00000E+00        -0.58908E+08
 
   -0.58770E+08         0.70302E+05         0.00000E+00
    0.70302E+05        -0.97598E+08         0.00000E+00
    0.00000E+00         0.00000E+00        -0.58872E+08
 
   -0.58733E+08         0.71858E+05         0.00000E+00
    0.71858E+05        -0.97598E+08         0.00000E+00
    0.00000E+00         0.00000E+00        -0.58836E+08
 
   -0.58695E+08         0.73413E+05         0.00000E+00
    0.73413E+05        -0.97598E+08         0.00000E+00
    0.00000E+00         0.00000E+00        -0.58799E+08
 
   -0.58656E+08         0.74967E+05         0.00000E+00
    0.74967E+05        -0.97598E+08         0.00000E+00
    0.00000E+00         0.00000E+00        -0.58761E+08
 
   -0.58616E+08         0.76522E+05         0.00000E+00
    0.76522E+05        -0.97598E+08         0.00000E+00
    0.00000E+00         0.00000E+00        -0.58722E+08
 
   -0.58576E+08         0.78078E+05         0.00000E+00
    0.78078E+05        -0.97598E+08         0.00000E+00
    0.00000E+00         0.00000E+00        -0.58683E+08
 
   -0.58534E+08         0.79635E+05         0.00000E+00
    0.79635E+05        -0.97598E+08         0.00000E+00
    0.00000E+00         0.00000E+00        -0.58643E+08
 
   -0.58492E+08         0.81193E+05         0.00000E+00
    0.81193E+05        -0.97598E+08         0.00000E+00
    0.00000E+00         0.00000E+00        -0.58602E+08
 
   -0.58449E+08         0.82751E+05         0.00000E+00
    0.82751E+05        -0.97598E+08         0.00000E+00
    0.00000E+00         0.00000E+00        -0.58560E+08
 
   -0.58406E+08         0.84309E+05         0.00000E+00
    0.84309E+05        -0.97598E+08         0.00000E+00
    0.00000E+00         0.00000E+00        -0.58517E+08
 
   -0.58361E+08         0.85866E+05         0.00000E+00
    0.85866E+05        -0.97598E+08         0.00000E+00
    0.00000E+00         0.00000E+00        -0.58473E+08
 
   -0.58316E+08         0.87420E+05         0.00000E+00
    0.87420E+05        -0.97598E+08         0.00000E+00
    0.00000E+00         0.00000E+00        -0.58428E+08
 
   -0.58269E+08         0.88971E+05         0.00000E+00
    0.88971E+05        -0.97598E+08         0.00000E+00
    0.00000E+00         0.00000E+00        -0.58383E+08
 
   -0.58222E+08         0.90517E+05         0.00000E+00
    0.90517E+05        -0.97598E+08         0.00000E+00
    0.00000E+00         0.00000E+00        -0.58336E+08
 
   -0.58174E+08         0.92055E+05         0.00000E+00
    0.92055E+05        -0.97598E+08         0.00000E+00
    0.00000E+00         0.00000E+00        -0.58289E+08
 
   -0.58126E+08         0.93583E+05         0.00000E+00
    0.93583E+05        -0.97598E+08         0.00000E+00
    0.00000E+00         0.00000E+00        -0.58240E+08
 
   -0.58076E+08         0.95100E+05         0.00000E+00
    0.95100E+05        -0.97598E+08         0.00000E+00
    0.00000E+00         0.00000E+00        -0.58191E+08
 
   -0.58026E+08         0.96601E+05         0.00000E+00
    0.96601E+05        -0.97598E+08         0.00000E+00
    0.00000E+00         0.00000E+00        -0.58141E+08
 
   -0.57975E+08         0.98085E+05         0.00000E+00
    0.98085E+05        -0.97599E+08         0.00000E+00
    0.00000E+00         0.00000E+00        -0.58090E+08
 
   -0.57923E+08         0.99548E+05         0.00000E+00
    0.99548E+05        -0.97599E+08         0.00000E+00
    0.00000E+00         0.00000E+00        -0.58037E+08
 
   -0.57870E+08         0.10099E+06         0.00000E+00
    0.10099E+06        -0.97599E+08         0.00000E+00
    0.00000E+00         0.00000E+00        -0.57984E+08
 
   -0.57817E+08         0.10240E+06         0.00000E+00
    0.10240E+06        -0.97599E+08         0.00000E+00
    0.00000E+00         0.00000E+00        -0.57930E+08
 
   -0.57762E+08         0.10377E+06         0.00000E+00
    0.10377E+06        -0.97599E+08         0.00000E+00
    0.00000E+00         0.00000E+00        -0.57875E+08
 
   -0.57707E+08         0.10511E+06         0.00000E+00
    0.10511E+06        -0.97599E+08         0.00000E+00
    0.00000E+00         0.00000E+00        -0.57818E+08
 
   -0.57652E+08         0.10641E+06         0.00000E+00
    0.10641E+06        -0.97599E+08         0.00000E+00
    0.00000E+00         0.00000E+00        -0.57761E+08
 
   -0.57595E+08         0.10766E+06         0.00000E+00
    0.10766E+06        -0.97599E+08         0.00000E+00
    0.00000E+00         0.00000E+00        -0.57703E+08
 
   -0.57538E+08         0.10885E+06         0.00000E+00
    0.10885E+06        -0.97599E+08         0.00000E+00
    0.00000E+00         0.00000E+00        -0.57644E+08
 
   -0.57481E+08         0.10998E+06         0.00000E+00
    0.10998E+06        -0.97599E+08         0.00000E+00
    0.00000E+00         0.00000E+00        -0.57584E+08
 
   -0.57422E+08         0.11105E+06         0.00000E+00
    0.11105E+06        -0.97599E+08         0.00000E+00
    0.00000E+00         0.00000E+00        -0.57522E+08
 
   -0.57363E+08         0.11204E+06         0.00000E+00
    0.11204E+06        -0.97599E+08         0.00000E+00
    0.00000E+00         0.00000E+00        -0.57460E+08
 
   -0.57304E+08         0.11295E+06         0.00000E+00
    0.11295E+06        -0.97599E+08         0.00000E+00
    0.00000E+00         0.00000E+00        -0.57397E+08
 
   -0.57244E+08         0.11378E+06         0.00000E+00
    0.11378E+06        -0.97599E+08         0.00000E+00
    0.00000E+00         0.00000E+00        -0.57333E+08
 
   -0.57184E+08         0.11450E+06         0.00000E+00
    0.11450E+06        -0.97599E+08         0.00000E+00
    0.00000E+00         0.00000E+00        -0.57268E+08
 
   -0.57123E+08         0.11511E+06         0.00000E+00
    0.11511E+06        -0.97599E+08         0.00000E+00
    0.00000E+00         0.00000E+00        -0.57202E+08
 
   -0.57062E+08         0.11560E+06         0.00000E+00
    0.11560E+06        -0.97600E+08         0.00000E+00
    0.00000E+00         0.00000E+00        -0.57136E+08
 
   -0.57001E+08         0.11595E+06         0.00000E+00
    0.11595E+06        -0.97600E+08         0.00000E+00
    0.00000E+00         0.00000E+00        -0.57068E+08
 
   -0.56939E+08         0.11616E+06         0.00000E+00
    0.11616E+06        -0.97600E+08         0.00000E+00
    0.00000E+00         0.00000E+00        -0.57000E+08
 
   -0.56878E+08         0.11621E+06         0.00000E+00
    0.11621E+06        -0.97600E+08         0.00000E+00
    0.00000E+00         0.00000E+00        -0.56930E+08
 
   -0.56816E+08         0.11607E+06         0.00000E+00
    0.11607E+06        -0.97600E+08         0.00000E+00
    0.00000E+00         0.00000E+00        -0.56860E+08
 
   -0.56754E+08         0.11574E+06         0.00000E+00
    0.11574E+06        -0.97600E+08         0.00000E+00
    0.00000E+00         0.00000E+00        -0.56790E+08
 
   -0.56693E+08         0.11519E+06         0.00000E+00
    0.11519E+06        -0.97601E+08         0.00000E+00
    0.00000E+00         0.00000E+00        -0.56718E+08
 
   -0.56632E+08         0.11439E+06         0.00000E+00
    0.11439E+06        -0.97601E+08         0.00000E+00
    0.00000E+00         0.00000E+00        -0.56646E+08
 
   -0.56571E+08         0.11332E+06         0.00000E+00
    0.11332E+06        -0.97601E+08         0.00000E+00
    0.00000E+00         0.00000E+00        -0.56574E+08
 
   -0.56511E+08         0.11193E+06         0.00000E+00
    0.11193E+06        -0.97601E+08         0.00000E+00
    0.00000E+00         0.00000E+00        -0.56500E+08
 
   -0.56452E+08         0.11019E+06         0.00000E+00
    0.11019E+06        -0.97602E+08         0.00000E+00
    0.00000E+00         0.00000E+00        -0.56427E+08
 
   -0.56394E+08         0.10806E+06         0.00000E+00
    0.10806E+06        -0.97602E+08         0.00000E+00
    0.00000E+00         0.00000E+00        -0.56353E+08
 
   -0.56336E+08         0.10547E+06         0.00000E+00
    0.10547E+06        -0.97603E+08         0.00000E+00
    0.00000E+00         0.00000E+00        -0.56278E+08
 
   -0.56280E+08         0.10237E+06         0.00000E+00
    0.10237E+06        -0.97603E+08         0.00000E+00
    0.00000E+00         0.00000E+00        -0.56204E+08
 
   -0.56226E+08         0.98682E+05         0.00000E+00
    0.98682E+05        -0.97604E+08         0.00000E+00
    0.00000E+00         0.00000E+00        -0.56129E+08
 
   -0.56173E+08         0.94334E+05         0.00000E+00
    0.94334E+05        -0.97605E+08         0.00000E+00
    0.00000E+00         0.00000E+00        -0.56055E+08
 
   -0.56123E+08         0.89235E+05         0.00000E+00
    0.89235E+05        -0.97605E+08         0.00000E+00
    0.00000E+00         0.00000E+00        -0.55980E+08
 
   -0.56075E+08         0.83294E+05         0.00000E+00
    0.83294E+05        -0.97606E+08         0.00000E+00
    0.00000E+00         0.00000E+00        -0.55906E+08
 
   -0.56030E+08         0.76416E+05         0.00000E+00
    0.76416E+05        -0.97607E+08         0.00000E+00
    0.00000E+00         0.00000E+00        -0.55832E+08
 
   -0.55989E+08         0.68510E+05         0.00000E+00
    0.68510E+05        -0.97608E+08         0.00000E+00
    0.00000E+00         0.00000E+00        -0.55758E+08
 
   -0.55951E+08         0.59499E+05         0.00000E+00
    0.59499E+05        -0.97610E+08         0.00000E+00
    0.00000E+00         0.00000E+00        -0.55685E+08
 
   -0.55917E+08         0.49329E+05         0.00000E+00
    0.49329E+05        -0.97611E+08         0.00000E+00
    0.00000E+00         0.00000E+00        -0.55614E+08
 
   -0.55888E+08         0.37990E+05         0.00000E+00
    0.37990E+05        -0.97612E+08         0.00000E+00
    0.00000E+00         0.00000E+00        -0.55542E+08
 
   -0.55863E+08         0.25536E+05         0.00000E+00
    0.25536E+05        -0.97613E+08         0.00000E+00
    0.00000E+00         0.00000E+00        -0.55473E+08
 
   -0.55844E+08         0.12113E+05         0.00000E+00
    0.12113E+05        -0.97614E+08         0.00000E+00
    0.00000E+00         0.00000E+00        -0.55404E+08
 
   -0.55830E+08        -0.20058E+04         0.00000E+00
   -0.20058E+04        -0.97615E+08         0.00000E+00
    0.00000E+00         0.00000E+00        -0.55336E+08
 
   -0.55821E+08        -0.16377E+05         0.00000E+00
   -0.16377E+05        -0.97615E+08         0.00000E+00
    0.00000E+00         0.00000E+00        -0.55270E+08
 
   -0.55817E+08        -0.30319E+05         0.00000E+00
   -0.30319E+05        -0.97615E+08         0.00000E+00
    0.00000E+00         0.00000E+00        -0.55204E+08
 
   -0.55817E+08        -0.42788E+05         0.00000E+00
   -0.42788E+05        -0.97614E+08         0.00000E+00
    0.00000E+00         0.00000E+00        -0.55140E+08
 
   -0.55819E+08        -0.52139E+05         0.00000E+00
   -0.52139E+05        -0.97611E+08         0.00000E+00
    0.00000E+00         0.00000E+00        -0.55075E+08
 
   -0.55820E+08        -0.55236E+05         0.00000E+00
   -0.55236E+05        -0.97604E+08         0.00000E+00
    0.00000E+00         0.00000E+00        -0.55009E+08
 
   -0.55817E+08        -0.45881E+05         0.00000E+00
   -0.45881E+05        -0.97588E+08         0.00000E+00
    0.00000E+00         0.00000E+00        -0.54938E+08
 
   -0.55812E+08        -0.18600E+05         0.00000E+00
   -0.18600E+05        -0.97545E+08         0.00000E+00
    0.00000E+00         0.00000E+00        -0.54859E+08
 
   -0.59408E+08        -0.43737E+04         0.00000E+00
   -0.43737E+04        -0.97611E+08         0.00000E+00
    0.00000E+00         0.00000E+00        -0.59697E+08
 
   -0.59406E+08        -0.10247E+05         0.00000E+00
   -0.10247E+05        -0.97601E+08         0.00000E+00
    0.00000E+00         0.00000E+00        -0.59678E+08
 
   -0.59405E+08        -0.11304E+05         0.00000E+00
   -0.11304E+05        -0.97598E+08         0.00000E+00
    0.00000E+00         0.00000E+00        -0.59660E+08
 
   -0.59405E+08        -0.93993E+04         0.00000E+00
   -0.93993E+04        -0.97597E+08         0.00000E+00
    0.00000E+00         0.00000E+00        -0.59643E+08
 
   -0.59405E+08        -0.61609E+04         0.00000E+00
   -0.61609E+04        -0.97596E+08         0.00000E+00
    0.00000E+00         0.00000E+00        -0.59627E+08
 
   -0.59403E+08        -0.22802E+04         0.00000E+00
   -0.22802E+04        -0.97596E+08         0.00000E+00
    0.00000E+00         0.00000E+00        -0.59610E+08
 
   -0.59400E+08         0.18893E+04         0.00000E+00
    0.18893E+04        -0.97596E+08         0.00000E+00
    0.00000E+00         0.00000E+00        -0.59592E+08
 
   -0.59395E+08         0.61241E+04         0.00000E+00
    0.61241E+04        -0.97596E+08         0.00000E+00
    0.00000E+00         0.00000E+00        -0.59574E+08
 
   -0.59388E+08         0.10281E+05         0.00000E+00
    0.10281E+05        -0.97596E+08         0.00000E+00
    0.00000E+00         0.00000E+00        -0.59556E+08
 
   -0.59379E+08         0.14268E+05         0.00000E+00
    0.14268E+05        -0.97597E+08         0.00000E+00
    0.00000E+00         0.00000E+00        -0.59536E+08
 
   -0.59368E+08         0.18031E+05         0.00000E+00
    0.18031E+05        -0.97597E+08         0.00000E+00
    0.00000E+00         0.00000E+00        -0.59516E+08
 
   -0.59355E+08         0.21541E+05         0.00000E+00
    0.21541E+05        -0.97597E+08         0.00000E+00
    0.00000E+00         0.00000E+00        -0.59495E+08
 
   -0.59341E+08         0.24792E+05         0.00000E+00
    0.24792E+05        -0.97597E+08         0.00000E+00
    0.00000E+00         0.00000E+00        -0.59474E+08
 
   -0.59325E+08         0.27792E+05         0.00000E+00
    0.27792E+05        -0.97597E+08         0.00000E+00
    0.00000E+00         0.00000E+00        -0.59452E+08
 
   -0.59307E+08         0.30555E+05         0.00000E+00
    0.30555E+05        -0.97598E+08         0.00000E+00
    0.00000E+00         0.00000E+00        -0.59429E+08
 
   -0.59288E+08         0.33104E+05         0.00000E+00
    0.33104E+05        -0.97598E+08         0.00000E+00
    0.00000E+00         0.00000E+00        -0.59405E+08
 
   -0.59268E+08         0.35462E+05         0.00000E+00
    0.35462E+05        -0.97598E+08         0.00000E+00
    0.00000E+00         0.00000E+00        -0.59381E+08
 
   -0.59246E+08         0.37653E+05         0.00000E+00
    0.37653E+05        -0.97598E+08         0.00000E+00
    0.00000E+00         0.00000E+00        -0.59356E+08
 
   -0.59223E+08         0.39700E+05         0.00000E+00
    0.39700E+05        -0.97598E+08         0.00000E+00
    0.00000E+00         0.00000E+00        -0.59331E+08
 
   -0.59200E+08         0.41625E+05         0.00000E+00
    0.41625E+05        -0.97598E+08         0.00000E+00
    0.00000E+00         0.00000E+00        -0.59305E+08
 
   -0.59175E+08         0.43446E+05         0.00000E+00
    0.43446E+05        -0.97598E+08         0.00000E+00
    0.00000E+00         0.00000E+00        -0.59278E+08
 
   -0.59149E+08         0.45181E+05         0.00000E+00
    0.45181E+05        -0.97599E+08         0.00000E+00
    0.00000E+00         0.00000E+00        -0.59251E+08
 
   -0.59122E+08         0.46844E+05         0.00000E+00
    0.46844E+05        -0.97599E+08         0.00000E+00
    0.00000E+00         0.00000E+00        -0.59223E+08
 
   -0.59094E+08         0.48448E+05         0.00000E+00
    0.48448E+05        -0.97599E+08         0.00000E+00
    0.00000E+00         0.00000E+00        -0.59194E+08
 
   -0.59065E+08         0.50004E+05         0.00000E+00
    0.50004E+05        -0.97599E+08         0.00000E+00
    0.00000E+00         0.00000E+00        -0.59165E+08
 
   -0.59035E+08         0.51520E+05         0.00000E+00
    0.51520E+05        -0.97599E+08         0.00000E+00
    0.00000E+00         0.00000E+00        -0.59135E+08
 
   -0.59005E+08         0.53006E+05         0.00000E+00
    0.53006E+05        -0.97599E+08         0.00000E+00
    0.00000E+00         0.00000E+00        -0.59105E+08
 
   -0.58973E+08         0.54466E+05         0.00000E+00
    0.54466E+05        -0.97599E+08         0.00000E+00
    0.00000E+00         0.00000E+00        -0.59073E+08
 
   -0.58941E+08         0.55906E+05         0.00000E+00
    0.55906E+05        -0.97599E+08         0.00000E+00
    0.00000E+00         0.00000E+00        -0.59042E+08
 
   -0.58908E+08         0.57331E+05         0.00000E+00
    0.57331E+05        -0.97599E+08         0.00000E+00
    0.00000E+00         0.00000E+00        -0.59009E+08
 
   -0.58874E+08         0.58744E+05         0.00000E+00
    0.58744E+05        -0.97599E+08         0.00000E+00
    0.00000E+00         0.00000E+00        -0.58976E+08
 
   -0.58839E+08         0.60149E+05         0.00000E+00
    0.60149E+05        -0.97599E+08         0.00000E+00
    0.00000E+00         0.00000E+00        -0.58942E+08
 
   -0.58804E+08         0.61548E+05         0.00000E+00
    0.61548E+05        -0.97599E+08         0.00000E+00
    0.00000E+00         0.00000E+00        -0.58907E+08
 
   -0.58767E+08         0.62943E+05         0.00000E+00
    0.62943E+05        -0.97599E+08         0.00000E+00
    0.00000E+00         0.00000E+00        -0.58872E+08
 
   -0.58730E+08         0.64335E+05         0.00000E+00
    0.64335E+05        -0.97599E+08         0.00000E+00
    0.00000E+00         0.00000E+00        -0.58835E+08
 
   -0.58692E+08         0.65725E+05         0.00000E+00
    0.65725E+05        -0.97599E+08         0.00000E+00
    0.00000E+00         0.00000E+00        -0.58798E+08
 
   -0.58653E+08         0.67116E+05         0.00000E+00
    0.67116E+05        -0.97599E+08         0.00000E+00
    0.00000E+00         0.00000E+00        -0.58760E+08
 
   -0.58614E+08         0.68507E+05         0.00000E+00
    0.68507E+05        -0.97599E+08         0.00000E+00
    0.00000E+00         0.00000E+00        -0.58722E+08
 
   -0.58573E+08         0.69898E+05         0.00000E+00
    0.69898E+05        -0.97599E+08         0.00000E+00
    0.00000E+00         0.00000E+00        -0.58682E+08
 
   -0.58532E+08         0.71291E+05         0.00000E+00
    0.71291E+05        -0.97599E+08         0.00000E+00
    0.00000E+00         0.00000E+00        -0.58642E+08
 
   -0.58490E+08         0.72684E+05         0.00000E+00
    0.72684E+05        -0.97599E+08         0.00000E+00
    0.00000E+00         0.00000E+00        -0.58601E+08
 
   -0.58447E+08         0.74077E+05         0.00000E+00
    0.74077E+05        -0.97599E+08         0.00000E+00
    0.00000E+00         0.00000E+00        -0.58559E+08
 
   -0.58403E+08         0.75470E+05         0.00000E+00
    0.75470E+05        -0.97599E+08         0.00000E+00
    0.00000E+00         0.00000E+00        -0.58516E+08
 
   -0.58358E+08         0.76861E+05         0.00000E+00
    0.76861E+05        -0.97599E+08         0.00000E+00
    0.00000E+00         0.00000E+00        -0.58472E+08
 
   -0.58313E+08         0.78251E+05         0.00000E+00
    0.78251E+05        -0.97599E+08         0.00000E+00
    0.00000E+00         0.00000E+00        -0.58428E+08
 
   -0.58266E+08         0.79636E+05         0.00000E+00
    0.79636E+05        -0.97599E+08         0.00000E+00
    0.00000E+00         0.00000E+00        -0.58382E+08
 
   -0.58219E+08         0.81017E+05         0.00000E+00
    0.81017E+05        -0.97599E+08         0.00000E+00
    0.00000E+00         0.00000E+00        -0.58335E+08
 
   -0.58171E+08         0.82391E+05         0.00000E+00
    0.82391E+05        -0.97599E+08         0.00000E+00
    0.00000E+00         0.00000E+00        -0.58288E+08
 
   -0.58123E+08         0.83757E+05         0.00000E+00
    0.83757E+05        -0.97599E+08         0.00000E+00
    0.00000E+00         0.00000E+00        -0.58240E+08
 
   -0.58073E+08         0.85111E+05         0.00000E+00
    0.85111E+05        -0.97599E+08         0.00000E+00
    0.00000E+00         0.00000E+00        -0.58190E+08
 
   -0.58023E+08         0.86452E+05         0.00000E+00
    0.86452E+05        -0.97599E+08         0.00000E+00
    0.00000E+00         0.00000E+00        -0.58140E+08
 
   -0.57972E+08         0.87777E+05         0.00000E+00
    0.87777E+05        -0.97599E+08         0.00000E+00
    0.00000E+00         0.00000E+00        -0.58089E+08
 
   -0.57920E+08         0.89083E+05         0.00000E+00
    0.89083E+05        -0.97599E+08         0.00000E+00
    0.00000E+00         0.00000E+00        -0.58036E+08
 
   -0.57867E+08         0.90366E+05         0.00000E+00
    0.90366E+05        -0.97599E+08         0.00000E+00
    0.00000E+00         0.00000E+00        -0.57983E+08
 
   -0.57813E+08         0.91624E+05         0.00000E+00
    0.91624E+05        -0.97599E+08         0.00000E+00
    0.00000E+00         0.00000E+00        -0.57929E+08
 
   -0.57759E+08         0.92852E+05         0.00000E+00
    0.92852E+05        -0.97599E+08         0.00000E+00
    0.00000E+00         0.00000E+00        -0.57874E+08
 
   -0.57704E+08         0.94046E+05         0.00000E+00
    0.94046E+05        -0.97599E+08         0.00000E+00
    0.00000E+00         0.00000E+00        -0.57817E+08
 
   -0.57649E+08         0.95201E+05         0.00000E+00
    0.95201E+05        -0.97599E+08         0.00000E+00
    0.00000E+00         0.00000E+00        -0.57760E+08
 
   -0.57592E+08         0.96314E+05         0.00000E+00
    0.96314E+05        -0.97599E+08         0.00000E+00
    0.00000E+00         0.00000E+00        -0.57702E+08
 
   -0.57535E+08         0.97378E+05         0.00000E+00
    0.97378E+05        -0.97599E+08         0.00000E+00
    0.00000E+00         0.00000E+00        -0.57643E+08
 
   -0.57478E+08         0.98388E+05         0.00000E+00
    0.98388E+05        -0.97599E+08         0.00000E+00
    0.00000E+00         0.00000E+00        -0.57583E+08
 
   -0.57419E+08         0.99337E+05         0.00000E+00
    0.99337E+05        -0.97599E+08         0.00000E+00
    0.00000E+00         0.00000E+00        -0.57522E+08
 
   -0.57360E+08         0.10022E+06         0.00000E+00
    0.10022E+06        -0.97599E+08         0.00000E+00
    0.00000E+00         0.00000E+00        -0.57460E+08
 
   -0.57301E+08         0.10103E+06         0.00000E+00
    0.10103E+06        -0.97599E+08         0.00000E+00
    0.00000E+00         0.00000E+00        -0.57396E+08
 
   -0.57241E+08         0.10176E+06         0.00000E+00
    0.10176E+06        -0.97599E+08         0.00000E+00
    0.00000E+00         0.00000E+00        -0.57332E+08
 
   -0.57181E+08         0.10240E+06         0.00000E+00
    0.10240E+06        -0.97599E+08         0.00000E+00
    0.00000E+00         0.00000E+00        -0.57268E+08
 
   -0.57120E+08         0.10294E+06         0.00000E+00
    0.10294E+06        -0.97599E+08         0.00000E+00
    0.00000E+00         0.00000E+00        -0.57202E+08
 
   -0.57059E+08         0.10337E+06         0.00000E+00
    0.10337E+06        -0.97600E+08         0.00000E+00
    0.00000E+00         0.00000E+00        -0.57135E+08
 
   -0.56998E+08         0.10368E+06         0.00000E+00
    0.10368E+06        -0.97600E+08         0.00000E+00
    0.00000E+00         0.00000E+00        -0.57067E+08
 
   -0.56937E+08         0.10386E+06         0.00000E+00
    0.10386E+06        -0.97600E+08         0.00000E+00
    0.00000E+00         0.00000E+00        -0.56999E+08
 
   -0.56875E+08         0.10389E+06         0.00000E+00
    0.10389E+06        -0.97600E+08         0.00000E+00
    0.00000E+00         0.00000E+00        -0.56930E+08
 
   -0.56814E+08         0.10376E+06         0.00000E+00
    0.10376E+06        -0.97600E+08         0.00000E+00
    0.00000E+00         0.00000E+00        -0.56860E+08
 
   -0.56752E+08         0.10346E+06         0.00000E+00
    0.10346E+06        -0.97600E+08         0.00000E+00
    0.00000E+00         0.00000E+00        -0.56789E+08
 
   -0.56691E+08         0.10296E+06         0.00000E+00
    0.10296E+06        -0.97600E+08         0.00000E+00
    0.00000E+00         0.00000E+00        -0.56718E+08
 
   -0.56630E+08         0.10223E+06         0.00000E+00
    0.10223E+06        -0.97601E+08         0.00000E+00
    0.00000E+00         0.00000E+00        -0.56646E+08
 
   -0.56570E+08         0.10126E+06         0.00000E+00
    0.10126E+06        -0.97601E+08         0.00000E+00
    0.00000E+00         0.00000E+00        -0.56573E+08
 
   -0.56510E+08         0.10000E+06         0.00000E+00
    0.10000E+06        -0.97601E+08         0.00000E+00
    0.00000E+00         0.00000E+00        -0.56500E+08
 
   -0.56451E+08         0.98432E+05         0.00000E+00
    0.98432E+05        -0.97601E+08         0.00000E+00
    0.00000E+00         0.00000E+00        -0.56426E+08
 
   -0.56393E+08         0.96503E+05         0.00000E+00
    0.96503E+05        -0.97602E+08         0.00000E+00
    0.00000E+00         0.00000E+00        -0.56352E+08
 
   -0.56336E+08         0.94165E+05         0.00000E+00
    0.94165E+05        -0.97602E+08         0.00000E+00
    0.00000E+00         0.00000E+00        -0.56278E+08
 
   -0.56280E+08         0.91361E+05         0.00000E+00
    0.91361E+05        -0.97603E+08         0.00000E+00
    0.00000E+00         0.00000E+00        -0.56204E+08
 
   -0.56226E+08         0.88027E+05         0.00000E+00
    0.88027E+05        -0.97603E+08         0.00000E+00
    0.00000E+00         0.00000E+00        -0.56129E+08
 
   -0.56174E+08         0.84090E+05         0.00000E+00
    0.84090E+05        -0.97604E+08         0.00000E+00
    0.00000E+00         0.00000E+00        -0.56054E+08
 
   -0.56124E+08         0.79468E+05         0.00000E+00
    0.79468E+05        -0.97604E+08         0.00000E+00
    0.00000E+00         0.00000E+00        -0.55980E+08
 
   -0.56077E+08         0.74076E+05         0.00000E+00
    0.74076E+05        -0.97605E+08         0.00000E+00
    0.00000E+00         0.00000E+00        -0.55906E+08
 
   -0.56033E+08         0.67825E+05         0.00000E+00
    0.67825E+05        -0.97606E+08         0.00000E+00
    0.00000E+00         0.00000E+00        -0.55832E+08
 
   -0.55992E+08         0.60629E+05         0.00000E+00
    0.60629E+05        -0.97607E+08         0.00000E+00
    0.00000E+00         0.00000E+00        -0.55759E+08
 
   -0.55955E+08         0.52414E+05         0.00000E+00
    0.52414E+05        -0.97608E+08         0.00000E+00
    0.00000E+00         0.00000E+00        -0.55686E+08
 
   -0.55922E+08         0.43127E+05         0.00000E+00
    0.43127E+05        -0.97609E+08         0.00000E+00
    0.00000E+00         0.00000E+00        -0.55614E+08
 
   -0.55894E+08         0.32754E+05         0.00000E+00
    0.32754E+05        -0.97610E+08         0.00000E+00
    0.00000E+00         0.00000E+00        -0.55544E+08
 
   -0.55872E+08         0.21338E+05         0.00000E+00
    0.21338E+05        -0.97611E+08         0.00000E+00
    0.00000E+00         0.00000E+00        -0.55474E+08
 
   -0.55854E+08         0.90028E+04         0.00000E+00
    0.90028E+04        -0.97612E+08         0.00000E+00
    0.00000E+00         0.00000E+00        -0.55406E+08
 
   -0.55843E+08        -0.40131E+04         0.00000E+00
   -0.40131E+04        -0.97612E+08         0.00000E+00
    0.00000E+00         0.00000E+00        -0.55339E+08
 
   -0.55837E+08        -0.17322E+05         0.00000E+00
   -0.17322E+05        -0.97613E+08         0.00000E+00
    0.00000E+00         0.00000E+00        -0.55274E+08
 
   -0.55836E+08        -0.30333E+05         0.00000E+00
   -0.30333E+05        -0.97612E+08         0.00000E+00
    0.00000E+00         0.00000E+00        -0.55209E+08
 
   -0.55840E+08        -0.42135E+05         0.00000E+00
   -0.42135E+05        -0.97611E+08         0.00000E+00
    0.00000E+00         0.00000E+00        -0.55146E+08
 
   -0.55846E+08        -0.51299E+05         0.00000E+00
   -0.51299E+05        -0.97609E+08         0.00000E+00
    0.00000E+00         0.00000E+00        -0.55082E+08
 
   -0.55851E+08        -0.55053E+05         0.00000E+00
   -0.55053E+05        -0.97605E+08         0.00000E+00
    0.00000E+00         0.00000E+00        -0.55018E+08
 
   -0.55851E+08        -0.46901E+05         0.00000E+00
   -0.46901E+05        -0.97592E+08         0.00000E+00
    0.00000E+00         0.00000E+00        -0.54950E+08
 
   -0.55847E+08        -0.19468E+05         0.00000E+00
   -0.19468E+05        -0.97552E+08         0.00000E+00
    0.00000E+00         0.00000E+00        -0.54872E+08
 
   -0.59398E+08        -0.46337E+04         0.00000E+00
   -0.46337E+04        -0.97609E+08         0.00000E+00
    0.00000E+00         0.00000E+00        -0.59694E+08
 
   -0.59397E+08        -0.10531E+05         0.00000E+00
   -0.10531E+05        -0.97600E+08         0.00000E+00
    0.00000E+00         0.00000E+00        -0.59674E+08
 
   -0.59397E+08        -0.11291E+05         0.00000E+00
   -0.11291E+05        -0.97598E+08         0.00000E+00
    0.00000E+00         0.00000E+00        -0.59658E+08
 
   -0.59398E+08        -0.93271E+04         0.00000E+00
   -0.93271E+04        -0.97597E+08         0.00000E+00
    0.00000E+00         0.00000E+00        -0.59641E+08
 
   -0.59398E+08        -0.62678E+04         0.00000E+00
   -0.62678E+04        -0.97597E+08         0.00000E+00
    0.00000E+00         0.00000E+00        -0.59625E+08
 
   -0.59397E+08        -0.26833E+04         0.00000E+00
   -0.26833E+04        -0.97597E+08         0.00000E+00
    0.00000E+00         0.00000E+00        -0.59608E+08
 
   -0.59395E+08         0.11256E+04         0.00000E+00
    0.11256E+04        -0.97597E+08         0.00000E+00
    0.00000E+00         0.00000E+00        -0.59591E+08
 
   -0.59390E+08         0.49697E+04         0.00000E+00
    0.49697E+04        -0.97597E+08         0.00000E+00
    0.00000E+00         0.00000E+00        -0.59573E+08
 
   -0.59384E+08         0.87280E+04         0.00000E+00
    0.87280E+04        -0.97597E+08         0.00000E+00
    0.00000E+00         0.00000E+00        -0.59555E+08
 
   -0.59375E+08         0.12322E+05         0.00000E+00
    0.12322E+05        -0.97597E+08         0.00000E+00
    0.00000E+00         0.00000E+00        -0.59535E+08
 
   -0.59365E+08         0.15704E+05         0.00000E+00
    0.15704E+05        -0.97597E+08         0.00000E+00
    0.00000E+00         0.00000E+00        -0.59515E+08
 
   -0.59352E+08         0.18854E+05         0.00000E+00
    0.18854E+05        -0.97598E+08         0.00000E+00
    0.00000E+00         0.00000E+00        -0.59495E+08
 
   -0.59338E+08         0.21765E+05         0.00000E+00
    0.21765E+05        -0.97598E+08         0.00000E+00
    0.00000E+00         0.00000E+00        -0.59473E+08
 
   -0.59322E+08         0.24445E+05         0.00000E+00
    0.24445E+05        -0.97598E+08         0.00000E+00
    0.00000E+00         0.00000E+00        -0.59451E+08
 
   -0.59305E+08         0.26910E+05         0.00000E+00
    0.26910E+05        -0.97598E+08         0.00000E+00
    0.00000E+00         0.00000E+00        -0.59428E+08
 
   -0.59286E+08         0.29180E+05         0.00000E+00
    0.29180E+05        -0.97598E+08         0.00000E+00
    0.00000E+00         0.00000E+00        -0.59405E+08
 
   -0.59266E+08         0.31277E+05         0.00000E+00
    0.31277E+05        -0.97598E+08         0.00000E+00
    0.00000E+00         0.00000E+00        -0.59381E+08
 
   -0.59244E+08         0.33223E+05         0.00000E+00
    0.33223E+05        -0.97599E+08         0.00000E+00
    0.00000E+00         0.00000E+00        -0.59356E+08
 
   -0.59222E+08         0.35038E+05         0.00000E+00
    0.35038E+05        -0.97599E+08         0.00000E+00
    0.00000E+00         0.00000E+00        -0.59330E+08
 
   -0.59198E+08         0.36744E+05         0.00000E+00
    0.36744E+05        -0.97599E+08         0.00000E+00
    0.00000E+00         0.00000E+00        -0.59304E+08
 
   -0.59173E+08         0.38356E+05         0.00000E+00
    0.38356E+05        -0.97599E+08         0.00000E+00
    0.00000E+00         0.00000E+00        -0.59278E+08
 
   -0.59147E+08         0.39890E+05         0.00000E+00
    0.39890E+05        -0.97599E+08         0.00000E+00
    0.00000E+00         0.00000E+00        -0.59250E+08
 
   -0.59120E+08         0.41361E+05         0.00000E+00
    0.41361E+05        -0.97599E+08         0.00000E+00
    0.00000E+00         0.00000E+00        -0.59222E+08
 
   -0.59092E+08         0.42778E+05         0.00000E+00
    0.42778E+05        -0.97599E+08         0.00000E+00
    0.00000E+00         0.00000E+00        -0.59194E+08
 
   -0.59063E+08         0.44153E+05         0.00000E+00
    0.44153E+05        -0.97599E+08         0.00000E+00
    0.00000E+00         0.00000E+00        -0.59165E+08
 
   -0.59033E+08         0.45492E+05         0.00000E+00
    0.45492E+05        -0.97599E+08         0.00000E+00
    0.00000E+00         0.00000E+00        -0.59135E+08
 
   -0.59003E+08         0.46804E+05         0.00000E+00
    0.46804E+05        -0.97599E+08         0.00000E+00
    0.00000E+00         0.00000E+00        -0.59104E+08
 
   -0.58971E+08         0.48093E+05         0.00000E+00
    0.48093E+05        -0.97599E+08         0.00000E+00
    0.00000E+00         0.00000E+00        -0.59073E+08
 
   -0.58939E+08         0.49364E+05         0.00000E+00
    0.49364E+05        -0.97599E+08         0.00000E+00
    0.00000E+00         0.00000E+00        -0.59041E+08
 
   -0.58906E+08         0.50622E+05         0.00000E+00
    0.50622E+05        -0.97599E+08         0.00000E+00
    0.00000E+00         0.00000E+00        -0.59008E+08
 
   -0.58872E+08         0.51870E+05         0.00000E+00
    0.51870E+05        -0.97599E+08         0.00000E+00
    0.00000E+00         0.00000E+00        -0.58975E+08
 
   -0.58837E+08         0.53109E+05         0.00000E+00
    0.53109E+05        -0.97599E+08         0.00000E+00
    0.00000E+00         0.00000E+00        -0.58941E+08
 
   -0.58801E+08         0.54344E+05         0.00000E+00
    0.54344E+05        -0.97599E+08         0.00000E+00
    0.00000E+00         0.00000E+00        -0.58906E+08
 
   -0.58765E+08         0.55574E+05         0.00000E+00
    0.55574E+05        -0.97599E+08         0.00000E+00
    0.00000E+00         0.00000E+00        -0.58871E+08
 
   -0.58728E+08         0.56802E+05         0.00000E+00
    0.56802E+05        -0.97599E+08         0.00000E+00
    0.00000E+00         0.00000E+00        -0.58835E+08
 
   -0.58690E+08         0.58029E+05         0.00000E+00
    0.58029E+05        -0.97599E+08         0.00000E+00
    0.00000E+00         0.00000E+00        -0.58798E+08
 
   -0.58651E+08         0.59256E+05         0.00000E+00
    0.59256E+05        -0.97599E+08         0.00000E+00
    0.00000E+00         0.00000E+00        -0.58760E+08
 
   -0.58611E+08         0.60483E+05         0.00000E+00
    0.60483E+05        -0.97599E+08         0.00000E+00
    0.00000E+00         0.00000E+00        -0.58721E+08
 
   -0.58570E+08         0.61710E+05         0.00000E+00
    0.61710E+05        -0.97599E+08         0.00000E+00
    0.00000E+00         0.00000E+00        -0.58682E+08
 
   -0.58529E+08         0.62938E+05         0.00000E+00
    0.62938E+05        -0.97599E+08         0.00000E+00
    0.00000E+00         0.00000E+00        -0.58641E+08
 
   -0.58487E+08         0.64166E+05         0.00000E+00
    0.64166E+05        -0.97599E+08         0.00000E+00
    0.00000E+00         0.00000E+00        -0.58600E+08
 
   -0.58444E+08         0.65395E+05         0.00000E+00
    0.65395E+05        -0.97599E+08         0.00000E+00
    0.00000E+00         0.00000E+00        -0.58558E+08
 
   -0.58400E+08         0.66622E+05         0.00000E+00
    0.66622E+05        -0.97599E+08         0.00000E+00
    0.00000E+00         0.00000E+00        -0.58515E+08
 
   -0.58355E+08         0.67849E+05         0.00000E+00
    0.67849E+05        -0.97599E+08         0.00000E+00
    0.00000E+00         0.00000E+00        -0.58471E+08
 
   -0.58310E+08         0.69074E+05         0.00000E+00
    0.69074E+05        -0.97599E+08         0.00000E+00
    0.00000E+00         0.00000E+00        -0.58427E+08
 
   -0.58264E+08         0.70295E+05         0.00000E+00
    0.70295E+05        -0.97599E+08         0.00000E+00
    0.00000E+00         0.00000E+00        -0.58381E+08
 
   -0.58216E+08         0.71512E+05         0.00000E+00
    0.71512E+05        -0.97599E+08         0.00000E+00
    0.00000E+00         0.00000E+00        -0.58335E+08
 
   -0.58168E+08         0.72723E+05         0.00000E+00
    0.72723E+05        -0.97599E+08         0.00000E+00
    0.00000E+00         0.00000E+00        -0.58287E+08
 
   -0.58120E+08         0.73925E+05         0.00000E+00
    0.73925E+05        -0.97599E+08         0.00000E+00
    0.00000E+00         0.00000E+00        -0.58239E+08
 
   -0.58070E+08         0.75118E+05         0.00000E+00
    0.75118E+05        -0.97599E+08         0.00000E+00
    0.00000E+00         0.00000E+00        -0.58189E+08
 
   -0.58020E+08         0.76299E+05         0.00000E+00
    0.76299E+05        -0.97599E+08         0.00000E+00
    0.00000E+00         0.00000E+00        -0.58139E+08
 
   -0.57969E+08         0.77466E+05         0.00000E+00
    0.77466E+05        -0.97599E+08         0.00000E+00
    0.00000E+00         0.00000E+00        -0.58088E+08
 
   -0.57917E+08         0.78616E+05         0.00000E+00
    0.78616E+05        -0.97599E+08         0.00000E+00
    0.00000E+00         0.00000E+00        -0.58036E+08
 
   -0.57864E+08         0.79745E+05         0.00000E+00
    0.79745E+05        -0.97599E+08         0.00000E+00
    0.00000E+00         0.00000E+00        -0.57982E+08
 
   -0.57810E+08         0.80852E+05         0.00000E+00
    0.80852E+05        -0.97599E+08         0.00000E+00
    0.00000E+00         0.00000E+00        -0.57928E+08
 
   -0.57756E+08         0.81932E+05         0.00000E+00
    0.81932E+05        -0.97599E+08         0.00000E+00
    0.00000E+00         0.00000E+00        -0.57873E+08
 
   -0.57701E+08         0.82982E+05         0.00000E+00
    0.82982E+05        -0.97599E+08         0.00000E+00
    0.00000E+00         0.00000E+00        -0.57817E+08
 
   -0.57646E+08         0.83998E+05         0.00000E+00
    0.83998E+05        -0.97599E+08         0.00000E+00
    0.00000E+00         0.00000E+00        -0.57759E+08
 
   -0.57589E+08         0.84976E+05         0.00000E+00
    0.84976E+05        -0.97599E+08         0.00000E+00
    0.00000E+00         0.00000E+00        -0.57701E+08
 
   -0.57532E+08         0.85911E+05         0.00000E+00
    0.85911E+05        -0.97599E+08         0.00000E+00
    0.00000E+00         0.00000E+00        -0.57642E+08
 
   -0.57475E+08         0.86797E+05         0.00000E+00
    0.86797E+05        -0.97599E+08         0.00000E+00
    0.00000E+00         0.00000E+00        -0.57582E+08
 
   -0.57416E+08         0.87631E+05         0.00000E+00
    0.87631E+05        -0.97599E+08         0.00000E+00
    0.00000E+00         0.00000E+00        -0.57521E+08
 
   -0.57358E+08         0.88405E+05         0.00000E+00
    0.88405E+05        -0.97599E+08         0.00000E+00
    0.00000E+00         0.00000E+00        -0.57459E+08
 
   -0.57298E+08         0.89115E+05         0.00000E+00
    0.89115E+05        -0.97599E+08         0.00000E+00
    0.00000E+00         0.00000E+00        -0.57396E+08
 
   -0.57238E+08         0.89752E+05         0.00000E+00
    0.89752E+05        -0.97599E+08         0.00000E+00
    0.00000E+00         0.00000E+00        -0.57332E+08
 
   -0.57178E+08         0.90310E+05         0.00000E+00
    0.90310E+05        -0.97600E+08         0.00000E+00
    0.00000E+00         0.00000E+00        -0.57267E+08
 
   -0.57118E+08         0.90780E+05         0.00000E+00
    0.90780E+05        -0.97600E+08         0.00000E+00
    0.00000E+00         0.00000E+00        -0.57201E+08
 
   -0.57057E+08         0.91155E+05         0.00000E+00
    0.91155E+05        -0.97600E+08         0.00000E+00
    0.00000E+00         0.00000E+00        -0.57134E+08
 
   -0.56996E+08         0.91423E+05         0.00000E+00
    0.91423E+05        -0.97600E+08         0.00000E+00
    0.00000E+00         0.00000E+00        -0.57067E+08
 
   -0.56934E+08         0.91575E+05         0.00000E+00
    0.91575E+05        -0.97600E+08         0.00000E+00
    0.00000E+00         0.00000E+00        -0.56998E+08
 
   -0.56873E+08         0.91599E+05         0.00000E+00
    0.91599E+05        -0.97600E+08         0.00000E+00
    0.00000E+00         0.00000E+00        -0.56929E+08
 
   -0.56812E+08         0.91480E+05         0.00000E+00
    0.91480E+05        -0.97600E+08         0.00000E+00
    0.00000E+00         0.00000E+00        -0.56859E+08
 
   -0.56750E+08         0.91203E+05         0.00000E+00
    0.91203E+05        -0.97600E+08         0.00000E+00
    0.00000E+00         0.00000E+00        -0.56788E+08
 
   -0.56689E+08         0.90751E+05         0.00000E+00
    0.90751E+05        -0.97600E+08         0.00000E+00
    0.00000E+00         0.00000E+00        -0.56717E+08
 
   -0.56628E+08         0.90103E+05         0.00000E+00
    0.90103E+05        -0.97600E+08         0.00000E+00
    0.00000E+00         0.00000E+00        -0.56645E+08
 
   -0.56568E+08         0.89234E+05         0.00000E+00
    0.89234E+05        -0.97601E+08         0.00000E+00
    0.00000E+00         0.00000E+00        -0.56573E+08
 
   -0.56508E+08         0.88117E+05         0.00000E+00
    0.88117E+05        -0.97601E+08         0.00000E+00
    0.00000E+00         0.00000E+00        -0.56499E+08
 
   -0.56450E+08         0.86718E+05         0.00000E+00
    0.86718E+05        -0.97601E+08         0.00000E+00
    0.00000E+00         0.00000E+00        -0.56426E+08
 
   -0.56392E+08         0.85000E+05         0.00000E+00
    0.85000E+05        -0.97601E+08         0.00000E+00
    0.00000E+00         0.00000E+00        -0.56352E+08
 
   -0.56335E+08         0.82918E+05         0.00000E+00
    0.82918E+05        -0.97602E+08         0.00000E+00
    0.00000E+00         0.00000E+00        -0.56278E+08
 
   -0.56279E+08         0.80420E+05         0.00000E+00
    0.80420E+05        -0.97602E+08         0.00000E+00
    0.00000E+00         0.00000E+00        -0.56203E+08
 
   -0.56226E+08         0.77448E+05         0.00000E+00
    0.77448E+05        -0.97602E+08         0.00000E+00
    0.00000E+00         0.00000E+00        -0.56129E+08
 
   -0.56174E+08         0.73933E+05         0.00000E+00
    0.73933E+05        -0.97603E+08         0.00000E+00
    0.00000E+00         0.00000E+00        -0.56054E+08
 
   -0.56125E+08         0.69804E+05         0.00000E+00
    0.69804E+05        -0.97603E+08         0.00000E+00
    0.00000E+00         0.00000E+00        -0.55980E+08
 
   -0.56078E+08         0.64980E+05         0.00000E+00
    0.64980E+05        -0.97604E+08         0.00000E+00
    0.00000E+00         0.00000E+00        -0.55906E+08
 
   -0.56035E+08         0.59380E+05         0.00000E+00
    0.59380E+05        -0.97605E+08         0.00000E+00
    0.00000E+00         0.00000E+00        -0.55832E+08
 
   -0.55995E+08         0.52924E+05         0.00000E+00
    0.52924E+05        -0.97605E+08         0.00000E+00
    0.00000E+00         0.00000E+00        -0.55759E+08
 
   -0.55959E+08         0.45541E+05         0.00000E+00
    0.45541E+05        -0.97606E+08         0.00000E+00
    0.00000E+00         0.00000E+00        -0.55687E+08
 
   -0.55927E+08         0.37180E+05         0.00000E+00
    0.37180E+05        -0.97607E+08         0.00000E+00
    0.00000E+00         0.00000E+00        -0.55615E+08
 
   -0.55901E+08         0.27824E+05         0.00000E+00
    0.27824E+05        -0.97608E+08         0.00000E+00
    0.00000E+00         0.00000E+00        -0.55545E+08
 
   -0.55879E+08         0.17504E+05         0.00000E+00
    0.17504E+05        -0.97609E+08         0.00000E+00
    0.00000E+00         0.00000E+00        -0.55476E+08
 
   -0.55864E+08         0.63255E+04         0.00000E+00
    0.63255E+04        -0.97609E+08         0.00000E+00
    0.00000E+00         0.00000E+00        -0.55408E+08
 
   -0.55855E+08        -0.55093E+04         0.00000E+00
   -0.55093E+04        -0.97610E+08         0.00000E+00
    0.00000E+00         0.00000E+00        -0.55342E+08
 
   -0.55852E+08        -0.17668E+05         0.00000E+00
   -0.17668E+05        -0.97610E+08         0.00000E+00
    0.00000E+00         0.00000E+00        -0.55277E+08
 
   -0.55854E+08        -0.29650E+05         0.00000E+00
   -0.29650E+05        -0.97610E+08         0.00000E+00
    0.00000E+00         0.00000E+00        -0.55214E+08
 
   -0.55862E+08        -0.40681E+05         0.00000E+00
   -0.40681E+05        -0.97609E+08         0.00000E+00
    0.00000E+00         0.00000E+00        -0.55152E+08
 
   -0.55872E+08        -0.49545E+05         0.00000E+00
   -0.49545E+05        -0.97608E+08         0.00000E+00
    0.00000E+00         0.00000E+00        -0.55090E+08
 
   -0.55882E+08        -0.53952E+05         0.00000E+00
   -0.53952E+05        -0.97604E+08         0.00000E+00
    0.00000E+00         0.00000E+00        -0.55027E+08
 
   -0.55887E+08        -0.47405E+05         0.00000E+00
   -0.47405E+05        -0.97595E+08         0.00000E+00
    0.00000E+00         0.00000E+00        -0.54961E+08
 
   -0.55884E+08        -0.20294E+05         0.00000E+00
   -0.20294E+05        -0.97560E+08         0.00000E+00
    0.00000E+00         0.00000E+00        -0.54885E+08
 
   -0.59387E+08        -0.48808E+04         0.00000E+00
   -0.48808E+04        -0.97608E+08         0.00000E+00
    0.00000E+00         0.00000E+00        -0.59690E+08
 
   -0.59387E+08        -0.10648E+05         0.00000E+00
   -0.10648E+05        -0.97600E+08         0.00000E+00
    0.00000E+00         0.00000E+00        -0.59671E+08
 
   -0.59388E+08        -0.11013E+05         0.00000E+00
   -0.11013E+05        -0.97598E+08         0.00000E+00
    0.00000E+00         0.00000E+00        -0.59655E+08
 
   -0.59390E+08        -0.90164E+04         0.00000E+00
   -0.90164E+04        -0.97598E+08         0.00000E+00
    0.00000E+00         0.00000E+00        -0.59639E+08
 
   -0.59392E+08        -0.61754E+04         0.00000E+00
   -0.61754E+04        -0.97598E+08         0.00000E+00
    0.00000E+00         0.00000E+00        -0.59623E+08
 
   -0.59392E+08        -0.29187E+04         0.00000E+00
   -0.29187E+04        -0.97598E+08         0.00000E+00
    0.00000E+00         0.00000E+00        -0.59607E+08
 
   -0.59390E+08         0.50085E+03         0.00000E+00
    0.50085E+03        -0.97598E+08         0.00000E+00
    0.00000E+00         0.00000E+00        -0.59590E+08
 
   -0.59386E+08         0.39295E+04         0.00000E+00
    0.39295E+04        -0.97598E+08         0.00000E+00
    0.00000E+00         0.00000E+00        -0.59572E+08
 
   -0.59380E+08         0.72676E+04         0.00000E+00
    0.72676E+04        -0.97598E+08         0.00000E+00
    0.00000E+00         0.00000E+00        -0.59554E+08
 
   -0.59372E+08         0.10449E+05         0.00000E+00
    0.10449E+05        -0.97598E+08         0.00000E+00
    0.00000E+00         0.00000E+00        -0.59535E+08
 
   -0.59362E+08         0.13437E+05         0.00000E+00
    0.13437E+05        -0.97598E+08         0.00000E+00
    0.00000E+00         0.00000E+00        -0.59515E+08
 
   -0.59350E+08         0.16212E+05         0.00000E+00
    0.16212E+05        -0.97598E+08         0.00000E+00
    0.00000E+00         0.00000E+00        -0.59494E+08
 
   -0.59336E+08         0.18771E+05         0.00000E+00
    0.18771E+05        -0.97598E+08         0.00000E+00
    0.00000E+00         0.00000E+00        -0.59473E+08
 
   -0.59320E+08         0.21124E+05         0.00000E+00
    0.21124E+05        -0.97598E+08         0.00000E+00
    0.00000E+00         0.00000E+00        -0.59451E+08
 
   -0.59303E+08         0.23283E+05         0.00000E+00
    0.23283E+05        -0.97599E+08         0.00000E+00
    0.00000E+00         0.00000E+00        -0.59428E+08
 
   -0.59284E+08         0.25268E+05         0.00000E+00
    0.25268E+05        -0.97599E+08         0.00000E+00
    0.00000E+00         0.00000E+00        -0.59404E+08
 
   -0.59264E+08         0.27099E+05         0.00000E+00
    0.27099E+05        -0.97599E+08         0.00000E+00
    0.00000E+00         0.00000E+00        -0.59380E+08
 
   -0.59242E+08         0.28796E+05         0.00000E+00
    0.28796E+05        -0.97599E+08         0.00000E+00
    0.00000E+00         0.00000E+00        -0.59355E+08
 
   -0.59220E+08         0.30377E+05         0.00000E+00
    0.30377E+05        -0.97599E+08         0.00000E+00
    0.00000E+00         0.00000E+00        -0.59330E+08
 
   -0.59196E+08         0.31861E+05         0.00000E+00
    0.31861E+05        -0.97599E+08         0.00000E+00
    0.00000E+00         0.00000E+00        -0.59304E+08
 
   -0.59171E+08         0.33262E+05         0.00000E+00
    0.33262E+05        -0.97599E+08         0.00000E+00
    0.00000E+00         0.00000E+00        -0.59277E+08
 
   -0.59145E+08         0.34595E+05         0.00000E+00
    0.34595E+05        -0.97599E+08         0.00000E+00
    0.00000E+00         0.00000E+00        -0.59250E+08
 
   -0.59118E+08         0.35872E+05         0.00000E+00
    0.35872E+05        -0.97599E+08         0.00000E+00
    0.00000E+00         0.00000E+00        -0.59222E+08
 
   -0.59090E+08         0.37102E+05         0.00000E+00
    0.37102E+05        -0.97599E+08         0.00000E+00
    0.00000E+00         0.00000E+00        -0.59193E+08
 
   -0.59061E+08         0.38295E+05         0.00000E+00
    0.38295E+05        -0.97599E+08         0.00000E+00
    0.00000E+00         0.00000E+00        -0.59164E+08
 
   -0.59031E+08         0.39457E+05         0.00000E+00
    0.39457E+05        -0.97599E+08         0.00000E+00
    0.00000E+00         0.00000E+00        -0.59134E+08
 
   -0.59001E+08         0.40594E+05         0.00000E+00
    0.40594E+05        -0.97599E+08         0.00000E+00
    0.00000E+00         0.00000E+00        -0.59104E+08
 
   -0.58969E+08         0.41712E+05         0.00000E+00
    0.41712E+05        -0.97599E+08         0.00000E+00
    0.00000E+00         0.00000E+00        -0.59072E+08
 
   -0.58937E+08         0.42814E+05         0.00000E+00
    0.42814E+05        -0.97599E+08         0.00000E+00
    0.00000E+00         0.00000E+00        -0.59040E+08
 
   -0.58904E+08         0.43905E+05         0.00000E+00
    0.43905E+05        -0.97599E+08         0.00000E+00
    0.00000E+00         0.00000E+00        -0.59008E+08
 
   -0.58870E+08         0.44986E+05         0.00000E+00
    0.44986E+05        -0.97599E+08         0.00000E+00
    0.00000E+00         0.00000E+00        -0.58975E+08
 
   -0.58835E+08         0.46060E+05         0.00000E+00
    0.46060E+05        -0.97599E+08         0.00000E+00
    0.00000E+00         0.00000E+00        -0.58941E+08
 
   -0.58799E+08         0.47130E+05         0.00000E+00
    0.47130E+05        -0.97599E+08         0.00000E+00
    0.00000E+00         0.00000E+00        -0.58906E+08
 
   -0.58763E+08         0.48197E+05         0.00000E+00
    0.48197E+05        -0.97599E+08         0.00000E+00
    0.00000E+00         0.00000E+00        -0.58870E+08
 
   -0.58725E+08         0.49261E+05         0.00000E+00
    0.49261E+05        -0.97599E+08         0.00000E+00
    0.00000E+00         0.00000E+00        -0.58834E+08
 
   -0.58687E+08         0.50324E+05         0.00000E+00
    0.50324E+05        -0.97599E+08         0.00000E+00
    0.00000E+00         0.00000E+00        -0.58797E+08
 
   -0.58648E+08         0.51387E+05         0.00000E+00
    0.51387E+05        -0.97599E+08         0.00000E+00
    0.00000E+00         0.00000E+00        -0.58759E+08
 
   -0.58608E+08         0.52450E+05         0.00000E+00
    0.52450E+05        -0.97599E+08         0.00000E+00
    0.00000E+00         0.00000E+00        -0.58720E+08
 
   -0.58568E+08         0.53513E+05         0.00000E+00
    0.53513E+05        -0.97599E+08         0.00000E+00
    0.00000E+00         0.00000E+00        -0.58681E+08
 
   -0.58526E+08         0.54576E+05         0.00000E+00
    0.54576E+05        -0.97599E+08         0.00000E+00
    0.00000E+00         0.00000E+00        -0.58641E+08
 
   -0.58484E+08         0.55640E+05         0.00000E+00
    0.55640E+05        -0.97599E+08         0.00000E+00
    0.00000E+00         0.00000E+00        -0.58599E+08
 
   -0.58441E+08         0.56704E+05         0.00000E+00
    0.56704E+05        -0.97599E+08         0.00000E+00
    0.00000E+00         0.00000E+00        -0.58557E+08
 
   -0.58397E+08         0.57767E+05         0.00000E+00
    0.57767E+05        -0.97599E+08         0.00000E+00
    0.00000E+00         0.00000E+00        -0.58514E+08
 
   -0.58352E+08         0.58829E+05         0.00000E+00
    0.58829E+05        -0.97599E+08         0.00000E+00
    0.00000E+00         0.00000E+00        -0.58471E+08
 
   -0.58307E+08         0.59890E+05         0.00000E+00
    0.59890E+05        -0.97599E+08         0.00000E+00
    0.00000E+00         0.00000E+00        -0.58426E+08
 
   -0.58261E+08         0.60947E+05         0.00000E+00
    0.60947E+05        -0.97599E+08         0.00000E+00
    0.00000E+00         0.00000E+00        -0.58380E+08
 
   -0.58213E+08         0.62000E+05         0.00000E+00
    0.62000E+05        -0.97599E+08         0.00000E+00
    0.00000E+00         0.00000E+00        -0.58334E+08
 
   -0.58165E+08         0.63048E+05         0.00000E+00
    0.63048E+05        -0.97599E+08         0.00000E+00
    0.00000E+00         0.00000E+00        -0.58286E+08
 
   -0.58117E+08         0.64089E+05         0.00000E+00
    0.64089E+05        -0.97599E+08         0.00000E+00
    0.00000E+00         0.00000E+00        -0.58238E+08
 
   -0.58067E+08         0.65121E+05         0.00000E+00
    0.65121E+05        -0.97599E+08         0.00000E+00
    0.00000E+00         0.00000E+00        -0.58189E+08
 
   -0.58017E+08         0.66142E+05         0.00000E+00
    0.66142E+05        -0.97599E+08         0.00000E+00
    0.00000E+00         0.00000E+00        -0.58138E+08
 
   -0.57965E+08         0.67151E+05         0.00000E+00
    0.67151E+05        -0.97599E+08         0.00000E+00
    0.00000E+00         0.00000E+00        -0.58087E+08
 
   -0.57914E+08         0.68145E+05         0.00000E+00
    0.68145E+05        -0.97599E+08         0.00000E+00
    0.00000E+00         0.00000E+00        -0.58035E+08
 
   -0.57861E+08         0.69122E+05         0.00000E+00
    0.69122E+05        -0.97599E+08         0.00000E+00
    0.00000E+00         0.00000E+00        -0.57981E+08
 
   -0.57807E+08         0.70079E+05         0.00000E+00
    0.70079E+05        -0.97599E+08         0.00000E+00
    0.00000E+00         0.00000E+00        -0.57927E+08
 
   -0.57753E+08         0.71012E+05         0.00000E+00
    0.71012E+05        -0.97599E+08         0.00000E+00
    0.00000E+00         0.00000E+00        -0.57872E+08
 
   -0.57698E+08         0.71919E+05         0.00000E+00
    0.71919E+05        -0.97599E+08         0.00000E+00
    0.00000E+00         0.00000E+00        -0.57816E+08
 
   -0.57642E+08         0.72797E+05         0.00000E+00
    0.72797E+05        -0.97599E+08         0.00000E+00
    0.00000E+00         0.00000E+00        -0.57759E+08
 
   -0.57586E+08         0.73641E+05         0.00000E+00
    0.73641E+05        -0.97599E+08         0.00000E+00
    0.00000E+00         0.00000E+00        -0.57700E+08
 
   -0.57529E+08         0.74448E+05         0.00000E+00
    0.74448E+05        -0.97599E+08         0.00000E+00
    0.00000E+00         0.00000E+00        -0.57641E+08
 
   -0.57471E+08         0.75213E+05         0.00000E+00
    0.75213E+05        -0.97599E+08         0.00000E+00
    0.00000E+00         0.00000E+00        -0.57581E+08
 
   -0.57413E+08         0.75931E+05         0.00000E+00
    0.75931E+05        -0.97599E+08         0.00000E+00
    0.00000E+00         0.00000E+00        -0.57520E+08
 
   -0.57355E+08         0.76598E+05         0.00000E+00
    0.76598E+05        -0.97599E+08         0.00000E+00
    0.00000E+00         0.00000E+00        -0.57458E+08
 
   -0.57295E+08         0.77209E+05         0.00000E+00
    0.77209E+05        -0.97600E+08         0.00000E+00
    0.00000E+00         0.00000E+00        -0.57395E+08
 
   -0.57236E+08         0.77757E+05         0.00000E+00
    0.77757E+05        -0.97600E+08         0.00000E+00
    0.00000E+00         0.00000E+00        -0.57331E+08
 
   -0.57175E+08         0.78236E+05         0.00000E+00
    0.78236E+05        -0.97600E+08         0.00000E+00
    0.00000E+00         0.00000E+00        -0.57266E+08
 
   -0.57115E+08         0.78639E+05         0.00000E+00
    0.78639E+05        -0.97600E+08         0.00000E+00
    0.00000E+00         0.00000E+00        -0.57200E+08
 
   -0.57054E+08         0.78958E+05         0.00000E+00
    0.78958E+05        -0.97600E+08         0.00000E+00
    0.00000E+00         0.00000E+00        -0.57133E+08
 
   -0.56993E+08         0.79186E+05         0.00000E+00
    0.79186E+05        -0.97600E+08         0.00000E+00
    0.00000E+00         0.00000E+00        -0.57066E+08
 
   -0.56932E+08         0.79313E+05         0.00000E+00
    0.79313E+05        -0.97600E+08         0.00000E+00
    0.00000E+00         0.00000E+00        -0.56998E+08
 
   -0.56871E+08         0.79328E+05         0.00000E+00
    0.79328E+05        -0.97600E+08         0.00000E+00
    0.00000E+00         0.00000E+00        -0.56928E+08
 
   -0.56809E+08         0.79219E+05         0.00000E+00
    0.79219E+05        -0.97600E+08         0.00000E+00
    0.00000E+00         0.00000E+00        -0.56858E+08
 
   -0.56748E+08         0.78973E+05         0.00000E+00
    0.78973E+05        -0.97600E+08         0.00000E+00
    0.00000E+00         0.00000E+00        -0.56788E+08
 
   -0.56687E+08         0.78575E+05         0.00000E+00
    0.78575E+05        -0.97600E+08         0.00000E+00
    0.00000E+00         0.00000E+00        -0.56716E+08
 
   -0.56626E+08         0.78006E+05         0.00000E+00
    0.78006E+05        -0.97600E+08         0.00000E+00
    0.00000E+00         0.00000E+00        -0.56644E+08
 
   -0.56566E+08         0.77246E+05         0.00000E+00
    0.77246E+05        -0.97600E+08         0.00000E+00
    0.00000E+00         0.00000E+00        -0.56572E+08
 
   -0.56507E+08         0.76269E+05         0.00000E+00
    0.76269E+05        -0.97601E+08         0.00000E+00
    0.00000E+00         0.00000E+00        -0.56499E+08
 
   -0.56448E+08         0.75047E+05         0.00000E+00
    0.75047E+05        -0.97601E+08         0.00000E+00
    0.00000E+00         0.00000E+00        -0.56425E+08
 
   -0.56390E+08         0.73545E+05         0.00000E+00
    0.73545E+05        -0.97601E+08         0.00000E+00
    0.00000E+00         0.00000E+00        -0.56351E+08
 
   -0.56334E+08         0.71725E+05         0.00000E+00
    0.71725E+05        -0.97601E+08         0.00000E+00
    0.00000E+00         0.00000E+00        -0.56277E+08
 
   -0.56279E+08         0.69540E+05         0.00000E+00
    0.69540E+05        -0.97601E+08         0.00000E+00
    0.00000E+00         0.00000E+00        -0.56203E+08
 
   -0.56225E+08         0.66938E+05         0.00000E+00
    0.66938E+05        -0.97602E+08         0.00000E+00
    0.00000E+00         0.00000E+00        -0.56128E+08
 
   -0.56174E+08         0.63859E+05         0.00000E+00
    0.63859E+05        -0.97602E+08         0.00000E+00
    0.00000E+00         0.00000E+00        -0.56054E+08
 
   -0.56125E+08         0.60237E+05         0.00000E+00
    0.60237E+05        -0.97602E+08         0.00000E+00
    0.00000E+00         0.00000E+00        -0.55980E+08
 
   -0.56079E+08         0.56000E+05         0.00000E+00
    0.56000E+05        -0.97603E+08         0.00000E+00
    0.00000E+00         0.00000E+00        -0.55906E+08
 
   -0.56036E+08         0.51075E+05         0.00000E+00
    0.51075E+05        -0.97603E+08         0.00000E+00
    0.00000E+00         0.00000E+00        -0.55832E+08
 
   -0.55997E+08         0.45387E+05         0.00000E+00
    0.45387E+05        -0.97604E+08         0.00000E+00
    0.00000E+00         0.00000E+00        -0.55759E+08
 
   -0.55962E+08         0.38872E+05         0.00000E+00
    0.38872E+05        -0.97605E+08         0.00000E+00
    0.00000E+00         0.00000E+00        -0.55687E+08
 
   -0.55931E+08         0.31481E+05         0.00000E+00
    0.31481E+05        -0.97605E+08         0.00000E+00
    0.00000E+00         0.00000E+00        -0.55616E+08
 
   -0.55906E+08         0.23193E+05         0.00000E+00
    0.23193E+05        -0.97606E+08         0.00000E+00
    0.00000E+00         0.00000E+00        -0.55546E+08
 
   -0.55887E+08         0.14031E+05         0.00000E+00
    0.14031E+05        -0.97606E+08         0.00000E+00
    0.00000E+00         0.00000E+00        -0.55478E+08
 
   -0.55873E+08         0.40806E+04         0.00000E+00
    0.40806E+04        -0.97607E+08         0.00000E+00
    0.00000E+00         0.00000E+00        -0.55410E+08
 
   -0.55867E+08        -0.64908E+04         0.00000E+00
   -0.64908E+04        -0.97607E+08         0.00000E+00
    0.00000E+00         0.00000E+00        -0.55345E+08
 
   -0.55866E+08        -0.17405E+05         0.00000E+00
   -0.17405E+05        -0.97608E+08         0.00000E+00
    0.00000E+00         0.00000E+00        -0.55281E+08
 
   -0.55872E+08        -0.28248E+05         0.00000E+00
   -0.28248E+05        -0.97608E+08         0.00000E+00
    0.00000E+00         0.00000E+00        -0.55219E+08
 
   -0.55883E+08        -0.38388E+05         0.00000E+00
   -0.38388E+05        -0.97607E+08         0.00000E+00
    0.00000E+00         0.00000E+00        -0.55158E+08
 
   -0.55899E+08        -0.46802E+05         0.00000E+00
   -0.46802E+05        -0.97606E+08         0.00000E+00
    0.00000E+00         0.00000E+00        -0.55097E+08
 
   -0.55914E+08        -0.51765E+05         0.00000E+00
   -0.51765E+05        -0.97604E+08         0.00000E+00
    0.00000E+00         0.00000E+00        -0.55037E+08
 
   -0.55924E+08        -0.47222E+05         0.00000E+00
   -0.47222E+05        -0.97598E+08         0.00000E+00
    0.00000E+00         0.00000E+00        -0.54973E+08
 
   -0.55924E+08        -0.21063E+05         0.00000E+00
   -0.21063E+05        -0.97568E+08         0.00000E+00
    0.00000E+00         0.00000E+00        -0.54900E+08
 
   -0.59376E+08        -0.51087E+04         0.00000E+00
   -0.51087E+04        -0.97606E+08         0.00000E+00
    0.00000E+00         0.00000E+00        -0.59686E+08
 
   -0.59376E+08        -0.10536E+05         0.00000E+00
   -0.10536E+05        -0.97599E+08         0.00000E+00
    0.00000E+00         0.00000E+00        -0.59668E+08
 
   -0.59379E+08        -0.10422E+05         0.00000E+00
   -0.10422E+05        -0.97599E+08         0.00000E+00
    0.00000E+00         0.00000E+00        -0.59652E+08
 
   -0.59383E+08        -0.84512E+04         0.00000E+00
   -0.84512E+04        -0.97598E+08         0.00000E+00
    0.00000E+00         0.00000E+00        -0.59637E+08
 
   -0.59386E+08        -0.58746E+04         0.00000E+00
   -0.58746E+04        -0.97598E+08         0.00000E+00
    0.00000E+00         0.00000E+00        -0.59622E+08
 
   -0.59387E+08        -0.29816E+04         0.00000E+00
   -0.29816E+04        -0.97598E+08         0.00000E+00
    0.00000E+00         0.00000E+00        -0.59606E+08
 
   -0.59386E+08         0.16666E+02         0.00000E+00
    0.16666E+02        -0.97598E+08         0.00000E+00
    0.00000E+00         0.00000E+00        -0.59589E+08
 
   -0.59383E+08         0.30038E+04         0.00000E+00
    0.30038E+04        -0.97598E+08         0.00000E+00
    0.00000E+00         0.00000E+00        -0.59571E+08
 
   -0.59377E+08         0.58992E+04         0.00000E+00
    0.58992E+04        -0.97598E+08         0.00000E+00
    0.00000E+00         0.00000E+00        -0.59553E+08
 
   -0.59369E+08         0.86500E+04         0.00000E+00
    0.86500E+04        -0.97598E+08         0.00000E+00
    0.00000E+00         0.00000E+00        -0.59534E+08
 
   -0.59360E+08         0.11226E+05         0.00000E+00
    0.11226E+05        -0.97599E+08         0.00000E+00
    0.00000E+00         0.00000E+00        -0.59514E+08
 
   -0.59348E+08         0.13613E+05         0.00000E+00
    0.13613E+05        -0.97599E+08         0.00000E+00
    0.00000E+00         0.00000E+00        -0.59494E+08
 
   -0.59334E+08         0.15810E+05         0.00000E+00
    0.15810E+05        -0.97599E+08         0.00000E+00
    0.00000E+00         0.00000E+00        -0.59472E+08
 
   -0.59318E+08         0.17825E+05         0.00000E+00
    0.17825E+05        -0.97599E+08         0.00000E+00
    0.00000E+00         0.00000E+00        -0.59450E+08
 
   -0.59301E+08         0.19672E+05         0.00000E+00
    0.19672E+05        -0.97599E+08         0.00000E+00
    0.00000E+00         0.00000E+00        -0.59427E+08
 
   -0.59282E+08         0.21366E+05         0.00000E+00
    0.21366E+05        -0.97599E+08         0.00000E+00
    0.00000E+00         0.00000E+00        -0.59404E+08
 
   -0.59262E+08         0.22927E+05         0.00000E+00
    0.22927E+05        -0.97599E+08         0.00000E+00
    0.00000E+00         0.00000E+00        -0.59380E+08
 
   -0.59241E+08         0.24371E+05         0.00000E+00
    0.24371E+05        -0.97599E+08         0.00000E+00
    0.00000E+00         0.00000E+00        -0.59355E+08
 
   -0.59218E+08         0.25715E+05         0.00000E+00
    0.25715E+05        -0.97599E+08         0.00000E+00
    0.00000E+00         0.00000E+00        -0.59329E+08
 
   -0.59194E+08         0.26975E+05         0.00000E+00
    0.26975E+05        -0.97599E+08         0.00000E+00
    0.00000E+00         0.00000E+00        -0.59303E+08
 
   -0.59169E+08         0.28164E+05         0.00000E+00
    0.28164E+05        -0.97599E+08         0.00000E+00
    0.00000E+00         0.00000E+00        -0.59277E+08
 
   -0.59143E+08         0.29295E+05         0.00000E+00
    0.29295E+05        -0.97599E+08         0.00000E+00
    0.00000E+00         0.00000E+00        -0.59249E+08
 
   -0.59116E+08         0.30377E+05         0.00000E+00
    0.30377E+05        -0.97599E+08         0.00000E+00
    0.00000E+00         0.00000E+00        -0.59221E+08
 
   -0.59088E+08         0.31419E+05         0.00000E+00
    0.31419E+05        -0.97599E+08         0.00000E+00
    0.00000E+00         0.00000E+00        -0.59193E+08
 
   -0.59059E+08         0.32429E+05         0.00000E+00
    0.32429E+05        -0.97599E+08         0.00000E+00
    0.00000E+00         0.00000E+00        -0.59164E+08
 
   -0.59029E+08         0.33413E+05         0.00000E+00
    0.33413E+05        -0.97599E+08         0.00000E+00
    0.00000E+00         0.00000E+00        -0.59134E+08
 
   -0.58999E+08         0.34376E+05         0.00000E+00
    0.34376E+05        -0.97599E+08         0.00000E+00
    0.00000E+00         0.00000E+00        -0.59103E+08
 
   -0.58967E+08         0.35322E+05         0.00000E+00
    0.35322E+05        -0.97599E+08         0.00000E+00
    0.00000E+00         0.00000E+00        -0.59072E+08
 
   -0.58935E+08         0.36255E+05         0.00000E+00
    0.36255E+05        -0.97599E+08         0.00000E+00
    0.00000E+00         0.00000E+00        -0.59040E+08
 
   -0.58901E+08         0.37178E+05         0.00000E+00
    0.37178E+05        -0.97599E+08         0.00000E+00
    0.00000E+00         0.00000E+00        -0.59007E+08
 
   -0.58867E+08         0.38093E+05         0.00000E+00
    0.38093E+05        -0.97599E+08         0.00000E+00
    0.00000E+00         0.00000E+00        -0.58974E+08
 
   -0.58833E+08         0.39002E+05         0.00000E+00
    0.39002E+05        -0.97599E+08         0.00000E+00
    0.00000E+00         0.00000E+00        -0.58940E+08
 
   -0.58797E+08         0.39907E+05         0.00000E+00
    0.39907E+05        -0.97599E+08         0.00000E+00
    0.00000E+00         0.00000E+00        -0.58905E+08
 
   -0.58760E+08         0.40810E+05         0.00000E+00
    0.40810E+05        -0.97599E+08         0.00000E+00
    0.00000E+00         0.00000E+00        -0.58870E+08
 
   -0.58723E+08         0.41710E+05         0.00000E+00
    0.41710E+05        -0.97599E+08         0.00000E+00
    0.00000E+00         0.00000E+00        -0.58833E+08
 
   -0.58685E+08         0.42610E+05         0.00000E+00
    0.42610E+05        -0.97599E+08         0.00000E+00
    0.00000E+00         0.00000E+00        -0.58796E+08
 
   -0.58646E+08         0.43509E+05         0.00000E+00
    0.43509E+05        -0.97599E+08         0.00000E+00
    0.00000E+00         0.00000E+00        -0.58758E+08
 
   -0.58606E+08         0.44408E+05         0.00000E+00
    0.44408E+05        -0.97599E+08         0.00000E+00
    0.00000E+00         0.00000E+00        -0.58720E+08
 
   -0.58565E+08         0.45307E+05         0.00000E+00
    0.45307E+05        -0.97599E+08         0.00000E+00
    0.00000E+00         0.00000E+00        -0.58680E+08
 
   -0.58524E+08         0.46206E+05         0.00000E+00
    0.46206E+05        -0.97599E+08         0.00000E+00
    0.00000E+00         0.00000E+00        -0.58640E+08
 
   -0.58481E+08         0.47106E+05         0.00000E+00
    0.47106E+05        -0.97599E+08         0.00000E+00
    0.00000E+00         0.00000E+00        -0.58599E+08
 
   -0.58438E+08         0.48005E+05         0.00000E+00
    0.48005E+05        -0.97599E+08         0.00000E+00
    0.00000E+00         0.00000E+00        -0.58557E+08
 
   -0.58394E+08         0.48904E+05         0.00000E+00
    0.48904E+05        -0.97599E+08         0.00000E+00
    0.00000E+00         0.00000E+00        -0.58514E+08
 
   -0.58350E+08         0.49802E+05         0.00000E+00
    0.49802E+05        -0.97599E+08         0.00000E+00
    0.00000E+00         0.00000E+00        -0.58470E+08
 
   -0.58304E+08         0.50698E+05         0.00000E+00
    0.50698E+05        -0.97599E+08         0.00000E+00
    0.00000E+00         0.00000E+00        -0.58425E+08
 
   -0.58258E+08         0.51592E+05         0.00000E+00
    0.51592E+05        -0.97599E+08         0.00000E+00
    0.00000E+00         0.00000E+00        -0.58380E+08
 
   -0.58211E+08         0.52482E+05         0.00000E+00
    0.52482E+05        -0.97599E+08         0.00000E+00
    0.00000E+00         0.00000E+00        -0.58333E+08
 
   -0.58163E+08         0.53367E+05         0.00000E+00
    0.53367E+05        -0.97599E+08         0.00000E+00
    0.00000E+00         0.00000E+00        -0.58286E+08
 
   -0.58114E+08         0.54246E+05         0.00000E+00
    0.54246E+05        -0.97599E+08         0.00000E+00
    0.00000E+00         0.00000E+00        -0.58237E+08
 
   -0.58064E+08         0.55118E+05         0.00000E+00
    0.55118E+05        -0.97599E+08         0.00000E+00
    0.00000E+00         0.00000E+00        -0.58188E+08
 
   -0.58014E+08         0.55981E+05         0.00000E+00
    0.55981E+05        -0.97599E+08         0.00000E+00
    0.00000E+00         0.00000E+00        -0.58137E+08
 
   -0.57962E+08         0.56833E+05         0.00000E+00
    0.56833E+05        -0.97599E+08         0.00000E+00
    0.00000E+00         0.00000E+00        -0.58086E+08
 
   -0.57910E+08         0.57672E+05         0.00000E+00
    0.57672E+05        -0.97599E+08         0.00000E+00
    0.00000E+00         0.00000E+00        -0.58034E+08
 
   -0.57858E+08         0.58497E+05         0.00000E+00
    0.58497E+05        -0.97599E+08         0.00000E+00
    0.00000E+00         0.00000E+00        -0.57981E+08
 
   -0.57804E+08         0.59304E+05         0.00000E+00
    0.59304E+05        -0.97599E+08         0.00000E+00
    0.00000E+00         0.00000E+00        -0.57926E+08
 
   -0.57750E+08         0.60092E+05         0.00000E+00
    0.60092E+05        -0.97599E+08         0.00000E+00
    0.00000E+00         0.00000E+00        -0.57871E+08
 
   -0.57695E+08         0.60857E+05         0.00000E+00
    0.60857E+05        -0.97599E+08         0.00000E+00
    0.00000E+00         0.00000E+00        -0.57815E+08
 
   -0.57639E+08         0.61597E+05         0.00000E+00
    0.61597E+05        -0.97599E+08         0.00000E+00
    0.00000E+00         0.00000E+00        -0.57758E+08
 
   -0.57583E+08         0.62309E+05         0.00000E+00
    0.62309E+05        -0.97600E+08         0.00000E+00
    0.00000E+00         0.00000E+00        -0.57699E+08
 
   -0.57526E+08         0.62988E+05         0.00000E+00
    0.62988E+05        -0.97600E+08         0.00000E+00
    0.00000E+00         0.00000E+00        -0.57640E+08
 
   -0.57468E+08         0.63633E+05         0.00000E+00
    0.63633E+05        -0.97600E+08         0.00000E+00
    0.00000E+00         0.00000E+00        -0.57580E+08
 
   -0.57410E+08         0.64237E+05         0.00000E+00
    0.64237E+05        -0.97600E+08         0.00000E+00
    0.00000E+00         0.00000E+00        -0.57519E+08
 
   -0.57352E+08         0.64799E+05         0.00000E+00
    0.64799E+05        -0.97600E+08         0.00000E+00
    0.00000E+00         0.00000E+00        -0.57457E+08
 
   -0.57292E+08         0.65312E+05         0.00000E+00
    0.65312E+05        -0.97600E+08         0.00000E+00
    0.00000E+00         0.00000E+00        -0.57394E+08
 
   -0.57233E+08         0.65772E+05         0.00000E+00
    0.65772E+05        -0.97600E+08         0.00000E+00
    0.00000E+00         0.00000E+00        -0.57330E+08
 
   -0.57173E+08         0.66173E+05         0.00000E+00
    0.66173E+05        -0.97600E+08         0.00000E+00
    0.00000E+00         0.00000E+00        -0.57265E+08
 
   -0.57112E+08         0.66511E+05         0.00000E+00
    0.66511E+05        -0.97600E+08         0.00000E+00
    0.00000E+00         0.00000E+00        -0.57199E+08
 
   -0.57051E+08         0.66777E+05         0.00000E+00
    0.66777E+05        -0.97600E+08         0.00000E+00
    0.00000E+00         0.00000E+00        -0.57133E+08
 
   -0.56990E+08         0.66966E+05         0.00000E+00
    0.66966E+05        -0.97600E+08         0.00000E+00
    0.00000E+00         0.00000E+00        -0.57065E+08
 
   -0.56929E+08         0.67068E+05         0.00000E+00
    0.67068E+05        -0.97600E+08         0.00000E+00
    0.00000E+00         0.00000E+00        -0.56997E+08
 
   -0.56868E+08         0.67077E+05         0.00000E+00
    0.67077E+05        -0.97600E+08         0.00000E+00
    0.00000E+00         0.00000E+00        -0.56928E+08
 
   -0.56807E+08         0.66980E+05         0.00000E+00
    0.66980E+05        -0.97600E+08         0.00000E+00
    0.00000E+00         0.00000E+00        -0.56858E+08
 
   -0.56746E+08         0.66768E+05         0.00000E+00
    0.66768E+05        -0.97600E+08         0.00000E+00
    0.00000E+00         0.00000E+00        -0.56787E+08
 
   -0.56685E+08         0.66426E+05         0.00000E+00
    0.66426E+05        -0.97600E+08         0.00000E+00
    0.00000E+00         0.00000E+00        -0.56716E+08
 
   -0.56624E+08         0.65939E+05         0.00000E+00
    0.65939E+05        -0.97600E+08         0.00000E+00
    0.00000E+00         0.00000E+00        -0.56644E+08
 
   -0.56564E+08         0.65290E+05         0.00000E+00
    0.65290E+05        -0.97600E+08         0.00000E+00
    0.00000E+00         0.00000E+00        -0.56571E+08
 
   -0.56505E+08         0.64456E+05         0.00000E+00
    0.64456E+05        -0.97600E+08         0.00000E+00
    0.00000E+00         0.00000E+00        -0.56498E+08
 
   -0.56447E+08         0.63414E+05         0.00000E+00
    0.63414E+05        -0.97601E+08         0.00000E+00
    0.00000E+00         0.00000E+00        -0.56425E+08
 
   -0.56389E+08         0.62133E+05         0.00000E+00
    0.62133E+05        -0.97601E+08         0.00000E+00
    0.00000E+00         0.00000E+00        -0.56351E+08
 
   -0.56333E+08         0.60581E+05         0.00000E+00
    0.60581E+05        -0.97601E+08         0.00000E+00
    0.00000E+00         0.00000E+00        -0.56277E+08
 
   -0.56278E+08         0.58716E+05         0.00000E+00
    0.58716E+05        -0.97601E+08         0.00000E+00
    0.00000E+00         0.00000E+00        -0.56203E+08
 
   -0.56225E+08         0.56494E+05         0.00000E+00
    0.56494E+05        -0.97601E+08         0.00000E+00
    0.00000E+00         0.00000E+00        -0.56128E+08
 
   -0.56174E+08         0.53862E+05         0.00000E+00
    0.53862E+05        -0.97601E+08         0.00000E+00
    0.00000E+00         0.00000E+00        -0.56054E+08
 
   -0.56125E+08         0.50761E+05         0.00000E+00
    0.50761E+05        -0.97602E+08         0.00000E+00
    0.00000E+00         0.00000E+00        -0.55980E+08
 
   -0.56080E+08         0.47130E+05         0.00000E+00
    0.47130E+05        -0.97602E+08         0.00000E+00
    0.00000E+00         0.00000E+00        -0.55906E+08
 
   -0.56037E+08         0.42902E+05         0.00000E+00
    0.42902E+05        -0.97602E+08         0.00000E+00
    0.00000E+00         0.00000E+00        -0.55832E+08
 
   -0.55999E+08         0.38012E+05         0.00000E+00
    0.38012E+05        -0.97603E+08         0.00000E+00
    0.00000E+00         0.00000E+00        -0.55760E+08
 
   -0.55965E+08         0.32400E+05         0.00000E+00
    0.32400E+05        -0.97603E+08         0.00000E+00
    0.00000E+00         0.00000E+00        -0.55688E+08
 
   -0.55935E+08         0.26022E+05         0.00000E+00
    0.26022E+05        -0.97604E+08         0.00000E+00
    0.00000E+00         0.00000E+00        -0.55617E+08
 
   -0.55911E+08         0.18855E+05         0.00000E+00
    0.18855E+05        -0.97604E+08         0.00000E+00
    0.00000E+00         0.00000E+00        -0.55547E+08
 
   -0.55894E+08         0.10914E+05         0.00000E+00
    0.10914E+05        -0.97605E+08         0.00000E+00
    0.00000E+00         0.00000E+00        -0.55479E+08
 
   -0.55882E+08         0.22656E+04         0.00000E+00
    0.22656E+04        -0.97605E+08         0.00000E+00
    0.00000E+00         0.00000E+00        -0.55412E+08
 
   -0.55878E+08        -0.69553E+04         0.00000E+00
   -0.69553E+04        -0.97605E+08         0.00000E+00
    0.00000E+00         0.00000E+00        -0.55348E+08
 
   -0.55880E+08        -0.16524E+05         0.00000E+00
   -0.16524E+05        -0.97606E+08         0.00000E+00
    0.00000E+00         0.00000E+00        -0.55285E+08
 
   -0.55889E+08        -0.26105E+05         0.00000E+00
   -0.26105E+05        -0.97606E+08         0.00000E+00
    0.00000E+00         0.00000E+00        -0.55223E+08
 
   -0.55905E+08        -0.35218E+05         0.00000E+00
   -0.35218E+05        -0.97605E+08         0.00000E+00
    0.00000E+00         0.00000E+00        -0.55164E+08
 
   -0.55925E+08        -0.43005E+05         0.00000E+00
   -0.43005E+05        -0.97605E+08         0.00000E+00
    0.00000E+00         0.00000E+00        -0.55105E+08
 
   -0.55947E+08        -0.48303E+05         0.00000E+00
   -0.48303E+05        -0.97603E+08         0.00000E+00
    0.00000E+00         0.00000E+00        -0.55046E+08
 
   -0.55963E+08        -0.46108E+05         0.00000E+00
   -0.46108E+05        -0.97601E+08         0.00000E+00
    0.00000E+00         0.00000E+00        -0.54986E+08
 
   -0.55966E+08        -0.21748E+05         0.00000E+00
   -0.21748E+05        -0.97576E+08         0.00000E+00
    0.00000E+00         0.00000E+00        -0.54915E+08
 
   -0.59364E+08        -0.53050E+04         0.00000E+00
   -0.53050E+04        -0.97604E+08         0.00000E+00
    0.00000E+00         0.00000E+00        -0.59682E+08
 
   -0.59365E+08        -0.10108E+05         0.00000E+00
   -0.10108E+05        -0.97599E+08         0.00000E+00
    0.00000E+00         0.00000E+00        -0.59665E+08
 
   -0.59370E+08        -0.94715E+04         0.00000E+00
   -0.94715E+04        -0.97599E+08         0.00000E+00
    0.00000E+00         0.00000E+00        -0.59650E+08
 
   -0.59376E+08        -0.76197E+04         0.00000E+00
   -0.76197E+04        -0.97599E+08         0.00000E+00
    0.00000E+00         0.00000E+00        -0.59635E+08
 
   -0.59380E+08        -0.53560E+04         0.00000E+00
   -0.53560E+04        -0.97599E+08         0.00000E+00
    0.00000E+00         0.00000E+00        -0.59620E+08
 
   -0.59382E+08        -0.28682E+04         0.00000E+00
   -0.28682E+04        -0.97599E+08         0.00000E+00
    0.00000E+00         0.00000E+00        -0.59604E+08
 
   -0.59382E+08        -0.32552E+03         0.00000E+00
   -0.32552E+03        -0.97599E+08         0.00000E+00
    0.00000E+00         0.00000E+00        -0.59588E+08
 
   -0.59379E+08         0.21925E+04         0.00000E+00
    0.21925E+04        -0.97599E+08         0.00000E+00
    0.00000E+00         0.00000E+00        -0.59570E+08
 
   -0.59374E+08         0.46215E+04         0.00000E+00
    0.46215E+04        -0.97599E+08         0.00000E+00
    0.00000E+00         0.00000E+00        -0.59552E+08
 
   -0.59367E+08         0.69218E+04         0.00000E+00
    0.69218E+04        -0.97599E+08         0.00000E+00
    0.00000E+00         0.00000E+00        -0.59533E+08
 
   -0.59357E+08         0.90696E+04         0.00000E+00
    0.90696E+04        -0.97599E+08         0.00000E+00
    0.00000E+00         0.00000E+00        -0.59514E+08
 
   -0.59346E+08         0.11055E+05         0.00000E+00
    0.11055E+05        -0.97599E+08         0.00000E+00
    0.00000E+00         0.00000E+00        -0.59493E+08
 
   -0.59332E+08         0.12879E+05         0.00000E+00
    0.12879E+05        -0.97599E+08         0.00000E+00
    0.00000E+00         0.00000E+00        -0.59472E+08
 
   -0.59316E+08         0.14548E+05         0.00000E+00
    0.14548E+05        -0.97599E+08         0.00000E+00
    0.00000E+00         0.00000E+00        -0.59450E+08
 
   -0.59299E+08         0.16074E+05         0.00000E+00
    0.16074E+05        -0.97599E+08         0.00000E+00
    0.00000E+00         0.00000E+00        -0.59427E+08
 
   -0.59281E+08         0.17473E+05         0.00000E+00
    0.17473E+05        -0.97599E+08         0.00000E+00
    0.00000E+00         0.00000E+00        -0.59403E+08
 
   -0.59260E+08         0.18759E+05         0.00000E+00
    0.18759E+05        -0.97599E+08         0.00000E+00
    0.00000E+00         0.00000E+00        -0.59379E+08
 
   -0.59239E+08         0.19947E+05         0.00000E+00
    0.19947E+05        -0.97599E+08         0.00000E+00
    0.00000E+00         0.00000E+00        -0.59354E+08
 
   -0.59216E+08         0.21051E+05         0.00000E+00
    0.21051E+05        -0.97599E+08         0.00000E+00
    0.00000E+00         0.00000E+00        -0.59329E+08
 
   -0.59192E+08         0.22086E+05         0.00000E+00
    0.22086E+05        -0.97600E+08         0.00000E+00
    0.00000E+00         0.00000E+00        -0.59303E+08
 
   -0.59167E+08         0.23061E+05         0.00000E+00
    0.23061E+05        -0.97600E+08         0.00000E+00
    0.00000E+00         0.00000E+00        -0.59276E+08
 
   -0.59141E+08         0.23988E+05         0.00000E+00
    0.23988E+05        -0.97600E+08         0.00000E+00
    0.00000E+00         0.00000E+00        -0.59249E+08
 
   -0.59114E+08         0.24875E+05         0.00000E+00
    0.24875E+05        -0.97600E+08         0.00000E+00
    0.00000E+00         0.00000E+00        -0.59221E+08
 
   -0.59086E+08         0.25728E+05         0.00000E+00
    0.25728E+05        -0.97600E+08         0.00000E+00
    0.00000E+00         0.00000E+00        -0.59192E+08
 
   -0.59057E+08         0.26555E+05         0.00000E+00
    0.26555E+05        -0.97600E+08         0.00000E+00
    0.00000E+00         0.00000E+00        -0.59163E+08
 
   -0.59027E+08         0.27361E+05         0.00000E+00
    0.27361E+05        -0.97600E+08         0.00000E+00
    0.00000E+00         0.00000E+00        -0.59133E+08
 
   -0.58997E+08         0.28149E+05         0.00000E+00
    0.28149E+05        -0.97600E+08         0.00000E+00
    0.00000E+00         0.00000E+00        -0.59102E+08
 
   -0.58965E+08         0.28923E+05         0.00000E+00
    0.28923E+05        -0.97600E+08         0.00000E+00
    0.00000E+00         0.00000E+00        -0.59071E+08
 
   -0.58933E+08         0.29687E+05         0.00000E+00
    0.29687E+05        -0.97600E+08         0.00000E+00
    0.00000E+00         0.00000E+00        -0.59039E+08
 
   -0.58899E+08         0.30442E+05         0.00000E+00
    0.30442E+05        -0.97600E+08         0.00000E+00
    0.00000E+00         0.00000E+00        -0.59007E+08
 
   -0.58865E+08         0.31191E+05         0.00000E+00
    0.31191E+05        -0.97600E+08         0.00000E+00
    0.00000E+00         0.00000E+00        -0.58973E+08
 
   -0.58830E+08         0.31935E+05         0.00000E+00
    0.31935E+05        -0.97600E+08         0.00000E+00
    0.00000E+00         0.00000E+00        -0.58939E+08
 
   -0.58795E+08         0.32675E+05         0.00000E+00
    0.32675E+05        -0.97600E+08         0.00000E+00
    0.00000E+00         0.00000E+00        -0.58904E+08
 
   -0.58758E+08         0.33413E+05         0.00000E+00
    0.33413E+05        -0.97600E+08         0.00000E+00
    0.00000E+00         0.00000E+00        -0.58869E+08
 
   -0.58721E+08         0.34150E+05         0.00000E+00
    0.34150E+05        -0.97600E+08         0.00000E+00
    0.00000E+00         0.00000E+00        -0.58833E+08
 
   -0.58682E+08         0.34886E+05         0.00000E+00
    0.34886E+05        -0.97600E+08         0.00000E+00
    0.00000E+00         0.00000E+00        -0.58796E+08
 
   -0.58643E+08         0.35621E+05         0.00000E+00
    0.35621E+05        -0.97600E+08         0.00000E+00
    0.00000E+00         0.00000E+00        -0.58758E+08
 
   -0.58603E+08         0.36356E+05         0.00000E+00
    0.36356E+05        -0.97600E+08         0.00000E+00
    0.00000E+00         0.00000E+00        -0.58719E+08
 
   -0.58563E+08         0.37092E+05         0.00000E+00
    0.37092E+05        -0.97600E+08         0.00000E+00
    0.00000E+00         0.00000E+00        -0.58679E+08
 
   -0.58521E+08         0.37827E+05         0.00000E+00
    0.37827E+05        -0.97600E+08         0.00000E+00
    0.00000E+00         0.00000E+00        -0.58639E+08
 
   -0.58479E+08         0.38563E+05         0.00000E+00
    0.38563E+05        -0.97600E+08         0.00000E+00
    0.00000E+00         0.00000E+00        -0.58598E+08
 
   -0.58436E+08         0.39298E+05         0.00000E+00
    0.39298E+05        -0.97600E+08         0.00000E+00
    0.00000E+00         0.00000E+00        -0.58556E+08
 
   -0.58392E+08         0.40033E+05         0.00000E+00
    0.40033E+05        -0.97600E+08         0.00000E+00
    0.00000E+00         0.00000E+00        -0.58513E+08
 
   -0.58347E+08         0.40767E+05         0.00000E+00
    0.40767E+05        -0.97600E+08         0.00000E+00
    0.00000E+00         0.00000E+00        -0.58469E+08
 
   -0.58301E+08         0.41499E+05         0.00000E+00
    0.41499E+05        -0.97600E+08         0.00000E+00
    0.00000E+00         0.00000E+00        -0.58424E+08
 
   -0.58255E+08         0.42229E+05         0.00000E+00
    0.42229E+05        -0.97600E+08         0.00000E+00
    0.00000E+00         0.00000E+00        -0.58379E+08
 
   -0.58208E+08         0.42957E+05         0.00000E+00
    0.42957E+05        -0.97600E+08         0.00000E+00
    0.00000E+00         0.00000E+00        -0.58332E+08
 
   -0.58160E+08         0.43680E+05         0.00000E+00
    0.43680E+05        -0.97600E+08         0.00000E+00
    0.00000E+00         0.00000E+00        -0.58285E+08
 
   -0.58111E+08         0.44398E+05         0.00000E+00
    0.44398E+05        -0.97600E+08         0.00000E+00
    0.00000E+00         0.00000E+00        -0.58236E+08
 
   -0.58061E+08         0.45110E+05         0.00000E+00
    0.45110E+05        -0.97600E+08         0.00000E+00
    0.00000E+00         0.00000E+00        -0.58187E+08
 
   -0.58011E+08         0.45815E+05         0.00000E+00
    0.45815E+05        -0.97600E+08         0.00000E+00
    0.00000E+00         0.00000E+00        -0.58137E+08
 
   -0.57959E+08         0.46511E+05         0.00000E+00
    0.46511E+05        -0.97600E+08         0.00000E+00
    0.00000E+00         0.00000E+00        -0.58085E+08
 
   -0.57907E+08         0.47196E+05         0.00000E+00
    0.47196E+05        -0.97600E+08         0.00000E+00
    0.00000E+00         0.00000E+00        -0.58033E+08
 
   -0.57855E+08         0.47869E+05         0.00000E+00
    0.47869E+05        -0.97600E+08         0.00000E+00
    0.00000E+00         0.00000E+00        -0.57980E+08
 
   -0.57801E+08         0.48528E+05         0.00000E+00
    0.48528E+05        -0.97600E+08         0.00000E+00
    0.00000E+00         0.00000E+00        -0.57925E+08
 
   -0.57747E+08         0.49170E+05         0.00000E+00
    0.49170E+05        -0.97600E+08         0.00000E+00
    0.00000E+00         0.00000E+00        -0.57870E+08
 
   -0.57692E+08         0.49795E+05         0.00000E+00
    0.49795E+05        -0.97600E+08         0.00000E+00
    0.00000E+00         0.00000E+00        -0.57814E+08
 
   -0.57636E+08         0.50398E+05         0.00000E+00
    0.50398E+05        -0.97600E+08         0.00000E+00
    0.00000E+00         0.00000E+00        -0.57757E+08
 
   -0.57580E+08         0.50978E+05         0.00000E+00
    0.50978E+05        -0.97600E+08         0.00000E+00
    0.00000E+00         0.00000E+00        -0.57699E+08
 
   -0.57523E+08         0.51532E+05         0.00000E+00
    0.51532E+05        -0.97600E+08         0.00000E+00
    0.00000E+00         0.00000E+00        -0.57639E+08
 
   -0.57465E+08         0.52057E+05         0.00000E+00
    0.52057E+05        -0.97600E+08         0.00000E+00
    0.00000E+00         0.00000E+00        -0.57579E+08
 
   -0.57407E+08         0.52549E+05         0.00000E+00
    0.52549E+05        -0.97600E+08         0.00000E+00
    0.00000E+00         0.00000E+00        -0.57518E+08
 
   -0.57349E+08         0.53006E+05         0.00000E+00
    0.53006E+05        -0.97600E+08         0.00000E+00
    0.00000E+00         0.00000E+00        -0.57456E+08
 
   -0.57289E+08         0.53423E+05         0.00000E+00
    0.53423E+05        -0.97600E+08         0.00000E+00
    0.00000E+00         0.00000E+00        -0.57393E+08
 
   -0.57230E+08         0.53796E+05         0.00000E+00
    0.53796E+05        -0.97600E+08         0.00000E+00
    0.00000E+00         0.00000E+00        -0.57329E+08
 
   -0.57170E+08         0.54122E+05         0.00000E+00
    0.54122E+05        -0.97600E+08         0.00000E+00
    0.00000E+00         0.00000E+00        -0.57264E+08
 
   -0.57109E+08         0.54394E+05         0.00000E+00
    0.54394E+05        -0.97600E+08         0.00000E+00
    0.00000E+00         0.00000E+00        -0.57198E+08
 
   -0.57049E+08         0.54609E+05         0.00000E+00
    0.54609E+05        -0.97600E+08         0.00000E+00
    0.00000E+00         0.00000E+00        -0.57132E+08
 
   -0.56988E+08         0.54760E+05         0.00000E+00
    0.54760E+05        -0.97600E+08         0.00000E+00
    0.00000E+00         0.00000E+00        -0.57064E+08
 
   -0.56927E+08         0.54841E+05         0.00000E+00
    0.54841E+05        -0.97600E+08         0.00000E+00
    0.00000E+00         0.00000E+00        -0.56996E+08
 
   -0.56866E+08         0.54845E+05         0.00000E+00
    0.54845E+05        -0.97600E+08         0.00000E+00
    0.00000E+00         0.00000E+00        -0.56927E+08
 
   -0.56804E+08         0.54762E+05         0.00000E+00
    0.54762E+05        -0.97600E+08         0.00000E+00
    0.00000E+00         0.00000E+00        -0.56857E+08
 
   -0.56743E+08         0.54585E+05         0.00000E+00
    0.54585E+05        -0.97600E+08         0.00000E+00
    0.00000E+00         0.00000E+00        -0.56786E+08
 
   -0.56683E+08         0.54301E+05         0.00000E+00
    0.54301E+05        -0.97600E+08         0.00000E+00
    0.00000E+00         0.00000E+00        -0.56715E+08
 
   -0.56622E+08         0.53899E+05         0.00000E+00
    0.53899E+05        -0.97600E+08         0.00000E+00
    0.00000E+00         0.00000E+00        -0.56643E+08
 
   -0.56563E+08         0.53363E+05         0.00000E+00
    0.53363E+05        -0.97600E+08         0.00000E+00
    0.00000E+00         0.00000E+00        -0.56571E+08
 
   -0.56503E+08         0.52676E+05         0.00000E+00
    0.52676E+05        -0.97600E+08         0.00000E+00
    0.00000E+00         0.00000E+00        -0.56498E+08
 
   -0.56445E+08         0.51817E+05         0.00000E+00
    0.51817E+05        -0.97600E+08         0.00000E+00
    0.00000E+00         0.00000E+00        -0.56424E+08
 
   -0.56388E+08         0.50762E+05         0.00000E+00
    0.50762E+05        -0.97600E+08         0.00000E+00
    0.00000E+00         0.00000E+00        -0.56350E+08
 
   -0.56331E+08         0.49482E+05         0.00000E+00
    0.49482E+05        -0.97601E+08         0.00000E+00
    0.00000E+00         0.00000E+00        -0.56276E+08
 
   -0.56277E+08         0.47944E+05         0.00000E+00
    0.47944E+05        -0.97601E+08         0.00000E+00
    0.00000E+00         0.00000E+00        -0.56202E+08
 
   -0.56224E+08         0.46110E+05         0.00000E+00
    0.46110E+05        -0.97601E+08         0.00000E+00
    0.00000E+00         0.00000E+00        -0.56128E+08
 
   -0.56173E+08         0.43935E+05         0.00000E+00
    0.43935E+05        -0.97601E+08         0.00000E+00
    0.00000E+00         0.00000E+00        -0.56053E+08
 
   -0.56125E+08         0.41370E+05         0.00000E+00
    0.41370E+05        -0.97601E+08         0.00000E+00
    0.00000E+00         0.00000E+00        -0.55979E+08
 
   -0.56080E+08         0.38362E+05         0.00000E+00
    0.38362E+05        -0.97601E+08         0.00000E+00
    0.00000E+00         0.00000E+00        -0.55906E+08
 
   -0.56038E+08         0.34854E+05         0.00000E+00
    0.34854E+05        -0.97602E+08         0.00000E+00
    0.00000E+00         0.00000E+00        -0.55832E+08
 
   -0.56000E+08         0.30790E+05         0.00000E+00
    0.30790E+05        -0.97602E+08         0.00000E+00
    0.00000E+00         0.00000E+00        -0.55760E+08
 
   -0.55967E+08         0.26117E+05         0.00000E+00
    0.26117E+05        -0.97602E+08         0.00000E+00
    0.00000E+00         0.00000E+00        -0.55688E+08
 
   -0.55939E+08         0.20796E+05         0.00000E+00
    0.20796E+05        -0.97603E+08         0.00000E+00
    0.00000E+00         0.00000E+00        -0.55618E+08
 
   -0.55916E+08         0.14803E+05         0.00000E+00
    0.14803E+05        -0.97603E+08         0.00000E+00
    0.00000E+00         0.00000E+00        -0.55548E+08
 
   -0.55900E+08         0.81474E+04         0.00000E+00
    0.81474E+04        -0.97603E+08         0.00000E+00
    0.00000E+00         0.00000E+00        -0.55480E+08
 
   -0.55890E+08         0.87718E+03         0.00000E+00
    0.87718E+03        -0.97603E+08         0.00000E+00
    0.00000E+00         0.00000E+00        -0.55414E+08
 
   -0.55888E+08        -0.69016E+04         0.00000E+00
   -0.69016E+04        -0.97604E+08         0.00000E+00
    0.00000E+00         0.00000E+00        -0.55350E+08
 
   -0.55894E+08        -0.15019E+05         0.00000E+00
   -0.15019E+05        -0.97604E+08         0.00000E+00
    0.00000E+00         0.00000E+00        -0.55288E+08
 
   -0.55906E+08        -0.23205E+05         0.00000E+00
   -0.23205E+05        -0.97604E+08         0.00000E+00
    0.00000E+00         0.00000E+00        -0.55228E+08
 
   -0.55926E+08        -0.31130E+05         0.00000E+00
   -0.31130E+05        -0.97604E+08         0.00000E+00
    0.00000E+00         0.00000E+00        -0.55169E+08
 
   -0.55951E+08        -0.38106E+05         0.00000E+00
   -0.38106E+05        -0.97603E+08         0.00000E+00
    0.00000E+00         0.00000E+00        -0.55112E+08
 
   -0.55980E+08        -0.43371E+05         0.00000E+00
   -0.43371E+05        -0.97603E+08         0.00000E+00
    0.00000E+00         0.00000E+00        -0.55056E+08
 
   -0.56003E+08        -0.43716E+05         0.00000E+00
   -0.43716E+05        -0.97602E+08         0.00000E+00
    0.00000E+00         0.00000E+00        -0.54998E+08
 
   -0.56011E+08        -0.22300E+05         0.00000E+00
   -0.22300E+05        -0.97584E+08         0.00000E+00
    0.00000E+00         0.00000E+00        -0.54931E+08
 
   -0.59351E+08        -0.54446E+04         0.00000E+00
   -0.54446E+04        -0.97602E+08         0.00000E+00
    0.00000E+00         0.00000E+00        -0.59677E+08
 
   -0.59354E+08        -0.92387E+04         0.00000E+00
   -0.92387E+04        -0.97599E+08         0.00000E+00
    0.00000E+00         0.00000E+00        -0.59661E+08
 
   -0.59361E+08        -0.81190E+04         0.00000E+00
   -0.81190E+04        -0.97599E+08         0.00000E+00
    0.00000E+00         0.00000E+00        -0.59647E+08
 
   -0.59368E+08        -0.65139E+04         0.00000E+00
   -0.65139E+04        -0.97599E+08         0.00000E+00
    0.00000E+00         0.00000E+00        -0.59633E+08
 
   -0.59374E+08        -0.46093E+04         0.00000E+00
   -0.46093E+04        -0.97599E+08         0.00000E+00
    0.00000E+00         0.00000E+00        -0.59618E+08
 
   -0.59377E+08        -0.25762E+04         0.00000E+00
   -0.25762E+04        -0.97599E+08         0.00000E+00
    0.00000E+00         0.00000E+00        -0.59603E+08
 
   -0.59378E+08        -0.52445E+03         0.00000E+00
   -0.52445E+03        -0.97599E+08         0.00000E+00
    0.00000E+00         0.00000E+00        -0.59587E+08
 
   -0.59376E+08         0.14951E+04         0.00000E+00
    0.14951E+04        -0.97599E+08         0.00000E+00
    0.00000E+00         0.00000E+00        -0.59570E+08
 
   -0.59371E+08         0.34332E+04         0.00000E+00
    0.34332E+04        -0.97599E+08         0.00000E+00
    0.00000E+00         0.00000E+00        -0.59552E+08
 
   -0.59364E+08         0.52627E+04         0.00000E+00
    0.52627E+04        -0.97599E+08         0.00000E+00
    0.00000E+00         0.00000E+00        -0.59533E+08
 
   -0.59355E+08         0.69658E+04         0.00000E+00
    0.69658E+04        -0.97599E+08         0.00000E+00
    0.00000E+00         0.00000E+00        -0.59513E+08
 
   -0.59343E+08         0.85362E+04         0.00000E+00
    0.85362E+04        -0.97599E+08         0.00000E+00
    0.00000E+00         0.00000E+00        -0.59493E+08
 
   -0.59330E+08         0.99752E+04         0.00000E+00
    0.99752E+04        -0.97600E+08         0.00000E+00
    0.00000E+00         0.00000E+00        -0.59471E+08
 
   -0.59315E+08         0.11289E+05         0.00000E+00
    0.11289E+05        -0.97600E+08         0.00000E+00
    0.00000E+00         0.00000E+00        -0.59449E+08
 
   -0.59298E+08         0.12489E+05         0.00000E+00
    0.12489E+05        -0.97600E+08         0.00000E+00
    0.00000E+00         0.00000E+00        -0.59426E+08
 
   -0.59279E+08         0.13586E+05         0.00000E+00
    0.13586E+05        -0.97600E+08         0.00000E+00
    0.00000E+00         0.00000E+00        -0.59403E+08
 
   -0.59259E+08         0.14593E+05         0.00000E+00
    0.14593E+05        -0.97600E+08         0.00000E+00
    0.00000E+00         0.00000E+00        -0.59379E+08
 
   -0.59237E+08         0.15522E+05         0.00000E+00
    0.15522E+05        -0.97600E+08         0.00000E+00
    0.00000E+00         0.00000E+00        -0.59354E+08
 
   -0.59215E+08         0.16385E+05         0.00000E+00
    0.16385E+05        -0.97600E+08         0.00000E+00
    0.00000E+00         0.00000E+00        -0.59329E+08
 
   -0.59191E+08         0.17192E+05         0.00000E+00
    0.17192E+05        -0.97600E+08         0.00000E+00
    0.00000E+00         0.00000E+00        -0.59302E+08
 
   -0.59166E+08         0.17952E+05         0.00000E+00
    0.17952E+05        -0.97600E+08         0.00000E+00
    0.00000E+00         0.00000E+00        -0.59276E+08
 
   -0.59140E+08         0.18674E+05         0.00000E+00
    0.18674E+05        -0.97600E+08         0.00000E+00
    0.00000E+00         0.00000E+00        -0.59248E+08
 
   -0.59112E+08         0.19365E+05         0.00000E+00
    0.19365E+05        -0.97600E+08         0.00000E+00
    0.00000E+00         0.00000E+00        -0.59220E+08
 
   -0.59084E+08         0.20029E+05         0.00000E+00
    0.20029E+05        -0.97600E+08         0.00000E+00
    0.00000E+00         0.00000E+00        -0.59192E+08
 
   -0.59055E+08         0.20673E+05         0.00000E+00
    0.20673E+05        -0.97600E+08         0.00000E+00
    0.00000E+00         0.00000E+00        -0.59162E+08
 
   -0.59026E+08         0.21299E+05         0.00000E+00
    0.21299E+05        -0.97600E+08         0.00000E+00
    0.00000E+00         0.00000E+00        -0.59133E+08
 
   -0.58995E+08         0.21912E+05         0.00000E+00
    0.21912E+05        -0.97600E+08         0.00000E+00
    0.00000E+00         0.00000E+00        -0.59102E+08
 
   -0.58963E+08         0.22515E+05         0.00000E+00
    0.22515E+05        -0.97600E+08         0.00000E+00
    0.00000E+00         0.00000E+00        -0.59071E+08
 
   -0.58931E+08         0.23109E+05         0.00000E+00
    0.23109E+05        -0.97600E+08         0.00000E+00
    0.00000E+00         0.00000E+00        -0.59039E+08
 
   -0.58897E+08         0.23696E+05         0.00000E+00
    0.23696E+05        -0.97600E+08         0.00000E+00
    0.00000E+00         0.00000E+00        -0.59006E+08
 
   -0.58863E+08         0.24279E+05         0.00000E+00
    0.24279E+05        -0.97600E+08         0.00000E+00
    0.00000E+00         0.00000E+00        -0.58973E+08
 
   -0.58828E+08         0.24857E+05         0.00000E+00
    0.24857E+05        -0.97600E+08         0.00000E+00
    0.00000E+00         0.00000E+00        -0.58939E+08
 
   -0.58792E+08         0.25433E+05         0.00000E+00
    0.25433E+05        -0.97600E+08         0.00000E+00
    0.00000E+00         0.00000E+00        -0.58904E+08
 
   -0.58756E+08         0.26007E+05         0.00000E+00
    0.26007E+05        -0.97600E+08         0.00000E+00
    0.00000E+00         0.00000E+00        -0.58868E+08
 
   -0.58718E+08         0.26580E+05         0.00000E+00
    0.26580E+05        -0.97600E+08         0.00000E+00
    0.00000E+00         0.00000E+00        -0.58832E+08
 
   -0.58680E+08         0.27152E+05         0.00000E+00
    0.27152E+05        -0.97600E+08         0.00000E+00
    0.00000E+00         0.00000E+00        -0.58795E+08
 
   -0.58641E+08         0.27724E+05         0.00000E+00
    0.27724E+05        -0.97600E+08         0.00000E+00
    0.00000E+00         0.00000E+00        -0.58757E+08
 
   -0.58601E+08         0.28296E+05         0.00000E+00
    0.28296E+05        -0.97600E+08         0.00000E+00
    0.00000E+00         0.00000E+00        -0.58718E+08
 
   -0.58560E+08         0.28867E+05         0.00000E+00
    0.28867E+05        -0.97600E+08         0.00000E+00
    0.00000E+00         0.00000E+00        -0.58679E+08
 
   -0.58519E+08         0.29439E+05         0.00000E+00
    0.29439E+05        -0.97600E+08         0.00000E+00
    0.00000E+00         0.00000E+00        -0.58638E+08
 
   -0.58476E+08         0.30011E+05         0.00000E+00
    0.30011E+05        -0.97600E+08         0.00000E+00
    0.00000E+00         0.00000E+00        -0.58597E+08
 
   -0.58433E+08         0.30582E+05         0.00000E+00
    0.30582E+05        -0.97600E+08         0.00000E+00
    0.00000E+00         0.00000E+00        -0.58555E+08
 
   -0.58389E+08         0.31153E+05         0.00000E+00
    0.31153E+05        -0.97600E+08         0.00000E+00
    0.00000E+00         0.00000E+00        -0.58512E+08
 
   -0.58344E+08         0.31723E+05         0.00000E+00
    0.31723E+05        -0.97600E+08         0.00000E+00
    0.00000E+00         0.00000E+00        -0.58468E+08
 
   -0.58299E+08         0.32292E+05         0.00000E+00
    0.32292E+05        -0.97600E+08         0.00000E+00
    0.00000E+00         0.00000E+00        -0.58424E+08
 
   -0.58252E+08         0.32860E+05         0.00000E+00
    0.32860E+05        -0.97600E+08         0.00000E+00
    0.00000E+00         0.00000E+00        -0.58378E+08
 
   -0.58205E+08         0.33425E+05         0.00000E+00
    0.33425E+05        -0.97600E+08         0.00000E+00
    0.00000E+00         0.00000E+00        -0.58331E+08
 
   -0.58157E+08         0.33986E+05         0.00000E+00
    0.33986E+05        -0.97600E+08         0.00000E+00
    0.00000E+00         0.00000E+00        -0.58284E+08
 
   -0.58108E+08         0.34544E+05         0.00000E+00
    0.34544E+05        -0.97600E+08         0.00000E+00
    0.00000E+00         0.00000E+00        -0.58235E+08
 
   -0.58058E+08         0.35097E+05         0.00000E+00
    0.35097E+05        -0.97600E+08         0.00000E+00
    0.00000E+00         0.00000E+00        -0.58186E+08
 
   -0.58008E+08         0.35644E+05         0.00000E+00
    0.35644E+05        -0.97600E+08         0.00000E+00
    0.00000E+00         0.00000E+00        -0.58136E+08
 
   -0.57956E+08         0.36184E+05         0.00000E+00
    0.36184E+05        -0.97600E+08         0.00000E+00
    0.00000E+00         0.00000E+00        -0.58084E+08
 
   -0.57904E+08         0.36716E+05         0.00000E+00
    0.36716E+05        -0.97600E+08         0.00000E+00
    0.00000E+00         0.00000E+00        -0.58032E+08
 
   -0.57852E+08         0.37238E+05         0.00000E+00
    0.37238E+05        -0.97600E+08         0.00000E+00
    0.00000E+00         0.00000E+00        -0.57979E+08
 
   -0.57798E+08         0.37749E+05         0.00000E+00
    0.37749E+05        -0.97600E+08         0.00000E+00
    0.00000E+00         0.00000E+00        -0.57925E+08
 
   -0.57744E+08         0.38248E+05         0.00000E+00
    0.38248E+05        -0.97600E+08         0.00000E+00
    0.00000E+00         0.00000E+00        -0.57869E+08
 
   -0.57689E+08         0.38732E+05         0.00000E+00
    0.38732E+05        -0.97600E+08         0.00000E+00
    0.00000E+00         0.00000E+00        -0.57813E+08
 
   -0.57633E+08         0.39199E+05         0.00000E+00
    0.39199E+05        -0.97600E+08         0.00000E+00
    0.00000E+00         0.00000E+00        -0.57756E+08
 
   -0.57577E+08         0.39649E+05         0.00000E+00
    0.39649E+05        -0.97600E+08         0.00000E+00
    0.00000E+00         0.00000E+00        -0.57698E+08
 
   -0.57520E+08         0.40078E+05         0.00000E+00
    0.40078E+05        -0.97600E+08         0.00000E+00
    0.00000E+00         0.00000E+00        -0.57639E+08
 
   -0.57462E+08         0.40484E+05         0.00000E+00
    0.40484E+05        -0.97600E+08         0.00000E+00
    0.00000E+00         0.00000E+00        -0.57578E+08
 
   -0.57404E+08         0.40865E+05         0.00000E+00
    0.40865E+05        -0.97600E+08         0.00000E+00
    0.00000E+00         0.00000E+00        -0.57517E+08
 
   -0.57346E+08         0.41218E+05         0.00000E+00
    0.41218E+05        -0.97600E+08         0.00000E+00
    0.00000E+00         0.00000E+00        -0.57455E+08
 
   -0.57286E+08         0.41540E+05         0.00000E+00
    0.41540E+05        -0.97600E+08         0.00000E+00
    0.00000E+00         0.00000E+00        -0.57392E+08
 
   -0.57227E+08         0.41829E+05         0.00000E+00
    0.41829E+05        -0.97600E+08         0.00000E+00
    0.00000E+00         0.00000E+00        -0.57328E+08
 
   -0.57167E+08         0.42080E+05         0.00000E+00
    0.42080E+05        -0.97600E+08         0.00000E+00
    0.00000E+00         0.00000E+00        -0.57263E+08
 
   -0.57106E+08         0.42290E+05         0.00000E+00
    0.42290E+05        -0.97600E+08         0.00000E+00
    0.00000E+00         0.00000E+00        -0.57198E+08
 
   -0.57046E+08         0.42454E+05         0.00000E+00
    0.42454E+05        -0.97600E+08         0.00000E+00
    0.00000E+00         0.00000E+00        -0.57131E+08
 
   -0.56985E+08         0.42569E+05         0.00000E+00
    0.42569E+05        -0.97600E+08         0.00000E+00
    0.00000E+00         0.00000E+00        -0.57063E+08
 
   -0.56924E+08         0.42630E+05         0.00000E+00
    0.42630E+05        -0.97600E+08         0.00000E+00
    0.00000E+00         0.00000E+00        -0.56995E+08
 
   -0.56863E+08         0.42630E+05         0.00000E+00
    0.42630E+05        -0.97600E+08         0.00000E+00
    0.00000E+00         0.00000E+00        -0.56926E+08
 
   -0.56802E+08         0.42563E+05         0.00000E+00
    0.42563E+05        -0.97600E+08         0.00000E+00
    0.00000E+00         0.00000E+00        -0.56856E+08
 
   -0.56741E+08         0.42422E+05         0.00000E+00
    0.42422E+05        -0.97600E+08         0.00000E+00
    0.00000E+00         0.00000E+00        -0.56786E+08
 
   -0.56680E+08         0.42199E+05         0.00000E+00
    0.42199E+05        -0.97600E+08         0.00000E+00
    0.00000E+00         0.00000E+00        -0.56714E+08
 
   -0.56620E+08         0.41883E+05         0.00000E+00
    0.41883E+05        -0.97600E+08         0.00000E+00
    0.00000E+00         0.00000E+00        -0.56642E+08
 
   -0.56560E+08         0.41463E+05         0.00000E+00
    0.41463E+05        -0.97600E+08         0.00000E+00
    0.00000E+00         0.00000E+00        -0.56570E+08
 
   -0.56501E+08         0.40925E+05         0.00000E+00
    0.40925E+05        -0.97600E+08         0.00000E+00
    0.00000E+00         0.00000E+00        -0.56497E+08
 
   -0.56443E+08         0.40252E+05         0.00000E+00
    0.40252E+05        -0.97600E+08         0.00000E+00
    0.00000E+00         0.00000E+00        -0.56424E+08
 
   -0.56386E+08         0.39427E+05         0.00000E+00
    0.39427E+05        -0.97600E+08         0.00000E+00
    0.00000E+00         0.00000E+00        -0.56350E+08
 
   -0.56330E+08         0.38425E+05         0.00000E+00
    0.38425E+05        -0.97600E+08         0.00000E+00
    0.00000E+00         0.00000E+00        -0.56276E+08
 
   -0.56276E+08         0.37220E+05         0.00000E+00
    0.37220E+05        -0.97600E+08         0.00000E+00
    0.00000E+00         0.00000E+00        -0.56202E+08
 
   -0.56223E+08         0.35781E+05         0.00000E+00
    0.35781E+05        -0.97600E+08         0.00000E+00
    0.00000E+00         0.00000E+00        -0.56127E+08
 
   -0.56173E+08         0.34073E+05         0.00000E+00
    0.34073E+05        -0.97601E+08         0.00000E+00
    0.00000E+00         0.00000E+00        -0.56053E+08
 
   -0.56125E+08         0.32057E+05         0.00000E+00
    0.32057E+05        -0.97601E+08         0.00000E+00
    0.00000E+00         0.00000E+00        -0.55979E+08
 
   -0.56080E+08         0.29689E+05         0.00000E+00
    0.29689E+05        -0.97601E+08         0.00000E+00
    0.00000E+00         0.00000E+00        -0.55905E+08
 
   -0.56039E+08         0.26923E+05         0.00000E+00
    0.26923E+05        -0.97601E+08         0.00000E+00
    0.00000E+00         0.00000E+00        -0.55832E+08
 
   -0.56002E+08         0.23712E+05         0.00000E+00
    0.23712E+05        -0.97601E+08         0.00000E+00
    0.00000E+00         0.00000E+00        -0.55760E+08
 
   -0.55969E+08         0.20014E+05         0.00000E+00
    0.20014E+05        -0.97601E+08         0.00000E+00
    0.00000E+00         0.00000E+00        -0.55688E+08
 
   -0.55942E+08         0.15793E+05         0.00000E+00
    0.15793E+05        -0.97601E+08         0.00000E+00
    0.00000E+00         0.00000E+00        -0.55618E+08
 
   -0.55920E+08         0.11029E+05         0.00000E+00
    0.11029E+05        -0.97602E+08         0.00000E+00
    0.00000E+00         0.00000E+00        -0.55549E+08
 
   -0.55906E+08         0.57236E+04         0.00000E+00
    0.57236E+04        -0.97602E+08         0.00000E+00
    0.00000E+00         0.00000E+00        -0.55482E+08
 
   -0.55898E+08        -0.89448E+02         0.00000E+00
   -0.89448E+02        -0.97602E+08         0.00000E+00
    0.00000E+00         0.00000E+00        -0.55416E+08
 
   -0.55898E+08        -0.63308E+04         0.00000E+00
   -0.63308E+04        -0.97602E+08         0.00000E+00
    0.00000E+00         0.00000E+00        -0.55353E+08
 
   -0.55906E+08        -0.12883E+05         0.00000E+00
   -0.12883E+05        -0.97602E+08         0.00000E+00
    0.00000E+00         0.00000E+00        -0.55291E+08
 
   -0.55923E+08        -0.19538E+05         0.00000E+00
   -0.19538E+05        -0.97602E+08         0.00000E+00
    0.00000E+00         0.00000E+00        -0.55232E+08
 
   -0.55947E+08        -0.26084E+05         0.00000E+00
   -0.26084E+05        -0.97602E+08         0.00000E+00
    0.00000E+00         0.00000E+00        -0.55175E+08
 
   -0.55977E+08        -0.32070E+05         0.00000E+00
   -0.32070E+05        -0.97602E+08         0.00000E+00
    0.00000E+00         0.00000E+00        -0.55120E+08
 
   -0.56012E+08        -0.36806E+05         0.00000E+00
   -0.36806E+05        -0.97602E+08         0.00000E+00
    0.00000E+00         0.00000E+00        -0.55066E+08
 
   -0.56046E+08        -0.39539E+05         0.00000E+00
   -0.39539E+05        -0.97603E+08         0.00000E+00
    0.00000E+00         0.00000E+00        -0.55011E+08
 
   -0.56061E+08        -0.22619E+05         0.00000E+00
   -0.22619E+05        -0.97592E+08         0.00000E+00
    0.00000E+00         0.00000E+00        -0.54948E+08
 
   -0.59337E+08        -0.54715E+04         0.00000E+00
   -0.54715E+04        -0.97600E+08         0.00000E+00
    0.00000E+00         0.00000E+00        -0.59673E+08
 
   -0.59343E+08        -0.77447E+04         0.00000E+00
   -0.77447E+04        -0.97599E+08         0.00000E+00
    0.00000E+00         0.00000E+00        -0.59658E+08
 
   -0.59353E+08        -0.63496E+04         0.00000E+00
   -0.63496E+04        -0.97600E+08         0.00000E+00
    0.00000E+00         0.00000E+00        -0.59645E+08
 
   -0.59361E+08        -0.51245E+04         0.00000E+00
   -0.51245E+04        -0.97600E+08         0.00000E+00
    0.00000E+00         0.00000E+00        -0.59631E+08
 
   -0.59368E+08        -0.36247E+04         0.00000E+00
   -0.36247E+04        -0.97600E+08         0.00000E+00
    0.00000E+00         0.00000E+00        -0.59617E+08
 
   -0.59372E+08        -0.21055E+04         0.00000E+00
   -0.21055E+04        -0.97600E+08         0.00000E+00
    0.00000E+00         0.00000E+00        -0.59602E+08
 
   -0.59374E+08        -0.57860E+03         0.00000E+00
   -0.57860E+03        -0.97600E+08         0.00000E+00
    0.00000E+00         0.00000E+00        -0.59586E+08
 
   -0.59372E+08         0.91023E+03         0.00000E+00
    0.91023E+03        -0.97600E+08         0.00000E+00
    0.00000E+00         0.00000E+00        -0.59569E+08
 
   -0.59368E+08         0.23327E+04         0.00000E+00
    0.23327E+04        -0.97600E+08         0.00000E+00
    0.00000E+00         0.00000E+00        -0.59551E+08
 
   -0.59362E+08         0.36704E+04         0.00000E+00
    0.36704E+04        -0.97600E+08         0.00000E+00
    0.00000E+00         0.00000E+00        -0.59532E+08
 
   -0.59353E+08         0.49117E+04         0.00000E+00
    0.49117E+04        -0.97600E+08         0.00000E+00
    0.00000E+00         0.00000E+00        -0.59513E+08
 
   -0.59342E+08         0.60533E+04         0.00000E+00
    0.60533E+04        -0.97600E+08         0.00000E+00
    0.00000E+00         0.00000E+00        -0.59492E+08
 
   -0.59328E+08         0.70965E+04         0.00000E+00
    0.70965E+04        -0.97600E+08         0.00000E+00
    0.00000E+00         0.00000E+00        -0.59471E+08
 
   -0.59313E+08         0.80471E+04         0.00000E+00
    0.80471E+04        -0.97600E+08         0.00000E+00
    0.00000E+00         0.00000E+00        -0.59449E+08
 
   -0.59296E+08         0.89130E+04         0.00000E+00
    0.89130E+04        -0.97600E+08         0.00000E+00
    0.00000E+00         0.00000E+00        -0.59426E+08
 
   -0.59277E+08         0.97032E+04         0.00000E+00
    0.97032E+04        -0.97600E+08         0.00000E+00
    0.00000E+00         0.00000E+00        -0.59403E+08
 
   -0.59257E+08         0.10427E+05         0.00000E+00
    0.10427E+05        -0.97600E+08         0.00000E+00
    0.00000E+00         0.00000E+00        -0.59378E+08
 
   -0.59236E+08         0.11094E+05         0.00000E+00
    0.11094E+05        -0.97600E+08         0.00000E+00
    0.00000E+00         0.00000E+00        -0.59354E+08
 
   -0.59213E+08         0.11713E+05         0.00000E+00
    0.11713E+05        -0.97600E+08         0.00000E+00
    0.00000E+00         0.00000E+00        -0.59328E+08
 
   -0.59189E+08         0.12291E+05         0.00000E+00
    0.12291E+05        -0.97600E+08         0.00000E+00
    0.00000E+00         0.00000E+00        -0.59302E+08
 
   -0.59164E+08         0.12836E+05         0.00000E+00
    0.12836E+05        -0.97600E+08         0.00000E+00
    0.00000E+00         0.00000E+00        -0.59275E+08
 
   -0.59138E+08         0.13352E+05         0.00000E+00
    0.13352E+05        -0.97600E+08         0.00000E+00
    0.00000E+00         0.00000E+00        -0.59248E+08
 
   -0.59111E+08         0.13846E+05         0.00000E+00
    0.13846E+05        -0.97600E+08         0.00000E+00
    0.00000E+00         0.00000E+00        -0.59220E+08
 
   -0.59083E+08         0.14321E+05         0.00000E+00
    0.14321E+05        -0.97600E+08         0.00000E+00
    0.00000E+00         0.00000E+00        -0.59191E+08
 
   -0.59054E+08         0.14781E+05         0.00000E+00
    0.14781E+05        -0.97600E+08         0.00000E+00
    0.00000E+00         0.00000E+00        -0.59162E+08
 
   -0.59024E+08         0.15229E+05         0.00000E+00
    0.15229E+05        -0.97600E+08         0.00000E+00
    0.00000E+00         0.00000E+00        -0.59132E+08
 
   -0.58993E+08         0.15667E+05         0.00000E+00
    0.15667E+05        -0.97600E+08         0.00000E+00
    0.00000E+00         0.00000E+00        -0.59101E+08
 
   -0.58961E+08         0.16097E+05         0.00000E+00
    0.16097E+05        -0.97600E+08         0.00000E+00
    0.00000E+00         0.00000E+00        -0.59070E+08
 
   -0.58929E+08         0.16521E+05         0.00000E+00
    0.16521E+05        -0.97600E+08         0.00000E+00
    0.00000E+00         0.00000E+00        -0.59038E+08
 
   -0.58895E+08         0.16941E+05         0.00000E+00
    0.16941E+05        -0.97600E+08         0.00000E+00
    0.00000E+00         0.00000E+00        -0.59006E+08
 
   -0.58861E+08         0.17357E+05         0.00000E+00
    0.17357E+05        -0.97600E+08         0.00000E+00
    0.00000E+00         0.00000E+00        -0.58972E+08
 
   -0.58826E+08         0.17770E+05         0.00000E+00
    0.17770E+05        -0.97600E+08         0.00000E+00
    0.00000E+00         0.00000E+00        -0.58938E+08
 
   -0.58790E+08         0.18181E+05         0.00000E+00
    0.18181E+05        -0.97600E+08         0.00000E+00
    0.00000E+00         0.00000E+00        -0.58903E+08
 
   -0.58753E+08         0.18591E+05         0.00000E+00
    0.18591E+05        -0.97600E+08         0.00000E+00
    0.00000E+00         0.00000E+00        -0.58868E+08
 
   -0.58716E+08         0.19000E+05         0.00000E+00
    0.19000E+05        -0.97600E+08         0.00000E+00
    0.00000E+00         0.00000E+00        -0.58831E+08
 
   -0.58678E+08         0.19409E+05         0.00000E+00
    0.19409E+05        -0.97600E+08         0.00000E+00
    0.00000E+00         0.00000E+00        -0.58794E+08
 
   -0.58638E+08         0.19817E+05         0.00000E+00
    0.19817E+05        -0.97600E+08         0.00000E+00
    0.00000E+00         0.00000E+00        -0.58756E+08
 
   -0.58598E+08         0.20225E+05         0.00000E+00
    0.20225E+05        -0.97600E+08         0.00000E+00
    0.00000E+00         0.00000E+00        -0.58718E+08
 
   -0.58558E+08         0.20633E+05         0.00000E+00
    0.20633E+05        -0.97600E+08         0.00000E+00
    0.00000E+00         0.00000E+00        -0.58678E+08
 
   -0.58516E+08         0.21041E+05         0.00000E+00
    0.21041E+05        -0.97600E+08         0.00000E+00
    0.00000E+00         0.00000E+00        -0.58638E+08
 
   -0.58474E+08         0.21449E+05         0.00000E+00
    0.21449E+05        -0.97600E+08         0.00000E+00
    0.00000E+00         0.00000E+00        -0.58596E+08
 
   -0.58430E+08         0.21857E+05         0.00000E+00
    0.21857E+05        -0.97600E+08         0.00000E+00
    0.00000E+00         0.00000E+00        -0.58554E+08
 
   -0.58386E+08         0.22265E+05         0.00000E+00
    0.22265E+05        -0.97600E+08         0.00000E+00
    0.00000E+00         0.00000E+00        -0.58511E+08
 
   -0.58341E+08         0.22672E+05         0.00000E+00
    0.22672E+05        -0.97600E+08         0.00000E+00
    0.00000E+00         0.00000E+00        -0.58468E+08
 
   -0.58296E+08         0.23078E+05         0.00000E+00
    0.23078E+05        -0.97600E+08         0.00000E+00
    0.00000E+00         0.00000E+00        -0.58423E+08
 
   -0.58249E+08         0.23483E+05         0.00000E+00
    0.23483E+05        -0.97600E+08         0.00000E+00
    0.00000E+00         0.00000E+00        -0.58377E+08
 
   -0.58202E+08         0.23885E+05         0.00000E+00
    0.23885E+05        -0.97600E+08         0.00000E+00
    0.00000E+00         0.00000E+00        -0.58331E+08
 
   -0.58154E+08         0.24286E+05         0.00000E+00
    0.24286E+05        -0.97600E+08         0.00000E+00
    0.00000E+00         0.00000E+00        -0.58283E+08
 
   -0.58105E+08         0.24684E+05         0.00000E+00
    0.24684E+05        -0.97600E+08         0.00000E+00
    0.00000E+00         0.00000E+00        -0.58235E+08
 
   -0.58055E+08         0.25078E+05         0.00000E+00
    0.25078E+05        -0.97600E+08         0.00000E+00
    0.00000E+00         0.00000E+00        -0.58185E+08
 
   -0.58005E+08         0.25468E+05         0.00000E+00
    0.25468E+05        -0.97600E+08         0.00000E+00
    0.00000E+00         0.00000E+00        -0.58135E+08
 
   -0.57953E+08         0.25853E+05         0.00000E+00
    0.25853E+05        -0.97600E+08         0.00000E+00
    0.00000E+00         0.00000E+00        -0.58084E+08
 
   -0.57901E+08         0.26232E+05         0.00000E+00
    0.26232E+05        -0.97600E+08         0.00000E+00
    0.00000E+00         0.00000E+00        -0.58031E+08
 
   -0.57849E+08         0.26604E+05         0.00000E+00
    0.26604E+05        -0.97600E+08         0.00000E+00
    0.00000E+00         0.00000E+00        -0.57978E+08
 
   -0.57795E+08         0.26968E+05         0.00000E+00
    0.26968E+05        -0.97600E+08         0.00000E+00
    0.00000E+00         0.00000E+00        -0.57924E+08
 
   -0.57741E+08         0.27323E+05         0.00000E+00
    0.27323E+05        -0.97600E+08         0.00000E+00
    0.00000E+00         0.00000E+00        -0.57868E+08
 
   -0.57686E+08         0.27668E+05         0.00000E+00
    0.27668E+05        -0.97600E+08         0.00000E+00
    0.00000E+00         0.00000E+00        -0.57812E+08
 
   -0.57630E+08         0.28001E+05         0.00000E+00
    0.28001E+05        -0.97600E+08         0.00000E+00
    0.00000E+00         0.00000E+00        -0.57755E+08
 
   -0.57574E+08         0.28321E+05         0.00000E+00
    0.28321E+05        -0.97600E+08         0.00000E+00
    0.00000E+00         0.00000E+00        -0.57697E+08
 
   -0.57517E+08         0.28626E+05         0.00000E+00
    0.28626E+05        -0.97600E+08         0.00000E+00
    0.00000E+00         0.00000E+00        -0.57638E+08
 
   -0.57459E+08         0.28914E+05         0.00000E+00
    0.28914E+05        -0.97600E+08         0.00000E+00
    0.00000E+00         0.00000E+00        -0.57577E+08
 
   -0.57401E+08         0.29185E+05         0.00000E+00
    0.29185E+05        -0.97600E+08         0.00000E+00
    0.00000E+00         0.00000E+00        -0.57516E+08
 
   -0.57343E+08         0.29436E+05         0.00000E+00
    0.29436E+05        -0.97600E+08         0.00000E+00
    0.00000E+00         0.00000E+00        -0.57454E+08
 
   -0.57283E+08         0.29665E+05         0.00000E+00
    0.29665E+05        -0.97600E+08         0.00000E+00
    0.00000E+00         0.00000E+00        -0.57391E+08
 
   -0.57224E+08         0.29869E+05         0.00000E+00
    0.29869E+05        -0.97600E+08         0.00000E+00
    0.00000E+00         0.00000E+00        -0.57327E+08
 
   -0.57164E+08         0.30047E+05         0.00000E+00
    0.30047E+05        -0.97600E+08         0.00000E+00
    0.00000E+00         0.00000E+00        -0.57263E+08
 
   -0.57104E+08         0.30195E+05         0.00000E+00
    0.30195E+05        -0.97600E+08         0.00000E+00
    0.00000E+00         0.00000E+00        -0.57197E+08
 
   -0.57043E+08         0.30311E+05         0.00000E+00
    0.30311E+05        -0.97600E+08         0.00000E+00
    0.00000E+00         0.00000E+00        -0.57130E+08
 
   -0.56982E+08         0.30391E+05         0.00000E+00
    0.30391E+05        -0.97600E+08         0.00000E+00
    0.00000E+00         0.00000E+00        -0.57063E+08
 
   -0.56921E+08         0.30432E+05         0.00000E+00
    0.30432E+05        -0.97600E+08         0.00000E+00
    0.00000E+00         0.00000E+00        -0.56994E+08
 
   -0.56860E+08         0.30431E+05         0.00000E+00
    0.30431E+05        -0.97600E+08         0.00000E+00
    0.00000E+00         0.00000E+00        -0.56925E+08
 
   -0.56799E+08         0.30381E+05         0.00000E+00
    0.30381E+05        -0.97600E+08         0.00000E+00
    0.00000E+00         0.00000E+00        -0.56855E+08
 
   -0.56739E+08         0.30279E+05         0.00000E+00
    0.30279E+05        -0.97600E+08         0.00000E+00
    0.00000E+00         0.00000E+00        -0.56785E+08
 
   -0.56678E+08         0.30117E+05         0.00000E+00
    0.30117E+05        -0.97600E+08         0.00000E+00
    0.00000E+00         0.00000E+00        -0.56714E+08
 
   -0.56618E+08         0.29890E+05         0.00000E+00
    0.29890E+05        -0.97600E+08         0.00000E+00
    0.00000E+00         0.00000E+00        -0.56642E+08
 
   -0.56558E+08         0.29588E+05         0.00000E+00
    0.29588E+05        -0.97600E+08         0.00000E+00
    0.00000E+00         0.00000E+00        -0.56569E+08
 
   -0.56499E+08         0.29201E+05         0.00000E+00
    0.29201E+05        -0.97600E+08         0.00000E+00
    0.00000E+00         0.00000E+00        -0.56496E+08
 
   -0.56441E+08         0.28718E+05         0.00000E+00
    0.28718E+05        -0.97600E+08         0.00000E+00
    0.00000E+00         0.00000E+00        -0.56423E+08
 
   -0.56384E+08         0.28124E+05         0.00000E+00
    0.28124E+05        -0.97600E+08         0.00000E+00
    0.00000E+00         0.00000E+00        -0.56349E+08
 
   -0.56329E+08         0.27404E+05         0.00000E+00
    0.27404E+05        -0.97600E+08         0.00000E+00
    0.00000E+00         0.00000E+00        -0.56275E+08
 
   -0.56274E+08         0.26537E+05         0.00000E+00
    0.26537E+05        -0.97600E+08         0.00000E+00
    0.00000E+00         0.00000E+00        -0.56201E+08
 
   -0.56222E+08         0.25501E+05         0.00000E+00
    0.25501E+05        -0.97600E+08         0.00000E+00
    0.00000E+00         0.00000E+00        -0.56127E+08
 
   -0.56172E+08         0.24270E+05         0.00000E+00
    0.24270E+05        -0.97600E+08         0.00000E+00
    0.00000E+00         0.00000E+00        -0.56053E+08
 
   -0.56124E+08         0.22815E+05         0.00000E+00
    0.22815E+05        -0.97600E+08         0.00000E+00
    0.00000E+00         0.00000E+00        -0.55979E+08
 
   -0.56080E+08         0.21103E+05         0.00000E+00
    0.21103E+05        -0.97600E+08         0.00000E+00
    0.00000E+00         0.00000E+00        -0.55905E+08
 
   -0.56039E+08         0.19099E+05         0.00000E+00
    0.19099E+05        -0.97600E+08         0.00000E+00
    0.00000E+00         0.00000E+00        -0.55832E+08
 
   -0.56002E+08         0.16769E+05         0.00000E+00
    0.16769E+05        -0.97601E+08         0.00000E+00
    0.00000E+00         0.00000E+00        -0.55760E+08
 
   -0.55971E+08         0.14080E+05         0.00000E+00
    0.14080E+05        -0.97601E+08         0.00000E+00
    0.00000E+00         0.00000E+00        -0.55689E+08
 
   -0.55944E+08         0.11003E+05         0.00000E+00
    0.11003E+05        -0.97601E+08         0.00000E+00
    0.00000E+00         0.00000E+00        -0.55619E+08
 
   -0.55924E+08         0.75218E+04         0.00000E+00
    0.75218E+04        -0.97601E+08         0.00000E+00
    0.00000E+00         0.00000E+00        -0.55550E+08
 
   -0.55911E+08         0.36344E+04         0.00000E+00
    0.36344E+04        -0.97601E+08         0.00000E+00
    0.00000E+00         0.00000E+00        -0.55483E+08
 
   -0.55905E+08        -0.63948E+03         0.00000E+00
   -0.63948E+03        -0.97601E+08         0.00000E+00
    0.00000E+00         0.00000E+00        -0.55418E+08
 
   -0.55907E+08        -0.52469E+04         0.00000E+00
   -0.52469E+04        -0.97601E+08         0.00000E+00
    0.00000E+00         0.00000E+00        -0.55355E+08
 
   -0.55919E+08        -0.10108E+05         0.00000E+00
   -0.10108E+05        -0.97601E+08         0.00000E+00
    0.00000E+00         0.00000E+00        -0.55295E+08
 
   -0.55938E+08        -0.15101E+05         0.00000E+00
   -0.15101E+05        -0.97601E+08         0.00000E+00
    0.00000E+00         0.00000E+00        -0.55237E+08
 
   -0.55967E+08        -0.20036E+05         0.00000E+00
   -0.20036E+05        -0.97601E+08         0.00000E+00
    0.00000E+00         0.00000E+00        -0.55181E+08
 
   -0.56003E+08        -0.24858E+05         0.00000E+00
   -0.24858E+05        -0.97601E+08         0.00000E+00
    0.00000E+00         0.00000E+00        -0.55127E+08
 
   -0.56045E+08        -0.28542E+05         0.00000E+00
   -0.28542E+05        -0.97601E+08         0.00000E+00
    0.00000E+00         0.00000E+00        -0.55075E+08
 
   -0.56090E+08        -0.32850E+05         0.00000E+00
   -0.32850E+05        -0.97602E+08         0.00000E+00
    0.00000E+00         0.00000E+00        -0.55024E+08
 
   -0.56116E+08        -0.22479E+05         0.00000E+00
   -0.22479E+05        -0.97600E+08         0.00000E+00
    0.00000E+00         0.00000E+00        -0.54967E+08
 
   -0.59321E+08        -0.52546E+04         0.00000E+00
   -0.52546E+04        -0.97598E+08         0.00000E+00
    0.00000E+00         0.00000E+00        -0.59667E+08
 
   -0.59331E+08        -0.53692E+04         0.00000E+00
   -0.53692E+04        -0.97600E+08         0.00000E+00
    0.00000E+00         0.00000E+00        -0.59655E+08
 
   -0.59344E+08        -0.42092E+04         0.00000E+00
   -0.42092E+04        -0.97600E+08         0.00000E+00
    0.00000E+00         0.00000E+00        -0.59642E+08
 
   -0.59354E+08        -0.34215E+04         0.00000E+00
   -0.34215E+04        -0.97600E+08         0.00000E+00
    0.00000E+00         0.00000E+00        -0.59629E+08
 
   -0.59363E+08        -0.24014E+04         0.00000E+00
   -0.24014E+04        -0.97600E+08         0.00000E+00
    0.00000E+00         0.00000E+00        -0.59615E+08
 
   -0.59368E+08        -0.14548E+04         0.00000E+00
   -0.14548E+04        -0.97600E+08         0.00000E+00
    0.00000E+00         0.00000E+00        -0.59600E+08
 
   -0.59370E+08        -0.48718E+03         0.00000E+00
   -0.48718E+03        -0.97600E+08         0.00000E+00
    0.00000E+00         0.00000E+00        -0.59585E+08
 
   -0.59369E+08         0.43571E+03         0.00000E+00
    0.43571E+03        -0.97600E+08         0.00000E+00
    0.00000E+00         0.00000E+00        -0.59568E+08
 
   -0.59366E+08         0.13182E+04         0.00000E+00
    0.13182E+04        -0.97600E+08         0.00000E+00
    0.00000E+00         0.00000E+00        -0.59550E+08
 
   -0.59360E+08         0.21420E+04         0.00000E+00
    0.21420E+04        -0.97600E+08         0.00000E+00
    0.00000E+00         0.00000E+00        -0.59532E+08
 
   -0.59351E+08         0.29047E+04         0.00000E+00
    0.29047E+04        -0.97600E+08         0.00000E+00
    0.00000E+00         0.00000E+00        -0.59512E+08
 
   -0.59340E+08         0.36034E+04         0.00000E+00
    0.36034E+04        -0.97600E+08         0.00000E+00
    0.00000E+00         0.00000E+00        -0.59492E+08
 
   -0.59327E+08         0.42402E+04         0.00000E+00
    0.42402E+04        -0.97600E+08         0.00000E+00
    0.00000E+00         0.00000E+00        -0.59470E+08
 
   -0.59312E+08         0.48187E+04         0.00000E+00
    0.48187E+04        -0.97600E+08         0.00000E+00
    0.00000E+00         0.00000E+00        -0.59448E+08
 
   -0.59295E+08         0.53443E+04         0.00000E+00
    0.53443E+04        -0.97600E+08         0.00000E+00
    0.00000E+00         0.00000E+00        -0.59426E+08
 
   -0.59276E+08         0.58230E+04         0.00000E+00
    0.58230E+04        -0.97600E+08         0.00000E+00
    0.00000E+00         0.00000E+00        -0.59402E+08
 
   -0.59256E+08         0.62607E+04         0.00000E+00
    0.62607E+04        -0.97600E+08         0.00000E+00
    0.00000E+00         0.00000E+00        -0.59378E+08
 
   -0.59234E+08         0.66632E+04         0.00000E+00
    0.66632E+04        -0.97600E+08         0.00000E+00
    0.00000E+00         0.00000E+00        -0.59353E+08
 
   -0.59211E+08         0.70361E+04         0.00000E+00
    0.70361E+04        -0.97600E+08         0.00000E+00
    0.00000E+00         0.00000E+00        -0.59328E+08
 
   -0.59188E+08         0.73840E+04         0.00000E+00
    0.73840E+04        -0.97600E+08         0.00000E+00
    0.00000E+00         0.00000E+00        -0.59302E+08
 
   -0.59162E+08         0.77113E+04         0.00000E+00
    0.77113E+04        -0.97600E+08         0.00000E+00
    0.00000E+00         0.00000E+00        -0.59275E+08
 
   -0.59136E+08         0.80217E+04         0.00000E+00
    0.80217E+04        -0.97600E+08         0.00000E+00
    0.00000E+00         0.00000E+00        -0.59247E+08
 
   -0.59109E+08         0.83181E+04         0.00000E+00
    0.83181E+04        -0.97600E+08         0.00000E+00
    0.00000E+00         0.00000E+00        -0.59219E+08
 
   -0.59081E+08         0.86032E+04         0.00000E+00
    0.86032E+04        -0.97600E+08         0.00000E+00
    0.00000E+00         0.00000E+00        -0.59191E+08
 
   -0.59052E+08         0.88792E+04         0.00000E+00
    0.88792E+04        -0.97600E+08         0.00000E+00
    0.00000E+00         0.00000E+00        -0.59161E+08
 
   -0.59022E+08         0.91479E+04         0.00000E+00
    0.91479E+04        -0.97600E+08         0.00000E+00
    0.00000E+00         0.00000E+00        -0.59132E+08
 
   -0.58991E+08         0.94107E+04         0.00000E+00
    0.94107E+04        -0.97600E+08         0.00000E+00
    0.00000E+00         0.00000E+00        -0.59101E+08
 
   -0.58959E+08         0.96689E+04         0.00000E+00
    0.96689E+04        -0.97600E+08         0.00000E+00
    0.00000E+00         0.00000E+00        -0.59070E+08
 
   -0.58927E+08         0.99234E+04         0.00000E+00
    0.99234E+04        -0.97600E+08         0.00000E+00
    0.00000E+00         0.00000E+00        -0.59038E+08
 
   -0.58893E+08         0.10175E+05         0.00000E+00
    0.10175E+05        -0.97600E+08         0.00000E+00
    0.00000E+00         0.00000E+00        -0.59005E+08
 
   -0.58859E+08         0.10425E+05         0.00000E+00
    0.10425E+05        -0.97600E+08         0.00000E+00
    0.00000E+00         0.00000E+00        -0.58972E+08
 
   -0.58824E+08         0.10673E+05         0.00000E+00
    0.10673E+05        -0.97600E+08         0.00000E+00
    0.00000E+00         0.00000E+00        -0.58937E+08
 
   -0.58788E+08         0.10919E+05         0.00000E+00
    0.10919E+05        -0.97600E+08         0.00000E+00
    0.00000E+00         0.00000E+00        -0.58903E+08
 
   -0.58751E+08         0.11165E+05         0.00000E+00
    0.11165E+05        -0.97600E+08         0.00000E+00
    0.00000E+00         0.00000E+00        -0.58867E+08
 
   -0.58714E+08         0.11411E+05         0.00000E+00
    0.11411E+05        -0.97600E+08         0.00000E+00
    0.00000E+00         0.00000E+00        -0.58831E+08
 
   -0.58675E+08         0.11656E+05         0.00000E+00
    0.11656E+05        -0.97600E+08         0.00000E+00
    0.00000E+00         0.00000E+00        -0.58794E+08
 
   -0.58636E+08         0.11900E+05         0.00000E+00
    0.11900E+05        -0.97600E+08         0.00000E+00
    0.00000E+00         0.00000E+00        -0.58756E+08
 
   -0.58596E+08         0.12145E+05         0.00000E+00
    0.12145E+05        -0.97600E+08         0.00000E+00
    0.00000E+00         0.00000E+00        -0.58717E+08
 
   -0.58555E+08         0.12390E+05         0.00000E+00
    0.12390E+05        -0.97600E+08         0.00000E+00
    0.00000E+00         0.00000E+00        -0.58677E+08
 
   -0.58514E+08         0.12635E+05         0.00000E+00
    0.12635E+05        -0.97600E+08         0.00000E+00
    0.00000E+00         0.00000E+00        -0.58637E+08
 
   -0.58471E+08         0.12879E+05         0.00000E+00
    0.12879E+05        -0.97600E+08         0.00000E+00
    0.00000E+00         0.00000E+00        -0.58596E+08
 
   -0.58428E+08         0.13124E+05         0.00000E+00
    0.13124E+05        -0.97600E+08         0.00000E+00
    0.00000E+00         0.00000E+00        -0.58554E+08
 
   -0.58384E+08         0.13368E+05         0.00000E+00
    0.13368E+05        -0.97600E+08         0.00000E+00
    0.00000E+00         0.00000E+00        -0.58511E+08
 
   -0.58339E+08         0.13612E+05         0.00000E+00
    0.13612E+05        -0.97600E+08         0.00000E+00
    0.00000E+00         0.00000E+00        -0.58467E+08
 
   -0.58293E+08         0.13855E+05         0.00000E+00
    0.13855E+05        -0.97600E+08         0.00000E+00
    0.00000E+00         0.00000E+00        -0.58422E+08
 
   -0.58246E+08         0.14098E+05         0.00000E+00
    0.14098E+05        -0.97600E+08         0.00000E+00
    0.00000E+00         0.00000E+00        -0.58376E+08
 
   -0.58199E+08         0.14339E+05         0.00000E+00
    0.14339E+05        -0.97600E+08         0.00000E+00
    0.00000E+00         0.00000E+00        -0.58330E+08
 
   -0.58151E+08         0.14579E+05         0.00000E+00
    0.14579E+05        -0.97600E+08         0.00000E+00
    0.00000E+00         0.00000E+00        -0.58282E+08
 
   -0.58102E+08         0.14817E+05         0.00000E+00
    0.14817E+05        -0.97600E+08         0.00000E+00
    0.00000E+00         0.00000E+00        -0.58234E+08
 
   -0.58052E+08         0.15053E+05         0.00000E+00
    0.15053E+05        -0.97600E+08         0.00000E+00
    0.00000E+00         0.00000E+00        -0.58184E+08
 
   -0.58002E+08         0.15287E+05         0.00000E+00
    0.15287E+05        -0.97600E+08         0.00000E+00
    0.00000E+00         0.00000E+00        -0.58134E+08
 
   -0.57950E+08         0.15517E+05         0.00000E+00
    0.15517E+05        -0.97600E+08         0.00000E+00
    0.00000E+00         0.00000E+00        -0.58083E+08
 
   -0.57898E+08         0.15744E+05         0.00000E+00
    0.15744E+05        -0.97600E+08         0.00000E+00
    0.00000E+00         0.00000E+00        -0.58030E+08
 
   -0.57846E+08         0.15967E+05         0.00000E+00
    0.15967E+05        -0.97600E+08         0.00000E+00
    0.00000E+00         0.00000E+00        -0.57977E+08
 
   -0.57792E+08         0.16184E+05         0.00000E+00
    0.16184E+05        -0.97600E+08         0.00000E+00
    0.00000E+00         0.00000E+00        -0.57923E+08
 
   -0.57738E+08         0.16397E+05         0.00000E+00
    0.16397E+05        -0.97600E+08         0.00000E+00
    0.00000E+00         0.00000E+00        -0.57868E+08
 
   -0.57683E+08         0.16603E+05         0.00000E+00
    0.16603E+05        -0.97600E+08         0.00000E+00
    0.00000E+00         0.00000E+00        -0.57811E+08
 
   -0.57627E+08         0.16802E+05         0.00000E+00
    0.16802E+05        -0.97600E+08         0.00000E+00
    0.00000E+00         0.00000E+00        -0.57754E+08
 
   -0.57571E+08         0.16993E+05         0.00000E+00
    0.16993E+05        -0.97600E+08         0.00000E+00
    0.00000E+00         0.00000E+00        -0.57696E+08
 
   -0.57514E+08         0.17175E+05         0.00000E+00
    0.17175E+05        -0.97600E+08         0.00000E+00
    0.00000E+00         0.00000E+00        -0.57637E+08
 
   -0.57456E+08         0.17347E+05         0.00000E+00
    0.17347E+05        -0.97600E+08         0.00000E+00
    0.00000E+00         0.00000E+00        -0.57577E+08
 
   -0.57398E+08         0.17509E+05         0.00000E+00
    0.17509E+05        -0.97600E+08         0.00000E+00
    0.00000E+00         0.00000E+00        -0.57515E+08
 
   -0.57340E+08         0.17658E+05         0.00000E+00
    0.17658E+05        -0.97600E+08         0.00000E+00
    0.00000E+00         0.00000E+00        -0.57453E+08
 
   -0.57280E+08         0.17794E+05         0.00000E+00
    0.17794E+05        -0.97600E+08         0.00000E+00
    0.00000E+00         0.00000E+00        -0.57390E+08
 
   -0.57221E+08         0.17916E+05         0.00000E+00
    0.17916E+05        -0.97600E+08         0.00000E+00
    0.00000E+00         0.00000E+00        -0.57326E+08
 
   -0.57161E+08         0.18021E+05         0.00000E+00
    0.18021E+05        -0.97600E+08         0.00000E+00
    0.00000E+00         0.00000E+00        -0.57262E+08
 
   -0.57101E+08         0.18109E+05         0.00000E+00
    0.18109E+05        -0.97600E+08         0.00000E+00
    0.00000E+00         0.00000E+00        -0.57196E+08
 
   -0.57040E+08         0.18177E+05         0.00000E+00
    0.18177E+05        -0.97600E+08         0.00000E+00
    0.00000E+00         0.00000E+00        -0.57129E+08
 
   -0.56979E+08         0.18225E+05         0.00000E+00
    0.18225E+05        -0.97600E+08         0.00000E+00
    0.00000E+00         0.00000E+00        -0.57062E+08
 
   -0.56919E+08         0.18248E+05         0.00000E+00
    0.18248E+05        -0.97600E+08         0.00000E+00
    0.00000E+00         0.00000E+00        -0.56994E+08
 
   -0.56858E+08         0.18246E+05         0.00000E+00
    0.18246E+05        -0.97600E+08         0.00000E+00
    0.00000E+00         0.00000E+00        -0.56924E+08
 
   -0.56797E+08         0.18215E+05         0.00000E+00
    0.18215E+05        -0.97600E+08         0.00000E+00
    0.00000E+00         0.00000E+00        -0.56855E+08
 
   -0.56736E+08         0.18153E+05         0.00000E+00
    0.18153E+05        -0.97600E+08         0.00000E+00
    0.00000E+00         0.00000E+00        -0.56784E+08
 
   -0.56676E+08         0.18055E+05         0.00000E+00
    0.18055E+05        -0.97600E+08         0.00000E+00
    0.00000E+00         0.00000E+00        -0.56713E+08
 
   -0.56616E+08         0.17917E+05         0.00000E+00
    0.17917E+05        -0.97600E+08         0.00000E+00
    0.00000E+00         0.00000E+00        -0.56641E+08
 
   -0.56556E+08         0.17734E+05         0.00000E+00
    0.17734E+05        -0.97600E+08         0.00000E+00
    0.00000E+00         0.00000E+00        -0.56569E+08
 
   -0.56497E+08         0.17501E+05         0.00000E+00
    0.17501E+05        -0.97600E+08         0.00000E+00
    0.00000E+00         0.00000E+00        -0.56496E+08
 
   -0.56439E+08         0.17209E+05         0.00000E+00
    0.17209E+05        -0.97600E+08         0.00000E+00
    0.00000E+00         0.00000E+00        -0.56422E+08
 
   -0.56382E+08         0.16851E+05         0.00000E+00
    0.16851E+05        -0.97600E+08         0.00000E+00
    0.00000E+00         0.00000E+00        -0.56349E+08
 
   -0.56327E+08         0.16416E+05         0.00000E+00
    0.16416E+05        -0.97600E+08         0.00000E+00
    0.00000E+00         0.00000E+00        -0.56275E+08
 
   -0.56273E+08         0.15892E+05         0.00000E+00
    0.15892E+05        -0.97600E+08         0.00000E+00
    0.00000E+00         0.00000E+00        -0.56201E+08
 
   -0.56221E+08         0.15266E+05         0.00000E+00
    0.15266E+05        -0.97600E+08         0.00000E+00
    0.00000E+00         0.00000E+00        -0.56126E+08
 
   -0.56171E+08         0.14520E+05         0.00000E+00
    0.14520E+05        -0.97600E+08         0.00000E+00
    0.00000E+00         0.00000E+00        -0.56052E+08
 
   -0.56124E+08         0.13637E+05         0.00000E+00
    0.13637E+05        -0.97600E+08         0.00000E+00
    0.00000E+00         0.00000E+00        -0.55978E+08
 
   -0.56079E+08         0.12596E+05         0.00000E+00
    0.12596E+05        -0.97600E+08         0.00000E+00
    0.00000E+00         0.00000E+00        -0.55905E+08
 
   -0.56039E+08         0.11375E+05         0.00000E+00
    0.11375E+05        -0.97600E+08         0.00000E+00
    0.00000E+00         0.00000E+00        -0.55832E+08
 
   -0.56003E+08         0.99519E+04         0.00000E+00
    0.99519E+04        -0.97600E+08         0.00000E+00
    0.00000E+00         0.00000E+00        -0.55760E+08
 
   -0.55972E+08         0.83053E+04         0.00000E+00
    0.83053E+04        -0.97600E+08         0.00000E+00
    0.00000E+00         0.00000E+00        -0.55689E+08
 
   -0.55946E+08         0.64162E+04         0.00000E+00
    0.64162E+04        -0.97600E+08         0.00000E+00
    0.00000E+00         0.00000E+00        -0.55619E+08
 
   -0.55927E+08         0.42727E+04         0.00000E+00
    0.42727E+04        -0.97600E+08         0.00000E+00
    0.00000E+00         0.00000E+00        -0.55551E+08
 
   -0.55915E+08         0.18693E+04         0.00000E+00
    0.18693E+04        -0.97600E+08         0.00000E+00
    0.00000E+00         0.00000E+00        -0.55484E+08
 
   -0.55911E+08        -0.77852E+03         0.00000E+00
   -0.77852E+03        -0.97600E+08         0.00000E+00
    0.00000E+00         0.00000E+00        -0.55420E+08
 
   -0.55916E+08        -0.36571E+04         0.00000E+00
   -0.36571E+04        -0.97600E+08         0.00000E+00
    0.00000E+00         0.00000E+00        -0.55358E+08
 
   -0.55930E+08        -0.66890E+04         0.00000E+00
   -0.66890E+04        -0.97600E+08         0.00000E+00
    0.00000E+00         0.00000E+00        -0.55298E+08
 
   -0.55953E+08        -0.98868E+04         0.00000E+00
   -0.98868E+04        -0.97600E+08         0.00000E+00
    0.00000E+00         0.00000E+00        -0.55241E+08
 
   -0.55986E+08        -0.12983E+05         0.00000E+00
   -0.12983E+05        -0.97600E+08         0.00000E+00
    0.00000E+00         0.00000E+00        -0.55186E+08
 
   -0.56028E+08        -0.16349E+05         0.00000E+00
   -0.16349E+05        -0.97600E+08         0.00000E+00
    0.00000E+00         0.00000E+00        -0.55135E+08
 
   -0.56077E+08        -0.18760E+05         0.00000E+00
   -0.18760E+05        -0.97601E+08         0.00000E+00
    0.00000E+00         0.00000E+00        -0.55085E+08
 
   -0.56134E+08        -0.22621E+05         0.00000E+00
   -0.22621E+05        -0.97599E+08         0.00000E+00
    0.00000E+00         0.00000E+00        -0.55037E+08
 
   -0.56178E+08        -0.21359E+05         0.00000E+00
   -0.21359E+05        -0.97607E+08         0.00000E+00
    0.00000E+00         0.00000E+00        -0.54988E+08
 
   -0.59302E+08        -0.44686E+04         0.00000E+00
   -0.44686E+04        -0.97597E+08         0.00000E+00
    0.00000E+00         0.00000E+00        -0.59661E+08
 
   -0.59320E+08        -0.17778E+04         0.00000E+00
   -0.17778E+04        -0.97601E+08         0.00000E+00
    0.00000E+00         0.00000E+00        -0.59652E+08
 
   -0.59335E+08        -0.18686E+04         0.00000E+00
   -0.18686E+04        -0.97599E+08         0.00000E+00
    0.00000E+00         0.00000E+00        -0.59639E+08
 
   -0.59348E+08        -0.13010E+04         0.00000E+00
   -0.13010E+04        -0.97600E+08         0.00000E+00
    0.00000E+00         0.00000E+00        -0.59627E+08
 
   -0.59357E+08        -0.98261E+03         0.00000E+00
   -0.98261E+03        -0.97600E+08         0.00000E+00
    0.00000E+00         0.00000E+00        -0.59614E+08
 
   -0.59364E+08        -0.60213E+03         0.00000E+00
   -0.60213E+03        -0.97600E+08         0.00000E+00
    0.00000E+00         0.00000E+00        -0.59599E+08
 
   -0.59367E+08        -0.26054E+03         0.00000E+00
   -0.26054E+03        -0.97600E+08         0.00000E+00
    0.00000E+00         0.00000E+00        -0.59584E+08
 
   -0.59367E+08         0.73997E+02         0.00000E+00
    0.73997E+02        -0.97600E+08         0.00000E+00
    0.00000E+00         0.00000E+00        -0.59567E+08
 
   -0.59364E+08         0.38535E+03         0.00000E+00
    0.38535E+03        -0.97600E+08         0.00000E+00
    0.00000E+00         0.00000E+00        -0.59550E+08
 
   -0.59358E+08         0.67550E+03         0.00000E+00
    0.67550E+03        -0.97600E+08         0.00000E+00
    0.00000E+00         0.00000E+00        -0.59531E+08
 
   -0.59349E+08         0.94141E+03         0.00000E+00
    0.94141E+03        -0.97600E+08         0.00000E+00
    0.00000E+00         0.00000E+00        -0.59512E+08
 
   -0.59338E+08         0.11837E+04         0.00000E+00
    0.11837E+04        -0.97600E+08         0.00000E+00
    0.00000E+00         0.00000E+00        -0.59491E+08
 
   -0.59325E+08         0.14030E+04         0.00000E+00
    0.14030E+04        -0.97600E+08         0.00000E+00
    0.00000E+00         0.00000E+00        -0.59470E+08
 
   -0.59310E+08         0.16013E+04         0.00000E+00
    0.16013E+04        -0.97600E+08         0.00000E+00
    0.00000E+00         0.00000E+00        -0.59448E+08
 
   -0.59293E+08         0.17804E+04         0.00000E+00
    0.17804E+04        -0.97600E+08         0.00000E+00
    0.00000E+00         0.00000E+00        -0.59425E+08
 
   -0.59275E+08         0.19429E+04         0.00000E+00
    0.19429E+04        -0.97600E+08         0.00000E+00
    0.00000E+00         0.00000E+00        -0.59402E+08
 
   -0.59254E+08         0.20908E+04         0.00000E+00
    0.20908E+04        -0.97600E+08         0.00000E+00
    0.00000E+00         0.00000E+00        -0.59378E+08
 
   -0.59233E+08         0.22264E+04         0.00000E+00
    0.22264E+04        -0.97600E+08         0.00000E+00
    0.00000E+00         0.00000E+00        -0.59353E+08
 
   -0.59210E+08         0.23516E+04         0.00000E+00
    0.23516E+04        -0.97600E+08         0.00000E+00
    0.00000E+00         0.00000E+00        -0.59327E+08
 
   -0.59186E+08         0.24682E+04         0.00000E+00
    0.24682E+04        -0.97600E+08         0.00000E+00
    0.00000E+00         0.00000E+00        -0.59301E+08
 
   -0.59161E+08         0.25776E+04         0.00000E+00
    0.25776E+04        -0.97600E+08         0.00000E+00
    0.00000E+00         0.00000E+00        -0.59274E+08
 
   -0.59135E+08         0.26813E+04         0.00000E+00
    0.26813E+04        -0.97600E+08         0.00000E+00
    0.00000E+00         0.00000E+00        -0.59247E+08
 
   -0.59107E+08         0.27802E+04         0.00000E+00
    0.27802E+04        -0.97600E+08         0.00000E+00
    0.00000E+00         0.00000E+00        -0.59219E+08
 
   -0.59079E+08         0.28753E+04         0.00000E+00
    0.28753E+04        -0.97600E+08         0.00000E+00
    0.00000E+00         0.00000E+00        -0.59190E+08
 
   -0.59050E+08         0.29673E+04         0.00000E+00
    0.29673E+04        -0.97600E+08         0.00000E+00
    0.00000E+00         0.00000E+00        -0.59161E+08
 
   -0.59020E+08         0.30568E+04         0.00000E+00
    0.30568E+04        -0.97600E+08         0.00000E+00
    0.00000E+00         0.00000E+00        -0.59131E+08
 
   -0.58989E+08         0.31444E+04         0.00000E+00
    0.31444E+04        -0.97600E+08         0.00000E+00
    0.00000E+00         0.00000E+00        -0.59100E+08
 
   -0.58957E+08         0.32304E+04         0.00000E+00
    0.32304E+04        -0.97600E+08         0.00000E+00
    0.00000E+00         0.00000E+00        -0.59069E+08
 
   -0.58925E+08         0.33152E+04         0.00000E+00
    0.33152E+04        -0.97600E+08         0.00000E+00
    0.00000E+00         0.00000E+00        -0.59037E+08
 
   -0.58891E+08         0.33991E+04         0.00000E+00
    0.33991E+04        -0.97600E+08         0.00000E+00
    0.00000E+00         0.00000E+00        -0.59004E+08
 
   -0.58857E+08         0.34822E+04         0.00000E+00
    0.34822E+04        -0.97600E+08         0.00000E+00
    0.00000E+00         0.00000E+00        -0.58971E+08
 
   -0.58822E+08         0.35648E+04         0.00000E+00
    0.35648E+04        -0.97600E+08         0.00000E+00
    0.00000E+00         0.00000E+00        -0.58937E+08
 
   -0.58786E+08         0.36470E+04         0.00000E+00
    0.36470E+04        -0.97600E+08         0.00000E+00
    0.00000E+00         0.00000E+00        -0.58902E+08
 
   -0.58749E+08         0.37289E+04         0.00000E+00
    0.37289E+04        -0.97600E+08         0.00000E+00
    0.00000E+00         0.00000E+00        -0.58866E+08
 
   -0.58711E+08         0.38106E+04         0.00000E+00
    0.38106E+04        -0.97600E+08         0.00000E+00
    0.00000E+00         0.00000E+00        -0.58830E+08
 
   -0.58673E+08         0.38922E+04         0.00000E+00
    0.38922E+04        -0.97600E+08         0.00000E+00
    0.00000E+00         0.00000E+00        -0.58793E+08
 
   -0.58634E+08         0.39738E+04         0.00000E+00
    0.39738E+04        -0.97600E+08         0.00000E+00
    0.00000E+00         0.00000E+00        -0.58755E+08
 
   -0.58594E+08         0.40552E+04         0.00000E+00
    0.40552E+04        -0.97600E+08         0.00000E+00
    0.00000E+00         0.00000E+00        -0.58716E+08
 
   -0.58553E+08         0.41367E+04         0.00000E+00
    0.41367E+04        -0.97600E+08         0.00000E+00
    0.00000E+00         0.00000E+00        -0.58677E+08
 
   -0.58511E+08         0.42181E+04         0.00000E+00
    0.42181E+04        -0.97600E+08         0.00000E+00
    0.00000E+00         0.00000E+00        -0.58636E+08
 
   -0.58469E+08         0.42995E+04         0.00000E+00
    0.42995E+04        -0.97600E+08         0.00000E+00
    0.00000E+00         0.00000E+00        -0.58595E+08
 
   -0.58425E+08         0.43809E+04         0.00000E+00
    0.43809E+04        -0.97600E+08         0.00000E+00
    0.00000E+00         0.00000E+00        -0.58553E+08
 
   -0.58381E+08         0.44621E+04         0.00000E+00
    0.44621E+04        -0.97600E+08         0.00000E+00
    0.00000E+00         0.00000E+00        -0.58510E+08
 
   -0.58336E+08         0.45432E+04         0.00000E+00
    0.45432E+04        -0.97600E+08         0.00000E+00
    0.00000E+00         0.00000E+00        -0.58466E+08
 
   -0.58290E+08         0.46241E+04         0.00000E+00
    0.46241E+04        -0.97600E+08         0.00000E+00
    0.00000E+00         0.00000E+00        -0.58421E+08
 
   -0.58244E+08         0.47047E+04         0.00000E+00
    0.47047E+04        -0.97600E+08         0.00000E+00
    0.00000E+00         0.00000E+00        -0.58376E+08
 
   -0.58196E+08         0.47849E+04         0.00000E+00
    0.47849E+04        -0.97600E+08         0.00000E+00
    0.00000E+00         0.00000E+00        -0.58329E+08
 
   -0.58148E+08         0.48647E+04         0.00000E+00
    0.48647E+04        -0.97600E+08         0.00000E+00
    0.00000E+00         0.00000E+00        -0.58281E+08
 
   -0.58099E+08         0.49438E+04         0.00000E+00
    0.49438E+04        -0.97600E+08         0.00000E+00
    0.00000E+00         0.00000E+00        -0.58233E+08
 
   -0.58049E+08         0.50222E+04         0.00000E+00
    0.50222E+04        -0.97600E+08         0.00000E+00
    0.00000E+00         0.00000E+00        -0.58184E+08
 
   -0.57999E+08         0.50997E+04         0.00000E+00
    0.50997E+04        -0.97600E+08         0.00000E+00
    0.00000E+00         0.00000E+00        -0.58133E+08
 
   -0.57948E+08         0.51761E+04         0.00000E+00
    0.51761E+04        -0.97600E+08         0.00000E+00
    0.00000E+00         0.00000E+00        -0.58082E+08
 
   -0.57895E+08         0.52513E+04         0.00000E+00
    0.52513E+04        -0.97600E+08         0.00000E+00
    0.00000E+00         0.00000E+00        -0.58029E+08
 
   -0.57843E+08         0.53251E+04         0.00000E+00
    0.53251E+04        -0.97600E+08         0.00000E+00
    0.00000E+00         0.00000E+00        -0.57976E+08
 
   -0.57789E+08         0.53973E+04         0.00000E+00
    0.53973E+04        -0.97600E+08         0.00000E+00
    0.00000E+00         0.00000E+00        -0.57922E+08
 
   -0.57735E+08         0.54676E+04         0.00000E+00
    0.54676E+04        -0.97600E+08         0.00000E+00
    0.00000E+00         0.00000E+00        -0.57867E+08
 
   -0.57680E+08         0.55358E+04         0.00000E+00
    0.55358E+04        -0.97600E+08         0.00000E+00
    0.00000E+00         0.00000E+00        -0.57810E+08
 
   -0.57624E+08         0.56016E+04         0.00000E+00
    0.56016E+04        -0.97600E+08         0.00000E+00
    0.00000E+00         0.00000E+00        -0.57753E+08
 
   -0.57568E+08         0.56647E+04         0.00000E+00
    0.56647E+04        -0.97600E+08         0.00000E+00
    0.00000E+00         0.00000E+00        -0.57695E+08
 
   -0.57511E+08         0.57249E+04         0.00000E+00
    0.57249E+04        -0.97600E+08         0.00000E+00
    0.00000E+00         0.00000E+00        -0.57636E+08
 
   -0.57453E+08         0.57818E+04         0.00000E+00
    0.57818E+04        -0.97600E+08         0.00000E+00
    0.00000E+00         0.00000E+00        -0.57576E+08
 
   -0.57395E+08         0.58350E+04         0.00000E+00
    0.58350E+04        -0.97600E+08         0.00000E+00
    0.00000E+00         0.00000E+00        -0.57515E+08
 
   -0.57336E+08         0.58841E+04         0.00000E+00
    0.58841E+04        -0.97600E+08         0.00000E+00
    0.00000E+00         0.00000E+00        -0.57453E+08
 
   -0.57277E+08         0.59289E+04         0.00000E+00
    0.59289E+04        -0.97600E+08         0.00000E+00
    0.00000E+00         0.00000E+00        -0.57390E+08
 
   -0.57218E+08         0.59687E+04         0.00000E+00
    0.59687E+04        -0.97600E+08         0.00000E+00
    0.00000E+00         0.00000E+00        -0.57326E+08
 
   -0.57158E+08         0.60031E+04         0.00000E+00
    0.60031E+04        -0.97600E+08         0.00000E+00
    0.00000E+00         0.00000E+00        -0.57261E+08
 
   -0.57098E+08         0.60317E+04         0.00000E+00
    0.60317E+04        -0.97600E+08         0.00000E+00
    0.00000E+00         0.00000E+00        -0.57195E+08
 
   -0.57037E+08         0.60537E+04         0.00000E+00
    0.60537E+04        -0.97600E+08         0.00000E+00
    0.00000E+00         0.00000E+00        -0.57128E+08
 
   -0.56977E+08         0.60687E+04         0.00000E+00
    0.60687E+04        -0.97600E+08         0.00000E+00
    0.00000E+00         0.00000E+00        -0.57061E+08
 
   -0.56916E+08         0.60758E+04         0.00000E+00
    0.60758E+04        -0.97600E+08         0.00000E+00
    0.00000E+00         0.00000E+00        -0.56993E+08
 
   -0.56855E+08         0.60744E+04         0.00000E+00
    0.60744E+04        -0.97600E+08         0.00000E+00
    0.00000E+00         0.00000E+00        -0.56924E+08
 
   -0.56794E+08         0.60634E+04         0.00000E+00
    0.60634E+04        -0.97600E+08         0.00000E+00
    0.00000E+00         0.00000E+00        -0.56854E+08
 
   -0.56734E+08         0.60418E+04         0.00000E+00
    0.60418E+04        -0.97600E+08         0.00000E+00
    0.00000E+00         0.00000E+00        -0.56783E+08
 
   -0.56673E+08         0.60085E+04         0.00000E+00
    0.60085E+04        -0.97600E+08         0.00000E+00
    0.00000E+00         0.00000E+00        -0.56712E+08
 
   -0.56613E+08         0.59619E+04         0.00000E+00
    0.59619E+04        -0.97600E+08         0.00000E+00
    0.00000E+00         0.00000E+00        -0.56640E+08
 
   -0.56554E+08         0.59003E+04         0.00000E+00
    0.59003E+04        -0.97600E+08         0.00000E+00
    0.00000E+00         0.00000E+00        -0.56568E+08
 
   -0.56495E+08         0.58217E+04         0.00000E+00
    0.58217E+04        -0.97600E+08         0.00000E+00
    0.00000E+00         0.00000E+00        -0.56495E+08
 
   -0.56437E+08         0.57236E+04         0.00000E+00
    0.57236E+04        -0.97600E+08         0.00000E+00
    0.00000E+00         0.00000E+00        -0.56422E+08
 
   -0.56380E+08         0.56031E+04         0.00000E+00
    0.56031E+04        -0.97600E+08         0.00000E+00
    0.00000E+00         0.00000E+00        -0.56348E+08
 
   -0.56325E+08         0.54566E+04         0.00000E+00
    0.54566E+04        -0.97600E+08         0.00000E+00
    0.00000E+00         0.00000E+00        -0.56274E+08
 
   -0.56271E+08         0.52798E+04         0.00000E+00
    0.52798E+04        -0.97600E+08         0.00000E+00
    0.00000E+00         0.00000E+00        -0.56200E+08
 
   -0.56219E+08         0.50679E+04         0.00000E+00
    0.50679E+04        -0.97600E+08         0.00000E+00
    0.00000E+00         0.00000E+00        -0.56126E+08
 
   -0.56169E+08         0.48149E+04         0.00000E+00
    0.48149E+04        -0.97600E+08         0.00000E+00
    0.00000E+00         0.00000E+00        -0.56052E+08
 
   -0.56122E+08         0.45143E+04         0.00000E+00
    0.45143E+04        -0.97600E+08         0.00000E+00
    0.00000E+00         0.00000E+00        -0.55978E+08
 
   -0.56079E+08         0.41587E+04         0.00000E+00
    0.41587E+04        -0.97600E+08         0.00000E+00
    0.00000E+00         0.00000E+00        -0.55905E+08
 
   -0.56039E+08         0.37398E+04         0.00000E+00
    0.37398E+04        -0.97600E+08         0.00000E+00
    0.00000E+00         0.00000E+00        -0.55832E+08
 
   -0.56003E+08         0.32492E+04         0.00000E+00
    0.32492E+04        -0.97600E+08         0.00000E+00
    0.00000E+00         0.00000E+00        -0.55760E+08
 
   -0.55972E+08         0.26785E+04         0.00000E+00
    0.26785E+04        -0.97600E+08         0.00000E+00
    0.00000E+00         0.00000E+00        -0.55689E+08
 
   -0.55948E+08         0.20203E+04         0.00000E+00
    0.20203E+04        -0.97600E+08         0.00000E+00
    0.00000E+00         0.00000E+00        -0.55619E+08
 
   -0.55930E+08         0.12684E+04         0.00000E+00
    0.12684E+04        -0.97600E+08         0.00000E+00
    0.00000E+00         0.00000E+00        -0.55551E+08
 
   -0.55919E+08         0.42100E+03         0.00000E+00
    0.42100E+03        -0.97600E+08         0.00000E+00
    0.00000E+00         0.00000E+00        -0.55485E+08
 
   -0.55917E+08        -0.52303E+03         0.00000E+00
   -0.52303E+03        -0.97600E+08         0.00000E+00
    0.00000E+00         0.00000E+00        -0.55421E+08
 
   -0.55924E+08        -0.15501E+04         0.00000E+00
   -0.15501E+04        -0.97600E+08         0.00000E+00
    0.00000E+00         0.00000E+00        -0.55360E+08
 
   -0.55941E+08        -0.26665E+04         0.00000E+00
   -0.26665E+04        -0.97600E+08         0.00000E+00
    0.00000E+00         0.00000E+00        -0.55301E+08
 
   -0.55968E+08        -0.38062E+04         0.00000E+00
   -0.38062E+04        -0.97600E+08         0.00000E+00
    0.00000E+00         0.00000E+00        -0.55245E+08
 
   -0.56005E+08        -0.50941E+04         0.00000E+00
   -0.50941E+04        -0.97600E+08         0.00000E+00
    0.00000E+00         0.00000E+00        -0.55192E+08
 
   -0.56052E+08        -0.61259E+04         0.00000E+00
   -0.61259E+04        -0.97599E+08         0.00000E+00
    0.00000E+00         0.00000E+00        -0.55141E+08
 
   -0.56111E+08        -0.81393E+04         0.00000E+00
   -0.81393E+04        -0.97602E+08         0.00000E+00
    0.00000E+00         0.00000E+00        -0.55095E+08
 
   -0.56176E+08        -0.75158E+04         0.00000E+00
   -0.75158E+04        -0.97595E+08         0.00000E+00
    0.00000E+00         0.00000E+00        -0.55048E+08
 
   -0.56250E+08        -0.17958E+05         0.00000E+00
   -0.17958E+05        -0.97614E+08         0.00000E+00
    0.00000E+00         0.00000E+00        -0.55011E+08
 
SCALARS stresss double 
LOOKUP_TABLE default
  -72384924.8560141     
  -72360886.7959401     
  -72339370.1337726     
  -72319423.7532853     
  -72301219.0055872     
  -72284298.8161563     
  -72268427.4116503     
  -72253288.6217371     
  -72238638.9407916     
  -72224256.5509655     
  -72209966.4651611     
  -72195627.1547936     
  -72181130.3326892     
  -72166393.7250650     
  -72151356.7635508     
  -72135975.5643539     
  -72120219.0894886     
  -72104065.7547337     
  -72087500.7804271     
  -72070514.0668593     
  -72053098.5774202     
  -72035249.1182047     
  -72016961.4502869     
  -71998231.6609174     
  -71979055.7378905     
  -71959429.2972851     
  -71939347.4254698     
  -71918804.6035835     
  -71897794.6899844     
  -71876310.9418501     
  -71854346.0619453     
  -71831892.2603816     
  -71808941.3241844     
  -71785484.6897915     
  -71761513.5153184     
  -71737018.7506842     
  -71711991.2046124     
  -71686421.6081079     
  -71660300.6744464     
  -71633619.1559603     
  -71606367.8980471     
  -71578537.8909067     
  -71550120.3195260     
  -71521106.6124159     
  -71491488.4895869     
  -71461258.0102036     
  -71430407.6203240     
  -71398930.2010919     
  -71366819.1177323     
  -71334068.2696642     
  -71300672.1420539     
  -71266625.8591378     
  -71231925.2396379     
  -71196566.8546575     
  -71160548.0884800     
  -71123867.2027614     
  -71086523.4047046     
  -71048516.9199021     
  -71009849.0706804     
  -70970522.3609032     
  -70930540.5683733     
  -70889908.8461294     
  -70848633.8340710     
  -70806723.7824716     
  -70764188.6889703     
  -70721040.4505298     
  -70677293.0315525     
  -70632962.6487501     
  -70588067.9722985     
  -70542630.3411679     
  -70496673.9880245     
  -70450226.2655021     
  -70403317.8606258     
  -70355982.9773087     
  -70308259.4577632     
  -70260188.8017569     
  -70211816.0276537     
  -70163189.3001074     
  -70114359.2269215     
  -70065377.6989577     
  -70016296.1184396     
  -69967162.8191828     
  -69918019.4595298     
  -69868896.0984183     
  -69819804.7064581     
  -69770730.6761649     
  -69721622.2754180     
  -69672377.1860091     
  -69622827.3275203     
  -69572719.0471696     
  -69521696.2691589     
  -69469272.1054439     
  -69414828.6308064     
  -69357564.2366223     
  -69296595.0391310     
  -69230752.1762331     
  -69159194.5011988     
  -69080203.7537395     
  -68994580.7123420     
  -68898647.2300059     
  -72380157.8337224     
  -72358262.0496909     
  -72337036.3717186     
  -72317570.1328353     
  -72299528.8406797     
  -72282770.6260677     
  -72266980.0328937     
  -72251908.0776761     
  -72237302.5751556     
  -72222958.2613661     
  -72208700.5185625     
  -72194391.9347163     
  -72179924.5346270     
  -72165216.7246879     
  -72150207.6983731     
  -72134853.3539515     
  -72119122.2693852     
  -72102992.5328104     
  -72086449.0717995     
  -72069481.5763625     
  -72052082.8734635     
  -72034247.7080374     
  -72015971.8437055     
  -71997251.4242531     
  -71978082.5362885     
  -71958460.9267460     
  -71938381.8355401     
  -71917839.9123046     
  -71896829.1925118     
  -71875343.1141690     
  -71853374.5609102     
  -71830915.9211439     
  -71807959.1558848     
  -71784495.8702215     
  -71760517.3850956     
  -71736014.8073651     
  -71710979.0970400     
  -71685401.1312163     
  -71659271.7646696     
  -71632581.8873383     
  -71605322.4790872     
  -71577484.6622276     
  -71549059.7522960     
  -71520039.3075848     
  -71490415.1779059     
  -71460179.5530272     
  -71429325.0111879     
  -71397844.5680695     
  -71365731.7265727     
  -71332980.5277305     
  -71299585.6030842     
  -71265542.2288595     
  -71230846.3822847     
  -71195494.8004428     
  -71159485.0420932     
  -71122815.5529680     
  -71085485.7351357     
  -71047496.0211342     
  -71008847.9537034     
  -70969544.2720838     
  -70929589.0060036     
  -70888987.5786375     
  -70847746.9199357     
  -70805875.5918258     
  -70763383.9267969     
  -70720284.1812329     
  -70676590.7045326     
  -70632320.1243825     
  -70587491.5474441     
  -70542126.7729826     
  -70496250.5143937     
  -70449890.6199055     
  -70403078.2786149     
  -70355848.1911183     
  -70308238.6748233     
  -70260291.6622512     
  -70212052.5355169     
  -70163569.7219394     
  -70114893.9525361     
  -70066077.0602613     
  -70017170.1610272     
  -69968221.0349182     
  -69919270.4731741     
  -69870347.3605311     
  -69821462.1528745     
  -69772598.5791571     
  -69723703.0104169     
  -69674671.8891081     
  -69625335.8091287     
  -69575443.4556007     
  -69524639.6088874     
  -69472453.4221536     
  -69418267.9995884     
  -69361347.3747448     
  -69300772.3509944     
  -69235641.7571271     
  -69164794.9035056     
  -69087771.6334252     
  -69003348.8775137     
  -68915998.9566981     
  -72375823.2630450     
  -72355366.7311029     
  -72334731.0228641     
  -72315609.2256705     
  -72297806.1407711     
  -72281190.8249130     
  -72265504.9294894     
  -72250502.8776810     
  -72235952.1390086     
  -72221650.9261763     
  -72207430.9895805     
  -72193156.5270867     
  -72178721.2888772     
  -72164044.0073157     
  -72149064.0670101     
  -72133737.1900459     
  -72118031.7514177     
  -72101925.5932585     
  -72085403.4440742     
  -72068454.8428699     
  -72051072.5306838     
  -72033251.2257072     
  -72014986.7197423     
  -71996275.2301048     
  -71977112.9534470     
  -71957495.7741409     
  -71937419.0890271     
  -71916877.7172936     
  -71895865.8710553     
  -71874377.1676851     
  -71852404.6696432     
  -71829940.9413009     
  -71806978.1152356     
  -71783507.9627931     
  -71759521.9654637     
  -71735011.3849213     
  -71709967.3305136     
  -71684380.8236535     
  -71658242.8590063     
  -71631544.4626547     
  -71604276.7475983     
  -71576430.9670375     
  -71547998.5659241     
  -71518971.2312687     
  -71489340.9416739     
  -71459100.0165358     
  -71428241.1653212     
  -71396757.5373008     
  -71364642.7720965     
  -71331891.0513789     
  -71298497.1520515     
  -71264456.5012667     
  -71229765.2336286     
  -71194420.2509824     
  -71158419.2852380     
  -71121760.9647419     
  -71084444.8848024     
  -71046471.6830749     
  -71007843.1206425     
  -70968562.1697583     
  -70928633.1093658     
  -70888061.6296570     
  -70846854.9470389     
  -70805021.9309585     
  -70762573.2440158     
  -70719521.4966232     
  -70675881.4171010     
  -70631670.0373732     
  -70586906.8932672     
  -70541614.2366251     
  -70495817.2537828     
  -70449544.2812254     
  -70402827.0040421     
  -70355700.6158347     
  -70308203.9095888     
  -70260379.2571729     
  -70212272.4203812     
  -70163932.1179491     
  -70115409.2514099     
  -70066755.6660272     
  -70018022.2958916     
  -69969256.5065284     
  -69920498.4248532     
  -69871775.9982806     
  -69823098.5410453     
  -69774448.4415320     
  -69725770.8918593     
  -69676961.2530223     
  -69627850.4957767     
  -69578188.2095995     
  -69527625.6556840     
  -69475697.9805435     
  -69421813.2541810     
  -69365248.8479603     
  -69305163.4405758     
  -69240668.6153187     
  -69170830.7677303     
  -69095231.8054114     
  -69013203.0766601     
  -68931625.9503054     
  -72371791.1035830     
  -72352364.3619105     
  -72332378.0779786     
  -72313589.6746707     
  -72296031.9729603     
  -72279571.8489088     
  -72263998.1381334     
  -72249076.0958740     
  -72234586.8874651     
  -72220335.2942844     
  -72206157.7564382     
  -72191921.1253185     
  -72177520.6026648     
  -72162875.6563892     
  -72147925.9232606     
  -72132627.1527403     
  -72116947.6177121     
  -72100865.0299516     
  -72084363.9953348     
  -72067433.9685073     
  -72050067.6516732     
  -72032259.7725944     
  -72014006.1765042     
  -71995303.1719683     
  -71976147.0771180     
  -71956533.9207402     
  -71936459.2602198     
  -71915918.0855969     
  -71894904.7853221     
  -71873413.1548003     
  -71851436.4333659     
  -71828967.3590785     
  -71805998.2336846     
  -71782520.9924093     
  -71758527.2750131     
  -71734008.4958515     
  -71708955.9116422     
  -71683360.6863163     
  -71657213.9527902     
  -71630506.8717999     
  -71603230.6881169     
  -71575376.7845761     
  -71546936.7343804     
  -71517902.3521642     
  -71488265.7442796     
  -71458019.3587456     
  -71427156.0352722     
  -71395669.0557414     
  -71363552.1955102     
  -71330799.7758778     
  -71297406.7180649     
  -71263368.5990527     
  -71228681.7096539     
  -71193343.1152191     
  -71157350.7194399     
  -71120703.3317711     
  -71083400.7390848     
  -71045443.7822732     
  -71006834.4386346     
  -70967575.9110111     
  -70927672.7247873     
  -70887130.8339883     
  -70845957.7378198     
  -70804162.6090527     
  -70761756.4356046     
  -70718752.1764837     
  -70675164.9328399     
  -70631012.1341090     
  -70586313.7380227     
  -70541092.4414008     
  -70495373.8959266     
  -70449186.9193062     
  -70402563.6869587     
  -70355539.8823991     
  -70308154.7752931     
  -70260451.1844503     
  -70212475.2682803     
  -70164276.0673103     
  -70115904.7017403     
  -70067413.1022850     
  -70018852.1241857     
  -69970268.8651593     
  -69921702.9769450     
  -69873181.7359347     
  -69824713.6187519     
  -69776280.1320681     
  -69727825.6863371     
  -69679245.3655941     
  -69630370.7483329     
  -69580953.9473914     
  -69530651.5870010     
  -69479008.9482464     
  -69425452.3233330     
  -69369284.7376331     
  -69309718.8858362     
  -69245908.7408551     
  -69177108.0872800     
  -69102888.5263229     
  -69023490.4221279     
  -68946048.8397815     
  -72367982.5635333     
  -72349327.7232641     
  -72329965.4018262     
  -72311521.7264289     
  -72294208.2138590     
  -72277915.2753640     
  -72262461.2302602     
  -72247628.1346077     
  -72233207.4661084     
  -72219011.5232345     
  -72204881.0552377     
  -72190685.8150099     
  -72176322.5862544     
  -72161711.7478038     
  -72146793.3563518     
  -72131523.3294086     
  -72115869.9644134     
  -72099810.9424242     
  -72083330.8291895     
  -72066419.0579033     
  -72049068.3406483     
  -72031273.4504633     
  -72013030.3119124     
  -71994335.3426590     
  -71975184.9941339     
  -71955575.4467487     
  -71935502.4223055     
  -71914961.0831756     
  -71893945.9939936     
  -71872451.1269730     
  -71850469.8964504     
  -71827995.2119506     
  -71805019.5420239     
  -71781534.9834092     
  -71757533.3318563     
  -71733006.1522560     
  -71707944.8467085     
  -71682340.7198399     
  -71656185.0411533     
  -71629469.1045170     
  -71602184.2850819     
  -71574322.0940325     
  -71545874.2316278     
  -71516832.6390021     
  -71487189.5491855     
  -71456937.5377854     
  -71426069.5737407     
  -71394579.0705370     
  -71362459.9382491     
  -71329706.6367657     
  -71296314.2305462     
  -71262278.4452693     
  -71227595.7267524     
  -71192263.3025564     
  -71156279.2467448     
  -71119642.5483290     
  -71082353.1840222     
  -71044412.1960205     
  -71005821.7756542     
  -70966585.3538727     
  -70926707.6996664     
  -70886195.0276465     
  -70845055.1160981     
  -70803297.4368605     
  -70760933.2983250     
  -70717976.0026238     
  -70674441.0176245     
  -70630346.1635593     
  -70585711.8128539     
  -70540561.0998105     
  -70494920.1340439     
  -70448818.2077098     
  -70402287.9812757     
  -70355365.6255777     
  -70308090.8887416     
  -70260507.0448969     
  -70212660.6670683     
  -70164601.1489292     
  -70116379.8790823     
  -70068048.9473732     
  -70019659.2357857     
  -69971257.7185595     
  -69922883.7678782     
  -69874564.2404618     
  -69826307.1035850     
  -69778093.3770622     
  -69729867.1900812     
  -69681523.9029158     
  -69632896.3593416     
  -69583739.8787820     
  -69533716.9466463     
  -69482383.9406680     
  -69429183.8198198     
  -69373449.0143656     
  -69314432.6722671     
  -69251354.9712562     
  -69183586.3189937     
  -69110790.7887890     
  -69033920.6892041     
  -68959583.3671215     
  -72364345.5281329     
  -72346290.0820627     
  -72327499.2101470     
  -72309407.8635481     
  -72292339.1674287     
  -72276222.0722187     
  -72260895.8070846     
  -72246159.5772151     
  -72231814.4506579     
  -72217679.9068556     
  -72203601.1162888     
  -72189450.7505204     
  -72175127.3657710     
  -72160552.3914774     
  -72145666.4706152     
  -72130425.8243441     
  -72114798.8970995     
  -72098763.4381436     
  -72082304.0538054     
  -72065410.2187644     
  -72048074.7032870     
  -72030292.3616327     
  -72012059.2236990     
  -71993371.8343720     
  -71974226.7904209     
  -71954620.4313279     
  -71934548.6473745     
  -71914006.7749081     
  -71892989.5547217     
  -71871491.1347117     
  -71849505.1024104     
  -71827024.5366290     
  -71804042.0703805     
  -71780549.9595594     
  -71756540.1536193     
  -71732004.3658278     
  -71706934.1416609     
  -71681320.9245928     
  -71655156.1190215     
  -71628431.1503988     
  -71601137.5228327     
  -71573266.8745434     
  -71544811.0316216     
  -71515762.0605478     
  -71486112.3199297     
  -71455854.5118995     
  -71424981.7335817     
  -71393487.5290279     
  -71361365.9419847     
  -71328611.5698593     
  -71295219.6192403     
  -71261185.9633384     
  -71226507.2017367     
  -71191180.7228738     
  -71155204.7697343     
  -71118578.5092928     
  -71081302.1063328     
  -71043376.8023726     
  -71004805.0005376     
  -70965590.3573464     
  -70925737.8825019     
  -70885254.0478945     
  -70844146.9071084     
  -70802426.2267401     
  -70760103.6307619     
  -70717192.7589183     
  -70673709.4396628     
  -70629671.8773152     
  -70585100.8518261     
  -70540019.9275768     
  -70494455.6648515     
  -70448437.8237183     
  -70401999.5447400     
  -70355177.4839284     
  -70308011.8702118     
  -70260546.4421375     
  -70212828.2061578     
  -70164906.9414396     
  -70116834.3556388     
  -70068662.7725610     
  -70020443.2069620     
  -69972222.6549076     
  -69924040.4030268     
  -69875923.1398384     
  -69827878.6443556     
  -69779887.8415329     
  -69731895.0628162     
  -69683796.4777065     
  -69635426.8473109     
  -69586545.2384950     
  -69536820.7367789     
  -69485820.8569913     
  -69433005.6393587     
  -69377735.5380581     
  -69319301.2303138     
  -69256990.4551983     
  -69190255.9588304     
  -69118914.2570710     
  -69044361.5744484     
  -68972438.6067197     
  -72360843.1477450     
  -72343266.2983707     
  -72324989.3867002     
  -72307250.1121948     
  -72290428.4139398     
  -72274493.7265291     
  -72259303.1656910     
  -72244671.2203149     
  -72230408.3840746     
  -72216340.8247495     
  -72202318.1985828     
  -72188216.1305125     
  -72173935.0964735     
  -72159397.7230956     
  -72144545.3896196     
  -72129334.7563945     
  -72113734.5319887     
  -72097722.6319309     
  -72081283.7822829     
  -72064407.5617774     
  -72047086.8468649     
  -72029316.6089854     
  -72011093.0094638     
  -71992412.7387009     
  -71973272.5510227     
  -71953668.9526038     
  -71933598.0064258     
  -71913055.2245895     
  -71892035.5241262     
  -71870533.2275681     
  -71848542.0938936     
  -71826055.3690551     
  -71803065.8482066     
  -71779565.9440440     
  -71755547.7574332     
  -71731003.1478457     
  -71705923.8021079     
  -71680301.3006709     
  -71654127.1811099     
  -71627392.9988840     
  -71600090.3856071     
  -71572211.1051927     
  -71543747.1083100     
  -71514690.5856032     
  -71485034.0201290     
  -71454770.2394518     
  -71423892.4678107     
  -71392394.3787568     
  -71360270.1486324     
  -71327514.5112632     
  -71294122.8142252     
  -71260091.0770633     
  -71225416.0518532     
  -71190095.2865408     
  -71154127.1915433     
  -71117511.1101615     
  -71080247.3934344     
  -71042337.4801719     
  -71003783.9830073     
  -70964590.7814358     
  -70924763.1229222     
  -70884307.7332725     
  -70843232.9375331     
  -70801548.7926922     
  -70759267.2333600     
  -70716402.2313454     
  -70672969.9695336     
  -70628989.0296248     
  -70584480.5919596     
  -70539468.6436710     
  -70493980.1885827     
  -70448045.4483374     
  -70401698.0389240     
  -70354975.0997593     
  -70307917.3433990     
  -70260568.9824931     
  -70212977.4764209     
  -70165193.0229480     
  -70117267.7002002     
  -70069254.1414793     
  -70021203.6007473     
  -69973163.2412922     
  -69925172.4569979     
  -69877258.0181936     
  -69829427.8305237     
  -69781663.1126721     
  -69733908.8607190     
  -69686062.5862308     
  -69637961.5544185     
  -69589369.1483257     
  -69539961.6197010     
  -69489317.7317168     
  -69436914.8313544     
  -69382139.3919277     
  -69324318.9251891     
  -69262801.2445235     
  -69197109.3367189     
  -69127219.9462129     
  -69054754.3332805     
  -68984762.5857792     
  -72357448.0164625     
  -72340262.1698016     
  -72322444.9983906     
  -72305051.1832131     
  -72288478.7791606     
  -72272731.9937519     
  -72257684.5015084     
  -72243163.9356572     
  -72228989.8462644     
  -72214994.7028858     
  -72201032.6056506     
  -72186982.1890441     
  -72172745.9654015     
  -72158247.9024000     
  -72143430.2564288     
  -72128250.2587191     
  -72112676.9959379     
  -72096688.6459822     
  -72080270.1326733     
  -72063411.2006620     
  -72046104.8802869     
  -72028346.2960077     
  -72010131.7667011     
  -71991458.1466608     
  -71972322.3601134     
  -71952721.0876757     
  -71932650.5693699     
  -71912106.4949301     
  -71891083.9577893     
  -71869577.4541309     
  -71847580.9126731     
  -71825087.7443915     
  -71802090.9042709     
  -71778582.9594560     
  -71754556.1599252     
  -71730002.5091671     
  -71704913.8333111     
  -71679281.8478923     
  -71653098.2219189     
  -71626354.6392542     
  -71599042.8575394     
  -71571154.7650106     
  -71542682.4356343     
  -71513618.1830081     
  -71483954.6134812     
  -71453684.6789298     
  -71422801.7296089     
  -71391299.5674742     
  -71359172.5003590     
  -71326415.3973770     
  -71293023.7459211     
  -71258993.7106399     
  -71224322.1947938     
  -71189006.9044313     
  -71153046.4158745     
  -71116440.2470732     
  -71079188.9334633     
  -71041294.1090697     
  -71002758.5936960     
  -70963586.4871699     
  -70923783.2717143     
  -70883355.9236307     
  -70842313.0355365     
  -70800664.9503932     
  -70758423.9084602     
  -70715604.2080239     
  -70672222.3802242     
  -70628297.3774302     
  -70583850.7732626     
  -70538906.9703411     
  -70493493.4090073     
  -70447640.7663070     
  -70401383.1292184     
  -70354758.1191045     
  -70307806.9353655     
  -70260574.2749076     
  -70213108.0700759     
  -70165458.9709035     
  -70117679.4779556     
  -70069822.6099638     
  -70021939.9666944     
  -69974079.0236104     
  -69926279.4735133     
  -69878568.4157845     
  -69830954.1931352     
  -69783418.6987821     
  -69735908.0432222     
  -69688321.5976737     
  -69640499.6820532     
  -69592210.5536951     
  -69543138.0752329     
  -69492872.4559427     
  -69440908.1508250     
  -69386656.0729711     
  -69329479.0585086     
  -69268776.4164802     
  -69204136.0557065     
  -69135672.1437650     
  -69065076.4326390     
  -68996665.5584805     
  -72354138.9420288     
  -72337278.8483251     
  -72319873.2005489     
  -72302814.2261907     
  -72286492.6651386     
  -72270938.6655680     
  -72256041.0116250     
  -72241638.6195711     
  -72227559.4672693     
  -72213642.0067375     
  -72199744.6845171     
  -72185749.1950367     
  -72171560.1901049     
  -72157103.1131859     
  -72142321.2330972     
  -72127172.4787984     
  -72111626.4263098     
  -72095661.6098926     
  -72079263.2279714     
  -72062421.2522008     
  -72045128.9141095     
  -72027381.5268162     
  -72009175.5928179     
  -71990508.1487032     
  -71971376.3010074     
  -71951776.9126206     
  -71931706.4050283     
  -71911160.6475522     
  -71890134.9102497     
  -71868623.8620175     
  -71846621.5996385     
  -71824121.6970116     
  -71801117.2666496     
  -71777601.0277890     
  -71753565.3772123     
  -71729002.4602203     
  -71703904.2401795     
  -71678262.5657918     
  -71652069.2357297     
  -71625316.0606306     
  -71597994.9226581     
  -71570097.8329728     
  -71541616.9875294     
  -71512544.8216417     
  -71482874.0637676     
  -71452597.7889486     
  -71421709.4723276     
  -71390203.0431436     
  -71358072.9395886     
  -71325314.1649052     
  -71291922.3451011     
  -71257893.7886675     
  -71223225.5487096     
  -71187915.4879377     
  -71151962.3470149     
  -71115365.8168229     
  -71078126.6152940     
  -71040246.5695461     
  -71001728.7041694     
  -70962577.3366290     
  -70922798.1808501     
  -70882398.4601578     
  -70841387.0307961     
  -70799774.5172308     
  -70757573.4603358     
  -70714798.4792502     
  -70671466.4471655     
  -70627596.6804022     
  -70583211.1387644     
  -70538334.6331409     
  -70492995.0334537     
  -70447223.4661127     
  -70401054.4848336     
  -70354526.1917104     
  -70307680.2765057     
  -70260561.9308928     
  -70213219.5806066     
  -70165704.3620013     
  -70118069.2503660     
  -70070367.7259405     
  -70022651.8407257     
  -69974969.5265652     
  -69927360.9652832     
  -69879853.8294944     
  -69832457.2047444     
  -69785154.0312516     
  -69737891.9729801     
  -69690572.7591695     
  -69643040.2928748     
  -69595068.2277407     
  -69546348.4280311     
  -69496482.7244947     
  -69444982.2602066     
  -69391281.0787646     
  -69334774.7957707     
  -69274906.7510754     
  -69211323.9743001     
  -69144242.7829969     
  -69075323.8986438     
  -69008232.9216167     
  -72350899.0204227     
  -72334315.0481549     
  -72317279.2300446     
  -72300542.4405065     
  -72284472.2578038     
  -72269115.4737541     
  -72254373.9142184     
  -72240096.1860694     
  -72226117.9217829     
  -72212283.2418473     
  -72198454.8224547     
  -72184517.4521970     
  -72170378.0174870     
  -72155963.5630620     
  -72141218.5003055     
  -72126101.5783039     
  -72110582.9708739     
  -72094641.6606172     
  -72078263.1961032     
  -72061437.8362419     
  -72044159.0605502     
  -72026422.4061670     
  -72008224.5851441     
  -71989562.8347222     
  -71970434.4561620     
  -71950836.5024930     
  -71930765.5811314     
  -71910217.7429842     
  -71889188.4349958     
  -71867672.4978667     
  -71845664.1947881     
  -71823157.2604922     
  -71800144.9627172     
  -71776620.1704288     
  -71752575.4248915     
  -71728003.0109971     
  -71702895.0272625     
  -71677243.4536158     
  -71651040.2166004     
  -71624277.2519723     
  -71596946.5648852     
  -71569040.2879998     
  -71540550.7379239     
  -71511470.4704242     
  -71481792.3348563     
  -71451509.5282531     
  -71420615.6494931     
  -71389104.7539493     
  -71356971.4090115     
  -71324210.7508645     
  -71290818.5429000     
  -71256791.2361600     
  -71222126.0322220     
  -71186820.9489845     
  -71150874.8898504     
  -71114287.7168793     
  -71077060.3285579     
  -71039194.7429324     
  -71000694.1869494     
  -70961563.1929694     
  -70921807.7035144     
  -70881435.1854105     
  -70840454.7545328     
  -70798877.3123352     
  -70756715.6952252     
  -70713984.8375330     
  -70670701.9482700     
  -70626886.7009753     
  -70582561.4345489     
  -70537751.3609595     
  -70492484.7728344     
  -70446793.2400042     
  -70400711.7788069     
  -70354278.9710288     
  -70307537.0005284     
  -70260531.5644925     
  -70213311.6027125     
  -70165928.7721160     
  -70118436.5750933     
  -70070889.0293573     
  -70023338.7450945     
  -69975834.2536814     
  -69928416.4141239     
  -69881113.7131885     
  -69833936.2798968     
  -69786868.4659654     
  -69739859.9167753     
  -69692815.2003620     
  -69645582.3110535     
  -69597940.7842010     
  -69549590.8451982     
  -69500146.0576746     
  -69449133.7566791     
  -69396009.8295190     
  -69340199.5501105     
  -69281183.9008415     
  -69218660.7602953     
  -69152911.4690443     
  -69085502.4931472     
  -69019532.9146138     
  -72347714.4179352     
  -72331368.1998404     
  -72314666.6997043     
  -72298238.8041785     
  -72282419.6083804     
  -72267264.0676258     
  -72252684.4395360     
  -72238537.5693093     
  -72224665.9228147     
  -72210918.9537025     
  -72197163.4448162     
  -72183287.2982767     
  -72169199.7230379     
  -72154829.4829907     
  -72140122.2570629     
  -72125037.7328952     
  -72109546.7876965     
  -72093628.9424017     
  -72077270.1698926     
  -72060461.0756809     
  -72043195.4334823     
  -72025469.0394560     
  -72007278.8409332     
  -71988622.2940553     
  -71969496.9071767     
  -71949899.9313219     
  -71929828.1643126     
  -71909277.8406549     
  -71888244.5844584     
  -71866723.4073291     
  -71844708.7372188     
  -71822194.4676034     
  -71799174.0191374     
  -71775640.4081447     
  -71751586.3180333     
  -71727004.1710474     
  -71701886.1987454     
  -71676224.5103184     
  -71650011.1583627     
  -71623238.2020720     
  -71595897.7680331     
  -71567982.1089564     
  -71539483.6607419     
  -71510395.0983187     
  -71480709.3907042     
  -71450419.8557239     
  -71419520.2148122     
  -71388004.6483003     
  -71355867.8515896     
  -71323105.0925920     
  -71289712.2708240     
  -71255685.9785560     
  -71221023.5644354     
  -71185723.2000417     
  -71149783.9498817     
  -71113205.8454009     
  -71075989.9636609     
  -71038138.5114293     
  -70999654.9155355     
  -70960543.9204473     
  -70920811.6941304     
  -70880465.9433413     
  -70839516.0395426     
  -70797973.1566121     
  -70755850.4213673     
  -70713163.0776280     
  -70669928.6639656     
  -70626167.2043845     
  -70581901.4097884     
  -70537156.8860535     
  -70491962.3416728     
  -70446349.7840173     
  -70400354.6880181     
  -70354016.1142257     
  -70307376.7444528     
  -70260482.7922701     
  -70213383.7322852     
  -70166131.7762731     
  -70118781.0059764     
  -70071386.0521739     
  -70024000.1884174     
  -69976672.6874024     
  -69929445.2712005     
  -69882347.4781133     
  -69835390.7758913     
  -69788561.2844447     
  -69741811.0473000     
  -69695047.9363987     
  -69648124.5251424     
  -69600826.6859657     
  -69552863.3366503     
  -69503859.8264124     
  -69453359.1621096     
  -69400837.7038385     
  -69345747.0720538     
  -69287600.0650066     
  -69226134.9738191     
  -69161664.3013588     
  -69095623.1022379     
  -69030621.4910023     
  -72344573.5622771     
  -72328435.0733771     
  -72312037.9310790     
  -72295905.9302435     
  -72280336.6476983     
  -72265386.0170420     
  -72250973.8180083     
  -72236963.7248731     
  -72223204.2177869     
  -72209549.7264375     
  -72195871.0136461     
  -72182059.1040629     
  -72168025.6101806     
  -72153701.1267732     
  -72139032.7203905     
  -72123981.1319920     
  -72108518.0449988     
  -72092623.6066898     
  -72076284.2870063     
  -72059491.0964286     
  -72042238.1484150     
  -72024521.5327060     
  -72006338.4573536     
  -71987686.6154753     
  -71968563.7347859     
  -71948967.2721032     
  -71928894.2201008     
  -71908340.9988845     
  -71887303.4100002     
  -71865776.6350588     
  -71843755.2651178     
  -71821233.3502991     
  -71798204.4618561     
  -71774661.7610819     
  -71750598.0711748     
  -71726005.9494718     
  -71700877.7584430     
  -71675205.7345558     
  -71648982.0546183     
  -71622198.8995555     
  -71594848.5158050     
  -71566923.2746520     
  -71538415.7299019     
  -71509318.6743316     
  -71479625.1953599     
  -71449328.7303796     
  -71418423.1221758     
  -71386902.6748377     
  -71354762.2105648     
  -71321997.1277539     
  -71288603.4607599     
  -71254577.9417308     
  -71219918.0649496     
  -71184622.1541377     
  -71148689.4332375     
  -71112120.1012535     
  -71074915.4118023     
  -71037077.7581280     
  -70998610.7644266     
  -70959519.3844418     
  -70919810.0083853     
  -70879490.5793255     
  -70838570.7202245     
  -70797061.8727730     
  -70754977.4490322     
  -70712332.9965719     
  -70669146.3772287     
  -70625437.9586973     
  -70581230.8167776     
  -70536550.9440788     
  -70491427.4581341     
  -70445892.7979995     
  -70399982.8932108     
  -70353737.2821970     
  -70307199.1486190     
  -70260415.2333143     
  -70213435.5664158     
  -70166312.9486598     
  -70119102.0930541     
  -70071858.3184123     
  -70024635.6657793     
  -69977484.2892784     
  -69930446.9573549     
  -69883554.4934158     
  -69836819.9936437     
  -69790231.6950558     
  -69743744.4451448     
  -69697269.8704683     
  -69650665.5920213     
  -69603724.2505156     
  -69556163.7601574     
  -69507621.2676821     
  -69457654.9177010     
  -69405760.0859382     
  -69351411.4371424     
  -69294147.9318750     
  -69233736.6407569     
  -69170492.5432501     
  -69105699.2470075     
  -69041545.5544514     
  -72341466.5832567     
  -72325512.1210972     
  -72309394.2459422     
  -72293546.0122478     
  -72278225.1755101     
  -72263482.8198718     
  -72249243.2723802     
  -72235375.6289749     
  -72221733.5863429     
  -72208176.1811634     
  -72194578.0265519     
  -72180833.2723729     
  -72166856.0096089     
  -72152578.7705347     
  -72137950.1249690     
  -72122931.9785242     
  -72107496.9209872     
  -72091625.8120063     
  -72075305.6898744     
  -72058528.0273576     
  -72041287.3224576     
  -72023579.9925413     
  -72005403.5314709     
  -71986755.8871773     
  -71967635.0188472     
  -71948038.5967886     
  -71927963.8129098     
  -71907407.2748741     
  -71886364.9619071     
  -71864832.2247026     
  -71842803.8157517     
  -71820273.9397094     
  -71797236.3160906     
  -71773684.2487532     
  -71749610.6983120     
  -71725008.3549161     
  -71699869.7097948     
  -71674187.1246834     
  -71647952.8987352     
  -71621159.3328774     
  -71593798.7917922     
  -71565863.7638392     
  -71537346.9193189     
  -71508241.1675170     
  -71478539.7129672     
  -71448236.1113813     
  -71417324.3256650     
  -71385798.7824399     
  -71353654.4294647     
  -71320886.7943538     
  -71287492.0449845     
  -71253467.0520049     
  -71218809.4538701     
  -71183517.7248731     
  -71147591.2466910     
  -71111030.3840245     
  -71073836.5649920     
  -71036012.3670289     
  -70997561.6091424     
  -70958489.4514787     
  -70918802.5032542     
  -70878508.9401885     
  -70837618.6326087     
  -70796143.2853653     
  -70754096.5905542     
  -70711494.3937154     
  -70668354.8736207     
  -70624698.7348494     
  -70580549.4109679     
  -70535933.2741248     
  -70490879.8440568     
  -70445421.9856428     
  -70399596.0790220     
  -70353442.1395954     
  -70307003.8567167     
  -70260328.5092685     
  -70213466.7034271     
  -70166471.8626709     
  -70119399.3826346     
  -70072305.3442664     
  -70025244.6589055     
  -69978268.5002367     
  -69931420.8635253     
  -69884734.0867789     
  -69838223.1786286     
  -69791878.8343550     
  -69745659.1007868     
  -69699479.7963629     
  -69653204.0408109     
  -69606631.6543055     
  -69559489.8278688     
  -69511427.4930726     
  -69462017.3869332     
  -69410772.3968150     
  -69357187.0157587     
  -69300820.7211495     
  -69241457.4701474     
  -69179391.4566686     
  -69115745.7143045     
  -69052345.1968518     
  -72338384.9126994     
  -72322595.6669423     
  -72306736.2003253     
  -72291160.8229006     
  -72276086.8462456     
  -72261555.9076507     
  -72247494.0139312     
  -72233774.2767918     
  -72220254.8389455     
  -72206798.9744085     
  -72193285.0156413     
  -72179610.2371225     
  -72165691.2786051     
  -72151462.7122074     
  -72136874.7227598     
  -72121890.4886590     
  -72106483.6036560     
  -72090635.7238202     
  -72074334.5255933     
  -72057572.0002325     
  -72040343.0742701     
  -72022644.5261527     
  -72004474.1602205     
  -71985830.1967573     
  -71966710.8383238     
  -71947113.9762716     
  -71927037.0060252     
  -71906476.7246937     
  -71885429.2893765     
  -71863890.2188898     
  -71841854.4254583     
  -71819316.2661301     
  -71796269.6063230     
  -71772707.8900324     
  -71748624.2128934     
  -71724011.3955645     
  -71698862.0558601     
  -71673168.6787505     
  -71646923.6838452     
  -71620119.4903212     
  -71592748.5794743     
  -71564803.5552149     
  -71536277.2029054     
  -71507162.5469760     
  -71477452.9077671     
  -71447141.9580355     
  -71416223.7795553     
  -71384692.9202288     
  -71352544.4521110     
  -71319774.0307394     
  -71286377.9561735     
  -71252353.2361556     
  -71217697.6518205     
  -71182409.8264333     
  -71146489.2976726     
  -71109936.5940403     
  -71072753.3160673     
  -71034942.2230596     
  -70996507.3262427     
  -70957453.9892512     
  -70917789.0370247     
  -70877520.8742306     
  -70836659.6143843     
  -70795217.2208013     
  -70753207.6603607     
  -70710647.0707538     
  -70667553.9413198     
  -70623949.3066801     
  -70579856.9510021     
  -70535303.6187496     
  -70490319.2249895     
  -70444937.0545178     
  -70399193.9340187     
  -70353130.3548696     
  -70306790.5158256     
  -70260222.2443789     
  -70213476.7429361     
  -70166608.0909905     
  -70119672.4174104     
  -70072726.6382688     
  -70025826.6364043     
  -69979024.7409382     
  -69932366.3512574     
  -69885885.5451546     
  -69839599.5219159     
  -69793501.7685372     
  -69747553.9165780     
  -69701676.4011083     
  -69655738.2764873     
  -69609546.9368833     
  -69562839.1123842     
  -69515275.4941983     
  -69466442.8620071     
  -69415870.1090831     
  -69363068.4502110     
  -69307612.2405316     
  -69249290.8592139     
  -69188359.3668396     
  -69125777.8014261     
  -69063055.2995719     
  -72335320.9897957     
  -72319682.0089354     
  -72304063.7654181     
  -72288751.7410333     
  -72273923.1598235     
  -72259606.6490469     
  -72245727.2414165     
  -72232160.6809002     
  -72218768.8158143     
  -72205418.7968130     
  -72191992.5464979     
  -72178390.4624581     
  -72164531.8003545     
  -72150353.2710040     
  -72135806.7826035     
  -72120856.8915017     
  -72105478.2905667     
  -72089653.5143805     
  -72073370.9458056     
  -72056623.1496237     
  -72039405.5239990     
  -72021715.2412496     
  -72003550.4403720     
  -71984909.6311838     
  -71965791.2712626     
  -71946193.4803685     
  -71926113.8615886     
  -71905549.4032692     
  -71884496.4405045     
  -71862950.6592214     
  -71840907.1296348     
  -71818360.3590135     
  -71795304.3562908     
  -71771732.7031457     
  -71747638.6278128     
  -71723015.0791346     
  -71697854.7993131     
  -71672150.3944972     
  -71645894.4028411     
  -71619079.3599956     
  -71591697.8622170     
  -71563742.6274200     
  -71535206.5545707     
  -71506082.7818599     
  -71476364.7441007     
  -71446046.2297995     
  -71415121.4383210     
  -71383585.0375753     
  -71351432.2226246     
  -71318658.7756112     
  -71285261.1274111     
  -71251236.4214268     
  -71216582.5799537     
  -71181298.3736007     
  -71145383.4942836     
  -71108838.6323798     
  -71071665.5587097     
  -71033867.2120951     
  -70995447.7933481     
  -70956412.8666425     
  -70916769.4693197     
  -70876526.2312514     
  -70835693.5049259     
  -70794283.5073863     
  -70752310.4750037     
  -70709790.8317599     
  -70666743.3711534     
  -70623189.4509634     
  -70579153.1987498     
  -70534661.7240171     
  -70489745.3302286     
  -70444437.7161151     
  -70398776.1507410     
  -70352801.6003127     
  -70306558.7764726     
  -70260096.0655650     
  -70213465.2859415     
  -70166721.2057105     
  -70119920.7366197     
  -70073121.7015134     
  -70026381.0540767     
  -69979752.4122085     
  -69933282.7533039     
  -69887008.1155934     
  -69840948.1612998     
  -69795099.4949678     
  -69749427.7087631     
  -69703858.2676079     
  -69658266.5832292     
  -69612468.0048388     
  -69566209.0518027     
  -69519162.1467457     
  -69470927.5698612     
  -69421048.7509441     
  -69369050.6405983     
  -69314516.9221573     
  -69257231.7853805     
  -69197396.9394255     
  -69135810.9076985     
  -69073706.7130554     
  -72332268.0384074     
  -72316767.4714464     
  -72301376.4648779     
  -72286319.7915508     
  -72271735.4597062     
  -72257636.3523715     
  -72243944.1416099     
  -72230535.8702778     
  -72217276.3860837     
  -72204036.3720711     
  -72190701.2172218     
  -72177174.4419364     
  -72163377.9832640     
  -72149250.7868797     
  -72134746.5897984     
  -72119831.4287737     
  -72104481.1886020     
  -72088679.3625326     
  -72072415.1065617     
  -72055681.6128029     
  -72038474.7931994     
  -72020792.2460010     
  -72002632.4684840     
  -71983994.2767642     
  -71964876.3947665     
  -71945277.1777964     
  -71925194.4405797     
  -71904625.3643655     
  -71883566.4622730     
  -71862013.5862574     
  -71839961.9627283     
  -71817406.2469601     
  -71794340.5889791     
  -71770758.7056643     
  -71746653.9554038     
  -71722019.4128727     
  -71696847.9424383     
  -71671132.2693504     
  -71644865.0483738     
  -71618038.9298338     
  -71590646.6232718     
  -71562680.9590382     
  -71534134.9482240     
  -71505001.8413714     
  -71475275.1864127     
  -71444948.8862838     
  -71414017.2566415     
  -71382475.0841053     
  -71350317.6854334     
  -71317540.9680305     
  -71284141.4921976     
  -71250116.5355385     
  -71215464.1599629     
  -71180183.2817667     
  -71144273.7453108     
  -71107736.4008906     
  -71070573.1874618     
  -71032787.2209728     
  -70994382.8891586     
  -70955365.9537458     
  -70915743.6611196     
  -70875524.8625754     
  -70834720.1453191     
  -70793341.9753454     
  -70751404.8531870     
  -70708925.4832131     
  -70665922.9566303     
  -70622418.9474438     
  -70578437.9193429     
  -70534007.3395333     
  -70489157.8928585     
  -70443923.6858896     
  -70398342.4257526     
  -70352455.5521205     
  -70306308.2927037     
  -70259949.6025079     
  -70213431.9349409     
  -70166810.7784832     
  -70120143.8762507     
  -70073490.0279327     
  -70026907.3552944     
  -69980450.8955481     
  -69934169.3743155     
  -69888101.0061695     
  -69842268.1825211     
  -69796670.9437883     
  -69751279.2095407     
  -69706023.8772593     
  -69660787.1275728     
  -69615392.6354875     
  -69569596.9537739     
  -69523084.2136366     
  -69475467.6759290     
  -69426303.9037644     
  -69375128.7345245     
  -69321529.8301330     
  -69265276.6464631     
  -69206506.6320148     
  -69145860.3266731     
  -69084327.1486067     
  -72329219.8947059     
  -72313848.4279199     
  -72298673.4781205     
  -72283865.6895903     
  -72269524.9376513     
  -72255646.2683581     
  -72242145.8908310     
  -72228900.8899900     
  -72215778.4471849     
  -72202652.4560812     
  -72189411.6575537     
  -72175962.6977420     
  -72162230.2602890     
  -72148155.6199820     
  -72133694.4456615     
  -72118814.3544667     
  -72103492.5136980     
  -72087713.4535101     
  -72071467.1681622     
  -72054747.5296231     
  -72037551.0047430     
  -72019875.6489653     
  -72001720.3408504     
  -71983084.2191015     
  -71963966.2849626     
  -71944365.1361472     
  -71924278.8027946     
  -71903704.6605703     
  -71882639.4005354     
  -71861079.0395056     
  -71839018.9582248     
  -71816453.9577080     
  -71793378.3266116     
  -71769785.9144988     
  -71745670.2074332     
  -71721024.4035470     
  -71695841.4871266     
  -71670114.3004216     
  -71643835.6128498     
  -71616998.1875913     
  -71589594.8457755     
  -71561618.5285985     
  -71533062.3577744     
  -71503919.6947678     
  -71474184.1992532     
  -71443849.8872567     
  -71412911.1894039     
  -71381363.0097048     
  -71349200.7852790     
  -71316420.5474266     
  -71283018.9844589     
  -71248993.5066968     
  -71214342.3140925     
  -71179064.4669449     
  -71143159.9602389     
  -71106629.8022026     
  -71069476.0977417     
  -71031702.1375114     
  -70993312.4934726     
  -70954313.1218846     
  -70914711.4747835     
  -70874516.6210730     
  -70833739.3783842     
  -70792392.4568505     
  -70750490.6157943     
  -70708050.8340304     
  -70665092.4939726     
  -70621637.5788693     
  -70577710.8812125     
  -70533340.2184870     
  -70488556.6497956     
  -70443394.6833108     
  -70397892.4597002     
  -70352091.8904622     
  -70306038.7221696     
  -70259782.4877608     
  -70213376.2940723     
  -70166876.3807088     
  -70120341.3692917     
  -70073831.1046299     
  -70027404.9714400     
  -69981119.5537199     
  -69935025.4916117     
  -69889163.3869900     
  -69843558.6205793     
  -69798214.9795910     
  -69753107.0691619     
  -69708171.6125248     
  -69663297.9614027     
  -69618318.4802161     
  -69572999.9987107     
  -69527038.3472831     
  -69480059.2851607     
  -69431631.1957311     
  -69381298.1157534     
  -69328646.6413571     
  -69273423.0841318     
  -69215692.2816625     
  -69155941.1563383     
  -69094941.8688253     
  -72326170.8707189     
  -72310921.3060187     
  -72295953.7176736     
  -72281389.8841908     
  -72267292.6437236     
  -72253637.5940110     
  -72240333.6571979     
  -72227256.8015249     
  -72214275.9244868     
  -72201267.8362723     
  -72188124.5280866     
  -72174755.7799385     
  -72161089.0882701     
  -72147068.1500922     
  -72132650.6670694     
  -72117805.9344748     
  -72102512.4905528     
  -72086755.9787091     
  -72070527.2949802     
  -72053821.0423810     
  -72036634.2827135     
  -72018965.5590108     
  -72000814.1534391     
  -71982179.5430488     
  -71963061.0169642     
  -71943457.4218593     
  -71923367.0068233     
  -71902787.3432754     
  -71881715.3000001     
  -71860147.0574074     
  -71838078.1486383     
  -71815503.5181247     
  -71792417.5906446     
  -71768814.3458903     
  -71744687.3950953     
  -71720030.0574437     
  -71694835.4348710     
  -71669096.4845022     
  -71642806.0884292     
  -71615957.1208453     
  -71588542.5127501     
  -71560555.3145736     
  -71531988.7571327     
  -71502836.3113621     
  -71473091.7472826     
  -71442749.1926476     
  -71411803.1917093     
  -71380248.7645263     
  -71348081.4672222     
  -71315297.4536048     
  -71281893.5385549     
  -71247867.2636042     
  -71213216.9651491     
  -71177941.8457814     
  -71142042.0492642     
  -71105518.7397425     
  -71068374.1858600     
  -71030611.8505280     
  -70992236.4872050     
  -70953254.2436316     
  -70913672.7740710     
  -70873501.3611839     
  -70832751.0487014     
  -70791434.7860451     
  -70749567.5859177     
  -70707166.6955929     
  -70664251.7821454     
  -70620845.1310242     
  -70576971.8561235     
  -70532660.1176900     
  -70487941.3418350     
  -70442850.4319146     
  -70397425.9573755     
  -70351710.2995601     
  -70305749.7262266     
  -70259594.3568782     
  -70213297.9692835     
  -70166917.5837579     
  -70120512.7460229     
  -70074144.4122640     
  -70027873.3224147     
  -69981757.7314103     
  -69935850.3560397     
  -69890194.3912970     
  -69844818.4611295     
  -69799730.4031638     
  -69754909.8580653     
  -69710299.7594666     
  -69665797.0248000     
  -69621243.0674617     
  -69576415.2422880     
  -69531021.0908112     
  -69484698.4404497     
  -69437026.2926099     
  -69387554.3886142     
  -69335863.6053585     
  -69281669.8094035     
  -69224958.7961464     
  -69166068.2795607     
  -69105574.2343898     
  -72323115.6438617     
  -72307982.5822353     
  -72293215.8869988     
  -72278892.5992180     
  -72265039.5000740     
  -72251611.4779061     
  -72238508.6035390     
  -72225604.6837014     
  -72212769.7712106     
  -72199883.3310875     
  -72186840.5195651     
  -72173554.2657543     
  -72159954.9472767     
  -72145988.7760545     
  -72131615.5859826     
  -72116806.4462038     
  -72101541.3523131     
  -72085807.1354361     
  -72069595.6552660     
  -72052902.2956652     
  -72035724.7522874     
  -72018062.0852224     
  -71999914.0018212     
  -71981280.3326537     
  -71962160.6648299     
  -71942554.1001838     
  -71922459.1100241     
  -71901873.4626551     
  -71880794.2042155     
  -71859217.6773251     
  -71837139.5654995     
  -71814554.9541962     
  -71791458.4017558     
  -71767844.0154050     
  -71743705.5290059     
  -71719036.3803620     
  -71693829.7867629     
  -71668078.8180614     
  -71641776.4670234     
  -71614915.7169929     
  -71587489.6071011     
  -71559491.2953815     
  -71530914.1202109     
  -71501751.6605252     
  -71471997.7952723     
  -71441646.7625516     
  -71410693.2188777     
  -71379132.2989944     
  -71346959.6766516     
  -71314171.6267529     
  -71280765.0892881     
  -71246737.7354673     
  -71212088.0365102     
  -71176815.3355673     
  -71140919.9233055     
  -71104403.1177477     
  -71067267.3490333     
  -71029516.2498523     
  -70991154.7524042     
  -70952189.1928286     
  -70912627.4241612     
  -70872478.9389388     
  -70831755.0026321     
  -70790468.7990681     
  -70748635.5888814     
  -70706272.8817756     
  -70663400.6228886     
  -70620041.3927628     
  -70576220.6192121     
  -70531966.7976181     
  -70487311.7136968     
  -70442290.6593636     
  -70396942.6277888     
  -70351310.4677773     
  -70305440.9700506     
  -70259384.8485644     
  -70213196.5685246     
  -70166933.9592248     
  -70120657.5343501     
  -70074429.4254869     
  -70028311.8172051     
  -69982364.7559613     
  -69936643.1929118     
  -69891193.1166520     
  -69846046.6419602     
  -69801215.9533020     
  -69756686.0690451     
  -69712406.5102409     
  -69668282.1487496     
  -69624163.8053427     
  -69579839.6173067     
  -69535028.8781807     
  -69489381.1187729     
  -69442484.8858791     
  -69393893.3566295     
  -69343177.4891246     
  -69290016.4391709     
  -69234311.9233471     
  -69176256.3865978     
  -69116246.1468711     
  -72320049.1654495     
  -72305028.7701630     
  -72290458.5237012     
  -72276373.8706948     
  -72262766.3172382     
  -72249569.0270209     
  -72236671.8909606     
  -72223945.6340713     
  -72211260.9686135     
  -72198499.7896109     
  -72185560.3522621     
  -72172358.7588996     
  -72158828.3399548     
  -72144917.9151971     
  -72130589.5489502     
  -72115816.1781621     
  -72100579.3402394     
  -72084867.1266428     
  -72068672.4209332     
  -72051991.4361876     
  -72034822.5396039     
  -72017165.3368014     
  -71999019.9810922     
  -71980386.6710971     
  -71961265.3015154     
  -71941655.2351492     
  -71921555.1684940     
  -71900963.0676454     
  -71879876.1555509     
  -71858290.9355276     
  -71836203.2393434     
  -71813608.2910192     
  -71790500.7798395     
  -71766874.9379274     
  -71742724.6191970     
  -71718043.3776099     
  -71692824.5434887     
  -71667061.2972434     
  -71640746.7402935     
  -71613873.9632505     
  -71586436.1116190     
  -71558426.4493858     
  -71529838.4209269     
  -71500665.7116885     
  -71470902.3081092     
  -71440542.5572324     
  -71409581.2264506     
  -71378013.5638102     
  -71345835.3592873     
  -71313043.0074499     
  -71279633.5719116     
  -71245604.8520081     
  -71210955.4521372     
  -71175684.8542497     
  -71139793.4940192     
  -71103282.8412798     
  -71066155.4854001     
  -71028415.2263444     
  -70990067.1722684     
  -70951117.8446032     
  -70911575.2916727     
  -70871449.2119783     
  -70830751.0883424     
  -70789494.3340783     
  -70747694.4522685     
  -70705369.2089741     
  -70662538.8207446     
  -70619226.1560411     
  -70575456.9490231     
  -70531260.0224551     
  -70486667.5140803     
  -70441715.0975080     
  -70396442.1842451     
  -70350892.0877188     
  -70305112.1227659     
  -70259153.6048404     
  -70213071.7019695     
  -70166925.0792157     
  -70120775.2601807     
  -70074685.6134302     
  -70028719.8545127     
  -69982939.9381749     
  -69937403.2030207     
  -69892158.6262070     
  -69847242.0545552     
  -69802670.3086893     
  -69758434.1194517     
  -69714489.9655659     
  -69670751.0577100     
  -69627077.9839623     
  -69583269.9349792     
  -69539058.0332162     
  -69494103.2253447     
  -69448002.6782514     
  -69400310.9950396     
  -69350585.5118994     
  -69298463.3471556     
  -69243758.0790597     
  -69186520.0229189     
  -69126978.4156038     
  -72316966.5830949     
  -72302056.4049420     
  -72287680.0318773     
  -72273833.5804720     
  -72260473.8120293     
  -72247511.3150147     
  -72234824.6830724     
  -72222280.7707530     
  -72209750.5264290     
  -72197118.0913275     
  -72184284.7754288     
  -72171169.8889127     
  -72157709.7908823     
  -72143856.0027428     
  -72129572.9165982     
  -72114835.4295269     
  -72099626.7033497     
  -72083936.1606333     
  -72067757.7673269     
  -72051088.6126005     
  -72033927.7716202     
  -72016275.4229534     
  -71998132.1857851     
  -71979498.6406282     
  -71960374.9988238     
  -71940760.8895213     
  -71920655.2370411     
  -71900056.2059195     
  -71878961.1951789     
  -71857366.8671755     
  -71835269.1996997     
  -71812663.5527900     
  -71789544.7439970     
  -71765907.1276534     
  -71741744.6751121     
  -71717051.0540000     
  -71691819.7053260     
  -71666043.9178656     
  -71639716.8996486     
  -71612831.8466524     
  -71585382.0089779     
  -71557360.7548966     
  -71528761.6332029     
  -71499578.4343460     
  -71469805.2507989     
  -71439436.5371274     
  -71408467.1701987     
  -71376892.5099583     
  -71344708.4611900     
  -71311911.5366718     
  -71278498.9221376     
  -71244468.5434713     
  -71209819.1365831     
  -71174550.3204427     
  -71138662.6738086     
  -71102157.8162367     
  -71065038.4940333     
  -71027308.6719079     
  -70988973.6311633     
  -70950040.0753873     
  -70910516.2446814     
  -70870412.0395751     
  -70829739.1558228     
  -70788511.2312758     
  -70746744.0059440     
  -70704455.4961298     
  -70661666.1830878     
  -70618399.2159499     
  -70574680.6275469     
  -70530539.5601344     
  -70486008.4957138     
  -70441123.4824512     
  -70395924.3444276     
  -70350454.8563381     
  -70304762.8575864     
  -70258900.2712297     
  -70212922.9822575     
  -70166890.5166671     
  -70120865.4478383     
  -70074912.4402431     
  -70029096.8234433     
  -69983482.5731883     
  -69938129.5637367     
  -69893089.9500540     
  -69848403.5457334     
  -69804092.0898407     
  -69760152.3534267     
  -69716548.1371630     
  -69673201.3720603     
  -69629982.7774176     
  -69586702.8856744     
  -69543104.7676236     
  -69498860.5860496     
  -69453575.3665586     
  -69406803.4175557     
  -69358085.2736406     
  -69307011.5295357     
  -69253304.2182504     
  -69196873.6522897     
  -69137791.0689876     
  -72313863.1731942     
  -72299062.0253748     
  -72284878.7064629     
  -72271271.4865954     
  -72258162.6264057     
  -72245439.3917867     
  -72232968.1508581     
  -72220611.2346442     
  -72208239.4835312     
  -72195739.1460013     
  -72183014.5668064     
  -72169988.3105325     
  -72156599.8459237     
  -72142803.4912100     
  -72128566.0631000     
  -72113864.5096935     
  -72098683.6980420     
  -72083014.4507577     
  -72066851.8729750     
  -72050193.9752974     
  -72033040.5759558     
  -72015392.4527651     
  -71997250.7097777     
  -71978616.3224915     
  -71959489.8273490     
  -71939871.1247617     
  -71919759.3691491     
  -71899152.9238635     
  -71878049.3630557     
  -71856445.5063062     
  -71834337.4750793     
  -71811720.7627965     
  -71788590.3125301     
  -71764940.5980852     
  -71740765.7056009     
  -71716059.4138457     
  -71690815.2721422     
  -71665026.6754157     
  -71638686.9362445     
  -71611789.3540505     
  -71584327.2817368     
  -71556294.1901704     
  -71527683.7309689     
  -71498489.7980568     
  -71468706.5884674     
  -71438328.6628500     
  -71407351.0061239     
  -71375769.0887119     
  -71343578.9287654     
  -71310777.1558001     
  -71277361.0761442     
  -71243328.7406346     
  -71208679.0150039     
  -71173411.6534381     
  -71137527.3758373     
  -71101027.9493662     
  -71063916.2749560     
  -71026196.4795067     
  -70987874.0146373     
  -70948955.7629329     
  -70909450.1527391     
  -70869367.2826511     
  -70828719.0569093     
  -70787519.3329244     
  -70745784.0820789     
  -70703531.5647565     
  -70660782.5201534     
  -70617560.3707467     
  -70573891.4402565     
  -70529805.1823868     
  -70485334.4154124     
  -70440515.5546214     
  -70395388.8304902     
  -70349998.4750563     
  -70304392.8519688     
  -70258624.4969605     
  -70212750.0247600     
  -70166829.8456953     
  -70120927.6205184     
  -70075109.3656798     
  -70029442.1042538     
  -69983991.9414130     
  -69938821.4301767     
  -69893986.0866615     
  -69849529.9193676     
  -69805479.8611171     
  -69761839.0441759     
  -69718578.9501825     
  -69675630.6104374     
  -69632875.2455524     
  -69590135.0391714     
  -69547165.1780819     
  -69503648.9383543     
  -69459198.6220739     
  -69413366.8380157     
  -69365674.6796151     
  -69315662.4838151     
  -69262957.7383197     
  -69207331.7291560     
  -69148703.6254175     
  -72310734.2805725     
  -72296042.1545815     
  -72282052.7517792     
  -72268687.2509459     
  -72255833.3469354     
  -72243354.2941200     
  -72231103.4781428     
  -72218938.1919634     
  -72206728.9087997     
  -72194363.8936657     
  -72181750.5321910     
  -72168814.7030905     
  -72155499.0715874     
  -72141760.8498001     
  -72127569.3756279     
  -72112903.7378016     
  -72097750.5876966     
  -72082102.2150832     
  -72065954.9193229     
  -72049307.6762017     
  -72032161.0807240     
  -72014516.5350751     
  -71996375.6461890     
  -71977739.7968476     
  -71958609.8564164     
  -71938986.0009808     
  -71918867.6169449     
  -71898253.2665496     
  -71877140.6979019     
  -71855526.8858186     
  -71833408.0929622     
  -71810779.9434073     
  -71787637.5029324     
  -71763975.3620240     
  -71739787.7189140     
  -71715068.4609566     
  -71689811.2433893     
  -71664009.5650497     
  -71637656.8409821     
  -71610746.4721143     
  -71583271.9123376     
  -71555226.7334125     
  -71526604.6881637     
  -71497399.7724473     
  -71467606.2863661     
  -71437218.8951954     
  -71406232.6904661     
  -71374643.2516371     
  -71342446.7087713     
  -71309639.8066283     
  -71276219.9705855     
  -71242185.3748165     
  -71207535.0131671     
  -71172268.7732155     
  -71136387.5140396     
  -71099893.1482788     
  -71062788.7291522     
  -71025078.5431774     
  -70986768.2094356     
  -70947864.7863284     
  -70908376.8868898     
  -70868314.8037947     
  -70827690.6453011     
  -70786518.4833717     
  -70744814.5151716     
  -70702597.2389635     
  -70659887.6450635     
  -70616709.4218871     
  -70573089.1761452     
  -70529056.6647831     
  -70484645.0341338     
  -70439891.0588430     
  -70394835.3691505     
  -70349522.6498869     
  -70304001.7877809     
  -70258325.9351877     
  -70212552.4478730     
  -70166742.6419771     
  -70120961.3007800     
  -70075275.8457302     
  -70029755.0691570     
  -69984467.3095459     
  -69939477.9364509     
  -69894846.0043831     
  -69850619.9381834     
  -69806832.1328030     
  -69763492.3962821     
  -69720580.2456217     
  -69678036.1919813     
  -69635752.3354858     
  -69593562.8444822     
  -69551235.2425418     
  -69508463.9209014     
  -69464868.0684398     
  -69419997.5277097     
  -69373351.8626369     
  -69324418.0986431     
  -69272726.4055764     
  -69217908.7768585     
  -69159735.3355531     
  -72307575.2629553     
  -72292993.2796824     
  -72279200.2960094     
  -72266080.4648188     
  -72253486.5246699     
  -72241257.0572246     
  -72229231.8675920     
  -72217262.8370724     
  -72205219.9021496     
  -72192993.3046978     
  -72180493.5050454     
  -72167649.7699223     
  -72154408.0543798     
  -72140728.5637733     
  -72126583.2537872     
  -72111953.4422413     
  -72096827.6422591     
  -72081199.6760479     
  -72065067.0904493     
  -72048429.8685392     
  -72031289.4143537     
  -72013647.7783320     
  -71995507.0872712     
  -71976869.1426898     
  -71957735.1540192     
  -71938105.5768912     
  -71917980.0311607     
  -71897357.2777086     
  -71876235.2371803     
  -71854611.0374571     
  -71832481.0797859     
  -71809841.1160637     
  -71786686.3318831     
  -71763011.4315658     
  -71738810.7226996     
  -71714078.1986363     
  -71688807.6181029     
  -71662992.5815906     
  -71636626.6045074     
  -71609703.1873296     
  -71582215.8831085     
  -71554158.3627767     
  -71525524.4787358     
  -71496308.3272136     
  -71466504.3098733     
  -71436107.1951421     
  -71405112.1797055     
  -71373514.9506002     
  -71341311.7483237     
  -71308499.4313681     
  -71275075.5425973     
  -71241038.3778844     
  -71206387.0574611     
  -71171121.6004536     
  -71135243.0031321     
  -71098753.3214571     
  -71061655.7585809     
  -71023954.7580443     
  -70985656.1035153     
  -70946767.0260144     
  -70907296.3196867     
  -70867254.4672814     
  -70826653.7765811     
  -70785508.5290684     
  -70743835.1420694     
  -70701652.3454802     
  -70658981.3738552     
  -70615846.1740552     
  -70572273.6277632     
  -70528293.7867832     
  -70483940.1170378     
  -70439249.7444147     
  -70394263.6917925     
  -70349027.0915699     
  -70303589.3514781     
  -70258004.2432273     
  -70212329.8733266     
  -70166628.4831566     
  -70120966.0110766     
  -70075411.3333011     
  -70030035.0831802     
  -69984907.9316415     
  -69940098.1969805     
  -69895668.6430505     
  -69851672.3256351     
  -69808147.3632574     
  -69765110.5480635     
  -69722549.7827429     
  -69680415.4385044     
  -69638610.8829525     
  -69596982.6292966     
  -69555310.8158518     
  -69513301.0619688     
  -69470579.2574718     
  -69426691.7691208     
  -69381115.1036817     
  -69333280.5518837     
  -69282618.2979996     
  -69228619.4697243     
  -69170905.4052842     
  -72304381.4383111     
  -72289911.8307605     
  -72276319.4030094     
  -72263450.6731722     
  -72251122.6953797     
  -72239148.7270070     
  -72227354.5471552     
  -72215586.3955288     
  -72203713.5956939     
  -72191628.3799720     
  -72179244.3461443     
  -72166494.2377868     
  -72153327.4001565     
  -72139707.1338123     
  -72125608.1090316     
  -72111013.9601405     
  -72095915.1378000     
  -72080307.0600951     
  -72064188.5727701     
  -72047560.7065972     
  -72030425.7053960     
  -72012786.2904445     
  -71994645.1242942     
  -71976004.4377563     
  -71956865.7867501     
  -71937229.9097552     
  -71917096.6610961     
  -71896464.9997013     
  -71875333.0170745     
  -71853697.9917950     
  -71831556.4609330     
  -71808904.3012695     
  -71785736.8152397     
  -71762048.8180947     
  -71737834.7239990     
  -71713088.6296788     
  -71687804.3949007     
  -71661975.7195263     
  -71635596.2172089     
  -71608659.4859994     
  -71581159.1762628     
  -71553089.0563680     
  -71524443.0766474     
  -71495215.4321240     
  -71465400.6244983     
  -71434993.5238585     
  -71403989.4305698     
  -71372384.1377717     
  -71340173.9949016     
  -71307355.9726576     
  -71273927.7298057     
  -71239887.6822652     
  -71205235.0749059     
  -71169970.0565391     
  -71134093.7586246     
  -71097608.3782713     
  -71060517.2661893     
  -71022825.0203312     
  -70984537.5860598     
  -70945662.3637971     
  -70906208.3252066     
  -70866186.1390859     
  -70825608.3082311     
  -70784489.3185872     
  -70742845.8019891     
  -70700696.7136783     
  -70658063.5255048     
  -70614970.4351948     
  -70571444.5912561     
  -70527516.3317807     
  -70483219.4335475     
  -70438591.3651890     
  -70393673.5345720     
  -70348511.5157142     
  -70303155.2342945     
  -70257659.0828103     
  -70212081.9265199     
  -70166486.9492836     
  -70120941.2743205     
  -70075515.2789388     
  -70030281.5050815     
  -69985313.0502496     
  -69940681.3078913     
  -69896452.9156421     
  -69852685.7678608     
  -69809423.9611305     
  -69766691.5739834     
  -69724485.2415043     
  -69682765.5766147     
  -69641447.6134959     
  -69600390.5991284     
  -69559387.6248433     
  -69518155.7670061     
  -69476327.6431809     
  -69433445.8067662     
  -69388962.7510853     
  -69342252.2140577     
  -69292641.7586936     
  -69239478.7180511     
  -69182233.2071767     
  -72301148.0333710     
  -72286794.1592077     
  -72273408.0826419     
  -72260797.3982748     
  -72248742.4001907     
  -72237030.3729144     
  -72225472.7768527     
  -72213910.1273137     
  -72202211.1550051     
  -72190270.1510658     
  -72178003.9432444     
  -72165348.8562930     
  -72152257.7334632     
  -72138697.0753662     
  -72124644.3640585     
  -72110085.6368301     
  -72095013.3560601     
  -72079424.5972903     
  -72063319.5547205     
  -72046700.3454713     
  -72029570.0823246     
  -72011932.1786235     
  -71993789.8474206     
  -71975145.7584343     
  -71956001.8197301     
  -71936359.0553314     
  -71916217.5545772     
  -71895576.4734879     
  -71874434.0724677     
  -71852787.7782182     
  -71830634.2607192     
  -71807969.5185820     
  -71784788.9680302     
  -71761087.5322783     
  -71736859.7292420     
  -71712099.7563661     
  -71686801.5719782     
  -71660958.9730097     
  -71634565.6692194     
  -71607615.3542430     
  -71580101.7738994     
  -71552018.7922424     
  -71523360.4558735     
  -71494121.0570221     
  -71464295.1958847     
  -71433877.8427048     
  -71402864.4000369     
  -71371250.7656310     
  -71339033.3963558     
  -71306209.3735668     
  -71272776.4703343     
  -71238733.2209509     
  -71204078.9931597     
  -71168814.0635768     
  -71132939.6968298     
  -71096458.2289862     
  -71059373.1559229     
  -71021689.2273744     
  -70983412.5474918     
  -70944550.6828645     
  -70905112.7790654     
  -70865109.6869009     
  -70824554.0996494     
  -70783460.7026405     
  -70741846.3365353     
  -70699730.1755925     
  -70657133.9219529     
  -70614082.0165391     
  -70570601.8664006     
  -70526724.0871519     
  -70482482.7574092     
  -70437915.6796546     
  -70393064.6385274     
  -70347975.6429469     
  -70302699.1324420     
  -70257290.1203491     
  -70211808.2368744     
  -70166317.6232761     
  -70120886.6144845     
  -70075587.1315973     
  -70030493.6883160     
  -69985681.8976152     
  -69941226.3484749     
  -69897197.7100312     
  -69853658.9157167     
  -69810660.2876582     
  -69768233.4871145     
  -69726384.2250160     
  -69685083.7398063     
  -69644259.1435506     
  -69603782.8362326     
  -69563461.2630089     
  -69523023.3054603     
  -69482108.5544160     
  -69440255.7957429     
  -69396893.1381495     
  -69351335.5541938     
  -69302805.3552601     
  -69250501.7555515     
  -69193738.4872292     
  -72297870.1317332     
  -72283636.5154913     
  -72270464.3007174     
  -72258120.1635142     
  -72246346.2067216     
  -72234903.1012090     
  -72223587.8557980     
  -72212235.3301754     
  -72200713.7804441     
  -72188919.6805008     
  -72176773.2107696     
  -72164214.3973252     
  -72151199.6968694     
  -72137698.9179832     
  -72123692.4521856     
  -72109168.8252885     
  -72094122.5839676     
  -72078552.5209198     
  -72062460.2264274     
  -72045848.9407978     
  -72028722.6733225     
  -72011085.5492159     
  -71992941.3455790     
  -71974293.1796623     
  -71955143.3165336     
  -71935493.0678180     
  -71915342.7579161     
  -71894691.7385976     
  -71873538.4369190     
  -71851880.4249091     
  -71829714.5023808     
  -71807036.7866039     
  -71783842.8044485     
  -71760127.5840631     
  -71735885.7442442     
  -71711111.5804648     
  -71685799.1471094     
  -71659942.3358557     
  -71633534.9504134     
  -71606570.7779972     
  -71579043.6580041     
  -71550947.5484088     
  -71522276.5904073     
  -71493025.1718284     
  -71463187.9898126     
  -71432760.1132371     
  -71401737.0453397     
  -71370114.7869738     
  -71337889.9009116     
  -71305059.5776049     
  -71271621.7028113     
  -71237574.9275079     
  -71202918.7405293     
  -71167653.5443989     
  -71131780.7348743     
  -71095302.7847752     
  -71058223.3327383     
  -71020547.2776361     
  -70982280.8794854     
  -70943431.8677972     
  -70904009.5584317     
  -70864024.9801493     
  -70823491.0121657     
  -70782422.5340961     
  -70740836.5897197     
  -70698752.5659414     
  -70656192.3881291     
  -70613180.7326390     
  -70569745.2566416     
  -70525916.8443016     
  -70481729.8667585     
  -70437222.4510210     
  -70392436.7496957     
  -70347419.1990682     
  -70302220.7473219     
  -70256897.0272195     
  -70211508.4382068     
  -70166120.0914098     
  -70120801.5572344     
  -70075626.3394481     
  -70030670.9820546     
  -69986013.6969413     
  -69941732.3827237     
  -69897901.8908082     
  -69854590.3868919     
  -69811854.6590308     
  -69769734.2416698     
  -69728244.2620300     
  -69687366.9705471     
  -69647041.9814637     
  -69607155.2983675     
  -69567527.1849049     
  -69527898.7971224     
  -69487917.1665537     
  -69447117.7485465     
  -69404904.4987499     
  -69360533.0450765     
  -69313117.8407870     
  -69261704.2291399     
  -69205441.5732532     
  -72294542.6200067     
  -72280435.0263377     
  -72267485.9895869     
  -72255418.5181352     
  -72243934.7308492     
  -72232768.0685355     
  -72221701.1293384     
  -72210563.3430305     
  -72199222.7085208     
  -72187578.0620018     
  -72175553.0895011     
  -72163091.6544629     
  -72150153.9502853     
  -72136713.2046197     
  -72122752.8167050     
  -72108263.8855654     
  -72093243.1131450     
  -72077691.0670704     
  -72061610.7793625     
  -72045006.6484743     
  -72027883.6060574     
  -72010246.5075275     
  -71992099.7063274     
  -71973446.7748265     
  -71954290.3391103     
  -71934631.9997954     
  -71914472.3158660     
  -71893810.8330965     
  -71872646.1426403     
  -71850975.9588286     
  -71828797.2080617     
  -71806106.1229718     
  -71782898.3378453     
  -71759168.9826698     
  -71734912.7742034     
  -71710124.1032240     
  -71684797.1176437     
  -71658925.8015423     
  -71632504.0504084     
  -71605525.7430158     
  -71577984.8104509     
  -71549875.3028312     
  -71521191.4542591     
  -71491927.7465444     
  -71462078.9722037     
  -71431640.2972123     
  -71400607.3239716     
  -71368976.1549152     
  -71336743.4571772     
  -71303906.5287265     
  -71270463.3663772     
  -71236412.7360853     
  -71201754.2459784     
  -71166488.4225742     
  -71130616.7907079     
  -71094141.9577288     
  -71057067.7026131     
  -71019399.0707135     
  -70981142.4749785     
  -70942305.8045827     
  -70902898.5420401     
  -70862931.8899999     
  -70822418.9090562     
  -70781374.6679940     
  -70739816.4079770     
  -70697763.7221465     
  -70655238.7519740     
  -70612266.4013923     
  -70568874.5691272     
  -70525094.3987123     
  -70480960.5441812     
  -70436511.4473062     
  -70391789.6192301     
  -70346841.9152149     
  -70301719.7857437     
  -70256479.4800557     
  -70211182.1691220     
  -70165893.9438328     
  -70120685.6305961     
  -70075632.3507300     
  -70030812.7322525     
  -69986307.6637090     
  -69942198.4609312     
  -69898564.3011836     
  -69855478.7681039     
  -69813005.3488435     
  -69771191.7356000     
  -69730062.8094827     
  -69689612.2223816     
  -69649792.5284892     
  -69610503.8174861     
  -69571580.7004182     
  -69532777.1982430     
  -69493748.4727099     
  -69454027.4807117     
  -69412994.8804443     
  -69369847.0648032     
  -69323588.1122627     
  -69273102.2910670     
  -69217363.5911167     
  -72291160.1303493     
  -72277185.6713542     
  -72264471.0604903     
  -72252692.0637032     
  -72241508.6592222     
  -72230626.4956299     
  -72219813.9961903     
  -72208895.5493561     
  -72197739.2132484     
  -72186246.4207519     
  -72174344.5462561     
  -72161981.4423866     
  -72149121.1702612     
  -72135740.4909305     
  -72121825.9102158     
  -72107371.1841845     
  -72092375.2393886     
  -72076840.4741947     
  -72060771.4059816     
  -72044173.6243675     
  -72027053.0074526     
  -72009415.1576425     
  -71991265.0157118     
  -71972606.6156515     
  -71953442.9477037     
  -71933775.9021644     
  -71913606.2715777     
  -71892933.7935551     
  -71871757.2204720     
  -71850074.4057000     
  -71827882.3988031     
  -71805177.5443512     
  -71781955.5807242     
  -71758211.7365879     
  -71733940.8236972     
  -71709137.3253746     
  -71683795.4805052     
  -71657909.3632089     
  -71631472.9585645     
  -71604480.2348709     
  -71576925.2130027     
  -71548802.0334299     
  -71520105.0214600     
  -71490828.7512540     
  -71460968.1091226     
  -71430518.3565915     
  -71399475.1936901     
  -71367834.8228953     
  -71335594.0141467     
  -71302750.1713382     
  -71269301.4006909     
  -71235246.5814206     
  -71200585.4391349     
  -71165318.6224178     
  -71129447.7831131     
  -71092975.6608662     
  -71055906.1725577     
  -71018244.5073524     
  -70979997.2281850     
  -70941172.3806269     
  -70901779.6102036     
  -70861830.2893793     
  -70821337.6555560     
  -70780316.9615595     
  -70738785.6401806     
  -70696763.4843508     
  -70654272.8444621     
  -70611338.8440700     
  -70567989.6147468     
  -70524256.5499904     
  -70480174.5767812     
  -70435782.4414256     
  -70391123.0035236     
  -70346243.5280274     
  -70301195.9601533     
  -70256037.1610576     
  -70210829.0734211     
  -70165638.7751030     
  -70120538.3656519     
  -70075604.6146397     
  -70030918.2827696     
  -69986563.0070579     
  -69942623.6213665     
  -69899183.7649662     
  -69856322.6173792     
  -69814110.5906277     
  -69772603.8132695     
  -69731837.2551020     
  -69691816.3620831     
  -69652507.0798026     
  -69613824.0984294     
  -69575616.9690312     
  -69537653.2876527     
  -69499597.2549428     
  -69460980.5558704     
  -69421162.0545878     
  -69379279.7914573     
  -69334225.1620201     
  -69284712.6933406     
  -69229526.6953672     
  -72287716.9776135     
  -72273884.2591575     
  -72261417.4188977     
  -72249940.4831320     
  -72239068.7726104     
  -72228479.6810013     
  -72217927.9154518     
  -72207233.3805177     
  -72196264.6074657     
  -72184925.9136217     
  -72173148.5735537     
  -72160884.5962661     
  -72148102.0492713     
  -72134781.3445380     
  -72120912.1939364     
  -72106491.0935237     
  -72091519.2621322     
  -72076000.9826554     
  -72059942.2993506     
  -72043350.0240092     
  -72026231.0034421     
  -72008591.6022343     
  -71990437.3581203     
  -71971772.7720907     
  -71952601.2007667     
  -71932924.8240843     
  -71912744.6665528     
  -71892060.6550150     
  -71870871.6998613     
  -71849175.7899916     
  -71826970.0945290     
  -71804251.0664253     
  -71781014.5447349     
  -71757255.8535732     
  -71732969.8966785     
  -71708151.2471255     
  -71682794.2321921     
  -71656893.0136569     
  -71630441.6639850     
  -71603434.2389534     
  -71575864.8473127     
  -71547727.7180828     
  -71519017.2660649     
  -71489728.1561271     
  -71459855.3667818     
  -71429394.2535432     
  -71398340.6125213     
  -71366690.7446853     
  -71334441.5212096     
  -71301590.4503051     
  -71268135.7459381     
  -71234076.3988499     
  -71199412.2503002     
  -71164144.0689976     
  -71128273.6317142     
  -71091803.8081432     
  -71054738.6506246     
  -71017083.4894561     
  -70978845.0346052     
  -70940031.4847650     
  -70900652.6448250     
  -70860720.0529830     
  -70820247.1188726     
  -70779249.2742175     
  -70737744.1376583     
  -70695751.6954366     
  -70653294.4996194     
  -70610397.8853412     
  -70567090.2081618     
  -70523403.1019139     
  -70479371.7562430     
  -70435035.2112821     
  -70390436.6643342     
  -70345623.7798231     
  -70300648.9888689     
  -70255569.7583097     
  -70210448.8005280     
  -70165354.1847493     
  -70120359.2972668     
  -70075542.5822578     
  -70030986.9765330     
  -69986778.9312252     
  -69943006.8920105     
  -69899759.0886189     
  -69857120.4664133     
  -69815168.5804711     
  -69773968.2682208     
  -69733564.9200904     
  -69693976.1718681     
  -69655181.8255819     
  -69617111.7176995     
  -69579630.9942227     
  -69542521.6531370     
  -69505458.0559405     
  -69467972.2309013     
  -69429403.4230951     
  -69388833.0875799     
  -69345038.0172728     
  -69296552.8841453     
  -69241954.3214445     
  -72284207.0889852     
  -72270526.4032129     
  -72258322.9843172     
  -72247163.5731310     
  -72236615.9701102     
  -72226329.0143821     
  -72216044.4133656     
  -72205578.3189714     
  -72194800.2440841     
  -72183617.7293605     
  -72171966.1892500     
  -72159801.9711223     
  -72147097.2949624     
  -72133836.3442748     
  -72120012.1369898     
  -72105623.9911751     
  -72090675.4838906     
  -72075172.8342551     
  -72059123.6527554     
  -72042536.0022805     
  -72025417.7187190     
  -72007775.9423651     
  -71989616.8161297     
  -71970945.3122091     
  -71951765.1548751     
  -71932078.8129089     
  -71911887.5405974     
  -71891191.4509551     
  -71869989.6088355     
  -71848280.1348993     
  -71826060.3140368     
  -71803326.7038886     
  -71780075.2406677     
  -71756301.3406438     
  -71731999.9964761     
  -71707165.8681645     
  -71681793.3687762     
  -71655876.7453489     
  -71629410.1555160     
  -71602387.7404742     
  -71574803.6949257     
  -71546652.3346283     
  -71517928.1621530     
  -71488625.9314220     
  -71458740.7115446     
  -71428267.9504485     
  -71397203.5387651     
  -71365543.8743919     
  -71333285.9281530     
  -71300427.3109558     
  -71266966.3428366     
  -71232902.1243130     
  -71198234.6104570     
  -71162964.6881455     
  -71127094.2569869     
  -71090626.3144633     
  -71053565.0459186     
  -71015915.9200962     
  -70977685.7910363     
  -70938883.0072733     
  -70899517.5294080     
  -70859601.0572882     
  -70819147.1681969     
  -70778171.4676046     
  -70736691.7542054     
  -70694728.2010389     
  -70652303.5545477     
  -70609443.3533023     
  -70566176.1678431     
  -70522533.8624785     
  -70478551.8788974     
  -70434269.5398575     
  -70389730.3689122     
  -70344982.4187729     
  -70300078.5963267     
  -70255076.9661123     
  -70210041.0059306     
  -70165039.7778503     
  -70120147.9648436     
  -70075445.7075146     
  -70031018.1567508     
  -69986954.6370399     
  -69943347.2923662     
  -69900289.0633931     
  -69857870.8230222     
  -69816177.4797309     
  -69775282.8460271     
  -69735243.0619010     
  -69696088.3517095     
  -69657812.8521895     
  -69620362.1223970     
  -69583617.6181410     
  -69547376.6782895     
  -69511325.1516702     
  -69474997.4019806     
  -69437715.9217759     
  -69398508.3709718     
  -69356035.6618600     
  -69308641.1054857     
  -69254671.4678654     
  -72280623.9235984     
  -72267107.4977766     
  -72255185.7163907     
  -72244361.2809783     
  -72234151.2941051     
  -72224175.9897016     
  -72214165.0897254     
  -72203931.9012838     
  -72193347.5172290     
  -72182323.0887242     
  -72170798.4361322     
  -72158734.4411606     
  -72146107.6293867     
  -72132906.0794020     
  -72119126.2156649     
  -72104770.2592794     
  -72089844.2096803     
  -72074356.2717478     
  -72058315.6592977     
  -72041731.7130854     
  -72024613.2764777     
  -72006968.2772859     
  -71988803.4703498     
  -71970124.3020643     
  -71950934.8646396     
  -71931237.9141205     
  -71911034.9317747     
  -71890326.2132577     
  -71869110.9739795     
  -71847387.4623312     
  -71825153.0749847     
  -71802404.4704376     
  -71779137.6784492     
  -71755348.2040761     
  -71731031.1257898     
  -71706181.1876558     
  -71680792.8859029     
  -71654860.5504088     
  -71628378.4217477     
  -71601340.7244650     
  -71573741.7372799     
  -71545575.8608659     
  -71516837.6838319     
  -71487522.0474888     
  -71457624.1099272     
  -71427139.4099046     
  -71396063.9309988     
  -71364394.1664605     
  -71332127.1851682     
  -71299260.6990896     
  -71265793.1326434     
  -71231723.6943620     
  -71197052.4512752     
  -71161780.4064640     
  -71125909.5802665     
  -71089443.0956858     
  -71052385.2686060     
  -71014741.7035219     
  -70976519.3955811     
  -70937726.8398765     
  -70898374.1490666     
  -70858473.1805636     
  -70818037.6747137     
  -70777083.4055790     
  -70735628.3460970     
  -70693692.8495618     
  -70651299.8494364     
  -70608475.0794955     
  -70565247.3160996     
  -70521648.6439435     
  -70477714.7457862     
  -70433485.2153044     
  -70389003.8901307     
  -70344319.1990845     
  -70299484.5133274     
  -70254558.4853175     
  -70209605.3516341     
  -70164695.1656373     
  -70119903.9131031     
  -70075313.4481895     
  -70031011.1681662     
  -69987089.3234708     
  -69943643.8353275     
  -69900772.4675361     
  -69858572.1736789     
  -69817135.4178407     
  -69776545.2472505     
  -69736868.8771232     
  -69698149.5217601     
  -69660396.1435019     
  -69623570.6293801     
  -69587571.5166820     
  -69552212.5300739     
  -69517192.5254409     
  -69482050.5524978     
  -69446095.9206191     
  -69408306.4682527     
  -69367226.9329429     
  -69320996.4904697     
  -69267705.0184951     
  -72276960.3789516     
  -72263622.6946773     
  -72252003.6495943     
  -72241533.7464956     
  -72231675.9557139     
  -72222022.2172997     
  -72212291.6238255     
  -72202295.7209212     
  -72191907.8632459     
  -72181043.2445290     
  -72169646.3814700     
  -72157682.8990639     
  -72145133.7881947     
  -72131991.1487969     
  -72118254.9126557     
  -72103930.2838416     
  -72089025.7464263     
  -72073551.5383356     
  -72057518.5114810     
  -72040937.3090133     
  -72023817.7981439     
  -72006168.7042247     
  -71987997.3992626     
  -71969309.8055857     
  -71950110.3826117     
  -71930402.1712629     
  -71910186.8763556     
  -71889464.9721731     
  -71868235.8204107     
  -71846497.7928896     
  -71824248.3938799     
  -71801484.3787656     
  -71778201.8671361     
  -71754396.4494027     
  -71730063.2866914     
  -71705197.2042403     
  -71679792.7787886     
  -71653844.4206239     
  -71627346.4510158     
  -71600293.1757796     
  -71572678.9557086     
  -71544498.2745601     
  -71515745.8052395     
  -71486416.4747720     
  -71456505.5286045     
  -71426008.5947267     
  -71394921.7480821     
  -71363241.5756847     
  -71330965.2428570     
  -71298090.5609828     
  -71264616.0571612     
  -71230541.0461664     
  -71195865.7051220     
  -71160591.1513333     
  -71124719.5237553     
  -71088254.0686337     
  -71051199.2299231     
  -71013560.7451698     
  -70975345.7476595     
  -70936562.8757607     
  -70897222.3905355     
  -70857336.3028770     
  -70816918.5116124     
  -70775984.9542324     
  -70734553.7720989     
  -70692645.4921904     
  -70650283.2275847     
  -70607492.8989348     
  -70564303.4791138     
  -70520747.2628765     
  -70476860.1627275     
  -70432682.0310391     
  -70388257.0066163     
  -70343633.8811835     
  -70298866.4772940     
  -70254014.0236834     
  -70209141.5066315     
  -70164319.9661135     
  -70119626.6928919     
  -70075145.2669402     
  -70030965.3583570     
  -69987182.1892343     
  -69943895.5291222     
  -69901208.0685855     
  -69859222.9861381     
  -69818040.4952185     
  -69777753.1305107     
  -69738439.5044854     
  -69700156.2249253     
  -69662927.5824257     
  -69626732.4247239     
  -69591487.1951164     
  -69557023.1472989     
  -69523053.8437566     
  -69489125.7039677     
  -69454539.1220971     
  -69418227.4476214     
  -69378620.3833928     
  -69333639.1573370     
  -69281084.1175508     
  -72273208.6800653     
  -72260066.8821950     
  -72248774.9395465     
  -72238681.3500571     
  -72229191.3602168     
  -72219869.4350711     
  -72210425.7798778     
  -72200671.4307450     
  -72190482.7615261     
  -72179779.4816114     
  -72168511.1165019     
  -72156648.2552442     
  -72144176.5197947     
  -72131092.1601110     
  -72117398.7162670     
  -72103104.4540172     
  -72088220.4023425     
  -72072758.8771467     
  -72056732.4007774     
  -72040152.9409907     
  -72023031.4030984     
  -72005377.3181718     
  -71987198.6790542     
  -71968501.8844475     
  -71949291.7591948     
  -71929571.6258723     
  -71909343.4087697     
  -71888607.7562852     
  -71867364.1717557     
  -71845611.1458548     
  -71823346.2860696     
  -71800566.4405521     
  -71777267.8149126     
  -71753446.0814096     
  -71729096.4806221     
  -71704213.9160340     
  -71678793.0422249     
  -71652828.3474441     
  -71626314.2314025     
  -71599245.0790960     
  -71571615.3314413     
  -71543419.5534405     
  -71514652.5005457     
  -71485309.1838140     
  -71455384.9344115     
  -71424875.4679562     
  -71393776.9491607     
  -71362086.0572049     
  -71329800.0522357     
  -71296916.8433930     
  -71263435.0587453     
  -71229354.1175229     
  -71194674.3050675     
  -71159396.8509210     
  -71123524.0105315     
  -71087059.1511038     
  -71050006.8421853     
  -71012372.9516703     
  -70974164.7480144     
  -70935391.0095779     
  -70896062.1421770     
  -70856190.3061050     
  -70815789.5540924     
  -70774875.9818976     
  -70733467.8934772     
  -70691585.9829031     
  -70649253.5354128     
  -70606496.6501250     
  -70563344.4869678     
  -70519829.5401955     
  -70475987.9403783     
  -70431859.7858324     
  -70387489.5028802     
  -70342926.2319021     
  -70298224.2325302     
  -70253443.2962238     
  -70208649.1473815     
  -70163913.8046887     
  -70119315.8620091     
  -70074940.6323709     
  -70030880.0790768     
  -69987232.4344449     
  -69944101.3793142     
  -69901594.6257323     
  -69859821.7121564     
  -69818890.7862805     
  -69778904.1156688     
  -69739952.0279941     
  -69702104.9295971     
  -69665402.9526330     
  -69629842.5635254     
  -69595358.9843856     
  -69561802.2302190     
  -69528902.4342554     
  -69496216.3711857     
  -69463040.4595039     
  -69428270.4275464     
  -69390224.0979178     
  -69346590.2952002     
  -69294840.6135589     
  -72269360.2460436     
  -72256434.6681532     
  -72245497.9248431     
  -72235804.7672236     
  -72226699.1316250     
  -72217719.5182198     
  -72208569.4118658     
  -72199060.7451679     
  -72189073.7351377     
  -72178533.1166892     
  -72167393.7558614     
  -72155631.4370484     
  -72143236.5844793     
  -72130209.7288966     
  -72116558.1195985     
  -72102293.1613829     
  -72087428.4862970     
  -72071978.5306989     
  -72055957.5171866     
  -72039378.7579238     
  -72022254.2083943     
  -72004594.2116586     
  -71986407.3834494     
  -71967700.5979423     
  -71948479.0425458     
  -71928746.3174126     
  -71908504.5615583     
  -71887754.5924784     
  -71866496.0501267     
  -71844727.5391704     
  -71822446.7657274     
  -71799650.6664614     
  -71776335.5290854     
  -71752497.1041360     
  -71728130.7083917     
  -71703231.3206295     
  -71677793.6705770     
  -71651812.3219833     
  -71625281.7507366     
  -71598196.4189179     
  -71570550.8456077     
  -71542339.6752076     
  -71513557.7439577     
  -71484200.1452568     
  -71454262.2943477     
  -71423739.9928598     
  -71392629.4936717     
  -71360927.5665185     
  -71328631.5647409     
  -71295739.4935666     
  -71262250.0803079     
  -71228162.8468583     
  -71193478.1848912     
  -71158197.4341877     
  -71122322.9645577     
  -71085858.2618739     
  -71048808.0187947     
  -71011178.2308591     
  -70972976.2987224     
  -70934211.1374577     
  -70894893.2939906     
  -70855035.0739431     
  -70814650.6793745     
  -70773756.3591560     
  -70732370.5740075     
  -70690514.1784820     
  -70648210.6224771     
  -70605486.1750804     
  -70562370.1736738     
  -70518895.3012139     
  -70475097.8942966     
  -70431018.2839026     
  -70386701.1694533     
  -70342196.0246678     
  -70297557.5304849     
  -70252846.0255748     
  -70208127.9582988     
  -70163476.3148320     
  -70118970.9860614     
  -70074699.0201226     
  -70030754.6876334     
  -69987239.2623277     
  -69944260.3908711     
  -69901930.8922687     
  -69860366.7903053     
  -69819684.3425632     
  -69779995.7871404     
  -69741403.4802204     
  -69703992.0325729     
  -69667817.9405663     
  -69632895.9701138     
  -69599181.0381931     
  -69566543.2315014     
  -69534731.2658888     
  -69503315.5228591     
  -69471593.9986596     
  -69438433.3589451     
  -69402045.4472628     
  -69359872.2330925     
  -69309009.5935887     
  -72265405.5268605     
  -72252720.3707099     
  -72242171.2095760     
  -72232905.0301753     
  -72224201.1351370     
  -72215574.4873913     
  -72206724.4678210     
  -72197465.4418859     
  -72187682.3512295     
  -72177305.4981080     
  -72166295.4369189     
  -72154633.3879066     
  -72142314.7535034     
  -72129344.4776970     
  -72115733.6196955     
  -72101496.7991740     
  -72086650.3071550     
  -72071210.7403455     
  -72055194.0487802     
  -72038614.9063313     
  -72021486.3284656     
  -72003819.4745314     
  -71985623.5835345     
  -71966906.0028521     
  -71947672.2784826     
  -71927926.2832007     
  -71907670.3653221     
  -71886905.5059018     
  -71865631.4760970     
  -71843846.9894266     
  -71821549.8458484     
  -71798737.0661323     
  -71775405.0160811     
  -71751549.5208682     
  -71727165.9701780     
  -71702249.4150958     
  -71676794.6577850     
  -71650796.3350204     
  -71624248.9965971     
  -71597147.1795754     
  -71569485.4792367     
  -71541258.6175302     
  -71512461.5097196     
  -71483089.3298473     
  -71453137.5755807     
  -71422602.1329370     
  -71391479.3413472     
  -71359766.0594825     
  -71327459.7322352     
  -71294558.4592420     
  -71261061.0653269     
  -71226967.1732402     
  -71192277.2790911     
  -71156992.8308946     
  -71121116.3106865     
  -71084651.3207085     
  -71047602.6742485     
  -71009976.4917819     
  -70971780.3031992     
  -70933023.1570111     
  -70893715.7376171     
  -70853870.4919063     
  -70813501.7667030     
  -70772625.9588448     
  -70731261.6799816     
  -70689429.9385202     
  -70647154.3414825     
  -70604461.3193447     
  -70561380.3771977     
  -70517944.3756768     
  -70474189.8450016     
  -70430157.3350045     
  -70385891.8030154     
  -70341443.0396915     
  -70296866.1300168     
  -70252221.9423620     
  -70207577.6322545     
  -70163007.1387372     
  -70118591.6393323     
  -70074419.9139976     
  -70030588.5483059     
  -69987201.8809732     
  -69944371.5702963     
  -69902215.6181128     
  -69860856.6488757     
  -69820419.1959589     
  -69781025.6973452     
  -69742790.8457493     
  -69705813.8621809     
  -69670168.1377361     
  -69635887.4386881     
  -69602947.3309659     
  -69571239.3488418     
  -69540532.9313550     
  -69510415.5486843     
  -69480192.8479603     
  -69448712.7802014     
  -69414090.7599359     
  -69373508.4784382     
  -69323630.0363991     
  -72261333.8005376     
  -72248918.0225685     
  -72238793.7732922     
  -72229983.5952125     
  -72221699.4957489     
  -72213436.5151051     
  -72204892.9935357     
  -72195887.3630949     
  -72186310.2212079     
  -72176098.0054630     
  -72165217.3190380     
  -72153655.0664285     
  -72141411.8081202     
  -72128497.0351013     
  -72114925.7166726     
  -72100715.7615057     
  -72085886.1731033     
  -72070455.7457086     
  -72054442.1812338     
  -72037861.5299680     
  -72020727.8748309     
  -72003053.1937223     
  -71984847.3475874     
  -71966118.1533154     
  -71946871.5103864     
  -71927111.5583398     
  -71906840.8486733     
  -71886060.5199354     
  -71864770.4686789     
  -71842969.5118451     
  -71820655.5382347     
  -71797825.6481740     
  -71774476.2814433     
  -71750603.3341445     
  -71726202.2655292     
  -71701268.1959782     
  -71675795.9973644     
  -71649780.3770031     
  -71623215.9563139     
  -71596097.3452298     
  -71568419.2132627     
  -71540176.3580524     
  -71511363.7721170     
  -71481976.7084387     
  -71452010.7454490     
  -71421461.8519220     
  -71390326.4522188     
  -71358601.4923176     
  -71326284.5070120     
  -71293373.6886586     
  -71259867.9578504     
  -71225767.0363789     
  -71191071.5228871     
  -71155782.9716121     
  -71119903.9746683     
  -71083438.2483691     
  -71046390.7241436     
  -71008767.6447028     
  -70970576.6662073     
  -70931826.9673402     
  -70892529.3663487     
  -70852696.4473400     
  -70812342.6973561     
  -70771484.6560624     
  -70730141.0802111     
  -70688333.1254303     
  -70646084.5482899     
  -70603421.9320028     
  -70560374.9394872     
  -70516976.5978020     
  -70473263.6180345     
  -70429276.7545191     
  -70385061.2065271     
  -70340667.0641574     
  -70296149.7976636     
  -70251570.7855677     
  -70206997.8710808     
  -70162505.9279979     
  -70118177.4056733     
  -70074102.8071053     
  -70030381.0338023     
  -69987119.5051415     
  -69944433.9278232     
  -69902447.5524106     
  -69861289.7088868     
  -69821093.3620716     
  -69781991.3702940     
  -69744111.0648007     
  -69707566.6816214     
  -69672449.0433663     
  -69638811.6344479     
  -69606651.6567150     
  -69575883.5196105     
  -69546299.6317552     
  -69517508.2331318     
  -69488829.0836815     
  -69459103.5478801     
  -69426364.8844893     
  -69387523.7021453     
  -69338745.6237753     
  -72257132.9169093     
  -72245021.3980296     
  -72235365.1171784     
  -72227042.4139909     
  -72219196.6108255     
  -72211307.9307796     
  -72203077.1356734     
  -72194328.4160899     
  -72184959.0007074     
  -72174912.0490832     
  -72164160.5827407     
  -72152697.4454409     
  -72140528.5385695     
  -72127668.0347610     
  -72114134.9128050     
  -72099950.4425598     
  -72085136.3909525     
  -72069713.7840919     
  -72053702.0973486     
  -72037118.7694411     
  -72019978.9557905     
  -72002295.4530136     
  -71984078.7408948     
  -71965337.1006959     
  -71946076.7791027     
  -71926302.1756493     
  -71906016.0381865     
  -71885219.6561558     
  -71863913.0453020     
  -71842095.1202665     
  -71819763.8534903     
  -71796916.4201627     
  -71773549.3298293     
  -71749658.5457489     
  -71725239.5933605     
  -71700287.6593013     
  -71674797.6824096     
  -71648764.4380451     
  -71622182.6169694     
  -71595046.8998728     
  -71567352.0285249     
  -71539092.8743948     
  -71510264.5054809     
  -71480862.2519941     
  -71450881.7714669     
  -71420319.1137893     
  -71389170.7866218     
  -71357433.8216139     
  -71325105.8417997     
  -71292185.1305591     
  -71258670.7025007     
  -71224562.3766365     
  -71189860.8522309     
  -71154567.7877229     
  -71118685.8831593     
  -71082218.9666187     
  -71045172.0851885     
  -71007551.6011108     
  -70969365.2938629     
  -70930622.4690417     
  -70891334.0751307     
  -70851512.8294219     
  -70811173.3546445     
  -70770332.3281700     
  -70729008.6460357     
  -70687223.6044495     
  -70645001.1019283     
  -70602367.8656965     
  -70559353.7064901     
  -70515991.8063131     
  -70472319.0440122     
  -70428376.3635389     
  -70384209.1893598     
  -70339867.8924108     
  -70295408.3079118     
  -70250892.3029147     
  -70206388.3860848     
  -70161972.3443001     
  -70117727.8794091     
  -70073747.2030370     
  -70030131.5267446     
  -69986991.3581176     
  -69944446.4796737     
  -69902625.4462215     
  -69861664.3871902     
  -69821704.8436932     
  -69782890.3053329     
  -69745361.0370496     
  -69709246.6925329     
  -69674656.0674077     
  -69641663.0952717     
  -69610287.6286985     
  -69580468.4179611     
  -69552023.1636238     
  -69524584.7348247     
  -69497493.6992918     
  -69469598.5524226     
  -69438870.6073016     
  -69401943.6327733     
  -69354405.7651006     
  -72252788.9682120     
  -72241024.0785504     
  -72231885.4576521     
  -72224084.0033196     
  -72216695.1542011     
  -72209191.2251550     
  -72201279.1440556     
  -72192790.5731434     
  -72183630.3894073     
  -72173749.0693330     
  -72163126.4287776     
  -72151761.5109624     
  -72139665.7430115     
  -72126858.1143678     
  -72113361.7115858     
  -72099201.2357572     
  -72084401.2654238     
  -72068985.0898853     
  -72052973.9765613     
  -72036386.7618151     
  -72019239.6761169     
  -72001546.3328002     
  -71983317.8255744     
  -71964562.8934475     
  -71945288.1228470     
  -71925498.1655957     
  -71905195.9583516     
  -71884382.9343063     
  -71863059.2217900     
  -71841223.8271353     
  -71818874.8010117     
  -71796009.3886359     
  -71772624.1650107     
  -71748715.1567165     
  -71724277.9519582     
  -71699307.8005691     
  -71673799.7055932     
  -71647748.5079340     
  -71621148.9654030     
  -71593995.8273305     
  -71566283.9057702     
  -71538008.1441564     
  -71509163.6841880     
  -71479745.9315908     
  -71449750.6213267     
  -71419173.8827543     
  -71388012.3051988     
  -71356263.0043336     
  -71323923.6897674     
  -71290992.7341960     
  -71257469.2444834     
  -71223353.1350318     
  -71188645.2038094     
  -71153347.2114322     
  -71117461.9637246     
  -71080993.3982295     
  -71043946.6752041     
  -71006328.2737266     
  -70968146.0936402     
  -70929409.5642131     
  -70890129.7605679     
  -70850319.5291679     
  -70809993.6239187     
  -70769168.8547983     
  -70727864.2513229     
  -70686101.2436434     
  -70643903.8645967     
  -70601298.9766358     
  -70558316.5281757     
  -70514989.8444742     
  -70471355.9586825     
  -70427455.9889538     
  -70383335.5674226     
  -70339045.3261466     
  -70294641.4434633     
  -70250186.2512347     
  -70205748.8985643     
  -70161406.0601141     
  -70117242.6662607     
  -70073352.6170594     
  -70029839.4211901     
  -69986816.6736051     
  -69944408.2503703     
  -69902748.0552799     
  -69861979.0996757     
  -69822251.6344086     
  -69783719.9810301     
  -69746537.6256500     
  -69710850.0388076     
  -69676784.5339049     
  -69644436.2340914     
  -69613848.6796901     
  -69584986.4547626     
  -69557694.9092002     
  -69531635.5682275     
  -69506176.5884145     
  -69480188.4394073     
  -69451607.8812647     
  -69416794.7973436     
  -69370666.9140809     
  -72248285.8573968     
  -72236919.5832403     
  -72228355.9809243     
  -72221111.5035339     
  -72214198.0699583     
  -72207089.0556629     
  -72199501.3724945     
  -72191275.8707198     
  -72182326.1307514     
  -72172610.5356837     
  -72162116.0771251     
  -72150848.2611018     
  -72138824.2264028     
  -72126067.9145941     
  -72112606.6167517     
  -72098468.5328939     
  -72083681.0984095     
  -72068269.8939469     
  -72052257.9944438     
  -72035665.6402166     
  -72018510.1367427     
  -72000805.9098505     
  -71982564.6603934     
  -71963795.5769828     
  -71944505.5771050     
  -71924699.5562214     
  -71904380.6315229     
  -71883550.3722607     
  -71862209.0123417     
  -71840355.6434881     
  -71817988.3889814     
  -71795104.5590899     
  -71771700.7898703     
  -71747773.1673291     
  -71723317.3389800     
  -71698328.6147681     
  -71672802.0591715     
  -71646732.5761293     
  -71620114.9882087     
  -71592944.1112662     
  -71565214.8256582     
  -71536922.1449180     
  -71508061.2826656     
  -71478627.7184227     
  -71448617.2629023     
  -71418026.1232823     
  -71386850.9689061     
  -71355088.9978203     
  -71322738.0045311     
  -71289796.4493371     
  -71256263.5295911     
  -71222139.2532466     
  -71187424.5150517     
  -71152121.1757707     
  -71116232.1448504     
  -71079761.4669893     
  -71042714.4131336     
  -71005097.5765058     
  -70966918.9743776     
  -70928188.1564569     
  -70888916.3209277     
  -70849116.4394333     
  -70808803.3925700     
  -70767994.1178442     
  -70726707.7724693     
  -70684965.9139063     
  -70642792.7016708     
  -70600215.1246056     
  -70557263.2585518     
  -70513970.5601222     
  -70470374.2029751     
  -70426515.4635295     
  -70382440.1632858     
  -70338199.1745933     
  -70293848.9955033     
  -70249452.3968495     
  -70205079.1403321     
  -70160806.7594020     
  -70116721.3842771     
  -70072918.5773307     
  -70029504.1241831     
  -69986594.6976688     
  -69944318.2751155     
  -69902814.1428353     
  -69862232.2645804     
  -69822731.7223399     
  -69784477.8592276     
  -69747637.6614780     
  -69712372.8106911     
  -69678829.6846525     
  -69647125.3422039     
  -69617328.0626186     
  -69589429.7801843     
  -69563305.8324707     
  -69538650.5815575     
  -69514866.5688741     
  -69490861.3761800     
  -69464572.8112259     
  -69432104.0034414     
  -69387594.2936491     
  -72243604.7201888     
  -72232701.6098100     
  -72224779.1733013     
  -72218128.7075565     
  -72211708.5564161     
  -72205004.2547567     
  -72197746.2768363     
  -72189786.4084282     
  -72181048.0115273     
  -72171497.9454914     
  -72161130.7659529     
  -72149958.7048628     
  -72138004.7993312     
  -72125298.0779832     
  -72111870.1312724     
  -72097752.7232605     
  -72082976.1882211     
  -72067568.4229778     
  -72051554.3221907     
  -72034955.5334221     
  -72017790.4344434     
  -72000074.2570603     
  -71981819.3005852     
  -71963035.1935333     
  -71943729.1745371     
  -71923906.3730794     
  -71903570.0778755     
  -71882721.9859955     
  -71861362.4295104     
  -71839490.5789401     
  -71817104.6243619     
  -71794201.9359758     
  -71770779.2064023     
  -71746832.5771199     
  -71722357.7514580     
  -71697350.0963674     
  -71671804.7349834     
  -71645716.6317666     
  -71619080.6717461     
  -71591891.7351824     
  -71564144.7687615     
  -71535834.8542464     
  -71506957.2753954     
  -71477507.5838026     
  -71447481.6642541     
  -71416875.8000874     
  -71385686.7390152     
  -71353911.7597976     
  -71321548.7401561     
  -71288596.2262705     
  -71255053.5042073     
  -71220920.6736300     
  -71186198.7241359     
  -71150889.6146030     
  -71114996.3559427     
  -71078523.0977052     
  -71041475.2190464     
  -71003859.4246479     
  -70965683.8462833     
  -70926958.1508853     
  -70887693.6561438     
  -70847903.4549144     
  -70807602.5500290     
  -70766808.0014753     
  -70725539.0884019     
  -70683817.4889635     
  -70641667.4817062     
  -70599116.1729748     
  -70556193.7556783     
  -70512933.8056883     
  -70469373.6230476     
  -70425554.6259884     
  -70381522.8063036     
  -70337329.2546950     
  -70293030.7639646     
  -70248690.5159455     
  -70204378.8542318     
  -70160174.1383244     
  -70116163.6647802     
  -70072444.6261303     
  -70029125.0573324     
  -69986324.6907143     
  -69944175.6022241     
  -69902822.4825787     
  -69862422.3058930     
  -69823143.0940254     
  -69785161.3892602     
  -69748657.9475610     
  -69713811.0492778     
  -69680786.6829703     
  -69649724.5937065     
  -69620718.8517431     
  -69593790.2872797     
  -69568846.4862896     
  -69545618.9227949     
  -69523551.4456653     
  -69501602.9350872     
  -69477756.3372285     
  -69447897.3811497     
  -69405264.2045470     
  -72238723.1321318     
  -72228364.4664630     
  -72221159.2386278     
  -72215140.0306225     
  -72209230.0472683     
  -72202939.8425055     
  -72196016.4080892     
  -72188324.3488545     
  -72179797.8609279     
  -72170412.8225501     
  -72160171.7505809     
  -72149093.8608067     
  -72137208.2768130     
  -72124549.2477905     
  -72111152.7563086     
  -72097054.1927281     
  -72082286.8288082     
  -72066880.8988785     
  -72050863.1261001     
  -72034256.5654490     
  -72017080.6615153     
  -71999351.4432115     
  -71981081.7976667     
  -71962281.7820207     
  -71942958.9448810     
  -71923118.6391636     
  -71902764.3153574     
  -71881897.7895584     
  -71860519.4841861     
  -71838628.6416781     
  -71816223.5128876     
  -71793301.5227004     
  -71769859.4157149     
  -71745893.3848734     
  -71721399.1857984     
  -71696372.2393247     
  -71670807.7244571     
  -71644700.6636608     
  -71618046.0021336     
  -71590838.6824250     
  -71563073.7155699     
  -71534746.2496963     
  -71505851.6369141     
  -71476385.4991684     
  -71446343.7936303     
  -71415722.8781396     
  -71384519.5771182     
  -71352731.2483760     
  -71320355.8511616     
  -71287392.0158082     
  -71253839.1153156     
  -71219697.3392064     
  -71184967.7699933     
  -71149652.4626320     
  -71113754.5273393     
  -71077278.2162127     
  -71040229.0141436     
  -71002613.7345974     
  -70964440.6209371     
  -70925719.4541229     
  -70886461.6678174     
  -70846680.4721533     
  -70806390.9877700     
  -70765610.3921255     
  -70724358.0805753     
  -70682655.8453693     
  -70640528.0764351     
  -70598001.9886966     
  -70555107.8816783     
  -70511879.4382271     
  -70468354.0703311     
  -70424573.3210793     
  -70380583.3327288     
  -70336435.3912888     
  -70292186.5577908     
  -70247900.3949485     
  -70203647.7946656     
  -70159507.9059543     
  -70115569.1533172     
  -70071930.3211125     
  -70028701.6584166     
  -69986005.9295121     
  -69943979.2956096     
  -69902771.8616431     
  -69862547.6568732     
  -69823483.7384253     
  -69785768.0124030     
  -69749595.2636224     
  -69715160.7515487     
  -69682650.6175059     
  -69652228.0508559     
  -69624013.9458896     
  -69598059.6120631     
  -69574307.0390644     
  -69552528.9886877     
  -69532218.0852150     
  -69512396.2130133     
  -69491142.5700218     
  -69464198.6639567     
  -69423767.1917925     
  -72233613.9890644     
  -72223903.8417413     
  -72217502.5972008     
  -72212150.3740851     
  -72206766.2107468     
  -72200899.0399573     
  -72194314.3987695     
  -72186891.9202939     
  -72178577.5479856     
  -72169356.7158580     
  -72159240.3023080     
  -72148254.7555850     
  -72136435.4770880     
  -72123822.0667468     
  -72110454.9901484     
  -72096373.3228083     
  -72081613.3089705     
  -72066207.5380947     
  -72050184.5670436     
  -72033568.8551364     
  -72016380.9054510     
  -71998637.5327222     
  -71980352.1992554     
  -71961535.3779188     
  -71942194.9148581     
  -71922336.3748438     
  -71901963.3596462     
  -71881077.7950402     
  -71859680.1855765     
  -71837769.8384466     
  -71815345.0590656     
  -71792403.3216217     
  -71768941.4180268     
  -71744955.5886281     
  -71720441.6377865     
  -71695395.0370871     
  -71669811.0186096     
  -71643684.6603101     
  -71617010.9652604     
  -71589784.9361847     
  -71562001.6464935     
  -71533656.3088129     
  -71504744.3418205     
  -71475261.4360835     
  -71445203.6194756     
  -71414567.3226667     
  -71383349.4451314     
  -71351547.4220590     
  -71319159.2925280     
  -71286183.7692933     
  -71252620.3105009     
  -71218469.1936775     
  -71183731.5923140     
  -71148409.6554042     
  -71112506.5903112     
  -71076026.7493785     
  -71038975.7207642     
  -71001360.4240531     
  -70963189.2112961     
  -70924471.9743094     
  -70885220.2592199     
  -70845447.3895315     
  -70805168.5993067     
  -70764401.1784944     
  -70723164.6329665     
  -70681480.8625011     
  -70639374.3607651     
  -70596872.4423136     
  -70554005.5027469     
  -70510807.3194352     
  -70467315.4015666     
  -70423571.3996486     
  -70379621.5858251     
  -70335517.4172765     
  -70291316.1951894     
  -70247081.8308933     
  -70202885.7281101     
  -70158807.7849894     
  -70114937.5106192     
  -70071375.2365642     
  -70028233.3830097     
  -69985637.7092537     
  -69943728.4373326     
  -69902661.0836741     
  -69862606.7636950     
  -69823751.6510103     
  -69786295.1666184     
  -69750446.3706681     
  -69716417.8759253     
  -69684416.5065518     
  -69654629.6685461     
  -69627206.0781556     
  -69602229.1219978     
  -69579677.3284341     
  -69559368.3705870     
  -69540852.4177455     
  -69523222.3728724     
  -69504706.8012269     
  -69481026.1225593     
  -69443212.5139763     
  -72228243.8717480     
  -72219318.1916756     
  -72213818.4053592     
  -72209164.8215971     
  -72204321.0137056     
  -72198885.2653398     
  -72192642.9454414     
  -72185491.4239837     
  -72177388.9755242     
  -72168331.1997736     
  -72158337.7065318     
  -72147442.4225665     
  -72135687.2203220     
  -72123117.1757527     
  -72109777.3271305     
  -72095710.4896650     
  -72080955.9115500     
  -72065548.5509429     
  -72049518.7999299     
  -72032892.5157203     
  -72015691.2486141     
  -71997932.5854033     
  -71979630.5488849     
  -71960796.0131265     
  -71941437.1080776     
  -71921559.5978027     
  -71901167.2241074     
  -71880262.0125488     
  -71858844.5411935     
  -71836914.1745432     
  -71814469.2661689     
  -71791507.3340524     
  -71768025.2126745     
  -71744019.1856810     
  -71719485.1025919     
  -71694418.4825966     
  -71668814.6080534     
  -71642668.6098965     
  -71615975.5467836     
  -71588730.4795016     
  -71560928.5418666     
  -71532565.0091372     
  -71503635.3647749     
  -71474135.3662433     
  -71444061.1104266     
  -71413409.0991589     
  -71382176.3053015     
  -71350360.2397450     
  -71317959.0197007     
  -71284971.4386033     
  -71251397.0379560     
  -71217236.1814300     
  -71182490.1315535     
  -71147161.1293162     
  -71111252.4770697     
  -71074768.6251049     
  -71037715.2623869     
  -71000099.4119642     
  -70961929.5316969     
  -70923215.6211018     
  -70883969.3352933     
  -70844204.1072763     
  -70803935.2801890     
  -70763180.2515418     
  -70721958.6320736     
  -70680292.4225570     
  -70638206.2127759     
  -70595727.4079524     
  -70552886.4891543     
  -70509717.3156640     
  -70466257.4788430     
  -70422548.7187027     
  -70378637.4159724     
  -70334575.1737917     
  -70290419.5038858     
  -70246234.6317881     
  -70202092.4336335     
  -70158073.5124648     
  -70114268.4135609     
  -70070778.9646782     
  -70027719.7061322     
  -69985219.3456368     
  -69943422.1302100     
  -69902488.9719515     
  -69862598.0892589     
  -69823944.8379175     
  -69786740.2915572     
  -69751208.0159082     
  -69717578.3474503     
  -69686079.3051685     
  -69656923.2932432     
  -69630287.8394750     
  -69606289.8865215     
  -69584946.9301028     
  -69566123.8686318     
  -69549439.1808104     
  -69534061.8530681     
  -69518413.4303158     
  -69498387.0379482     
  -69463734.6701649     
  -72222570.5563945     
  -72214611.3004584     
  -72210118.8754541     
  -72206188.1210293     
  -72201898.9345303     
  -72196902.0621890     
  -72191004.8082118     
  -72184125.2405794     
  -72176234.0704105     
  -72167337.8769569     
  -72157465.2590237     
  -72146657.9012504     
  -72134964.3268746     
  -72122435.2126726     
  -72109120.2564813     
  -72095066.0631140     
  -72080314.9126129     
  -72064904.1409214     
  -72048865.9731650     
  -72032227.6544047     
  -72015011.7679122     
  -71997236.6562085     
  -71978916.8858249     
  -71960063.7158300     
  -71940685.5449468     
  -71920788.3229698     
  -71900375.9197506     
  -71879450.4501826     
  -71858012.5568376     
  -71836061.6538099     
  -71813596.1362343     
  -71790613.5602577     
  -71767110.7981101     
  -71743084.1725873     
  -71718529.5747679     
  -71693442.5682912     
  -71667818.4829992     
  -71641652.5002932     
  -71614939.7321346     
  -71587675.2952682     
  -71559854.3819490     
  -71531472.3282073     
  -71502524.6805049     
  -71473007.2614761     
  -71442916.2353235     
  -71412248.1733740     
  -71381000.1202054     
  -71349169.6607321     
  -71316754.9885913     
  -71283754.9761554     
  -71250169.2464862     
  -71215998.2475398     
  -71181243.3289351     
  -71145906.8216188     
  -71109992.1207702     
  -71073503.7723374     
  -71036447.5636376     
  -70998830.6185431     
  -70960661.4978586     
  -70921950.3056757     
  -70882708.8026494     
  -70842950.5274543     
  -70802690.9280025     
  -70761947.5044834     
  -70720739.9669043     
  -70679090.4105449     
  -70637023.5137098     
  -70594566.7633207     
  -70551750.7152487     
  -70508609.2979364     
  -70465180.1696241     
  -70421505.1414658     
  -70377630.6807688     
  -70333608.5103600     
  -70289496.3213649     
  -70245358.6169719     
  -70201267.7034066     
  -70157304.8404621     
  -70113561.5561313     
  -70070141.1168293     
  -70027160.1239270     
  -69984750.1769713     
  -69943059.5005050     
  -69902254.3725668     
  -69862520.1170766     
  -69824061.3204277     
  -69787100.8331947     
  -69751876.9394361     
  -69718638.0598394     
  -69687633.9196708     
  -69659102.6508162     
  -69633251.7169420     
  -69610232.6505784     
  -69590105.1590876     
  -69572781.7771825     
  -69557961.0695712     
  -69544896.4309537     
  -69532214.6861702     
  -69516267.4963753     
  -69485503.3331977     
  -72216539.0286827     
  -72209797.1839935     
  -72206418.7276507     
  -72203224.0608222     
  -72199505.4177586     
  -72194952.8572416     
  -72189402.8908771     
  -72182795.8054161     
  -72175114.7818454     
  -72166378.3808134     
  -72156624.2605473     
  -72145902.2380472     
  -72134267.6145340     
  -72121776.8116201     
  -72108484.2608395     
  -72094440.4057257     
  -72079690.5805508     
  -72064274.5040347     
  -72048226.2280957     
  -72031574.3719324     
  -72014342.5344682     
  -71996549.7949887     
  -71978211.2449016     
  -71959338.5103798     
  -71939940.2425815     
  -71920022.5624661     
  -71899589.4551955     
  -71878643.1140074     
  -71857184.2365845     
  -71835212.2786271     
  -71812725.6700628     
  -71789721.9994599     
  -71766198.1719092     
  -71742150.5451689     
  -71717575.0482600     
  -71692467.2861131     
  -71666822.6332607     
  -71640636.3190671     
  -71613903.5065230     
  -71586619.3662345     
  -71558779.1469323     
  -71530378.2435628     
  -71501412.2638097     
  -71471877.0937479     
  -71441768.9632098     
  -71411084.5113386     
  -71379820.8527585     
  -71347975.6447232     
  -71315547.1555858     
  -71282534.3349101     
  -71248936.8855160     
  -71214755.3377774     
  -71179991.1264587     
  -71144646.6704208     
  -71108725.4555184     
  -71072232.1210660     
  -71035172.5502907     
  -70997553.9652602     
  -70959385.0268844     
  -70920675.9407257     
  -70881438.5695696     
  -70841686.5539715     
  -70801435.4423624     
  -70760702.8327850     
  -70719508.5289732     
  -70677874.7142748     
  -70635826.1479628     
  -70593390.3896981     
  -70550598.0594510     
  -70507483.1419496     
  -70464083.3467729     
  -70420440.5374313     
  -70376601.2451183     
  -70332617.2850499     
  -70288546.4951079     
  -70244453.6174652     
  -70200411.3432075     
  -70156501.5368127     
  -70112816.6503934     
  -70069461.3248523     
  -70026554.1553383     
  -69984229.5663461     
  -69942639.7005520     
  -69901956.1579206     
  -69862371.3547310     
  -69824099.1407116     
  -69787374.2464825     
  -69752449.8850040     
  -69719592.8720579     
  -69689075.2287044     
  -69661161.3363373     
  -69636090.1000544     
  -69614047.9325011     
  -69595140.7495037     
  -69579328.8486795     
  -69566396.9234807     
  -69555711.7073073     
  -69546052.8076543     
  -69534612.8447434     
  -69508739.2506887     
  -72210074.6938320     
  -72204909.9490429     
  -72202731.8376318     
  -72200275.5330525     
  -72197147.4332583     
  -72193040.4598518     
  -72187840.5168884     
  -72181505.4696884     
  -72174033.1357172     
  -72165454.3532152     
  -72155816.0207836     
  -72145176.4840331     
  -72133597.8962204     
  -72121142.6023904     
  -72107869.8144273     
  -72093833.8721493     
  -72079083.1750031     
  -72063659.8281991     
  -72047599.6983941     
  -72030932.7621761     
  -72013683.6132767     
  -71995872.0462515     
  -71977513.6563144     
  -71958620.4171609     
  -71939201.2147170     
  -71919262.3255428     
  -71898807.8366315     
  -71877840.0080364     
  -71856359.5827766     
  -71834366.0499111     
  -71811857.8672194     
  -71788832.6498401     
  -71765287.3307726     
  -71741218.2985173     
  -71716621.5164100     
  -71691492.6275113     
  -71665827.0482573     
  -71639620.0534829     
  -71612866.8549413     
  -71585562.6750088     
  -71557702.8169416     
  -71529282.7327498     
  -71500298.0895600     
  -71470744.8351665     
  -71440619.2633352     
  -71409918.0793541     
  -71378638.4662165     
  -71346778.1518285     
  -71314335.4775482     
  -71281309.4683763     
  -71247699.9050891     
  -71213507.3986095     
  -71178733.4669014     
  -71143380.6146968     
  -71107452.4163730     
  -71070953.6023301     
  -71033890.1492722     
  -70996269.3748534     
  -70958100.0372638     
  -70919392.4404664     
  -70880158.5460031     
  -70840412.0925667     
  -70800168.7249061     
  -70759446.1341523     
  -70718264.2122837     
  -70676645.2243463     
  -70634614.0030711     
  -70592198.1719264     
  -70549428.4042496     
  -70506338.7280810     
  -70462966.8885746     
  -70419354.7824073     
  -70375548.9813216     
  -70331601.3646152     
  -70287569.8828170     
  -70243519.4763121     
  -70199523.1729123     
  -70155663.3858018     
  -70112033.4274195     
  -70068739.2423887     
  -70025901.3436951     
  -69983656.9040356     
  -69942161.9110598     
  -69901593.2309313     
  -69862150.3364586     
  -69824056.3689637     
  -69787557.9974324     
  -69752923.6089461     
  -69720438.6169844     
  -69690398.0672353     
  -69663092.9024002     
  -69638795.0635526     
  -69617726.5765723     
  -69600040.7538300     
  -69585754.2878206     
  -69574719.4957543     
  -69566496.8544585     
  -69559873.3991840     
  -69553288.3912973     
  -69533741.3262367     
  -72203070.9106968     
  -72200024.8426046     
  -72199059.4778967     
  -72197348.6207615     
  -72194832.6296311     
  -72191166.8107286     
  -72186321.8231079     
  -72180256.1886553     
  -72172991.4223691     
  -72164567.3376559     
  -72155041.9100013     
  -72144481.6673934     
  -72132955.9901886     
  -72120533.2038713     
  -72107277.3838942     
  -72093246.8072481     
  -72078492.9462340     
  -72063060.2924687     
  -72046986.5094909     
  -72030302.9117234     
  -72013035.0628596     
  -71995203.4489324     
  -71976824.1454566     
  -71957909.4524778     
  -71938468.4716241     
  -71918507.6185286     
  -71898031.0677844     
  -71877041.1342098     
  -71855538.5960111     
  -71833522.9671115     
  -71810992.7260356     
  -71787945.5085418     
  -71764378.2705317     
  -71740287.4270010     
  -71715668.9719614     
  -71690518.5834484     
  -71664831.7170232     
  -71638603.6905086     
  -71611829.7621656     
  -71584505.2040650     
  -71556625.3720406     
  -71528185.7733223     
  -71499182.1327060     
  -71469610.4579825     
  -71439467.1051631     
  -71408748.8439994     
  -71377452.9241796     
  -71345577.1425723     
  -71313119.9118233     
  -71280080.3306160     
  -71246458.2558783     
  -71212254.3772096     
  -71177470.2938252     
  -71142108.5942889     
  -71106172.9393511     
  -71069668.1482247     
  -71032600.2886664     
  -70994976.7713244     
  -70956806.4488724     
  -70918099.7206326     
  -70878868.6435671     
  -70839127.0508107     
  -70798890.6792911     
  -70758177.3085221     
  -70717006.9133249     
  -70675401.8341347     
  -70633386.9696977     
  -70590989.9983928     
  -70548241.6361899     
  -70505175.9413833     
  -70461830.6787418     
  -70418247.7585547     
  -70374473.7691453     
  -70330560.6246354     
  -70286566.3526246     
  -70242556.0489185     
  -70198603.0269581     
  -70154790.1888909     
  -70111211.6381992     
  -70067974.5462339     
  -70025201.2583379     
  -69983031.6097116     
  -69941625.3441432     
  -69901164.5274450     
  -69861855.6304814     
  -69823931.0999177     
  -69787649.5891897     
  -69753294.8392850     
  -69721171.2109217     
  -69691597.0202431     
  -69664891.2844769     
  -69641357.6184692     
  -69621260.9950602     
  -69604788.9725019     
  -69592050.7524650     
  -69582898.8247912     
  -69577228.3261464     
  -69573672.2910268     
  -69571995.4991681     
  -69560936.3302133     
  -72195364.0148487     
  -72195306.4115984     
  -72195353.6042345     
  -72194473.0271485     
  -72192559.4875353     
  -72189337.1114580     
  -72184850.2352071     
  -72179049.9521473     
  -72171992.1481117     
  -72163718.7147564     
  -72154303.4289428     
  -72143818.7368193     
  -72132342.7542310     
  -72119949.2008419     
  -72106707.4394798     
  -72092679.5380788     
  -72077920.1379715     
  -72062476.0643265     
  -72046386.7790458     
  -72029684.8989094     
  -72012396.9352125     
  -71994544.0360155     
  -71976142.7328103     
  -71957205.6283991     
  -71937742.0200444     
  -71917758.4447735     
  -71897259.1498908     
  -71876246.4923788     
  -71854721.2751362     
  -71832683.0282093     
  -71810130.2436114     
  -71787060.5716778     
  -71763470.9861553     
  -71739357.9242694     
  -71714717.4070653     
  -71689545.1444040     
  -71663836.6282085     
  -71637587.2168187     
  -71610792.2127654     
  -71583446.9357443     
  -71555546.7922348     
  -71527087.3428455     
  -71498064.3682781     
  -71468473.9345973     
  -71438312.4583696     
  -71407576.7721342     
  -71376264.1905963     
  -71344372.5778935     
  -71311900.4162420     
  -71278846.8762498     
  -71245211.8891851     
  -71210996.2214562     
  -71176201.5515789     
  -71140830.5499104     
  -71104886.9614310     
  -71068375.6918979     
  -71031302.8977154     
  -70993676.0799462     
  -70955504.1829743     
  -70916797.6984764     
  -70877568.7755404     
  -70837831.3380990     
  -70797601.2111806     
  -70756896.2580537     
  -70715736.5310504     
  -70674144.4397734     
  -70632144.9416122     
  -70589765.7610133     
  -70547037.6458565     
  -70503994.6715759     
  -70460674.6064271     
  -70417119.3544106     
  -70373375.4958988     
  -70329494.9496167     
  -70285535.7833319     
  -70241563.2033005     
  -70197650.7549489     
  -70153881.7651127     
  -70110351.0551230     
  -70067166.9365379     
  -70024453.4984547     
  -69982353.1305358     
  -69941029.2540583     
  -69900669.0048332     
  -69861485.8708567     
  -69823721.4081963     
  -69787646.6543212     
  -69753560.1391713     
  -69721786.8789101     
  -69692666.1437772     
  -69666551.0575800     
  -69643767.9046076     
  -69624643.4520797     
  -69609372.0285597     
  -69598197.8954846     
  -69590941.4750919     
  -69587788.4350625     
  -69587641.8638926     
  -69590079.6137433     
  -69590978.4866838     
  -72186678.2174359     
  -72191127.2141897     
  -72191404.7948465     
  -72191782.4026378     
  -72190266.4669347     
  -72187589.5890838     
  -72183411.8474564     
  -72177897.7356329     
  -72171033.3246235     
  -72162912.1283191     
  -72153600.9726257     
  -72143189.1793923     
  -72131758.7756206     
  -72119391.2945502     
  -72106160.3791048     
  -72092132.4091166     
  -72077364.9688615     
  -72061907.3074668     
  -72045800.6122752     
  -72029078.7953432     
  -72011769.2745361     
  -71993893.8347462     
  -71975469.4335625     
  -71956508.9527415     
  -71937021.8630658     
  -71917014.8046179     
  -71896492.0816581     
  -71875456.0802933     
  -71853907.6172432     
  -71831846.2297198     
  -71809270.4158210     
  -71786177.8343361     
  -71762565.4717582     
  -71738429.7832622     
  -71713766.8132878     
  -71688572.3003858     
  -71662841.7700882     
  -71636570.6188032     
  -71609754.1911037     
  -71582387.8522616     
  -71554467.0574745     
  -71525987.4189032     
  -71496944.7713918     
  -71467335.2375636     
  -71437155.2928512     
  -71406401.8309048     
  -71375072.2297675     
  -71343164.4191525     
  -71310676.9491242     
  -71277609.0604569     
  -71243960.7569486     
  -71209732.8799412     
  -71174927.1853044     
  -71139546.4231524     
  -71103594.4205576     
  -71067076.1675628     
  -71029997.9068225     
  -70992367.2272582     
  -70954193.1622220     
  -70915486.2927667     
  -70876258.8568607     
  -70836524.8656476     
  -70796300.2282414     
  -70755602.8871144     
  -70714452.9668679     
  -70672872.9401375     
  -70630887.8156711     
  -70588525.3552115     
  -70545816.3278567     
  -70502794.8130341     
  -70459498.5662157     
  -70415969.4649223     
  -70372254.0564712     
  -70328404.2331491     
  -70284478.0645041     
  -70240540.8205787     
  -70196666.2217107     
  -70152937.9525878     
  -70109451.4711275     
  -70066316.1418284     
  -70023657.6869497     
  -69981620.9597284     
  -69940372.9061248     
  -69900105.7158363     
  -69861039.6170044     
  -69823425.6507162     
  -69787546.3545367     
  -69753717.1423326     
  -69722279.6919222     
  -69693603.8912922     
  -69668057.7669939     
  -69646033.9636294     
  -69627830.3889362     
  -69613845.6060906     
  -69604043.7365867     
  -69599093.2126916     
  -69597645.1950959     
  -69602617.6952945     
  -69606057.0660652     
  -69624969.1451142     
